TimeStep;Np;Nbound;Nfixed;Nmoving;Nfloat;Nfluid
0.0600441;10047;2448;2448;0;0;7599

Pos.x;Pos.y;Pos.z;Idp;Vel.x;Vel.y;Vel.z;Rhop;Mass;Press;Type;Acec.x;Acec.y;Acec.z;CellOffSpring;GradVel;Qfxx;Qfxy;Qfxz;Qfyy;Qfyz;Qfzz;StrainDot.x;StrainDot.y;StrainDot.z;VonMises3D;
 -1.9000000E-01;  9.9999998E-03; -4.4999999E-01;89;  0.0000000E+00;  0.0000000E+00;  0.0000000E+00;  1.0000000E+03;  1.0000000E-01;  0.0000000E+00;0;  0.0000000E+00;  0.0000000E+00;  0.0000000E+00;0;  0.0000000E+00;  4.0000000E+04;  0.0000000E+00;  0.0000000E+00;  4.0000000E+04;  0.0000000E+00;  4.0000000E+04;  0.0000000E+00;  0.0000000E+00;  0.0000000E+00;  0.0000000E+00;
 -1.8000001E-01;  9.9999998E-03; -4.4999999E-01;180;  0.0000000E+00;  0.0000000E+00;  0.0000000E+00;  1.0000000E+03;  1.0000000E-01;  0.0000000E+00;0;  0.0000000E+00;  0.0000000E+00;  0.0000000E+00;0;  0.0000000E+00;  4.0000000E+04;  0.0000000E+00;  0.0000000E+00;  4.0000000E+04;  0.0000000E+00;  4.0000000E+04;  0.0000000E+00;  0.0000000E+00;  0.0000000E+00;  0.0000000E+00;
 -1.7000000E-01;  9.9999998E-03; -4.4999999E-01;271;  0.0000000E+00;  0.0000000E+00;  0.0000000E+00;  1.0000000E+03;  1.0000000E-01;  0.0000000E+00;0;  0.0000000E+00;  0.0000000E+00;  0.0000000E+00;0;  0.0000000E+00;  4.0000000E+04;  0.0000000E+00;  0.0000000E+00;  4.0000000E+04;  0.0000000E+00;  4.0000000E+04;  0.0000000E+00;  0.0000000E+00;  0.0000000E+00;  0.0000000E+00;
 -1.6000000E-01;  9.9999998E-03; -4.4999999E-01;362;  0.0000000E+00;  0.0000000E+00;  0.0000000E+00;  1.0000000E+03;  1.0000000E-01;  0.0000000E+00;0;  0.0000000E+00;  0.0000000E+00;  0.0000000E+00;0;  0.0000000E+00;  4.0000000E+04;  0.0000000E+00;  0.0000000E+00;  4.0000000E+04;  0.0000000E+00;  4.0000000E+04;  0.0000000E+00;  0.0000000E+00;  0.0000000E+00;  0.0000000E+00;
 -1.5000001E-01;  9.9999998E-03; -4.4999999E-01;453;  0.0000000E+00;  0.0000000E+00;  0.0000000E+00;  1.0000000E+03;  1.0000000E-01;  0.0000000E+00;0;  0.0000000E+00;  0.0000000E+00;  0.0000000E+00;0;  0.0000000E+00;  4.0000000E+04;  0.0000000E+00;  0.0000000E+00;  4.0000000E+04;  0.0000000E+00;  4.0000000E+04;  0.0000000E+00;  0.0000000E+00;  0.0000000E+00;  0.0000000E+00;
 -1.4000000E-01;  9.9999998E-03; -4.4999999E-01;544;  0.0000000E+00;  0.0000000E+00;  0.0000000E+00;  1.0000000E+03;  1.0000000E-01;  0.0000000E+00;0;  0.0000000E+00;  0.0000000E+00;  0.0000000E+00;0;  0.0000000E+00;  4.0000000E+04;  0.0000000E+00;  0.0000000E+00;  4.0000000E+04;  0.0000000E+00;  4.0000000E+04;  0.0000000E+00;  0.0000000E+00;  0.0000000E+00;  0.0000000E+00;
 -1.3000000E-01;  9.9999998E-03; -4.4999999E-01;635;  0.0000000E+00;  0.0000000E+00;  0.0000000E+00;  1.0000000E+03;  1.0000000E-01;  0.0000000E+00;0;  0.0000000E+00;  0.0000000E+00;  0.0000000E+00;0;  0.0000000E+00;  4.0000000E+04;  0.0000000E+00;  0.0000000E+00;  4.0000000E+04;  0.0000000E+00;  4.0000000E+04;  0.0000000E+00;  0.0000000E+00;  0.0000000E+00;  0.0000000E+00;
 -1.2000000E-01;  9.9999998E-03; -4.4999999E-01;726;  0.0000000E+00;  0.0000000E+00;  0.0000000E+00;  1.0000000E+03;  1.0000000E-01;  0.0000000E+00;0;  0.0000000E+00;  0.0000000E+00;  0.0000000E+00;0;  0.0000000E+00;  4.0000000E+04;  0.0000000E+00;  0.0000000E+00;  4.0000000E+04;  0.0000000E+00;  4.0000000E+04;  0.0000000E+00;  0.0000000E+00;  0.0000000E+00;  0.0000000E+00;
 -1.1000000E-01;  9.9999998E-03; -4.4999999E-01;817;  0.0000000E+00;  0.0000000E+00;  0.0000000E+00;  1.0000000E+03;  1.0000000E-01;  0.0000000E+00;0;  0.0000000E+00;  0.0000000E+00;  0.0000000E+00;0;  0.0000000E+00;  4.0000000E+04;  0.0000000E+00;  0.0000000E+00;  4.0000000E+04;  0.0000000E+00;  4.0000000E+04;  0.0000000E+00;  0.0000000E+00;  0.0000000E+00;  0.0000000E+00;
 -1.0000000E-01;  9.9999998E-03; -4.4999999E-01;908;  0.0000000E+00;  0.0000000E+00;  0.0000000E+00;  1.0000000E+03;  1.0000000E-01;  0.0000000E+00;0;  0.0000000E+00;  0.0000000E+00;  0.0000000E+00;0;  0.0000000E+00;  4.0000000E+04;  0.0000000E+00;  0.0000000E+00;  4.0000000E+04;  0.0000000E+00;  4.0000000E+04;  0.0000000E+00;  0.0000000E+00;  0.0000000E+00;  0.0000000E+00;
 -9.0000004E-02;  9.9999998E-03; -4.4999999E-01;999;  0.0000000E+00;  0.0000000E+00;  0.0000000E+00;  1.0000000E+03;  1.0000000E-01;  0.0000000E+00;0;  0.0000000E+00;  0.0000000E+00;  0.0000000E+00;0;  0.0000000E+00;  4.0000000E+04;  0.0000000E+00;  0.0000000E+00;  4.0000000E+04;  0.0000000E+00;  4.0000000E+04;  0.0000000E+00;  0.0000000E+00;  0.0000000E+00;  0.0000000E+00;
 -7.9999998E-02;  9.9999998E-03; -4.4999999E-01;1090;  0.0000000E+00;  0.0000000E+00;  0.0000000E+00;  1.0000000E+03;  1.0000000E-01;  0.0000000E+00;0;  0.0000000E+00;  0.0000000E+00;  0.0000000E+00;0;  0.0000000E+00;  4.0000000E+04;  0.0000000E+00;  0.0000000E+00;  4.0000000E+04;  0.0000000E+00;  4.0000000E+04;  0.0000000E+00;  0.0000000E+00;  0.0000000E+00;  0.0000000E+00;
 -7.0000000E-02;  9.9999998E-03; -4.4999999E-01;1181;  0.0000000E+00;  0.0000000E+00;  0.0000000E+00;  1.0000000E+03;  1.0000000E-01;  0.0000000E+00;0;  0.0000000E+00;  0.0000000E+00;  0.0000000E+00;0;  0.0000000E+00;  4.0000000E+04;  0.0000000E+00;  0.0000000E+00;  4.0000000E+04;  0.0000000E+00;  4.0000000E+04;  0.0000000E+00;  0.0000000E+00;  0.0000000E+00;  8.6648275E-12;
 -5.9999999E-02;  9.9999998E-03; -4.4999999E-01;1272;  0.0000000E+00;  0.0000000E+00;  0.0000000E+00;  1.0000000E+03;  1.0000000E-01;  0.0000000E+00;0;  0.0000000E+00;  0.0000000E+00;  0.0000000E+00;0;  6.9372811E-07;  4.0000000E+04;  0.0000000E+00;  0.0000000E+00;  4.0000000E+04;  0.0000000E+00;  4.0000000E+04;  1.2687815E-07;  0.0000000E+00;  5.6684996E-07;  3.1598363E-02;
 -5.0000001E-02;  9.9999998E-03; -4.4999999E-01;1363;  0.0000000E+00;  0.0000000E+00;  0.0000000E+00;  1.0000000E+03;  1.0000000E-01;  0.0000000E+00;0;  0.0000000E+00;  0.0000000E+00;  0.0000000E+00;0;  5.6986059E-06;  4.0000000E+04;  0.0000000E+00;  0.0000000E+00;  4.0000000E+04;  0.0000000E+00;  4.0000000E+04;  9.4915151E-07;  0.0000000E+00;  4.7494545E-06;  2.5256670E-01;
 -3.9999999E-02;  9.9999998E-03; -4.4999999E-01;1454;  0.0000000E+00;  0.0000000E+00;  0.0000000E+00;  1.0000000E+03;  1.0000000E-01;  0.0000000E+00;0;  0.0000000E+00;  0.0000000E+00;  0.0000000E+00;0;  2.1155374E-05;  4.0000000E+04;  0.0000000E+00;  0.0000000E+00;  4.0000000E+04;  0.0000000E+00;  4.0000000E+04;  3.2177404E-06;  0.0000000E+00;  1.7937635E-05;  8.6316544E-01;
 -2.9999999E-02;  9.9999998E-03; -4.4999999E-01;1545;  0.0000000E+00;  0.0000000E+00;  0.0000000E+00;  1.0000000E+03;  1.0000000E-01;  0.0000000E+00;0;  0.0000000E+00;  0.0000000E+00;  0.0000000E+00;0;  5.3152420E-05;  4.0000000E+04;  0.0000000E+00;  0.0000000E+00;  4.0000000E+04;  0.0000000E+00;  4.0000000E+04;  7.3328379E-06;  0.0000000E+00;  4.5819583E-05;  1.9522943E+00;
 -2.0000000E-02;  9.9999998E-03; -4.4999999E-01;1636;  0.0000000E+00;  0.0000000E+00;  0.0000000E+00;  1.0000000E+03;  1.0000000E-01;  0.0000000E+00;0;  0.0000000E+00;  0.0000000E+00;  0.0000000E+00;0;  1.0457147E-04;  4.0000000E+04;  0.0000000E+00;  0.0000000E+00;  4.0000000E+04;  0.0000000E+00;  4.0000000E+04;  1.2946779E-05;  0.0000000E+00;  9.1624694E-05;  3.4044037E+00;
 -9.9999998E-03;  9.9999998E-03; -4.4999999E-01;1727;  0.0000000E+00;  0.0000000E+00;  0.0000000E+00;  1.0000000E+03;  1.0000000E-01;  0.0000000E+00;0;  0.0000000E+00;  0.0000000E+00;  0.0000000E+00;0;  1.7294211E-04;  4.0000000E+04;  0.0000000E+00;  0.0000000E+00;  4.0000000E+04;  0.0000000E+00;  4.0000000E+04;  1.8984356E-05;  0.0000000E+00;  1.5395775E-04;  4.9120488E+00;
  0.0000000E+00;  9.9999998E-03; -4.4999999E-01;1818;  0.0000000E+00;  0.0000000E+00;  0.0000000E+00;  1.0000000E+03;  1.0000000E-01;  0.0000000E+00;0;  0.0000000E+00;  0.0000000E+00;  0.0000000E+00;0;  2.5025962E-04;  4.0000000E+04;  0.0000000E+00;  0.0000000E+00;  4.0000000E+04;  0.0000000E+00;  4.0000000E+04;  2.4054109E-05;  0.0000000E+00;  2.2620551E-04;  6.0667815E+00;
  9.9999998E-03;  9.9999998E-03; -4.4999999E-01;1850;  0.0000000E+00;  0.0000000E+00;  0.0000000E+00;  1.0000000E+03;  1.0000000E-01;  0.0000000E+00;0;  0.0000000E+00;  0.0000000E+00;  0.0000000E+00;0;  3.2487864E-04;  4.0000000E+04;  0.0000000E+00;  0.0000000E+00;  4.0000000E+04;  0.0000000E+00;  4.0000000E+04;  2.7051905E-05;  0.0000000E+00;  2.9782674E-04;  6.4892035E+00;
  2.0000000E-02;  9.9999998E-03; -4.4999999E-01;1880;  0.0000000E+00;  0.0000000E+00;  0.0000000E+00;  1.0000000E+03;  1.0000000E-01;  0.0000000E+00;0;  0.0000000E+00;  0.0000000E+00;  0.0000000E+00;0;  3.8476533E-04;  4.0000000E+04;  0.0000000E+00;  0.0000000E+00;  4.0000000E+04;  0.0000000E+00;  4.0000000E+04;  2.7670510E-05;  0.0000000E+00;  3.5709480E-04;  5.9561043E+00;
  2.9999999E-02;  9.9999998E-03; -4.4999999E-01;1910;  0.0000000E+00;  0.0000000E+00;  0.0000000E+00;  1.0000000E+03;  1.0000000E-01;  0.0000000E+00;0;  0.0000000E+00;  0.0000000E+00;  0.0000000E+00;0;  4.2096450E-04;  4.0000000E+04;  0.0000000E+00;  0.0000000E+00;  4.0000000E+04;  0.0000000E+00;  4.0000000E+04;  2.6588756E-05;  0.0000000E+00;  3.9437573E-04;  4.4888301E+00;
  3.9999999E-02;  9.9999998E-03; -4.4999999E-01;1940;  0.0000000E+00;  0.0000000E+00;  0.0000000E+00;  1.0000000E+03;  1.0000000E-01;  0.0000000E+00;0;  0.0000000E+00;  0.0000000E+00;  0.0000000E+00;0;  4.3016448E-04;  4.0000000E+04;  0.0000000E+00;  0.0000000E+00;  4.0000000E+04;  0.0000000E+00;  4.0000000E+04;  2.5246582E-05;  0.0000000E+00;  4.0491790E-04;  2.3751023E+00;
  5.0000001E-02;  9.9999998E-03; -4.4999999E-01;1970;  0.0000000E+00;  0.0000000E+00;  0.0000000E+00;  1.0000000E+03;  1.0000000E-01;  0.0000000E+00;0;  0.0000000E+00;  0.0000000E+00;  0.0000000E+00;0;  4.1557051E-04;  4.0000000E+04;  0.0000000E+00;  0.0000000E+00;  4.0000000E+04;  0.0000000E+00;  4.0000000E+04;  2.5304762E-05;  0.0000000E+00;  3.9026575E-04;  1.2057266E-01;
  5.9999999E-02;  9.9999998E-03; -4.4999999E-01;2000;  0.0000000E+00;  0.0000000E+00;  0.0000000E+00;  1.0000000E+03;  1.0000000E-01;  0.0000000E+00;0;  0.0000000E+00;  0.0000000E+00;  0.0000000E+00;0;  3.8585570E-04;  4.0000000E+04;  0.0000000E+00;  0.0000000E+00;  4.0000000E+04;  0.0000000E+00;  4.0000000E+04;  2.8069502E-05;  0.0000000E+00;  3.5778619E-04;  1.7233515E+00;
  7.0000000E-02;  9.9999998E-03; -4.4999999E-01;2030;  0.0000000E+00;  0.0000000E+00;  0.0000000E+00;  1.0000000E+03;  1.0000000E-01;  0.0000000E+00;0;  0.0000000E+00;  0.0000000E+00;  0.0000000E+00;0;  3.5271954E-04;  4.0000000E+04;  0.0000000E+00;  0.0000000E+00;  4.0000000E+04;  0.0000000E+00;  4.0000000E+04;  3.4158187E-05;  0.0000000E+00;  3.1856136E-04;  2.6442306E+00;
  7.9999998E-02;  9.9999998E-03; -4.4999999E-01;2060;  0.0000000E+00;  0.0000000E+00;  0.0000000E+00;  1.0000000E+03;  1.0000000E-01;  0.0000000E+00;0;  0.0000000E+00;  0.0000000E+00;  0.0000000E+00;0;  3.2797531E-04;  4.0000000E+04;  0.0000000E+00;  0.0000000E+00;  4.0000000E+04;  0.0000000E+00;  4.0000000E+04;  4.3487922E-05;  0.0000000E+00;  2.8448738E-04;  2.6583467E+00;
  9.0000004E-02;  9.9999998E-03; -4.4999999E-01;2090;  0.0000000E+00;  0.0000000E+00;  0.0000000E+00;  1.0000000E+03;  1.0000000E-01;  0.0000000E+00;0;  0.0000000E+00;  0.0000000E+00;  0.0000000E+00;0;  3.2038116E-04;  4.0000000E+04;  0.0000000E+00;  0.0000000E+00;  4.0000000E+04;  0.0000000E+00;  4.0000000E+04;  5.5616209E-05;  0.0000000E+00;  2.6476497E-04;  4.0571995E+00;
  1.0000000E-01;  9.9999998E-03; -4.4999999E-01;2120;  0.0000000E+00;  0.0000000E+00;  0.0000000E+00;  1.0000000E+03;  1.0000000E-01;  0.0000000E+00;0;  0.0000000E+00;  0.0000000E+00;  0.0000000E+00;0;  3.3324346E-04;  4.0000000E+04;  0.0000000E+00;  0.0000000E+00;  4.0000000E+04;  0.0000000E+00;  4.0000000E+04;  7.0275135E-05;  0.0000000E+00;  2.6296833E-04;  9.2734251E+00;
  1.1000000E-01;  9.9999998E-03; -4.4999999E-01;2150;  0.0000000E+00;  0.0000000E+00;  0.0000000E+00;  1.0000000E+03;  1.0000000E-01;  0.0000000E+00;0;  0.0000000E+00;  0.0000000E+00;  0.0000000E+00;0;  3.6474882E-04;  4.0000000E+04;  0.0000000E+00;  0.0000000E+00;  4.0000000E+04;  0.0000000E+00;  4.0000000E+04;  8.7324981E-05;  0.0000000E+00;  2.7742385E-04;  1.7952188E+01;
  1.2000000E-01;  9.9999998E-03; -4.4999999E-01;2180;  0.0000000E+00;  0.0000000E+00;  0.0000000E+00;  1.0000000E+03;  1.0000000E-01;  0.0000000E+00;0;  0.0000000E+00;  0.0000000E+00;  0.0000000E+00;0;  4.0902969E-04;  4.0000000E+04;  0.0000000E+00;  0.0000000E+00;  4.0000000E+04;  0.0000000E+00;  4.0000000E+04;  1.0674168E-04;  0.0000000E+00;  3.0228801E-04;  2.9296522E+01;
  1.3000000E-01;  9.9999998E-03; -4.4999999E-01;2210;  0.0000000E+00;  0.0000000E+00;  0.0000000E+00;  1.0000000E+03;  1.0000000E-01;  0.0000000E+00;0;  0.0000000E+00;  0.0000000E+00;  0.0000000E+00;0;  4.5803952E-04;  4.0000000E+04;  0.0000000E+00;  0.0000000E+00;  4.0000000E+04;  0.0000000E+00;  4.0000000E+04;  1.2959492E-04;  0.0000000E+00;  3.2844458E-04;  4.0022591E+01;
  1.4000000E-01;  9.9999998E-03; -4.4999999E-01;2240;  0.0000000E+00;  0.0000000E+00;  0.0000000E+00;  1.0000000E+03;  1.0000000E-01;  0.0000000E+00;0;  0.0000000E+00;  0.0000000E+00;  0.0000000E+00;0;  5.0295878E-04;  4.0000000E+04;  0.0000000E+00;  0.0000000E+00;  4.0000000E+04;  0.0000000E+00;  4.0000000E+04;  1.5924210E-04;  0.0000000E+00;  3.4371670E-04;  4.0627026E+01;
  1.5000001E-01;  9.9999998E-03; -4.4999999E-01;2270;  0.0000000E+00;  0.0000000E+00;  0.0000000E+00;  1.0000000E+03;  1.0000000E-01;  0.0000000E+00;0;  0.0000000E+00;  0.0000000E+00;  0.0000000E+00;0;  5.3392898E-04;  4.0000000E+04;  0.0000000E+00;  0.0000000E+00;  4.0000000E+04;  0.0000000E+00;  4.0000000E+04;  1.9940200E-04;  0.0000000E+00;  3.3452699E-04;  1.1452309E+01;
  1.6000000E-01;  9.9999998E-03; -4.4999999E-01;2300;  0.0000000E+00;  0.0000000E+00;  0.0000000E+00;  1.0000000E+03;  1.0000000E-01;  0.0000000E+00;0;  0.0000000E+00;  0.0000000E+00;  0.0000000E+00;0;  5.3843198E-04;  4.0000000E+04;  0.0000000E+00;  0.0000000E+00;  4.0000000E+04;  0.0000000E+00;  4.0000000E+04;  2.5046230E-04;  0.0000000E+00;  2.8796968E-04;  9.0517670E+01;
  1.7000000E-01;  9.9999998E-03; -4.4999999E-01;2330;  0.0000000E+00;  0.0000000E+00;  0.0000000E+00;  1.0000000E+03;  1.0000000E-01;  0.0000000E+00;0;  0.0000000E+00;  0.0000000E+00;  0.0000000E+00;0;  4.9732206E-04;  4.0000000E+04;  0.0000000E+00;  0.0000000E+00;  4.0000000E+04;  0.0000000E+00;  4.0000000E+04;  3.0611112E-04;  0.0000000E+00;  1.9121096E-04;  3.1790018E+02;
  1.8000001E-01;  9.9999998E-03; -4.4999999E-01;2360;  0.0000000E+00;  0.0000000E+00;  0.0000000E+00;  1.0000000E+03;  1.0000000E-01;  0.0000000E+00;0;  0.0000000E+00;  0.0000000E+00;  0.0000000E+00;0;  3.8095852E-04;  4.0000000E+04;  0.0000000E+00;  0.0000000E+00;  4.0000000E+04;  0.0000000E+00;  4.0000000E+04;  3.5201642E-04;  0.0000000E+00;  2.8942091E-05;  7.4957611E+02;
  1.9000000E-01;  9.9999998E-03; -4.4999999E-01;2390;  0.0000000E+00;  0.0000000E+00;  0.0000000E+00;  1.0000000E+03;  1.0000000E-01;  0.0000000E+00;0;  0.0000000E+00;  0.0000000E+00;  0.0000000E+00;0;  1.5164340E-04;  4.0000000E+04;  0.0000000E+00;  0.0000000E+00;  4.0000000E+04;  0.0000000E+00;  4.0000000E+04;  3.6885921E-04;  0.0000000E+00; -2.1721581E-04;  1.4662041E+03;
 -1.9000000E-01;  9.9999998E-03; -4.4000000E-01;90;  0.0000000E+00;  0.0000000E+00;  0.0000000E+00;  1.0000000E+03;  1.0000000E-01;  0.0000000E+00;0;  0.0000000E+00;  0.0000000E+00;  0.0000000E+00;0;  0.0000000E+00;  4.0000000E+04;  0.0000000E+00;  0.0000000E+00;  4.0000000E+04;  0.0000000E+00;  4.0000000E+04;  0.0000000E+00;  0.0000000E+00;  0.0000000E+00;  0.0000000E+00;
 -1.9000000E-01;  9.9999998E-03; -4.3000001E-01;91;  0.0000000E+00;  0.0000000E+00;  0.0000000E+00;  1.0000000E+03;  1.0000000E-01;  0.0000000E+00;0;  0.0000000E+00;  0.0000000E+00;  0.0000000E+00;0;  0.0000000E+00;  4.0000000E+04;  0.0000000E+00;  0.0000000E+00;  4.0000000E+04;  0.0000000E+00;  4.0000000E+04;  0.0000000E+00;  0.0000000E+00;  0.0000000E+00;  0.0000000E+00;
 -1.9000000E-01;  9.9999998E-03; -4.1999999E-01;92;  0.0000000E+00;  0.0000000E+00;  0.0000000E+00;  1.0000000E+03;  1.0000000E-01;  0.0000000E+00;0;  0.0000000E+00;  0.0000000E+00;  0.0000000E+00;0;  0.0000000E+00;  4.0000000E+04;  0.0000000E+00;  0.0000000E+00;  4.0000000E+04;  0.0000000E+00;  4.0000000E+04;  0.0000000E+00;  0.0000000E+00;  0.0000000E+00;  0.0000000E+00;
 -1.9000000E-01;  9.9999998E-03; -4.1000000E-01;93;  0.0000000E+00;  0.0000000E+00;  0.0000000E+00;  1.0000000E+03;  1.0000000E-01;  0.0000000E+00;0;  0.0000000E+00;  0.0000000E+00;  0.0000000E+00;0;  0.0000000E+00;  4.0000000E+04;  0.0000000E+00;  0.0000000E+00;  4.0000000E+04;  0.0000000E+00;  4.0000000E+04;  0.0000000E+00;  0.0000000E+00;  0.0000000E+00;  0.0000000E+00;
 -1.9000000E-01;  9.9999998E-03; -4.0000001E-01;94;  0.0000000E+00;  0.0000000E+00;  0.0000000E+00;  1.0000000E+03;  1.0000000E-01;  0.0000000E+00;0;  0.0000000E+00;  0.0000000E+00;  0.0000000E+00;0;  0.0000000E+00;  4.0000000E+04;  0.0000000E+00;  0.0000000E+00;  4.0000000E+04;  0.0000000E+00;  4.0000000E+04;  0.0000000E+00;  0.0000000E+00;  0.0000000E+00;  0.0000000E+00;
 -1.9000000E-01;  9.9999998E-03; -3.8999999E-01;95;  0.0000000E+00;  0.0000000E+00;  0.0000000E+00;  1.0000000E+03;  1.0000000E-01;  0.0000000E+00;0;  0.0000000E+00;  0.0000000E+00;  0.0000000E+00;0;  0.0000000E+00;  4.0000000E+04;  0.0000000E+00;  0.0000000E+00;  4.0000000E+04;  0.0000000E+00;  4.0000000E+04;  0.0000000E+00;  0.0000000E+00;  0.0000000E+00;  0.0000000E+00;
 -1.9000000E-01;  9.9999998E-03; -3.8000000E-01;96;  0.0000000E+00;  0.0000000E+00;  0.0000000E+00;  1.0000000E+03;  1.0000000E-01;  0.0000000E+00;0;  0.0000000E+00;  0.0000000E+00;  0.0000000E+00;0;  0.0000000E+00;  4.0000000E+04;  0.0000000E+00;  0.0000000E+00;  4.0000000E+04;  0.0000000E+00;  4.0000000E+04;  0.0000000E+00;  0.0000000E+00;  0.0000000E+00;  0.0000000E+00;
 -1.9000000E-01;  9.9999998E-03; -3.7000000E-01;97;  0.0000000E+00;  0.0000000E+00;  0.0000000E+00;  1.0000000E+03;  1.0000000E-01;  0.0000000E+00;0;  0.0000000E+00;  0.0000000E+00;  0.0000000E+00;0;  0.0000000E+00;  4.0000000E+04;  0.0000000E+00;  0.0000000E+00;  4.0000000E+04;  0.0000000E+00;  4.0000000E+04;  0.0000000E+00;  0.0000000E+00;  0.0000000E+00;  0.0000000E+00;
 -1.9000000E-01;  9.9999998E-03; -3.6000001E-01;98;  0.0000000E+00;  0.0000000E+00;  0.0000000E+00;  1.0000000E+03;  1.0000000E-01;  0.0000000E+00;0;  0.0000000E+00;  0.0000000E+00;  0.0000000E+00;0;  0.0000000E+00;  4.0000000E+04;  0.0000000E+00;  0.0000000E+00;  4.0000000E+04;  0.0000000E+00;  4.0000000E+04;  0.0000000E+00;  0.0000000E+00;  0.0000000E+00;  0.0000000E+00;
 -1.9000000E-01;  9.9999998E-03; -3.4999999E-01;99;  0.0000000E+00;  0.0000000E+00;  0.0000000E+00;  1.0000000E+03;  1.0000000E-01;  0.0000000E+00;0;  0.0000000E+00;  0.0000000E+00;  0.0000000E+00;0;  0.0000000E+00;  4.0000000E+04;  0.0000000E+00;  0.0000000E+00;  4.0000000E+04;  0.0000000E+00;  4.0000000E+04;  0.0000000E+00;  0.0000000E+00;  0.0000000E+00;  0.0000000E+00;
 -1.9000000E-01;  9.9999998E-03; -3.4000000E-01;100;  0.0000000E+00;  0.0000000E+00;  0.0000000E+00;  1.0000000E+03;  1.0000000E-01;  0.0000000E+00;0;  0.0000000E+00;  0.0000000E+00;  0.0000000E+00;0;  0.0000000E+00;  4.0000000E+04;  0.0000000E+00;  0.0000000E+00;  4.0000000E+04;  0.0000000E+00;  4.0000000E+04;  0.0000000E+00;  0.0000000E+00;  0.0000000E+00;  0.0000000E+00;
 -1.9000000E-01;  9.9999998E-03; -3.3000001E-01;101;  0.0000000E+00;  0.0000000E+00;  0.0000000E+00;  1.0000000E+03;  1.0000000E-01;  0.0000000E+00;0;  0.0000000E+00;  0.0000000E+00;  0.0000000E+00;0;  0.0000000E+00;  4.0000000E+04;  0.0000000E+00;  0.0000000E+00;  4.0000000E+04;  0.0000000E+00;  4.0000000E+04;  0.0000000E+00;  0.0000000E+00;  0.0000000E+00;  0.0000000E+00;
 -1.9000000E-01;  9.9999998E-03; -3.1999999E-01;102;  0.0000000E+00;  0.0000000E+00;  0.0000000E+00;  1.0000000E+03;  1.0000000E-01;  0.0000000E+00;0;  0.0000000E+00;  0.0000000E+00;  0.0000000E+00;0;  0.0000000E+00;  4.0000000E+04;  0.0000000E+00;  0.0000000E+00;  4.0000000E+04;  0.0000000E+00;  4.0000000E+04;  0.0000000E+00;  0.0000000E+00;  0.0000000E+00;  0.0000000E+00;
 -1.9000000E-01;  9.9999998E-03; -3.1000000E-01;103;  0.0000000E+00;  0.0000000E+00;  0.0000000E+00;  1.0000000E+03;  1.0000000E-01;  0.0000000E+00;0;  0.0000000E+00;  0.0000000E+00;  0.0000000E+00;0;  0.0000000E+00;  4.0000000E+04;  0.0000000E+00;  0.0000000E+00;  4.0000000E+04;  0.0000000E+00;  4.0000000E+04;  0.0000000E+00;  0.0000000E+00;  0.0000000E+00;  0.0000000E+00;
 -1.9000000E-01;  9.9999998E-03; -3.0000001E-01;104;  0.0000000E+00;  0.0000000E+00;  0.0000000E+00;  1.0000000E+03;  1.0000000E-01;  0.0000000E+00;0;  0.0000000E+00;  0.0000000E+00;  0.0000000E+00;0;  0.0000000E+00;  4.0000000E+04;  0.0000000E+00;  0.0000000E+00;  4.0000000E+04;  0.0000000E+00;  4.0000000E+04;  0.0000000E+00;  0.0000000E+00;  0.0000000E+00;  0.0000000E+00;
 -1.9000000E-01;  9.9999998E-03; -2.8999999E-01;105;  0.0000000E+00;  0.0000000E+00;  0.0000000E+00;  1.0000000E+03;  1.0000000E-01;  0.0000000E+00;0;  0.0000000E+00;  0.0000000E+00;  0.0000000E+00;0;  0.0000000E+00;  4.0000000E+04;  0.0000000E+00;  0.0000000E+00;  4.0000000E+04;  0.0000000E+00;  4.0000000E+04;  0.0000000E+00;  0.0000000E+00;  0.0000000E+00;  0.0000000E+00;
 -1.9000000E-01;  9.9999998E-03; -2.8000000E-01;106;  0.0000000E+00;  0.0000000E+00;  0.0000000E+00;  1.0000000E+03;  1.0000000E-01;  0.0000000E+00;0;  0.0000000E+00;  0.0000000E+00;  0.0000000E+00;0;  0.0000000E+00;  4.0000000E+04;  0.0000000E+00;  0.0000000E+00;  4.0000000E+04;  0.0000000E+00;  4.0000000E+04;  0.0000000E+00;  0.0000000E+00;  0.0000000E+00;  0.0000000E+00;
 -1.8000001E-01;  9.9999998E-03; -4.4000000E-01;181;  0.0000000E+00;  0.0000000E+00;  0.0000000E+00;  1.0000000E+03;  1.0000000E-01;  0.0000000E+00;0;  0.0000000E+00;  0.0000000E+00;  0.0000000E+00;0;  0.0000000E+00;  4.0000000E+04;  0.0000000E+00;  0.0000000E+00;  4.0000000E+04;  0.0000000E+00;  4.0000000E+04;  0.0000000E+00;  0.0000000E+00;  0.0000000E+00;  0.0000000E+00;
 -1.8000001E-01;  9.9999998E-03; -4.3000001E-01;182;  0.0000000E+00;  0.0000000E+00;  0.0000000E+00;  1.0000000E+03;  1.0000000E-01;  0.0000000E+00;0;  0.0000000E+00;  0.0000000E+00;  0.0000000E+00;0;  0.0000000E+00;  4.0000000E+04;  0.0000000E+00;  0.0000000E+00;  4.0000000E+04;  0.0000000E+00;  4.0000000E+04;  0.0000000E+00;  0.0000000E+00;  0.0000000E+00;  0.0000000E+00;
 -1.8000001E-01;  9.9999998E-03; -4.1999999E-01;183;  0.0000000E+00;  0.0000000E+00;  0.0000000E+00;  1.0000000E+03;  1.0000000E-01;  0.0000000E+00;0;  0.0000000E+00;  0.0000000E+00;  0.0000000E+00;0;  0.0000000E+00;  4.0000000E+04;  0.0000000E+00;  0.0000000E+00;  4.0000000E+04;  0.0000000E+00;  4.0000000E+04;  0.0000000E+00;  0.0000000E+00;  0.0000000E+00;  0.0000000E+00;
 -1.8000001E-01;  9.9999998E-03; -4.1000000E-01;184;  0.0000000E+00;  0.0000000E+00;  0.0000000E+00;  1.0000000E+03;  1.0000000E-01;  0.0000000E+00;0;  0.0000000E+00;  0.0000000E+00;  0.0000000E+00;0;  0.0000000E+00;  4.0000000E+04;  0.0000000E+00;  0.0000000E+00;  4.0000000E+04;  0.0000000E+00;  4.0000000E+04;  0.0000000E+00;  0.0000000E+00;  0.0000000E+00;  0.0000000E+00;
 -1.8000001E-01;  9.9999998E-03; -4.0000001E-01;185;  0.0000000E+00;  0.0000000E+00;  0.0000000E+00;  1.0000000E+03;  1.0000000E-01;  0.0000000E+00;0;  0.0000000E+00;  0.0000000E+00;  0.0000000E+00;0;  0.0000000E+00;  4.0000000E+04;  0.0000000E+00;  0.0000000E+00;  4.0000000E+04;  0.0000000E+00;  4.0000000E+04;  0.0000000E+00;  0.0000000E+00;  0.0000000E+00;  0.0000000E+00;
 -1.8000001E-01;  9.9999998E-03; -3.8999999E-01;186;  0.0000000E+00;  0.0000000E+00;  0.0000000E+00;  1.0000000E+03;  1.0000000E-01;  0.0000000E+00;0;  0.0000000E+00;  0.0000000E+00;  0.0000000E+00;0;  0.0000000E+00;  4.0000000E+04;  0.0000000E+00;  0.0000000E+00;  4.0000000E+04;  0.0000000E+00;  4.0000000E+04;  0.0000000E+00;  0.0000000E+00;  0.0000000E+00;  0.0000000E+00;
 -1.8000001E-01;  9.9999998E-03; -3.8000000E-01;187;  0.0000000E+00;  0.0000000E+00;  0.0000000E+00;  1.0000000E+03;  1.0000000E-01;  0.0000000E+00;0;  0.0000000E+00;  0.0000000E+00;  0.0000000E+00;0;  0.0000000E+00;  4.0000000E+04;  0.0000000E+00;  0.0000000E+00;  4.0000000E+04;  0.0000000E+00;  4.0000000E+04;  0.0000000E+00;  0.0000000E+00;  0.0000000E+00;  0.0000000E+00;
 -1.8000001E-01;  9.9999998E-03; -3.7000000E-01;188;  0.0000000E+00;  0.0000000E+00;  0.0000000E+00;  1.0000000E+03;  1.0000000E-01;  0.0000000E+00;0;  0.0000000E+00;  0.0000000E+00;  0.0000000E+00;0;  0.0000000E+00;  4.0000000E+04;  0.0000000E+00;  0.0000000E+00;  4.0000000E+04;  0.0000000E+00;  4.0000000E+04;  0.0000000E+00;  0.0000000E+00;  0.0000000E+00;  0.0000000E+00;
 -1.8000001E-01;  9.9999998E-03; -3.6000001E-01;189;  0.0000000E+00;  0.0000000E+00;  0.0000000E+00;  1.0000000E+03;  1.0000000E-01;  0.0000000E+00;0;  0.0000000E+00;  0.0000000E+00;  0.0000000E+00;0;  0.0000000E+00;  4.0000000E+04;  0.0000000E+00;  0.0000000E+00;  4.0000000E+04;  0.0000000E+00;  4.0000000E+04;  0.0000000E+00;  0.0000000E+00;  0.0000000E+00;  0.0000000E+00;
 -1.8000001E-01;  9.9999998E-03; -3.4999999E-01;190;  0.0000000E+00;  0.0000000E+00;  0.0000000E+00;  1.0000000E+03;  1.0000000E-01;  0.0000000E+00;0;  0.0000000E+00;  0.0000000E+00;  0.0000000E+00;0;  0.0000000E+00;  4.0000000E+04;  0.0000000E+00;  0.0000000E+00;  4.0000000E+04;  0.0000000E+00;  4.0000000E+04;  0.0000000E+00;  0.0000000E+00;  0.0000000E+00;  0.0000000E+00;
 -1.8000001E-01;  9.9999998E-03; -3.4000000E-01;191;  0.0000000E+00;  0.0000000E+00;  0.0000000E+00;  1.0000000E+03;  1.0000000E-01;  0.0000000E+00;0;  0.0000000E+00;  0.0000000E+00;  0.0000000E+00;0;  0.0000000E+00;  4.0000000E+04;  0.0000000E+00;  0.0000000E+00;  4.0000000E+04;  0.0000000E+00;  4.0000000E+04;  0.0000000E+00;  0.0000000E+00;  0.0000000E+00;  0.0000000E+00;
 -1.8000001E-01;  9.9999998E-03; -3.3000001E-01;192;  0.0000000E+00;  0.0000000E+00;  0.0000000E+00;  1.0000000E+03;  1.0000000E-01;  0.0000000E+00;0;  0.0000000E+00;  0.0000000E+00;  0.0000000E+00;0;  0.0000000E+00;  4.0000000E+04;  0.0000000E+00;  0.0000000E+00;  4.0000000E+04;  0.0000000E+00;  4.0000000E+04;  0.0000000E+00;  0.0000000E+00;  0.0000000E+00;  0.0000000E+00;
 -1.8000001E-01;  9.9999998E-03; -3.1999999E-01;193;  0.0000000E+00;  0.0000000E+00;  0.0000000E+00;  1.0000000E+03;  1.0000000E-01;  0.0000000E+00;0;  0.0000000E+00;  0.0000000E+00;  0.0000000E+00;0;  0.0000000E+00;  4.0000000E+04;  0.0000000E+00;  0.0000000E+00;  4.0000000E+04;  0.0000000E+00;  4.0000000E+04;  0.0000000E+00;  0.0000000E+00;  0.0000000E+00;  0.0000000E+00;
 -1.8000001E-01;  9.9999998E-03; -3.1000000E-01;194;  0.0000000E+00;  0.0000000E+00;  0.0000000E+00;  1.0000000E+03;  1.0000000E-01;  0.0000000E+00;0;  0.0000000E+00;  0.0000000E+00;  0.0000000E+00;0;  0.0000000E+00;  4.0000000E+04;  0.0000000E+00;  0.0000000E+00;  4.0000000E+04;  0.0000000E+00;  4.0000000E+04;  0.0000000E+00;  0.0000000E+00;  0.0000000E+00;  0.0000000E+00;
 -1.8000001E-01;  9.9999998E-03; -3.0000001E-01;195;  0.0000000E+00;  0.0000000E+00;  0.0000000E+00;  1.0000000E+03;  1.0000000E-01;  0.0000000E+00;0;  0.0000000E+00;  0.0000000E+00;  0.0000000E+00;0;  0.0000000E+00;  4.0000000E+04;  0.0000000E+00;  0.0000000E+00;  4.0000000E+04;  0.0000000E+00;  4.0000000E+04;  0.0000000E+00;  0.0000000E+00;  0.0000000E+00;  0.0000000E+00;
 -1.8000001E-01;  9.9999998E-03; -2.8999999E-01;196;  0.0000000E+00;  0.0000000E+00;  0.0000000E+00;  1.0000000E+03;  1.0000000E-01;  0.0000000E+00;0;  0.0000000E+00;  0.0000000E+00;  0.0000000E+00;0;  0.0000000E+00;  4.0000000E+04;  0.0000000E+00;  0.0000000E+00;  4.0000000E+04;  0.0000000E+00;  4.0000000E+04;  0.0000000E+00;  0.0000000E+00;  0.0000000E+00;  0.0000000E+00;
 -1.8000001E-01;  9.9999998E-03; -2.8000000E-01;197;  0.0000000E+00;  0.0000000E+00;  0.0000000E+00;  1.0000000E+03;  1.0000000E-01;  0.0000000E+00;0;  0.0000000E+00;  0.0000000E+00;  0.0000000E+00;0;  0.0000000E+00;  4.0000000E+04;  0.0000000E+00;  0.0000000E+00;  4.0000000E+04;  0.0000000E+00;  4.0000000E+04;  0.0000000E+00;  0.0000000E+00;  0.0000000E+00;  0.0000000E+00;
 -1.7000000E-01;  9.9999998E-03; -4.4000000E-01;272;  0.0000000E+00;  0.0000000E+00;  0.0000000E+00;  1.0000000E+03;  1.0000000E-01;  0.0000000E+00;0;  0.0000000E+00;  0.0000000E+00;  0.0000000E+00;0;  0.0000000E+00;  4.0000000E+04;  0.0000000E+00;  0.0000000E+00;  4.0000000E+04;  0.0000000E+00;  4.0000000E+04;  0.0000000E+00;  0.0000000E+00;  0.0000000E+00;  0.0000000E+00;
 -1.7000000E-01;  9.9999998E-03; -4.3000001E-01;273;  0.0000000E+00;  0.0000000E+00;  0.0000000E+00;  1.0000000E+03;  1.0000000E-01;  0.0000000E+00;0;  0.0000000E+00;  0.0000000E+00;  0.0000000E+00;0;  0.0000000E+00;  4.0000000E+04;  0.0000000E+00;  0.0000000E+00;  4.0000000E+04;  0.0000000E+00;  4.0000000E+04;  0.0000000E+00;  0.0000000E+00;  0.0000000E+00;  0.0000000E+00;
 -1.7000000E-01;  9.9999998E-03; -4.1999999E-01;274;  0.0000000E+00;  0.0000000E+00;  0.0000000E+00;  1.0000000E+03;  1.0000000E-01;  0.0000000E+00;0;  0.0000000E+00;  0.0000000E+00;  0.0000000E+00;0;  0.0000000E+00;  4.0000000E+04;  0.0000000E+00;  0.0000000E+00;  4.0000000E+04;  0.0000000E+00;  4.0000000E+04;  0.0000000E+00;  0.0000000E+00;  0.0000000E+00;  0.0000000E+00;
 -1.7000000E-01;  9.9999998E-03; -4.1000000E-01;275;  0.0000000E+00;  0.0000000E+00;  0.0000000E+00;  1.0000000E+03;  1.0000000E-01;  0.0000000E+00;0;  0.0000000E+00;  0.0000000E+00;  0.0000000E+00;0;  0.0000000E+00;  4.0000000E+04;  0.0000000E+00;  0.0000000E+00;  4.0000000E+04;  0.0000000E+00;  4.0000000E+04;  0.0000000E+00;  0.0000000E+00;  0.0000000E+00;  0.0000000E+00;
 -1.7000000E-01;  9.9999998E-03; -4.0000001E-01;276;  0.0000000E+00;  0.0000000E+00;  0.0000000E+00;  1.0000000E+03;  1.0000000E-01;  0.0000000E+00;0;  0.0000000E+00;  0.0000000E+00;  0.0000000E+00;0;  0.0000000E+00;  4.0000000E+04;  0.0000000E+00;  0.0000000E+00;  4.0000000E+04;  0.0000000E+00;  4.0000000E+04;  0.0000000E+00;  0.0000000E+00;  0.0000000E+00;  0.0000000E+00;
 -1.7000000E-01;  9.9999998E-03; -3.8999999E-01;277;  0.0000000E+00;  0.0000000E+00;  0.0000000E+00;  1.0000000E+03;  1.0000000E-01;  0.0000000E+00;0;  0.0000000E+00;  0.0000000E+00;  0.0000000E+00;0;  0.0000000E+00;  4.0000000E+04;  0.0000000E+00;  0.0000000E+00;  4.0000000E+04;  0.0000000E+00;  4.0000000E+04;  0.0000000E+00;  0.0000000E+00;  0.0000000E+00;  0.0000000E+00;
 -1.7000000E-01;  9.9999998E-03; -3.8000000E-01;278;  0.0000000E+00;  0.0000000E+00;  0.0000000E+00;  1.0000000E+03;  1.0000000E-01;  0.0000000E+00;0;  0.0000000E+00;  0.0000000E+00;  0.0000000E+00;0;  0.0000000E+00;  4.0000000E+04;  0.0000000E+00;  0.0000000E+00;  4.0000000E+04;  0.0000000E+00;  4.0000000E+04;  0.0000000E+00;  0.0000000E+00;  0.0000000E+00;  0.0000000E+00;
 -1.7000000E-01;  9.9999998E-03; -3.7000000E-01;279;  0.0000000E+00;  0.0000000E+00;  0.0000000E+00;  1.0000000E+03;  1.0000000E-01;  0.0000000E+00;0;  0.0000000E+00;  0.0000000E+00;  0.0000000E+00;0;  0.0000000E+00;  4.0000000E+04;  0.0000000E+00;  0.0000000E+00;  4.0000000E+04;  0.0000000E+00;  4.0000000E+04;  0.0000000E+00;  0.0000000E+00;  0.0000000E+00;  0.0000000E+00;
 -1.7000000E-01;  9.9999998E-03; -3.6000001E-01;280;  0.0000000E+00;  0.0000000E+00;  0.0000000E+00;  1.0000000E+03;  1.0000000E-01;  0.0000000E+00;0;  0.0000000E+00;  0.0000000E+00;  0.0000000E+00;0;  0.0000000E+00;  4.0000000E+04;  0.0000000E+00;  0.0000000E+00;  4.0000000E+04;  0.0000000E+00;  4.0000000E+04;  0.0000000E+00;  0.0000000E+00;  0.0000000E+00;  0.0000000E+00;
 -1.7000000E-01;  9.9999998E-03; -3.4999999E-01;281;  0.0000000E+00;  0.0000000E+00;  0.0000000E+00;  1.0000000E+03;  1.0000000E-01;  0.0000000E+00;0;  0.0000000E+00;  0.0000000E+00;  0.0000000E+00;0;  0.0000000E+00;  4.0000000E+04;  0.0000000E+00;  0.0000000E+00;  4.0000000E+04;  0.0000000E+00;  4.0000000E+04;  0.0000000E+00;  0.0000000E+00;  0.0000000E+00;  0.0000000E+00;
 -1.7000000E-01;  9.9999998E-03; -3.4000000E-01;282;  0.0000000E+00;  0.0000000E+00;  0.0000000E+00;  1.0000000E+03;  1.0000000E-01;  0.0000000E+00;0;  0.0000000E+00;  0.0000000E+00;  0.0000000E+00;0;  0.0000000E+00;  4.0000000E+04;  0.0000000E+00;  0.0000000E+00;  4.0000000E+04;  0.0000000E+00;  4.0000000E+04;  0.0000000E+00;  0.0000000E+00;  0.0000000E+00;  0.0000000E+00;
 -1.7000000E-01;  9.9999998E-03; -3.3000001E-01;283;  0.0000000E+00;  0.0000000E+00;  0.0000000E+00;  1.0000000E+03;  1.0000000E-01;  0.0000000E+00;0;  0.0000000E+00;  0.0000000E+00;  0.0000000E+00;0;  0.0000000E+00;  4.0000000E+04;  0.0000000E+00;  0.0000000E+00;  4.0000000E+04;  0.0000000E+00;  4.0000000E+04;  0.0000000E+00;  0.0000000E+00;  0.0000000E+00;  0.0000000E+00;
 -1.7000000E-01;  9.9999998E-03; -3.1999999E-01;284;  0.0000000E+00;  0.0000000E+00;  0.0000000E+00;  1.0000000E+03;  1.0000000E-01;  0.0000000E+00;0;  0.0000000E+00;  0.0000000E+00;  0.0000000E+00;0;  0.0000000E+00;  4.0000000E+04;  0.0000000E+00;  0.0000000E+00;  4.0000000E+04;  0.0000000E+00;  4.0000000E+04;  0.0000000E+00;  0.0000000E+00;  0.0000000E+00;  0.0000000E+00;
 -1.7000000E-01;  9.9999998E-03; -3.1000000E-01;285;  0.0000000E+00;  0.0000000E+00;  0.0000000E+00;  1.0000000E+03;  1.0000000E-01;  0.0000000E+00;0;  0.0000000E+00;  0.0000000E+00;  0.0000000E+00;0;  0.0000000E+00;  4.0000000E+04;  0.0000000E+00;  0.0000000E+00;  4.0000000E+04;  0.0000000E+00;  4.0000000E+04;  0.0000000E+00;  0.0000000E+00;  0.0000000E+00;  0.0000000E+00;
 -1.7000000E-01;  9.9999998E-03; -3.0000001E-01;286;  0.0000000E+00;  0.0000000E+00;  0.0000000E+00;  1.0000000E+03;  1.0000000E-01;  0.0000000E+00;0;  0.0000000E+00;  0.0000000E+00;  0.0000000E+00;0;  0.0000000E+00;  4.0000000E+04;  0.0000000E+00;  0.0000000E+00;  4.0000000E+04;  0.0000000E+00;  4.0000000E+04;  0.0000000E+00;  0.0000000E+00;  0.0000000E+00;  0.0000000E+00;
 -1.7000000E-01;  9.9999998E-03; -2.8999999E-01;287;  0.0000000E+00;  0.0000000E+00;  0.0000000E+00;  1.0000000E+03;  1.0000000E-01;  0.0000000E+00;0;  0.0000000E+00;  0.0000000E+00;  0.0000000E+00;0;  0.0000000E+00;  4.0000000E+04;  0.0000000E+00;  0.0000000E+00;  4.0000000E+04;  0.0000000E+00;  4.0000000E+04;  0.0000000E+00;  0.0000000E+00;  0.0000000E+00;  6.8926012E-14;
 -1.7000000E-01;  9.9999998E-03; -2.8000000E-01;288;  0.0000000E+00;  0.0000000E+00;  0.0000000E+00;  1.0000000E+03;  1.0000000E-01;  0.0000000E+00;0;  0.0000000E+00;  0.0000000E+00;  0.0000000E+00;0;  1.7717820E-13;  4.0000000E+04;  0.0000000E+00;  0.0000000E+00;  4.0000000E+04;  0.0000000E+00;  4.0000000E+04;  1.7729474E-13;  0.0000000E+00; -1.1653306E-16;  5.3994855E-12;
 -1.6000000E-01;  9.9999998E-03; -4.4000000E-01;363;  0.0000000E+00;  0.0000000E+00;  0.0000000E+00;  1.0000000E+03;  1.0000000E-01;  0.0000000E+00;0;  0.0000000E+00;  0.0000000E+00;  0.0000000E+00;0;  0.0000000E+00;  4.0000000E+04;  0.0000000E+00;  0.0000000E+00;  4.0000000E+04;  0.0000000E+00;  4.0000000E+04;  0.0000000E+00;  0.0000000E+00;  0.0000000E+00;  0.0000000E+00;
 -1.6000000E-01;  9.9999998E-03; -4.3000001E-01;364;  0.0000000E+00;  0.0000000E+00;  0.0000000E+00;  1.0000000E+03;  1.0000000E-01;  0.0000000E+00;0;  0.0000000E+00;  0.0000000E+00;  0.0000000E+00;0;  0.0000000E+00;  4.0000000E+04;  0.0000000E+00;  0.0000000E+00;  4.0000000E+04;  0.0000000E+00;  4.0000000E+04;  0.0000000E+00;  0.0000000E+00;  0.0000000E+00;  0.0000000E+00;
 -1.6000000E-01;  9.9999998E-03; -4.1999999E-01;365;  0.0000000E+00;  0.0000000E+00;  0.0000000E+00;  1.0000000E+03;  1.0000000E-01;  0.0000000E+00;0;  0.0000000E+00;  0.0000000E+00;  0.0000000E+00;0;  0.0000000E+00;  4.0000000E+04;  0.0000000E+00;  0.0000000E+00;  4.0000000E+04;  0.0000000E+00;  4.0000000E+04;  0.0000000E+00;  0.0000000E+00;  0.0000000E+00;  0.0000000E+00;
 -1.6000000E-01;  9.9999998E-03; -4.1000000E-01;366;  0.0000000E+00;  0.0000000E+00;  0.0000000E+00;  1.0000000E+03;  1.0000000E-01;  0.0000000E+00;0;  0.0000000E+00;  0.0000000E+00;  0.0000000E+00;0;  0.0000000E+00;  4.0000000E+04;  0.0000000E+00;  0.0000000E+00;  4.0000000E+04;  0.0000000E+00;  4.0000000E+04;  0.0000000E+00;  0.0000000E+00;  0.0000000E+00;  0.0000000E+00;
 -1.6000000E-01;  9.9999998E-03; -4.0000001E-01;367;  0.0000000E+00;  0.0000000E+00;  0.0000000E+00;  1.0000000E+03;  1.0000000E-01;  0.0000000E+00;0;  0.0000000E+00;  0.0000000E+00;  0.0000000E+00;0;  0.0000000E+00;  4.0000000E+04;  0.0000000E+00;  0.0000000E+00;  4.0000000E+04;  0.0000000E+00;  4.0000000E+04;  0.0000000E+00;  0.0000000E+00;  0.0000000E+00;  0.0000000E+00;
 -1.6000000E-01;  9.9999998E-03; -3.8999999E-01;368;  0.0000000E+00;  0.0000000E+00;  0.0000000E+00;  1.0000000E+03;  1.0000000E-01;  0.0000000E+00;0;  0.0000000E+00;  0.0000000E+00;  0.0000000E+00;0;  0.0000000E+00;  4.0000000E+04;  0.0000000E+00;  0.0000000E+00;  4.0000000E+04;  0.0000000E+00;  4.0000000E+04;  0.0000000E+00;  0.0000000E+00;  0.0000000E+00;  0.0000000E+00;
 -1.6000000E-01;  9.9999998E-03; -3.8000000E-01;369;  0.0000000E+00;  0.0000000E+00;  0.0000000E+00;  1.0000000E+03;  1.0000000E-01;  0.0000000E+00;0;  0.0000000E+00;  0.0000000E+00;  0.0000000E+00;0;  0.0000000E+00;  4.0000000E+04;  0.0000000E+00;  0.0000000E+00;  4.0000000E+04;  0.0000000E+00;  4.0000000E+04;  0.0000000E+00;  0.0000000E+00;  0.0000000E+00;  0.0000000E+00;
 -1.6000000E-01;  9.9999998E-03; -3.7000000E-01;370;  0.0000000E+00;  0.0000000E+00;  0.0000000E+00;  1.0000000E+03;  1.0000000E-01;  0.0000000E+00;0;  0.0000000E+00;  0.0000000E+00;  0.0000000E+00;0;  0.0000000E+00;  4.0000000E+04;  0.0000000E+00;  0.0000000E+00;  4.0000000E+04;  0.0000000E+00;  4.0000000E+04;  0.0000000E+00;  0.0000000E+00;  0.0000000E+00;  0.0000000E+00;
 -1.6000000E-01;  9.9999998E-03; -3.6000001E-01;371;  0.0000000E+00;  0.0000000E+00;  0.0000000E+00;  1.0000000E+03;  1.0000000E-01;  0.0000000E+00;0;  0.0000000E+00;  0.0000000E+00;  0.0000000E+00;0;  0.0000000E+00;  4.0000000E+04;  0.0000000E+00;  0.0000000E+00;  4.0000000E+04;  0.0000000E+00;  4.0000000E+04;  0.0000000E+00;  0.0000000E+00;  0.0000000E+00;  0.0000000E+00;
 -1.6000000E-01;  9.9999998E-03; -3.4999999E-01;372;  0.0000000E+00;  0.0000000E+00;  0.0000000E+00;  1.0000000E+03;  1.0000000E-01;  0.0000000E+00;0;  0.0000000E+00;  0.0000000E+00;  0.0000000E+00;0;  0.0000000E+00;  4.0000000E+04;  0.0000000E+00;  0.0000000E+00;  4.0000000E+04;  0.0000000E+00;  4.0000000E+04;  0.0000000E+00;  0.0000000E+00;  0.0000000E+00;  0.0000000E+00;
 -1.6000000E-01;  9.9999998E-03; -3.4000000E-01;373;  0.0000000E+00;  0.0000000E+00;  0.0000000E+00;  1.0000000E+03;  1.0000000E-01;  0.0000000E+00;0;  0.0000000E+00;  0.0000000E+00;  0.0000000E+00;0;  3.8907697E-08;  4.0000000E+04;  0.0000000E+00;  0.0000000E+00;  4.0000000E+04;  0.0000000E+00;  4.0000000E+04;  2.7421562E-08;  0.0000000E+00;  1.1486134E-08;  9.2997286E-04;
 -1.6000000E-01;  9.9999998E-03; -3.3000001E-01;374;  0.0000000E+00;  0.0000000E+00;  0.0000000E+00;  1.0000000E+03;  1.0000000E-01;  0.0000000E+00;0;  0.0000000E+00;  0.0000000E+00;  0.0000000E+00;0;  4.0327129E-07;  4.0000000E+04;  0.0000000E+00;  0.0000000E+00;  4.0000000E+04;  0.0000000E+00;  4.0000000E+04;  3.0416487E-07;  0.0000000E+00;  9.9106408E-08;  8.4980819E-03;
 -1.6000000E-01;  9.9999998E-03; -3.1999999E-01;375;  0.0000000E+00;  0.0000000E+00;  0.0000000E+00;  1.0000000E+03;  1.0000000E-01;  0.0000000E+00;0;  0.0000000E+00;  0.0000000E+00;  0.0000000E+00;0;  1.4782945E-06;  4.0000000E+04;  0.0000000E+00;  0.0000000E+00;  4.0000000E+04;  0.0000000E+00;  4.0000000E+04;  1.1896693E-06;  0.0000000E+00;  2.8862524E-07;  2.2957096E-02;
 -1.6000000E-01;  9.9999998E-03; -3.1000000E-01;376;  0.0000000E+00;  0.0000000E+00;  0.0000000E+00;  1.0000000E+03;  1.0000000E-01;  0.0000000E+00;0;  0.0000000E+00;  0.0000000E+00;  0.0000000E+00;0;  3.6048775E-06;  4.0000000E+04;  0.0000000E+00;  0.0000000E+00;  4.0000000E+04;  0.0000000E+00;  4.0000000E+04;  3.0760136E-06;  0.0000000E+00;  5.2886395E-07;  3.5500359E-02;
 -1.6000000E-01;  9.9999998E-03; -3.0000001E-01;377;  0.0000000E+00;  0.0000000E+00;  0.0000000E+00;  1.0000000E+03;  1.0000000E-01;  0.0000000E+00;0;  0.0000000E+00;  0.0000000E+00;  0.0000000E+00;0;  7.1404215E-06;  4.0000000E+04;  0.0000000E+00;  0.0000000E+00;  4.0000000E+04;  0.0000000E+00;  4.0000000E+04;  6.4057749E-06;  0.0000000E+00;  7.3464662E-07;  3.4363639E-02;
 -1.6000000E-01;  9.9999998E-03; -2.8999999E-01;378;  0.0000000E+00;  0.0000000E+00;  0.0000000E+00;  1.0000000E+03;  1.0000000E-01;  0.0000000E+00;0;  0.0000000E+00;  0.0000000E+00;  0.0000000E+00;0;  1.2632201E-05;  4.0000000E+04;  0.0000000E+00;  0.0000000E+00;  4.0000000E+04;  0.0000000E+00;  4.0000000E+04;  1.1781988E-05;  0.0000000E+00;  8.5021287E-07;  1.3076035E-02;
 -1.6000000E-01;  9.9999998E-03; -2.8000000E-01;379;  0.0000000E+00;  0.0000000E+00;  0.0000000E+00;  1.0000000E+03;  1.0000000E-01;  0.0000000E+00;0;  0.0000000E+00;  0.0000000E+00;  0.0000000E+00;0;  2.0951837E-05;  4.0000000E+04;  0.0000000E+00;  0.0000000E+00;  4.0000000E+04;  0.0000000E+00;  4.0000000E+04;  2.0063651E-05;  0.0000000E+00;  8.8818524E-07;  2.4735305E-02;
 -1.5000001E-01;  9.9999998E-03; -4.4000000E-01;454;  0.0000000E+00;  0.0000000E+00;  0.0000000E+00;  1.0000000E+03;  1.0000000E-01;  0.0000000E+00;0;  0.0000000E+00;  0.0000000E+00;  0.0000000E+00;0;  0.0000000E+00;  4.0000000E+04;  0.0000000E+00;  0.0000000E+00;  4.0000000E+04;  0.0000000E+00;  4.0000000E+04;  0.0000000E+00;  0.0000000E+00;  0.0000000E+00;  0.0000000E+00;
 -1.5000001E-01;  9.9999998E-03; -4.3000001E-01;455;  0.0000000E+00;  0.0000000E+00;  0.0000000E+00;  1.0000000E+03;  1.0000000E-01;  0.0000000E+00;0;  0.0000000E+00;  0.0000000E+00;  0.0000000E+00;0;  0.0000000E+00;  4.0000000E+04;  0.0000000E+00;  0.0000000E+00;  4.0000000E+04;  0.0000000E+00;  4.0000000E+04;  0.0000000E+00;  0.0000000E+00;  0.0000000E+00;  0.0000000E+00;
 -1.5000001E-01;  9.9999998E-03; -4.1999999E-01;456;  0.0000000E+00;  0.0000000E+00;  0.0000000E+00;  1.0000000E+03;  1.0000000E-01;  0.0000000E+00;0;  0.0000000E+00;  0.0000000E+00;  0.0000000E+00;0;  0.0000000E+00;  4.0000000E+04;  0.0000000E+00;  0.0000000E+00;  4.0000000E+04;  0.0000000E+00;  4.0000000E+04;  0.0000000E+00;  0.0000000E+00;  0.0000000E+00;  0.0000000E+00;
 -1.5000001E-01;  9.9999998E-03; -4.1000000E-01;457;  0.0000000E+00;  0.0000000E+00;  0.0000000E+00;  1.0000000E+03;  1.0000000E-01;  0.0000000E+00;0;  0.0000000E+00;  0.0000000E+00;  0.0000000E+00;0;  0.0000000E+00;  4.0000000E+04;  0.0000000E+00;  0.0000000E+00;  4.0000000E+04;  0.0000000E+00;  4.0000000E+04;  0.0000000E+00;  0.0000000E+00;  0.0000000E+00;  0.0000000E+00;
 -1.5000001E-01;  9.9999998E-03; -4.0000001E-01;458;  0.0000000E+00;  0.0000000E+00;  0.0000000E+00;  1.0000000E+03;  1.0000000E-01;  0.0000000E+00;0;  0.0000000E+00;  0.0000000E+00;  0.0000000E+00;0;  0.0000000E+00;  4.0000000E+04;  0.0000000E+00;  0.0000000E+00;  4.0000000E+04;  0.0000000E+00;  4.0000000E+04;  0.0000000E+00;  0.0000000E+00;  0.0000000E+00;  0.0000000E+00;
 -1.5000001E-01;  9.9999998E-03; -3.8999999E-01;459;  0.0000000E+00;  0.0000000E+00;  0.0000000E+00;  1.0000000E+03;  1.0000000E-01;  0.0000000E+00;0;  0.0000000E+00;  0.0000000E+00;  0.0000000E+00;0;  0.0000000E+00;  4.0000000E+04;  0.0000000E+00;  0.0000000E+00;  4.0000000E+04;  0.0000000E+00;  4.0000000E+04;  0.0000000E+00;  0.0000000E+00;  0.0000000E+00;  0.0000000E+00;
 -1.5000001E-01;  9.9999998E-03; -3.8000000E-01;460;  0.0000000E+00;  0.0000000E+00;  0.0000000E+00;  1.0000000E+03;  1.0000000E-01;  0.0000000E+00;0;  0.0000000E+00;  0.0000000E+00;  0.0000000E+00;0;  0.0000000E+00;  4.0000000E+04;  0.0000000E+00;  0.0000000E+00;  4.0000000E+04;  0.0000000E+00;  4.0000000E+04;  0.0000000E+00;  0.0000000E+00;  0.0000000E+00;  0.0000000E+00;
 -1.5000001E-01;  9.9999998E-03; -3.7000000E-01;461;  0.0000000E+00;  0.0000000E+00;  0.0000000E+00;  1.0000000E+03;  1.0000000E-01;  0.0000000E+00;0;  0.0000000E+00;  0.0000000E+00;  0.0000000E+00;0;  4.1651734E-14;  4.0000000E+04;  0.0000000E+00;  0.0000000E+00;  4.0000000E+04;  0.0000000E+00;  4.0000000E+04;  2.3059557E-14;  0.0000000E+00;  1.8592177E-14;  2.9818144E-09;
 -1.5000001E-01;  9.9999998E-03; -3.6000001E-01;462;  0.0000000E+00;  0.0000000E+00;  0.0000000E+00;  1.0000000E+03;  1.0000000E-01;  0.0000000E+00;0;  0.0000000E+00;  0.0000000E+00;  0.0000000E+00;0;  2.6759838E-07;  4.0000000E+04;  0.0000000E+00;  0.0000000E+00;  4.0000000E+04;  0.0000000E+00;  4.0000000E+04;  1.6002529E-07;  0.0000000E+00;  1.0757309E-07;  1.0858553E-02;
 -1.5000001E-01;  9.9999998E-03; -3.4999999E-01;463;  0.0000000E+00;  0.0000000E+00;  0.0000000E+00;  1.0000000E+03;  1.0000000E-01;  0.0000000E+00;0;  0.0000000E+00;  0.0000000E+00;  0.0000000E+00;0;  2.0417526E-06;  4.0000000E+04;  0.0000000E+00;  0.0000000E+00;  4.0000000E+04;  0.0000000E+00;  4.0000000E+04;  1.3264769E-06;  0.0000000E+00;  7.1527575E-07;  6.8205513E-02;
 -1.5000001E-01;  9.9999998E-03; -3.4000000E-01;464;  0.0000000E+00;  0.0000000E+00;  0.0000000E+00;  1.0000000E+03;  1.0000000E-01;  0.0000000E+00;0;  0.0000000E+00;  0.0000000E+00;  0.0000000E+00;0;  7.4180716E-06;  4.0000000E+04;  0.0000000E+00;  0.0000000E+00;  4.0000000E+04;  0.0000000E+00;  4.0000000E+04;  5.2222890E-06;  0.0000000E+00;  2.1957826E-06;  1.9060807E-01;
 -1.5000001E-01;  9.9999998E-03; -3.3000001E-01;465;  0.0000000E+00;  0.0000000E+00;  0.0000000E+00;  1.0000000E+03;  1.0000000E-01;  0.0000000E+00;0;  0.0000000E+00;  0.0000000E+00;  0.0000000E+00;0;  1.8917974E-05;  4.0000000E+04;  0.0000000E+00;  0.0000000E+00;  4.0000000E+04;  0.0000000E+00;  4.0000000E+04;  1.4324392E-05;  0.0000000E+00;  4.5935813E-06;  3.5505614E-01;
 -1.5000001E-01;  9.9999998E-03; -3.1999999E-01;466;  0.0000000E+00;  0.0000000E+00;  0.0000000E+00;  1.0000000E+03;  1.0000000E-01;  0.0000000E+00;0;  0.0000000E+00;  0.0000000E+00;  0.0000000E+00;0;  3.9431252E-05;  4.0000000E+04;  0.0000000E+00;  0.0000000E+00;  4.0000000E+04;  0.0000000E+00;  4.0000000E+04;  3.1834948E-05;  0.0000000E+00;  7.5963017E-06;  4.9910358E-01;
 -1.5000001E-01;  9.9999998E-03; -3.1000000E-01;467;  0.0000000E+00;  0.0000000E+00;  0.0000000E+00;  1.0000000E+03;  1.0000000E-01;  0.0000000E+00;0;  0.0000000E+00;  0.0000000E+00;  0.0000000E+00;0;  7.2684132E-05;  4.0000000E+04;  0.0000000E+00;  0.0000000E+00;  4.0000000E+04;  0.0000000E+00;  4.0000000E+04;  6.1963408E-05;  0.0000000E+00;  1.0720726E-05;  5.4544950E-01;
 -1.5000001E-01;  9.9999998E-03; -3.0000001E-01;468;  0.0000000E+00;  0.0000000E+00;  0.0000000E+00;  1.0000000E+03;  1.0000000E-01;  0.0000000E+00;0;  0.0000000E+00;  0.0000000E+00;  0.0000000E+00;0;  1.2386491E-04;  4.0000000E+04;  0.0000000E+00;  0.0000000E+00;  4.0000000E+04;  0.0000000E+00;  4.0000000E+04;  1.1031448E-04;  0.0000000E+00;  1.3550431E-05;  4.3399763E-01;
 -1.5000001E-01;  9.9999998E-03; -2.8999999E-01;469;  0.0000000E+00;  0.0000000E+00;  0.0000000E+00;  1.0000000E+03;  1.0000000E-01;  0.0000000E+00;0;  0.0000000E+00;  0.0000000E+00;  0.0000000E+00;0;  1.9997475E-04;  4.0000000E+04;  0.0000000E+00;  0.0000000E+00;  4.0000000E+04;  0.0000000E+00;  4.0000000E+04;  1.8406330E-04;  0.0000000E+00;  1.5911448E-05;  1.4791745E-01;
 -1.5000001E-01;  9.9999998E-03; -2.8000000E-01;470;  0.0000000E+00;  0.0000000E+00;  0.0000000E+00;  1.0000000E+03;  1.0000000E-01;  0.0000000E+00;0;  0.0000000E+00;  0.0000000E+00;  0.0000000E+00;0;  3.0956365E-04;  4.0000000E+04;  0.0000000E+00;  0.0000000E+00;  4.0000000E+04;  0.0000000E+00;  4.0000000E+04;  2.9165551E-04;  0.0000000E+00;  1.7908140E-05;  2.7729133E-01;
 -1.4000000E-01;  9.9999998E-03; -4.4000000E-01;545;  0.0000000E+00;  0.0000000E+00;  0.0000000E+00;  1.0000000E+03;  1.0000000E-01;  0.0000000E+00;0;  0.0000000E+00;  0.0000000E+00;  0.0000000E+00;0;  0.0000000E+00;  4.0000000E+04;  0.0000000E+00;  0.0000000E+00;  4.0000000E+04;  0.0000000E+00;  4.0000000E+04;  0.0000000E+00;  0.0000000E+00;  0.0000000E+00;  0.0000000E+00;
 -1.4000000E-01;  9.9999998E-03; -4.3000001E-01;546;  0.0000000E+00;  0.0000000E+00;  0.0000000E+00;  1.0000000E+03;  1.0000000E-01;  0.0000000E+00;0;  0.0000000E+00;  0.0000000E+00;  0.0000000E+00;0;  0.0000000E+00;  4.0000000E+04;  0.0000000E+00;  0.0000000E+00;  4.0000000E+04;  0.0000000E+00;  4.0000000E+04;  0.0000000E+00;  0.0000000E+00;  0.0000000E+00;  0.0000000E+00;
 -1.4000000E-01;  9.9999998E-03; -4.1999999E-01;547;  0.0000000E+00;  0.0000000E+00;  0.0000000E+00;  1.0000000E+03;  1.0000000E-01;  0.0000000E+00;0;  0.0000000E+00;  0.0000000E+00;  0.0000000E+00;0;  0.0000000E+00;  4.0000000E+04;  0.0000000E+00;  0.0000000E+00;  4.0000000E+04;  0.0000000E+00;  4.0000000E+04;  0.0000000E+00;  0.0000000E+00;  0.0000000E+00;  0.0000000E+00;
 -1.4000000E-01;  9.9999998E-03; -4.1000000E-01;548;  0.0000000E+00;  0.0000000E+00;  0.0000000E+00;  1.0000000E+03;  1.0000000E-01;  0.0000000E+00;0;  0.0000000E+00;  0.0000000E+00;  0.0000000E+00;0;  0.0000000E+00;  4.0000000E+04;  0.0000000E+00;  0.0000000E+00;  4.0000000E+04;  0.0000000E+00;  4.0000000E+04;  0.0000000E+00;  0.0000000E+00;  0.0000000E+00;  0.0000000E+00;
 -1.4000000E-01;  9.9999998E-03; -4.0000001E-01;549;  0.0000000E+00;  0.0000000E+00;  0.0000000E+00;  1.0000000E+03;  1.0000000E-01;  0.0000000E+00;0;  0.0000000E+00;  0.0000000E+00;  0.0000000E+00;0;  0.0000000E+00;  4.0000000E+04;  0.0000000E+00;  0.0000000E+00;  4.0000000E+04;  0.0000000E+00;  4.0000000E+04;  0.0000000E+00;  0.0000000E+00;  0.0000000E+00;  0.0000000E+00;
 -1.4000000E-01;  9.9999998E-03; -3.8999999E-01;550;  0.0000000E+00;  0.0000000E+00;  0.0000000E+00;  1.0000000E+03;  1.0000000E-01;  0.0000000E+00;0;  0.0000000E+00;  0.0000000E+00;  0.0000000E+00;0;  0.0000000E+00;  4.0000000E+04;  0.0000000E+00;  0.0000000E+00;  4.0000000E+04;  0.0000000E+00;  4.0000000E+04;  0.0000000E+00;  0.0000000E+00;  0.0000000E+00;  0.0000000E+00;
 -1.4000000E-01;  9.9999998E-03; -3.8000000E-01;551;  0.0000000E+00;  0.0000000E+00;  0.0000000E+00;  1.0000000E+03;  1.0000000E-01;  0.0000000E+00;0;  0.0000000E+00;  0.0000000E+00;  0.0000000E+00;0;  1.4814826E-07;  4.0000000E+04;  0.0000000E+00;  0.0000000E+00;  4.0000000E+04;  0.0000000E+00;  4.0000000E+04;  7.1899571E-08;  0.0000000E+00;  7.6248689E-08;  8.5166134E-03;
 -1.4000000E-01;  9.9999998E-03; -3.7000000E-01;552;  0.0000000E+00;  0.0000000E+00;  0.0000000E+00;  1.0000000E+03;  1.0000000E-01;  0.0000000E+00;0;  0.0000000E+00;  0.0000000E+00;  0.0000000E+00;0;  2.5548954E-06;  4.0000000E+04;  0.0000000E+00;  0.0000000E+00;  4.0000000E+04;  0.0000000E+00;  4.0000000E+04;  1.3735860E-06;  0.0000000E+00;  1.1813095E-06;  1.1812279E-01;
 -1.4000000E-01;  9.9999998E-03; -3.6000001E-01;553;  0.0000000E+00;  0.0000000E+00;  0.0000000E+00;  1.0000000E+03;  1.0000000E-01;  0.0000000E+00;0;  0.0000000E+00;  0.0000000E+00;  0.0000000E+00;0;  1.2205262E-05;  4.0000000E+04;  0.0000000E+00;  0.0000000E+00;  4.0000000E+04;  0.0000000E+00;  4.0000000E+04;  7.2546154E-06;  0.0000000E+00;  4.9506461E-06;  4.3618622E-01;
 -1.4000000E-01;  9.9999998E-03; -3.4999999E-01;554;  0.0000000E+00;  0.0000000E+00;  0.0000000E+00;  1.0000000E+03;  1.0000000E-01;  0.0000000E+00;0;  0.0000000E+00;  0.0000000E+00;  0.0000000E+00;0;  3.5658588E-05;  4.0000000E+04;  0.0000000E+00;  0.0000000E+00;  4.0000000E+04;  0.0000000E+00;  4.0000000E+04;  2.3217281E-05;  0.0000000E+00;  1.2441305E-05;  9.7934049E-01;
 -1.4000000E-01;  9.9999998E-03; -3.4000000E-01;555;  0.0000000E+00;  0.0000000E+00;  0.0000000E+00;  1.0000000E+03;  1.0000000E-01;  0.0000000E+00;0;  0.0000000E+00;  0.0000000E+00;  0.0000000E+00;0;  8.1184990E-05;  4.0000000E+04;  0.0000000E+00;  0.0000000E+00;  4.0000000E+04;  0.0000000E+00;  4.0000000E+04;  5.7351001E-05;  0.0000000E+00;  2.3833987E-05;  1.6596189E+00;
 -1.4000000E-01;  9.9999998E-03; -3.3000001E-01;556;  0.0000000E+00;  0.0000000E+00;  0.0000000E+00;  1.0000000E+03;  1.0000000E-01;  0.0000000E+00;0;  0.0000000E+00;  0.0000000E+00;  0.0000000E+00;0;  1.5919415E-04;  4.0000000E+04;  0.0000000E+00;  0.0000000E+00;  4.0000000E+04;  0.0000000E+00;  4.0000000E+04;  1.2080346E-04;  0.0000000E+00;  3.8390695E-05;  2.2916281E+00;
 -1.4000000E-01;  9.9999998E-03; -3.1999999E-01;557;  0.0000000E+00;  0.0000000E+00;  0.0000000E+00;  1.0000000E+03;  1.0000000E-01;  0.0000000E+00;0;  0.0000000E+00;  0.0000000E+00;  0.0000000E+00;0;  2.8306613E-04;  4.0000000E+04;  0.0000000E+00;  0.0000000E+00;  4.0000000E+04;  0.0000000E+00;  4.0000000E+04;  2.2835555E-04;  0.0000000E+00;  5.4710566E-05;  2.6362016E+00;
 -1.4000000E-01;  9.9999998E-03; -3.1000000E-01;558;  0.0000000E+00;  0.0000000E+00;  0.0000000E+00;  1.0000000E+03;  1.0000000E-01;  0.0000000E+00;0;  0.0000000E+00;  0.0000000E+00;  0.0000000E+00;0;  4.7017669E-04;  4.0000000E+04;  0.0000000E+00;  0.0000000E+00;  4.0000000E+04;  0.0000000E+00;  4.0000000E+04;  3.9898537E-04;  0.0000000E+00;  7.1191309E-05;  2.4700153E+00;
 -1.4000000E-01;  9.9999998E-03; -3.0000001E-01;559;  0.0000000E+00;  0.0000000E+00;  0.0000000E+00;  1.0000073E+03;  1.0000000E-01;  6.0245209E+00;0;  0.0000000E+00;  0.0000000E+00;  0.0000000E+00;0;  7.4247544E-04;  4.0000000E+04;  0.0000000E+00;  0.0000000E+00;  4.0000000E+04;  0.0000000E+00;  4.0000000E+04;  6.5596652E-04;  0.0000000E+00;  8.6508931E-05;  1.6557013E+00;
 -1.4000000E-01;  9.9999998E-03; -2.8999999E-01;560;  0.0000000E+00;  0.0000000E+00;  0.0000000E+00;  1.0000122E+03;  1.0000000E-01;  1.0073790E+01;0;  0.0000000E+00;  0.0000000E+00;  0.0000000E+00;0;  1.1259204E-03;  4.0000000E+04;  0.0000000E+00;  0.0000000E+00;  4.0000000E+04;  0.0000000E+00;  4.0000000E+04;  1.0260023E-03;  0.0000000E+00;  9.9918121E-05;  1.9861026E-01;
 -1.4000000E-01;  9.9999998E-03; -2.8000000E-01;561;  0.0000000E+00;  0.0000000E+00;  0.0000000E+00;  1.0000143E+03;  1.0000000E-01;  1.1851517E+01;0;  0.0000000E+00;  0.0000000E+00;  0.0000000E+00;0;  1.6481177E-03;  4.0000000E+04;  0.0000000E+00;  0.0000000E+00;  4.0000000E+04;  0.0000000E+00;  4.0000000E+04;  1.5369267E-03;  0.0000000E+00;  1.1119096E-04;  1.7595040E+00;
 -1.3000000E-01;  9.9999998E-03; -4.4000000E-01;636;  0.0000000E+00;  0.0000000E+00;  0.0000000E+00;  1.0000000E+03;  1.0000000E-01;  0.0000000E+00;0;  0.0000000E+00;  0.0000000E+00;  0.0000000E+00;0;  0.0000000E+00;  4.0000000E+04;  0.0000000E+00;  0.0000000E+00;  4.0000000E+04;  0.0000000E+00;  4.0000000E+04;  0.0000000E+00;  0.0000000E+00;  0.0000000E+00;  0.0000000E+00;
 -1.3000000E-01;  9.9999998E-03; -4.3000001E-01;637;  0.0000000E+00;  0.0000000E+00;  0.0000000E+00;  1.0000000E+03;  1.0000000E-01;  0.0000000E+00;0;  0.0000000E+00;  0.0000000E+00;  0.0000000E+00;0;  0.0000000E+00;  4.0000000E+04;  0.0000000E+00;  0.0000000E+00;  4.0000000E+04;  0.0000000E+00;  4.0000000E+04;  0.0000000E+00;  0.0000000E+00;  0.0000000E+00;  0.0000000E+00;
 -1.3000000E-01;  9.9999998E-03; -4.1999999E-01;638;  0.0000000E+00;  0.0000000E+00;  0.0000000E+00;  1.0000000E+03;  1.0000000E-01;  0.0000000E+00;0;  0.0000000E+00;  0.0000000E+00;  0.0000000E+00;0;  0.0000000E+00;  4.0000000E+04;  0.0000000E+00;  0.0000000E+00;  4.0000000E+04;  0.0000000E+00;  4.0000000E+04;  0.0000000E+00;  0.0000000E+00;  0.0000000E+00;  0.0000000E+00;
 -1.3000000E-01;  9.9999998E-03; -4.1000000E-01;639;  0.0000000E+00;  0.0000000E+00;  0.0000000E+00;  1.0000000E+03;  1.0000000E-01;  0.0000000E+00;0;  0.0000000E+00;  0.0000000E+00;  0.0000000E+00;0;  0.0000000E+00;  4.0000000E+04;  0.0000000E+00;  0.0000000E+00;  4.0000000E+04;  0.0000000E+00;  4.0000000E+04;  0.0000000E+00;  0.0000000E+00;  0.0000000E+00;  0.0000000E+00;
 -1.3000000E-01;  9.9999998E-03; -4.0000001E-01;640;  0.0000000E+00;  0.0000000E+00;  0.0000000E+00;  1.0000000E+03;  1.0000000E-01;  0.0000000E+00;0;  0.0000000E+00;  0.0000000E+00;  0.0000000E+00;0;  0.0000000E+00;  4.0000000E+04;  0.0000000E+00;  0.0000000E+00;  4.0000000E+04;  0.0000000E+00;  4.0000000E+04;  0.0000000E+00;  0.0000000E+00;  0.0000000E+00;  0.0000000E+00;
 -1.3000000E-01;  9.9999998E-03; -3.8999999E-01;641;  0.0000000E+00;  0.0000000E+00;  0.0000000E+00;  1.0000000E+03;  1.0000000E-01;  0.0000000E+00;0;  0.0000000E+00;  0.0000000E+00;  0.0000000E+00;0;  9.5535916E-07;  4.0000000E+04;  0.0000000E+00;  0.0000000E+00;  4.0000000E+04;  0.0000000E+00;  4.0000000E+04;  4.0429535E-07;  0.0000000E+00;  5.5106386E-07;  5.6931939E-02;
 -1.3000000E-01;  9.9999998E-03; -3.8000000E-01;642;  0.0000000E+00;  0.0000000E+00;  0.0000000E+00;  1.0000000E+03;  1.0000000E-01;  0.0000000E+00;0;  0.0000000E+00;  0.0000000E+00;  0.0000000E+00;0;  9.2519567E-06;  4.0000000E+04;  0.0000000E+00;  0.0000000E+00;  4.0000000E+04;  0.0000000E+00;  4.0000000E+04;  4.3817599E-06;  0.0000000E+00;  4.8701972E-06;  4.4231158E-01;
 -1.3000000E-01;  9.9999998E-03; -3.7000000E-01;643;  0.0000000E+00;  0.0000000E+00;  0.0000000E+00;  1.0000000E+03;  1.0000000E-01;  0.0000000E+00;0;  0.0000000E+00;  0.0000000E+00;  0.0000000E+00;0;  3.5882309E-05;  4.0000000E+04;  0.0000000E+00;  0.0000000E+00;  4.0000000E+04;  0.0000000E+00;  4.0000000E+04;  1.9010366E-05;  0.0000000E+00;  1.6871942E-05;  1.3589178E+00;
 -1.3000000E-01;  9.9999998E-03; -3.6000001E-01;644;  0.0000000E+00;  0.0000000E+00;  0.0000000E+00;  1.0000000E+03;  1.0000000E-01;  0.0000000E+00;0;  0.0000000E+00;  0.0000000E+00;  0.0000000E+00;0;  9.6021817E-05;  4.0000000E+04;  0.0000000E+00;  0.0000000E+00;  4.0000000E+04;  0.0000000E+00;  4.0000000E+04;  5.6469584E-05;  0.0000000E+00;  3.9552229E-05;  2.8245893E+00;
 -1.3000000E-01;  9.9999998E-03; -3.4999999E-01;645;  0.0000000E+00;  0.0000000E+00;  0.0000000E+00;  1.0000000E+03;  1.0000000E-01;  0.0000000E+00;0;  0.0000000E+00;  0.0000000E+00;  0.0000000E+00;0;  2.0850342E-04;  4.0000000E+04;  0.0000000E+00;  0.0000000E+00;  4.0000000E+04;  0.0000000E+00;  4.0000000E+04;  1.3467681E-04;  0.0000000E+00;  7.3826610E-05;  4.6468339E+00;
 -1.3000000E-01;  9.9999998E-03; -3.4000000E-01;646;  0.0000000E+00;  0.0000000E+00;  0.0000000E+00;  1.0000000E+03;  1.0000000E-01;  0.0000000E+00;0;  0.0000000E+00;  0.0000000E+00;  0.0000000E+00;0;  3.9725390E-04;  4.0000000E+04;  0.0000000E+00;  0.0000000E+00;  4.0000000E+04;  0.0000000E+00;  4.0000000E+04;  2.7867086E-04;  0.0000000E+00;  1.1858305E-04;  6.4404907E+00;
 -1.3000000E-01;  9.9999998E-03; -3.3000001E-01;647;  0.0000000E+00;  0.0000000E+00;  0.0000000E+00;  1.0000093E+03;  1.0000000E-01;  7.7034860E+00;0;  0.0000000E+00;  0.0000000E+00;  0.0000000E+00;0;  6.9281040E-04;  4.0000000E+04;  0.0000000E+00;  0.0000000E+00;  4.0000000E+04;  0.0000000E+00;  4.0000000E+04;  5.2181981E-04;  0.0000000E+00;  1.7099061E-04;  7.6897888E+00;
 -1.3000000E-01;  9.9999998E-03; -3.1999999E-01;648;  0.0000000E+00;  0.0000000E+00;  0.0000000E+00;  1.0000150E+03;  1.0000000E-01;  1.2444093E+01;0;  0.0000000E+00;  0.0000000E+00;  0.0000000E+00;0;  1.1336072E-03;  4.0000000E+04;  0.0000000E+00;  0.0000000E+00;  4.0000000E+04;  0.0000000E+00;  4.0000000E+04;  9.0653577E-04;  0.0000000E+00;  2.2707149E-04;  7.8550892E+00;
 -1.3000000E-01;  9.9999998E-03; -3.1000000E-01;649;  0.0000000E+00;  0.0000000E+00;  0.0000000E+00;  1.0000180E+03;  1.0000000E-01;  1.4913158E+01;0;  0.0000000E+00;  0.0000000E+00;  0.0000000E+00;0;  1.7666561E-03;  4.0000000E+04;  0.0000000E+00;  0.0000000E+00;  4.0000000E+04;  0.0000000E+00;  4.0000000E+04;  1.4841696E-03;  0.0000000E+00;  2.8248638E-04;  6.4989495E+00;
 -1.3000000E-01;  9.9999998E-03; -3.0000001E-01;650;  0.0000000E+00;  0.0000000E+00;  0.0000000E+00;  1.0000297E+03;  1.0000000E-01;  2.4591898E+01;0;  0.0000000E+00;  0.0000000E+00;  0.0000000E+00;0;  2.6465636E-03;  4.0000000E+04;  0.0000000E+00;  0.0000000E+00;  4.0000000E+04;  0.0000000E+00;  4.0000000E+04;  2.3133107E-03;  0.0000000E+00;  3.3325277E-04;  3.4107566E+00;
 -1.3000000E-01;  9.9999998E-03; -2.8999999E-01;651;  0.0000000E+00;  0.0000000E+00;  0.0000000E+00;  1.0000353E+03;  1.0000000E-01;  2.9233742E+01;0;  0.0000000E+00;  0.0000000E+00;  0.0000000E+00;0;  3.8319614E-03;  4.0000000E+04;  0.0000000E+00;  0.0000000E+00;  4.0000000E+04;  0.0000000E+00;  4.0000000E+04;  3.4557935E-03;  0.0000000E+00;  3.7616791E-04;  1.3127614E+00;
 -1.3000000E-01;  9.9999998E-03; -2.8000000E-01;652;  0.0000000E+00;  0.0000000E+00;  0.0000000E+00;  1.0000364E+03;  1.0000000E-01;  3.0122604E+01;0;  0.0000000E+00;  0.0000000E+00;  0.0000000E+00;0;  5.3787017E-03;  4.0000000E+04;  0.0000000E+00;  0.0000000E+00;  4.0000000E+04;  0.0000000E+00;  4.0000000E+04;  4.9698795E-03;  0.0000000E+00;  4.0882244E-04;  7.1806817E+00;
 -1.2000000E-01;  9.9999998E-03; -4.4000000E-01;727;  0.0000000E+00;  0.0000000E+00;  0.0000000E+00;  1.0000000E+03;  1.0000000E-01;  0.0000000E+00;0;  0.0000000E+00;  0.0000000E+00;  0.0000000E+00;0;  0.0000000E+00;  4.0000000E+04;  0.0000000E+00;  0.0000000E+00;  4.0000000E+04;  0.0000000E+00;  4.0000000E+04;  0.0000000E+00;  0.0000000E+00;  0.0000000E+00;  0.0000000E+00;
 -1.2000000E-01;  9.9999998E-03; -4.3000001E-01;728;  0.0000000E+00;  0.0000000E+00;  0.0000000E+00;  1.0000000E+03;  1.0000000E-01;  0.0000000E+00;0;  0.0000000E+00;  0.0000000E+00;  0.0000000E+00;0;  0.0000000E+00;  4.0000000E+04;  0.0000000E+00;  0.0000000E+00;  4.0000000E+04;  0.0000000E+00;  4.0000000E+04;  0.0000000E+00;  0.0000000E+00;  0.0000000E+00;  0.0000000E+00;
 -1.2000000E-01;  9.9999998E-03; -4.1999999E-01;729;  0.0000000E+00;  0.0000000E+00;  0.0000000E+00;  1.0000000E+03;  1.0000000E-01;  0.0000000E+00;0;  0.0000000E+00;  0.0000000E+00;  0.0000000E+00;0;  0.0000000E+00;  4.0000000E+04;  0.0000000E+00;  0.0000000E+00;  4.0000000E+04;  0.0000000E+00;  4.0000000E+04;  0.0000000E+00;  0.0000000E+00;  0.0000000E+00;  0.0000000E+00;
 -1.2000000E-01;  9.9999998E-03; -4.1000000E-01;730;  0.0000000E+00;  0.0000000E+00;  0.0000000E+00;  1.0000000E+03;  1.0000000E-01;  0.0000000E+00;0;  0.0000000E+00;  0.0000000E+00;  0.0000000E+00;0;  1.0401695E-10;  4.0000000E+04;  0.0000000E+00;  0.0000000E+00;  4.0000000E+04;  0.0000000E+00;  4.0000000E+04;  3.3502007E-11;  0.0000000E+00;  7.0514948E-11;  1.5281420E-06;
 -1.2000000E-01;  9.9999998E-03; -4.0000001E-01;731;  0.0000000E+00;  0.0000000E+00;  0.0000000E+00;  1.0000000E+03;  1.0000000E-01;  0.0000000E+00;0;  0.0000000E+00;  0.0000000E+00;  0.0000000E+00;0;  2.5272784E-06;  4.0000000E+04;  0.0000000E+00;  0.0000000E+00;  4.0000000E+04;  0.0000000E+00;  4.0000000E+04;  9.1751559E-07;  0.0000000E+00;  1.6097629E-06;  1.4480233E-01;
 -1.2000000E-01;  9.9999998E-03; -3.8999999E-01;732;  0.0000000E+00;  0.0000000E+00;  0.0000000E+00;  1.0000000E+03;  1.0000000E-01;  0.0000000E+00;0;  0.0000000E+00;  0.0000000E+00;  0.0000000E+00;0;  1.9579371E-05;  4.0000000E+04;  0.0000000E+00;  0.0000000E+00;  4.0000000E+04;  0.0000000E+00;  4.0000000E+04;  7.9696383E-06;  0.0000000E+00;  1.1609733E-05;  9.6036673E-01;
 -1.2000000E-01;  9.9999998E-03; -3.8000000E-01;733;  0.0000000E+00;  0.0000000E+00;  0.0000000E+00;  1.0000000E+03;  1.0000000E-01;  0.0000000E+00;0;  0.0000000E+00;  0.0000000E+00;  0.0000000E+00;0;  7.1730305E-05;  4.0000000E+04;  0.0000000E+00;  0.0000000E+00;  4.0000000E+04;  0.0000000E+00;  4.0000000E+04;  3.3046741E-05;  0.0000000E+00;  3.8683567E-05;  2.8490667E+00;
 -1.2000000E-01;  9.9999998E-03; -3.7000000E-01;734;  0.0000000E+00;  0.0000000E+00;  0.0000000E+00;  1.0000000E+03;  1.0000000E-01;  0.0000000E+00;0;  0.0000000E+00;  0.0000000E+00;  0.0000000E+00;0;  1.8592441E-04;  4.0000000E+04;  0.0000000E+00;  0.0000000E+00;  4.0000000E+04;  0.0000000E+00;  4.0000000E+04;  9.6401127E-05;  0.0000000E+00;  8.9523273E-05;  5.8533864E+00;
 -1.2000000E-01;  9.9999998E-03; -3.6000001E-01;735;  0.0000000E+00;  0.0000000E+00;  0.0000000E+00;  1.0000000E+03;  1.0000000E-01;  0.0000000E+00;0;  0.0000000E+00;  0.0000000E+00;  0.0000000E+00;0;  3.9630034E-04;  4.0000000E+04;  0.0000000E+00;  0.0000000E+00;  4.0000000E+04;  0.0000000E+00;  4.0000000E+04;  2.2897449E-04;  0.0000000E+00;  1.6732584E-04;  9.6463175E+00;
 -1.2000000E-01;  9.9999998E-03; -3.4999999E-01;736;  0.0000000E+00;  0.0000000E+00;  0.0000000E+00;  1.0000094E+03;  1.0000000E-01;  7.8022485E+00;0;  0.0000000E+00;  0.0000000E+00;  0.0000000E+00;0;  7.4552983E-04;  4.0000000E+04;  0.0000000E+00;  0.0000000E+00;  4.0000000E+04;  0.0000000E+00;  4.0000000E+04;  4.7433778E-04;  0.0000000E+00;  2.7119205E-04;  1.3570352E+01;
 -1.2000000E-01;  9.9999998E-03; -3.4000000E-01;737;  0.0000000E+00;  0.0000000E+00;  0.0000000E+00;  1.0000161E+03;  1.0000000E-01;  1.3332956E+01;0;  0.0000000E+00;  0.0000000E+00;  0.0000000E+00;0;  1.2877522E-03;  4.0000000E+04;  0.0000000E+00;  0.0000000E+00;  4.0000000E+04;  0.0000000E+00;  4.0000000E+04;  8.9105876E-04;  0.0000000E+00;  3.9669345E-04;  1.6724285E+01;
 -1.2000000E-01;  9.9999998E-03; -3.3000001E-01;738;  0.0000000E+00;  0.0000000E+00;  0.0000000E+00;  1.0000244E+03;  1.0000000E-01;  2.0147579E+01;0;  0.0000000E+00;  0.0000000E+00;  0.0000000E+00;0;  2.0907205E-03;  4.0000000E+04;  0.0000000E+00;  0.0000000E+00;  4.0000000E+04;  0.0000000E+00;  4.0000000E+04;  1.5541570E-03;  0.0000000E+00;  5.3656340E-04;  1.8096830E+01;
 -1.2000000E-01;  9.9999998E-03; -3.1999999E-01;739;  0.0000000E+00;  0.0000000E+00;  0.0000000E+00;  1.0000374E+03;  1.0000000E-01;  3.0912706E+01;0;  0.0000000E+00;  0.0000000E+00;  0.0000000E+00;0;  3.2364619E-03;  4.0000000E+04;  0.0000000E+00;  0.0000000E+00;  4.0000000E+04;  0.0000000E+00;  4.0000000E+04;  2.5549249E-03;  0.0000000E+00;  6.8153703E-04;  1.6738253E+01;
 -1.2000000E-01;  9.9999998E-03; -3.1000000E-01;740;  0.0000000E+00;  0.0000000E+00;  0.0000000E+00;  1.0000508E+03;  1.0000000E-01;  4.2072884E+01;0;  0.0000000E+00;  0.0000000E+00;  0.0000000E+00;0;  4.8196870E-03;  4.0000000E+04;  0.0000000E+00;  0.0000000E+00;  4.0000000E+04;  0.0000000E+00;  4.0000000E+04;  3.9983988E-03;  0.0000000E+00;  8.2128838E-04;  1.1960284E+01;
 -1.2000000E-01;  9.9999998E-03; -3.0000001E-01;741;  0.0000000E+00;  0.0000000E+00;  0.0000000E+00;  1.0000615E+03;  1.0000000E-01;  5.0961521E+01;0;  0.0000000E+00;  0.0000000E+00;  0.0000000E+00;0;  6.9428328E-03;  4.0000000E+04;  0.0000000E+00;  0.0000000E+00;  4.0000000E+04;  0.0000000E+00;  4.0000000E+04;  5.9974822E-03;  0.0000000E+00;  9.4535062E-04;  3.5556507E+00;
 -1.2000000E-01;  9.9999998E-03; -2.8999999E-01;742;  0.0000000E+00;  0.0000000E+00;  0.0000000E+00;  1.0000720E+03;  1.0000000E-01;  5.9652634E+01;0;  0.0000000E+00;  0.0000000E+00;  0.0000000E+00;0;  9.7070578E-03;  4.0000000E+04;  0.0000000E+00;  0.0000000E+00;  4.0000000E+04;  0.0000000E+00;  4.0000000E+04;  8.6629856E-03;  0.0000000E+00;  1.0440726E-03;  8.1141567E+00;
 -1.2000000E-01;  9.9999998E-03; -2.8000000E-01;743;  0.0000000E+00;  0.0000000E+00;  0.0000000E+00;  1.0000775E+03;  1.0000000E-01;  6.4195717E+01;0;  0.0000000E+00;  0.0000000E+00;  0.0000000E+00;0;  1.3198320E-02;  4.0000000E+04;  0.0000000E+00;  0.0000000E+00;  4.0000000E+04;  0.0000000E+00;  4.0000000E+04;  1.2088896E-02;  0.0000000E+00;  1.1094238E-03;  2.1895267E+01;
 -1.1000000E-01;  9.9999998E-03; -4.4000000E-01;818;  0.0000000E+00;  0.0000000E+00;  0.0000000E+00;  1.0000000E+03;  1.0000000E-01;  0.0000000E+00;0;  0.0000000E+00;  0.0000000E+00;  0.0000000E+00;0;  0.0000000E+00;  4.0000000E+04;  0.0000000E+00;  0.0000000E+00;  4.0000000E+04;  0.0000000E+00;  4.0000000E+04;  0.0000000E+00;  0.0000000E+00;  0.0000000E+00;  0.0000000E+00;
 -1.1000000E-01;  9.9999998E-03; -4.3000001E-01;819;  0.0000000E+00;  0.0000000E+00;  0.0000000E+00;  1.0000000E+03;  1.0000000E-01;  0.0000000E+00;0;  0.0000000E+00;  0.0000000E+00;  0.0000000E+00;0;  0.0000000E+00;  4.0000000E+04;  0.0000000E+00;  0.0000000E+00;  4.0000000E+04;  0.0000000E+00;  4.0000000E+04;  0.0000000E+00;  0.0000000E+00;  0.0000000E+00;  0.0000000E+00;
 -1.1000000E-01;  9.9999998E-03; -4.1999999E-01;820;  0.0000000E+00;  0.0000000E+00;  0.0000000E+00;  1.0000000E+03;  1.0000000E-01;  0.0000000E+00;0;  0.0000000E+00;  0.0000000E+00;  0.0000000E+00;0;  1.2638837E-10;  4.0000000E+04;  0.0000000E+00;  0.0000000E+00;  4.0000000E+04;  0.0000000E+00;  4.0000000E+04;  3.7829753E-11;  0.0000000E+00;  8.8558612E-11;  6.8899971E-07;
 -1.1000000E-01;  9.9999998E-03; -4.1000000E-01;821;  0.0000000E+00;  0.0000000E+00;  0.0000000E+00;  1.0000000E+03;  1.0000000E-01;  0.0000000E+00;0;  0.0000000E+00;  0.0000000E+00;  0.0000000E+00;0;  3.6988615E-06;  4.0000000E+04;  0.0000000E+00;  0.0000000E+00;  4.0000000E+04;  0.0000000E+00;  4.0000000E+04;  1.1414927E-06;  0.0000000E+00;  2.5573688E-06;  2.0456161E-01;
 -1.1000000E-01;  9.9999998E-03; -4.0000001E-01;822;  0.0000000E+00;  0.0000000E+00;  0.0000000E+00;  1.0000000E+03;  1.0000000E-01;  0.0000000E+00;0;  0.0000000E+00;  0.0000000E+00;  0.0000000E+00;0;  2.9653118E-05;  4.0000000E+04;  0.0000000E+00;  0.0000000E+00;  4.0000000E+04;  0.0000000E+00;  4.0000000E+04;  1.0221195E-05;  0.0000000E+00;  1.9431922E-05;  1.4669790E+00;
 -1.1000000E-01;  9.9999998E-03; -3.8999999E-01;823;  0.0000000E+00;  0.0000000E+00;  0.0000000E+00;  1.0000000E+03;  1.0000000E-01;  0.0000000E+00;0;  0.0000000E+00;  0.0000000E+00;  0.0000000E+00;0;  1.1045555E-04;  4.0000000E+04;  0.0000000E+00;  0.0000000E+00;  4.0000000E+04;  0.0000000E+00;  4.0000000E+04;  4.3340413E-05;  0.0000000E+00;  6.7115136E-05;  4.5613356E+00;
 -1.1000000E-01;  9.9999998E-03; -3.8000000E-01;824;  0.0000000E+00;  0.0000000E+00;  0.0000000E+00;  1.0000000E+03;  1.0000000E-01;  0.0000000E+00;0;  0.0000000E+00;  0.0000000E+00;  0.0000000E+00;0;  2.8880566E-04;  4.0000000E+04;  0.0000000E+00;  0.0000000E+00;  4.0000000E+04;  0.0000000E+00;  4.0000000E+04;  1.2909471E-04;  0.0000000E+00;  1.5971095E-04;  9.6664133E+00;
 -1.1000000E-01;  9.9999998E-03; -3.7000000E-01;825;  0.0000000E+00;  0.0000000E+00;  0.0000000E+00;  1.0000000E+03;  1.0000000E-01;  0.0000000E+00;0;  0.0000000E+00;  0.0000000E+00;  0.0000000E+00;0;  6.1665365E-04;  4.0000000E+04;  0.0000000E+00;  0.0000000E+00;  4.0000000E+04;  0.0000000E+00;  4.0000000E+04;  3.1175019E-04;  0.0000000E+00;  3.0490346E-04;  1.6316284E+01;
 -1.1000000E-01;  9.9999998E-03; -3.6000001E-01;826;  0.0000000E+00;  0.0000000E+00;  0.0000000E+00;  1.0000140E+03;  1.0000000E-01;  1.1555229E+01;0;  0.0000000E+00;  0.0000000E+00;  0.0000000E+00;0;  1.1588582E-03;  4.0000000E+04;  0.0000000E+00;  0.0000000E+00;  4.0000000E+04;  0.0000000E+00;  4.0000000E+04;  6.5534312E-04;  0.0000000E+00;  5.0351513E-04;  2.3515564E+01;
 -1.1000000E-01;  9.9999998E-03; -3.4999999E-01;827;  0.0000000E+00;  0.0000000E+00;  0.0000000E+00;  1.0000186E+03;  1.0000000E-01;  1.5406972E+01;0;  0.0000000E+00;  0.0000000E+00;  0.0000000E+00;0;  1.9972352E-03;  4.0000000E+04;  0.0000000E+00;  0.0000000E+00;  4.0000000E+04;  0.0000000E+00;  4.0000000E+04;  1.2471931E-03;  0.0000000E+00;  7.5004203E-04;  2.9878250E+01;
 -1.1000000E-01;  9.9999998E-03; -3.4000000E-01;828;  0.0000000E+00;  0.0000000E+00;  0.0000000E+00;  1.0000368E+03;  1.0000000E-01;  3.0517656E+01;0;  0.0000000E+00;  0.0000000E+00;  0.0000000E+00;0;  3.2346984E-03;  4.0000000E+04;  0.0000000E+00;  0.0000000E+00;  4.0000000E+04;  0.0000000E+00;  4.0000000E+04;  2.2009413E-03;  0.0000000E+00;  1.0337571E-03;  3.3788677E+01;
 -1.1000000E-01;  9.9999998E-03; -3.3000001E-01;829;  0.0000000E+00;  0.0000000E+00;  0.0000000E+00;  1.0000530E+03;  1.0000000E-01;  4.3850613E+01;0;  0.0000000E+00;  0.0000000E+00;  0.0000000E+00;0;  4.9967724E-03;  4.0000000E+04;  0.0000000E+00;  0.0000000E+00;  4.0000000E+04;  0.0000000E+00;  4.0000000E+04;  3.6572437E-03;  0.0000000E+00;  1.3395288E-03;  3.3594379E+01;
 -1.1000000E-01;  9.9999998E-03; -3.1999999E-01;830;  0.0000000E+00;  0.0000000E+00;  0.0000000E+00;  1.0000694E+03;  1.0000000E-01;  5.7479855E+01;0;  0.0000000E+00;  0.0000000E+00;  0.0000000E+00;0;  7.4293762E-03;  4.0000000E+04;  0.0000000E+00;  0.0000000E+00;  4.0000000E+04;  0.0000000E+00;  4.0000000E+04;  5.7808873E-03;  0.0000000E+00;  1.6484889E-03;  2.7851814E+01;
 -1.1000000E-01;  9.9999998E-03; -3.1000000E-01;831;  0.0000000E+00;  0.0000000E+00;  0.0000000E+00;  1.0000909E+03;  1.0000000E-01;  7.5257133E+01;0;  0.0000000E+00;  0.0000000E+00;  0.0000000E+00;0;  1.0692084E-02;  4.0000000E+04;  0.0000000E+00;  0.0000000E+00;  4.0000000E+04;  0.0000000E+00;  4.0000000E+04;  8.7532578E-03;  0.0000000E+00;  1.9388269E-03;  1.5642605E+01;
 -1.1000000E-01;  9.9999998E-03; -3.0000001E-01;832;  0.0000000E+00;  0.0000000E+00;  0.0000000E+00;  1.0001071E+03;  1.0000000E-01;  8.8688850E+01;0;  0.0000000E+00;  0.0000000E+00;  0.0000000E+00;0;  1.4946353E-02;  4.0000000E+04;  0.0000000E+00;  0.0000000E+00;  4.0000000E+04;  0.0000000E+00;  4.0000000E+04;  1.2759131E-02;  0.0000000E+00;  2.1872211E-03;  3.2299526E+00;
 -1.1000000E-01;  9.9999998E-03; -2.8999999E-01;833;  0.0000000E+00;  0.0000000E+00;  0.0000000E+00;  1.0001235E+03;  1.0000000E-01;  1.0231809E+02;0;  0.0000000E+00;  0.0000000E+00;  0.0000000E+00;0;  2.0338150E-02;  4.0000000E+04;  0.0000000E+00;  0.0000000E+00;  4.0000000E+04;  0.0000000E+00;  4.0000000E+04;  1.7966863E-02;  0.0000000E+00;  2.3712865E-03;  2.7353939E+01;
 -1.1000000E-01;  9.9999998E-03; -2.8000000E-01;834;  0.0000000E+00;  0.0000000E+00;  0.0000000E+00;  1.0001317E+03;  1.0000000E-01;  1.0913271E+02;0;  0.0000000E+00;  0.0000000E+00;  0.0000000E+00;0;  2.6975229E-02;  4.0000000E+04;  0.0000000E+00;  0.0000000E+00;  4.0000000E+04;  0.0000000E+00;  4.0000000E+04;  2.4502523E-02;  0.0000000E+00;  2.4727068E-03;  5.4855923E+01;
 -1.0000000E-01;  9.9999998E-03; -4.4000000E-01;909;  0.0000000E+00;  0.0000000E+00;  0.0000000E+00;  1.0000000E+03;  1.0000000E-01;  0.0000000E+00;0;  0.0000000E+00;  0.0000000E+00;  0.0000000E+00;0;  0.0000000E+00;  4.0000000E+04;  0.0000000E+00;  0.0000000E+00;  4.0000000E+04;  0.0000000E+00;  4.0000000E+04;  0.0000000E+00;  0.0000000E+00;  0.0000000E+00;  0.0000000E+00;
 -1.0000000E-01;  9.9999998E-03; -4.3000001E-01;910;  0.0000000E+00;  0.0000000E+00;  0.0000000E+00;  1.0000000E+03;  1.0000000E-01;  0.0000000E+00;0;  0.0000000E+00;  0.0000000E+00;  0.0000000E+00;0;  0.0000000E+00;  4.0000000E+04;  0.0000000E+00;  0.0000000E+00;  4.0000000E+04;  0.0000000E+00;  4.0000000E+04;  0.0000000E+00;  0.0000000E+00;  0.0000000E+00;  0.0000000E+00;
 -1.0000000E-01;  9.9999998E-03; -4.1999999E-01;911;  0.0000000E+00;  0.0000000E+00;  0.0000000E+00;  1.0000000E+03;  1.0000000E-01;  0.0000000E+00;0;  0.0000000E+00;  0.0000000E+00;  0.0000000E+00;0;  3.3634840E-06;  4.0000000E+04;  0.0000000E+00;  0.0000000E+00;  4.0000000E+04;  0.0000000E+00;  4.0000000E+04;  8.9311828E-07;  0.0000000E+00;  2.4703656E-06;  1.7598811E-01;
 -1.0000000E-01;  9.9999998E-03; -4.1000000E-01;912;  0.0000000E+00;  0.0000000E+00;  0.0000000E+00;  1.0000000E+03;  1.0000000E-01;  0.0000000E+00;0;  0.0000000E+00;  0.0000000E+00;  0.0000000E+00;0;  3.3843604E-05;  4.0000000E+04;  0.0000000E+00;  0.0000000E+00;  4.0000000E+04;  0.0000000E+00;  4.0000000E+04;  9.8399369E-06;  0.0000000E+00;  2.4003666E-05;  1.6756542E+00;
 -1.0000000E-01;  9.9999998E-03; -4.0000001E-01;913;  0.0000000E+00;  0.0000000E+00;  0.0000000E+00;  1.0000000E+03;  1.0000000E-01;  0.0000000E+00;0;  0.0000000E+00;  0.0000000E+00;  0.0000000E+00;0;  1.3826108E-04;  4.0000000E+04;  0.0000000E+00;  0.0000000E+00;  4.0000000E+04;  0.0000000E+00;  4.0000000E+04;  4.5616540E-05;  0.0000000E+00;  9.2644535E-05;  5.8767061E+00;
 -1.0000000E-01;  9.9999998E-03; -3.8999999E-01;914;  0.0000000E+00;  0.0000000E+00;  0.0000000E+00;  1.0000000E+03;  1.0000000E-01;  0.0000000E+00;0;  0.0000000E+00;  0.0000000E+00;  0.0000000E+00;0;  3.7828743E-04;  4.0000000E+04;  0.0000000E+00;  0.0000000E+00;  4.0000000E+04;  0.0000000E+00;  4.0000000E+04;  1.4311884E-04;  0.0000000E+00;  2.3516858E-04;  1.3339162E+01;
 -1.0000000E-01;  9.9999998E-03; -3.8000000E-01;915;  0.0000000E+00;  0.0000000E+00;  0.0000000E+00;  1.0000063E+03;  1.0000000E-01;  5.2344198E+00;0;  0.0000000E+00;  0.0000000E+00;  0.0000000E+00;0;  8.2665938E-04;  4.0000000E+04;  0.0000000E+00;  0.0000000E+00;  4.0000000E+04;  0.0000000E+00;  4.0000000E+04;  3.5828241E-04;  0.0000000E+00;  4.6837699E-04;  2.3552698E+01;
 -1.0000000E-01;  9.9999998E-03; -3.7000000E-01;916;  0.0000000E+00;  0.0000000E+00;  0.0000000E+00;  1.0000157E+03;  1.0000000E-01;  1.3036669E+01;0;  0.0000000E+00;  0.0000000E+00;  0.0000000E+00;0;  1.5707836E-03;  4.0000000E+04;  0.0000000E+00;  0.0000000E+00;  4.0000000E+04;  0.0000000E+00;  4.0000000E+04;  7.7365595E-04;  0.0000000E+00;  7.9712755E-04;  3.5141216E+01;
 -1.0000000E-01;  9.9999998E-03; -3.6000001E-01;917;  0.0000000E+00;  0.0000000E+00;  0.0000000E+00;  1.0000312E+03;  1.0000000E-01;  2.5875811E+01;0;  0.0000000E+00;  0.0000000E+00;  0.0000000E+00;0;  2.7210647E-03;  4.0000000E+04;  0.0000000E+00;  0.0000000E+00;  4.0000000E+04;  0.0000000E+00;  4.0000000E+04;  1.5048664E-03;  0.0000000E+00;  1.2161983E-03;  4.6136837E+01;
 -1.0000000E-01;  9.9999998E-03; -3.4999999E-01;918;  0.0000000E+00;  0.0000000E+00;  0.0000000E+00;  1.0000476E+03;  1.0000000E-01;  3.9406292E+01;0;  0.0000000E+00;  0.0000000E+00;  0.0000000E+00;0;  4.4176839E-03;  4.0000000E+04;  0.0000000E+00;  0.0000000E+00;  4.0000000E+04;  0.0000000E+00;  4.0000000E+04;  2.7056099E-03;  0.0000000E+00;  1.7120740E-03;  5.4203602E+01;
 -1.0000000E-01;  9.9999998E-03; -3.4000000E-01;919;  0.0000000E+00;  0.0000000E+00;  0.0000000E+00;  1.0000663E+03;  1.0000000E-01;  5.5010788E+01;0;  0.0000000E+00;  0.0000000E+00;  0.0000000E+00;0;  6.8347091E-03;  4.0000000E+04;  0.0000000E+00;  0.0000000E+00;  4.0000000E+04;  0.0000000E+00;  4.0000000E+04;  4.5705801E-03;  0.0000000E+00;  2.2641290E-03;  5.6841400E+01;
 -1.0000000E-01;  9.9999998E-03; -3.3000001E-01;920;  0.0000000E+00;  0.0000000E+00;  0.0000000E+00;  1.0000920E+03;  1.0000000E-01;  7.6244759E+01;0;  0.0000000E+00;  0.0000000E+00;  0.0000000E+00;0;  1.0178495E-02;  4.0000000E+04;  0.0000000E+00;  0.0000000E+00;  4.0000000E+04;  0.0000000E+00;  4.0000000E+04;  7.3337178E-03;  0.0000000E+00;  2.8447772E-03;  5.1630795E+01;
 -1.0000000E-01;  9.9999998E-03; -3.1999999E-01;921;  0.0000000E+00;  0.0000000E+00;  0.0000000E+00;  1.0001185E+03;  1.0000000E-01;  9.8170067E+01;0;  0.0000000E+00;  0.0000000E+00;  0.0000000E+00;0;  1.4679229E-02;  4.0000000E+04;  0.0000000E+00;  0.0000000E+00;  4.0000000E+04;  0.0000000E+00;  4.0000000E+04;  1.1259994E-02;  0.0000000E+00;  3.4192351E-03;  3.6590683E+01;
 -1.0000000E-01;  9.9999998E-03; -3.1000000E-01;922;  0.0000000E+00;  0.0000000E+00;  0.0000000E+00;  1.0001445E+03;  1.0000000E-01;  1.1970032E+02;0;  0.0000000E+00;  0.0000000E+00;  0.0000000E+00;0;  2.0575384E-02;  4.0000000E+04;  0.0000000E+00;  0.0000000E+00;  4.0000000E+04;  0.0000000E+00;  4.0000000E+04;  1.6629338E-02;  0.0000000E+00;  3.9460459E-03;  1.0719874E+01;
 -1.0000000E-01;  9.9999998E-03; -3.0000001E-01;923;  0.0000000E+00;  0.0000000E+00;  0.0000000E+00;  1.0001664E+03;  1.0000000E-01;  1.3787265E+02;0;  0.0000000E+00;  0.0000000E+00;  0.0000000E+00;0;  2.8091397E-02;  4.0000000E+04;  0.0000000E+00;  0.0000000E+00;  4.0000000E+04;  0.0000000E+00;  4.0000000E+04;  2.3711676E-02;  0.0000000E+00;  4.3797218E-03;  2.5851103E+01;
 -1.0000000E-01;  9.9999998E-03; -2.8999999E-01;924;  0.0000000E+00;  0.0000000E+00;  0.0000000E+00;  1.0001869E+03;  1.0000000E-01;  1.5485982E+02;0;  0.0000000E+00;  0.0000000E+00;  0.0000000E+00;0;  3.7410304E-02;  4.0000000E+04;  0.0000000E+00;  0.0000000E+00;  4.0000000E+04;  0.0000000E+00;  4.0000000E+04;  3.2733679E-02;  0.0000000E+00;  4.6766242E-03;  7.0492981E+01;
 -1.0000000E-01;  9.9999998E-03; -2.8000000E-01;925;  0.0000000E+00;  0.0000000E+00;  0.0000000E+00;  1.0001960E+03;  1.0000000E-01;  1.6236578E+02;0;  0.0000000E+00;  0.0000000E+00;  0.0000000E+00;0;  4.8644546E-02;  4.0000000E+04;  0.0000000E+00;  0.0000000E+00;  4.0000000E+04;  0.0000000E+00;  4.0000000E+04;  4.3841679E-02;  0.0000000E+00;  4.8028668E-03;  1.1944905E+02;
 -9.0000004E-02;  9.9999998E-03; -4.4000000E-01;1000;  0.0000000E+00;  0.0000000E+00;  0.0000000E+00;  1.0000000E+03;  1.0000000E-01;  0.0000000E+00;0;  0.0000000E+00;  0.0000000E+00;  0.0000000E+00;0;  0.0000000E+00;  4.0000000E+04;  0.0000000E+00;  0.0000000E+00;  4.0000000E+04;  0.0000000E+00;  4.0000000E+04;  0.0000000E+00;  0.0000000E+00;  0.0000000E+00;  0.0000000E+00;
 -9.0000004E-02;  9.9999998E-03; -4.3000001E-01;1001;  0.0000000E+00;  0.0000000E+00;  0.0000000E+00;  1.0000000E+03;  1.0000000E-01;  0.0000000E+00;0;  0.0000000E+00;  0.0000000E+00;  0.0000000E+00;0;  1.7393143E-06;  4.0000000E+04;  0.0000000E+00;  0.0000000E+00;  4.0000000E+04;  0.0000000E+00;  4.0000000E+04;  4.1008263E-07;  0.0000000E+00;  1.3292316E-06;  8.2246862E-02;
 -9.0000004E-02;  9.9999998E-03; -4.1999999E-01;1002;  0.0000000E+00;  0.0000000E+00;  0.0000000E+00;  1.0000000E+03;  1.0000000E-01;  0.0000000E+00;0;  0.0000000E+00;  0.0000000E+00;  0.0000000E+00;0;  2.8872455E-05;  4.0000000E+04;  0.0000000E+00;  0.0000000E+00;  4.0000000E+04;  0.0000000E+00;  4.0000000E+04;  7.1567092E-06;  0.0000000E+00;  2.1715745E-05;  1.4223130E+00;
 -9.0000004E-02;  9.9999998E-03; -4.1000000E-01;1003;  0.0000000E+00;  0.0000000E+00;  0.0000000E+00;  1.0000000E+03;  1.0000000E-01;  0.0000000E+00;0;  0.0000000E+00;  0.0000000E+00;  0.0000000E+00;0;  1.4179264E-04;  4.0000000E+04;  0.0000000E+00;  0.0000000E+00;  4.0000000E+04;  0.0000000E+00;  4.0000000E+04;  3.9255006E-05;  0.0000000E+00;  1.0253763E-04;  6.1561170E+00;
 -9.0000004E-02;  9.9999998E-03; -4.0000001E-01;1004;  0.0000000E+00;  0.0000000E+00;  0.0000000E+00;  1.0000000E+03;  1.0000000E-01;  0.0000000E+00;0;  0.0000000E+00;  0.0000000E+00;  0.0000000E+00;0;  4.2537804E-04;  4.0000000E+04;  0.0000000E+00;  0.0000000E+00;  4.0000000E+04;  0.0000000E+00;  4.0000000E+04;  1.3471216E-04;  0.0000000E+00;  2.9066586E-04;  1.5641780E+01;
 -9.0000004E-02;  9.9999998E-03; -3.8999999E-01;1005;  0.0000000E+00;  0.0000000E+00;  0.0000000E+00;  1.0000076E+03;  1.0000000E-01;  6.2220464E+00;0;  0.0000000E+00;  0.0000000E+00;  0.0000000E+00;0;  9.7666052E-04;  4.0000000E+04;  0.0000000E+00;  0.0000000E+00;  4.0000000E+04;  0.0000000E+00;  4.0000000E+04;  3.5689428E-04;  0.0000000E+00;  6.1976624E-04;  2.9619677E+01;
 -9.0000004E-02;  9.9999998E-03; -3.8000000E-01;1006;  0.0000000E+00;  0.0000000E+00;  0.0000000E+00;  1.0000145E+03;  1.0000000E-01;  1.2049042E+01;0;  0.0000000E+00;  0.0000000E+00;  0.0000000E+00;0;  1.9062411E-03;  4.0000000E+04;  0.0000000E+00;  0.0000000E+00;  4.0000000E+04;  0.0000000E+00;  4.0000000E+04;  8.0238294E-04;  0.0000000E+00;  1.1038581E-03;  4.6385952E+01;
 -9.0000004E-02;  9.9999998E-03; -3.7000000E-01;1007;  0.0000000E+00;  0.0000000E+00;  0.0000000E+00;  1.0000328E+03;  1.0000000E-01;  2.7159725E+01;0;  0.0000000E+00;  0.0000000E+00;  0.0000000E+00;0;  3.3498604E-03;  4.0000000E+04;  0.0000000E+00;  0.0000000E+00;  4.0000000E+04;  0.0000000E+00;  4.0000000E+04;  1.6098187E-03;  0.0000000E+00;  1.7400418E-03;  6.3298462E+01;
 -9.0000004E-02;  9.9999998E-03; -3.6000001E-01;1008;  0.0000000E+00;  0.0000000E+00;  0.0000000E+00;  1.0000500E+03;  1.0000000E-01;  4.1381546E+01;0;  0.0000000E+00;  0.0000000E+00;  0.0000000E+00;0;  5.4822359E-03;  4.0000000E+04;  0.0000000E+00;  0.0000000E+00;  4.0000000E+04;  0.0000000E+00;  4.0000000E+04;  2.9690003E-03;  0.0000000E+00;  2.5132354E-03;  7.7178688E+01;
 -9.0000004E-02;  9.9999998E-03; -3.4999999E-01;1009;  0.0000000E+00;  0.0000000E+00;  0.0000000E+00;  1.0000771E+03;  1.0000000E-01;  6.3899426E+01;0;  0.0000000E+00;  0.0000000E+00;  0.0000000E+00;0;  8.5255466E-03;  4.0000000E+04;  0.0000000E+00;  0.0000000E+00;  4.0000000E+04;  0.0000000E+00;  4.0000000E+04;  5.1269629E-03;  0.0000000E+00;  3.3985835E-03;  8.4564369E+01;
 -9.0000004E-02;  9.9999998E-03; -3.4000000E-01;1010;  0.0000000E+00;  0.0000000E+00;  0.0000000E+00;  1.0001056E+03;  1.0000000E-01;  8.7503700E+01;0;  0.0000000E+00;  0.0000000E+00;  0.0000000E+00;0;  1.2751041E-02;  4.0000000E+04;  0.0000000E+00;  0.0000000E+00;  4.0000000E+04;  0.0000000E+00;  4.0000000E+04;  8.3894981E-03;  0.0000000E+00;  4.3615424E-03;  8.1923172E+01;
 -9.0000004E-02;  9.9999998E-03; -3.3000001E-01;1011;  0.0000000E+00;  0.0000000E+00;  0.0000000E+00;  1.0001413E+03;  1.0000000E-01;  1.1703373E+02;0;  0.0000000E+00;  0.0000000E+00;  0.0000000E+00;0;  1.8470509E-02;  4.0000000E+04;  0.0000000E+00;  0.0000000E+00;  4.0000000E+04;  0.0000000E+00;  4.0000000E+04;  1.3114424E-02;  0.0000000E+00;  5.3560846E-03;  6.5967583E+01;
 -9.0000004E-02;  9.9999998E-03; -3.1999999E-01;1012;  0.0000000E+00;  0.0000000E+00;  0.0000000E+00;  1.0001764E+03;  1.0000000E-01;  1.4616870E+02;0;  0.0000000E+00;  0.0000000E+00;  0.0000000E+00;0;  2.6016980E-02;  4.0000000E+04;  0.0000000E+00;  0.0000000E+00;  4.0000000E+04;  0.0000000E+00;  4.0000000E+04;  1.9694181E-02;  0.0000000E+00;  6.3227997E-03;  3.4204887E+01;
 -9.0000004E-02;  9.9999998E-03; -3.1000000E-01;1013;  0.0000000E+00;  0.0000000E+00;  0.0000000E+00;  1.0002100E+03;  1.0000000E-01;  1.7392101E+02;0;  0.0000000E+00;  0.0000000E+00;  0.0000000E+00;0;  3.5715539E-02;  4.0000000E+04;  0.0000000E+00;  0.0000000E+00;  4.0000000E+04;  0.0000000E+00;  4.0000000E+04;  2.8526407E-02;  0.0000000E+00;  7.1891323E-03;  1.4692684E+01;
 -9.0000004E-02;  9.9999998E-03; -3.0000001E-01;1014;  0.0000000E+00;  0.0000000E+00;  0.0000000E+00;  1.0002402E+03;  1.0000000E-01;  1.9900671E+02;0;  0.0000000E+00;  0.0000000E+00;  0.0000000E+00;0;  4.7847681E-02;  4.0000000E+04;  0.0000000E+00;  0.0000000E+00;  4.0000000E+04;  0.0000000E+00;  4.0000000E+04;  3.9972749E-02;  0.0000000E+00;  7.8749340E-03;  7.8609344E+01;
 -9.0000004E-02;  9.9999998E-03; -2.8999999E-01;1015;  0.0000000E+00;  0.0000000E+00;  0.0000000E+00;  1.0002614E+03;  1.0000000E-01;  2.1648770E+02;0;  0.0000000E+00;  0.0000000E+00;  0.0000000E+00;0;  6.2616259E-02;  4.0000000E+04;  0.0000000E+00;  0.0000000E+00;  4.0000000E+04;  0.0000000E+00;  4.0000000E+04;  5.4311331E-02;  0.0000000E+00;  8.3049284E-03;  1.5395564E+02;
 -9.0000004E-02;  9.9999998E-03; -2.8000000E-01;1016;  0.0000000E+00;  0.0000000E+00;  0.0000000E+00;  1.0002684E+03;  1.0000000E-01;  2.2241347E+02;0;  0.0000000E+00;  0.0000000E+00;  0.0000000E+00;0;  8.0115221E-02;  4.0000000E+04;  0.0000000E+00;  0.0000000E+00;  4.0000000E+04;  0.0000000E+00;  4.0000000E+04;  7.1690992E-02;  0.0000000E+00;  8.4242271E-03;  2.3396339E+02;
 -7.9999998E-02;  9.9999998E-03; -4.4000000E-01;1091;  0.0000000E+00;  0.0000000E+00;  0.0000000E+00;  1.0000000E+03;  1.0000000E-01;  0.0000000E+00;0;  0.0000000E+00;  0.0000000E+00;  0.0000000E+00;0;  3.4263365E-07;  4.0000000E+04;  0.0000000E+00;  0.0000000E+00;  4.0000000E+04;  0.0000000E+00;  4.0000000E+04;  7.4385255E-08;  0.0000000E+00;  2.6824841E-07;  1.4482554E-02;
 -7.9999998E-02;  9.9999998E-03; -4.3000001E-01;1092;  0.0000000E+00;  0.0000000E+00;  0.0000000E+00;  1.0000000E+03;  1.0000000E-01;  0.0000000E+00;0;  0.0000000E+00;  0.0000000E+00;  0.0000000E+00;0;  1.7194410E-05;  4.0000000E+04;  0.0000000E+00;  0.0000000E+00;  4.0000000E+04;  0.0000000E+00;  4.0000000E+04;  3.7253758E-06;  0.0000000E+00;  1.3469034E-05;  8.3635741E-01;
 -7.9999998E-02;  9.9999998E-03; -4.1999999E-01;1093;  0.0000000E+00;  0.0000000E+00;  0.0000000E+00;  1.0000000E+03;  1.0000000E-01;  0.0000000E+00;0;  0.0000000E+00;  0.0000000E+00;  0.0000000E+00;0;  1.1633134E-04;  4.0000000E+04;  0.0000000E+00;  0.0000000E+00;  4.0000000E+04;  0.0000000E+00;  4.0000000E+04;  2.7325896E-05;  0.0000000E+00;  8.9005451E-05;  5.1246734E+00;
 -7.9999998E-02;  9.9999998E-03; -4.1000000E-01;1094;  0.0000000E+00;  0.0000000E+00;  0.0000000E+00;  1.0000000E+03;  1.0000000E-01;  0.0000000E+00;0;  0.0000000E+00;  0.0000000E+00;  0.0000000E+00;0;  4.0787880E-04;  4.0000000E+04;  0.0000000E+00;  0.0000000E+00;  4.0000000E+04;  0.0000000E+00;  4.0000000E+04;  1.0800428E-04;  0.0000000E+00;  2.9987452E-04;  1.5491607E+01;
 -7.9999998E-02;  9.9999998E-03; -4.0000001E-01;1095;  0.0000000E+00;  0.0000000E+00;  0.0000000E+00;  1.0000062E+03;  1.0000000E-01;  5.1356573E+00;0;  0.0000000E+00;  0.0000000E+00;  0.0000000E+00;0;  1.0204589E-03;  4.0000000E+04;  0.0000000E+00;  0.0000000E+00;  4.0000000E+04;  0.0000000E+00;  4.0000000E+04;  3.1122664E-04;  0.0000000E+00;  7.0923223E-04;  3.2544514E+01;
 -7.9999998E-02;  9.9999998E-03; -3.8999999E-01;1096;  0.0000000E+00;  0.0000000E+00;  0.0000000E+00;  1.0000135E+03;  1.0000000E-01;  1.1258941E+01;0;  0.0000000E+00;  0.0000000E+00;  0.0000000E+00;0;  2.0908401E-03;  4.0000000E+04;  0.0000000E+00;  0.0000000E+00;  4.0000000E+04;  0.0000000E+00;  4.0000000E+04;  7.4038561E-04;  0.0000000E+00;  1.3504546E-03;  5.4558975E+01;
 -7.9999998E-02;  9.9999998E-03; -3.8000000E-01;1097;  0.0000000E+00;  0.0000000E+00;  0.0000000E+00;  1.0000317E+03;  1.0000000E-01;  2.6270863E+01;0;  0.0000000E+00;  0.0000000E+00;  0.0000000E+00;0;  3.7766909E-03;  4.0000000E+04;  0.0000000E+00;  0.0000000E+00;  4.0000000E+04;  0.0000000E+00;  4.0000000E+04;  1.5487598E-03;  0.0000000E+00;  2.2279313E-03;  7.8197098E+01;
 -7.9999998E-02;  9.9999998E-03; -3.7000000E-01;1098;  0.0000000E+00;  0.0000000E+00;  0.0000000E+00;  1.0000530E+03;  1.0000000E-01;  4.3949375E+01;0;  0.0000000E+00;  0.0000000E+00;  0.0000000E+00;0;  6.2786373E-03;  4.0000000E+04;  0.0000000E+00;  0.0000000E+00;  4.0000000E+04;  0.0000000E+00;  4.0000000E+04;  2.9522770E-03;  0.0000000E+00;  3.3263604E-03;  9.9286789E+01;
 -7.9999998E-02;  9.9999998E-03; -3.6000001E-01;1099;  0.0000000E+00;  0.0000000E+00;  0.0000000E+00;  1.0000811E+03;  1.0000000E-01;  6.7158592E+01;0;  0.0000000E+00;  0.0000000E+00;  0.0000000E+00;0;  9.8592257E-03;  4.0000000E+04;  0.0000000E+00;  0.0000000E+00;  4.0000000E+04;  0.0000000E+00;  4.0000000E+04;  5.2413936E-03;  0.0000000E+00;  4.6178321E-03;  1.1327093E+02;
 -7.9999998E-02;  9.9999998E-03; -3.4999999E-01;1100;  0.0000000E+00;  0.0000000E+00;  0.0000000E+00;  1.0001139E+03;  1.0000000E-01;  9.4318321E+01;0;  0.0000000E+00;  0.0000000E+00;  0.0000000E+00;0;  1.4850845E-02;  4.0000000E+04;  0.0000000E+00;  0.0000000E+00;  4.0000000E+04;  0.0000000E+00;  4.0000000E+04;  8.7875025E-03;  0.0000000E+00;  6.0633421E-03;  1.1542253E+02;
 -7.9999998E-02;  9.9999998E-03; -3.4000000E-01;1101;  0.0000000E+00;  0.0000000E+00;  0.0000000E+00;  1.0001531E+03;  1.0000000E-01;  1.2681123E+02;0;  0.0000000E+00;  0.0000000E+00;  0.0000000E+00;0;  2.1650741E-02;  4.0000000E+04;  0.0000000E+00;  0.0000000E+00;  4.0000000E+04;  0.0000000E+00;  4.0000000E+04;  1.4040817E-02;  0.0000000E+00;  7.6099248E-03;  1.0105119E+02;
 -7.9999998E-02;  9.9999998E-03; -3.3000001E-01;1102;  0.0000000E+00;  0.0000000E+00;  0.0000000E+00;  1.0001979E+03;  1.0000000E-01;  1.6394598E+02;0;  0.0000000E+00;  0.0000000E+00;  0.0000000E+00;0;  3.0700399E-02;  4.0000000E+04;  0.0000000E+00;  0.0000000E+00;  4.0000000E+04;  0.0000000E+00;  4.0000000E+04;  2.1514989E-02;  0.0000000E+00;  9.1854092E-03;  6.5940689E+01;
 -7.9999998E-02;  9.9999998E-03; -3.1999999E-01;1103;  0.0000000E+00;  0.0000000E+00;  0.0000000E+00;  1.0002450E+03;  1.0000000E-01;  2.0295723E+02;0;  0.0000000E+00;  0.0000000E+00;  0.0000000E+00;0;  4.2449079E-02;  4.0000000E+04;  0.0000000E+00;  0.0000000E+00;  4.0000000E+04;  0.0000000E+00;  4.0000000E+04;  3.1755216E-02;  0.0000000E+00;  1.0693865E-02;  7.7561769E+00;
 -7.9999998E-02;  9.9999998E-03; -3.1000000E-01;1104;  0.0000000E+00;  0.0000000E+00;  0.0000000E+00;  1.0002870E+03;  1.0000000E-01;  2.3782043E+02;0;  0.0000000E+00;  0.0000000E+00;  0.0000000E+00;0;  5.7306461E-02;  4.0000000E+04;  0.0000000E+00;  0.0000000E+00;  4.0000000E+04;  0.0000000E+00;  4.0000000E+04;  4.5290116E-02;  0.0000000E+00;  1.2016344E-02;  7.6221809E+01;
 -7.9999998E-02;  9.9999998E-03; -3.0000001E-01;1105;  0.0000000E+00;  0.0000000E+00;  0.0000000E+00;  1.0003196E+03;  1.0000000E-01;  2.6478262E+02;0;  0.0000000E+00;  0.0000000E+00;  0.0000000E+00;0;  7.5594373E-02;  4.0000000E+04;  0.0000000E+00;  0.0000000E+00;  4.0000000E+04;  0.0000000E+00;  4.0000000E+04;  6.2572010E-02;  0.0000000E+00;  1.3022366E-02;  1.8058681E+02;
 -7.9999998E-02;  9.9999998E-03; -2.8999999E-01;1106;  0.0000000E+00;  0.0000000E+00;  0.0000000E+00;  1.0003399E+03;  1.0000000E-01;  2.8157230E+02;0;  0.0000000E+00;  0.0000000E+00;  0.0000000E+00;0;  9.7510338E-02;  4.0000000E+04;  0.0000000E+00;  0.0000000E+00;  4.0000000E+04;  0.0000000E+00;  4.0000000E+04;  8.3917201E-02;  0.0000000E+00;  1.3593135E-02;  2.9915918E+02;
 -7.9999998E-02;  9.9999998E-03; -2.8000000E-01;1107;  0.0000000E+00;  0.0000000E+00;  0.0000000E+00;  1.0003401E+03;  1.0000000E-01;  2.8176981E+02;0;  0.0000000E+00;  0.0000000E+00;  0.0000000E+00;0;  1.2310202E-01;  4.0000000E+04;  0.0000000E+00;  0.0000000E+00;  4.0000000E+04;  0.0000000E+00;  4.0000000E+04;  1.0945421E-01;  0.0000000E+00;  1.3647801E-02;  4.2141022E+02;
 -7.0000000E-02;  9.9999998E-03; -4.4000000E-01;1182;  0.0000000E+00;  0.0000000E+00;  0.0000000E+00;  1.0000000E+03;  1.0000000E-01;  0.0000000E+00;0;  0.0000000E+00;  0.0000000E+00;  0.0000000E+00;0;  5.9253020E-06;  4.0000000E+04;  0.0000000E+00;  0.0000000E+00;  4.0000000E+04;  0.0000000E+00;  4.0000000E+04;  1.1625031E-06;  0.0000000E+00;  4.7627991E-06;  2.7769151E-01;
 -7.0000000E-02;  9.9999998E-03; -4.3000001E-01;1183;  0.0000000E+00;  0.0000000E+00;  0.0000000E+00;  1.0000000E+03;  1.0000000E-01;  0.0000000E+00;0;  0.0000000E+00;  0.0000000E+00;  0.0000000E+00;0;  7.1739101E-05;  4.0000000E+04;  0.0000000E+00;  0.0000000E+00;  4.0000000E+04;  0.0000000E+00;  4.0000000E+04;  1.4631207E-05;  0.0000000E+00;  5.7107893E-05;  3.1827605E+00;
 -7.0000000E-02;  9.9999998E-03; -4.1999999E-01;1184;  0.0000000E+00;  0.0000000E+00;  0.0000000E+00;  1.0000000E+03;  1.0000000E-01;  0.0000000E+00;0;  0.0000000E+00;  0.0000000E+00;  0.0000000E+00;0;  3.2379880E-04;  4.0000000E+04;  0.0000000E+00;  0.0000000E+00;  4.0000000E+04;  0.0000000E+00;  4.0000000E+04;  7.2439710E-05;  0.0000000E+00;  2.5135907E-04;  1.2595809E+01;
 -7.0000000E-02;  9.9999998E-03; -4.1000000E-01;1185;  0.0000000E+00;  0.0000000E+00;  0.0000000E+00;  1.0000000E+03;  1.0000000E-01;  0.0000000E+00;0;  0.0000000E+00;  0.0000000E+00;  0.0000000E+00;0;  9.2983566E-04;  4.0000000E+04;  0.0000000E+00;  0.0000000E+00;  4.0000000E+04;  0.0000000E+00;  4.0000000E+04;  2.3634195E-04;  0.0000000E+00;  6.9349370E-04;  3.0840885E+01;
 -7.0000000E-02;  9.9999998E-03; -4.0000001E-01;1186;  0.0000000E+00;  0.0000000E+00;  0.0000000E+00;  1.0000121E+03;  1.0000000E-01;  9.9750261E+00;0;  0.0000000E+00;  0.0000000E+00;  0.0000000E+00;0;  2.0639319E-03;  4.0000000E+04;  0.0000000E+00;  0.0000000E+00;  4.0000000E+04;  0.0000000E+00;  4.0000000E+04;  6.0850533E-04;  0.0000000E+00;  1.4554267E-03;  5.6975590E+01;
 -7.0000000E-02;  9.9999998E-03; -3.8999999E-01;1187;  0.0000000E+00;  0.0000000E+00;  0.0000000E+00;  1.0000292E+03;  1.0000000E-01;  2.4196846E+01;0;  0.0000000E+00;  0.0000000E+00;  0.0000000E+00;0;  3.9067487E-03;  4.0000000E+04;  0.0000000E+00;  0.0000000E+00;  4.0000000E+04;  0.0000000E+00;  4.0000000E+04;  1.3456943E-03;  0.0000000E+00;  2.5610544E-03;  8.7233337E+01;
 -7.0000000E-02;  9.9999998E-03; -3.8000000E-01;1188;  0.0000000E+00;  0.0000000E+00;  0.0000000E+00;  1.0000507E+03;  1.0000000E-01;  4.1974121E+01;0;  0.0000000E+00;  0.0000000E+00;  0.0000000E+00;0;  6.6751102E-03;  4.0000000E+04;  0.0000000E+00;  0.0000000E+00;  4.0000000E+04;  0.0000000E+00;  4.0000000E+04;  2.6763321E-03;  0.0000000E+00;  3.9987783E-03;  1.1631611E+02;
 -7.0000000E-02;  9.9999998E-03; -3.7000000E-01;1189;  0.0000000E+00;  0.0000000E+00;  0.0000000E+00;  1.0000791E+03;  1.0000000E-01;  6.5578392E+01;0;  0.0000000E+00;  0.0000000E+00;  0.0000000E+00;0;  1.0655608E-02;  4.0000000E+04;  0.0000000E+00;  0.0000000E+00;  4.0000000E+04;  0.0000000E+00;  4.0000000E+04;  4.9178051E-03;  0.0000000E+00;  5.7378034E-03;  1.3836148E+02;
 -7.0000000E-02;  9.9999998E-03; -3.6000001E-01;1190;  0.0000000E+00;  0.0000000E+00;  0.0000000E+00;  1.0001149E+03;  1.0000000E-01;  9.5207184E+01;0;  0.0000000E+00;  0.0000000E+00;  0.0000000E+00;0;  1.6226973E-02;  4.0000000E+04;  0.0000000E+00;  0.0000000E+00;  4.0000000E+04;  0.0000000E+00;  4.0000000E+04;  8.4910039E-03;  0.0000000E+00;  7.7359700E-03;  1.4733223E+02;
 -7.0000000E-02;  9.9999998E-03; -3.4999999E-01;1191;  0.0000000E+00;  0.0000000E+00;  0.0000000E+00;  1.0001583E+03;  1.0000000E-01;  1.3115678E+02;0;  0.0000000E+00;  0.0000000E+00;  0.0000000E+00;0;  2.3863465E-02;  4.0000000E+04;  0.0000000E+00;  0.0000000E+00;  4.0000000E+04;  0.0000000E+00;  4.0000000E+04;  1.3925483E-02;  0.0000000E+00;  9.9379821E-03;  1.3713260E+02;
 -7.0000000E-02;  9.9999998E-03; -3.4000000E-01;1192;  0.0000000E+00;  0.0000000E+00;  0.0000000E+00;  1.0002095E+03;  1.0000000E-01;  1.7352596E+02;0;  0.0000000E+00;  0.0000000E+00;  0.0000000E+00;0;  3.4117796E-02;  4.0000000E+04;  0.0000000E+00;  0.0000000E+00;  4.0000000E+04;  0.0000000E+00;  4.0000000E+04;  2.1850530E-02;  0.0000000E+00;  1.2267267E-02;  1.0182305E+02;
 -7.0000000E-02;  9.9999998E-03; -3.3000001E-01;1193;  0.0000000E+00;  0.0000000E+00;  0.0000000E+00;  1.0002655E+03;  1.0000000E-01;  2.1994440E+02;0;  0.0000000E+00;  0.0000000E+00;  0.0000000E+00;0;  4.7581054E-02;  4.0000000E+04;  0.0000000E+00;  0.0000000E+00;  4.0000000E+04;  0.0000000E+00;  4.0000000E+04;  3.2965768E-02;  0.0000000E+00;  1.4615285E-02;  3.6335281E+01;
 -7.0000000E-02;  9.9999998E-03; -3.1999999E-01;1194;  0.0000000E+00;  0.0000000E+00;  0.0000000E+00;  1.0003190E+03;  1.0000000E-01;  2.6428882E+02;0;  0.0000000E+00;  0.0000000E+00;  0.0000000E+00;0;  6.4822719E-02;  4.0000000E+04;  0.0000000E+00;  0.0000000E+00;  4.0000000E+04;  0.0000000E+00;  4.0000000E+04;  4.7989037E-02;  0.0000000E+00;  1.6833682E-02;  6.3222775E+01;
 -7.0000000E-02;  9.9999998E-03; -3.1000000E-01;1195;  0.0000000E+00;  0.0000000E+00;  0.0000000E+00;  1.0003666E+03;  1.0000000E-01;  3.0369513E+02;0;  0.0000000E+00;  0.0000000E+00;  0.0000000E+00;0;  8.6322263E-02;  4.0000000E+04;  0.0000000E+00;  0.0000000E+00;  4.0000000E+04;  0.0000000E+00;  4.0000000E+04;  6.7584760E-02;  0.0000000E+00;  1.8737504E-02;  1.9548393E+02;
 -7.0000000E-02;  9.9999998E-03; -3.0000001E-01;1196;  0.0000000E+00;  0.0000000E+00;  0.0000000E+00;  1.0004016E+03;  1.0000000E-01;  3.3273132E+02;0;  0.0000000E+00;  0.0000000E+00;  0.0000000E+00;0;  1.1241436E-01;  4.0000000E+04;  0.0000000E+00;  0.0000000E+00;  4.0000000E+04;  0.0000000E+00;  4.0000000E+04;  9.2287064E-02;  0.0000000E+00;  2.0127295E-02;  3.5544110E+02;
 -7.0000000E-02;  9.9999998E-03; -2.8999999E-01;1197;  0.0000000E+00;  0.0000000E+00;  0.0000000E+00;  1.0004157E+03;  1.0000000E-01;  3.4438531E+02;0;  0.0000000E+00;  0.0000000E+00;  0.0000000E+00;0;  1.4325857E-01;  4.0000000E+04;  0.0000000E+00;  0.0000000E+00;  4.0000000E+04;  0.0000000E+00;  4.0000000E+04;  1.2243060E-01;  0.0000000E+00;  2.0827975E-02;  5.3172778E+02;
 -7.0000000E-02;  9.9999998E-03; -2.8000000E-01;1198;  0.0000000E+00;  0.0000000E+00;  0.0000000E+00;  1.0004019E+03;  1.0000000E-01;  3.3292886E+02;0;  0.0000000E+00;  0.0000000E+00;  0.0000000E+00;0;  1.7882431E-01;  4.0000000E+04;  0.0000000E+00;  0.0000000E+00;  4.0000000E+04;  0.0000000E+00;  4.0000000E+04;  1.5809517E-01;  0.0000000E+00;  2.0729141E-02;  7.0850635E+02;
 -5.9999999E-02;  9.9999998E-03; -4.4000000E-01;1273;  0.0000000E+00;  0.0000000E+00;  0.0000000E+00;  1.0000000E+03;  1.0000000E-01;  0.0000000E+00;0;  0.0000000E+00;  0.0000000E+00;  0.0000000E+00;0;  2.9222214E-05;  4.0000000E+04;  0.0000000E+00;  0.0000000E+00;  4.0000000E+04;  0.0000000E+00;  4.0000000E+04;  5.3248314E-06;  0.0000000E+00;  2.3897383E-05;  1.2971592E+00;
 -5.9999999E-02;  9.9999998E-03; -4.3000001E-01;1274;  0.0000000E+00;  0.0000000E+00;  0.0000000E+00;  1.0000000E+03;  1.0000000E-01;  0.0000000E+00;0;  0.0000000E+00;  0.0000000E+00;  0.0000000E+00;0;  2.0106413E-04;  4.0000000E+04;  0.0000000E+00;  0.0000000E+00;  4.0000000E+04;  0.0000000E+00;  4.0000000E+04;  3.8781978E-05;  0.0000000E+00;  1.6228216E-04;  7.9590654E+00;
 -5.9999999E-02;  9.9999998E-03; -4.1999999E-01;1275;  0.0000000E+00;  0.0000000E+00;  0.0000000E+00;  1.0000000E+03;  1.0000000E-01;  0.0000000E+00;0;  0.0000000E+00;  0.0000000E+00;  0.0000000E+00;0;  7.1617181E-04;  4.0000000E+04;  0.0000000E+00;  0.0000000E+00;  4.0000000E+04;  0.0000000E+00;  4.0000000E+04;  1.5300393E-04;  0.0000000E+00;  5.6316785E-04;  2.4479088E+01;
 -5.9999999E-02;  9.9999998E-03; -4.1000000E-01;1276;  0.0000000E+00;  0.0000000E+00;  0.0000000E+00;  1.0000104E+03;  1.0000000E-01;  8.5923500E+00;0;  0.0000000E+00;  0.0000000E+00;  0.0000000E+00;0;  1.8020531E-03;  4.0000000E+04;  0.0000000E+00;  0.0000000E+00;  4.0000000E+04;  0.0000000E+00;  4.0000000E+04;  4.4106570E-04;  0.0000000E+00;  1.3609873E-03;  5.2002281E+01;
 -5.9999999E-02;  9.9999998E-03; -4.0000001E-01;1277;  0.0000000E+00;  0.0000000E+00;  0.0000000E+00;  1.0000261E+03;  1.0000000E-01;  2.1629019E+01;0;  0.0000000E+00;  0.0000000E+00;  0.0000000E+00;0;  3.6777216E-03;  4.0000000E+04;  0.0000000E+00;  0.0000000E+00;  4.0000000E+04;  0.0000000E+00;  4.0000000E+04;  1.0518649E-03;  0.0000000E+00;  2.6258565E-03;  8.7283417E+01;
 -5.9999999E-02;  9.9999998E-03; -3.8999999E-01;1278;  0.0000000E+00;  0.0000000E+00;  0.0000000E+00;  1.0000416E+03;  1.0000000E-01;  3.4468163E+01;0;  0.0000000E+00;  0.0000000E+00;  0.0000000E+00;0;  6.5733544E-03;  4.0000000E+04;  0.0000000E+00;  0.0000000E+00;  4.0000000E+04;  0.0000000E+00;  4.0000000E+04;  2.2101048E-03;  0.0000000E+00;  4.3632495E-03;  1.2406613E+02;
 -5.9999999E-02;  9.9999998E-03; -3.8000000E-01;1279;  0.0000000E+00;  0.0000000E+00;  0.0000000E+00;  1.0000716E+03;  1.0000000E-01;  5.9356346E+01;0;  0.0000000E+00;  0.0000000E+00;  0.0000000E+00;0;  1.0780708E-02;  4.0000000E+04;  0.0000000E+00;  0.0000000E+00;  4.0000000E+04;  0.0000000E+00;  4.0000000E+04;  4.2394409E-03;  0.0000000E+00;  6.5412670E-03;  1.5490787E+02;
 -5.9999999E-02;  9.9999998E-03; -3.7000000E-01;1280;  0.0000000E+00;  0.0000000E+00;  0.0000000E+00;  1.0001071E+03;  1.0000000E-01;  8.8787613E+01;0;  0.0000000E+00;  0.0000000E+00;  0.0000000E+00;0;  1.6697705E-02;  4.0000000E+04;  0.0000000E+00;  0.0000000E+00;  4.0000000E+04;  0.0000000E+00;  4.0000000E+04;  7.5847264E-03;  0.0000000E+00;  9.1129774E-03;  1.7219669E+02;
 -5.9999999E-02;  9.9999998E-03; -3.6000001E-01;1281;  0.0000000E+00;  0.0000000E+00;  0.0000000E+00;  1.0001525E+03;  1.0000000E-01;  1.2631741E+02;0;  0.0000000E+00;  0.0000000E+00;  0.0000000E+00;0;  2.4850752E-02;  4.0000000E+04;  0.0000000E+00;  0.0000000E+00;  4.0000000E+04;  0.0000000E+00;  4.0000000E+04;  1.2828439E-02;  0.0000000E+00;  1.2022314E-02;  1.6837505E+02;
 -5.9999999E-02;  9.9999998E-03; -3.4999999E-01;1282;  0.0000000E+00;  0.0000000E+00;  0.0000000E+00;  1.0002064E+03;  1.0000000E-01;  1.7095813E+02;0;  0.0000000E+00;  0.0000000E+00;  0.0000000E+00;0;  3.5888173E-02;  4.0000000E+04;  0.0000000E+00;  0.0000000E+00;  4.0000000E+04;  0.0000000E+00;  4.0000000E+04;  2.0692073E-02;  0.0000000E+00;  1.5196102E-02;  1.3592024E+02;
 -5.9999999E-02;  9.9999998E-03; -3.4000000E-01;1283;  0.0000000E+00;  0.0000000E+00;  0.0000000E+00;  1.0002677E+03;  1.0000000E-01;  2.2182089E+02;0;  0.0000000E+00;  0.0000000E+00;  0.0000000E+00;0;  5.0543562E-02;  4.0000000E+04;  0.0000000E+00;  0.0000000E+00;  4.0000000E+04;  0.0000000E+00;  4.0000000E+04;  3.2015905E-02;  0.0000000E+00;  1.8527655E-02;  6.7635635E+01;
 -5.9999999E-02;  9.9999998E-03; -3.3000001E-01;1284;  0.0000000E+00;  0.0000000E+00;  0.0000000E+00;  1.0003320E+03;  1.0000000E-01;  2.7505396E+02;0;  0.0000000E+00;  0.0000000E+00;  0.0000000E+00;0;  6.9568224E-02;  4.0000000E+04;  0.0000000E+00;  0.0000000E+00;  4.0000000E+04;  0.0000000E+00;  4.0000000E+04;  4.7709629E-02;  0.0000000E+00;  2.1858593E-02;  4.3068375E+01;
 -5.9999999E-02;  9.9999998E-03; -3.1999999E-01;1285;  0.0000000E+00;  0.0000000E+00;  0.0000000E+00;  1.0003933E+03;  1.0000000E-01;  3.2581793E+02;0;  0.0000000E+00;  0.0000000E+00;  0.0000000E+00;0;  9.3641080E-02;  4.0000000E+04;  0.0000000E+00;  0.0000000E+00;  4.0000000E+04;  0.0000000E+00;  4.0000000E+04;  6.8673603E-02;  0.0000000E+00;  2.4967475E-02;  1.9839810E+02;
 -5.9999999E-02;  9.9999998E-03; -3.1000000E-01;1286;  0.0000000E+00;  0.0000000E+00;  0.0000000E+00;  1.0004435E+03;  1.0000000E-01;  3.6749579E+02;0;  0.0000000E+00;  0.0000000E+00;  0.0000000E+00;0;  1.2328251E-01;  4.0000000E+04;  0.0000000E+00;  0.0000000E+00;  4.0000000E+04;  0.0000000E+00;  4.0000000E+04;  9.5703065E-02;  0.0000000E+00;  2.7579442E-02;  3.9715390E+02;
 -5.9999999E-02;  9.9999998E-03; -3.0000001E-01;1287;  0.0000000E+00;  0.0000000E+00;  0.0000000E+00;  1.0004744E+03;  1.0000000E-01;  3.9307532E+02;0;  0.0000000E+00;  0.0000000E+00;  0.0000000E+00;0;  1.5880045E-01;  4.0000000E+04;  0.0000000E+00;  0.0000000E+00;  4.0000000E+04;  0.0000000E+00;  4.0000000E+04;  1.2939586E-01;  0.0000000E+00;  2.9404588E-02;  6.3000226E+02;
 -5.9999999E-02;  9.9999998E-03; -2.8999999E-01;1288;  0.0000000E+00;  0.0000000E+00;  0.0000000E+00;  1.0004765E+03;  1.0000000E-01;  3.9475427E+02;0;  0.0000000E+00;  0.0000000E+00;  0.0000000E+00;0;  2.0027581E-01;  4.0000000E+04;  0.0000000E+00;  0.0000000E+00;  4.0000000E+04;  0.0000000E+00;  4.0000000E+04;  1.7007715E-01;  0.0000000E+00;  3.0198665E-02;  8.7986694E+02;
 -5.9999999E-02;  9.9999998E-03; -2.8000000E-01;1289;  0.0000000E+00;  0.0000000E+00;  0.0000000E+00;  1.0004418E+03;  1.0000000E-01;  3.6601434E+02;0;  0.0000000E+00;  0.0000000E+00;  0.0000000E+00;0;  2.4756478E-01;  4.0000000E+04;  0.0000000E+00;  0.0000000E+00;  4.0000000E+04;  0.0000000E+00;  4.0000000E+04;  2.1774371E-01;  0.0000000E+00;  2.9821072E-02;  1.1238125E+03;
 -5.0000001E-02;  9.9999998E-03; -4.4000000E-01;1364;  0.0000000E+00;  0.0000000E+00;  0.0000000E+00;  1.0000000E+03;  1.0000000E-01;  0.0000000E+00;0;  0.0000000E+00;  0.0000000E+00;  0.0000000E+00;0;  8.7770553E-05;  4.0000000E+04;  0.0000000E+00;  0.0000000E+00;  4.0000000E+04;  0.0000000E+00;  4.0000000E+04;  1.4937162E-05;  0.0000000E+00;  7.2833391E-05;  3.5220692E+00;
 -5.0000001E-02;  9.9999998E-03; -4.3000001E-01;1365;  0.0000000E+00;  0.0000000E+00;  0.0000000E+00;  1.0000000E+03;  1.0000000E-01;  0.0000000E+00;0;  0.0000000E+00;  0.0000000E+00;  0.0000000E+00;0;  4.4177106E-04;  4.0000000E+04;  0.0000000E+00;  0.0000000E+00;  4.0000000E+04;  0.0000000E+00;  4.0000000E+04;  8.0636644E-05;  0.0000000E+00;  3.6113441E-04;  1.5459279E+01;
 -5.0000001E-02;  9.9999998E-03; -4.1999999E-01;1366;  0.0000000E+00;  0.0000000E+00;  0.0000000E+00;  1.0000071E+03;  1.0000000E-01;  5.8269958E+00;0;  0.0000000E+00;  0.0000000E+00;  0.0000000E+00;0;  1.3475481E-03;  4.0000000E+04;  0.0000000E+00;  0.0000000E+00;  4.0000000E+04;  0.0000000E+00;  4.0000000E+04;  2.7529462E-04;  0.0000000E+00;  1.0722534E-03;  4.0261398E+01;
 -5.0000001E-02;  9.9999998E-03; -4.1000000E-01;1367;  0.0000000E+00;  0.0000000E+00;  0.0000000E+00;  1.0000117E+03;  1.0000000E-01;  9.6787386E+00;0;  0.0000000E+00;  0.0000000E+00;  0.0000000E+00;0;  3.0902049E-03;  4.0000000E+04;  0.0000000E+00;  0.0000000E+00;  4.0000000E+04;  0.0000000E+00;  4.0000000E+04;  7.2988559E-04;  0.0000000E+00;  2.3603193E-03;  7.6993370E+01;
 -5.0000001E-02;  9.9999998E-03; -4.0000001E-01;1368;  0.0000000E+00;  0.0000000E+00;  0.0000000E+00;  1.0000361E+03;  1.0000000E-01;  2.9925079E+01;0;  0.0000000E+00;  0.0000000E+00;  0.0000000E+00;0;  5.9328759E-03;  4.0000000E+04;  0.0000000E+00;  0.0000000E+00;  4.0000000E+04;  0.0000000E+00;  4.0000000E+04;  1.6502027E-03;  0.0000000E+00;  4.2826734E-03;  1.1948203E+02;
 -5.0000001E-02;  9.9999998E-03; -3.8999999E-01;1369;  0.0000000E+00;  0.0000000E+00;  0.0000000E+00;  1.0000599E+03;  1.0000000E-01;  4.9677608E+01;0;  0.0000000E+00;  0.0000000E+00;  0.0000000E+00;0;  1.0163439E-02;  4.0000000E+04;  0.0000000E+00;  0.0000000E+00;  4.0000000E+04;  0.0000000E+00;  4.0000000E+04;  3.3437463E-03;  0.0000000E+00;  6.8196920E-03;  1.5870503E+02;
 -5.0000001E-02;  9.9999998E-03; -3.8000000E-01;1370;  0.0000000E+00;  0.0000000E+00;  0.0000000E+00;  1.0000924E+03;  1.0000000E-01;  7.6541046E+01;0;  0.0000000E+00;  0.0000000E+00;  0.0000000E+00;0;  1.6167697E-02;  4.0000000E+04;  0.0000000E+00;  0.0000000E+00;  4.0000000E+04;  0.0000000E+00;  4.0000000E+04;  6.2497081E-03;  0.0000000E+00;  9.9179884E-03;  1.8503381E+02;
 -5.0000001E-02;  9.9999998E-03; -3.7000000E-01;1371;  0.0000000E+00;  0.0000000E+00;  0.0000000E+00;  1.0001348E+03;  1.0000000E-01;  1.1160178E+02;0;  0.0000000E+00;  0.0000000E+00;  0.0000000E+00;0;  2.4482332E-02;  4.0000000E+04;  0.0000000E+00;  0.0000000E+00;  4.0000000E+04;  0.0000000E+00;  4.0000000E+04;  1.0965858E-02;  0.0000000E+00;  1.3516475E-02;  1.8913457E+02;
 -5.0000001E-02;  9.9999998E-03; -3.6000001E-01;1372;  0.0000000E+00;  0.0000000E+00;  0.0000000E+00;  1.0001892E+03;  1.0000000E-01;  1.5673631E+02;0;  0.0000000E+00;  0.0000000E+00;  0.0000000E+00;0;  3.5812460E-02;  4.0000000E+04;  0.0000000E+00;  0.0000000E+00;  4.0000000E+04;  0.0000000E+00;  4.0000000E+04;  1.8265229E-02;  0.0000000E+00;  1.7547233E-02;  1.6195108E+02;
 -5.0000001E-02;  9.9999998E-03; -3.4999999E-01;1373;  0.0000000E+00;  0.0000000E+00;  0.0000000E+00;  1.0002527E+03;  1.0000000E-01;  2.0937680E+02;0;  0.0000000E+00;  0.0000000E+00;  0.0000000E+00;0;  5.1007934E-02;  4.0000000E+04;  0.0000000E+00;  0.0000000E+00;  4.0000000E+04;  0.0000000E+00;  4.0000000E+04;  2.9090274E-02;  0.0000000E+00;  2.1917660E-02;  9.4556900E+01;
 -5.0000001E-02;  9.9999998E-03; -3.4000000E-01;1374;  0.0000000E+00;  0.0000000E+00;  0.0000000E+00;  1.0003222E+03;  1.0000000E-01;  2.6695541E+02;0;  0.0000000E+00;  0.0000000E+00;  0.0000000E+00;0;  7.0998743E-02;  4.0000000E+04;  0.0000000E+00;  0.0000000E+00;  4.0000000E+04;  0.0000000E+00;  4.0000000E+04;  4.4515986E-02;  0.0000000E+00;  2.6482761E-02;  2.2106400E+01;
 -5.0000001E-02;  9.9999998E-03; -3.3000001E-01;1375;  0.0000000E+00;  0.0000000E+00;  0.0000000E+00;  1.0003940E+03;  1.0000000E-01;  3.2641052E+02;0;  0.0000000E+00;  0.0000000E+00;  0.0000000E+00;0;  9.6690916E-02;  4.0000000E+04;  0.0000000E+00;  0.0000000E+00;  4.0000000E+04;  0.0000000E+00;  4.0000000E+04;  6.5674134E-02;  0.0000000E+00;  3.1016784E-02;  1.9346336E+02;
 -5.0000001E-02;  9.9999998E-03; -3.1999999E-01;1376;  0.0000000E+00;  0.0000000E+00;  0.0000000E+00;  1.0004567E+03;  1.0000000E-01;  3.7835968E+02;0;  0.0000000E+00;  0.0000000E+00;  0.0000000E+00;0;  1.2884498E-01;  4.0000000E+04;  0.0000000E+00;  0.0000000E+00;  4.0000000E+04;  0.0000000E+00;  4.0000000E+04;  9.3644738E-02;  0.0000000E+00;  3.5200235E-02;  4.2353311E+02;
 -5.0000001E-02;  9.9999998E-03; -3.1000000E-01;1377;  0.0000000E+00;  0.0000000E+00;  0.0000000E+00;  1.0005053E+03;  1.0000000E-01;  4.1865482E+02;0;  0.0000000E+00;  0.0000000E+00;  0.0000000E+00;0;  1.6797668E-01;  4.0000000E+04;  0.0000000E+00;  0.0000000E+00;  4.0000000E+04;  0.0000000E+00;  4.0000000E+04;  1.2933685E-01;  0.0000000E+00;  3.8639829E-02;  7.0779181E+02;
 -5.0000001E-02;  9.9999998E-03; -3.0000001E-01;1378;  0.0000000E+00;  0.0000000E+00;  0.0000000E+00;  1.0005266E+03;  1.0000000E-01;  4.3623459E+02;0;  0.0000000E+00;  0.0000000E+00;  0.0000000E+00;0;  2.1431313E-01;  4.0000000E+04;  0.0000000E+00;  0.0000000E+00;  4.0000000E+04;  0.0000000E+00;  4.0000000E+04;  1.7338233E-01;  0.0000000E+00;  4.0930811E-02;  1.0321537E+03;
 -5.0000001E-02;  9.9999998E-03; -2.8999999E-01;1379;  0.0000000E+00;  0.0000000E+00;  0.0000000E+00;  1.0005081E+03;  1.0000000E-01;  4.2092636E+02;0;  0.0000000E+00;  0.0000000E+00;  0.0000000E+00;0;  2.6780587E-01;  4.0000000E+04;  0.0000000E+00;  0.0000000E+00;  4.0000000E+04;  0.0000000E+00;  4.0000000E+04;  2.2605817E-01;  0.0000000E+00;  4.1747693E-02;  1.3719823E+03;
 -5.0000001E-02;  9.9999998E-03; -2.8000000E-01;1380;  0.0000000E+00;  0.0000000E+00;  0.0000000E+00;  1.0004434E+03;  1.0000000E-01;  3.6739700E+02;0;  0.0000000E+00;  0.0000000E+00;  0.0000000E+00;0;  3.2815829E-01;  4.0000000E+04;  0.0000000E+00;  0.0000000E+00;  4.0000000E+04;  0.0000000E+00;  4.0000000E+04;  2.8723443E-01;  0.0000000E+00;  4.0923871E-02;  1.6951349E+03;
 -3.9999999E-02;  9.9999998E-03; -4.4000000E-01;1455;  0.0000000E+00;  0.0000000E+00;  0.0000000E+00;  1.0000000E+03;  1.0000000E-01;  0.0000000E+00;0;  0.0000000E+00;  0.0000000E+00;  0.0000000E+00;0;  1.9855419E-04;  4.0000000E+04;  0.0000000E+00;  0.0000000E+00;  4.0000000E+04;  0.0000000E+00;  4.0000000E+04;  3.1484215E-05;  0.0000000E+00;  1.6706997E-04;  7.0931873E+00;
 -3.9999999E-02;  9.9999998E-03; -4.3000001E-01;1456;  0.0000000E+00;  0.0000000E+00;  0.0000000E+00;  1.0000000E+03;  1.0000000E-01;  0.0000000E+00;0;  0.0000000E+00;  0.0000000E+00;  0.0000000E+00;0;  8.1932341E-04;  4.0000000E+04;  0.0000000E+00;  0.0000000E+00;  4.0000000E+04;  0.0000000E+00;  4.0000000E+04;  1.4131681E-04;  0.0000000E+00;  6.7800662E-04;  2.5175938E+01;
 -3.9999999E-02;  9.9999998E-03; -4.1999999E-01;1457;  0.0000000E+00;  0.0000000E+00;  0.0000000E+00;  1.0000094E+03;  1.0000000E-01;  7.8022485E+00;0;  0.0000000E+00;  0.0000000E+00;  0.0000000E+00;0;  2.2433896E-03;  4.0000000E+04;  0.0000000E+00;  0.0000000E+00;  4.0000000E+04;  0.0000000E+00;  4.0000000E+04;  4.3823171E-04;  0.0000000E+00;  1.8051579E-03;  5.8102360E+01;
 -3.9999999E-02;  9.9999998E-03; -4.1000000E-01;1458;  0.0000000E+00;  0.0000000E+00;  0.0000000E+00;  1.0000238E+03;  1.0000000E-01;  1.9752527E+01;0;  0.0000000E+00;  0.0000000E+00;  0.0000000E+00;0;  4.8090862E-03;  4.0000000E+04;  0.0000000E+00;  0.0000000E+00;  4.0000000E+04;  0.0000000E+00;  4.0000000E+04;  1.0970676E-03;  0.0000000E+00;  3.7120185E-03;  1.0204271E+02;
 -3.9999999E-02;  9.9999998E-03; -4.0000001E-01;1459;  0.0000000E+00;  0.0000000E+00;  0.0000000E+00;  1.0000455E+03;  1.0000000E-01;  3.7727329E+01;0;  0.0000000E+00;  0.0000000E+00;  0.0000000E+00;0;  8.8242330E-03;  4.0000000E+04;  0.0000000E+00;  0.0000000E+00;  4.0000000E+04;  0.0000000E+00;  4.0000000E+04;  2.3900017E-03;  0.0000000E+00;  6.4342311E-03;  1.4745181E+02;
 -3.9999999E-02;  9.9999998E-03; -3.8999999E-01;1460;  0.0000000E+00;  0.0000000E+00;  0.0000000E+00;  1.0000735E+03;  1.0000000E-01;  6.0936546E+01;0;  0.0000000E+00;  0.0000000E+00;  0.0000000E+00;0;  1.4645170E-02;  4.0000000E+04;  0.0000000E+00;  0.0000000E+00;  4.0000000E+04;  0.0000000E+00;  4.0000000E+04;  4.7211782E-03;  0.0000000E+00;  9.9239917E-03;  1.8245377E+02;
 -3.9999999E-02;  9.9999998E-03; -3.8000000E-01;1461;  0.0000000E+00;  0.0000000E+00;  0.0000000E+00;  1.0001122E+03;  1.0000000E-01;  9.2935646E+01;0;  0.0000000E+00;  0.0000000E+00;  0.0000000E+00;0;  2.2771910E-02;  4.0000000E+04;  0.0000000E+00;  0.0000000E+00;  4.0000000E+04;  0.0000000E+00;  4.0000000E+04;  8.6634578E-03;  0.0000000E+00;  1.4108452E-02;  1.9531473E+02;
 -3.9999999E-02;  9.9999998E-03; -3.7000000E-01;1462;  0.0000000E+00;  0.0000000E+00;  0.0000000E+00;  1.0001620E+03;  1.0000000E-01;  1.3421843E+02;0;  0.0000000E+00;  0.0000000E+00;  0.0000000E+00;0;  3.3905532E-02;  4.0000000E+04;  0.0000000E+00;  0.0000000E+00;  4.0000000E+04;  0.0000000E+00;  4.0000000E+04;  1.4988845E-02;  0.0000000E+00;  1.8916687E-02;  1.7507809E+02;
 -3.9999999E-02;  9.9999998E-03; -3.6000001E-01;1463;  0.0000000E+00;  0.0000000E+00;  0.0000000E+00;  1.0002216E+03;  1.0000000E-01;  1.8359975E+02;0;  0.0000000E+00;  0.0000000E+00;  0.0000000E+00;0;  4.8954733E-02;  4.0000000E+04;  0.0000000E+00;  0.0000000E+00;  4.0000000E+04;  0.0000000E+00;  4.0000000E+04;  2.4682818E-02;  0.0000000E+00;  2.4271913E-02;  1.1126572E+02;
 -3.9999999E-02;  9.9999998E-03; -3.4999999E-01;1464;  0.0000000E+00;  0.0000000E+00;  0.0000000E+00;  1.0002908E+03;  1.0000000E-01;  2.4088208E+02;0;  0.0000000E+00;  0.0000000E+00;  0.0000000E+00;0;  6.8987213E-02;  4.0000000E+04;  0.0000000E+00;  0.0000000E+00;  4.0000000E+04;  0.0000000E+00;  4.0000000E+04;  3.8926944E-02;  0.0000000E+00;  3.0060267E-02;  7.3773904E+00;
 -3.9999999E-02;  9.9999998E-03; -3.4000000E-01;1465;  0.0000000E+00;  0.0000000E+00;  0.0000000E+00;  1.0003651E+03;  1.0000000E-01;  3.0250995E+02;0;  0.0000000E+00;  0.0000000E+00;  0.0000000E+00;0;  9.5127918E-02;  4.0000000E+04;  0.0000000E+00;  0.0000000E+00;  4.0000000E+04;  0.0000000E+00;  4.0000000E+04;  5.9039790E-02;  0.0000000E+00;  3.6088128E-02;  1.8766486E+02;
 -3.9999999E-02;  9.9999998E-03; -3.3000001E-01;1466;  0.0000000E+00;  0.0000000E+00;  0.0000000E+00;  1.0004379E+03;  1.0000000E-01;  3.6275516E+02;0;  0.0000000E+00;  0.0000000E+00;  0.0000000E+00;0;  1.2841314E-01;  4.0000000E+04;  0.0000000E+00;  0.0000000E+00;  4.0000000E+04;  0.0000000E+00;  4.0000000E+04;  8.6370818E-02;  0.0000000E+00;  4.2042326E-02;  4.3945856E+02;
 -3.9999999E-02;  9.9999998E-03; -3.1999999E-01;1467;  0.0000000E+00;  0.0000000E+00;  0.0000000E+00;  1.0004996E+03;  1.0000000E-01;  4.1391422E+02;0;  0.0000000E+00;  0.0000000E+00;  0.0000000E+00;0;  1.6963744E-01;  4.0000000E+04;  0.0000000E+00;  0.0000000E+00;  4.0000000E+04;  0.0000000E+00;  4.0000000E+04;  1.2216131E-01;  0.0000000E+00;  4.7476131E-02;  7.6386511E+02;
 -3.9999999E-02;  9.9999998E-03; -3.1000000E-01;1468;  0.0000000E+00;  0.0000000E+00;  0.0000000E+00;  1.0005389E+03;  1.0000000E-01;  4.4640714E+02;0;  0.0000000E+00;  0.0000000E+00;  0.0000000E+00;0;  2.1924630E-01;  4.0000000E+04;  0.0000000E+00;  0.0000000E+00;  4.0000000E+04;  0.0000000E+00;  4.0000000E+04;  1.6740167E-01;  0.0000000E+00;  5.1844627E-02;  1.1535598E+03;
 -3.9999999E-02;  9.9999998E-03; -3.0000001E-01;1469;  0.0000000E+00;  0.0000000E+00;  0.0000000E+00;  1.0005399E+03;  1.0000000E-01;  4.4729599E+02;0;  0.0000000E+00;  0.0000000E+00;  0.0000000E+00;0;  2.7731344E-01;  4.0000000E+04;  0.0000000E+00;  0.0000000E+00;  4.0000000E+04;  0.0000000E+00;  4.0000000E+04;  2.2271363E-01;  0.0000000E+00;  5.4599818E-02;  1.5882880E+03;
 -3.9999999E-02;  9.9999998E-03; -2.8999999E-01;1470;  0.0000000E+00;  0.0000000E+00;  0.0000000E+00;  1.0004942E+03;  1.0000000E-01;  4.0946991E+02;0;  0.0000000E+00;  0.0000000E+00;  0.0000000E+00;0;  3.4359688E-01;  4.0000000E+04;  0.0000000E+00;  0.0000000E+00;  4.0000000E+04;  0.0000000E+00;  4.0000000E+04;  2.8827274E-01;  0.0000000E+00;  5.5324148E-02;  2.0338832E+03;
 -3.9999999E-02;  9.9999998E-03; -2.8000000E-01;1471;  0.0000000E+00;  0.0000000E+00;  0.0000000E+00;  1.0003866E+03;  1.0000000E-01;  3.2028723E+02;0;  0.0000000E+00;  0.0000000E+00;  0.0000000E+00;0;  4.1760570E-01;  4.0000000E+04;  0.0000000E+00;  0.0000000E+00;  4.0000000E+04;  0.0000000E+00;  4.0000000E+04;  3.6376789E-01;  0.0000000E+00;  5.3837817E-02;  2.4464956E+03;
 -2.9999999E-02;  9.9999998E-03; -4.4000000E-01;1546;  0.0000000E+00;  0.0000000E+00;  0.0000000E+00;  1.0000000E+03;  1.0000000E-01;  0.0000000E+00;0;  0.0000000E+00;  0.0000000E+00;  0.0000000E+00;0;  3.7108999E-04;  4.0000000E+04;  0.0000000E+00;  0.0000000E+00;  4.0000000E+04;  0.0000000E+00;  4.0000000E+04;  5.4537031E-05;  0.0000000E+00;  3.1655296E-04;  1.1695666E+01;
 -2.9999999E-02;  9.9999998E-03; -4.3000001E-01;1547;  0.0000000E+00;  0.0000000E+00;  0.0000000E+00;  1.0000042E+03;  1.0000000E-01;  3.4566925E+00;0;  0.0000000E+00;  0.0000000E+00;  0.0000000E+00;0;  1.3374567E-03;  4.0000000E+04;  0.0000000E+00;  0.0000000E+00;  4.0000000E+04;  0.0000000E+00;  4.0000000E+04;  2.1735611E-04;  0.0000000E+00;  1.1201006E-03;  3.5753403E+01;
 -2.9999999E-02;  9.9999998E-03; -4.1999999E-01;1548;  0.0000000E+00;  0.0000000E+00;  0.0000000E+00;  1.0000123E+03;  1.0000000E-01;  1.0172552E+01;0;  0.0000000E+00;  0.0000000E+00;  0.0000000E+00;0;  3.3881501E-03;  4.0000000E+04;  0.0000000E+00;  0.0000000E+00;  4.0000000E+04;  0.0000000E+00;  4.0000000E+04;  6.3214608E-04;  0.0000000E+00;  2.7560040E-03;  7.4973907E+01;
 -2.9999999E-02;  9.9999998E-03; -4.1000000E-01;1549;  0.0000000E+00;  0.0000000E+00;  0.0000000E+00;  1.0000312E+03;  1.0000000E-01;  2.5875811E+01;0;  0.0000000E+00;  0.0000000E+00;  0.0000000E+00;0;  6.9104666E-03;  4.0000000E+04;  0.0000000E+00;  0.0000000E+00;  4.0000000E+04;  0.0000000E+00;  4.0000000E+04;  1.5225275E-03;  0.0000000E+00;  5.3879390E-03;  1.2197725E+02;
 -2.9999999E-02;  9.9999998E-03; -4.0000001E-01;1550;  0.0000000E+00;  0.0000000E+00;  0.0000000E+00;  1.0000554E+03;  1.0000000E-01;  4.5924625E+01;0;  0.0000000E+00;  0.0000000E+00;  0.0000000E+00;0;  1.2259879E-02;  4.0000000E+04;  0.0000000E+00;  0.0000000E+00;  4.0000000E+04;  0.0000000E+00;  4.0000000E+04;  3.2351268E-03;  0.0000000E+00;  9.0247523E-03;  1.6362109E+02;
 -2.9999999E-02;  9.9999998E-03; -3.8999999E-01;1551;  0.0000000E+00;  0.0000000E+00;  0.0000000E+00;  1.0000847E+03;  1.0000000E-01;  7.0220238E+01;0;  0.0000000E+00;  0.0000000E+00;  0.0000000E+00;0;  1.9873099E-02;  4.0000000E+04;  0.0000000E+00;  0.0000000E+00;  4.0000000E+04;  0.0000000E+00;  4.0000000E+04;  6.2819258E-03;  0.0000000E+00;  1.3591173E-02;  1.8525528E+02;
 -2.9999999E-02;  9.9999998E-03; -3.8000000E-01;1552;  0.0000000E+00;  0.0000000E+00;  0.0000000E+00;  1.0001277E+03;  1.0000000E-01;  1.0587355E+02;0;  0.0000000E+00;  0.0000000E+00;  0.0000000E+00;0;  3.0382404E-02;  4.0000000E+04;  0.0000000E+00;  0.0000000E+00;  4.0000000E+04;  0.0000000E+00;  4.0000000E+04;  1.1382828E-02;  0.0000000E+00;  1.8999577E-02;  1.7319363E+02;
 -2.9999999E-02;  9.9999998E-03; -3.7000000E-01;1553;  0.0000000E+00;  0.0000000E+00;  0.0000000E+00;  1.0001792E+03;  1.0000000E-01;  1.4844025E+02;0;  0.0000000E+00;  0.0000000E+00;  0.0000000E+00;0;  4.4671893E-02;  4.0000000E+04;  0.0000000E+00;  0.0000000E+00;  4.0000000E+04;  0.0000000E+00;  4.0000000E+04;  1.9497324E-02;  0.0000000E+00;  2.5174567E-02;  1.1499468E+02;
 -2.9999999E-02;  9.9999998E-03; -3.6000001E-01;1554;  0.0000000E+00;  0.0000000E+00;  0.0000000E+00;  1.0002418E+03;  1.0000000E-01;  2.0038939E+02;0;  0.0000000E+00;  0.0000000E+00;  0.0000000E+00;0;  6.3866258E-02;  4.0000000E+04;  0.0000000E+00;  0.0000000E+00;  4.0000000E+04;  0.0000000E+00;  4.0000000E+04;  3.1832859E-02;  0.0000000E+00;  3.2033402E-02;  3.1290469E+00;
 -2.9999999E-02;  9.9999998E-03; -3.4999999E-01;1555;  0.0000000E+00;  0.0000000E+00;  0.0000000E+00;  1.0003143E+03;  1.0000000E-01;  2.6033832E+02;0;  0.0000000E+00;  0.0000000E+00;  0.0000000E+00;0;  8.9249536E-02;  4.0000000E+04;  0.0000000E+00;  0.0000000E+00;  4.0000000E+04;  0.0000000E+00;  4.0000000E+04;  4.9811259E-02;  0.0000000E+00;  3.9438281E-02;  1.8678217E+02;
 -2.9999999E-02;  9.9999998E-03; -3.4000000E-01;1556;  0.0000000E+00;  0.0000000E+00;  0.0000000E+00;  1.0003870E+03;  1.0000000E-01;  3.2068228E+02;0;  0.0000000E+00;  0.0000000E+00;  0.0000000E+00;0;  1.2211987E-01;  4.0000000E+04;  0.0000000E+00;  0.0000000E+00;  4.0000000E+04;  0.0000000E+00;  4.0000000E+04;  7.4983634E-02;  0.0000000E+00;  4.7136232E-02;  4.5201282E+02;
 -2.9999999E-02;  9.9999998E-03; -3.3000001E-01;1557;  0.0000000E+00;  0.0000000E+00;  0.0000000E+00;  1.0004567E+03;  1.0000000E-01;  3.7835968E+02;0;  0.0000000E+00;  0.0000000E+00;  0.0000000E+00;0;  1.6359918E-01;  4.0000000E+04;  0.0000000E+00;  0.0000000E+00;  4.0000000E+04;  0.0000000E+00;  4.0000000E+04;  1.0889314E-01;  0.0000000E+00;  5.4706041E-02;  8.0402667E+02;
 -2.9999999E-02;  9.9999998E-03; -3.1999999E-01;1558;  0.0000000E+00;  0.0000000E+00;  0.0000000E+00;  1.0005076E+03;  1.0000000E-01;  4.2053131E+02;0;  0.0000000E+00;  0.0000000E+00;  0.0000000E+00;0;  2.1444833E-01;  4.0000000E+04;  0.0000000E+00;  0.0000000E+00;  4.0000000E+04;  0.0000000E+00;  4.0000000E+04;  1.5290591E-01;  0.0000000E+00;  6.1542425E-02;  1.2430847E+03;
 -2.9999999E-02;  9.9999998E-03; -3.1000000E-01;1559;  0.0000000E+00;  0.0000000E+00;  0.0000000E+00;  1.0005279E+03;  1.0000000E-01;  4.3732095E+02;0;  0.0000000E+00;  0.0000000E+00;  0.0000000E+00;0;  2.7495414E-01;  4.0000000E+04;  0.0000000E+00;  0.0000000E+00;  4.0000000E+04;  0.0000000E+00;  4.0000000E+04;  2.0804468E-01;  0.0000000E+00;  6.6909477E-02;  1.7578517E+03;
 -2.9999999E-02;  9.9999998E-03; -3.0000001E-01;1560;  0.0000000E+00;  0.0000000E+00;  0.0000000E+00;  1.0005015E+03;  1.0000000E-01;  4.1549442E+02;0;  0.0000000E+00;  0.0000000E+00;  0.0000000E+00;0;  3.4494084E-01;  4.0000000E+04;  0.0000000E+00;  0.0000000E+00;  4.0000000E+04;  0.0000000E+00;  4.0000000E+04;  2.7485883E-01;  0.0000000E+00;  7.0081994E-02;  2.3206782E+03;
 -2.9999999E-02;  9.9999998E-03; -2.8999999E-01;1561;  0.0000000E+00;  0.0000000E+00;  0.0000000E+00;  1.0004136E+03;  1.0000000E-01;  3.4270636E+02;0;  0.0000000E+00;  0.0000000E+00;  0.0000000E+00;0;  4.2389277E-01;  4.0000000E+04;  0.0000000E+00;  0.0000000E+00;  4.0000000E+04;  0.0000000E+00;  4.0000000E+04;  3.5335168E-01;  0.0000000E+00;  7.0541076E-02;  2.8858738E+03;
 -2.9999999E-02;  9.9999998E-03; -2.8000000E-01;1562;  0.0000000E+00;  0.0000000E+00;  0.0000000E+00;  1.0002535E+03;  1.0000000E-01;  2.1006813E+02;0;  0.0000000E+00;  0.0000000E+00;  0.0000000E+00;0;  5.1108205E-01;  4.0000000E+04;  0.0000000E+00;  0.0000000E+00;  4.0000000E+04;  0.0000000E+00;  4.0000000E+04;  4.4296265E-01;  0.0000000E+00;  6.8119377E-02;  3.3949058E+03;
 -2.0000000E-02;  9.9999998E-03; -4.4000000E-01;1637;  0.0000000E+00;  0.0000000E+00;  0.0000000E+00;  1.0000000E+03;  1.0000000E-01;  0.0000000E+00;0;  0.0000000E+00;  0.0000000E+00;  0.0000000E+00;0;  6.0218910E-04;  4.0000000E+04;  0.0000000E+00;  0.0000000E+00;  4.0000000E+04;  0.0000000E+00;  4.0000000E+04;  8.1508253E-05;  0.0000000E+00;  5.2068086E-04;  1.6555717E+01;
 -2.0000000E-02;  9.9999998E-03; -4.3000001E-01;1638;  0.0000000E+00;  0.0000000E+00;  0.0000000E+00;  1.0000065E+03;  1.0000000E-01;  5.4319453E+00;0;  0.0000000E+00;  0.0000000E+00;  0.0000000E+00;0;  1.9728965E-03;  4.0000000E+04;  0.0000000E+00;  0.0000000E+00;  4.0000000E+04;  0.0000000E+00;  4.0000000E+04;  3.0115072E-04;  0.0000000E+00;  1.6717457E-03;  4.5169071E+01;
 -2.0000000E-02;  9.9999998E-03; -4.1999999E-01;1639;  0.0000000E+00;  0.0000000E+00;  0.0000000E+00;  1.0000190E+03;  1.0000000E-01;  1.5802022E+01;0;  0.0000000E+00;  0.0000000E+00;  0.0000000E+00;0;  4.7226748E-03;  4.0000000E+04;  0.0000000E+00;  0.0000000E+00;  4.0000000E+04;  0.0000000E+00;  4.0000000E+04;  8.4071828E-04;  0.0000000E+00;  3.8819567E-03;  8.7108551E+01;
 -2.0000000E-02;  9.9999998E-03; -4.1000000E-01;1640;  0.0000000E+00;  0.0000000E+00;  0.0000000E+00;  1.0000359E+03;  1.0000000E-01;  2.9826317E+01;0;  0.0000000E+00;  0.0000000E+00;  0.0000000E+00;0;  9.2857620E-03;  4.0000000E+04;  0.0000000E+00;  0.0000000E+00;  4.0000000E+04;  0.0000000E+00;  4.0000000E+04;  1.9764516E-03;  0.0000000E+00;  7.3093106E-03;  1.3099947E+02;
 -2.0000000E-02;  9.9999998E-03; -4.0000001E-01;1641;  0.0000000E+00;  0.0000000E+00;  0.0000000E+00;  1.0000592E+03;  1.0000000E-01;  4.9085033E+01;0;  0.0000000E+00;  0.0000000E+00;  0.0000000E+00;0;  1.6070664E-02;  4.0000000E+04;  0.0000000E+00;  0.0000000E+00;  4.0000000E+04;  0.0000000E+00;  4.0000000E+04;  4.1354918E-03;  0.0000000E+00;  1.1935172E-02;  1.6009135E+02;
 -2.0000000E-02;  9.9999998E-03; -3.8999999E-01;1642;  0.0000000E+00;  0.0000000E+00;  0.0000000E+00;  1.0000934E+03;  1.0000000E-01;  7.7429909E+01;0;  0.0000000E+00;  0.0000000E+00;  0.0000000E+00;0;  2.5605623E-02;  4.0000000E+04;  0.0000000E+00;  0.0000000E+00;  4.0000000E+04;  0.0000000E+00;  4.0000000E+04;  7.9449546E-03;  0.0000000E+00;  1.7660668E-02;  1.5714761E+02;
 -2.0000000E-02;  9.9999998E-03; -3.8000000E-01;1643;  0.0000000E+00;  0.0000000E+00;  0.0000000E+00;  1.0001359E+03;  1.0000000E-01;  1.1258941E+02;0;  0.0000000E+00;  0.0000000E+00;  0.0000000E+00;0;  3.8667191E-02;  4.0000000E+04;  0.0000000E+00;  0.0000000E+00;  4.0000000E+04;  0.0000000E+00;  4.0000000E+04;  1.4278208E-02;  0.0000000E+00;  2.4388984E-02;  1.0671100E+02;
 -2.0000000E-02;  9.9999998E-03; -3.7000000E-01;1644;  0.0000000E+00;  0.0000000E+00;  0.0000000E+00;  1.0001884E+03;  1.0000000E-01;  1.5614374E+02;0;  0.0000000E+00;  0.0000000E+00;  0.0000000E+00;0;  5.6329183E-02;  4.0000000E+04;  0.0000000E+00;  0.0000000E+00;  4.0000000E+04;  0.0000000E+00;  4.0000000E+04;  2.4284335E-02;  0.0000000E+00;  3.2044850E-02;  5.7770176E+00;
 -2.0000000E-02;  9.9999998E-03; -3.6000001E-01;1645;  0.0000000E+00;  0.0000000E+00;  0.0000000E+00;  1.0002481E+03;  1.0000000E-01;  2.0552505E+02;0;  0.0000000E+00;  0.0000000E+00;  0.0000000E+00;0;  7.9927161E-02;  4.0000000E+04;  0.0000000E+00;  0.0000000E+00;  4.0000000E+04;  0.0000000E+00;  4.0000000E+04;  3.9386112E-02;  0.0000000E+00;  4.0541049E-02;  1.9130878E+02;
 -2.0000000E-02;  9.9999998E-03; -3.4999999E-01;1646;  0.0000000E+00;  0.0000000E+00;  0.0000000E+00;  1.0003162E+03;  1.0000000E-01;  2.6191852E+02;0;  0.0000000E+00;  0.0000000E+00;  0.0000000E+00;0;  1.1093916E-01;  4.0000000E+04;  0.0000000E+00;  0.0000000E+00;  4.0000000E+04;  0.0000000E+00;  4.0000000E+04;  6.1226346E-02;  0.0000000E+00;  4.9712818E-02;  4.6414432E+02;
 -2.0000000E-02;  9.9999998E-03; -3.4000000E-01;1647;  0.0000000E+00;  0.0000000E+00;  0.0000000E+00;  1.0003818E+03;  1.0000000E-01;  3.1633673E+02;0;  0.0000000E+00;  0.0000000E+00;  0.0000000E+00;0;  1.5079428E-01;  4.0000000E+04;  0.0000000E+00;  0.0000000E+00;  4.0000000E+04;  0.0000000E+00;  4.0000000E+04;  9.1555580E-02;  0.0000000E+00;  5.9238698E-02;  8.3415576E+02;
 -2.0000000E-02;  9.9999998E-03; -3.3000001E-01;1648;  0.0000000E+00;  0.0000000E+00;  0.0000000E+00;  1.0004370E+03;  1.0000000E-01;  3.6196506E+02;0;  0.0000000E+00;  0.0000000E+00;  0.0000000E+00;0;  2.0063740E-01;  4.0000000E+04;  0.0000000E+00;  0.0000000E+00;  4.0000000E+04;  0.0000000E+00;  4.0000000E+04;  1.3206543E-01;  0.0000000E+00;  6.8571962E-02;  1.3073815E+03;
 -2.0000000E-02;  9.9999998E-03; -3.1999999E-01;1649;  0.0000000E+00;  0.0000000E+00;  0.0000000E+00;  1.0004676E+03;  1.0000000E-01;  3.8734708E+02;0;  0.0000000E+00;  0.0000000E+00;  0.0000000E+00;0;  2.6110911E-01;  4.0000000E+04;  0.0000000E+00;  0.0000000E+00;  4.0000000E+04;  0.0000000E+00;  4.0000000E+04;  1.8419152E-01;  0.0000000E+00;  7.6917596E-02;  1.8812517E+03;
 -2.0000000E-02;  9.9999998E-03; -3.1000000E-01;1650;  0.0000000E+00;  0.0000000E+00;  0.0000000E+00;  1.0004579E+03;  1.0000000E-01;  3.7944604E+02;0;  0.0000000E+00;  0.0000000E+00;  0.0000000E+00;0;  3.3222711E-01;  4.0000000E+04;  0.0000000E+00;  0.0000000E+00;  4.0000000E+04;  0.0000000E+00;  4.0000000E+04;  2.4892256E-01;  0.0000000E+00;  8.3304562E-02;  2.5392100E+03;
 -2.0000000E-02;  9.9999998E-03; -3.0000001E-01;1651;  0.0000000E+00;  0.0000000E+00;  0.0000000E+00;  1.0003910E+03;  1.0000000E-01;  3.2394147E+02;0;  0.0000000E+00;  0.0000000E+00;  0.0000000E+00;0;  4.1344130E-01;  4.0000000E+04;  0.0000000E+00;  0.0000000E+00;  4.0000000E+04;  0.0000000E+00;  4.0000000E+04;  3.2665396E-01;  0.0000000E+00;  8.6787343E-02;  3.2450820E+03;
 -2.0000000E-02;  9.9999998E-03; -2.8999999E-01;1652;  0.0000000E+00;  0.0000000E+00;  0.0000000E+00;  1.0002518E+03;  1.0000000E-01;  2.0868546E+02;0;  0.0000000E+00;  0.0000000E+00;  0.0000000E+00;0;  5.0386322E-01;  4.0000000E+04;  0.0000000E+00;  0.0000000E+00;  4.0000000E+04;  0.0000000E+00;  4.0000000E+04;  4.1712672E-01;  0.0000000E+00;  8.6736493E-02;  3.9399316E+03;
 -2.0000000E-02;  9.9999998E-03; -2.8000000E-01;1653;  0.0000000E+00;  0.0000000E+00;  0.0000000E+00;  1.0000253E+03;  1.0000000E-01;  2.0937679E+01;0;  0.0000000E+00;  0.0000000E+00;  0.0000000E+00;0;  6.0248715E-01;  4.0000000E+04;  0.0000000E+00;  0.0000000E+00;  4.0000000E+04;  0.0000000E+00;  4.0000000E+04;  5.1944315E-01;  0.0000000E+00;  8.3043978E-02;  4.5469580E+03;
 -9.9999998E-03;  9.9999998E-03; -4.4000000E-01;1728;  0.0000000E+00;  0.0000000E+00;  0.0000000E+00;  1.0000000E+03;  1.0000000E-01;  0.0000000E+00;0;  0.0000000E+00;  0.0000000E+00;  0.0000000E+00;0;  8.7443745E-04;  4.0000000E+04;  0.0000000E+00;  0.0000000E+00;  4.0000000E+04;  0.0000000E+00;  4.0000000E+04;  1.0837294E-04;  0.0000000E+00;  7.6606451E-04;  2.0599161E+01;
 -9.9999998E-03;  9.9999998E-03; -4.3000001E-01;1729;  0.0000000E+00;  0.0000000E+00;  0.0000000E+00;  1.0000053E+03;  1.0000000E-01;  4.4443188E+00;0;  0.0000000E+00;  0.0000000E+00;  0.0000000E+00;0;  2.6772863E-03;  4.0000000E+04;  0.0000000E+00;  0.0000000E+00;  4.0000000E+04;  0.0000000E+00;  4.0000000E+04;  3.8314756E-04;  0.0000000E+00;  2.2941388E-03;  5.1126766E+01;
 -9.9999998E-03;  9.9999998E-03; -4.1999999E-01;1730;  0.0000000E+00;  0.0000000E+00;  0.0000000E+00;  1.0000221E+03;  1.0000000E-01;  1.8271088E+01;0;  0.0000000E+00;  0.0000000E+00;  0.0000000E+00;0;  6.1525130E-03;  4.0000000E+04;  0.0000000E+00;  0.0000000E+00;  4.0000000E+04;  0.0000000E+00;  4.0000000E+04;  1.0457580E-03;  0.0000000E+00;  5.1067551E-03;  9.0700867E+01;
 -9.9999998E-03;  9.9999998E-03; -4.1000000E-01;1731;  0.0000000E+00;  0.0000000E+00;  0.0000000E+00;  1.0000390E+03;  1.0000000E-01;  3.2295383E+01;0;  0.0000000E+00;  0.0000000E+00;  0.0000000E+00;0;  1.1782666E-02;  4.0000000E+04;  0.0000000E+00;  0.0000000E+00;  4.0000000E+04;  0.0000000E+00;  4.0000000E+04;  2.4279254E-03;  0.0000000E+00;  9.3547404E-03;  1.2373781E+02;
 -9.9999998E-03;  9.9999998E-03; -4.0000001E-01;1732;  0.0000000E+00;  0.0000000E+00;  0.0000000E+00;  1.0000627E+03;  1.0000000E-01;  5.1949146E+01;0;  0.0000000E+00;  0.0000000E+00;  0.0000000E+00;0;  2.0036411E-02;  4.0000000E+04;  0.0000000E+00;  0.0000000E+00;  4.0000000E+04;  0.0000000E+00;  4.0000000E+04;  5.0410754E-03;  0.0000000E+00;  1.4995335E-02;  1.3003745E+02;
 -9.9999998E-03;  9.9999998E-03; -3.8999999E-01;1733;  0.0000000E+00;  0.0000000E+00;  0.0000000E+00;  1.0000942E+03;  1.0000000E-01;  7.8022484E+01;0;  0.0000000E+00;  0.0000000E+00;  0.0000000E+00;0;  3.1541582E-02;  4.0000000E+04;  0.0000000E+00;  0.0000000E+00;  4.0000000E+04;  0.0000000E+00;  4.0000000E+04;  9.6301837E-03;  0.0000000E+00;  2.1911398E-02;  9.0009720E+01;
 -9.9999998E-03;  9.9999998E-03; -3.8000000E-01;1734;  0.0000000E+00;  0.0000000E+00;  0.0000000E+00;  1.0001340E+03;  1.0000000E-01;  1.1100921E+02;0;  0.0000000E+00;  0.0000000E+00;  0.0000000E+00;0;  4.7221735E-02;  4.0000000E+04;  0.0000000E+00;  0.0000000E+00;  4.0000000E+04;  0.0000000E+00;  4.0000000E+04;  1.7220501E-02;  0.0000000E+00;  3.0001234E-02;  1.3823133E+01;
 -9.9999998E-03;  9.9999998E-03; -3.7000000E-01;1735;  0.0000000E+00;  0.0000000E+00;  0.0000000E+00;  1.0001819E+03;  1.0000000E-01;  1.5071179E+02;0;  0.0000000E+00;  0.0000000E+00;  0.0000000E+00;0;  6.8331704E-02;  4.0000000E+04;  0.0000000E+00;  0.0000000E+00;  4.0000000E+04;  0.0000000E+00;  4.0000000E+04;  2.9140281E-02;  0.0000000E+00;  3.9191421E-02;  1.9578127E+02;
 -9.9999998E-03;  9.9999998E-03; -3.6000001E-01;1736;  0.0000000E+00;  0.0000000E+00;  0.0000000E+00;  1.0002360E+03;  1.0000000E-01;  1.9555002E+02;0;  0.0000000E+00;  0.0000000E+00;  0.0000000E+00;0;  9.6392974E-02;  4.0000000E+04;  0.0000000E+00;  0.0000000E+00;  4.0000000E+04;  0.0000000E+00;  4.0000000E+04;  4.7003899E-02;  0.0000000E+00;  4.9389075E-02;  4.7083661E+02;
 -9.9999998E-03;  9.9999998E-03; -3.4999999E-01;1737;  0.0000000E+00;  0.0000000E+00;  0.0000000E+00;  1.0002909E+03;  1.0000000E-01;  2.4098083E+02;0;  0.0000000E+00;  0.0000000E+00;  0.0000000E+00;0;  1.3303363E-01;  4.0000000E+04;  0.0000000E+00;  0.0000000E+00;  4.0000000E+04;  0.0000000E+00;  4.0000000E+04;  7.2634980E-02;  0.0000000E+00;  6.0398649E-02;  8.5167444E+02;
 -9.9999998E-03;  9.9999998E-03; -3.4000000E-01;1738;  0.0000000E+00;  0.0000000E+00;  0.0000000E+00;  1.0003405E+03;  1.0000000E-01;  2.8206610E+02;0;  0.0000000E+00;  0.0000000E+00;  0.0000000E+00;0;  1.7975289E-01;  4.0000000E+04;  0.0000000E+00;  0.0000000E+00;  4.0000000E+04;  0.0000000E+00;  4.0000000E+04;  1.0792827E-01;  0.0000000E+00;  7.1824618E-02;  1.3482454E+03;
 -9.9999998E-03;  9.9999998E-03; -3.3000001E-01;1739;  0.0000000E+00;  0.0000000E+00;  0.0000000E+00;  1.0003719E+03;  1.0000000E-01;  3.0813943E+02;0;  0.0000000E+00;  0.0000000E+00;  0.0000000E+00;0;  2.3764095E-01;  4.0000000E+04;  0.0000000E+00;  0.0000000E+00;  4.0000000E+04;  0.0000000E+00;  4.0000000E+04;  1.5465699E-01;  0.0000000E+00;  8.2983948E-02;  1.9642650E+03;
 -9.9999998E-03;  9.9999998E-03; -3.1999999E-01;1740;  0.0000000E+00;  0.0000000E+00;  0.0000000E+00;  1.0003704E+03;  1.0000000E-01;  3.0685553E+02;0;  0.0000000E+00;  0.0000000E+00;  0.0000000E+00;0;  3.0711982E-01;  4.0000000E+04;  0.0000000E+00;  0.0000000E+00;  4.0000000E+04;  0.0000000E+00;  4.0000000E+04;  2.1425159E-01;  0.0000000E+00;  9.2868216E-02;  2.6925618E+03;
 -9.9999998E-03;  9.9999998E-03; -3.1000000E-01;1741;  0.0000000E+00;  0.0000000E+00;  0.0000000E+00;  1.0003182E+03;  1.0000000E-01;  2.6369626E+02;0;  0.0000000E+00;  0.0000000E+00;  0.0000000E+00;0;  3.8780665E-01;  4.0000000E+04;  0.0000000E+00;  0.0000000E+00;  4.0000000E+04;  0.0000000E+00;  4.0000000E+04;  2.8758252E-01;  0.0000000E+00;  1.0022413E-01;  3.5095142E+03;
 -9.9999998E-03;  9.9999998E-03; -3.0000001E-01;1742;  0.0000000E+00;  0.0000000E+00;  0.0000000E+00;  1.0001964E+03;  1.0000000E-01;  1.6276083E+02;0;  0.0000000E+00;  0.0000000E+00;  0.0000000E+00;0;  4.7862673E-01;  4.0000000E+04;  0.0000000E+00;  0.0000000E+00;  4.0000000E+04;  0.0000000E+00;  4.0000000E+04;  3.7479487E-01;  0.0000000E+00;  1.0383185E-01;  4.3688979E+03;
 -9.9999998E-03;  9.9999998E-03; -2.8999999E-01;1743;  0.0000000E+00;  0.0000000E+00;  0.0000000E+00;  1.0000000E+03;  1.0000000E-01;  0.0000000E+00;0;  0.0000000E+00;  0.0000000E+00;  0.0000000E+00;0;  5.7819730E-01;  4.0000000E+04;  0.0000000E+00;  0.0000000E+00;  4.0000000E+04;  0.0000000E+00;  4.0000000E+04;  4.7525465E-01;  0.0000000E+00;  1.0294266E-01;  5.1972480E+03;
 -9.9999998E-03;  9.9999998E-03; -2.8000000E-01;1744;  0.0000000E+00;  0.0000000E+00;  0.0000000E+00;  1.0000000E+03;  1.0000000E-01;  0.0000000E+00;0;  0.0000000E+00;  0.0000000E+00;  0.0000000E+00;0;  6.8521553E-01;  4.0000000E+04;  0.0000000E+00;  0.0000000E+00;  4.0000000E+04;  0.0000000E+00;  4.0000000E+04;  5.8762813E-01;  0.0000000E+00;  9.7587422E-02;  5.8949990E+03;
  0.0000000E+00;  9.9999998E-03; -4.4000000E-01;1819;  0.0000000E+00;  0.0000000E+00;  0.0000000E+00;  1.0000000E+03;  1.0000000E-01;  0.0000000E+00;0;  0.0000000E+00;  0.0000000E+00;  0.0000000E+00;0;  1.1589531E-03;  4.0000000E+04;  0.0000000E+00;  0.0000000E+00;  4.0000000E+04;  0.0000000E+00;  4.0000000E+04;  1.3100143E-04;  0.0000000E+00;  1.0279516E-03;  2.2717434E+01;
  0.0000000E+00;  9.9999998E-03; -4.3000001E-01;1820;  0.0000000E+00;  0.0000000E+00;  0.0000000E+00;  1.0000051E+03;  1.0000000E-01;  4.2467933E+00;0;  0.0000000E+00;  0.0000000E+00;  0.0000000E+00;0;  3.3856647E-03;  4.0000000E+04;  0.0000000E+00;  0.0000000E+00;  4.0000000E+04;  0.0000000E+00;  4.0000000E+04;  4.5473938E-04;  0.0000000E+00;  2.9309252E-03;  5.1575809E+01;
  0.0000000E+00;  9.9999998E-03; -4.1999999E-01;1821;  0.0000000E+00;  0.0000000E+00;  0.0000000E+00;  1.0000211E+03;  1.0000000E-01;  1.7480988E+01;0;  0.0000000E+00;  0.0000000E+00;  0.0000000E+00;0;  7.5639901E-03;  4.0000000E+04;  0.0000000E+00;  0.0000000E+00;  4.0000000E+04;  0.0000000E+00;  4.0000000E+04;  1.2322362E-03;  0.0000000E+00;  6.3317539E-03;  8.2730789E+01;
  0.0000000E+00;  9.9999998E-03; -4.1000000E-01;1822;  0.0000000E+00;  0.0000000E+00;  0.0000000E+00;  1.0000372E+03;  1.0000000E-01;  3.0813944E+01;0;  0.0000000E+00;  0.0000000E+00;  0.0000000E+00;0;  1.4229689E-02;  4.0000000E+04;  0.0000000E+00;  0.0000000E+00;  4.0000000E+04;  0.0000000E+00;  4.0000000E+04;  2.8526473E-03;  0.0000000E+00;  1.1377041E-02;  9.6401230E+01;
  0.0000000E+00;  9.9999998E-03; -4.0000001E-01;1823;  0.0000000E+00;  0.0000000E+00;  0.0000000E+00;  1.0000607E+03;  1.0000000E-01;  5.0270184E+01;0;  0.0000000E+00;  0.0000000E+00;  0.0000000E+00;0;  2.3919128E-02;  4.0000000E+04;  0.0000000E+00;  0.0000000E+00;  4.0000000E+04;  0.0000000E+00;  4.0000000E+04;  5.9130555E-03;  0.0000000E+00;  1.8006071E-02;  6.9192001E+01;
  0.0000000E+00;  9.9999998E-03; -3.8999999E-01;1824;  0.0000000E+00;  0.0000000E+00;  0.0000000E+00;  1.0000879E+03;  1.0000000E-01;  7.2788063E+01;0;  0.0000000E+00;  0.0000000E+00;  0.0000000E+00;0;  3.7362419E-02;  4.0000000E+04;  0.0000000E+00;  0.0000000E+00;  4.0000000E+04;  0.0000000E+00;  4.0000000E+04;  1.1274193E-02;  0.0000000E+00;  2.6088227E-02;  2.0951635E+01;
  0.0000000E+00;  9.9999998E-03; -3.8000000E-01;1825;  0.0000000E+00;  0.0000000E+00;  0.0000000E+00;  1.0001218E+03;  1.0000000E-01;  1.0093542E+02;0;  0.0000000E+00;  0.0000000E+00;  0.0000000E+00;0;  5.5620961E-02;  4.0000000E+04;  0.0000000E+00;  0.0000000E+00;  4.0000000E+04;  0.0000000E+00;  4.0000000E+04;  2.0103315E-02;  0.0000000E+00;  3.5517648E-02;  1.9216383E+02;
  0.0000000E+00;  9.9999998E-03; -3.7000000E-01;1826;  0.0000000E+00;  0.0000000E+00;  0.0000000E+00;  1.0001604E+03;  1.0000000E-01;  1.3293451E+02;0;  0.0000000E+00;  0.0000000E+00;  0.0000000E+00;0;  8.0104426E-02;  4.0000000E+04;  0.0000000E+00;  0.0000000E+00;  4.0000000E+04;  0.0000000E+00;  4.0000000E+04;  3.3885006E-02;  0.0000000E+00;  4.6219420E-02;  4.6168732E+02;
  0.0000000E+00;  9.9999998E-03; -3.6000001E-01;1827;  0.0000000E+00;  0.0000000E+00;  0.0000000E+00;  1.0002006E+03;  1.0000000E-01;  1.6621751E+02;0;  0.0000000E+00;  0.0000000E+00;  0.0000000E+00;0;  1.1247469E-01;  4.0000000E+04;  0.0000000E+00;  0.0000000E+00;  4.0000000E+04;  0.0000000E+00;  4.0000000E+04;  5.4385245E-02;  0.0000000E+00;  5.8089446E-02;  8.4469745E+02;
  0.0000000E+00;  9.9999998E-03; -3.4999999E-01;1828;  0.0000000E+00;  0.0000000E+00;  0.0000000E+00;  1.0002369E+03;  1.0000000E-01;  1.9634013E+02;0;  0.0000000E+00;  0.0000000E+00;  0.0000000E+00;0;  1.5444684E-01;  4.0000000E+04;  0.0000000E+00;  0.0000000E+00;  4.0000000E+04;  0.0000000E+00;  4.0000000E+04;  8.3550282E-02;  0.0000000E+00;  7.0896566E-02;  1.3544784E+03;
  0.0000000E+00;  9.9999998E-03; -3.4000000E-01;1829;  0.0000000E+00;  0.0000000E+00;  0.0000000E+00;  1.0002604E+03;  1.0000000E-01;  2.1579637E+02;0;  0.0000000E+00;  0.0000000E+00;  0.0000000E+00;0;  2.0751239E-01;  4.0000000E+04;  0.0000000E+00;  0.0000000E+00;  4.0000000E+04;  0.0000000E+00;  4.0000000E+04;  1.2334395E-01;  0.0000000E+00;  8.4168442E-02;  1.9997373E+03;
  0.0000000E+00;  9.9999998E-03; -3.3000001E-01;1830;  0.0000000E+00;  0.0000000E+00;  0.0000000E+00;  1.0002561E+03;  1.0000000E-01;  2.1214215E+02;0;  0.0000000E+00;  0.0000000E+00;  0.0000000E+00;0;  2.7261686E-01;  4.0000000E+04;  0.0000000E+00;  0.0000000E+00;  4.0000000E+04;  0.0000000E+00;  4.0000000E+04;  1.7553298E-01;  0.0000000E+00;  9.7083874E-02;  2.7803848E+03;
  0.0000000E+00;  9.9999998E-03; -3.1999999E-01;1831;  0.0000000E+00;  0.0000000E+00;  0.0000000E+00;  1.0002077E+03;  1.0000000E-01;  1.7204451E+02;0;  0.0000000E+00;  0.0000000E+00;  0.0000000E+00;0;  3.4985816E-01;  4.0000000E+04;  0.0000000E+00;  0.0000000E+00;  4.0000000E+04;  0.0000000E+00;  4.0000000E+04;  2.4144639E-01;  0.0000000E+00;  1.0841178E-01;  3.6821792E+03;
  0.0000000E+00;  9.9999998E-03; -3.1000000E-01;1832;  0.0000000E+00;  0.0000000E+00;  0.0000000E+00;  1.0000988E+03;  1.0000000E-01;  8.1874229E+01;0;  0.0000000E+00;  0.0000000E+00;  0.0000000E+00;0;  4.3831897E-01;  4.0000000E+04;  0.0000000E+00;  0.0000000E+00;  4.0000000E+04;  0.0000000E+00;  4.0000000E+04;  3.2173941E-01;  0.0000000E+00;  1.1657956E-01;  4.6717056E+03;
  0.0000000E+00;  9.9999998E-03; -3.0000001E-01;1833;  0.0000000E+00;  0.0000000E+00;  0.0000000E+00;  1.0000000E+03;  1.0000000E-01;  0.0000000E+00;0;  0.0000000E+00;  0.0000000E+00;  0.0000000E+00;0;  5.3621149E-01;  4.0000000E+04;  0.0000000E+00;  0.0000000E+00;  4.0000000E+04;  0.0000000E+00;  4.0000000E+04;  4.1619438E-01;  0.0000000E+00;  1.2001709E-01;  5.6908052E+03;
  9.9999998E-03;  9.9999998E-03; -4.4000000E-01;1851;  0.0000000E+00;  0.0000000E+00;  0.0000000E+00;  1.0000018E+03;  1.0000000E-01;  1.4814396E+00;0;  0.0000000E+00;  0.0000000E+00;  0.0000000E+00;0;  1.4217102E-03;  4.0000000E+04;  0.0000000E+00;  0.0000000E+00;  4.0000000E+04;  0.0000000E+00;  4.0000000E+04;  1.4665716E-04;  0.0000000E+00;  1.2750531E-03;  2.2068579E+01;
  9.9999998E-03;  9.9999998E-03; -4.3000001E-01;1852;  0.0000000E+00;  0.0000000E+00;  0.0000000E+00;  1.0000102E+03;  1.0000000E-01;  8.4935865E+00;0;  0.0000000E+00;  0.0000000E+00;  0.0000000E+00;0;  4.0294286E-03;  4.0000000E+04;  0.0000000E+00;  0.0000000E+00;  4.0000000E+04;  0.0000000E+00;  4.0000000E+04;  5.1106839E-04;  0.0000000E+00;  3.5183604E-03;  4.5235466E+01;
  9.9999998E-03;  9.9999998E-03; -4.1999999E-01;1853;  0.0000000E+00;  0.0000000E+00;  0.0000000E+00;  1.0000207E+03;  1.0000000E-01;  1.7184700E+01;0;  0.0000000E+00;  0.0000000E+00;  0.0000000E+00;0;  8.8451514E-03;  4.0000000E+04;  0.0000000E+00;  0.0000000E+00;  4.0000000E+04;  0.0000000E+00;  4.0000000E+04;  1.3927597E-03;  0.0000000E+00;  7.4523920E-03;  6.1748581E+01;
  9.9999998E-03;  9.9999998E-03; -4.1000000E-01;1854;  0.0000000E+00;  0.0000000E+00;  0.0000000E+00;  1.0000325E+03;  1.0000000E-01;  2.6962200E+01;0;  0.0000000E+00;  0.0000000E+00;  0.0000000E+00;0;  1.6465815E-02;  4.0000000E+04;  0.0000000E+00;  0.0000000E+00;  4.0000000E+04;  0.0000000E+00;  4.0000000E+04;  3.2395658E-03;  0.0000000E+00;  1.3226248E-02;  4.7808434E+01;
  9.9999998E-03;  9.9999998E-03; -4.0000001E-01;1855;  0.0000000E+00;  0.0000000E+00;  0.0000000E+00;  1.0000508E+03;  1.0000000E-01;  4.2072884E+01;0;  0.0000000E+00;  0.0000000E+00;  0.0000000E+00;0;  2.7501896E-02;  4.0000000E+04;  0.0000000E+00;  0.0000000E+00;  4.0000000E+04;  0.0000000E+00;  4.0000000E+04;  6.7333980E-03;  0.0000000E+00;  2.0768499E-02;  2.3177195E+01;
  9.9999998E-03;  9.9999998E-03; -3.8999999E-01;1856;  0.0000000E+00;  0.0000000E+00;  0.0000000E+00;  1.0000718E+03;  1.0000000E-01;  5.9455109E+01;0;  0.0000000E+00;  0.0000000E+00;  0.0000000E+00;0;  4.2781059E-02;  4.0000000E+04;  0.0000000E+00;  0.0000000E+00;  4.0000000E+04;  0.0000000E+00;  4.0000000E+04;  1.2844085E-02;  0.0000000E+00;  2.9936973E-02;  1.7459865E+02;
  9.9999998E-03;  9.9999998E-03; -3.8000000E-01;1857;  0.0000000E+00;  0.0000000E+00;  0.0000000E+00;  1.0000975E+03;  1.0000000E-01;  8.0787842E+01;0;  0.0000000E+00;  0.0000000E+00;  0.0000000E+00;0;  6.3480265E-02;  4.0000000E+04;  0.0000000E+00;  0.0000000E+00;  4.0000000E+04;  0.0000000E+00;  4.0000000E+04;  2.2863302E-02;  0.0000000E+00;  4.0616963E-02;  4.2737781E+02;
  9.9999998E-03;  9.9999998E-03; -3.7000000E-01;1858;  0.0000000E+00;  0.0000000E+00;  0.0000000E+00;  1.0001221E+03;  1.0000000E-01;  1.0113294E+02;0;  0.0000000E+00;  0.0000000E+00;  0.0000000E+00;0;  9.1121495E-02;  4.0000000E+04;  0.0000000E+00;  0.0000000E+00;  4.0000000E+04;  0.0000000E+00;  4.0000000E+04;  3.8398780E-02;  0.0000000E+00;  5.2722711E-02;  7.9975061E+02;
  9.9999998E-03;  9.9999998E-03; -3.6000001E-01;1859;  0.0000000E+00;  0.0000000E+00;  0.0000000E+00;  1.0001431E+03;  1.0000000E-01;  1.1851517E+02;0;  0.0000000E+00;  0.0000000E+00;  0.0000000E+00;0;  1.2744510E-01;  4.0000000E+04;  0.0000000E+00;  0.0000000E+00;  4.0000000E+04;  0.0000000E+00;  4.0000000E+04;  6.1316554E-02;  0.0000000E+00;  6.6128552E-02;  1.3083156E+03;
  9.9999998E-03;  9.9999998E-03; -3.4999999E-01;1860;  0.0000000E+00;  0.0000000E+00;  0.0000000E+00;  1.0001530E+03;  1.0000000E-01;  1.2681123E+02;0;  0.0000000E+00;  0.0000000E+00;  0.0000000E+00;0;  1.7417493E-01;  4.0000000E+04;  0.0000000E+00;  0.0000000E+00;  4.0000000E+04;  0.0000000E+00;  4.0000000E+04;  9.3615048E-02;  0.0000000E+00;  8.0559887E-02;  1.9666034E+03;
  9.9999998E-03;  9.9999998E-03; -3.4000000E-01;1861;  0.0000000E+00;  0.0000000E+00;  0.0000000E+00;  1.0001389E+03;  1.0000000E-01;  1.1505847E+02;0;  0.0000000E+00;  0.0000000E+00;  0.0000000E+00;0;  2.3270410E-01;  4.0000000E+04;  0.0000000E+00;  0.0000000E+00;  4.0000000E+04;  0.0000000E+00;  4.0000000E+04;  1.3723916E-01;  0.0000000E+00;  9.5464945E-02;  2.7814590E+03;
  9.9999998E-03;  9.9999998E-03; -3.3000001E-01;1862;  0.0000000E+00;  0.0000000E+00;  0.0000000E+00;  1.0000881E+03;  1.0000000E-01;  7.2985588E+01;0;  0.0000000E+00;  0.0000000E+00;  0.0000000E+00;0;  3.0373460E-01;  4.0000000E+04;  0.0000000E+00;  0.0000000E+00;  4.0000000E+04;  0.0000000E+00;  4.0000000E+04;  1.9384705E-01;  0.0000000E+00;  1.0988754E-01;  3.7475305E+03;
  9.9999998E-03;  9.9999998E-03; -3.1999999E-01;1863;  0.0000000E+00;  0.0000000E+00;  0.0000000E+00;  1.0000000E+03;  1.0000000E-01;  0.0000000E+00;0;  0.0000000E+00;  0.0000000E+00;  0.0000000E+00;0;  3.8693672E-01;  4.0000000E+04;  0.0000000E+00;  0.0000000E+00;  4.0000000E+04;  0.0000000E+00;  4.0000000E+04;  2.6455447E-01;  0.0000000E+00;  1.2238225E-01;  4.8408569E+03;
  9.9999998E-03;  9.9999998E-03; -3.1000000E-01;1864;  0.0000000E+00;  0.0000000E+00;  0.0000000E+00;  1.0000000E+03;  1.0000000E-01;  0.0000000E+00;0;  0.0000000E+00;  0.0000000E+00;  0.0000000E+00;0;  4.8074448E-01;  4.0000000E+04;  0.0000000E+00;  0.0000000E+00;  4.0000000E+04;  0.0000000E+00;  4.0000000E+04;  3.4968886E-01;  0.0000000E+00;  1.3105564E-01;  6.0139263E+03;
  2.0000000E-02;  9.9999998E-03; -4.4000000E-01;1881;  0.0000000E+00;  0.0000000E+00;  0.0000000E+00;  1.0000005E+03;  1.0000000E-01;  4.9381319E-01;0;  0.0000000E+00;  0.0000000E+00;  0.0000000E+00;0;  1.6315121E-03;  4.0000000E+04;  0.0000000E+00;  0.0000000E+00;  4.0000000E+04;  0.0000000E+00;  4.0000000E+04;  1.5509836E-04;  0.0000000E+00;  1.4764137E-03;  1.8337961E+01;
  2.0000000E-02;  9.9999998E-03; -4.3000001E-01;1882;  0.0000000E+00;  0.0000000E+00;  0.0000000E+00;  1.0000087E+03;  1.0000000E-01;  7.2096725E+00;0;  0.0000000E+00;  0.0000000E+00;  0.0000000E+00;0;  4.5505418E-03;  4.0000000E+04;  0.0000000E+00;  0.0000000E+00;  4.0000000E+04;  0.0000000E+00;  4.0000000E+04;  5.5284426E-04;  0.0000000E+00;  3.9976975E-03;  3.2015221E+01;
  2.0000000E-02;  9.9999998E-03; -4.1999999E-01;1883;  0.0000000E+00;  0.0000000E+00;  0.0000000E+00;  1.0000159E+03;  1.0000000E-01;  1.3234194E+01;0;  0.0000000E+00;  0.0000000E+00;  0.0000000E+00;0;  9.9070705E-03;  4.0000000E+04;  0.0000000E+00;  0.0000000E+00;  4.0000000E+04;  0.0000000E+00;  4.0000000E+04;  1.5302310E-03;  0.0000000E+00;  8.3768396E-03;  2.8440580E+01;
  2.0000000E-02;  9.9999998E-03; -4.1000000E-01;1884;  0.0000000E+00;  0.0000000E+00;  0.0000000E+00;  1.0000266E+03;  1.0000000E-01;  2.2024069E+01;0;  0.0000000E+00;  0.0000000E+00;  0.0000000E+00;0;  1.8369107E-02;  4.0000000E+04;  0.0000000E+00;  0.0000000E+00;  4.0000000E+04;  0.0000000E+00;  4.0000000E+04;  3.5945957E-03;  0.0000000E+00;  1.4774512E-02;  2.0155319E+01;
  2.0000000E-02;  9.9999998E-03; -4.0000001E-01;1885;  0.0000000E+00;  0.0000000E+00;  0.0000000E+00;  1.0000397E+03;  1.0000000E-01;  3.2887959E+01;0;  0.0000000E+00;  0.0000000E+00;  0.0000000E+00;0;  3.0624567E-02;  4.0000000E+04;  0.0000000E+00;  0.0000000E+00;  4.0000000E+04;  0.0000000E+00;  4.0000000E+04;  7.5099659E-03;  0.0000000E+00;  2.3114601E-02;  1.4261673E+02;
  2.0000000E-02;  9.9999998E-03; -3.8999999E-01;1886;  0.0000000E+00;  0.0000000E+00;  0.0000000E+00;  1.0000512E+03;  1.0000000E-01;  4.2467934E+01;0;  0.0000000E+00;  0.0000000E+00;  0.0000000E+00;0;  4.7585398E-02;  4.0000000E+04;  0.0000000E+00;  0.0000000E+00;  4.0000000E+04;  0.0000000E+00;  4.0000000E+04;  1.4344474E-02;  0.0000000E+00;  3.3240922E-02;  3.6519492E+02;
  2.0000000E-02;  9.9999998E-03; -3.8000000E-01;1887;  0.0000000E+00;  0.0000000E+00;  0.0000000E+00;  1.0000636E+03;  1.0000000E-01;  5.2739250E+01;0;  0.0000000E+00;  0.0000000E+00;  0.0000000E+00;0;  7.0510127E-02;  4.0000000E+04;  0.0000000E+00;  0.0000000E+00;  4.0000000E+04;  0.0000000E+00;  4.0000000E+04;  2.5490744E-02;  0.0000000E+00;  4.5019384E-02;  7.1028699E+02;
  2.0000000E-02;  9.9999998E-03; -3.7000000E-01;1888;  0.0000000E+00;  0.0000000E+00;  0.0000000E+00;  1.0000693E+03;  1.0000000E-01;  5.7381092E+01;0;  0.0000000E+00;  0.0000000E+00;  0.0000000E+00;0;  1.0097896E-01;  4.0000000E+04;  0.0000000E+00;  0.0000000E+00;  4.0000000E+04;  0.0000000E+00;  4.0000000E+04;  4.2640053E-02;  0.0000000E+00;  5.8338899E-02;  1.1980449E+03;
  2.0000000E-02;  9.9999998E-03; -3.6000001E-01;1889;  0.0000000E+00;  0.0000000E+00;  0.0000000E+00;  1.0000659E+03;  1.0000000E-01;  5.4615738E+01;0;  0.0000000E+00;  0.0000000E+00;  0.0000000E+00;0;  1.4073959E-01;  4.0000000E+04;  0.0000000E+00;  0.0000000E+00;  4.0000000E+04;  0.0000000E+00;  4.0000000E+04;  6.7701854E-02;  0.0000000E+00;  7.3037736E-02;  1.8464462E+03;
  2.0000000E-02;  9.9999998E-03; -3.4999999E-01;1890;  0.0000000E+00;  0.0000000E+00;  0.0000000E+00;  1.0000408E+03;  1.0000000E-01;  3.3776821E+01;0;  0.0000000E+00;  0.0000000E+00;  0.0000000E+00;0;  1.9144081E-01;  4.0000000E+04;  0.0000000E+00;  0.0000000E+00;  4.0000000E+04;  0.0000000E+00;  4.0000000E+04;  1.0265397E-01;  0.0000000E+00;  8.8786840E-02;  2.6690840E+03;
  2.0000000E-02;  9.9999998E-03; -3.4000000E-01;1891;  0.0000000E+00;  0.0000000E+00;  0.0000000E+00;  1.0000000E+03;  1.0000000E-01;  0.0000000E+00;0;  0.0000000E+00;  0.0000000E+00;  0.0000000E+00;0;  2.5428584E-01;  4.0000000E+04;  0.0000000E+00;  0.0000000E+00;  4.0000000E+04;  0.0000000E+00;  4.0000000E+04;  1.4933558E-01;  0.0000000E+00;  1.0495027E-01;  3.6703186E+03;
  2.0000000E-02;  9.9999998E-03; -3.3000001E-01;1892;  0.0000000E+00;  0.0000000E+00;  0.0000000E+00;  1.0000000E+03;  1.0000000E-01;  0.0000000E+00;0;  0.0000000E+00;  0.0000000E+00;  0.0000000E+00;0;  3.2963914E-01;  4.0000000E+04;  0.0000000E+00;  0.0000000E+00;  4.0000000E+04;  0.0000000E+00;  4.0000000E+04;  2.0919666E-01;  0.0000000E+00;  1.2044246E-01;  4.8382261E+03;
  2.0000000E-02;  9.9999998E-03; -3.1999999E-01;1893;  0.0000000E+00;  0.0000000E+00;  0.0000000E+00;  1.0000000E+03;  1.0000000E-01;  0.0000000E+00;0;  0.0000000E+00;  0.0000000E+00;  0.0000000E+00;0;  4.1665637E-01;  4.0000000E+04;  0.0000000E+00;  0.0000000E+00;  4.0000000E+04;  0.0000000E+00;  4.0000000E+04;  2.8303376E-01;  0.0000000E+00;  1.3362260E-01;  6.1365186E+03;
  2.0000000E-02;  9.9999998E-03; -3.1000000E-01;1894;  0.0000000E+00;  0.0000000E+00;  0.0000000E+00;  1.0000000E+03;  1.0000000E-01;  0.0000000E+00;0;  0.0000000E+00;  0.0000000E+00;  0.0000000E+00;0;  5.1306689E-01;  4.0000000E+04;  0.0000000E+00;  0.0000000E+00;  4.0000000E+04;  0.0000000E+00;  4.0000000E+04;  3.7074861E-01;  0.0000000E+00;  1.4231825E-01;  7.4984429E+03;
  2.9999999E-02;  9.9999998E-03; -4.4000000E-01;1911;  0.0000000E+00;  0.0000000E+00;  0.0000000E+00;  1.0000003E+03;  1.0000000E-01;  2.9628792E-01;0;  0.0000000E+00;  0.0000000E+00;  0.0000000E+00;0;  1.7673634E-03;  4.0000000E+04;  0.0000000E+00;  0.0000000E+00;  4.0000000E+04;  0.0000000E+00;  4.0000000E+04;  1.5885216E-04;  0.0000000E+00;  1.6085112E-03;  1.1894587E+01;
  2.9999999E-02;  9.9999998E-03; -4.3000001E-01;1912;  0.0000000E+00;  0.0000000E+00;  0.0000000E+00;  1.0000066E+03;  1.0000000E-01;  5.4319453E+00;0;  0.0000000E+00;  0.0000000E+00;  0.0000000E+00;0;  4.9136453E-03;  4.0000000E+04;  0.0000000E+00;  0.0000000E+00;  4.0000000E+04;  0.0000000E+00;  4.0000000E+04;  5.8657822E-04;  0.0000000E+00;  4.3270672E-03;  1.3220213E+01;
  2.9999999E-02;  9.9999998E-03; -4.1999999E-01;1913;  0.0000000E+00;  0.0000000E+00;  0.0000000E+00;  1.0000131E+03;  1.0000000E-01;  1.0863891E+01;0;  0.0000000E+00;  0.0000000E+00;  0.0000000E+00;0;  1.0700778E-02;  4.0000000E+04;  0.0000000E+00;  0.0000000E+00;  4.0000000E+04;  0.0000000E+00;  4.0000000E+04;  1.6578572E-03;  0.0000000E+00;  9.0429205E-03;  1.4320279E+01;
  2.9999999E-02;  9.9999998E-03; -4.1000000E-01;1914;  0.0000000E+00;  0.0000000E+00;  0.0000000E+00;  1.0000180E+03;  1.0000000E-01;  1.4913158E+01;0;  0.0000000E+00;  0.0000000E+00;  0.0000000E+00;0;  1.9877585E-02;  4.0000000E+04;  0.0000000E+00;  0.0000000E+00;  4.0000000E+04;  0.0000000E+00;  4.0000000E+04;  3.9400775E-03;  0.0000000E+00;  1.5937507E-02;  1.0177991E+02;
  2.9999999E-02;  9.9999998E-03; -4.0000001E-01;1915;  0.0000000E+00;  0.0000000E+00;  0.0000000E+00;  1.0000225E+03;  1.0000000E-01;  1.8567375E+01;0;  0.0000000E+00;  0.0000000E+00;  0.0000000E+00;0;  3.3207543E-02;  4.0000000E+04;  0.0000000E+00;  0.0000000E+00;  4.0000000E+04;  0.0000000E+00;  4.0000000E+04;  8.2747266E-03;  0.0000000E+00;  2.4932815E-02;  2.8123627E+02;
  2.9999999E-02;  9.9999998E-03; -3.8999999E-01;1916;  0.0000000E+00;  0.0000000E+00;  0.0000000E+00;  1.0000236E+03;  1.0000000E-01;  1.9555002E+01;0;  0.0000000E+00;  0.0000000E+00;  0.0000000E+00;0;  5.1665157E-02;  4.0000000E+04;  0.0000000E+00;  0.0000000E+00;  4.0000000E+04;  0.0000000E+00;  4.0000000E+04;  1.5814045E-02;  0.0000000E+00;  3.5851110E-02;  5.8092999E+02;
  2.9999999E-02;  9.9999998E-03; -3.8000000E-01;1917;  0.0000000E+00;  0.0000000E+00;  0.0000000E+00;  1.0000193E+03;  1.0000000E-01;  1.5999548E+01;0;  0.0000000E+00;  0.0000000E+00;  0.0000000E+00;0;  7.6548740E-02;  4.0000000E+04;  0.0000000E+00;  0.0000000E+00;  4.0000000E+04;  0.0000000E+00;  4.0000000E+04;  2.8024500E-02;  0.0000000E+00;  4.8524238E-02;  1.0254254E+03;
  2.9999999E-02;  9.9999998E-03; -3.7000000E-01;1918;  0.0000000E+00;  0.0000000E+00;  0.0000000E+00;  1.0000046E+03;  1.0000000E-01;  3.7529802E+00;0;  0.0000000E+00;  0.0000000E+00;  0.0000000E+00;0;  1.0943868E-01;  4.0000000E+04;  0.0000000E+00;  0.0000000E+00;  4.0000000E+04;  0.0000000E+00;  4.0000000E+04;  4.6640046E-02;  0.0000000E+00;  6.2798634E-02;  1.6367616E+03;
  2.9999999E-02;  9.9999998E-03; -3.6000001E-01;1919;  0.0000000E+00;  0.0000000E+00;  0.0000000E+00;  1.0000000E+03;  1.0000000E-01;  0.0000000E+00;0;  0.0000000E+00;  0.0000000E+00;  0.0000000E+00;0;  1.5202080E-01;  4.0000000E+04;  0.0000000E+00;  0.0000000E+00;  4.0000000E+04;  0.0000000E+00;  4.0000000E+04;  7.3559918E-02;  0.0000000E+00;  7.8460880E-02;  2.4340786E+03;
  2.9999999E-02;  9.9999998E-03; -3.4999999E-01;1920;  0.0000000E+00;  0.0000000E+00;  0.0000000E+00;  1.0000000E+03;  1.0000000E-01;  0.0000000E+00;0;  0.0000000E+00;  0.0000000E+00;  0.0000000E+00;0;  2.0579273E-01;  4.0000000E+04;  0.0000000E+00;  0.0000000E+00;  4.0000000E+04;  0.0000000E+00;  4.0000000E+04;  1.1067691E-01;  0.0000000E+00;  9.5115818E-02;  3.4304800E+03;
  2.9999999E-02;  9.9999998E-03; -3.4000000E-01;1921;  0.0000000E+00;  0.0000000E+00;  0.0000000E+00;  1.0000000E+03;  1.0000000E-01;  0.0000000E+00;0;  0.0000000E+00;  0.0000000E+00;  0.0000000E+00;0;  2.7169037E-01;  4.0000000E+04;  0.0000000E+00;  0.0000000E+00;  4.0000000E+04;  0.0000000E+00;  4.0000000E+04;  1.5965095E-01;  0.0000000E+00;  1.1203943E-01;  4.6269702E+03;
  2.9999999E-02;  9.9999998E-03; -3.3000001E-01;1922;  0.0000000E+00;  0.0000000E+00;  0.0000000E+00;  1.0000000E+03;  1.0000000E-01;  0.0000000E+00;0;  0.0000000E+00;  0.0000000E+00;  0.0000000E+00;0;  3.4967303E-01;  4.0000000E+04;  0.0000000E+00;  0.0000000E+00;  4.0000000E+04;  0.0000000E+00;  4.0000000E+04;  2.2164688E-01;  0.0000000E+00;  1.2802614E-01;  6.0035015E+03;
  2.9999999E-02;  9.9999998E-03; -3.1999999E-01;1923;  0.0000000E+00;  0.0000000E+00;  0.0000000E+00;  1.0000000E+03;  1.0000000E-01;  0.0000000E+00;0;  0.0000000E+00;  0.0000000E+00;  0.0000000E+00;0;  4.3834630E-01;  4.0000000E+04;  0.0000000E+00;  0.0000000E+00;  4.0000000E+04;  0.0000000E+00;  4.0000000E+04;  2.9706845E-01;  0.0000000E+00;  1.4127785E-01;  7.5086895E+03;
  2.9999999E-02;  9.9999998E-03; -3.1000000E-01;1924;  0.0000000E+00;  0.0000000E+00;  0.0000000E+00;  1.0000000E+03;  1.0000000E-01;  0.0000000E+00;0;  0.0000000E+00;  0.0000000E+00;  0.0000000E+00;0;  5.3476918E-01;  4.0000000E+04;  0.0000000E+00;  0.0000000E+00;  4.0000000E+04;  0.0000000E+00;  4.0000000E+04;  3.8533410E-01;  0.0000000E+00;  1.4943509E-01;  9.0510840E+03;
  3.9999999E-02;  9.9999998E-03; -4.4000000E-01;1941;  0.0000000E+00;  0.0000000E+00;  0.0000000E+00;  1.0000000E+03;  1.0000000E-01;  0.0000000E+00;0;  0.0000000E+00;  0.0000000E+00;  0.0000000E+00;0;  1.8234195E-03;  4.0000000E+04;  0.0000000E+00;  0.0000000E+00;  4.0000000E+04;  0.0000000E+00;  4.0000000E+04;  1.6257427E-04;  0.0000000E+00;  1.6608452E-03;  3.7973154E+00;
  3.9999999E-02;  9.9999998E-03; -4.3000001E-01;1942;  0.0000000E+00;  0.0000000E+00;  0.0000000E+00;  1.0000019E+03;  1.0000000E-01;  1.5802022E+00;0;  0.0000000E+00;  0.0000000E+00;  0.0000000E+00;0;  5.1134578E-03;  4.0000000E+04;  0.0000000E+00;  0.0000000E+00;  4.0000000E+04;  0.0000000E+00;  4.0000000E+04;  6.2319223E-04;  0.0000000E+00;  4.4902656E-03;  8.5955191E+00;
  3.9999999E-02;  9.9999998E-03; -4.1999999E-01;1943;  0.0000000E+00;  0.0000000E+00;  0.0000000E+00;  1.0000075E+03;  1.0000000E-01;  6.2220464E+00;0;  0.0000000E+00;  0.0000000E+00;  0.0000000E+00;0;  1.1226011E-02;  4.0000000E+04;  0.0000000E+00;  0.0000000E+00;  4.0000000E+04;  0.0000000E+00;  4.0000000E+04;  1.7964577E-03;  0.0000000E+00;  9.4295535E-03;  6.1351704E+01;
  3.9999999E-02;  9.9999998E-03; -4.1000000E-01;1944;  0.0000000E+00;  0.0000000E+00;  0.0000000E+00;  1.0000054E+03;  1.0000000E-01;  4.5430813E+00;0;  0.0000000E+00;  0.0000000E+00;  0.0000000E+00;0;  2.0997098E-02;  4.0000000E+04;  0.0000000E+00;  0.0000000E+00;  4.0000000E+04;  0.0000000E+00;  4.0000000E+04;  4.3096580E-03;  0.0000000E+00;  1.6687440E-02;  1.8931969E+02;
  3.9999999E-02;  9.9999998E-03; -4.0000001E-01;1945;  0.0000000E+00;  0.0000000E+00;  0.0000000E+00;  1.0000040E+03;  1.0000000E-01;  3.3579297E+00;0;  0.0000000E+00;  0.0000000E+00;  0.0000000E+00;0;  3.5256606E-02;  4.0000000E+04;  0.0000000E+00;  0.0000000E+00;  4.0000000E+04;  0.0000000E+00;  4.0000000E+04;  9.0748062E-03;  0.0000000E+00;  2.6181798E-02;  4.2744022E+02;
  3.9999999E-02;  9.9999998E-03; -3.8999999E-01;1946;  0.0000000E+00;  0.0000000E+00;  0.0000000E+00;  1.0000000E+03;  1.0000000E-01;  0.0000000E+00;0;  0.0000000E+00;  0.0000000E+00;  0.0000000E+00;0;  5.5013619E-02;  4.0000000E+04;  0.0000000E+00;  0.0000000E+00;  4.0000000E+04;  0.0000000E+00;  4.0000000E+04;  1.7311547E-02;  0.0000000E+00;  3.7702072E-02;  8.0649835E+02;
  3.9999999E-02;  9.9999998E-03; -3.8000000E-01;1947;  0.0000000E+00;  0.0000000E+00;  0.0000000E+00;  1.0000000E+03;  1.0000000E-01;  0.0000000E+00;0;  0.0000000E+00;  0.0000000E+00;  0.0000000E+00;0;  8.1562765E-02;  4.0000000E+04;  0.0000000E+00;  0.0000000E+00;  4.0000000E+04;  0.0000000E+00;  4.0000000E+04;  3.0532518E-02;  0.0000000E+00;  5.1030245E-02;  1.3532026E+03;
  3.9999999E-02;  9.9999998E-03; -3.7000000E-01;1948;  0.0000000E+00;  0.0000000E+00;  0.0000000E+00;  1.0000000E+03;  1.0000000E-01;  0.0000000E+00;0;  0.0000000E+00;  0.0000000E+00;  0.0000000E+00;0;  1.1643207E-01;  4.0000000E+04;  0.0000000E+00;  0.0000000E+00;  4.0000000E+04;  0.0000000E+00;  4.0000000E+04;  5.0477620E-02;  0.0000000E+00;  6.5954447E-02;  2.0910562E+03;
  3.9999999E-02;  9.9999998E-03; -3.6000001E-01;1949;  0.0000000E+00;  0.0000000E+00;  0.0000000E+00;  1.0000000E+03;  1.0000000E-01;  0.0000000E+00;0;  0.0000000E+00;  0.0000000E+00;  0.0000000E+00;0;  1.6118816E-01;  4.0000000E+04;  0.0000000E+00;  0.0000000E+00;  4.0000000E+04;  0.0000000E+00;  4.0000000E+04;  7.8991547E-02;  0.0000000E+00;  8.2196616E-02;  3.0395330E+03;
  3.9999999E-02;  9.9999998E-03; -3.4999999E-01;1950;  0.0000000E+00;  0.0000000E+00;  0.0000000E+00;  1.0000000E+03;  1.0000000E-01;  0.0000000E+00;0;  0.0000000E+00;  0.0000000E+00;  0.0000000E+00;0;  2.1712103E-01;  4.0000000E+04;  0.0000000E+00;  0.0000000E+00;  4.0000000E+04;  0.0000000E+00;  4.0000000E+04;  1.1783324E-01;  0.0000000E+00;  9.9287786E-02;  4.2102080E+03;
  3.9999999E-02;  9.9999998E-03; -3.4000000E-01;1951;  0.0000000E+00;  0.0000000E+00;  0.0000000E+00;  1.0000000E+03;  1.0000000E-01;  0.0000000E+00;0;  0.0000000E+00;  0.0000000E+00;  0.0000000E+00;0;  2.8485009E-01;  4.0000000E+04;  0.0000000E+00;  0.0000000E+00;  4.0000000E+04;  0.0000000E+00;  4.0000000E+04;  1.6843240E-01;  0.0000000E+00;  1.1641770E-01;  5.5994678E+03;
  3.9999999E-02;  9.9999998E-03; -3.3000001E-01;1952;  0.0000000E+00;  0.0000000E+00;  0.0000000E+00;  1.0000000E+03;  1.0000000E-01;  0.0000000E+00;0;  0.0000000E+00;  0.0000000E+00;  0.0000000E+00;0;  3.6390007E-01;  4.0000000E+04;  0.0000000E+00;  0.0000000E+00;  4.0000000E+04;  0.0000000E+00;  4.0000000E+04;  2.3161964E-01;  0.0000000E+00;  1.3228042E-01;  7.1776455E+03;
  3.9999999E-02;  9.9999998E-03; -3.1999999E-01;1953;  0.0000000E+00;  0.0000000E+00;  0.0000000E+00;  1.0000000E+03;  1.0000000E-01;  0.0000000E+00;0;  0.0000000E+00;  0.0000000E+00;  0.0000000E+00;0;  4.5234019E-01;  4.0000000E+04;  0.0000000E+00;  0.0000000E+00;  4.0000000E+04;  0.0000000E+00;  4.0000000E+04;  3.0736598E-01;  0.0000000E+00;  1.4497420E-01;  8.8760947E+03;
  3.9999999E-02;  9.9999998E-03; -3.1000000E-01;1954;  0.0000000E+00;  0.0000000E+00;  0.0000000E+00;  1.0000000E+03;  1.0000000E-01;  0.0000000E+00;0;  0.0000000E+00;  0.0000000E+00;  0.0000000E+00;0;  5.4665112E-01;  4.0000000E+04;  0.0000000E+00;  0.0000000E+00;  4.0000000E+04;  0.0000000E+00;  4.0000000E+04;  3.9458355E-01;  0.0000000E+00;  1.5206760E-01;  1.0575720E+04;
  5.0000001E-02;  9.9999998E-03; -4.4000000E-01;1971;  0.0000000E+00;  0.0000000E+00;  0.0000000E+00;  1.0000000E+03;  1.0000000E-01;  0.0000000E+00;0;  0.0000000E+00;  0.0000000E+00;  0.0000000E+00;0;  1.8103874E-03;  4.0000000E+04;  0.0000000E+00;  0.0000000E+00;  4.0000000E+04;  0.0000000E+00;  4.0000000E+04;  1.7176688E-04;  0.0000000E+00;  1.6386205E-03;  4.3918524E+00;
  5.0000001E-02;  9.9999998E-03; -4.3000001E-01;1972;  0.0000000E+00;  0.0000000E+00;  0.0000000E+00;  1.0000000E+03;  1.0000000E-01;  0.0000000E+00;0;  0.0000000E+00;  0.0000000E+00;  0.0000000E+00;0;  5.1757987E-03;  4.0000000E+04;  0.0000000E+00;  0.0000000E+00;  4.0000000E+04;  0.0000000E+00;  4.0000000E+04;  6.7553727E-04;  0.0000000E+00;  4.5002615E-03;  2.9843378E+01;
  5.0000001E-02;  9.9999998E-03; -4.1999999E-01;1973;  0.0000000E+00;  0.0000000E+00;  0.0000000E+00;  1.0000010E+03;  1.0000000E-01;  8.8886374E-01;0;  0.0000000E+00;  0.0000000E+00;  0.0000000E+00;0;  1.1529519E-02;  4.0000000E+04;  0.0000000E+00;  0.0000000E+00;  4.0000000E+04;  0.0000000E+00;  4.0000000E+04;  1.9699093E-03;  0.0000000E+00;  9.5596099E-03;  1.0663584E+02;
  5.0000001E-02;  9.9999998E-03; -4.1000000E-01;1974;  0.0000000E+00;  0.0000000E+00;  0.0000000E+00;  1.0000000E+03;  1.0000000E-01;  0.0000000E+00;0;  0.0000000E+00;  0.0000000E+00;  0.0000000E+00;0;  2.1793909E-02;  4.0000000E+04;  0.0000000E+00;  0.0000000E+00;  4.0000000E+04;  0.0000000E+00;  4.0000000E+04;  4.7403355E-03;  0.0000000E+00;  1.7053574E-02;  2.7345615E+02;
  5.0000001E-02;  9.9999998E-03; -4.0000001E-01;1975;  0.0000000E+00;  0.0000000E+00;  0.0000000E+00;  1.0000000E+03;  1.0000000E-01;  0.0000000E+00;0;  0.0000000E+00;  0.0000000E+00;  0.0000000E+00;0;  3.6848590E-02;  4.0000000E+04;  0.0000000E+00;  0.0000000E+00;  4.0000000E+04;  0.0000000E+00;  4.0000000E+04;  9.9600591E-03;  0.0000000E+00;  2.6888529E-02;  5.6873181E+02;
  5.0000001E-02;  9.9999998E-03; -3.8999999E-01;1976;  0.0000000E+00;  0.0000000E+00;  0.0000000E+00;  1.0000000E+03;  1.0000000E-01;  0.0000000E+00;0;  0.0000000E+00;  0.0000000E+00;  0.0000000E+00;0;  5.7706948E-02;  4.0000000E+04;  0.0000000E+00;  0.0000000E+00;  4.0000000E+04;  0.0000000E+00;  4.0000000E+04;  1.8898588E-02;  0.0000000E+00;  3.8808361E-02;  1.0259467E+03;
  5.0000001E-02;  9.9999998E-03; -3.8000000E-01;1977;  0.0000000E+00;  0.0000000E+00;  0.0000000E+00;  1.0000000E+03;  1.0000000E-01;  0.0000000E+00;0;  0.0000000E+00;  0.0000000E+00;  0.0000000E+00;0;  8.5622951E-02;  4.0000000E+04;  0.0000000E+00;  0.0000000E+00;  4.0000000E+04;  0.0000000E+00;  4.0000000E+04;  3.3090755E-02;  0.0000000E+00;  5.2532196E-02;  1.6733383E+03;
  5.0000001E-02;  9.9999998E-03; -3.7000000E-01;1978;  0.0000000E+00;  0.0000000E+00;  0.0000000E+00;  1.0000000E+03;  1.0000000E-01;  0.0000000E+00;0;  0.0000000E+00;  0.0000000E+00;  0.0000000E+00;0;  1.2203425E-01;  4.0000000E+04;  0.0000000E+00;  0.0000000E+00;  4.0000000E+04;  0.0000000E+00;  4.0000000E+04;  5.4254826E-02;  0.0000000E+00;  6.7779422E-02;  2.5346855E+03;
  5.0000001E-02;  9.9999998E-03; -3.6000001E-01;1979;  0.0000000E+00;  0.0000000E+00;  0.0000000E+00;  1.0000000E+03;  1.0000000E-01;  0.0000000E+00;0;  0.0000000E+00;  0.0000000E+00;  0.0000000E+00;0;  1.6835034E-01;  4.0000000E+04;  0.0000000E+00;  0.0000000E+00;  4.0000000E+04;  0.0000000E+00;  4.0000000E+04;  8.4150128E-02;  0.0000000E+00;  8.4200218E-02;  3.6283540E+03;
  5.0000001E-02;  9.9999998E-03; -3.4999999E-01;1980;  0.0000000E+00;  0.0000000E+00;  0.0000000E+00;  1.0000000E+03;  1.0000000E-01;  0.0000000E+00;0;  0.0000000E+00;  0.0000000E+00;  0.0000000E+00;0;  2.2562137E-01;  4.0000000E+04;  0.0000000E+00;  0.0000000E+00;  4.0000000E+04;  0.0000000E+00;  4.0000000E+04;  1.2436940E-01;  0.0000000E+00;  1.0125197E-01;  4.9630708E+03;
  5.0000001E-02;  9.9999998E-03; -3.4000000E-01;1981;  0.0000000E+00;  0.0000000E+00;  0.0000000E+00;  1.0000000E+03;  1.0000000E-01;  0.0000000E+00;0;  0.0000000E+00;  0.0000000E+00;  0.0000000E+00;0;  2.9412746E-01;  4.0000000E+04;  0.0000000E+00;  0.0000000E+00;  4.0000000E+04;  0.0000000E+00;  4.0000000E+04;  1.7608000E-01;  0.0000000E+00;  1.1804746E-01;  6.5294668E+03;
  5.0000001E-02;  9.9999998E-03; -3.3000001E-01;1982;  0.0000000E+00;  0.0000000E+00;  0.0000000E+00;  1.0000000E+03;  1.0000000E-01;  0.0000000E+00;0;  0.0000000E+00;  0.0000000E+00;  0.0000000E+00;0;  3.7296087E-01;  4.0000000E+04;  0.0000000E+00;  0.0000000E+00;  4.0000000E+04;  0.0000000E+00;  4.0000000E+04;  2.3975091E-01;  0.0000000E+00;  1.3320997E-01;  8.2873633E+03;
  5.0000001E-02;  9.9999998E-03; -3.1999999E-01;1983;  0.0000000E+00;  0.0000000E+00;  0.0000000E+00;  1.0000000E+03;  1.0000000E-01;  0.0000000E+00;0;  0.0000000E+00;  0.0000000E+00;  0.0000000E+00;0;  4.5969516E-01;  4.0000000E+04;  0.0000000E+00;  0.0000000E+00;  4.0000000E+04;  0.0000000E+00;  4.0000000E+04;  3.1490070E-01;  0.0000000E+00;  1.4479448E-01;  1.0150244E+04;
  5.0000001E-02;  9.9999998E-03; -3.1000000E-01;1984;  0.0000000E+00;  0.0000000E+00;  0.0000000E+00;  1.0000000E+03;  1.0000000E-01;  0.0000000E+00;0;  0.0000000E+00;  0.0000000E+00;  0.0000000E+00;0;  5.5032784E-01;  4.0000000E+04;  0.0000000E+00;  0.0000000E+00;  4.0000000E+04;  0.0000000E+00;  4.0000000E+04;  3.9992866E-01;  0.0000000E+00;  1.5039916E-01;  1.1971966E+04;
  5.9999999E-02;  9.9999998E-03; -4.4000000E-01;2001;  0.0000000E+00;  0.0000000E+00;  0.0000000E+00;  1.0000000E+03;  1.0000000E-01;  0.0000000E+00;0;  0.0000000E+00;  0.0000000E+00;  0.0000000E+00;0;  1.7530881E-03;  4.0000000E+04;  0.0000000E+00;  0.0000000E+00;  4.0000000E+04;  0.0000000E+00;  4.0000000E+04;  1.9140600E-04;  0.0000000E+00;  1.5616821E-03;  1.0882154E+01;
  5.9999999E-02;  9.9999998E-03; -4.3000001E-01;2002;  0.0000000E+00;  0.0000000E+00;  0.0000000E+00;  1.0000000E+03;  1.0000000E-01;  0.0000000E+00;0;  0.0000000E+00;  0.0000000E+00;  0.0000000E+00;0;  5.1519149E-03;  4.0000000E+04;  0.0000000E+00;  0.0000000E+00;  4.0000000E+04;  0.0000000E+00;  4.0000000E+04;  7.5578858E-04;  0.0000000E+00;  4.3961261E-03;  4.6881195E+01;
  5.9999999E-02;  9.9999998E-03; -4.1999999E-01;2003;  0.0000000E+00;  0.0000000E+00;  0.0000000E+00;  1.0000000E+03;  1.0000000E-01;  0.0000000E+00;0;  0.0000000E+00;  0.0000000E+00;  0.0000000E+00;0;  1.1693601E-02;  4.0000000E+04;  0.0000000E+00;  0.0000000E+00;  4.0000000E+04;  0.0000000E+00;  4.0000000E+04;  2.2008594E-03;  0.0000000E+00;  9.4927419E-03;  1.4408727E+02;
  5.9999999E-02;  9.9999998E-03; -4.1000000E-01;2004;  0.0000000E+00;  0.0000000E+00;  0.0000000E+00;  1.0000000E+03;  1.0000000E-01;  0.0000000E+00;0;  0.0000000E+00;  0.0000000E+00;  0.0000000E+00;0;  2.2377068E-02;  4.0000000E+04;  0.0000000E+00;  0.0000000E+00;  4.0000000E+04;  0.0000000E+00;  4.0000000E+04;  5.2671176E-03;  0.0000000E+00;  1.7109951E-02;  3.4582040E+02;
  5.9999999E-02;  9.9999998E-03; -4.0000001E-01;2005;  0.0000000E+00;  0.0000000E+00;  0.0000000E+00;  1.0000000E+03;  1.0000000E-01;  0.0000000E+00;0;  0.0000000E+00;  0.0000000E+00;  0.0000000E+00;0;  3.8110670E-02;  4.0000000E+04;  0.0000000E+00;  0.0000000E+00;  4.0000000E+04;  0.0000000E+00;  4.0000000E+04;  1.0979411E-02;  0.0000000E+00;  2.7131259E-02;  6.9450653E+02;
  5.9999999E-02;  9.9999998E-03; -3.8999999E-01;2006;  0.0000000E+00;  0.0000000E+00;  0.0000000E+00;  1.0000000E+03;  1.0000000E-01;  0.0000000E+00;0;  0.0000000E+00;  0.0000000E+00;  0.0000000E+00;0;  5.9887394E-02;  4.0000000E+04;  0.0000000E+00;  0.0000000E+00;  4.0000000E+04;  0.0000000E+00;  4.0000000E+04;  2.0643342E-02;  0.0000000E+00;  3.9244052E-02;  1.2257753E+03;
  5.9999999E-02;  9.9999998E-03; -3.8000000E-01;2007;  0.0000000E+00;  0.0000000E+00;  0.0000000E+00;  1.0000000E+03;  1.0000000E-01;  0.0000000E+00;0;  0.0000000E+00;  0.0000000E+00;  0.0000000E+00;0;  8.8897258E-02;  4.0000000E+04;  0.0000000E+00;  0.0000000E+00;  4.0000000E+04;  0.0000000E+00;  4.0000000E+04;  3.5800394E-02;  0.0000000E+00;  5.3096868E-02;  1.9678519E+03;
  5.9999999E-02;  9.9999998E-03; -3.7000000E-01;2008;  0.0000000E+00;  0.0000000E+00;  0.0000000E+00;  1.0000000E+03;  1.0000000E-01;  0.0000000E+00;0;  0.0000000E+00;  0.0000000E+00;  0.0000000E+00;0;  1.2646745E-01;  4.0000000E+04;  0.0000000E+00;  0.0000000E+00;  4.0000000E+04;  0.0000000E+00;  4.0000000E+04;  5.8130249E-02;  0.0000000E+00;  6.8337202E-02;  2.9429209E+03;
  5.9999999E-02;  9.9999998E-03; -3.6000001E-01;2009;  0.0000000E+00;  0.0000000E+00;  0.0000000E+00;  1.0000000E+03;  1.0000000E-01;  0.0000000E+00;0;  0.0000000E+00;  0.0000000E+00;  0.0000000E+00;0;  1.7383370E-01;  4.0000000E+04;  0.0000000E+00;  0.0000000E+00;  4.0000000E+04;  0.0000000E+00;  4.0000000E+04;  8.9287415E-02;  0.0000000E+00;  8.4546290E-02;  4.1667593E+03;
  5.9999999E-02;  9.9999998E-03; -3.4999999E-01;2010;  0.0000000E+00;  0.0000000E+00;  0.0000000E+00;  1.0000000E+03;  1.0000000E-01;  0.0000000E+00;0;  0.0000000E+00;  0.0000000E+00;  0.0000000E+00;0;  2.3178974E-01;  4.0000000E+04;  0.0000000E+00;  0.0000000E+00;  4.0000000E+04;  0.0000000E+00;  4.0000000E+04;  1.3067447E-01;  0.0000000E+00;  1.0111528E-01;  5.6441899E+03;
  5.9999999E-02;  9.9999998E-03; -3.4000000E-01;2011;  0.0000000E+00;  0.0000000E+00;  0.0000000E+00;  1.0000000E+03;  1.0000000E-01;  0.0000000E+00;0;  0.0000000E+00;  0.0000000E+00;  0.0000000E+00;0;  3.0026999E-01;  4.0000000E+04;  0.0000000E+00;  0.0000000E+00;  4.0000000E+04;  0.0000000E+00;  4.0000000E+04;  1.8317232E-01;  0.0000000E+00;  1.1709767E-01;  7.3594863E+03;
  5.9999999E-02;  9.9999998E-03; -3.3000001E-01;2012;  0.0000000E+00;  0.0000000E+00;  0.0000000E+00;  1.0000000E+03;  1.0000000E-01;  0.0000000E+00;0;  0.0000000E+00;  0.0000000E+00;  0.0000000E+00;0;  3.7794656E-01;  4.0000000E+04;  0.0000000E+00;  0.0000000E+00;  4.0000000E+04;  0.0000000E+00;  4.0000000E+04;  2.4686857E-01;  0.0000000E+00;  1.3107800E-01;  9.2618486E+03;
  5.9999999E-02;  9.9999998E-03; -3.1999999E-01;2013;  0.0000000E+00;  0.0000000E+00;  0.0000000E+00;  1.0000000E+03;  1.0000000E-01;  0.0000000E+00;0;  0.0000000E+00;  0.0000000E+00;  0.0000000E+00;0;  4.6194172E-01;  4.0000000E+04;  0.0000000E+00;  0.0000000E+00;  4.0000000E+04;  0.0000000E+00;  4.0000000E+04;  3.2082027E-01;  0.0000000E+00;  1.4112143E-01;  1.1247965E+04;
  5.9999999E-02;  9.9999998E-03; -3.1000000E-01;2014;  0.0000000E+00;  0.0000000E+00;  0.0000000E+00;  1.0000000E+03;  1.0000000E-01;  0.0000000E+00;0;  0.0000000E+00;  0.0000000E+00;  0.0000000E+00;0;  5.4783517E-01;  4.0000000E+04;  0.0000000E+00;  0.0000000E+00;  4.0000000E+04;  0.0000000E+00;  4.0000000E+04;  4.0291157E-01;  0.0000000E+00;  1.4492361E-01;  1.3147820E+04;
  7.0000000E-02;  9.9999998E-03; -4.4000000E-01;2031;  0.0000000E+00;  0.0000000E+00;  0.0000000E+00;  1.0000000E+03;  1.0000000E-01;  0.0000000E+00;0;  0.0000000E+00;  0.0000000E+00;  0.0000000E+00;0;  1.6847283E-03;  4.0000000E+04;  0.0000000E+00;  0.0000000E+00;  4.0000000E+04;  0.0000000E+00;  4.0000000E+04;  2.2489119E-04;  0.0000000E+00;  1.4598371E-03;  1.4184473E+01;
  7.0000000E-02;  9.9999998E-03; -4.3000001E-01;2032;  0.0000000E+00;  0.0000000E+00;  0.0000000E+00;  1.0000000E+03;  1.0000000E-01;  0.0000000E+00;0;  0.0000000E+00;  0.0000000E+00;  0.0000000E+00;0;  5.1066088E-03;  4.0000000E+04;  0.0000000E+00;  0.0000000E+00;  4.0000000E+04;  0.0000000E+00;  4.0000000E+04;  8.7298214E-04;  0.0000000E+00;  4.2336266E-03;  5.6738586E+01;
  7.0000000E-02;  9.9999998E-03; -4.1999999E-01;2033;  0.0000000E+00;  0.0000000E+00;  0.0000000E+00;  1.0000000E+03;  1.0000000E-01;  0.0000000E+00;0;  0.0000000E+00;  0.0000000E+00;  0.0000000E+00;0;  1.1815874E-02;  4.0000000E+04;  0.0000000E+00;  0.0000000E+00;  4.0000000E+04;  0.0000000E+00;  4.0000000E+04;  2.5064894E-03;  0.0000000E+00;  9.3093850E-03;  1.6943761E+02;
  7.0000000E-02;  9.9999998E-03; -4.1000000E-01;2034;  0.0000000E+00;  0.0000000E+00;  0.0000000E+00;  1.0000000E+03;  1.0000000E-01;  0.0000000E+00;0;  0.0000000E+00;  0.0000000E+00;  0.0000000E+00;0;  2.2870880E-02;  4.0000000E+04;  0.0000000E+00;  0.0000000E+00;  4.0000000E+04;  0.0000000E+00;  4.0000000E+04;  5.9183883E-03;  0.0000000E+00;  1.6952492E-02;  4.0120703E+02;
  7.0000000E-02;  9.9999998E-03; -4.0000001E-01;2035;  0.0000000E+00;  0.0000000E+00;  0.0000000E+00;  1.0000000E+03;  1.0000000E-01;  0.0000000E+00;0;  0.0000000E+00;  0.0000000E+00;  0.0000000E+00;0;  3.9191648E-02;  4.0000000E+04;  0.0000000E+00;  0.0000000E+00;  4.0000000E+04;  0.0000000E+00;  4.0000000E+04;  1.2180848E-02;  0.0000000E+00;  2.7010800E-02;  7.9824225E+02;
  7.0000000E-02;  9.9999998E-03; -3.8999999E-01;2036;  0.0000000E+00;  0.0000000E+00;  0.0000000E+00;  1.0000000E+03;  1.0000000E-01;  0.0000000E+00;0;  0.0000000E+00;  0.0000000E+00;  0.0000000E+00;0;  6.1738752E-02;  4.0000000E+04;  0.0000000E+00;  0.0000000E+00;  4.0000000E+04;  0.0000000E+00;  4.0000000E+04;  2.2630589E-02;  0.0000000E+00;  3.9108161E-02;  1.3965728E+03;
  7.0000000E-02;  9.9999998E-03; -3.8000000E-01;2037;  0.0000000E+00;  0.0000000E+00;  0.0000000E+00;  1.0000000E+03;  1.0000000E-01;  0.0000000E+00;0;  0.0000000E+00;  0.0000000E+00;  0.0000000E+00;0;  9.1630593E-02;  4.0000000E+04;  0.0000000E+00;  0.0000000E+00;  4.0000000E+04;  0.0000000E+00;  4.0000000E+04;  3.8807690E-02;  0.0000000E+00;  5.2822907E-02;  2.2223167E+03;
  7.0000000E-02;  9.9999998E-03; -3.7000000E-01;2038;  0.0000000E+00;  0.0000000E+00;  0.0000000E+00;  1.0000000E+03;  1.0000000E-01;  0.0000000E+00;0;  0.0000000E+00;  0.0000000E+00;  0.0000000E+00;0;  1.3007453E-01;  4.0000000E+04;  0.0000000E+00;  0.0000000E+00;  4.0000000E+04;  0.0000000E+00;  4.0000000E+04;  6.2337793E-02;  0.0000000E+00;  6.7736745E-02;  3.2944680E+03;
  7.0000000E-02;  9.9999998E-03; -3.6000001E-01;2039;  0.0000000E+00;  0.0000000E+00;  0.0000000E+00;  1.0000000E+03;  1.0000000E-01;  0.0000000E+00;0;  0.0000000E+00;  0.0000000E+00;  0.0000000E+00;0;  1.7812234E-01;  4.0000000E+04;  0.0000000E+00;  0.0000000E+00;  4.0000000E+04;  0.0000000E+00;  4.0000000E+04;  9.4750360E-02;  0.0000000E+00;  8.3371982E-02;  4.6251138E+03;
  7.0000000E-02;  9.9999998E-03; -3.4999999E-01;2040;  0.0000000E+00;  0.0000000E+00;  0.0000000E+00;  1.0000000E+03;  1.0000000E-01;  0.0000000E+00;0;  0.0000000E+00;  0.0000000E+00;  0.0000000E+00;0;  2.3630714E-01;  4.0000000E+04;  0.0000000E+00;  0.0000000E+00;  4.0000000E+04;  0.0000000E+00;  4.0000000E+04;  1.3723868E-01;  0.0000000E+00;  9.9068470E-02;  6.2145225E+03;
  7.0000000E-02;  9.9999998E-03; -3.4000000E-01;2041;  0.0000000E+00;  0.0000000E+00;  0.0000000E+00;  1.0000000E+03;  1.0000000E-01;  0.0000000E+00;0;  0.0000000E+00;  0.0000000E+00;  0.0000000E+00;0;  3.0422145E-01;  4.0000000E+04;  0.0000000E+00;  0.0000000E+00;  4.0000000E+04;  0.0000000E+00;  4.0000000E+04;  1.9037986E-01;  0.0000000E+00;  1.1384159E-01;  8.0404321E+03;
  7.0000000E-02;  9.9999998E-03; -3.3000001E-01;2042;  0.0000000E+00;  0.0000000E+00;  0.0000000E+00;  1.0000000E+03;  1.0000000E-01;  0.0000000E+00;0;  0.0000000E+00;  0.0000000E+00;  0.0000000E+00;0;  3.8012990E-01;  4.0000000E+04;  0.0000000E+00;  0.0000000E+00;  4.0000000E+04;  0.0000000E+00;  4.0000000E+04;  2.5386328E-01;  0.0000000E+00;  1.2626663E-01;  1.0042015E+04;
  7.0000000E-02;  9.9999998E-03; -3.1999999E-01;2043;  0.0000000E+00;  0.0000000E+00;  0.0000000E+00;  1.0000000E+03;  1.0000000E-01;  0.0000000E+00;0;  0.0000000E+00;  0.0000000E+00;  0.0000000E+00;0;  4.6073124E-01;  4.0000000E+04;  0.0000000E+00;  0.0000000E+00;  4.0000000E+04;  0.0000000E+00;  4.0000000E+04;  3.2627639E-01;  0.0000000E+00;  1.3445485E-01;  1.2101334E+04;
  7.0000000E-02;  9.9999998E-03; -3.1000000E-01;2044;  0.0000000E+00;  0.0000000E+00;  0.0000000E+00;  1.0000000E+03;  1.0000000E-01;  0.0000000E+00;0;  0.0000000E+00;  0.0000000E+00;  0.0000000E+00;0;  5.4122585E-01;  4.0000000E+04;  0.0000000E+00;  0.0000000E+00;  4.0000000E+04;  0.0000000E+00;  4.0000000E+04;  4.0499288E-01;  0.0000000E+00;  1.3623297E-01;  1.4029322E+04;
  7.9999998E-02;  9.9999998E-03; -4.4000000E-01;2061;  0.0000000E+00;  0.0000000E+00;  0.0000000E+00;  1.0000000E+03;  1.0000000E-01;  0.0000000E+00;0;  0.0000000E+00;  0.0000000E+00;  0.0000000E+00;0;  1.6391006E-03;  4.0000000E+04;  0.0000000E+00;  0.0000000E+00;  4.0000000E+04;  0.0000000E+00;  4.0000000E+04;  2.7357784E-04;  0.0000000E+00;  1.3655227E-03;  1.4063357E+01;
  7.9999998E-02;  9.9999998E-03; -4.3000001E-01;2062;  0.0000000E+00;  0.0000000E+00;  0.0000000E+00;  1.0000000E+03;  1.0000000E-01;  0.0000000E+00;0;  0.0000000E+00;  0.0000000E+00;  0.0000000E+00;0;  5.1027359E-03;  4.0000000E+04;  0.0000000E+00;  0.0000000E+00;  4.0000000E+04;  0.0000000E+00;  4.0000000E+04;  1.0315472E-03;  0.0000000E+00;  4.0711886E-03;  5.8681534E+01;
  7.9999998E-02;  9.9999998E-03; -4.1999999E-01;2063;  0.0000000E+00;  0.0000000E+00;  0.0000000E+00;  1.0000000E+03;  1.0000000E-01;  0.0000000E+00;0;  0.0000000E+00;  0.0000000E+00;  0.0000000E+00;0;  1.1985762E-02;  4.0000000E+04;  0.0000000E+00;  0.0000000E+00;  4.0000000E+04;  0.0000000E+00;  4.0000000E+04;  2.8967650E-03;  0.0000000E+00;  9.0889968E-03;  1.8192004E+02;
  7.9999998E-02;  9.9999998E-03; -4.1000000E-01;2064;  0.0000000E+00;  0.0000000E+00;  0.0000000E+00;  1.0000000E+03;  1.0000000E-01;  0.0000000E+00;0;  0.0000000E+00;  0.0000000E+00;  0.0000000E+00;0;  2.3388067E-02;  4.0000000E+04;  0.0000000E+00;  0.0000000E+00;  4.0000000E+04;  0.0000000E+00;  4.0000000E+04;  6.7178006E-03;  0.0000000E+00;  1.6670266E-02;  4.3880203E+02;
  7.9999998E-02;  9.9999998E-03; -4.0000001E-01;2065;  0.0000000E+00;  0.0000000E+00;  0.0000000E+00;  1.0000000E+03;  1.0000000E-01;  0.0000000E+00;0;  0.0000000E+00;  0.0000000E+00;  0.0000000E+00;0;  4.0232889E-02;  4.0000000E+04;  0.0000000E+00;  0.0000000E+00;  4.0000000E+04;  0.0000000E+00;  4.0000000E+04;  1.3618203E-02;  0.0000000E+00;  2.6614688E-02;  8.7768201E+02;
  7.9999998E-02;  9.9999998E-03; -3.8999999E-01;2066;  0.0000000E+00;  0.0000000E+00;  0.0000000E+00;  1.0000000E+03;  1.0000000E-01;  0.0000000E+00;0;  0.0000000E+00;  0.0000000E+00;  0.0000000E+00;0;  6.3448980E-02;  4.0000000E+04;  0.0000000E+00;  0.0000000E+00;  4.0000000E+04;  0.0000000E+00;  4.0000000E+04;  2.4964832E-02;  0.0000000E+00;  3.8484149E-02;  1.5328083E+03;
  7.9999998E-02;  9.9999998E-03; -3.8000000E-01;2067;  0.0000000E+00;  0.0000000E+00;  0.0000000E+00;  1.0000000E+03;  1.0000000E-01;  0.0000000E+00;0;  0.0000000E+00;  0.0000000E+00;  0.0000000E+00;0;  9.4083473E-02;  4.0000000E+04;  0.0000000E+00;  0.0000000E+00;  4.0000000E+04;  0.0000000E+00;  4.0000000E+04;  4.2286053E-02;  0.0000000E+00;  5.1797416E-02;  2.4265598E+03;
  7.9999998E-02;  9.9999998E-03; -3.7000000E-01;2068;  0.0000000E+00;  0.0000000E+00;  0.0000000E+00;  1.0000000E+03;  1.0000000E-01;  0.0000000E+00;0;  0.0000000E+00;  0.0000000E+00;  0.0000000E+00;0;  1.3322122E-01;  4.0000000E+04;  0.0000000E+00;  0.0000000E+00;  4.0000000E+04;  0.0000000E+00;  4.0000000E+04;  6.7137145E-02;  0.0000000E+00;  6.6084079E-02;  3.5736787E+03;
  7.9999998E-02;  9.9999998E-03; -3.6000001E-01;2069;  0.0000000E+00;  0.0000000E+00;  0.0000000E+00;  1.0000000E+03;  1.0000000E-01;  0.0000000E+00;0;  0.0000000E+00;  0.0000000E+00;  0.0000000E+00;0;  1.8172465E-01;  4.0000000E+04;  0.0000000E+00;  0.0000000E+00;  4.0000000E+04;  0.0000000E+00;  4.0000000E+04;  1.0090332E-01;  0.0000000E+00;  8.0821335E-02;  4.9817783E+03;
  7.9999998E-02;  9.9999998E-03; -3.4999999E-01;2070;  0.0000000E+00;  0.0000000E+00;  0.0000000E+00;  1.0000000E+03;  1.0000000E-01;  0.0000000E+00;0;  0.0000000E+00;  0.0000000E+00;  0.0000000E+00;0;  2.3986156E-01;  4.0000000E+04;  0.0000000E+00;  0.0000000E+00;  4.0000000E+04;  0.0000000E+00;  4.0000000E+04;  1.4454776E-01;  0.0000000E+00;  9.5313802E-02;  6.6460342E+03;
  7.9999998E-02;  9.9999998E-03; -3.4000000E-01;2071;  0.0000000E+00;  0.0000000E+00;  0.0000000E+00;  1.0000000E+03;  1.0000000E-01;  0.0000000E+00;0;  0.0000000E+00;  0.0000000E+00;  0.0000000E+00;0;  3.0688587E-01;  4.0000000E+04;  0.0000000E+00;  0.0000000E+00;  4.0000000E+04;  0.0000000E+00;  4.0000000E+04;  1.9832577E-01;  0.0000000E+00;  1.0856011E-01;  8.5375566E+03;
  7.9999998E-02;  9.9999998E-03; -3.3000001E-01;2072;  0.0000000E+00;  0.0000000E+00;  0.0000000E+00;  1.0000000E+03;  1.0000000E-01;  0.0000000E+00;0;  0.0000000E+00;  0.0000000E+00;  0.0000000E+00;0;  3.8066870E-01;  4.0000000E+04;  0.0000000E+00;  0.0000000E+00;  4.0000000E+04;  0.0000000E+00;  4.0000000E+04;  2.6151747E-01;  0.0000000E+00;  1.1915125E-01;  1.0586492E+04;
  7.9999998E-02;  9.9999998E-03; -3.1999999E-01;2073;  0.0000000E+00;  0.0000000E+00;  0.0000000E+00;  1.0000000E+03;  1.0000000E-01;  0.0000000E+00;0;  0.0000000E+00;  0.0000000E+00;  0.0000000E+00;0;  4.5749712E-01;  4.0000000E+04;  0.0000000E+00;  0.0000000E+00;  4.0000000E+04;  0.0000000E+00;  4.0000000E+04;  3.3223152E-01;  0.0000000E+00;  1.2526558E-01;  1.2663272E+04;
  7.9999998E-02;  9.9999998E-03; -3.1000000E-01;2074;  0.0000000E+00;  0.0000000E+00;  0.0000000E+00;  1.0000000E+03;  1.0000000E-01;  0.0000000E+00;0;  0.0000000E+00;  0.0000000E+00;  0.0000000E+00;0;  5.3220505E-01;  4.0000000E+04;  0.0000000E+00;  0.0000000E+00;  4.0000000E+04;  0.0000000E+00;  4.0000000E+04;  4.0733859E-01;  0.0000000E+00;  1.2486646E-01;  1.4566022E+04;
  9.0000004E-02;  9.9999998E-03; -4.4000000E-01;2091;  0.0000000E+00;  0.0000000E+00;  0.0000000E+00;  1.0000000E+03;  1.0000000E-01;  0.0000000E+00;0;  0.0000000E+00;  0.0000000E+00;  0.0000000E+00;0;  1.6421363E-03;  4.0000000E+04;  0.0000000E+00;  0.0000000E+00;  4.0000000E+04;  0.0000000E+00;  4.0000000E+04;  3.3700324E-04;  0.0000000E+00;  1.3051330E-03;  1.5580958E+01;
  9.0000004E-02;  9.9999998E-03; -4.3000001E-01;2092;  0.0000000E+00;  0.0000000E+00;  0.0000000E+00;  1.0000000E+03;  1.0000000E-01;  0.0000000E+00;0;  0.0000000E+00;  0.0000000E+00;  0.0000000E+00;0;  5.1857517E-03;  4.0000000E+04;  0.0000000E+00;  0.0000000E+00;  4.0000000E+04;  0.0000000E+00;  4.0000000E+04;  1.2319220E-03;  0.0000000E+00;  3.9538299E-03;  5.7862881E+01;
  9.0000004E-02;  9.9999998E-03; -4.1999999E-01;2093;  0.0000000E+00;  0.0000000E+00;  0.0000000E+00;  1.0000000E+03;  1.0000000E-01;  0.0000000E+00;0;  0.0000000E+00;  0.0000000E+00;  0.0000000E+00;0;  1.2265919E-02;  4.0000000E+04;  0.0000000E+00;  0.0000000E+00;  4.0000000E+04;  0.0000000E+00;  4.0000000E+04;  3.3791875E-03;  0.0000000E+00;  8.8867312E-03;  1.8616833E+02;
  9.0000004E-02;  9.9999998E-03; -4.1000000E-01;2094;  0.0000000E+00;  0.0000000E+00;  0.0000000E+00;  1.0000000E+03;  1.0000000E-01;  0.0000000E+00;0;  0.0000000E+00;  0.0000000E+00;  0.0000000E+00;0;  2.4009163E-02;  4.0000000E+04;  0.0000000E+00;  0.0000000E+00;  4.0000000E+04;  0.0000000E+00;  4.0000000E+04;  7.6939310E-03;  0.0000000E+00;  1.6315231E-02;  4.6195312E+02;
  9.0000004E-02;  9.9999998E-03; -4.0000001E-01;2095;  0.0000000E+00;  0.0000000E+00;  0.0000000E+00;  1.0000000E+03;  1.0000000E-01;  0.0000000E+00;0;  0.0000000E+00;  0.0000000E+00;  0.0000000E+00;0;  4.1341264E-02;  4.0000000E+04;  0.0000000E+00;  0.0000000E+00;  4.0000000E+04;  0.0000000E+00;  4.0000000E+04;  1.5355752E-02;  0.0000000E+00;  2.5985511E-02;  9.3375891E+02;
  9.0000004E-02;  9.9999998E-03; -3.8999999E-01;2096;  0.0000000E+00;  0.0000000E+00;  0.0000000E+00;  1.0000000E+03;  1.0000000E-01;  0.0000000E+00;0;  0.0000000E+00;  0.0000000E+00;  0.0000000E+00;0;  6.5166153E-02;  4.0000000E+04;  0.0000000E+00;  0.0000000E+00;  4.0000000E+04;  0.0000000E+00;  4.0000000E+04;  2.7756277E-02;  0.0000000E+00;  3.7409876E-02;  1.6323649E+03;
  9.0000004E-02;  9.9999998E-03; -3.8000000E-01;2097;  0.0000000E+00;  0.0000000E+00;  0.0000000E+00;  1.0000000E+03;  1.0000000E-01;  0.0000000E+00;0;  0.0000000E+00;  0.0000000E+00;  0.0000000E+00;0;  9.6466623E-02;  4.0000000E+04;  0.0000000E+00;  0.0000000E+00;  4.0000000E+04;  0.0000000E+00;  4.0000000E+04;  4.6401363E-02;  0.0000000E+00;  5.0065260E-02;  2.5753047E+03;
  9.0000004E-02;  9.9999998E-03; -3.7000000E-01;2098;  0.0000000E+00;  0.0000000E+00;  0.0000000E+00;  1.0000000E+03;  1.0000000E-01;  0.0000000E+00;0;  0.0000000E+00;  0.0000000E+00;  0.0000000E+00;0;  1.3620588E-01;  4.0000000E+04;  0.0000000E+00;  0.0000000E+00;  4.0000000E+04;  0.0000000E+00;  4.0000000E+04;  7.2761081E-02;  0.0000000E+00;  6.3444808E-02;  3.7721926E+03;
  9.0000004E-02;  9.9999998E-03; -3.6000001E-01;2099;  0.0000000E+00;  0.0000000E+00;  0.0000000E+00;  1.0000000E+03;  1.0000000E-01;  0.0000000E+00;0;  0.0000000E+00;  0.0000000E+00;  0.0000000E+00;0;  1.8505226E-01;  4.0000000E+04;  0.0000000E+00;  0.0000000E+00;  4.0000000E+04;  0.0000000E+00;  4.0000000E+04;  1.0805661E-01;  0.0000000E+00;  7.6995648E-02;  5.2253638E+03;
  9.0000004E-02;  9.9999998E-03; -3.4999999E-01;2100;  0.0000000E+00;  0.0000000E+00;  0.0000000E+00;  1.0000000E+03;  1.0000000E-01;  0.0000000E+00;0;  0.0000000E+00;  0.0000000E+00;  0.0000000E+00;0;  2.4300075E-01;  4.0000000E+04;  0.0000000E+00;  0.0000000E+00;  4.0000000E+04;  0.0000000E+00;  4.0000000E+04;  1.5299712E-01;  0.0000000E+00;  9.0003632E-02;  6.9240288E+03;
  9.0000004E-02;  9.9999998E-03; -3.4000000E-01;2101;  0.0000000E+00;  0.0000000E+00;  0.0000000E+00;  1.0000000E+03;  1.0000000E-01;  0.0000000E+00;0;  0.0000000E+00;  0.0000000E+00;  0.0000000E+00;0;  3.0896199E-01;  4.0000000E+04;  0.0000000E+00;  0.0000000E+00;  4.0000000E+04;  0.0000000E+00;  4.0000000E+04;  2.0749231E-01;  0.0000000E+00;  1.0146967E-01;  8.8323594E+03;
  9.0000004E-02;  9.9999998E-03; -3.3000001E-01;2102;  0.0000000E+00;  0.0000000E+00;  0.0000000E+00;  1.0000000E+03;  1.0000000E-01;  0.0000000E+00;0;  0.0000000E+00;  0.0000000E+00;  0.0000000E+00;0;  3.8041472E-01;  4.0000000E+04;  0.0000000E+00;  0.0000000E+00;  4.0000000E+04;  0.0000000E+00;  4.0000000E+04;  2.7039558E-01;  0.0000000E+00;  1.1001914E-01;  1.0872992E+04;
  9.0000004E-02;  9.9999998E-03; -3.1999999E-01;2103;  0.0000000E+00;  0.0000000E+00;  0.0000000E+00;  1.0000000E+03;  1.0000000E-01;  0.0000000E+00;0;  0.0000000E+00;  0.0000000E+00;  0.0000000E+00;0;  4.5324668E-01;  4.0000000E+04;  0.0000000E+00;  0.0000000E+00;  4.0000000E+04;  0.0000000E+00;  4.0000000E+04;  3.3933684E-01;  0.0000000E+00;  1.1390984E-01;  1.2909907E+04;
  9.0000004E-02;  9.9999998E-03; -3.1000000E-01;2104;  0.0000000E+00;  0.0000000E+00;  0.0000000E+00;  1.0000000E+03;  1.0000000E-01;  0.0000000E+00;0;  0.0000000E+00;  0.0000000E+00;  0.0000000E+00;0;  5.2193183E-01;  4.0000000E+04;  0.0000000E+00;  0.0000000E+00;  4.0000000E+04;  0.0000000E+00;  4.0000000E+04;  4.1069961E-01;  0.0000000E+00;  1.1123221E-01;  1.4737562E+04;
  1.0000000E-01;  9.9999998E-03; -4.4000000E-01;2121;  0.0000000E+00;  0.0000000E+00;  0.0000000E+00;  1.0000000E+03;  1.0000000E-01;  0.0000000E+00;0;  0.0000000E+00;  0.0000000E+00;  0.0000000E+00;0;  1.7055017E-03;  4.0000000E+04;  0.0000000E+00;  0.0000000E+00;  4.0000000E+04;  0.0000000E+00;  4.0000000E+04;  4.1365245E-04;  0.0000000E+00;  1.2918493E-03;  2.9175526E+01;
  1.0000000E-01;  9.9999998E-03; -4.3000001E-01;2122;  0.0000000E+00;  0.0000000E+00;  0.0000000E+00;  1.0000000E+03;  1.0000000E-01;  0.0000000E+00;0;  0.0000000E+00;  0.0000000E+00;  0.0000000E+00;0;  5.3741052E-03;  4.0000000E+04;  0.0000000E+00;  0.0000000E+00;  4.0000000E+04;  0.0000000E+00;  4.0000000E+04;  1.4747496E-03;  0.0000000E+00;  3.8993554E-03;  7.0442383E+01;
  1.0000000E-01;  9.9999998E-03; -4.1999999E-01;2123;  0.0000000E+00;  0.0000000E+00;  0.0000000E+00;  1.0000000E+03;  1.0000000E-01;  0.0000000E+00;0;  0.0000000E+00;  0.0000000E+00;  0.0000000E+00;0;  1.2680890E-02;  4.0000000E+04;  0.0000000E+00;  0.0000000E+00;  4.0000000E+04;  0.0000000E+00;  4.0000000E+04;  3.9673955E-03;  0.0000000E+00;  8.7134950E-03;  1.9406393E+02;
  1.0000000E-01;  9.9999998E-03; -4.1000000E-01;2124;  0.0000000E+00;  0.0000000E+00;  0.0000000E+00;  1.0000000E+03;  1.0000000E-01;  0.0000000E+00;0;  0.0000000E+00;  0.0000000E+00;  0.0000000E+00;0;  2.4767198E-02;  4.0000000E+04;  0.0000000E+00;  0.0000000E+00;  4.0000000E+04;  0.0000000E+00;  4.0000000E+04;  8.8832965E-03;  0.0000000E+00;  1.5883900E-02;  4.7762585E+02;
  1.0000000E-01;  9.9999998E-03; -4.0000001E-01;2125;  0.0000000E+00;  0.0000000E+00;  0.0000000E+00;  1.0000000E+03;  1.0000000E-01;  0.0000000E+00;0;  0.0000000E+00;  0.0000000E+00;  0.0000000E+00;0;  4.2565629E-02;  4.0000000E+04;  0.0000000E+00;  0.0000000E+00;  4.0000000E+04;  0.0000000E+00;  4.0000000E+04;  1.7457061E-02;  0.0000000E+00;  2.5108567E-02;  9.6987073E+02;
  1.0000000E-01;  9.9999998E-03; -3.8999999E-01;2126;  0.0000000E+00;  0.0000000E+00;  0.0000000E+00;  1.0000000E+03;  1.0000000E-01;  0.0000000E+00;0;  0.0000000E+00;  0.0000000E+00;  0.0000000E+00;0;  6.6967025E-02;  4.0000000E+04;  0.0000000E+00;  0.0000000E+00;  4.0000000E+04;  0.0000000E+00;  4.0000000E+04;  3.1099085E-02;  0.0000000E+00;  3.5867944E-02;  1.6964266E+03;
  1.0000000E-01;  9.9999998E-03; -3.8000000E-01;2127;  0.0000000E+00;  0.0000000E+00;  0.0000000E+00;  1.0000000E+03;  1.0000000E-01;  0.0000000E+00;0;  0.0000000E+00;  0.0000000E+00;  0.0000000E+00;0;  9.8898157E-02;  4.0000000E+04;  0.0000000E+00;  0.0000000E+00;  4.0000000E+04;  0.0000000E+00;  4.0000000E+04;  5.1283006E-02;  0.0000000E+00;  4.7615152E-02;  2.6684624E+03;
  1.0000000E-01;  9.9999998E-03; -3.7000000E-01;2128;  0.0000000E+00;  0.0000000E+00;  0.0000000E+00;  1.0000000E+03;  1.0000000E-01;  0.0000000E+00;0;  0.0000000E+00;  0.0000000E+00;  0.0000000E+00;0;  1.3920249E-01;  4.0000000E+04;  0.0000000E+00;  0.0000000E+00;  4.0000000E+04;  0.0000000E+00;  4.0000000E+04;  7.9378903E-02;  0.0000000E+00;  5.9823591E-02;  3.8890571E+03;
  1.0000000E-01;  9.9999998E-03; -3.6000001E-01;2129;  0.0000000E+00;  0.0000000E+00;  0.0000000E+00;  1.0000000E+03;  1.0000000E-01;  0.0000000E+00;0;  0.0000000E+00;  0.0000000E+00;  0.0000000E+00;0;  1.8834817E-01;  4.0000000E+04;  0.0000000E+00;  0.0000000E+00;  4.0000000E+04;  0.0000000E+00;  4.0000000E+04;  1.1642206E-01;  0.0000000E+00;  7.1926124E-02;  5.3537656E+03;
  1.0000000E-01;  9.9999998E-03; -3.4999999E-01;2130;  0.0000000E+00;  0.0000000E+00;  0.0000000E+00;  1.0000000E+03;  1.0000000E-01;  0.0000000E+00;0;  0.0000000E+00;  0.0000000E+00;  0.0000000E+00;0;  2.4604507E-01;  4.0000000E+04;  0.0000000E+00;  0.0000000E+00;  4.0000000E+04;  0.0000000E+00;  4.0000000E+04;  1.6283868E-01;  0.0000000E+00;  8.3206385E-02;  7.0449751E+03;
  1.0000000E-01;  9.9999998E-03; -3.4000000E-01;2131;  0.0000000E+00;  0.0000000E+00;  0.0000000E+00;  1.0000000E+03;  1.0000000E-01;  0.0000000E+00;0;  0.0000000E+00;  0.0000000E+00;  0.0000000E+00;0;  3.1084442E-01;  4.0000000E+04;  0.0000000E+00;  0.0000000E+00;  4.0000000E+04;  0.0000000E+00;  4.0000000E+04;  2.1816079E-01;  0.0000000E+00;  9.2683636E-02;  8.9211553E+03;
  1.0000000E-01;  9.9999998E-03; -3.3000001E-01;2132;  0.0000000E+00;  0.0000000E+00;  0.0000000E+00;  1.0000000E+03;  1.0000000E-01;  0.0000000E+00;0;  0.0000000E+00;  0.0000000E+00;  0.0000000E+00;0;  3.7982553E-01;  4.0000000E+04;  0.0000000E+00;  0.0000000E+00;  4.0000000E+04;  0.0000000E+00;  4.0000000E+04;  2.8079283E-01;  0.0000000E+00;  9.9032693E-02;  1.0903160E+04;
  1.0000000E-01;  9.9999998E-03; -3.1999999E-01;2133;  0.0000000E+00;  0.0000000E+00;  0.0000000E+00;  1.0000000E+03;  1.0000000E-01;  0.0000000E+00;0;  0.0000000E+00;  0.0000000E+00;  0.0000000E+00;0;  4.4848219E-01;  4.0000000E+04;  0.0000000E+00;  0.0000000E+00;  4.0000000E+04;  0.0000000E+00;  4.0000000E+04;  3.4788501E-01;  0.0000000E+00;  1.0059717E-01;  1.2860020E+04;
  1.0000000E-01;  9.9999998E-03; -3.1000000E-01;2134;  0.0000000E+00;  0.0000000E+00;  0.0000000E+00;  1.0000000E+03;  1.0000000E-01;  0.0000000E+00;0;  0.0000000E+00;  0.0000000E+00;  0.0000000E+00;0;  5.1095945E-01;  4.0000000E+04;  0.0000000E+00;  0.0000000E+00;  4.0000000E+04;  0.0000000E+00;  4.0000000E+04;  4.1537318E-01;  0.0000000E+00;  9.5586270E-02;  1.4597725E+04;
  1.1000000E-01;  9.9999998E-03; -4.4000000E-01;2151;  0.0000000E+00;  0.0000000E+00;  0.0000000E+00;  1.0000000E+03;  1.0000000E-01;  0.0000000E+00;0;  0.0000000E+00;  0.0000000E+00;  0.0000000E+00;0;  1.8237431E-03;  4.0000000E+04;  0.0000000E+00;  0.0000000E+00;  4.0000000E+04;  0.0000000E+00;  4.0000000E+04;  5.0323032E-04;  0.0000000E+00;  1.3205128E-03;  5.4614952E+01;
  1.1000000E-01;  9.9999998E-03; -4.3000001E-01;2152;  0.0000000E+00;  0.0000000E+00;  0.0000000E+00;  1.0000000E+03;  1.0000000E-01;  0.0000000E+00;0;  0.0000000E+00;  0.0000000E+00;  0.0000000E+00;0;  5.6568370E-03;  4.0000000E+04;  0.0000000E+00;  0.0000000E+00;  4.0000000E+04;  0.0000000E+00;  4.0000000E+04;  1.7670973E-03;  0.0000000E+00;  3.8897397E-03;  1.0714705E+02;
  1.1000000E-01;  9.9999998E-03; -4.1999999E-01;2153;  0.0000000E+00;  0.0000000E+00;  0.0000000E+00;  1.0000000E+03;  1.0000000E-01;  0.0000000E+00;0;  0.0000000E+00;  0.0000000E+00;  0.0000000E+00;0;  1.3212467E-02;  4.0000000E+04;  0.0000000E+00;  0.0000000E+00;  4.0000000E+04;  0.0000000E+00;  4.0000000E+04;  4.6826131E-03;  0.0000000E+00;  8.5298531E-03;  2.1822932E+02;
  1.1000000E-01;  9.9999998E-03; -4.1000000E-01;2154;  0.0000000E+00;  0.0000000E+00;  0.0000000E+00;  1.0000000E+03;  1.0000000E-01;  0.0000000E+00;0;  0.0000000E+00;  0.0000000E+00;  0.0000000E+00;0;  2.5639856E-02;  4.0000000E+04;  0.0000000E+00;  0.0000000E+00;  4.0000000E+04;  0.0000000E+00;  4.0000000E+04;  1.0320724E-02;  0.0000000E+00;  1.5319132E-02;  4.9221579E+02;
  1.1000000E-01;  9.9999998E-03; -4.0000001E-01;2155;  0.0000000E+00;  0.0000000E+00;  0.0000000E+00;  1.0000000E+03;  1.0000000E-01;  0.0000000E+00;0;  0.0000000E+00;  0.0000000E+00;  0.0000000E+00;0;  4.3885760E-02;  4.0000000E+04;  0.0000000E+00;  0.0000000E+00;  4.0000000E+04;  0.0000000E+00;  4.0000000E+04;  1.9968763E-02;  0.0000000E+00;  2.3916997E-02;  9.8990649E+02;
  1.1000000E-01;  9.9999998E-03; -3.8999999E-01;2156;  0.0000000E+00;  0.0000000E+00;  0.0000000E+00;  1.0000000E+03;  1.0000000E-01;  0.0000000E+00;0;  0.0000000E+00;  0.0000000E+00;  0.0000000E+00;0;  6.8839535E-02;  4.0000000E+04;  0.0000000E+00;  0.0000000E+00;  4.0000000E+04;  0.0000000E+00;  4.0000000E+04;  3.5051074E-02;  0.0000000E+00;  3.3788458E-02;  1.7290577E+03;
  1.1000000E-01;  9.9999998E-03; -3.8000000E-01;2157;  0.0000000E+00;  0.0000000E+00;  0.0000000E+00;  1.0000000E+03;  1.0000000E-01;  0.0000000E+00;0;  0.0000000E+00;  0.0000000E+00;  0.0000000E+00;0;  1.0138044E-01;  4.0000000E+04;  0.0000000E+00;  0.0000000E+00;  4.0000000E+04;  0.0000000E+00;  4.0000000E+04;  5.7000216E-02;  0.0000000E+00;  4.4380225E-02;  2.7106729E+03;
  1.1000000E-01;  9.9999998E-03; -3.7000000E-01;2158;  0.0000000E+00;  0.0000000E+00;  0.0000000E+00;  1.0000000E+03;  1.0000000E-01;  0.0000000E+00;0;  0.0000000E+00;  0.0000000E+00;  0.0000000E+00;0;  1.4223166E-01;  4.0000000E+04;  0.0000000E+00;  0.0000000E+00;  4.0000000E+04;  0.0000000E+00;  4.0000000E+04;  8.7069444E-02;  0.0000000E+00;  5.5162214E-02;  3.9287183E+03;
  1.1000000E-01;  9.9999998E-03; -3.6000001E-01;2159;  0.0000000E+00;  0.0000000E+00;  0.0000000E+00;  1.0000000E+03;  1.0000000E-01;  0.0000000E+00;0;  0.0000000E+00;  0.0000000E+00;  0.0000000E+00;0;  1.9165052E-01;  4.0000000E+04;  0.0000000E+00;  0.0000000E+00;  4.0000000E+04;  0.0000000E+00;  4.0000000E+04;  1.2608093E-01;  0.0000000E+00;  6.5569595E-02;  5.3720435E+03;
  1.1000000E-01;  9.9999998E-03; -3.4999999E-01;2160;  0.0000000E+00;  0.0000000E+00;  0.0000000E+00;  1.0000000E+03;  1.0000000E-01;  0.0000000E+00;0;  0.0000000E+00;  0.0000000E+00;  0.0000000E+00;0;  2.4904199E-01;  4.0000000E+04;  0.0000000E+00;  0.0000000E+00;  4.0000000E+04;  0.0000000E+00;  4.0000000E+04;  1.7414223E-01;  0.0000000E+00;  7.4899763E-02;  7.0211230E+03;
  1.1000000E-01;  9.9999998E-03; -3.4000000E-01;2161;  0.0000000E+00;  0.0000000E+00;  0.0000000E+00;  1.0000000E+03;  1.0000000E-01;  0.0000000E+00;0;  0.0000000E+00;  0.0000000E+00;  0.0000000E+00;0;  3.1257710E-01;  4.0000000E+04;  0.0000000E+00;  0.0000000E+00;  4.0000000E+04;  0.0000000E+00;  4.0000000E+04;  2.3037040E-01;  0.0000000E+00;  8.2206689E-02;  8.8413887E+03;
  1.1000000E-01;  9.9999998E-03; -3.3000001E-01;2162;  0.0000000E+00;  0.0000000E+00;  0.0000000E+00;  1.0000000E+03;  1.0000000E-01;  0.0000000E+00;0;  0.0000000E+00;  0.0000000E+00;  0.0000000E+00;0;  3.7892208E-01;  4.0000000E+04;  0.0000000E+00;  0.0000000E+00;  4.0000000E+04;  0.0000000E+00;  4.0000000E+04;  2.9269454E-01;  0.0000000E+00;  8.6227529E-02;  1.0773008E+04;
  1.1000000E-01;  9.9999998E-03; -3.1999999E-01;2163;  0.0000000E+00;  0.0000000E+00;  0.0000000E+00;  1.0000000E+03;  1.0000000E-01;  0.0000000E+00;0;  0.0000000E+00;  0.0000000E+00;  0.0000000E+00;0;  4.4319239E-01;  4.0000000E+04;  0.0000000E+00;  0.0000000E+00;  4.0000000E+04;  0.0000000E+00;  4.0000000E+04;  3.5779291E-01;  0.0000000E+00;  8.5399486E-02;  1.2714527E+04;
  1.1000000E-01;  9.9999998E-03; -3.1000000E-01;2164;  0.0000000E+00;  0.0000000E+00;  0.0000000E+00;  1.0000000E+03;  1.0000000E-01;  0.0000000E+00;0;  0.0000000E+00;  0.0000000E+00;  0.0000000E+00;0;  4.9925321E-01;  4.0000000E+04;  0.0000000E+00;  0.0000000E+00;  4.0000000E+04;  0.0000000E+00;  4.0000000E+04;  4.2120501E-01;  0.0000000E+00;  7.8048192E-02;  1.4499319E+04;
  1.2000000E-01;  9.9999998E-03; -4.4000000E-01;2181;  0.0000000E+00;  0.0000000E+00;  0.0000000E+00;  1.0000000E+03;  1.0000000E-01;  0.0000000E+00;0;  0.0000000E+00;  0.0000000E+00;  0.0000000E+00;0;  1.9775471E-03;  4.0000000E+04;  0.0000000E+00;  0.0000000E+00;  4.0000000E+04;  0.0000000E+00;  4.0000000E+04;  6.1028637E-04;  0.0000000E+00;  1.3672606E-03;  8.5242912E+01;
  1.2000000E-01;  9.9999998E-03; -4.3000001E-01;2182;  0.0000000E+00;  0.0000000E+00;  0.0000000E+00;  1.0000000E+03;  1.0000000E-01;  0.0000000E+00;0;  0.0000000E+00;  0.0000000E+00;  0.0000000E+00;0;  5.9965225E-03;  4.0000000E+04;  0.0000000E+00;  0.0000000E+00;  4.0000000E+04;  0.0000000E+00;  4.0000000E+04;  2.1229319E-03;  0.0000000E+00;  3.8735904E-03;  1.5050478E+02;
  1.2000000E-01;  9.9999998E-03; -4.1999999E-01;2183;  0.0000000E+00;  0.0000000E+00;  0.0000000E+00;  1.0000000E+03;  1.0000000E-01;  0.0000000E+00;0;  0.0000000E+00;  0.0000000E+00;  0.0000000E+00;0;  1.3802765E-02;  4.0000000E+04;  0.0000000E+00;  0.0000000E+00;  4.0000000E+04;  0.0000000E+00;  4.0000000E+04;  5.5449861E-03;  0.0000000E+00;  8.2577784E-03;  2.4366441E+02;
  1.2000000E-01;  9.9999998E-03; -4.1000000E-01;2184;  0.0000000E+00;  0.0000000E+00;  0.0000000E+00;  1.0000000E+03;  1.0000000E-01;  0.0000000E+00;0;  0.0000000E+00;  0.0000000E+00;  0.0000000E+00;0;  2.6550720E-02;  4.0000000E+04;  0.0000000E+00;  0.0000000E+00;  4.0000000E+04;  0.0000000E+00;  4.0000000E+04;  1.2025250E-02;  0.0000000E+00;  1.4525469E-02;  4.9683871E+02;
  1.2000000E-01;  9.9999998E-03; -4.0000001E-01;2185;  0.0000000E+00;  0.0000000E+00;  0.0000000E+00;  1.0000000E+03;  1.0000000E-01;  0.0000000E+00;0;  0.0000000E+00;  0.0000000E+00;  0.0000000E+00;0;  4.5207754E-02;  4.0000000E+04;  0.0000000E+00;  0.0000000E+00;  4.0000000E+04;  0.0000000E+00;  4.0000000E+04;  2.2901835E-02;  0.0000000E+00;  2.2305919E-02;  9.9447827E+02;
  1.2000000E-01;  9.9999998E-03; -3.8999999E-01;2186;  0.0000000E+00;  0.0000000E+00;  0.0000000E+00;  1.0000000E+03;  1.0000000E-01;  0.0000000E+00;0;  0.0000000E+00;  0.0000000E+00;  0.0000000E+00;0;  7.0671655E-02;  4.0000000E+04;  0.0000000E+00;  0.0000000E+00;  4.0000000E+04;  0.0000000E+00;  4.0000000E+04;  3.9609261E-02;  0.0000000E+00;  3.1062396E-02;  1.7371832E+03;
  1.2000000E-01;  9.9999998E-03; -3.8000000E-01;2187;  0.0000000E+00;  0.0000000E+00;  0.0000000E+00;  1.0000000E+03;  1.0000000E-01;  0.0000000E+00;0;  0.0000000E+00;  0.0000000E+00;  0.0000000E+00;0;  1.0378021E-01;  4.0000000E+04;  0.0000000E+00;  0.0000000E+00;  4.0000000E+04;  0.0000000E+00;  4.0000000E+04;  6.3529313E-02;  0.0000000E+00;  4.0250901E-02;  2.7100352E+03;
  1.2000000E-01;  9.9999998E-03; -3.7000000E-01;2188;  0.0000000E+00;  0.0000000E+00;  0.0000000E+00;  1.0000000E+03;  1.0000000E-01;  0.0000000E+00;0;  0.0000000E+00;  0.0000000E+00;  0.0000000E+00;0;  1.4513250E-01;  4.0000000E+04;  0.0000000E+00;  0.0000000E+00;  4.0000000E+04;  0.0000000E+00;  4.0000000E+04;  9.5778234E-02;  0.0000000E+00;  4.9354263E-02;  3.9027651E+03;
  1.2000000E-01;  9.9999998E-03; -3.6000001E-01;2189;  0.0000000E+00;  0.0000000E+00;  0.0000000E+00;  1.0000000E+03;  1.0000000E-01;  0.0000000E+00;0;  0.0000000E+00;  0.0000000E+00;  0.0000000E+00;0;  1.9475845E-01;  4.0000000E+04;  0.0000000E+00;  0.0000000E+00;  4.0000000E+04;  0.0000000E+00;  4.0000000E+04;  1.3693318E-01;  0.0000000E+00;  5.7825271E-02;  5.3170625E+03;
  1.2000000E-01;  9.9999998E-03; -3.4999999E-01;2190;  0.0000000E+00;  0.0000000E+00;  0.0000000E+00;  1.0000000E+03;  1.0000000E-01;  0.0000000E+00;0;  0.0000000E+00;  0.0000000E+00;  0.0000000E+00;0;  2.5173277E-01;  4.0000000E+04;  0.0000000E+00;  0.0000000E+00;  4.0000000E+04;  0.0000000E+00;  4.0000000E+04;  1.8674172E-01;  0.0000000E+00;  6.4991049E-02;  6.9685244E+03;
  1.2000000E-01;  9.9999998E-03; -3.4000000E-01;2191;  0.0000000E+00;  0.0000000E+00;  0.0000000E+00;  1.0000000E+03;  1.0000000E-01;  0.0000000E+00;0;  0.0000000E+00;  0.0000000E+00;  0.0000000E+00;0;  3.1382158E-01;  4.0000000E+04;  0.0000000E+00;  0.0000000E+00;  4.0000000E+04;  0.0000000E+00;  4.0000000E+04;  2.4386540E-01;  0.0000000E+00;  6.9956176E-02;  8.8793848E+03;
  1.2000000E-01;  9.9999998E-03; -3.3000001E-01;2192;  0.0000000E+00;  0.0000000E+00;  0.0000000E+00;  1.0000000E+03;  1.0000000E-01;  0.0000000E+00;0;  0.0000000E+00;  0.0000000E+00;  0.0000000E+00;0;  3.7727472E-01;  4.0000000E+04;  0.0000000E+00;  0.0000000E+00;  4.0000000E+04;  0.0000000E+00;  4.0000000E+04;  3.0573776E-01;  0.0000000E+00;  7.1536966E-02;  1.1053008E+04;
  1.2000000E-01;  9.9999998E-03; -3.1999999E-01;2193;  0.0000000E+00;  0.0000000E+00;  0.0000000E+00;  1.0000000E+03;  1.0000000E-01;  0.0000000E+00;0;  0.0000000E+00;  0.0000000E+00;  0.0000000E+00;0;  4.3685788E-01;  4.0000000E+04;  0.0000000E+00;  0.0000000E+00;  4.0000000E+04;  0.0000000E+00;  4.0000000E+04;  3.6858040E-01;  0.0000000E+00;  6.8277471E-02;  1.3424386E+04;
  1.2000000E-01;  9.9999998E-03; -3.1000000E-01;2194;  0.0000000E+00;  0.0000000E+00;  0.0000000E+00;  1.0000000E+03;  1.0000000E-01;  0.0000000E+00;0;  0.0000000E+00;  0.0000000E+00;  0.0000000E+00;0;  4.8623919E-01;  4.0000000E+04;  0.0000000E+00;  0.0000000E+00;  4.0000000E+04;  0.0000000E+00;  4.0000000E+04;  4.2760909E-01;  0.0000000E+00;  5.8630109E-02;  1.5799528E+04;
  1.3000000E-01;  9.9999998E-03; -4.4000000E-01;2211;  0.0000000E+00;  0.0000000E+00;  0.0000000E+00;  1.0000000E+03;  1.0000000E-01;  0.0000000E+00;0;  0.0000000E+00;  0.0000000E+00;  0.0000000E+00;0;  2.1397509E-03;  4.0000000E+04;  0.0000000E+00;  0.0000000E+00;  4.0000000E+04;  0.0000000E+00;  4.0000000E+04;  7.4378739E-04;  0.0000000E+00;  1.3959636E-03;  1.0447505E+02;
  1.3000000E-01;  9.9999998E-03; -4.3000001E-01;2212;  0.0000000E+00;  0.0000000E+00;  0.0000000E+00;  1.0000000E+03;  1.0000000E-01;  0.0000000E+00;0;  0.0000000E+00;  0.0000000E+00;  0.0000000E+00;0;  6.3361046E-03;  4.0000000E+04;  0.0000000E+00;  0.0000000E+00;  4.0000000E+04;  0.0000000E+00;  4.0000000E+04;  2.5560376E-03;  0.0000000E+00;  3.7800670E-03;  1.5393604E+02;
  1.3000000E-01;  9.9999998E-03; -4.1999999E-01;2213;  0.0000000E+00;  0.0000000E+00;  0.0000000E+00;  1.0000000E+03;  1.0000000E-01;  0.0000000E+00;0;  0.0000000E+00;  0.0000000E+00;  0.0000000E+00;0;  1.4361604E-02;  4.0000000E+04;  0.0000000E+00;  0.0000000E+00;  4.0000000E+04;  0.0000000E+00;  4.0000000E+04;  6.5606846E-03;  0.0000000E+00;  7.8009195E-03;  2.0963567E+02;
  1.3000000E-01;  9.9999998E-03; -4.1000000E-01;2214;  0.0000000E+00;  0.0000000E+00;  0.0000000E+00;  1.0000000E+03;  1.0000000E-01;  0.0000000E+00;0;  0.0000000E+00;  0.0000000E+00;  0.0000000E+00;0;  2.7370494E-02;  4.0000000E+04;  0.0000000E+00;  0.0000000E+00;  4.0000000E+04;  0.0000000E+00;  4.0000000E+04;  1.3981538E-02;  0.0000000E+00;  1.3388955E-02;  4.7863876E+02;
  1.3000000E-01;  9.9999998E-03; -4.0000001E-01;2215;  0.0000000E+00;  0.0000000E+00;  0.0000000E+00;  1.0000000E+03;  1.0000000E-01;  0.0000000E+00;0;  0.0000000E+00;  0.0000000E+00;  0.0000000E+00;0;  4.6355464E-02;  4.0000000E+04;  0.0000000E+00;  0.0000000E+00;  4.0000000E+04;  0.0000000E+00;  4.0000000E+04;  2.6204174E-02;  0.0000000E+00;  2.0151291E-02;  1.0042609E+03;
  1.3000000E-01;  9.9999998E-03; -3.8999999E-01;2216;  0.0000000E+00;  0.0000000E+00;  0.0000000E+00;  1.0000000E+03;  1.0000000E-01;  0.0000000E+00;0;  0.0000000E+00;  0.0000000E+00;  0.0000000E+00;0;  7.2230004E-02;  4.0000000E+04;  0.0000000E+00;  0.0000000E+00;  4.0000000E+04;  0.0000000E+00;  4.0000000E+04;  4.4668898E-02;  0.0000000E+00;  2.7561104E-02;  1.7406768E+03;
  1.3000000E-01;  9.9999998E-03; -3.8000000E-01;2217;  0.0000000E+00;  0.0000000E+00;  0.0000000E+00;  1.0000000E+03;  1.0000000E-01;  0.0000000E+00;0;  0.0000000E+00;  0.0000000E+00;  0.0000000E+00;0;  1.0579360E-01;  4.0000000E+04;  0.0000000E+00;  0.0000000E+00;  4.0000000E+04;  0.0000000E+00;  4.0000000E+04;  7.0695661E-02;  0.0000000E+00;  3.5097931E-02;  2.6769087E+03;
  1.3000000E-01;  9.9999998E-03; -3.7000000E-01;2218;  0.0000000E+00;  0.0000000E+00;  0.0000000E+00;  1.0000000E+03;  1.0000000E-01;  0.0000000E+00;0;  0.0000000E+00;  0.0000000E+00;  0.0000000E+00;0;  1.4751382E-01;  4.0000000E+04;  0.0000000E+00;  0.0000000E+00;  4.0000000E+04;  0.0000000E+00;  4.0000000E+04;  1.0524219E-01;  0.0000000E+00;  4.2271625E-02;  3.8636694E+03;
  1.3000000E-01;  9.9999998E-03; -3.6000001E-01;2219;  0.0000000E+00;  0.0000000E+00;  0.0000000E+00;  1.0000000E+03;  1.0000000E-01;  0.0000000E+00;0;  0.0000000E+00;  0.0000000E+00;  0.0000000E+00;0;  1.9717270E-01;  4.0000000E+04;  0.0000000E+00;  0.0000000E+00;  4.0000000E+04;  0.0000000E+00;  4.0000000E+04;  1.4860651E-01;  0.0000000E+00;  4.8566185E-02;  5.4241387E+03;
  1.3000000E-01;  9.9999998E-03; -3.4999999E-01;2220;  0.0000000E+00;  0.0000000E+00;  0.0000000E+00;  1.0000000E+03;  1.0000000E-01;  0.0000000E+00;0;  0.0000000E+00;  0.0000000E+00;  0.0000000E+00;0;  2.5348833E-01;  4.0000000E+04;  0.0000000E+00;  0.0000000E+00;  4.0000000E+04;  0.0000000E+00;  4.0000000E+04;  2.0013596E-01;  0.0000000E+00;  5.3352360E-02;  7.5234214E+03;
  1.3000000E-01;  9.9999998E-03; -3.4000000E-01;2221;  0.0000000E+00;  0.0000000E+00;  0.0000000E+00;  1.0000000E+03;  1.0000000E-01;  0.0000000E+00;0;  0.0000000E+00;  0.0000000E+00;  0.0000000E+00;0;  3.1380591E-01;  4.0000000E+04;  0.0000000E+00;  0.0000000E+00;  4.0000000E+04;  0.0000000E+00;  4.0000000E+04;  2.5800338E-01;  0.0000000E+00;  5.5802524E-02;  1.0291143E+04;
  1.3000000E-01;  9.9999998E-03; -3.3000001E-01;2222;  0.0000000E+00;  0.0000000E+00;  0.0000000E+00;  1.0000000E+03;  1.0000000E-01;  0.0000000E+00;0;  0.0000000E+00;  0.0000000E+00;  0.0000000E+00;0;  3.7396812E-01;  4.0000000E+04;  0.0000000E+00;  0.0000000E+00;  4.0000000E+04;  0.0000000E+00;  4.0000000E+04;  3.1913561E-01;  0.0000000E+00;  5.4832529E-02;  1.3724730E+04;
  1.3000000E-01;  9.9999998E-03; -3.1999999E-01;2223;  0.0000000E+00;  0.0000000E+00;  0.0000000E+00;  1.0000000E+03;  1.0000000E-01;  0.0000000E+00;0;  0.0000000E+00;  0.0000000E+00;  0.0000000E+00;0;  4.2845228E-01;  4.0000000E+04;  0.0000000E+00;  0.0000000E+00;  4.0000000E+04;  0.0000000E+00;  4.0000000E+04;  3.7933350E-01;  0.0000000E+00;  4.9118795E-02;  1.7609812E+04;
  1.3000000E-01;  9.9999998E-03; -3.1000000E-01;2224;  0.0000000E+00;  0.0000000E+00;  0.0000000E+00;  1.0000000E+03;  1.0000000E-01;  0.0000000E+00;0;  0.0000000E+00;  0.0000000E+00;  0.0000000E+00;0;  4.7085220E-01;  4.0000000E+04;  0.0000000E+00;  0.0000000E+00;  4.0000000E+04;  0.0000000E+00;  4.0000000E+04;  4.3358377E-01;  0.0000000E+00;  3.7268437E-02;  2.1486072E+04;
  1.4000000E-01;  9.9999998E-03; -4.4000000E-01;2241;  0.0000000E+00;  0.0000000E+00;  0.0000000E+00;  1.0000000E+03;  1.0000000E-01;  0.0000000E+00;0;  0.0000000E+00;  0.0000000E+00;  0.0000000E+00;0;  2.2794979E-03;  4.0000000E+04;  0.0000000E+00;  0.0000000E+00;  4.0000000E+04;  0.0000000E+00;  4.0000000E+04;  9.1172499E-04;  0.0000000E+00;  1.3677729E-03;  7.3757019E+01;
  1.4000000E-01;  9.9999998E-03; -4.3000001E-01;2242;  0.0000000E+00;  0.0000000E+00;  0.0000000E+00;  1.0000000E+03;  1.0000000E-01;  0.0000000E+00;0;  0.0000000E+00;  0.0000000E+00;  0.0000000E+00;0;  6.6071758E-03;  4.0000000E+04;  0.0000000E+00;  0.0000000E+00;  4.0000000E+04;  0.0000000E+00;  4.0000000E+04;  3.0681253E-03;  0.0000000E+00;  3.5390507E-03;  3.6510235E+01;
  1.4000000E-01;  9.9999998E-03; -4.1999999E-01;2243;  0.0000000E+00;  0.0000000E+00;  0.0000000E+00;  1.0000000E+03;  1.0000000E-01;  0.0000000E+00;0;  0.0000000E+00;  0.0000000E+00;  0.0000000E+00;0;  1.4768215E-02;  4.0000000E+04;  0.0000000E+00;  0.0000000E+00;  4.0000000E+04;  0.0000000E+00;  4.0000000E+04;  7.7055902E-03;  0.0000000E+00;  7.0626251E-03;  2.5139006E+02;
  1.4000000E-01;  9.9999998E-03; -4.1000000E-01;2244;  0.0000000E+00;  0.0000000E+00;  0.0000000E+00;  1.0000000E+03;  1.0000000E-01;  0.0000000E+00;0;  0.0000000E+00;  0.0000000E+00;  0.0000000E+00;0;  2.7909465E-02;  4.0000000E+04;  0.0000000E+00;  0.0000000E+00;  4.0000000E+04;  0.0000000E+00;  4.0000000E+04;  1.6113153E-02;  0.0000000E+00;  1.1796312E-02;  6.8796387E+02;
  1.4000000E-01;  9.9999998E-03; -4.0000001E-01;2245;  0.0000000E+00;  0.0000000E+00;  0.0000000E+00;  1.0000000E+03;  1.0000000E-01;  0.0000000E+00;0;  0.0000000E+00;  0.0000000E+00;  0.0000000E+00;0;  4.7047630E-02;  4.0000000E+04;  0.0000000E+00;  0.0000000E+00;  4.0000000E+04;  0.0000000E+00;  4.0000000E+04;  2.9717773E-02;  0.0000000E+00;  1.7329859E-02;  1.2356198E+03;
  1.4000000E-01;  9.9999998E-03; -3.8999999E-01;2246;  0.0000000E+00;  0.0000000E+00;  0.0000000E+00;  1.0000000E+03;  1.0000000E-01;  0.0000000E+00;0;  0.0000000E+00;  0.0000000E+00;  0.0000000E+00;0;  7.3117413E-02;  4.0000000E+04;  0.0000000E+00;  0.0000000E+00;  4.0000000E+04;  0.0000000E+00;  4.0000000E+04;  4.9958643E-02;  0.0000000E+00;  2.3158772E-02;  1.8337736E+03;
  1.4000000E-01;  9.9999998E-03; -3.8000000E-01;2247;  0.0000000E+00;  0.0000000E+00;  0.0000000E+00;  1.0000000E+03;  1.0000000E-01;  0.0000000E+00;0;  0.0000000E+00;  0.0000000E+00;  0.0000000E+00;0;  1.0688156E-01;  4.0000000E+04;  0.0000000E+00;  0.0000000E+00;  4.0000000E+04;  0.0000000E+00;  4.0000000E+04;  7.8083150E-02;  0.0000000E+00;  2.8798413E-02;  2.6234224E+03;
  1.4000000E-01;  9.9999998E-03; -3.7000000E-01;2248;  0.0000000E+00;  0.0000000E+00;  0.0000000E+00;  1.0000000E+03;  1.0000000E-01;  0.0000000E+00;0;  0.0000000E+00;  0.0000000E+00;  0.0000000E+00;0;  1.4866845E-01;  4.0000000E+04;  0.0000000E+00;  0.0000000E+00;  4.0000000E+04;  0.0000000E+00;  4.0000000E+04;  1.1487263E-01;  0.0000000E+00;  3.3795815E-02;  4.0455955E+03;
  1.4000000E-01;  9.9999998E-03; -3.6000001E-01;2249;  0.0000000E+00;  0.0000000E+00;  0.0000000E+00;  1.0000000E+03;  1.0000000E-01;  0.0000000E+00;0;  0.0000000E+00;  0.0000000E+00;  0.0000000E+00;0;  1.9799647E-01;  4.0000000E+04;  0.0000000E+00;  0.0000000E+00;  4.0000000E+04;  0.0000000E+00;  4.0000000E+04;  1.6032089E-01;  0.0000000E+00;  3.7675582E-02;  6.5839780E+03;
  1.4000000E-01;  9.9999998E-03; -3.4999999E-01;2250;  0.0000000E+00;  0.0000000E+00;  0.0000000E+00;  1.0000000E+03;  1.0000000E-01;  0.0000000E+00;0;  0.0000000E+00;  0.0000000E+00;  0.0000000E+00;0;  2.5321117E-01;  4.0000000E+04;  0.0000000E+00;  0.0000000E+00;  4.0000000E+04;  0.0000000E+00;  4.0000000E+04;  2.1334767E-01;  0.0000000E+00;  3.9863497E-02;  1.0477630E+04;
  1.4000000E-01;  9.9999998E-03; -3.4000000E-01;2251;  0.0000000E+00;  0.0000000E+00;  0.0000000E+00;  1.0000000E+03;  1.0000000E-01;  0.0000000E+00;0;  0.0000000E+00;  0.0000000E+00;  0.0000000E+00;0;  3.1123650E-01;  4.0000000E+04;  0.0000000E+00;  0.0000000E+00;  4.0000000E+04;  0.0000000E+00;  4.0000000E+04;  2.7162135E-01;  0.0000000E+00;  3.9615147E-02;  1.5696098E+04;
  1.4000000E-01;  9.9999998E-03; -3.3000001E-01;2252;  0.0000000E+00;  0.0000000E+00;  0.0000000E+00;  1.0000000E+03;  1.0000000E-01;  0.0000000E+00;0;  0.0000000E+00;  0.0000000E+00;  0.0000000E+00;0;  3.6755016E-01;  4.0000000E+04;  0.0000000E+00;  0.0000000E+00;  4.0000000E+04;  0.0000000E+00;  4.0000000E+04;  3.3157846E-01;  0.0000000E+00;  3.5971697E-02;  2.1925824E+04;
  1.4000000E-01;  9.9999998E-03; -3.1999999E-01;2253;  0.0000000E+00;  0.0000000E+00;  0.0000000E+00;  1.0000000E+03;  1.0000000E-01;  0.0000000E+00;0;  0.0000000E+00;  0.0000000E+00;  0.0000000E+00;0;  4.1643849E-01;  4.0000000E+04;  0.0000000E+00;  0.0000000E+00;  4.0000000E+04;  0.0000000E+00;  4.0000000E+04;  3.8865736E-01;  0.0000000E+00;  2.7781133E-02;  2.8528252E+04;
  1.4000000E-01;  9.9999998E-03; -3.1000000E-01;2254;  0.0000000E+00;  0.0000000E+00;  0.0000000E+00;  1.0000000E+03;  1.0000000E-01;  0.0000000E+00;0;  0.0000000E+00;  0.0000000E+00;  0.0000000E+00;0;  4.5158446E-01;  4.0000000E+04;  0.0000000E+00;  0.0000000E+00;  4.0000000E+04;  0.0000000E+00;  4.0000000E+04;  4.3772560E-01;  0.0000000E+00;  1.3858840E-02;  3.4562527E+04;
  1.5000001E-01;  9.9999998E-03; -4.4000000E-01;2271;  0.0000000E+00;  0.0000000E+00;  0.0000000E+00;  1.0000000E+03;  1.0000000E-01;  0.0000000E+00;0;  0.0000000E+00;  0.0000000E+00;  0.0000000E+00;0;  2.3624008E-03;  4.0000000E+04;  0.0000000E+00;  0.0000000E+00;  4.0000000E+04;  0.0000000E+00;  4.0000000E+04;  1.1136961E-03;  0.0000000E+00;  1.2487046E-03;  8.2938881E+01;
  1.5000001E-01;  9.9999998E-03; -4.3000001E-01;2272;  0.0000000E+00;  0.0000000E+00;  0.0000000E+00;  1.0000000E+03;  1.0000000E-01;  0.0000000E+00;0;  0.0000000E+00;  0.0000000E+00;  0.0000000E+00;0;  6.7279991E-03;  4.0000000E+04;  0.0000000E+00;  0.0000000E+00;  4.0000000E+04;  0.0000000E+00;  4.0000000E+04;  3.6354444E-03;  0.0000000E+00;  3.0925549E-03;  4.1110394E+02;
  1.5000001E-01;  9.9999998E-03; -4.1999999E-01;2273;  0.0000000E+00;  0.0000000E+00;  0.0000000E+00;  1.0000000E+03;  1.0000000E-01;  0.0000000E+00;0;  0.0000000E+00;  0.0000000E+00;  0.0000000E+00;0;  1.4863200E-02;  4.0000000E+04;  0.0000000E+00;  0.0000000E+00;  4.0000000E+04;  0.0000000E+00;  4.0000000E+04;  8.9022806E-03;  0.0000000E+00;  5.9609194E-03;  1.0195905E+03;
  1.5000001E-01;  9.9999998E-03; -4.1000000E-01;2274;  0.0000000E+00;  0.0000000E+00;  0.0000000E+00;  1.0000000E+03;  1.0000000E-01;  0.0000000E+00;0;  0.0000000E+00;  0.0000000E+00;  0.0000000E+00;0;  2.7894642E-02;  4.0000000E+04;  0.0000000E+00;  0.0000000E+00;  4.0000000E+04;  0.0000000E+00;  4.0000000E+04;  1.8246967E-02;  0.0000000E+00;  9.6476758E-03;  1.7484856E+03;
  1.5000001E-01;  9.9999998E-03; -4.0000001E-01;2275;  0.0000000E+00;  0.0000000E+00;  0.0000000E+00;  1.0000000E+03;  1.0000000E-01;  0.0000000E+00;0;  0.0000000E+00;  0.0000000E+00;  0.0000000E+00;0;  4.6858791E-02;  4.0000000E+04;  0.0000000E+00;  0.0000000E+00;  4.0000000E+04;  0.0000000E+00;  4.0000000E+04;  3.3122599E-02;  0.0000000E+00;  1.3736192E-02;  2.2749714E+03;
  1.5000001E-01;  9.9999998E-03; -3.8999999E-01;2276;  0.0000000E+00;  0.0000000E+00;  0.0000000E+00;  1.0000000E+03;  1.0000000E-01;  0.0000000E+00;0;  0.0000000E+00;  0.0000000E+00;  0.0000000E+00;0;  7.2713234E-02;  4.0000000E+04;  0.0000000E+00;  0.0000000E+00;  4.0000000E+04;  0.0000000E+00;  4.0000000E+04;  5.4958876E-02;  0.0000000E+00;  1.7754359E-02;  2.3373289E+03;
  1.5000001E-01;  9.9999998E-03; -3.8000000E-01;2277;  0.0000000E+00;  0.0000000E+00;  0.0000000E+00;  1.0000000E+03;  1.0000000E-01;  0.0000000E+00;0;  0.0000000E+00;  0.0000000E+00;  0.0000000E+00;0;  1.0618801E-01;  4.0000000E+04;  0.0000000E+00;  0.0000000E+00;  4.0000000E+04;  0.0000000E+00;  4.0000000E+04;  8.4925674E-02;  0.0000000E+00;  2.1262335E-02;  2.5634526E+03;
  1.5000001E-01;  9.9999998E-03; -3.7000000E-01;2278;  0.0000000E+00;  0.0000000E+00;  0.0000000E+00;  1.0000000E+03;  1.0000000E-01;  0.0000000E+00;0;  0.0000000E+00;  0.0000000E+00;  0.0000000E+00;0;  1.4747305E-01;  4.0000000E+04;  0.0000000E+00;  0.0000000E+00;  4.0000000E+04;  0.0000000E+00;  4.0000000E+04;  1.2362306E-01;  0.0000000E+00;  2.3849992E-02;  5.0808604E+03;
  1.5000001E-01;  9.9999998E-03; -3.6000001E-01;2279;  0.0000000E+00;  0.0000000E+00;  0.0000000E+00;  1.0000000E+03;  1.0000000E-01;  0.0000000E+00;0;  0.0000000E+00;  0.0000000E+00;  0.0000000E+00;0;  1.9582413E-01;  4.0000000E+04;  0.0000000E+00;  0.0000000E+00;  4.0000000E+04;  0.0000000E+00;  4.0000000E+04;  1.7073837E-01;  0.0000000E+00;  2.5085757E-02;  1.0294694E+04;
  1.5000001E-01;  9.9999998E-03; -3.4999999E-01;2280;  0.0000000E+00;  0.0000000E+00;  0.0000000E+00;  1.0000000E+03;  1.0000000E-01;  0.0000000E+00;0;  0.0000000E+00;  0.0000000E+00;  0.0000000E+00;0;  2.4922548E-01;  4.0000000E+04;  0.0000000E+00;  0.0000000E+00;  4.0000000E+04;  0.0000000E+00;  4.0000000E+04;  2.2477007E-01;  0.0000000E+00;  2.4455408E-02;  1.7846760E+04;
  1.5000001E-01;  9.9999998E-03; -3.4000000E-01;2281;  0.0000000E+00;  0.0000000E+00;  0.0000000E+00;  1.0000000E+03;  1.0000000E-01;  0.0000000E+00;0;  0.0000000E+00;  0.0000000E+00;  0.0000000E+00;0;  3.0421788E-01;  4.0000000E+04;  0.0000000E+00;  0.0000000E+00;  4.0000000E+04;  0.0000000E+00;  4.0000000E+04;  2.8290659E-01;  0.0000000E+00;  2.1311289E-02;  2.7317996E+04;
  1.5000001E-01;  9.9999998E-03; -3.3000001E-01;2282;  0.0000000E+00;  0.0000000E+00;  0.0000000E+00;  1.0000000E+03;  1.0000000E-01;  0.0000000E+00;0;  0.0000000E+00;  0.0000000E+00;  0.0000000E+00;0;  3.5599396E-01;  4.0000000E+04;  0.0000000E+00;  0.0000000E+00;  4.0000000E+04;  0.0000000E+00;  4.0000000E+04;  3.4114480E-01;  0.0000000E+00;  1.4849164E-02;  3.7897445E+04;
  1.5000001E-01;  9.9999998E-03; -3.1999999E-01;2283;  0.0000000E+00;  0.0000000E+00;  0.0000000E+00;  1.0000000E+03;  1.0000000E-01;  0.0000000E+00;0;  0.0000000E+00;  0.0000000E+00;  0.0000000E+00;0;  3.9879018E-01;  4.0000000E+04;  0.0000000E+00;  0.0000000E+00;  4.0000000E+04;  0.0000000E+00;  4.0000000E+04;  3.9464670E-01;  0.0000000E+00;  4.1434802E-03;  4.8290574E+04;
  1.5000001E-01;  9.9999998E-03; -3.1000000E-01;2284;  0.0000000E+00;  0.0000000E+00;  0.0000000E+00;  1.0000000E+03;  1.0000000E-01;  0.0000000E+00;0;  0.0000000E+00;  0.0000000E+00;  0.0000000E+00;0;  4.2657325E-01;  4.0000000E+04;  0.0000000E+00;  0.0000000E+00;  4.0000000E+04;  0.0000000E+00;  4.0000000E+04;  4.3827114E-01;  0.0000000E+00; -1.1697885E-02;  5.6844898E+04;
  1.6000000E-01;  9.9999998E-03; -4.4000000E-01;2301;  0.0000000E+00;  0.0000000E+00;  0.0000000E+00;  1.0000000E+03;  1.0000000E-01;  0.0000000E+00;0;  0.0000000E+00;  0.0000000E+00;  0.0000000E+00;0;  2.3443396E-03;  4.0000000E+04;  0.0000000E+00;  0.0000000E+00;  4.0000000E+04;  0.0000000E+00;  4.0000000E+04;  1.3336659E-03;  0.0000000E+00;  1.0106737E-03;  4.8708093E+02;
  1.6000000E-01;  9.9999998E-03; -4.3000001E-01;2302;  0.0000000E+00;  0.0000000E+00;  0.0000000E+00;  1.0000000E+03;  1.0000000E-01;  0.0000000E+00;0;  0.0000000E+00;  0.0000000E+00;  0.0000000E+00;0;  6.5899906E-03;  4.0000000E+04;  0.0000000E+00;  0.0000000E+00;  4.0000000E+04;  0.0000000E+00;  4.0000000E+04;  4.1961041E-03;  0.0000000E+00;  2.3938864E-03;  1.3951720E+03;
  1.6000000E-01;  9.9999998E-03; -4.1999999E-01;2303;  0.0000000E+00;  0.0000000E+00;  0.0000000E+00;  1.0000000E+03;  1.0000000E-01;  0.0000000E+00;0;  0.0000000E+00;  0.0000000E+00;  0.0000000E+00;0;  1.4428011E-02;  4.0000000E+04;  0.0000000E+00;  0.0000000E+00;  4.0000000E+04;  0.0000000E+00;  4.0000000E+04;  9.9980999E-03;  0.0000000E+00;  4.4299113E-03;  2.7397366E+03;
  1.6000000E-01;  9.9999998E-03; -4.1000000E-01;2304;  0.0000000E+00;  0.0000000E+00;  0.0000000E+00;  1.0000000E+03;  1.0000000E-01;  0.0000000E+00;0;  0.0000000E+00;  0.0000000E+00;  0.0000000E+00;0;  2.6944472E-02;  4.0000000E+04;  0.0000000E+00;  0.0000000E+00;  4.0000000E+04;  0.0000000E+00;  4.0000000E+04;  2.0079678E-02;  0.0000000E+00;  6.8647941E-03;  4.0603767E+03;
  1.6000000E-01;  9.9999998E-03; -4.0000001E-01;2305;  0.0000000E+00;  0.0000000E+00;  0.0000000E+00;  1.0000000E+03;  1.0000000E-01;  0.0000000E+00;0;  0.0000000E+00;  0.0000000E+00;  0.0000000E+00;0;  4.5188107E-02;  4.0000000E+04;  0.0000000E+00;  0.0000000E+00;  4.0000000E+04;  0.0000000E+00;  4.0000000E+04;  3.5894718E-02;  0.0000000E+00;  9.2933886E-03;  4.6321255E+03;
  1.6000000E-01;  9.9999998E-03; -3.8999999E-01;2306;  0.0000000E+00;  0.0000000E+00;  0.0000000E+00;  1.0000000E+03;  1.0000000E-01;  0.0000000E+00;0;  0.0000000E+00;  0.0000000E+00;  0.0000000E+00;0;  7.0141390E-02;  4.0000000E+04;  0.0000000E+00;  0.0000000E+00;  4.0000000E+04;  0.0000000E+00;  4.0000000E+04;  5.8853425E-02;  0.0000000E+00;  1.1287966E-02;  3.7569824E+03;
  1.6000000E-01;  9.9999998E-03; -3.8000000E-01;2307;  0.0000000E+00;  0.0000000E+00;  0.0000000E+00;  1.0000000E+03;  1.0000000E-01;  0.0000000E+00;0;  0.0000000E+00;  0.0000000E+00;  0.0000000E+00;0;  1.0251012E-01;  4.0000000E+04;  0.0000000E+00;  0.0000000E+00;  4.0000000E+04;  0.0000000E+00;  4.0000000E+04;  9.0053655E-02;  0.0000000E+00;  1.2456466E-02;  2.5099529E+03;
  1.6000000E-01;  9.9999998E-03; -3.7000000E-01;2308;  0.0000000E+00;  0.0000000E+00;  0.0000000E+00;  1.0000000E+03;  1.0000000E-01;  0.0000000E+00;0;  0.0000000E+00;  0.0000000E+00;  0.0000000E+00;0;  1.4236437E-01;  4.0000000E+04;  0.0000000E+00;  0.0000000E+00;  4.0000000E+04;  0.0000000E+00;  4.0000000E+04;  1.2993555E-01;  0.0000000E+00;  1.2428824E-02;  7.7070186E+03;
  1.6000000E-01;  9.9999998E-03; -3.6000001E-01;2309;  0.0000000E+00;  0.0000000E+00;  0.0000000E+00;  1.0000000E+03;  1.0000000E-01;  0.0000000E+00;0;  0.0000000E+00;  0.0000000E+00;  0.0000000E+00;0;  1.8873188E-01;  4.0000000E+04;  0.0000000E+00;  0.0000000E+00;  4.0000000E+04;  0.0000000E+00;  4.0000000E+04;  1.7791866E-01;  0.0000000E+00;  1.0813227E-02;  1.7515686E+04;
  1.6000000E-01;  9.9999998E-03; -3.4999999E-01;2310;  0.0000000E+00;  0.0000000E+00;  0.0000000E+00;  1.0000000E+03;  1.0000000E-01;  0.0000000E+00;0;  0.0000000E+00;  0.0000000E+00;  0.0000000E+00;0;  2.3929305E-01;  4.0000000E+04;  0.0000000E+00;  0.0000000E+00;  4.0000000E+04;  0.0000000E+00;  4.0000000E+04;  2.3213889E-01;  0.0000000E+00;  7.1541686E-03;  3.0727307E+04;
  1.6000000E-01;  9.9999998E-03; -3.4000000E-01;2311;  0.0000000E+00;  0.0000000E+00;  0.0000000E+00;  1.0000000E+03;  1.0000000E-01;  0.0000000E+00;0;  0.0000000E+00;  0.0000000E+00;  0.0000000E+00;0;  2.9029724E-01;  4.0000000E+04;  0.0000000E+00;  0.0000000E+00;  4.0000000E+04;  0.0000000E+00;  4.0000000E+04;  2.8938779E-01;  0.0000000E+00;  9.0943807E-04;  4.6448312E+04;
  1.6000000E-01;  9.9999998E-03; -3.3000001E-01;2312;  0.0000000E+00;  0.0000000E+00;  0.0000000E+00;  1.0000000E+03;  1.0000000E-01;  0.0000000E+00;0;  0.0000000E+00;  0.0000000E+00;  0.0000000E+00;0;  3.3678553E-01;  4.0000000E+04;  0.0000000E+00;  0.0000000E+00;  4.0000000E+04;  0.0000000E+00;  4.0000000E+04;  3.4532481E-01;  0.0000000E+00; -8.5392883E-03;  6.3092488E+04;
  1.6000000E-01;  9.9999998E-03; -3.1999999E-01;2313;  0.0000000E+00;  0.0000000E+00;  0.0000000E+00;  1.0000000E+03;  1.0000000E-01;  0.0000000E+00;0;  0.0000000E+00;  0.0000000E+00;  0.0000000E+00;0;  3.7311983E-01;  4.0000000E+04;  0.0000000E+00;  0.0000000E+00;  4.0000000E+04;  0.0000000E+00;  4.0000000E+04;  3.9494163E-01;  0.0000000E+00; -2.1821810E-02;  7.8361000E+04;
  1.6000000E-01;  9.9999998E-03; -3.1000000E-01;2314;  0.0000000E+00;  0.0000000E+00;  0.0000000E+00;  1.0000000E+03;  1.0000000E-01;  0.0000000E+00;0;  0.0000000E+00;  0.0000000E+00;  0.0000000E+00;0;  3.9377165E-01;  4.0000000E+04;  0.0000000E+00;  0.0000000E+00;  4.0000000E+04;  0.0000000E+00;  4.0000000E+04;  4.3319288E-01;  0.0000000E+00; -3.9421238E-02;  8.9581258E+04;
  1.7000000E-01;  9.9999998E-03; -4.4000000E-01;2331;  0.0000000E+00;  0.0000000E+00;  0.0000000E+00;  1.0000000E+03;  1.0000000E-01;  0.0000000E+00;0;  0.0000000E+00;  0.0000000E+00;  0.0000000E+00;0;  2.1608996E-03;  4.0000000E+04;  0.0000000E+00;  0.0000000E+00;  4.0000000E+04;  0.0000000E+00;  4.0000000E+04;  1.5351728E-03;  0.0000000E+00;  6.2572683E-04;  1.3167305E+03;
  1.7000000E-01;  9.9999998E-03; -4.3000001E-01;2332;  0.0000000E+00;  0.0000000E+00;  0.0000000E+00;  1.0000000E+03;  1.0000000E-01;  0.0000000E+00;0;  0.0000000E+00;  0.0000000E+00;  0.0000000E+00;0;  6.0417303E-03;  4.0000000E+04;  0.0000000E+00;  0.0000000E+00;  4.0000000E+04;  0.0000000E+00;  4.0000000E+04;  4.6448223E-03;  0.0000000E+00;  1.3969078E-03;  3.2703623E+03;
  1.7000000E-01;  9.9999998E-03; -4.1999999E-01;2333;  0.0000000E+00;  0.0000000E+00;  0.0000000E+00;  1.0000000E+03;  1.0000000E-01;  0.0000000E+00;0;  0.0000000E+00;  0.0000000E+00;  0.0000000E+00;0;  1.3173536E-02;  4.0000000E+04;  0.0000000E+00;  0.0000000E+00;  4.0000000E+04;  0.0000000E+00;  4.0000000E+04;  1.0763962E-02;  0.0000000E+00;  2.4095746E-03;  5.8448779E+03;
  1.7000000E-01;  9.9999998E-03; -4.1000000E-01;2334;  0.0000000E+00;  0.0000000E+00;  0.0000000E+00;  1.0000000E+03;  1.0000000E-01;  0.0000000E+00;0;  0.0000000E+00;  0.0000000E+00;  0.0000000E+00;0;  2.4578912E-02;  4.0000000E+04;  0.0000000E+00;  0.0000000E+00;  4.0000000E+04;  0.0000000E+00;  4.0000000E+04;  2.1191459E-02;  0.0000000E+00;  3.3874526E-03;  8.0805073E+03;
  1.7000000E-01;  9.9999998E-03; -4.0000001E-01;2335;  0.0000000E+00;  0.0000000E+00;  0.0000000E+00;  1.0000000E+03;  1.0000000E-01;  0.0000000E+00;0;  0.0000000E+00;  0.0000000E+00;  0.0000000E+00;0;  4.1310195E-02;  4.0000000E+04;  0.0000000E+00;  0.0000000E+00;  4.0000000E+04;  0.0000000E+00;  4.0000000E+04;  3.7350297E-02;  0.0000000E+00;  3.9598993E-03;  8.6854043E+03;
  1.7000000E-01;  9.9999998E-03; -3.8999999E-01;2336;  0.0000000E+00;  0.0000000E+00;  0.0000000E+00;  1.0000000E+03;  1.0000000E-01;  0.0000000E+00;0;  0.0000000E+00;  0.0000000E+00;  0.0000000E+00;0;  6.4375274E-02;  4.0000000E+04;  0.0000000E+00;  0.0000000E+00;  4.0000000E+04;  0.0000000E+00;  4.0000000E+04;  6.0621515E-02;  0.0000000E+00;  3.7537618E-03;  6.4268535E+03;
  1.7000000E-01;  9.9999998E-03; -3.8000000E-01;2337;  0.0000000E+00;  0.0000000E+00;  0.0000000E+00;  1.0000000E+03;  1.0000000E-01;  0.0000000E+00;0;  0.0000000E+00;  0.0000000E+00;  0.0000000E+00;0;  9.4469287E-02;  4.0000000E+04;  0.0000000E+00;  0.0000000E+00;  4.0000000E+04;  0.0000000E+00;  4.0000000E+04;  9.2047170E-02;  0.0000000E+00;  2.4221186E-03;  2.4670310E+03;
  1.7000000E-01;  9.9999998E-03; -3.7000000E-01;2338;  0.0000000E+00;  0.0000000E+00;  0.0000000E+00;  1.0000000E+03;  1.0000000E-01;  0.0000000E+00;0;  0.0000000E+00;  0.0000000E+00;  0.0000000E+00;0;  1.3158169E-01;  4.0000000E+04;  0.0000000E+00;  0.0000000E+00;  4.0000000E+04;  0.0000000E+00;  4.0000000E+04;  1.3195701E-01;  0.0000000E+00; -3.7531951E-04;  1.2154471E+04;
  1.7000000E-01;  9.9999998E-03; -3.6000001E-01;2339;  0.0000000E+00;  0.0000000E+00;  0.0000000E+00;  1.0000000E+03;  1.0000000E-01;  0.0000000E+00;0;  0.0000000E+00;  0.0000000E+00;  0.0000000E+00;0;  1.7458668E-01;  4.0000000E+04;  0.0000000E+00;  0.0000000E+00;  4.0000000E+04;  0.0000000E+00;  4.0000000E+04;  1.7958961E-01;  0.0000000E+00; -5.0029298E-03;  2.8503457E+04;
  1.7000000E-01;  9.9999998E-03; -3.4999999E-01;2340;  0.0000000E+00;  0.0000000E+00;  0.0000000E+00;  1.0000000E+03;  1.0000000E-01;  0.0000000E+00;0;  0.0000000E+00;  0.0000000E+00;  0.0000000E+00;0;  2.2098044E-01;  4.0000000E+04;  0.0000000E+00;  0.0000000E+00;  4.0000000E+04;  0.0000000E+00;  4.0000000E+04;  2.3284650E-01;  0.0000000E+00; -1.1866070E-02;  4.9540961E+04;
  1.7000000E-01;  9.9999998E-03; -3.4000000E-01;2341;  0.0000000E+00;  0.0000000E+00;  0.0000000E+00;  1.0000000E+03;  1.0000000E-01;  0.0000000E+00;0;  0.0000000E+00;  0.0000000E+00;  0.0000000E+00;0;  2.6687580E-01;  4.0000000E+04;  0.0000000E+00;  0.0000000E+00;  4.0000000E+04;  0.0000000E+00;  4.0000000E+04;  2.8827336E-01;  0.0000000E+00; -2.1397557E-02;  7.3651477E+04;
  1.7000000E-01;  9.9999998E-03; -3.3000001E-01;2342;  0.0000000E+00;  0.0000000E+00;  0.0000000E+00;  1.0000000E+03;  1.0000000E-01;  0.0000000E+00;0;  0.0000000E+00;  0.0000000E+00;  0.0000000E+00;0;  3.0734849E-01;  4.0000000E+04;  0.0000000E+00;  0.0000000E+00;  4.0000000E+04;  0.0000000E+00;  4.0000000E+04;  3.4134844E-01;  0.0000000E+00; -3.3999950E-02;  9.8116539E+04;
  1.7000000E-01;  9.9999998E-03; -3.1999999E-01;2343;  0.0000000E+00;  0.0000000E+00;  0.0000000E+00;  1.0000000E+03;  1.0000000E-01;  0.0000000E+00;0;  0.0000000E+00;  0.0000000E+00;  0.0000000E+00;0;  3.3709335E-01;  4.0000000E+04;  0.0000000E+00;  0.0000000E+00;  4.0000000E+04;  0.0000000E+00;  4.0000000E+04;  3.8702407E-01;  0.0000000E+00; -4.9930707E-02;  1.1923756E+05;
  1.7000000E-01;  9.9999998E-03; -3.1000000E-01;2344;  0.0000000E+00;  0.0000000E+00;  0.0000000E+00;  1.0000000E+03;  1.0000000E-01;  0.0000000E+00;0;  0.0000000E+00;  0.0000000E+00;  0.0000000E+00;0;  3.5129929E-01;  4.0000000E+04;  0.0000000E+00;  0.0000000E+00;  4.0000000E+04;  0.0000000E+00;  4.0000000E+04;  4.2042172E-01;  0.0000000E+00; -6.9122449E-02;  1.3298336E+05;
  1.8000001E-01;  9.9999998E-03; -4.4000000E-01;2361;  0.0000000E+00;  0.0000000E+00;  0.0000000E+00;  1.0000000E+03;  1.0000000E-01;  0.0000000E+00;0;  0.0000000E+00;  0.0000000E+00;  0.0000000E+00;0;  1.7216855E-03;  4.0000000E+04;  0.0000000E+00;  0.0000000E+00;  4.0000000E+04;  0.0000000E+00;  4.0000000E+04;  1.6637594E-03;  0.0000000E+00;  5.7926194E-05;  2.7810605E+03;
  1.8000001E-01;  9.9999998E-03; -4.3000001E-01;2362;  0.0000000E+00;  0.0000000E+00;  0.0000000E+00;  1.0000000E+03;  1.0000000E-01;  0.0000000E+00;0;  0.0000000E+00;  0.0000000E+00;  0.0000000E+00;0;  4.8934310E-03;  4.0000000E+04;  0.0000000E+00;  0.0000000E+00;  4.0000000E+04;  0.0000000E+00;  4.0000000E+04;  4.8490749E-03;  0.0000000E+00;  4.4356268E-05;  6.3884683E+03;
  1.8000001E-01;  9.9999998E-03; -4.1999999E-01;2363;  0.0000000E+00;  0.0000000E+00;  0.0000000E+00;  1.0000000E+03;  1.0000000E-01;  0.0000000E+00;0;  0.0000000E+00;  0.0000000E+00;  0.0000000E+00;0;  1.0780849E-02;  4.0000000E+04;  0.0000000E+00;  0.0000000E+00;  4.0000000E+04;  0.0000000E+00;  4.0000000E+04;  1.0945596E-02;  0.0000000E+00; -1.6474685E-04;  1.0755000E+04;
  1.8000001E-01;  9.9999998E-03; -4.1000000E-01;2364;  0.0000000E+00;  0.0000000E+00;  0.0000000E+00;  1.0000000E+03;  1.0000000E-01;  0.0000000E+00;0;  0.0000000E+00;  0.0000000E+00;  0.0000000E+00;0;  2.0331368E-02;  4.0000000E+04;  0.0000000E+00;  0.0000000E+00;  4.0000000E+04;  0.0000000E+00;  4.0000000E+04;  2.1162950E-02;  0.0000000E+00; -8.3158130E-04;  1.4185597E+04;
  1.8000001E-01;  9.9999998E-03; -4.0000001E-01;2365;  0.0000000E+00;  0.0000000E+00;  0.0000000E+00;  1.0000000E+03;  1.0000000E-01;  0.0000000E+00;0;  0.0000000E+00;  0.0000000E+00;  0.0000000E+00;0;  3.4593150E-02;  4.0000000E+04;  0.0000000E+00;  0.0000000E+00;  4.0000000E+04;  0.0000000E+00;  4.0000000E+04;  3.6861710E-02;  0.0000000E+00; -2.2685586E-03;  1.4679244E+04;
  1.8000001E-01;  9.9999998E-03; -3.8999999E-01;2366;  0.0000000E+00;  0.0000000E+00;  0.0000000E+00;  1.0000000E+03;  1.0000000E-01;  0.0000000E+00;0;  0.0000000E+00;  0.0000000E+00;  0.0000000E+00;0;  5.4591626E-02;  4.0000000E+04;  0.0000000E+00;  0.0000000E+00;  4.0000000E+04;  0.0000000E+00;  4.0000000E+04;  5.9381530E-02;  0.0000000E+00; -4.7899019E-03;  1.0446853E+04;
  1.8000001E-01;  9.9999998E-03; -3.8000000E-01;2367;  0.0000000E+00;  0.0000000E+00;  0.0000000E+00;  1.0000000E+03;  1.0000000E-01;  0.0000000E+00;0;  0.0000000E+00;  0.0000000E+00;  0.0000000E+00;0;  8.1020340E-02;  4.0000000E+04;  0.0000000E+00;  0.0000000E+00;  4.0000000E+04;  0.0000000E+00;  4.0000000E+04;  8.9726977E-02;  0.0000000E+00; -8.7066386E-03;  2.4282583E+03;
  1.8000001E-01;  9.9999998E-03; -3.7000000E-01;2368;  0.0000000E+00;  0.0000000E+00;  0.0000000E+00;  1.0000000E+03;  1.0000000E-01;  0.0000000E+00;0;  0.0000000E+00;  0.0000000E+00;  0.0000000E+00;0;  1.1383694E-01;  4.0000000E+04;  0.0000000E+00;  0.0000000E+00;  4.0000000E+04;  0.0000000E+00;  4.0000000E+04;  1.2818144E-01;  0.0000000E+00; -1.4344498E-02;  1.8161818E+04;
  1.8000001E-01;  9.9999998E-03; -3.6000001E-01;2369;  0.0000000E+00;  0.0000000E+00;  0.0000000E+00;  1.0000000E+03;  1.0000000E-01;  0.0000000E+00;0;  0.0000000E+00;  0.0000000E+00;  0.0000000E+00;0;  1.5186881E-01;  4.0000000E+04;  0.0000000E+00;  0.0000000E+00;  4.0000000E+04;  0.0000000E+00;  4.0000000E+04;  1.7392530E-01;  0.0000000E+00; -2.2056490E-02;  4.2824305E+04;
  1.8000001E-01;  9.9999998E-03; -3.4999999E-01;2370;  0.0000000E+00;  0.0000000E+00;  0.0000000E+00;  1.0000000E+03;  1.0000000E-01;  0.0000000E+00;0;  0.0000000E+00;  0.0000000E+00;  0.0000000E+00;0;  1.9259052E-01;  4.0000000E+04;  0.0000000E+00;  0.0000000E+00;  4.0000000E+04;  0.0000000E+00;  4.0000000E+04;  2.2480083E-01;  0.0000000E+00; -3.2210309E-02;  7.3604633E+04;
  1.8000001E-01;  9.9999998E-03; -3.4000000E-01;2371;  0.0000000E+00;  0.0000000E+00;  0.0000000E+00;  1.0000000E+03;  1.0000000E-01;  0.0000000E+00;0;  0.0000000E+00;  0.0000000E+00;  0.0000000E+00;0;  2.3218653E-01;  4.0000000E+04;  0.0000000E+00;  0.0000000E+00;  4.0000000E+04;  0.0000000E+00;  4.0000000E+04;  2.7731848E-01;  0.0000000E+00; -4.5131955E-02;  1.0791920E+05;
  1.8000001E-01;  9.9999998E-03; -3.3000001E-01;2372;  0.0000000E+00;  0.0000000E+00;  0.0000000E+00;  1.0000000E+03;  1.0000000E-01;  0.0000000E+00;0;  0.0000000E+00;  0.0000000E+00;  0.0000000E+00;0;  2.6599219E-01;  4.0000000E+04;  0.0000000E+00;  0.0000000E+00;  4.0000000E+04;  0.0000000E+00;  4.0000000E+04;  3.2697979E-01;  0.0000000E+00; -6.0987592E-02;  1.4161638E+05;
  1.8000001E-01;  9.9999998E-03; -3.1999999E-01;2373;  0.0000000E+00;  0.0000000E+00;  0.0000000E+00;  1.0000000E+03;  1.0000000E-01;  0.0000000E+00;0;  0.0000000E+00;  0.0000000E+00;  0.0000000E+00;0;  2.8926051E-01;  4.0000000E+04;  0.0000000E+00;  0.0000000E+00;  4.0000000E+04;  0.0000000E+00;  4.0000000E+04;  3.6885619E-01;  0.0000000E+00; -7.9595700E-02;  1.6925289E+05;
  1.8000001E-01;  9.9999998E-03; -3.1000000E-01;2374;  0.0000000E+00;  0.0000000E+00;  0.0000000E+00;  1.0000000E+03;  1.0000000E-01;  0.0000000E+00;0;  0.0000000E+00;  0.0000000E+00;  0.0000000E+00;0;  2.9810959E-01;  4.0000000E+04;  0.0000000E+00;  0.0000000E+00;  4.0000000E+04;  0.0000000E+00;  4.0000000E+04;  3.9830697E-01;  0.0000000E+00; -1.0019738E-01;  1.8512598E+05;
  1.9000000E-01;  9.9999998E-03; -4.4000000E-01;2391;  0.0000000E+00;  0.0000000E+00;  0.0000000E+00;  1.0000000E+03;  1.0000000E-01;  0.0000000E+00;0;  0.0000000E+00;  0.0000000E+00;  0.0000000E+00;0;  9.2533272E-04;  4.0000000E+04;  0.0000000E+00;  0.0000000E+00;  4.0000000E+04;  0.0000000E+00;  4.0000000E+04;  1.6628118E-03;  0.0000000E+00; -7.3747913E-04;  5.0727432E+03;
  1.9000000E-01;  9.9999998E-03; -4.3000001E-01;2392;  0.0000000E+00;  0.0000000E+00;  0.0000000E+00;  1.0000000E+03;  1.0000000E-01;  0.0000000E+00;0;  0.0000000E+00;  0.0000000E+00;  0.0000000E+00;0;  2.9685735E-03;  4.0000000E+04;  0.0000000E+00;  0.0000000E+00;  4.0000000E+04;  0.0000000E+00;  4.0000000E+04;  4.6984507E-03;  0.0000000E+00; -1.7298773E-03;  1.1006484E+04;
  1.9000000E-01;  9.9999998E-03; -4.1999999E-01;2393;  0.0000000E+00;  0.0000000E+00;  0.0000000E+00;  1.0000000E+03;  1.0000000E-01;  0.0000000E+00;0;  0.0000000E+00;  0.0000000E+00;  0.0000000E+00;0;  7.0232227E-03;  4.0000000E+04;  0.0000000E+00;  0.0000000E+00;  4.0000000E+04;  0.0000000E+00;  4.0000000E+04;  1.0378387E-02;  0.0000000E+00; -3.3551643E-03;  1.7673225E+04;
  1.9000000E-01;  9.9999998E-03; -4.1000000E-01;2394;  0.0000000E+00;  0.0000000E+00;  0.0000000E+00;  1.0000000E+03;  1.0000000E-01;  0.0000000E+00;0;  0.0000000E+00;  0.0000000E+00;  0.0000000E+00;0;  1.3974469E-02;  4.0000000E+04;  0.0000000E+00;  0.0000000E+00;  4.0000000E+04;  0.0000000E+00;  4.0000000E+04;  1.9790858E-02;  0.0000000E+00; -5.8163889E-03;  2.2432139E+04;
  1.9000000E-01;  9.9999998E-03; -4.0000001E-01;2395;  0.0000000E+00;  0.0000000E+00;  0.0000000E+00;  1.0000000E+03;  1.0000000E-01;  0.0000000E+00;0;  0.0000000E+00;  0.0000000E+00;  0.0000000E+00;0;  2.4858279E-02;  4.0000000E+04;  0.0000000E+00;  0.0000000E+00;  4.0000000E+04;  0.0000000E+00;  4.0000000E+04;  3.4206193E-02;  0.0000000E+00; -9.3479138E-03;  2.2524795E+04;
  1.9000000E-01;  9.9999998E-03; -3.8999999E-01;2396;  0.0000000E+00;  0.0000000E+00;  0.0000000E+00;  1.0000000E+03;  1.0000000E-01;  0.0000000E+00;0;  0.0000000E+00;  0.0000000E+00;  0.0000000E+00;0;  4.0695056E-02;  4.0000000E+04;  0.0000000E+00;  0.0000000E+00;  4.0000000E+04;  0.0000000E+00;  4.0000000E+04;  5.4902438E-02;  0.0000000E+00; -1.4207381E-02;  1.5683041E+04;
  1.9000000E-01;  9.9999998E-03; -3.8000000E-01;2397;  0.0000000E+00;  0.0000000E+00;  0.0000000E+00;  1.0000000E+03;  1.0000000E-01;  0.0000000E+00;0;  0.0000000E+00;  0.0000000E+00;  0.0000000E+00;0;  6.2168714E-02;  4.0000000E+04;  0.0000000E+00;  0.0000000E+00;  4.0000000E+04;  0.0000000E+00;  4.0000000E+04;  8.2851499E-02;  0.0000000E+00; -2.0682786E-02;  2.4141990E+03;
  1.9000000E-01;  9.9999998E-03; -3.7000000E-01;2398;  0.0000000E+00;  0.0000000E+00;  0.0000000E+00;  1.0000000E+03;  1.0000000E-01;  0.0000000E+00;0;  0.0000000E+00;  0.0000000E+00;  0.0000000E+00;0;  8.9241967E-02;  4.0000000E+04;  0.0000000E+00;  0.0000000E+00;  4.0000000E+04;  0.0000000E+00;  4.0000000E+04;  1.1834227E-01;  0.0000000E+00; -2.9100308E-02;  2.5081699E+04;
  1.9000000E-01;  9.9999998E-03; -3.6000001E-01;2399;  0.0000000E+00;  0.0000000E+00;  0.0000000E+00;  1.0000000E+03;  1.0000000E-01;  0.0000000E+00;0;  0.0000000E+00;  0.0000000E+00;  0.0000000E+00;0;  1.2079671E-01;  4.0000000E+04;  0.0000000E+00;  0.0000000E+00;  4.0000000E+04;  0.0000000E+00;  4.0000000E+04;  1.6061249E-01;  0.0000000E+00; -3.9815787E-02;  5.9139953E+04;
  1.9000000E-01;  9.9999998E-03; -3.4999999E-01;2400;  0.0000000E+00;  0.0000000E+00;  0.0000000E+00;  1.0000000E+03;  1.0000000E-01;  0.0000000E+00;0;  0.0000000E+00;  0.0000000E+00;  0.0000000E+00;0;  1.5445216E-01;  4.0000000E+04;  0.0000000E+00;  0.0000000E+00;  4.0000000E+04;  0.0000000E+00;  4.0000000E+04;  2.0762376E-01;  0.0000000E+00; -5.3171605E-02;  1.0068830E+05;
  1.9000000E-01;  9.9999998E-03; -3.4000000E-01;2401;  0.0000000E+00;  0.0000000E+00;  0.0000000E+00;  1.0000000E+03;  1.0000000E-01;  0.0000000E+00;0;  0.0000000E+00;  0.0000000E+00;  0.0000000E+00;0;  1.8667577E-01;  4.0000000E+04;  0.0000000E+00;  0.0000000E+00;  4.0000000E+04;  0.0000000E+00;  4.0000000E+04;  2.5607136E-01;  0.0000000E+00; -6.9395587E-02;  1.4605711E+05;
  1.9000000E-01;  9.9999998E-03; -3.3000001E-01;2402;  0.0000000E+00;  0.0000000E+00;  0.0000000E+00;  1.0000000E+03;  1.0000000E-01;  0.0000000E+00;0;  0.0000000E+00;  0.0000000E+00;  0.0000000E+00;0;  2.1328834E-01;  4.0000000E+04;  0.0000000E+00;  0.0000000E+00;  4.0000000E+04;  0.0000000E+00;  4.0000000E+04;  3.0170548E-01;  0.0000000E+00; -8.8417150E-02;  1.8954034E+05;
  1.9000000E-01;  9.9999998E-03; -3.1999999E-01;2403;  0.0000000E+00;  0.0000000E+00;  0.0000000E+00;  1.0000000E+03;  1.0000000E-01;  0.0000000E+00;0;  0.0000000E+00;  0.0000000E+00;  0.0000000E+00;0;  2.3031527E-01;  4.0000000E+04;  0.0000000E+00;  0.0000000E+00;  4.0000000E+04;  0.0000000E+00;  4.0000000E+04;  3.3990341E-01;  0.0000000E+00; -1.0958815E-01;  2.2379739E+05;
  1.9000000E-01;  9.9999998E-03; -3.1000000E-01;2404;  0.0000000E+00;  0.0000000E+00;  0.0000000E+00;  1.0000000E+03;  1.0000000E-01;  0.0000000E+00;0;  0.0000000E+00;  0.0000000E+00;  0.0000000E+00;0;  2.3500811E-01;  4.0000000E+04;  0.0000000E+00;  0.0000000E+00;  4.0000000E+04;  0.0000000E+00;  4.0000000E+04;  3.6637646E-01;  0.0000000E+00; -1.3136835E-01;  2.4126503E+05;
  2.0000000E-01;  9.9999998E-03; -4.4000000E-01;2420;  0.0000000E+00;  0.0000000E+00;  0.0000000E+00;  1.0000000E+03;  1.0000000E-01;  0.0000000E+00;0;  0.0000000E+00;  0.0000000E+00;  0.0000000E+00;0; -2.9673928E-04;  4.0000000E+04;  0.0000000E+00;  0.0000000E+00;  4.0000000E+04;  0.0000000E+00;  4.0000000E+04;  1.5014987E-03;  0.0000000E+00; -1.7982380E-03;  8.3182080E+03;
  2.0000000E-01;  9.9999998E-03; -4.3000001E-01;2421;  0.0000000E+00;  0.0000000E+00;  0.0000000E+00;  1.0000000E+03;  1.0000000E-01;  0.0000000E+00;0;  0.0000000E+00;  0.0000000E+00;  0.0000000E+00;0;  1.9578217E-04;  4.0000000E+04;  0.0000000E+00;  0.0000000E+00;  4.0000000E+04;  0.0000000E+00;  4.0000000E+04;  4.1693733E-03;  0.0000000E+00; -3.9735911E-03;  1.7212961E+04;
  2.0000000E-01;  9.9999998E-03; -4.1999999E-01;2422;  0.0000000E+00;  0.0000000E+00;  0.0000000E+00;  1.0000000E+03;  1.0000000E-01;  0.0000000E+00;0;  0.0000000E+00;  0.0000000E+00;  0.0000000E+00;0;  1.9146563E-03;  4.0000000E+04;  0.0000000E+00;  0.0000000E+00;  4.0000000E+04;  0.0000000E+00;  4.0000000E+04;  9.1013191E-03;  0.0000000E+00; -7.1866629E-03;  2.6521145E+04;
  2.0000000E-01;  9.9999998E-03; -4.1000000E-01;2423;  0.0000000E+00;  0.0000000E+00;  0.0000000E+00;  1.0000000E+03;  1.0000000E-01;  0.0000000E+00;0;  0.0000000E+00;  0.0000000E+00;  0.0000000E+00;0;  5.7217348E-03;  4.0000000E+04;  0.0000000E+00;  0.0000000E+00;  4.0000000E+04;  0.0000000E+00;  4.0000000E+04;  1.7253870E-02;  0.0000000E+00; -1.1532135E-02;  3.2528930E+04;
  2.0000000E-01;  9.9999998E-03; -4.0000001E-01;2424;  0.0000000E+00;  0.0000000E+00;  0.0000000E+00;  1.0000000E+03;  1.0000000E-01;  0.0000000E+00;0;  0.0000000E+00;  0.0000000E+00;  0.0000000E+00;0;  1.2633806E-02;  4.0000000E+04;  0.0000000E+00;  0.0000000E+00;  4.0000000E+04;  0.0000000E+00;  4.0000000E+04;  2.9784741E-02;  0.0000000E+00; -1.7150935E-02;  3.1803822E+04;
  2.0000000E-01;  9.9999998E-03; -3.8999999E-01;2425;  0.0000000E+00;  0.0000000E+00;  0.0000000E+00;  1.0000000E+03;  1.0000000E-01;  0.0000000E+00;0;  0.0000000E+00;  0.0000000E+00;  0.0000000E+00;0;  2.3633055E-02;  4.0000000E+04;  0.0000000E+00;  0.0000000E+00;  4.0000000E+04;  0.0000000E+00;  4.0000000E+04;  4.7882784E-02;  0.0000000E+00; -2.4249729E-02;  2.1791840E+04;
  2.0000000E-01;  9.9999998E-03; -3.8000000E-01;2426;  0.0000000E+00;  0.0000000E+00;  0.0000000E+00;  1.0000000E+03;  1.0000000E-01;  0.0000000E+00;0;  0.0000000E+00;  0.0000000E+00;  0.0000000E+00;0;  3.9367557E-02;  4.0000000E+04;  0.0000000E+00;  0.0000000E+00;  4.0000000E+04;  0.0000000E+00;  4.0000000E+04;  7.2472595E-02;  0.0000000E+00; -3.3105038E-02;  2.5451448E+03;
  2.0000000E-01;  9.9999998E-03; -3.7000000E-01;2427;  0.0000000E+00;  0.0000000E+00;  0.0000000E+00;  1.0000000E+03;  1.0000000E-01;  0.0000000E+00;0;  0.0000000E+00;  0.0000000E+00;  0.0000000E+00;0;  5.9813578E-02;  4.0000000E+04;  0.0000000E+00;  0.0000000E+00;  4.0000000E+04;  0.0000000E+00;  4.0000000E+04;  1.0386731E-01;  0.0000000E+00; -4.4053730E-02;  3.2055168E+04;
  2.0000000E-01;  9.9999998E-03; -3.6000001E-01;2428;  0.0000000E+00;  0.0000000E+00;  0.0000000E+00;  1.0000000E+03;  1.0000000E-01;  0.0000000E+00;0;  0.0000000E+00;  0.0000000E+00;  0.0000000E+00;0;  8.3967641E-02;  4.0000000E+04;  0.0000000E+00;  0.0000000E+00;  4.0000000E+04;  0.0000000E+00;  4.0000000E+04;  1.4142981E-01;  0.0000000E+00; -5.7462167E-02;  7.5514469E+04;
  2.0000000E-01;  9.9999998E-03; -3.4999999E-01;2429;  0.0000000E+00;  0.0000000E+00;  0.0000000E+00;  1.0000000E+03;  1.0000000E-01;  0.0000000E+00;0;  0.0000000E+00;  0.0000000E+00;  0.0000000E+00;0;  1.0970843E-01;  4.0000000E+04;  0.0000000E+00;  0.0000000E+00;  4.0000000E+04;  0.0000000E+00;  4.0000000E+04;  1.8336403E-01;  0.0000000E+00; -7.3655605E-02;  1.2750021E+05;
  2.0000000E-01;  9.9999998E-03; -3.4000000E-01;2430;  0.0000000E+00;  0.0000000E+00;  0.0000000E+00;  1.0000000E+03;  1.0000000E-01;  0.0000000E+00;0;  0.0000000E+00;  0.0000000E+00;  0.0000000E+00;0;  1.3394317E-01;  4.0000000E+04;  0.0000000E+00;  0.0000000E+00;  4.0000000E+04;  0.0000000E+00;  4.0000000E+04;  2.2672096E-01;  0.0000000E+00; -9.2777789E-02;  1.8330208E+05;
  2.0000000E-01;  9.9999998E-03; -3.3000001E-01;2431;  0.0000000E+00;  0.0000000E+00;  0.0000000E+00;  1.0000000E+03;  1.0000000E-01;  0.0000000E+00;0;  0.0000000E+00;  0.0000000E+00;  0.0000000E+00;0;  1.5314668E-01;  4.0000000E+04;  0.0000000E+00;  0.0000000E+00;  4.0000000E+04;  0.0000000E+00;  4.0000000E+04;  2.6769266E-01;  0.0000000E+00; -1.1454597E-01;  2.3578534E+05;
  2.0000000E-01;  9.9999998E-03; -3.1999999E-01;2432;  0.0000000E+00;  0.0000000E+00;  0.0000000E+00;  1.0000000E+03;  1.0000000E-01;  0.0000000E+00;0;  0.0000000E+00;  0.0000000E+00;  0.0000000E+00;0;  1.6426788E-01;  4.0000000E+04;  0.0000000E+00;  0.0000000E+00;  4.0000000E+04;  0.0000000E+00;  4.0000000E+04;  3.0215019E-01;  0.0000000E+00; -1.3788231E-01;  2.7588103E+05;
  2.0000000E-01;  9.9999998E-03; -3.1000000E-01;2433;  0.0000000E+00;  0.0000000E+00;  0.0000000E+00;  1.0000000E+03;  1.0000000E-01;  0.0000000E+00;0;  0.0000000E+00;  0.0000000E+00;  0.0000000E+00;0;  1.6581014E-01;  4.0000000E+04;  0.0000000E+00;  0.0000000E+00;  4.0000000E+04;  0.0000000E+00;  4.0000000E+04;  3.2630780E-01;  0.0000000E+00; -1.6049767E-01;  2.9429778E+05;
 -1.9000000E-01;  9.9999998E-03; -2.7000001E-01;107;  0.0000000E+00;  0.0000000E+00;  0.0000000E+00;  1.0000000E+03;  1.0000000E-01;  0.0000000E+00;0;  0.0000000E+00;  0.0000000E+00;  0.0000000E+00;0;  0.0000000E+00;  4.0000000E+04;  0.0000000E+00;  0.0000000E+00;  4.0000000E+04;  0.0000000E+00;  4.0000000E+04;  0.0000000E+00;  0.0000000E+00;  0.0000000E+00;  0.0000000E+00;
 -1.9000000E-01;  9.9999998E-03; -2.5999999E-01;108;  0.0000000E+00;  0.0000000E+00;  0.0000000E+00;  1.0000000E+03;  1.0000000E-01;  0.0000000E+00;0;  0.0000000E+00;  0.0000000E+00;  0.0000000E+00;0;  0.0000000E+00;  4.0000000E+04;  0.0000000E+00;  0.0000000E+00;  4.0000000E+04;  0.0000000E+00;  4.0000000E+04;  0.0000000E+00;  0.0000000E+00;  0.0000000E+00;  0.0000000E+00;
 -1.9000000E-01;  9.9999998E-03; -2.5000000E-01;109;  0.0000000E+00;  0.0000000E+00;  0.0000000E+00;  1.0000000E+03;  1.0000000E-01;  0.0000000E+00;0;  0.0000000E+00;  0.0000000E+00;  0.0000000E+00;0;  0.0000000E+00;  4.0000000E+04;  0.0000000E+00;  0.0000000E+00;  4.0000000E+04;  0.0000000E+00;  4.0000000E+04;  0.0000000E+00;  0.0000000E+00;  0.0000000E+00;  0.0000000E+00;
 -1.9000000E-01;  9.9999998E-03; -2.3999999E-01;110;  0.0000000E+00;  0.0000000E+00;  0.0000000E+00;  1.0000000E+03;  1.0000000E-01;  0.0000000E+00;0;  0.0000000E+00;  0.0000000E+00;  0.0000000E+00;0;  0.0000000E+00;  4.0000000E+04;  0.0000000E+00;  0.0000000E+00;  4.0000000E+04;  0.0000000E+00;  4.0000000E+04;  0.0000000E+00;  0.0000000E+00;  0.0000000E+00;  0.0000000E+00;
 -1.9000000E-01;  9.9999998E-03; -2.3000000E-01;111;  0.0000000E+00;  0.0000000E+00;  0.0000000E+00;  1.0000000E+03;  1.0000000E-01;  0.0000000E+00;0;  0.0000000E+00;  0.0000000E+00;  0.0000000E+00;0;  0.0000000E+00;  4.0000000E+04;  0.0000000E+00;  0.0000000E+00;  4.0000000E+04;  0.0000000E+00;  4.0000000E+04;  0.0000000E+00;  0.0000000E+00;  0.0000000E+00;  0.0000000E+00;
 -1.9000000E-01;  9.9999998E-03; -2.2000000E-01;112;  0.0000000E+00;  0.0000000E+00;  0.0000000E+00;  1.0000000E+03;  1.0000000E-01;  0.0000000E+00;0;  0.0000000E+00;  0.0000000E+00;  0.0000000E+00;0;  0.0000000E+00;  4.0000000E+04;  0.0000000E+00;  0.0000000E+00;  4.0000000E+04;  0.0000000E+00;  4.0000000E+04;  0.0000000E+00;  0.0000000E+00;  0.0000000E+00;  0.0000000E+00;
 -1.9000000E-01;  9.9999998E-03; -2.0999999E-01;113;  0.0000000E+00;  0.0000000E+00;  0.0000000E+00;  1.0000000E+03;  1.0000000E-01;  0.0000000E+00;0;  0.0000000E+00;  0.0000000E+00;  0.0000000E+00;0;  0.0000000E+00;  4.0000000E+04;  0.0000000E+00;  0.0000000E+00;  4.0000000E+04;  0.0000000E+00;  4.0000000E+04;  0.0000000E+00;  0.0000000E+00;  0.0000000E+00;  0.0000000E+00;
 -1.9000000E-01;  9.9999998E-03; -2.0000000E-01;114;  0.0000000E+00;  0.0000000E+00;  0.0000000E+00;  1.0000000E+03;  1.0000000E-01;  0.0000000E+00;0;  0.0000000E+00;  0.0000000E+00;  0.0000000E+00;0;  0.0000000E+00;  4.0000000E+04;  0.0000000E+00;  0.0000000E+00;  4.0000000E+04;  0.0000000E+00;  4.0000000E+04;  0.0000000E+00;  0.0000000E+00;  0.0000000E+00;  0.0000000E+00;
 -1.9000000E-01;  9.9999998E-03; -1.9000000E-01;115;  0.0000000E+00;  0.0000000E+00;  0.0000000E+00;  1.0000000E+03;  1.0000000E-01;  0.0000000E+00;0;  0.0000000E+00;  0.0000000E+00;  0.0000000E+00;0;  0.0000000E+00;  4.0000000E+04;  0.0000000E+00;  0.0000000E+00;  4.0000000E+04;  0.0000000E+00;  4.0000000E+04;  0.0000000E+00;  0.0000000E+00;  0.0000000E+00;  0.0000000E+00;
 -1.9000000E-01;  9.9999998E-03; -1.8000001E-01;116;  0.0000000E+00;  0.0000000E+00;  0.0000000E+00;  1.0000000E+03;  1.0000000E-01;  0.0000000E+00;0;  0.0000000E+00;  0.0000000E+00;  0.0000000E+00;0;  0.0000000E+00;  4.0000000E+04;  0.0000000E+00;  0.0000000E+00;  4.0000000E+04;  0.0000000E+00;  4.0000000E+04;  0.0000000E+00;  0.0000000E+00;  0.0000000E+00;  0.0000000E+00;
 -1.9000000E-01;  9.9999998E-03; -1.7000000E-01;117;  0.0000000E+00;  0.0000000E+00;  0.0000000E+00;  1.0000000E+03;  1.0000000E-01;  0.0000000E+00;0;  0.0000000E+00;  0.0000000E+00;  0.0000000E+00;0;  0.0000000E+00;  4.0000000E+04;  0.0000000E+00;  0.0000000E+00;  4.0000000E+04;  0.0000000E+00;  4.0000000E+04;  0.0000000E+00;  0.0000000E+00;  0.0000000E+00;  0.0000000E+00;
 -1.9000000E-01;  9.9999998E-03; -1.6000000E-01;118;  0.0000000E+00;  0.0000000E+00;  0.0000000E+00;  1.0000000E+03;  1.0000000E-01;  0.0000000E+00;0;  0.0000000E+00;  0.0000000E+00;  0.0000000E+00;0;  0.0000000E+00;  4.0000000E+04;  0.0000000E+00;  0.0000000E+00;  4.0000000E+04;  0.0000000E+00;  4.0000000E+04;  0.0000000E+00;  0.0000000E+00;  0.0000000E+00;  0.0000000E+00;
 -1.9000000E-01;  9.9999998E-03; -1.5000001E-01;119;  0.0000000E+00;  0.0000000E+00;  0.0000000E+00;  1.0000000E+03;  1.0000000E-01;  0.0000000E+00;0;  0.0000000E+00;  0.0000000E+00;  0.0000000E+00;0;  0.0000000E+00;  4.0000000E+04;  0.0000000E+00;  0.0000000E+00;  4.0000000E+04;  0.0000000E+00;  4.0000000E+04;  0.0000000E+00;  0.0000000E+00;  0.0000000E+00;  0.0000000E+00;
 -1.9000000E-01;  9.9999998E-03; -1.4000000E-01;120;  0.0000000E+00;  0.0000000E+00;  0.0000000E+00;  1.0000000E+03;  1.0000000E-01;  0.0000000E+00;0;  0.0000000E+00;  0.0000000E+00;  0.0000000E+00;0;  0.0000000E+00;  4.0000000E+04;  0.0000000E+00;  0.0000000E+00;  4.0000000E+04;  0.0000000E+00;  4.0000000E+04;  0.0000000E+00;  0.0000000E+00;  0.0000000E+00;  0.0000000E+00;
 -1.9000000E-01;  9.9999998E-03; -1.3000000E-01;121;  0.0000000E+00;  0.0000000E+00;  0.0000000E+00;  1.0000000E+03;  1.0000000E-01;  0.0000000E+00;0;  0.0000000E+00;  0.0000000E+00;  0.0000000E+00;0;  0.0000000E+00;  4.0000000E+04;  0.0000000E+00;  0.0000000E+00;  4.0000000E+04;  0.0000000E+00;  4.0000000E+04;  0.0000000E+00;  0.0000000E+00;  0.0000000E+00;  0.0000000E+00;
 -1.9000000E-01;  9.9999998E-03; -1.2000000E-01;122;  0.0000000E+00;  0.0000000E+00;  0.0000000E+00;  1.0000000E+03;  1.0000000E-01;  0.0000000E+00;0;  0.0000000E+00;  0.0000000E+00;  0.0000000E+00;0;  0.0000000E+00;  4.0000000E+04;  0.0000000E+00;  0.0000000E+00;  4.0000000E+04;  0.0000000E+00;  4.0000000E+04;  0.0000000E+00;  0.0000000E+00;  0.0000000E+00;  0.0000000E+00;
 -1.9000000E-01;  9.9999998E-03; -1.1000000E-01;123;  0.0000000E+00;  0.0000000E+00;  0.0000000E+00;  1.0000000E+03;  1.0000000E-01;  0.0000000E+00;0;  0.0000000E+00;  0.0000000E+00;  0.0000000E+00;0;  0.0000000E+00;  4.0000000E+04;  0.0000000E+00;  0.0000000E+00;  4.0000000E+04;  0.0000000E+00;  4.0000000E+04;  0.0000000E+00;  0.0000000E+00;  0.0000000E+00;  0.0000000E+00;
 -1.8000001E-01;  9.9999998E-03; -2.7000001E-01;198;  0.0000000E+00;  0.0000000E+00;  0.0000000E+00;  1.0000000E+03;  1.0000000E-01;  0.0000000E+00;0;  0.0000000E+00;  0.0000000E+00;  0.0000000E+00;0;  0.0000000E+00;  4.0000000E+04;  0.0000000E+00;  0.0000000E+00;  4.0000000E+04;  0.0000000E+00;  4.0000000E+04;  0.0000000E+00;  0.0000000E+00;  0.0000000E+00;  0.0000000E+00;
 -1.8000001E-01;  9.9999998E-03; -2.5999999E-01;199;  0.0000000E+00;  0.0000000E+00;  0.0000000E+00;  1.0000000E+03;  1.0000000E-01;  0.0000000E+00;0;  0.0000000E+00;  0.0000000E+00;  0.0000000E+00;0;  0.0000000E+00;  4.0000000E+04;  0.0000000E+00;  0.0000000E+00;  4.0000000E+04;  0.0000000E+00;  4.0000000E+04;  0.0000000E+00;  0.0000000E+00;  0.0000000E+00;  0.0000000E+00;
 -1.8000001E-01;  9.9999998E-03; -2.5000000E-01;200;  0.0000000E+00;  0.0000000E+00;  0.0000000E+00;  1.0000000E+03;  1.0000000E-01;  0.0000000E+00;0;  0.0000000E+00;  0.0000000E+00;  0.0000000E+00;0;  0.0000000E+00;  4.0000000E+04;  0.0000000E+00;  0.0000000E+00;  4.0000000E+04;  0.0000000E+00;  4.0000000E+04;  0.0000000E+00;  0.0000000E+00;  0.0000000E+00;  0.0000000E+00;
 -1.8000001E-01;  9.9999998E-03; -2.3999999E-01;201;  0.0000000E+00;  0.0000000E+00;  0.0000000E+00;  1.0000000E+03;  1.0000000E-01;  0.0000000E+00;0;  0.0000000E+00;  0.0000000E+00;  0.0000000E+00;0;  0.0000000E+00;  4.0000000E+04;  0.0000000E+00;  0.0000000E+00;  4.0000000E+04;  0.0000000E+00;  4.0000000E+04;  0.0000000E+00;  0.0000000E+00;  0.0000000E+00;  0.0000000E+00;
 -1.8000001E-01;  9.9999998E-03; -2.3000000E-01;202;  0.0000000E+00;  0.0000000E+00;  0.0000000E+00;  1.0000000E+03;  1.0000000E-01;  0.0000000E+00;0;  0.0000000E+00;  0.0000000E+00;  0.0000000E+00;0;  0.0000000E+00;  4.0000000E+04;  0.0000000E+00;  0.0000000E+00;  4.0000000E+04;  0.0000000E+00;  4.0000000E+04;  0.0000000E+00;  0.0000000E+00;  0.0000000E+00;  0.0000000E+00;
 -1.8000001E-01;  9.9999998E-03; -2.2000000E-01;203;  0.0000000E+00;  0.0000000E+00;  0.0000000E+00;  1.0000000E+03;  1.0000000E-01;  0.0000000E+00;0;  0.0000000E+00;  0.0000000E+00;  0.0000000E+00;0;  0.0000000E+00;  4.0000000E+04;  0.0000000E+00;  0.0000000E+00;  4.0000000E+04;  0.0000000E+00;  4.0000000E+04;  0.0000000E+00;  0.0000000E+00;  0.0000000E+00;  0.0000000E+00;
 -1.8000001E-01;  9.9999998E-03; -2.0999999E-01;204;  0.0000000E+00;  0.0000000E+00;  0.0000000E+00;  1.0000000E+03;  1.0000000E-01;  0.0000000E+00;0;  0.0000000E+00;  0.0000000E+00;  0.0000000E+00;0;  0.0000000E+00;  4.0000000E+04;  0.0000000E+00;  0.0000000E+00;  4.0000000E+04;  0.0000000E+00;  4.0000000E+04;  0.0000000E+00;  0.0000000E+00;  0.0000000E+00;  0.0000000E+00;
 -1.8000001E-01;  9.9999998E-03; -2.0000000E-01;205;  0.0000000E+00;  0.0000000E+00;  0.0000000E+00;  1.0000000E+03;  1.0000000E-01;  0.0000000E+00;0;  0.0000000E+00;  0.0000000E+00;  0.0000000E+00;0;  0.0000000E+00;  4.0000000E+04;  0.0000000E+00;  0.0000000E+00;  4.0000000E+04;  0.0000000E+00;  4.0000000E+04;  0.0000000E+00;  0.0000000E+00;  0.0000000E+00;  0.0000000E+00;
 -1.8000001E-01;  9.9999998E-03; -1.9000000E-01;206;  0.0000000E+00;  0.0000000E+00;  0.0000000E+00;  1.0000000E+03;  1.0000000E-01;  0.0000000E+00;0;  0.0000000E+00;  0.0000000E+00;  0.0000000E+00;0;  0.0000000E+00;  4.0000000E+04;  0.0000000E+00;  0.0000000E+00;  4.0000000E+04;  0.0000000E+00;  4.0000000E+04;  0.0000000E+00;  0.0000000E+00;  0.0000000E+00;  0.0000000E+00;
 -1.8000001E-01;  9.9999998E-03; -1.8000001E-01;207;  0.0000000E+00;  0.0000000E+00;  0.0000000E+00;  1.0000000E+03;  1.0000000E-01;  0.0000000E+00;0;  0.0000000E+00;  0.0000000E+00;  0.0000000E+00;0;  0.0000000E+00;  4.0000000E+04;  0.0000000E+00;  0.0000000E+00;  4.0000000E+04;  0.0000000E+00;  4.0000000E+04;  0.0000000E+00;  0.0000000E+00;  0.0000000E+00;  0.0000000E+00;
 -1.8000001E-01;  9.9999998E-03; -1.7000000E-01;208;  0.0000000E+00;  0.0000000E+00;  0.0000000E+00;  1.0000000E+03;  1.0000000E-01;  0.0000000E+00;0;  0.0000000E+00;  0.0000000E+00;  0.0000000E+00;0;  0.0000000E+00;  4.0000000E+04;  0.0000000E+00;  0.0000000E+00;  4.0000000E+04;  0.0000000E+00;  4.0000000E+04;  0.0000000E+00;  0.0000000E+00;  0.0000000E+00;  0.0000000E+00;
 -1.8000001E-01;  9.9999998E-03; -1.6000000E-01;209;  0.0000000E+00;  0.0000000E+00;  0.0000000E+00;  1.0000000E+03;  1.0000000E-01;  0.0000000E+00;0;  0.0000000E+00;  0.0000000E+00;  0.0000000E+00;0;  0.0000000E+00;  4.0000000E+04;  0.0000000E+00;  0.0000000E+00;  4.0000000E+04;  0.0000000E+00;  4.0000000E+04;  0.0000000E+00;  0.0000000E+00;  0.0000000E+00;  0.0000000E+00;
 -1.8000001E-01;  9.9999998E-03; -1.5000001E-01;210;  0.0000000E+00;  0.0000000E+00;  0.0000000E+00;  1.0000000E+03;  1.0000000E-01;  0.0000000E+00;0;  0.0000000E+00;  0.0000000E+00;  0.0000000E+00;0;  0.0000000E+00;  4.0000000E+04;  0.0000000E+00;  0.0000000E+00;  4.0000000E+04;  0.0000000E+00;  4.0000000E+04;  0.0000000E+00;  0.0000000E+00;  0.0000000E+00;  0.0000000E+00;
 -1.8000001E-01;  9.9999998E-03; -1.4000000E-01;211;  0.0000000E+00;  0.0000000E+00;  0.0000000E+00;  1.0000000E+03;  1.0000000E-01;  0.0000000E+00;0;  0.0000000E+00;  0.0000000E+00;  0.0000000E+00;0;  0.0000000E+00;  4.0000000E+04;  0.0000000E+00;  0.0000000E+00;  4.0000000E+04;  0.0000000E+00;  4.0000000E+04;  0.0000000E+00;  0.0000000E+00;  0.0000000E+00;  0.0000000E+00;
 -1.8000001E-01;  9.9999998E-03; -1.3000000E-01;212;  0.0000000E+00;  0.0000000E+00;  0.0000000E+00;  1.0000000E+03;  1.0000000E-01;  0.0000000E+00;0;  0.0000000E+00;  0.0000000E+00;  0.0000000E+00;0;  0.0000000E+00;  4.0000000E+04;  0.0000000E+00;  0.0000000E+00;  4.0000000E+04;  0.0000000E+00;  4.0000000E+04;  0.0000000E+00;  0.0000000E+00;  0.0000000E+00;  0.0000000E+00;
 -1.8000001E-01;  9.9999998E-03; -1.2000000E-01;213;  0.0000000E+00;  0.0000000E+00;  0.0000000E+00;  1.0000000E+03;  1.0000000E-01;  0.0000000E+00;0;  0.0000000E+00;  0.0000000E+00;  0.0000000E+00;0;  0.0000000E+00;  4.0000000E+04;  0.0000000E+00;  0.0000000E+00;  4.0000000E+04;  0.0000000E+00;  4.0000000E+04;  0.0000000E+00;  0.0000000E+00;  0.0000000E+00;  0.0000000E+00;
 -1.8000001E-01;  9.9999998E-03; -1.1000000E-01;214;  0.0000000E+00;  0.0000000E+00;  0.0000000E+00;  1.0000000E+03;  1.0000000E-01;  0.0000000E+00;0;  0.0000000E+00;  0.0000000E+00;  0.0000000E+00;0;  0.0000000E+00;  4.0000000E+04;  0.0000000E+00;  0.0000000E+00;  4.0000000E+04;  0.0000000E+00;  4.0000000E+04;  0.0000000E+00;  0.0000000E+00;  0.0000000E+00;  0.0000000E+00;
 -1.7000000E-01;  9.9999998E-03; -2.7000001E-01;289;  0.0000000E+00;  0.0000000E+00;  0.0000000E+00;  1.0000000E+03;  1.0000000E-01;  0.0000000E+00;0;  0.0000000E+00;  0.0000000E+00;  0.0000000E+00;0;  1.8155772E-12;  4.0000000E+04;  0.0000000E+00;  0.0000000E+00;  4.0000000E+04;  0.0000000E+00;  4.0000000E+04;  1.8163033E-12;  0.0000000E+00; -7.2605997E-16;  1.3863079E-10;
 -1.7000000E-01;  9.9999998E-03; -2.5999999E-01;290;  0.0000000E+00;  0.0000000E+00;  0.0000000E+00;  1.0000000E+03;  1.0000000E-01;  0.0000000E+00;0;  0.0000000E+00;  0.0000000E+00;  0.0000000E+00;0;  6.5179689E-12;  4.0000000E+04;  0.0000000E+00;  0.0000000E+00;  4.0000000E+04;  0.0000000E+00;  4.0000000E+04;  6.5194222E-12;  0.0000000E+00; -1.4534552E-15;  4.0791204E-10;
 -1.7000000E-01;  9.9999998E-03; -2.5000000E-01;291;  0.0000000E+00;  0.0000000E+00;  0.0000000E+00;  1.0000000E+03;  1.0000000E-01;  0.0000000E+00;0;  0.0000000E+00;  0.0000000E+00;  0.0000000E+00;0;  1.2149391E-11;  4.0000000E+04;  0.0000000E+00;  0.0000000E+00;  4.0000000E+04;  0.0000000E+00;  4.0000000E+04;  1.2150734E-11;  0.0000000E+00; -1.3437243E-15;  3.2535855E-10;
 -1.7000000E-01;  9.9999998E-03; -2.3999999E-01;292;  0.0000000E+00;  0.0000000E+00;  0.0000000E+00;  1.0000000E+03;  1.0000000E-01;  0.0000000E+00;0;  0.0000000E+00;  0.0000000E+00;  0.0000000E+00;0;  1.0408238E-11;  4.0000000E+04;  0.0000000E+00;  0.0000000E+00;  4.0000000E+04;  0.0000000E+00;  4.0000000E+04;  1.0408609E-11;  0.0000000E+00; -3.7140410E-16;  3.9903189E-10;
 -1.7000000E-01;  9.9999998E-03; -2.3000000E-01;293;  0.0000000E+00;  0.0000000E+00;  0.0000000E+00;  1.0000000E+03;  1.0000000E-01;  0.0000000E+00;0;  0.0000000E+00;  0.0000000E+00;  0.0000000E+00;0;  1.6807747E-12;  4.0000000E+04;  0.0000000E+00;  0.0000000E+00;  4.0000000E+04;  0.0000000E+00;  4.0000000E+04;  1.6807406E-12;  0.0000000E+00;  3.4038631E-17;  9.4434305E-10;
 -1.7000000E-01;  9.9999998E-03; -2.2000000E-01;294;  0.0000000E+00;  0.0000000E+00;  0.0000000E+00;  1.0000000E+03;  1.0000000E-01;  0.0000000E+00;0;  0.0000000E+00;  0.0000000E+00;  0.0000000E+00;0;  0.0000000E+00;  4.0000000E+04;  0.0000000E+00;  0.0000000E+00;  4.0000000E+04;  0.0000000E+00;  4.0000000E+04;  0.0000000E+00;  0.0000000E+00;  0.0000000E+00;  1.1699183E-09;
 -1.7000000E-01;  9.9999998E-03; -2.0999999E-01;295;  0.0000000E+00;  0.0000000E+00;  0.0000000E+00;  1.0000000E+03;  1.0000000E-01;  0.0000000E+00;0;  0.0000000E+00;  0.0000000E+00;  0.0000000E+00;0;  0.0000000E+00;  4.0000000E+04;  0.0000000E+00;  0.0000000E+00;  4.0000000E+04;  0.0000000E+00;  4.0000000E+04;  0.0000000E+00;  0.0000000E+00;  0.0000000E+00;  1.3086691E-09;
 -1.7000000E-01;  9.9999998E-03; -2.0000000E-01;296;  0.0000000E+00;  0.0000000E+00;  0.0000000E+00;  1.0000000E+03;  1.0000000E-01;  0.0000000E+00;0;  0.0000000E+00;  0.0000000E+00;  0.0000000E+00;0;  0.0000000E+00;  4.0000000E+04;  0.0000000E+00;  0.0000000E+00;  4.0000000E+04;  0.0000000E+00;  4.0000000E+04;  0.0000000E+00;  0.0000000E+00;  0.0000000E+00;  1.3572687E-09;
 -1.7000000E-01;  9.9999998E-03; -1.9000000E-01;297;  0.0000000E+00;  0.0000000E+00;  0.0000000E+00;  1.0000000E+03;  1.0000000E-01;  0.0000000E+00;0;  0.0000000E+00;  0.0000000E+00;  0.0000000E+00;0;  0.0000000E+00;  4.0000000E+04;  0.0000000E+00;  0.0000000E+00;  4.0000000E+04;  0.0000000E+00;  4.0000000E+04;  0.0000000E+00;  0.0000000E+00;  0.0000000E+00;  1.3804570E-09;
 -1.7000000E-01;  9.9999998E-03; -1.8000001E-01;298;  0.0000000E+00;  0.0000000E+00;  0.0000000E+00;  1.0000000E+03;  1.0000000E-01;  0.0000000E+00;0;  0.0000000E+00;  0.0000000E+00;  0.0000000E+00;0;  0.0000000E+00;  4.0000000E+04;  0.0000000E+00;  0.0000000E+00;  4.0000000E+04;  0.0000000E+00;  4.0000000E+04;  0.0000000E+00;  0.0000000E+00;  0.0000000E+00;  1.4541069E-09;
 -1.7000000E-01;  9.9999998E-03; -1.7000000E-01;299;  0.0000000E+00;  0.0000000E+00;  0.0000000E+00;  1.0000000E+03;  1.0000000E-01;  0.0000000E+00;0;  0.0000000E+00;  0.0000000E+00;  0.0000000E+00;0;  0.0000000E+00;  4.0000000E+04;  0.0000000E+00;  0.0000000E+00;  4.0000000E+04;  0.0000000E+00;  4.0000000E+04;  0.0000000E+00;  0.0000000E+00;  0.0000000E+00;  1.5733465E-09;
 -1.7000000E-01;  9.9999998E-03; -1.6000000E-01;300;  0.0000000E+00;  0.0000000E+00;  0.0000000E+00;  1.0000000E+03;  1.0000000E-01;  0.0000000E+00;0;  0.0000000E+00;  0.0000000E+00;  0.0000000E+00;0;  0.0000000E+00;  4.0000000E+04;  0.0000000E+00;  0.0000000E+00;  4.0000000E+04;  0.0000000E+00;  4.0000000E+04;  0.0000000E+00;  0.0000000E+00;  0.0000000E+00;  1.7068523E-09;
 -1.7000000E-01;  9.9999998E-03; -1.5000001E-01;301;  0.0000000E+00;  0.0000000E+00;  0.0000000E+00;  1.0000000E+03;  1.0000000E-01;  0.0000000E+00;0;  0.0000000E+00;  0.0000000E+00;  0.0000000E+00;0;  0.0000000E+00;  4.0000000E+04;  0.0000000E+00;  0.0000000E+00;  4.0000000E+04;  0.0000000E+00;  4.0000000E+04;  0.0000000E+00;  0.0000000E+00;  0.0000000E+00;  1.8278684E-09;
 -1.7000000E-01;  9.9999998E-03; -1.4000000E-01;302;  0.0000000E+00;  0.0000000E+00;  0.0000000E+00;  1.0000000E+03;  1.0000000E-01;  0.0000000E+00;0;  0.0000000E+00;  0.0000000E+00;  0.0000000E+00;0;  0.0000000E+00;  4.0000000E+04;  0.0000000E+00;  0.0000000E+00;  4.0000000E+04;  0.0000000E+00;  4.0000000E+04;  0.0000000E+00;  0.0000000E+00;  0.0000000E+00;  1.9071082E-09;
 -1.7000000E-01;  9.9999998E-03; -1.3000000E-01;303;  0.0000000E+00;  0.0000000E+00;  0.0000000E+00;  1.0000000E+03;  1.0000000E-01;  0.0000000E+00;0;  0.0000000E+00;  0.0000000E+00;  0.0000000E+00;0;  0.0000000E+00;  4.0000000E+04;  0.0000000E+00;  0.0000000E+00;  4.0000000E+04;  0.0000000E+00;  4.0000000E+04;  0.0000000E+00;  0.0000000E+00;  0.0000000E+00;  1.9297872E-09;
 -1.7000000E-01;  9.9999998E-03; -1.2000000E-01;304;  0.0000000E+00;  0.0000000E+00;  0.0000000E+00;  1.0000000E+03;  1.0000000E-01;  0.0000000E+00;0;  0.0000000E+00;  0.0000000E+00;  0.0000000E+00;0;  0.0000000E+00;  4.0000000E+04;  0.0000000E+00;  0.0000000E+00;  4.0000000E+04;  0.0000000E+00;  4.0000000E+04;  0.0000000E+00;  0.0000000E+00;  0.0000000E+00;  1.9547151E-09;
 -1.7000000E-01;  9.9999998E-03; -1.1000000E-01;305;  0.0000000E+00;  0.0000000E+00;  0.0000000E+00;  1.0000000E+03;  1.0000000E-01;  0.0000000E+00;0;  0.0000000E+00;  0.0000000E+00;  0.0000000E+00;0;  0.0000000E+00;  4.0000000E+04;  0.0000000E+00;  0.0000000E+00;  4.0000000E+04;  0.0000000E+00;  4.0000000E+04;  0.0000000E+00;  0.0000000E+00;  0.0000000E+00;  1.9624904E-09;
 -1.6000000E-01;  9.9999998E-03; -2.7000001E-01;380;  0.0000000E+00;  0.0000000E+00;  0.0000000E+00;  1.0000000E+03;  1.0000000E-01;  0.0000000E+00;0;  0.0000000E+00;  0.0000000E+00;  0.0000000E+00;0;  3.3259497E-05;  4.0000000E+04;  0.0000000E+00;  0.0000000E+00;  4.0000000E+04;  0.0000000E+00;  4.0000000E+04;  3.2341537E-05;  0.0000000E+00;  9.1796028E-07;  6.6657528E-02;
 -1.6000000E-01;  9.9999998E-03; -2.5999999E-01;381;  0.0000000E+00;  0.0000000E+00;  0.0000000E+00;  1.0000000E+03;  1.0000000E-01;  0.0000000E+00;0;  0.0000000E+00;  0.0000000E+00;  0.0000000E+00;0;  5.0766375E-05;  4.0000000E+04;  0.0000000E+00;  0.0000000E+00;  4.0000000E+04;  0.0000000E+00;  4.0000000E+04;  4.9756680E-05;  0.0000000E+00;  1.0096971E-06;  9.8754577E-02;
 -1.6000000E-01;  9.9999998E-03; -2.5000000E-01;382;  0.0000000E+00;  0.0000000E+00;  0.0000000E+00;  1.0000000E+03;  1.0000000E-01;  0.0000000E+00;0;  0.0000000E+00;  0.0000000E+00;  0.0000000E+00;0;  7.4337113E-05;  4.0000000E+04;  0.0000000E+00;  0.0000000E+00;  4.0000000E+04;  0.0000000E+00;  4.0000000E+04;  7.3172690E-05;  0.0000000E+00;  1.1644254E-06;  1.1389593E-01;
 -1.6000000E-01;  9.9999998E-03; -2.3999999E-01;383;  0.0000000E+00;  0.0000000E+00;  0.0000000E+00;  1.0000000E+03;  1.0000000E-01;  0.0000000E+00;0;  0.0000000E+00;  0.0000000E+00;  0.0000000E+00;0;  1.0403633E-04;  4.0000000E+04;  0.0000000E+00;  0.0000000E+00;  4.0000000E+04;  0.0000000E+00;  4.0000000E+04;  1.0275610E-04;  0.0000000E+00;  1.2802331E-06;  1.1556166E-01;
 -1.6000000E-01;  9.9999998E-03; -2.3000000E-01;384;  0.0000000E+00;  0.0000000E+00;  0.0000000E+00;  1.0000000E+03;  1.0000000E-01;  0.0000000E+00;0;  0.0000000E+00;  0.0000000E+00;  0.0000000E+00;0;  1.3877214E-04;  4.0000000E+04;  0.0000000E+00;  0.0000000E+00;  4.0000000E+04;  0.0000000E+00;  4.0000000E+04;  1.3755058E-04;  0.0000000E+00;  1.2215596E-06;  1.1039469E-01;
 -1.6000000E-01;  9.9999998E-03; -2.2000000E-01;385;  0.0000000E+00;  0.0000000E+00;  0.0000000E+00;  1.0000000E+03;  1.0000000E-01;  0.0000000E+00;0;  0.0000000E+00;  0.0000000E+00;  0.0000000E+00;0;  1.7624185E-04;  4.0000000E+04;  0.0000000E+00;  0.0000000E+00;  4.0000000E+04;  0.0000000E+00;  4.0000000E+04;  1.7530225E-04;  0.0000000E+00;  9.3960398E-07;  9.8237559E-02;
 -1.6000000E-01;  9.9999998E-03; -2.0999999E-01;386;  0.0000000E+00;  0.0000000E+00;  0.0000000E+00;  1.0000000E+03;  1.0000000E-01;  0.0000000E+00;0;  0.0000000E+00;  0.0000000E+00;  0.0000000E+00;0;  2.1331612E-04;  4.0000000E+04;  0.0000000E+00;  0.0000000E+00;  4.0000000E+04;  0.0000000E+00;  4.0000000E+04;  2.1285290E-04;  0.0000000E+00;  4.6321452E-07;  7.8729793E-02;
 -1.6000000E-01;  9.9999998E-03; -2.0000000E-01;387;  0.0000000E+00;  0.0000000E+00;  0.0000000E+00;  1.0000000E+03;  1.0000000E-01;  0.0000000E+00;0;  0.0000000E+00;  0.0000000E+00;  0.0000000E+00;0;  2.4670921E-04;  4.0000000E+04;  0.0000000E+00;  0.0000000E+00;  4.0000000E+04;  0.0000000E+00;  4.0000000E+04;  2.4681207E-04;  0.0000000E+00; -1.0283965E-07;  5.2939627E-02;
 -1.6000000E-01;  9.9999998E-03; -1.9000000E-01;388;  0.0000000E+00;  0.0000000E+00;  0.0000000E+00;  1.0000000E+03;  1.0000000E-01;  0.0000000E+00;0;  0.0000000E+00;  0.0000000E+00;  0.0000000E+00;0;  2.7379656E-04;  4.0000000E+04;  0.0000000E+00;  0.0000000E+00;  4.0000000E+04;  0.0000000E+00;  4.0000000E+04;  2.7441140E-04;  0.0000000E+00; -6.1484053E-07;  2.3473518E-02;
 -1.6000000E-01;  9.9999998E-03; -1.8000001E-01;389;  0.0000000E+00;  0.0000000E+00;  0.0000000E+00;  1.0000000E+03;  1.0000000E-01;  0.0000000E+00;0;  0.0000000E+00;  0.0000000E+00;  0.0000000E+00;0;  2.9325159E-04;  4.0000000E+04;  0.0000000E+00;  0.0000000E+00;  4.0000000E+04;  0.0000000E+00;  4.0000000E+04;  2.9420541E-04;  0.0000000E+00; -9.5381733E-07;  6.2064612E-03;
 -1.6000000E-01;  9.9999998E-03; -1.7000000E-01;390;  0.0000000E+00;  0.0000000E+00;  0.0000000E+00;  1.0000000E+03;  1.0000000E-01;  0.0000000E+00;0;  0.0000000E+00;  0.0000000E+00;  0.0000000E+00;0;  3.0527636E-04;  4.0000000E+04;  0.0000000E+00;  0.0000000E+00;  4.0000000E+04;  0.0000000E+00;  4.0000000E+04;  3.0635367E-04;  0.0000000E+00; -1.0772964E-06;  3.2553699E-02;
 -1.6000000E-01;  9.9999998E-03; -1.6000000E-01;391;  0.0000000E+00;  0.0000000E+00;  0.0000000E+00;  1.0000000E+03;  1.0000000E-01;  0.0000000E+00;0;  0.0000000E+00;  0.0000000E+00;  0.0000000E+00;0;  3.1133372E-04;  4.0000000E+04;  0.0000000E+00;  0.0000000E+00;  4.0000000E+04;  0.0000000E+00;  4.0000000E+04;  3.1236056E-04;  0.0000000E+00; -1.0268362E-06;  5.3527590E-02;
 -1.6000000E-01;  9.9999998E-03; -1.5000001E-01;392;  0.0000000E+00;  0.0000000E+00;  0.0000000E+00;  1.0000000E+03;  1.0000000E-01;  0.0000000E+00;0;  0.0000000E+00;  0.0000000E+00;  0.0000000E+00;0;  3.1352375E-04;  4.0000000E+04;  0.0000000E+00;  0.0000000E+00;  4.0000000E+04;  0.0000000E+00;  4.0000000E+04;  3.1441159E-04;  0.0000000E+00; -8.8783406E-07;  6.8510190E-02;
 -1.6000000E-01;  9.9999998E-03; -1.4000000E-01;393;  0.0000000E+00;  0.0000000E+00;  0.0000000E+00;  1.0000000E+03;  1.0000000E-01;  0.0000000E+00;0;  0.0000000E+00;  0.0000000E+00;  0.0000000E+00;0;  3.1387818E-04;  4.0000000E+04;  0.0000000E+00;  0.0000000E+00;  4.0000000E+04;  0.0000000E+00;  4.0000000E+04;  3.1461450E-04;  0.0000000E+00; -7.3632782E-07;  7.8183159E-02;
 -1.6000000E-01;  9.9999998E-03; -1.3000000E-01;394;  0.0000000E+00;  0.0000000E+00;  0.0000000E+00;  1.0000000E+03;  1.0000000E-01;  0.0000000E+00;0;  0.0000000E+00;  0.0000000E+00;  0.0000000E+00;0;  3.1384567E-04;  4.0000000E+04;  0.0000000E+00;  0.0000000E+00;  4.0000000E+04;  0.0000000E+00;  4.0000000E+04;  3.1445571E-04;  0.0000000E+00; -6.1005960E-07;  8.3785415E-02;
 -1.6000000E-01;  9.9999998E-03; -1.2000000E-01;395;  0.0000000E+00;  0.0000000E+00;  0.0000000E+00;  1.0000000E+03;  1.0000000E-01;  0.0000000E+00;0;  0.0000000E+00;  0.0000000E+00;  0.0000000E+00;0;  3.1416971E-04;  4.0000000E+04;  0.0000000E+00;  0.0000000E+00;  4.0000000E+04;  0.0000000E+00;  4.0000000E+04;  3.1468374E-04;  0.0000000E+00; -5.1404010E-07;  8.6508781E-02;
 -1.6000000E-01;  9.9999998E-03; -1.1000000E-01;396;  0.0000000E+00;  0.0000000E+00;  0.0000000E+00;  1.0000000E+03;  1.0000000E-01;  0.0000000E+00;0;  0.0000000E+00;  0.0000000E+00;  0.0000000E+00;0;  3.1509344E-04;  4.0000000E+04;  0.0000000E+00;  0.0000000E+00;  4.0000000E+04;  0.0000000E+00;  4.0000000E+04;  3.1553599E-04;  0.0000000E+00; -4.4254207E-07;  8.7253332E-02;
 -1.5000001E-01;  9.9999998E-03; -2.7000001E-01;471;  0.0000000E+00;  0.0000000E+00;  0.0000000E+00;  1.0000000E+03;  1.0000000E-01;  0.0000000E+00;0;  0.0000000E+00;  0.0000000E+00;  0.0000000E+00;0;  4.6159761E-04;  4.0000000E+04;  0.0000000E+00;  0.0000000E+00;  4.0000000E+04;  0.0000000E+00;  4.0000000E+04;  4.4183584E-04;  0.0000000E+00;  1.9761750E-05;  7.6218307E-01;
 -1.5000001E-01;  9.9999998E-03; -2.5999999E-01;472;  0.0000000E+00;  0.0000000E+00;  0.0000000E+00;  1.0000000E+03;  1.0000000E-01;  0.0000000E+00;0;  0.0000000E+00;  0.0000000E+00;  0.0000000E+00;0;  6.6346850E-04;  4.0000000E+04;  0.0000000E+00;  0.0000000E+00;  4.0000000E+04;  0.0000000E+00;  4.0000000E+04;  6.4196129E-04;  0.0000000E+00;  2.1507236E-05;  1.2130302E+00;
 -1.5000001E-01;  9.9999998E-03; -2.5000000E-01;473;  0.0000000E+00;  0.0000000E+00;  0.0000000E+00;  1.0000000E+03;  1.0000000E-01;  0.0000000E+00;0;  0.0000000E+00;  0.0000000E+00;  0.0000000E+00;0;  9.1854256E-04;  4.0000000E+04;  0.0000000E+00;  0.0000000E+00;  4.0000000E+04;  0.0000000E+00;  4.0000000E+04;  8.9577661E-04;  0.0000000E+00;  2.2765931E-05;  1.5483102E+00;
 -1.5000001E-01;  9.9999998E-03; -2.3999999E-01;474;  0.0000000E+00;  0.0000000E+00;  0.0000000E+00;  1.0000000E+03;  1.0000000E-01;  0.0000000E+00;0;  0.0000000E+00;  0.0000000E+00;  0.0000000E+00;0;  1.2238123E-03;  4.0000000E+04;  0.0000000E+00;  0.0000000E+00;  4.0000000E+04;  0.0000000E+00;  4.0000000E+04;  1.2010089E-03;  0.0000000E+00;  2.2803380E-05;  1.7174021E+00;
 -1.5000001E-01;  9.9999998E-03; -2.3000000E-01;475;  0.0000000E+00;  0.0000000E+00;  0.0000000E+00;  1.0000000E+03;  1.0000000E-01;  0.0000000E+00;0;  0.0000000E+00;  0.0000000E+00;  0.0000000E+00;0;  1.5686098E-03;  4.0000000E+04;  0.0000000E+00;  0.0000000E+00;  4.0000000E+04;  0.0000000E+00;  4.0000000E+04;  1.5477457E-03;  0.0000000E+00;  2.0864143E-05;  1.7076247E+00;
 -1.5000001E-01;  9.9999998E-03; -2.2000000E-01;476;  0.0000000E+00;  0.0000000E+00;  0.0000000E+00;  1.0000000E+03;  1.0000000E-01;  0.0000000E+00;0;  0.0000000E+00;  0.0000000E+00;  0.0000000E+00;0;  1.9352945E-03;  4.0000000E+04;  0.0000000E+00;  0.0000000E+00;  4.0000000E+04;  0.0000000E+00;  4.0000000E+04;  1.9188308E-03;  0.0000000E+00;  1.6463691E-05;  1.5484132E+00;
 -1.5000001E-01;  9.9999998E-03; -2.0999999E-01;477;  0.0000000E+00;  0.0000000E+00;  0.0000000E+00;  1.0000000E+03;  1.0000000E-01;  0.0000000E+00;0;  0.0000000E+00;  0.0000000E+00;  0.0000000E+00;0;  2.3018578E-03;  4.0000000E+04;  0.0000000E+00;  0.0000000E+00;  4.0000000E+04;  0.0000000E+00;  4.0000000E+04;  2.2920854E-03;  0.0000000E+00;  9.7724824E-06;  1.2849019E+00;
 -1.5000001E-01;  9.9999998E-03; -2.0000000E-01;478;  0.0000000E+00;  0.0000000E+00;  0.0000000E+00;  1.0000000E+03;  1.0000000E-01;  0.0000000E+00;0;  0.0000000E+00;  0.0000000E+00;  0.0000000E+00;0;  2.6458763E-03;  4.0000000E+04;  0.0000000E+00;  0.0000000E+00;  4.0000000E+04;  0.0000000E+00;  4.0000000E+04;  2.6440299E-03;  0.0000000E+00;  1.8462730E-06;  9.4167960E-01;
 -1.5000001E-01;  9.9999998E-03; -1.9000000E-01;479;  0.0000000E+00;  0.0000000E+00;  0.0000000E+00;  1.0000000E+03;  1.0000000E-01;  0.0000000E+00;0;  0.0000000E+00;  0.0000000E+00;  0.0000000E+00;0;  2.9486932E-03;  4.0000000E+04;  0.0000000E+00;  0.0000000E+00;  4.0000000E+04;  0.0000000E+00;  4.0000000E+04;  2.9545783E-03;  0.0000000E+00; -5.8850160E-06;  5.4733074E-01;
 -1.5000001E-01;  9.9999998E-03; -1.8000001E-01;480;  0.0000000E+00;  0.0000000E+00;  0.0000000E+00;  1.0000000E+03;  1.0000000E-01;  0.0000000E+00;0;  0.0000000E+00;  0.0000000E+00;  0.0000000E+00;0;  3.1984881E-03;  4.0000000E+04;  0.0000000E+00;  0.0000000E+00;  4.0000000E+04;  0.0000000E+00;  4.0000000E+04;  3.2106233E-03;  0.0000000E+00; -1.2135208E-05;  1.3960420E-01;
 -1.5000001E-01;  9.9999998E-03; -1.7000000E-01;481;  0.0000000E+00;  0.0000000E+00;  0.0000000E+00;  1.0000000E+03;  1.0000000E-01;  0.0000000E+00;0;  0.0000000E+00;  0.0000000E+00;  0.0000000E+00;0;  3.3915583E-03;  4.0000000E+04;  0.0000000E+00;  0.0000000E+00;  4.0000000E+04;  0.0000000E+00;  4.0000000E+04;  3.4076816E-03;  0.0000000E+00; -1.6123282E-05;  2.4420002E-01;
 -1.5000001E-01;  9.9999998E-03; -1.6000000E-01;482;  0.0000000E+00;  0.0000000E+00;  0.0000000E+00;  1.0000000E+03;  1.0000000E-01;  0.0000000E+00;0;  0.0000000E+00;  0.0000000E+00;  0.0000000E+00;0;  3.5316898E-03;  4.0000000E+04;  0.0000000E+00;  0.0000000E+00;  4.0000000E+04;  0.0000000E+00;  4.0000000E+04;  3.5494207E-03;  0.0000000E+00; -1.7730912E-05;  5.7242405E-01;
 -1.5000001E-01;  9.9999998E-03; -1.5000001E-01;483;  0.0000000E+00;  0.0000000E+00;  0.0000000E+00;  1.0000000E+03;  1.0000000E-01;  0.0000000E+00;0;  0.0000000E+00;  0.0000000E+00;  0.0000000E+00;0;  3.6280595E-03;  4.0000000E+04;  0.0000000E+00;  0.0000000E+00;  4.0000000E+04;  0.0000000E+00;  4.0000000E+04;  3.6454785E-03;  0.0000000E+00; -1.7419021E-05;  8.2846135E-01;
 -1.5000001E-01;  9.9999998E-03; -1.4000000E-01;484;  0.0000000E+00;  0.0000000E+00;  0.0000000E+00;  1.0000000E+03;  1.0000000E-01;  0.0000000E+00;0;  0.0000000E+00;  0.0000000E+00;  0.0000000E+00;0;  3.6923769E-03;  4.0000000E+04;  0.0000000E+00;  0.0000000E+00;  4.0000000E+04;  0.0000000E+00;  4.0000000E+04;  3.7083360E-03;  0.0000000E+00; -1.5959198E-05;  1.0093670E+00;
 -1.5000001E-01;  9.9999998E-03; -1.3000000E-01;485;  0.0000000E+00;  0.0000000E+00;  0.0000000E+00;  1.0000000E+03;  1.0000000E-01;  0.0000000E+00;0;  0.0000000E+00;  0.0000000E+00;  0.0000000E+00;0;  3.7361232E-03;  4.0000000E+04;  0.0000000E+00;  0.0000000E+00;  4.0000000E+04;  0.0000000E+00;  4.0000000E+04;  3.7502288E-03;  0.0000000E+00; -1.4105554E-05;  1.1234617E+00;
 -1.5000001E-01;  9.9999998E-03; -1.2000000E-01;486;  0.0000000E+00;  0.0000000E+00;  0.0000000E+00;  1.0000000E+03;  1.0000000E-01;  0.0000000E+00;0;  0.0000000E+00;  0.0000000E+00;  0.0000000E+00;0;  3.7685761E-03;  4.0000000E+04;  0.0000000E+00;  0.0000000E+00;  4.0000000E+04;  0.0000000E+00;  4.0000000E+04;  3.7809419E-03;  0.0000000E+00; -1.2365951E-05;  1.1848869E+00;
 -1.5000001E-01;  9.9999998E-03; -1.1000000E-01;487;  0.0000000E+00;  0.0000000E+00;  0.0000000E+00;  1.0000000E+03;  1.0000000E-01;  0.0000000E+00;0;  0.0000000E+00;  0.0000000E+00;  0.0000000E+00;0;  3.7959283E-03;  4.0000000E+04;  0.0000000E+00;  0.0000000E+00;  4.0000000E+04;  0.0000000E+00;  4.0000000E+04;  3.8068821E-03;  0.0000000E+00; -1.0953699E-05;  1.2084708E+00;
 -1.4000000E-01;  9.9999998E-03; -2.7000001E-01;562;  0.0000000E+00;  0.0000000E+00;  0.0000000E+00;  1.0000142E+03;  1.0000000E-01;  1.1752754E+01;0;  0.0000000E+00;  0.0000000E+00;  0.0000000E+00;0;  2.3338576E-03;  4.0000000E+04;  0.0000000E+00;  0.0000000E+00;  4.0000000E+04;  0.0000000E+00;  4.0000000E+04;  2.2137235E-03;  0.0000000E+00;  1.2013404E-04;  3.9226422E+00;
 -1.4000000E-01;  9.9999998E-03; -2.5999999E-01;563;  0.0000000E+00;  0.0000000E+00;  0.0000000E+00;  1.0000137E+03;  1.0000000E-01;  1.1357703E+01;0;  0.0000000E+00;  0.0000000E+00;  0.0000000E+00;0;  3.1988947E-03;  4.0000000E+04;  0.0000000E+00;  0.0000000E+00;  4.0000000E+04;  0.0000000E+00;  4.0000000E+04;  3.0729943E-03;  0.0000000E+00;  1.2590033E-04;  5.9606419E+00;
 -1.4000000E-01;  9.9999998E-03; -2.5000000E-01;564;  0.0000000E+00;  0.0000000E+00;  0.0000000E+00;  1.0000130E+03;  1.0000000E-01;  1.0765127E+01;0;  0.0000000E+00;  0.0000000E+00;  0.0000000E+00;0;  4.2434544E-03;  4.0000000E+04;  0.0000000E+00;  0.0000000E+00;  4.0000000E+04;  0.0000000E+00;  4.0000000E+04;  4.1167410E-03;  0.0000000E+00;  1.2671332E-04;  7.5555787E+00;
 -1.4000000E-01;  9.9999998E-03; -2.3999999E-01;565;  0.0000000E+00;  0.0000000E+00;  0.0000000E+00;  1.0000106E+03;  1.0000000E-01;  8.7898750E+00;0;  0.0000000E+00;  0.0000000E+00;  0.0000000E+00;0;  5.4475623E-03;  4.0000000E+04;  0.0000000E+00;  0.0000000E+00;  4.0000000E+04;  0.0000000E+00;  4.0000000E+04;  5.3272499E-03;  0.0000000E+00;  1.2031263E-04;  8.4739952E+00;
 -1.4000000E-01;  9.9999998E-03; -2.3000000E-01;566;  0.0000000E+00;  0.0000000E+00;  0.0000000E+00;  1.0000126E+03;  1.0000000E-01;  1.0370077E+01;0;  0.0000000E+00;  0.0000000E+00;  0.0000000E+00;0;  6.7704469E-03;  4.0000000E+04;  0.0000000E+00;  0.0000000E+00;  4.0000000E+04;  0.0000000E+00;  4.0000000E+04;  6.6655325E-03;  0.0000000E+00;  1.0491428E-04;  8.6086836E+00;
 -1.4000000E-01;  9.9999998E-03; -2.2000000E-01;567;  0.0000000E+00;  0.0000000E+00;  0.0000000E+00;  1.0000097E+03;  1.0000000E-01;  7.9997740E+00;0;  0.0000000E+00;  0.0000000E+00;  0.0000000E+00;0;  8.1546679E-03;  4.0000000E+04;  0.0000000E+00;  0.0000000E+00;  4.0000000E+04;  0.0000000E+00;  4.0000000E+04;  8.0745658E-03;  0.0000000E+00;  8.0101876E-05;  7.9871221E+00;
 -1.4000000E-01;  9.9999998E-03; -2.0999999E-01;568;  0.0000000E+00;  0.0000000E+00;  0.0000000E+00;  1.0000054E+03;  1.0000000E-01;  4.4443188E+00;0;  0.0000000E+00;  0.0000000E+00;  0.0000000E+00;0;  9.5339296E-03;  4.0000000E+04;  0.0000000E+00;  0.0000000E+00;  4.0000000E+04;  0.0000000E+00;  4.0000000E+04;  9.4863372E-03;  0.0000000E+00;  4.7592177E-05;  6.7359276E+00;
 -1.4000000E-01;  9.9999998E-03; -2.0000000E-01;569;  0.0000000E+00;  0.0000000E+00;  0.0000000E+00;  1.0000002E+03;  1.0000000E-01;  1.9752528E-01;0;  0.0000000E+00;  0.0000000E+00;  0.0000000E+00;0;  1.0842764E-02;  4.0000000E+04;  0.0000000E+00;  0.0000000E+00;  4.0000000E+04;  0.0000000E+00;  4.0000000E+04;  1.0831955E-02;  0.0000000E+00;  1.0809270E-05;  5.0600424E+00;
 -1.4000000E-01;  9.9999998E-03; -1.9000000E-01;570;  0.0000000E+00;  0.0000000E+00;  0.0000000E+00;  1.0000000E+03;  1.0000000E-01;  0.0000000E+00;0;  0.0000000E+00;  0.0000000E+00;  0.0000000E+00;0;  1.2025810E-02;  4.0000000E+04;  0.0000000E+00;  0.0000000E+00;  4.0000000E+04;  0.0000000E+00;  4.0000000E+04;  1.2051434E-02;  0.0000000E+00; -2.5624484E-05;  3.1603744E+00;
 -1.4000000E-01;  9.9999998E-03; -1.8000001E-01;571;  0.0000000E+00;  0.0000000E+00;  0.0000000E+00;  1.0000000E+03;  1.0000000E-01;  0.0000000E+00;0;  0.0000000E+00;  0.0000000E+00;  0.0000000E+00;0;  1.3044855E-02;  4.0000000E+04;  0.0000000E+00;  0.0000000E+00;  4.0000000E+04;  0.0000000E+00;  4.0000000E+04;  1.3101763E-02;  0.0000000E+00; -5.6908062E-05;  1.1940621E+00;
 -1.4000000E-01;  9.9999998E-03; -1.7000000E-01;572;  0.0000000E+00;  0.0000000E+00;  0.0000000E+00;  1.0000000E+03;  1.0000000E-01;  0.0000000E+00;0;  0.0000000E+00;  0.0000000E+00;  0.0000000E+00;0;  1.3882228E-02;  4.0000000E+04;  0.0000000E+00;  0.0000000E+00;  4.0000000E+04;  0.0000000E+00;  4.0000000E+04;  1.3961885E-02;  0.0000000E+00; -7.9657213E-05;  6.8553543E-01;
 -1.4000000E-01;  9.9999998E-03; -1.6000000E-01;573;  0.0000000E+00;  0.0000000E+00;  0.0000000E+00;  1.0000000E+03;  1.0000000E-01;  0.0000000E+00;0;  0.0000000E+00;  0.0000000E+00;  0.0000000E+00;0;  1.4540311E-02;  4.0000000E+04;  0.0000000E+00;  0.0000000E+00;  4.0000000E+04;  0.0000000E+00;  4.0000000E+04;  1.4632870E-02;  0.0000000E+00; -9.2558927E-05;  2.3445036E+00;
 -1.4000000E-01;  9.9999998E-03; -1.5000001E-01;574;  0.0000000E+00;  0.0000000E+00;  0.0000000E+00;  1.0000000E+03;  1.0000000E-01;  0.0000000E+00;0;  0.0000000E+00;  0.0000000E+00;  0.0000000E+00;0;  1.5037660E-02;  4.0000000E+04;  0.0000000E+00;  0.0000000E+00;  4.0000000E+04;  0.0000000E+00;  4.0000000E+04;  1.5134024E-02;  0.0000000E+00; -9.6363692E-05;  3.6971917E+00;
 -1.4000000E-01;  9.9999998E-03; -1.4000000E-01;575;  0.0000000E+00;  0.0000000E+00;  0.0000000E+00;  1.0000000E+03;  1.0000000E-01;  0.0000000E+00;0;  0.0000000E+00;  0.0000000E+00;  0.0000000E+00;0;  1.5403060E-02;  4.0000000E+04;  0.0000000E+00;  0.0000000E+00;  4.0000000E+04;  0.0000000E+00;  4.0000000E+04;  1.5496390E-02;  0.0000000E+00; -9.3329843E-05;  4.7081428E+00;
 -1.4000000E-01;  9.9999998E-03; -1.3000000E-01;576;  0.0000000E+00;  0.0000000E+00;  0.0000000E+00;  1.0000000E+03;  1.0000000E-01;  0.0000000E+00;0;  0.0000000E+00;  0.0000000E+00;  0.0000000E+00;0;  1.5669128E-02;  4.0000000E+04;  0.0000000E+00;  0.0000000E+00;  4.0000000E+04;  0.0000000E+00;  4.0000000E+04;  1.5755486E-02;  0.0000000E+00; -8.6357380E-05;  5.3905520E+00;
 -1.4000000E-01;  9.9999998E-03; -1.2000000E-01;577;  0.0000000E+00;  0.0000000E+00;  0.0000000E+00;  1.0000000E+03;  1.0000000E-01;  0.0000000E+00;0;  0.0000000E+00;  0.0000000E+00;  0.0000000E+00;0;  1.5866634E-02;  4.0000000E+04;  0.0000000E+00;  0.0000000E+00;  4.0000000E+04;  0.0000000E+00;  4.0000000E+04;  1.5944740E-02;  0.0000000E+00; -7.8106008E-05;  5.7920728E+00;
 -1.4000000E-01;  9.9999998E-03; -1.1000000E-01;578;  0.0000000E+00;  0.0000000E+00;  0.0000000E+00;  1.0000000E+03;  1.0000000E-01;  0.0000000E+00;0;  0.0000000E+00;  0.0000000E+00;  0.0000000E+00;0;  1.6020473E-02;  4.0000000E+04;  0.0000000E+00;  0.0000000E+00;  4.0000000E+04;  0.0000000E+00;  4.0000000E+04;  1.6090862E-02;  0.0000000E+00; -7.0390153E-05;  5.9765296E+00;
 -1.3000000E-01;  9.9999998E-03; -2.7000001E-01;653;  0.0000000E+00;  0.0000000E+00;  0.0000000E+00;  1.0000443E+03;  1.0000000E-01;  3.6739700E+01;0;  0.0000000E+00;  0.0000000E+00;  0.0000000E+00;0;  7.3292949E-03;  4.0000000E+04;  0.0000000E+00;  0.0000000E+00;  4.0000000E+04;  0.0000000E+00;  4.0000000E+04;  6.9003222E-03;  0.0000000E+00;  4.2897268E-04;  1.3488326E+01;
 -1.3000000E-01;  9.9999998E-03; -2.5999999E-01;654;  0.0000000E+00;  0.0000000E+00;  0.0000000E+00;  1.0000424E+03;  1.0000000E-01;  3.5159500E+01;0;  0.0000000E+00;  0.0000000E+00;  0.0000000E+00;0;  9.7001558E-03;  4.0000000E+04;  0.0000000E+00;  0.0000000E+00;  4.0000000E+04;  0.0000000E+00;  4.0000000E+04;  9.2664845E-03;  0.0000000E+00;  4.3367155E-04;  1.9369593E+01;
 -1.3000000E-01;  9.9999998E-03; -2.5000000E-01;655;  0.0000000E+00;  0.0000000E+00;  0.0000000E+00;  1.0000428E+03;  1.0000000E-01;  3.5455788E+01;0;  0.0000000E+00;  0.0000000E+00;  0.0000000E+00;0;  1.2471323E-02;  4.0000000E+04;  0.0000000E+00;  0.0000000E+00;  4.0000000E+04;  0.0000000E+00;  4.0000000E+04;  1.2052017E-02;  0.0000000E+00;  4.1930529E-04;  2.3995232E+01;
 -1.3000000E-01;  9.9999998E-03; -2.3999999E-01;656;  0.0000000E+00;  0.0000000E+00;  0.0000000E+00;  1.0000386E+03;  1.0000000E-01;  3.1999096E+01;0;  0.0000000E+00;  0.0000000E+00;  0.0000000E+00;0;  1.5581890E-02;  4.0000000E+04;  0.0000000E+00;  0.0000000E+00;  4.0000000E+04;  0.0000000E+00;  4.0000000E+04;  1.5199372E-02;  0.0000000E+00;  3.8251813E-04;  2.6722666E+01;
 -1.3000000E-01;  9.9999998E-03; -2.3000000E-01;657;  0.0000000E+00;  0.0000000E+00;  0.0000000E+00;  1.0000300E+03;  1.0000000E-01;  2.4789423E+01;0;  0.0000000E+00;  0.0000000E+00;  0.0000000E+00;0;  1.8933037E-02;  4.0000000E+04;  0.0000000E+00;  0.0000000E+00;  4.0000000E+04;  0.0000000E+00;  4.0000000E+04;  1.8611448E-02;  0.0000000E+00;  3.2158857E-04;  2.7210447E+01;
 -1.3000000E-01;  9.9999998E-03; -2.2000000E-01;658;  0.0000000E+00;  0.0000000E+00;  0.0000000E+00;  1.0000179E+03;  1.0000000E-01;  1.4913158E+01;0;  0.0000000E+00;  0.0000000E+00;  0.0000000E+00;0;  2.2398062E-02;  4.0000000E+04;  0.0000000E+00;  0.0000000E+00;  4.0000000E+04;  0.0000000E+00;  4.0000000E+04;  2.2160375E-02;  0.0000000E+00;  2.3768716E-04;  2.5463114E+01;
 -1.3000000E-01;  9.9999998E-03; -2.0999999E-01;659;  0.0000000E+00;  0.0000000E+00;  0.0000000E+00;  1.0000088E+03;  1.0000000E-01;  7.3084354E+00;0;  0.0000000E+00;  0.0000000E+00;  0.0000000E+00;0;  2.5837306E-02;  4.0000000E+04;  0.0000000E+00;  0.0000000E+00;  4.0000000E+04;  0.0000000E+00;  4.0000000E+04;  2.5701307E-02;  0.0000000E+00;  1.3599986E-04;  2.1787600E+01;
 -1.3000000E-01;  9.9999998E-03; -2.0000000E-01;660;  0.0000000E+00;  0.0000000E+00;  0.0000000E+00;  1.0000000E+03;  1.0000000E-01;  0.0000000E+00;0;  0.0000000E+00;  0.0000000E+00;  0.0000000E+00;0;  2.9115388E-02;  4.0000000E+04;  0.0000000E+00;  0.0000000E+00;  4.0000000E+04;  0.0000000E+00;  4.0000000E+04;  2.9090023E-02;  0.0000000E+00;  2.5365602E-05;  1.6698154E+01;
 -1.3000000E-01;  9.9999998E-03; -1.9000000E-01;661;  0.0000000E+00;  0.0000000E+00;  0.0000000E+00;  1.0000000E+03;  1.0000000E-01;  0.0000000E+00;0;  0.0000000E+00;  0.0000000E+00;  0.0000000E+00;0;  3.2117214E-02;  4.0000000E+04;  0.0000000E+00;  0.0000000E+00;  4.0000000E+04;  0.0000000E+00;  4.0000000E+04;  3.2200374E-02;  0.0000000E+00; -8.3161438E-05;  1.0800948E+01;
 -1.3000000E-01;  9.9999998E-03; -1.8000001E-01;662;  0.0000000E+00;  0.0000000E+00;  0.0000000E+00;  1.0000000E+03;  1.0000000E-01;  0.0000000E+00;0;  0.0000000E+00;  0.0000000E+00;  0.0000000E+00;0;  3.4759741E-02;  4.0000000E+04;  0.0000000E+00;  0.0000000E+00;  4.0000000E+04;  0.0000000E+00;  4.0000000E+04;  3.4938544E-02;  0.0000000E+00; -1.7880108E-04;  4.6919537E+00;
 -1.3000000E-01;  9.9999998E-03; -1.7000000E-01;663;  0.0000000E+00;  0.0000000E+00;  0.0000000E+00;  1.0000000E+03;  1.0000000E-01;  0.0000000E+00;0;  0.0000000E+00;  0.0000000E+00;  0.0000000E+00;0;  3.6998637E-02;  4.0000000E+04;  0.0000000E+00;  0.0000000E+00;  4.0000000E+04;  0.0000000E+00;  4.0000000E+04;  3.7251357E-02;  0.0000000E+00; -2.5272183E-04;  1.1791624E+00;
 -1.3000000E-01;  9.9999998E-03; -1.6000000E-01;664;  0.0000000E+00;  0.0000000E+00;  0.0000000E+00;  1.0000000E+03;  1.0000000E-01;  0.0000000E+00;0;  0.0000000E+00;  0.0000000E+00;  0.0000000E+00;0;  3.8828038E-02;  4.0000000E+04;  0.0000000E+00;  0.0000000E+00;  4.0000000E+04;  0.0000000E+00;  4.0000000E+04;  3.9128430E-02;  0.0000000E+00; -3.0039198E-04;  6.4484124E+00;
 -1.3000000E-01;  9.9999998E-03; -1.5000001E-01;665;  0.0000000E+00;  0.0000000E+00;  0.0000000E+00;  1.0000000E+03;  1.0000000E-01;  0.0000000E+00;0;  0.0000000E+00;  0.0000000E+00;  0.0000000E+00;0;  4.0274844E-02;  4.0000000E+04;  0.0000000E+00;  0.0000000E+00;  4.0000000E+04;  0.0000000E+00;  4.0000000E+04;  4.0596984E-02;  0.0000000E+00; -3.2214218E-04;  1.0854954E+01;
 -1.3000000E-01;  9.9999998E-03; -1.4000000E-01;666;  0.0000000E+00;  0.0000000E+00;  0.0000000E+00;  1.0000000E+03;  1.0000000E-01;  0.0000000E+00;0;  0.0000000E+00;  0.0000000E+00;  0.0000000E+00;0;  4.1389570E-02;  4.0000000E+04;  0.0000000E+00;  0.0000000E+00;  4.0000000E+04;  0.0000000E+00;  4.0000000E+04;  4.1711908E-02;  0.0000000E+00; -3.2233645E-04;  1.4266618E+01;
 -1.3000000E-01;  9.9999998E-03; -1.3000000E-01;667;  0.0000000E+00;  0.0000000E+00;  0.0000000E+00;  1.0000000E+03;  1.0000000E-01;  0.0000000E+00;0;  0.0000000E+00;  0.0000000E+00;  0.0000000E+00;0;  4.2235076E-02;  4.0000000E+04;  0.0000000E+00;  0.0000000E+00;  4.0000000E+04;  0.0000000E+00;  4.0000000E+04;  4.2542808E-02;  0.0000000E+00; -3.0772947E-04;  1.6679647E+01;
 -1.3000000E-01;  9.9999998E-03; -1.2000000E-01;668;  0.0000000E+00;  0.0000000E+00;  0.0000000E+00;  1.0000000E+03;  1.0000000E-01;  0.0000000E+00;0;  0.0000000E+00;  0.0000000E+00;  0.0000000E+00;0;  4.2876042E-02;  4.0000000E+04;  0.0000000E+00;  0.0000000E+00;  4.0000000E+04;  0.0000000E+00;  4.0000000E+04;  4.3161590E-02;  0.0000000E+00; -2.8554653E-04;  1.8194201E+01;
 -1.3000000E-01;  9.9999998E-03; -1.1000000E-01;669;  0.0000000E+00;  0.0000000E+00;  0.0000000E+00;  1.0000000E+03;  1.0000000E-01;  0.0000000E+00;0;  0.0000000E+00;  0.0000000E+00;  0.0000000E+00;0;  4.3370448E-02;  4.0000000E+04;  0.0000000E+00;  0.0000000E+00;  4.0000000E+04;  0.0000000E+00;  4.0000000E+04;  4.3632291E-02;  0.0000000E+00; -2.6184312E-04;  1.8975279E+01;
 -1.2000000E-01;  9.9999998E-03; -2.7000001E-01;744;  0.0000000E+00;  0.0000000E+00;  0.0000000E+00;  1.0000819E+03;  1.0000000E-01;  6.7849930E+01;0;  0.0000000E+00;  0.0000000E+00;  0.0000000E+00;0;  1.7468475E-02;  4.0000000E+04;  0.0000000E+00;  0.0000000E+00;  4.0000000E+04;  0.0000000E+00;  4.0000000E+04;  1.6333543E-02;  0.0000000E+00;  1.1349325E-03;  3.6260227E+01;
 -1.2000000E-01;  9.9999998E-03; -2.5999999E-01;745;  0.0000000E+00;  0.0000000E+00;  0.0000000E+00;  1.0000828E+03;  1.0000000E-01;  6.8640038E+01;0;  0.0000000E+00;  0.0000000E+00;  0.0000000E+00;0;  2.2516558E-02;  4.0000000E+04;  0.0000000E+00;  0.0000000E+00;  4.0000000E+04;  0.0000000E+00;  4.0000000E+04;  2.1401590E-02;  0.0000000E+00;  1.1149684E-03;  4.9414589E+01;
 -1.2000000E-01;  9.9999998E-03; -2.5000000E-01;746;  0.0000000E+00;  0.0000000E+00;  0.0000000E+00;  1.0000779E+03;  1.0000000E-01;  6.4492004E+01;0;  0.0000000E+00;  0.0000000E+00;  0.0000000E+00;0;  2.8277392E-02;  4.0000000E+04;  0.0000000E+00;  0.0000000E+00;  4.0000000E+04;  0.0000000E+00;  4.0000000E+04;  2.7232207E-02;  0.0000000E+00;  1.0451836E-03;  5.9644375E+01;
 -1.2000000E-01;  9.9999998E-03; -2.3999999E-01;747;  0.0000000E+00;  0.0000000E+00;  0.0000000E+00;  1.0000643E+03;  1.0000000E-01;  5.3331825E+01;0;  0.0000000E+00;  0.0000000E+00;  0.0000000E+00;0;  3.4620088E-02;  4.0000000E+04;  0.0000000E+00;  0.0000000E+00;  4.0000000E+04;  0.0000000E+00;  4.0000000E+04;  3.3696469E-02;  0.0000000E+00;  9.2361867E-04;  6.5603821E+01;
 -1.2000000E-01;  9.9999998E-03; -2.3000000E-01;748;  0.0000000E+00;  0.0000000E+00;  0.0000000E+00;  1.0000484E+03;  1.0000000E-01;  4.0097630E+01;0;  0.0000000E+00;  0.0000000E+00;  0.0000000E+00;0;  4.1356754E-02;  4.0000000E+04;  0.0000000E+00;  0.0000000E+00;  4.0000000E+04;  0.0000000E+00;  4.0000000E+04;  4.0604752E-02;  0.0000000E+00;  7.5200177E-04;  6.6537018E+01;
 -1.2000000E-01;  9.9999998E-03; -2.2000000E-01;749;  0.0000000E+00;  0.0000000E+00;  0.0000000E+00;  1.0000273E+03;  1.0000000E-01;  2.2616644E+01;0;  0.0000000E+00;  0.0000000E+00;  0.0000000E+00;0;  4.8260175E-02;  4.0000000E+04;  0.0000000E+00;  0.0000000E+00;  4.0000000E+04;  0.0000000E+00;  4.0000000E+04;  4.7723338E-02;  0.0000000E+00;  5.3683651E-04;  6.2383118E+01;
 -1.2000000E-01;  9.9999998E-03; -2.0999999E-01;750;  0.0000000E+00;  0.0000000E+00;  0.0000000E+00;  1.0000015E+03;  1.0000000E-01;  1.2839143E+00;0;  0.0000000E+00;  0.0000000E+00;  0.0000000E+00;0;  5.5087533E-02;  4.0000000E+04;  0.0000000E+00;  0.0000000E+00;  4.0000000E+04;  0.0000000E+00;  4.0000000E+04;  5.4797210E-02;  0.0000000E+00;  2.9032177E-04;  5.3738758E+01;
 -1.2000000E-01;  9.9999998E-03; -2.0000000E-01;751;  0.0000000E+00;  0.0000000E+00;  0.0000000E+00;  1.0000000E+03;  1.0000000E-01;  0.0000000E+00;0;  0.0000000E+00;  0.0000000E+00;  0.0000000E+00;0;  6.1606571E-02;  4.0000000E+04;  0.0000000E+00;  0.0000000E+00;  4.0000000E+04;  0.0000000E+00;  4.0000000E+04;  6.1576668E-02;  0.0000000E+00;  2.9901457E-05;  4.1697777E+01;
 -1.2000000E-01;  9.9999998E-03; -1.9000000E-01;752;  0.0000000E+00;  0.0000000E+00;  0.0000000E+00;  1.0000000E+03;  1.0000000E-01;  0.0000000E+00;0;  0.0000000E+00;  0.0000000E+00;  0.0000000E+00;0;  6.7619301E-02;  4.0000000E+04;  0.0000000E+00;  0.0000000E+00;  4.0000000E+04;  0.0000000E+00;  4.0000000E+04;  6.7842595E-02;  0.0000000E+00; -2.2329546E-04;  2.7601307E+01;
 -1.2000000E-01;  9.9999998E-03; -1.8000001E-01;753;  0.0000000E+00;  0.0000000E+00;  0.0000000E+00;  1.0000000E+03;  1.0000000E-01;  0.0000000E+00;0;  0.0000000E+00;  0.0000000E+00;  0.0000000E+00;0;  7.2980173E-02;  4.0000000E+04;  0.0000000E+00;  0.0000000E+00;  4.0000000E+04;  0.0000000E+00;  4.0000000E+04;  7.3428221E-02;  0.0000000E+00; -4.4804535E-04;  1.2799862E+01;
 -1.2000000E-01;  9.9999998E-03; -1.7000000E-01;754;  0.0000000E+00;  0.0000000E+00;  0.0000000E+00;  1.0000000E+03;  1.0000000E-01;  0.0000000E+00;0;  0.0000000E+00;  0.0000000E+00;  0.0000000E+00;0;  7.7605233E-02;  4.0000000E+04;  0.0000000E+00;  0.0000000E+00;  4.0000000E+04;  0.0000000E+00;  4.0000000E+04;  7.8232713E-02;  0.0000000E+00; -6.2748353E-04;  1.5249075E+00;
 -1.2000000E-01;  9.9999998E-03; -1.6000000E-01;755;  0.0000000E+00;  0.0000000E+00;  0.0000000E+00;  1.0000000E+03;  1.0000000E-01;  0.0000000E+00;0;  0.0000000E+00;  0.0000000E+00;  0.0000000E+00;0;  8.1473231E-02;  4.0000000E+04;  0.0000000E+00;  0.0000000E+00;  4.0000000E+04;  0.0000000E+00;  4.0000000E+04;  8.2224585E-02;  0.0000000E+00; -7.5135753E-04;  1.4457471E+01;
 -1.2000000E-01;  9.9999998E-03; -1.5000001E-01;756;  0.0000000E+00;  0.0000000E+00;  0.0000000E+00;  1.0000000E+03;  1.0000000E-01;  0.0000000E+00;0;  0.0000000E+00;  0.0000000E+00;  0.0000000E+00;0;  8.4617466E-02;  4.0000000E+04;  0.0000000E+00;  0.0000000E+00;  4.0000000E+04;  0.0000000E+00;  4.0000000E+04;  8.5435711E-02;  0.0000000E+00; -8.1824261E-04;  2.5454102E+01;
 -1.2000000E-01;  9.9999998E-03; -1.4000000E-01;757;  0.0000000E+00;  0.0000000E+00;  0.0000000E+00;  1.0000000E+03;  1.0000000E-01;  0.0000000E+00;0;  0.0000000E+00;  0.0000000E+00;  0.0000000E+00;0;  8.7112837E-02;  4.0000000E+04;  0.0000000E+00;  0.0000000E+00;  4.0000000E+04;  0.0000000E+00;  4.0000000E+04;  8.7947801E-02;  0.0000000E+00; -8.3496410E-04;  3.4165257E+01;
 -1.2000000E-01;  9.9999998E-03; -1.3000000E-01;758;  0.0000000E+00;  0.0000000E+00;  0.0000000E+00;  1.0000000E+03;  1.0000000E-01;  0.0000000E+00;0;  0.0000000E+00;  0.0000000E+00;  0.0000000E+00;0;  8.9059271E-02;  4.0000000E+04;  0.0000000E+00;  0.0000000E+00;  4.0000000E+04;  0.0000000E+00;  4.0000000E+04;  8.9873269E-02;  0.0000000E+00; -8.1400026E-04;  4.0524616E+01;
 -1.2000000E-01;  9.9999998E-03; -1.2000000E-01;759;  0.0000000E+00;  0.0000000E+00;  0.0000000E+00;  1.0000000E+03;  1.0000000E-01;  0.0000000E+00;0;  0.0000000E+00;  0.0000000E+00;  0.0000000E+00;0;  9.0565674E-02;  4.0000000E+04;  0.0000000E+00;  0.0000000E+00;  4.0000000E+04;  0.0000000E+00;  4.0000000E+04;  9.1335773E-02;  0.0000000E+00; -7.7009958E-04;  4.4700378E+01;
 -1.2000000E-01;  9.9999998E-03; -1.1000000E-01;760;  0.0000000E+00;  0.0000000E+00;  0.0000000E+00;  1.0000000E+03;  1.0000000E-01;  0.0000000E+00;0;  0.0000000E+00;  0.0000000E+00;  0.0000000E+00;0;  9.1735892E-02;  4.0000000E+04;  0.0000000E+00;  0.0000000E+00;  4.0000000E+04;  0.0000000E+00;  4.0000000E+04;  9.2452951E-02;  0.0000000E+00; -7.1705529E-04;  4.7025269E+01;
 -1.1000000E-01;  9.9999998E-03; -2.7000001E-01;835;  0.0000000E+00;  0.0000000E+00;  0.0000000E+00;  1.0001359E+03;  1.0000000E-01;  1.1258941E+02;0;  0.0000000E+00;  0.0000000E+00;  0.0000000E+00;0;  3.4901291E-02;  4.0000000E+04;  0.0000000E+00;  0.0000000E+00;  4.0000000E+04;  0.0000000E+00;  4.0000000E+04;  3.2422438E-02;  0.0000000E+00;  2.4788529E-03;  8.2707085E+01;
 -1.1000000E-01;  9.9999998E-03; -2.5999999E-01;836;  0.0000000E+00;  0.0000000E+00;  0.0000000E+00;  1.0001304E+03;  1.0000000E-01;  1.0804633E+02;0;  0.0000000E+00;  0.0000000E+00;  0.0000000E+00;0;  4.4073593E-02;  4.0000000E+04;  0.0000000E+00;  0.0000000E+00;  4.0000000E+04;  0.0000000E+00;  4.0000000E+04;  4.1691523E-02;  0.0000000E+00;  2.3820701E-03;  1.0764758E+02;
 -1.1000000E-01;  9.9999998E-03; -2.5000000E-01;837;  0.0000000E+00;  0.0000000E+00;  0.0000000E+00;  1.0001169E+03;  1.0000000E-01;  9.6787384E+01;0;  0.0000000E+00;  0.0000000E+00;  0.0000000E+00;0;  5.4352943E-02;  4.0000000E+04;  0.0000000E+00;  0.0000000E+00;  4.0000000E+04;  0.0000000E+00;  4.0000000E+04;  5.2172717E-02;  0.0000000E+00;  2.1802264E-03;  1.2661712E+02;
 -1.1000000E-01;  9.9999998E-03; -2.3999999E-01;838;  0.0000000E+00;  0.0000000E+00;  0.0000000E+00;  1.0000942E+03;  1.0000000E-01;  7.8022484E+01;0;  0.0000000E+00;  0.0000000E+00;  0.0000000E+00;0;  6.5506972E-02;  4.0000000E+04;  0.0000000E+00;  0.0000000E+00;  4.0000000E+04;  0.0000000E+00;  4.0000000E+04;  6.3629426E-02;  0.0000000E+00;  1.8775434E-03;  1.3723119E+02;
 -1.1000000E-01;  9.9999998E-03; -2.3000000E-01;839;  0.0000000E+00;  0.0000000E+00;  0.0000000E+00;  1.0000623E+03;  1.0000000E-01;  5.1554096E+01;0;  0.0000000E+00;  0.0000000E+00;  0.0000000E+00;0;  7.7226236E-02;  4.0000000E+04;  0.0000000E+00;  0.0000000E+00;  4.0000000E+04;  0.0000000E+00;  4.0000000E+04;  7.5741038E-02;  0.0000000E+00;  1.4851958E-03;  1.3814059E+02;
 -1.1000000E-01;  9.9999998E-03; -2.2000000E-01;840;  0.0000000E+00;  0.0000000E+00;  0.0000000E+00;  1.0000233E+03;  1.0000000E-01;  1.9258715E+01;0;  0.0000000E+00;  0.0000000E+00;  0.0000000E+00;0;  8.9151055E-02;  4.0000000E+04;  0.0000000E+00;  0.0000000E+00;  4.0000000E+04;  0.0000000E+00;  4.0000000E+04;  8.8129550E-02;  0.0000000E+00;  1.0215030E-03;  1.2920844E+02;
 -1.1000000E-01;  9.9999998E-03; -2.0999999E-01;841;  0.0000000E+00;  0.0000000E+00;  0.0000000E+00;  1.0000000E+03;  1.0000000E-01;  0.0000000E+00;0;  0.0000000E+00;  0.0000000E+00;  0.0000000E+00;0;  1.0090557E-01;  4.0000000E+04;  0.0000000E+00;  0.0000000E+00;  4.0000000E+04;  0.0000000E+00;  4.0000000E+04;  1.0039375E-01;  0.0000000E+00;  5.1181915E-04;  1.1147616E+02;
 -1.1000000E-01;  9.9999998E-03; -2.0000000E-01;842;  0.0000000E+00;  0.0000000E+00;  0.0000000E+00;  1.0000000E+03;  1.0000000E-01;  0.0000000E+00;0;  0.0000000E+00;  0.0000000E+00;  0.0000000E+00;0;  1.1213376E-01;  4.0000000E+04;  0.0000000E+00;  0.0000000E+00;  4.0000000E+04;  0.0000000E+00;  4.0000000E+04;  1.1214641E-01;  0.0000000E+00; -1.2654994E-05;  8.6933861E+01;
 -1.1000000E-01;  9.9999998E-03; -1.9000000E-01;843;  0.0000000E+00;  0.0000000E+00;  0.0000000E+00;  1.0000000E+03;  1.0000000E-01;  0.0000000E+00;0;  0.0000000E+00;  0.0000000E+00;  0.0000000E+00;0;  1.2253249E-01;  4.0000000E+04;  0.0000000E+00;  0.0000000E+00;  4.0000000E+04;  0.0000000E+00;  4.0000000E+04;  1.2304937E-01;  0.0000000E+00; -5.1688170E-04;  5.8129452E+01;
 -1.1000000E-01;  9.9999998E-03; -1.8000001E-01;844;  0.0000000E+00;  0.0000000E+00;  0.0000000E+00;  1.0000000E+03;  1.0000000E-01;  0.0000000E+00;0;  0.0000000E+00;  0.0000000E+00;  0.0000000E+00;0;  1.3187653E-01;  4.0000000E+04;  0.0000000E+00;  0.0000000E+00;  4.0000000E+04;  0.0000000E+00;  4.0000000E+04;  1.3284229E-01;  0.0000000E+00; -9.6575636E-04;  2.7715748E+01;
 -1.1000000E-01;  9.9999998E-03; -1.7000000E-01;845;  0.0000000E+00;  0.0000000E+00;  0.0000000E+00;  1.0000000E+03;  1.0000000E-01;  0.0000000E+00;0;  0.0000000E+00;  0.0000000E+00;  0.0000000E+00;0;  1.4003190E-01;  4.0000000E+04;  0.0000000E+00;  0.0000000E+00;  4.0000000E+04;  0.0000000E+00;  4.0000000E+04;  1.4136179E-01;  0.0000000E+00; -1.3298875E-03;  2.2892761E+00;
 -1.1000000E-01;  9.9999998E-03; -1.6000000E-01;846;  0.0000000E+00;  0.0000000E+00;  0.0000000E+00;  1.0000000E+03;  1.0000000E-01;  0.0000000E+00;0;  0.0000000E+00;  0.0000000E+00;  0.0000000E+00;0;  1.4695576E-01;  4.0000000E+04;  0.0000000E+00;  0.0000000E+00;  4.0000000E+04;  0.0000000E+00;  4.0000000E+04;  1.4854720E-01;  0.0000000E+00; -1.5914417E-03;  2.9028442E+01;
 -1.1000000E-01;  9.9999998E-03; -1.5000001E-01;847;  0.0000000E+00;  0.0000000E+00;  0.0000000E+00;  1.0000000E+03;  1.0000000E-01;  0.0000000E+00;0;  0.0000000E+00;  0.0000000E+00;  0.0000000E+00;0;  1.5268734E-01;  4.0000000E+04;  0.0000000E+00;  0.0000000E+00;  4.0000000E+04;  0.0000000E+00;  4.0000000E+04;  1.5443324E-01;  0.0000000E+00; -1.7459007E-03;  5.2182465E+01;
 -1.1000000E-01;  9.9999998E-03; -1.4000000E-01;848;  0.0000000E+00;  0.0000000E+00;  0.0000000E+00;  1.0000000E+03;  1.0000000E-01;  0.0000000E+00;0;  0.0000000E+00;  0.0000000E+00;  0.0000000E+00;0;  1.5732861E-01;  4.0000000E+04;  0.0000000E+00;  0.0000000E+00;  4.0000000E+04;  0.0000000E+00;  4.0000000E+04;  1.5913139E-01;  0.0000000E+00; -1.8027807E-03;  7.0799522E+01;
 -1.1000000E-01;  9.9999998E-03; -1.3000000E-01;849;  0.0000000E+00;  0.0000000E+00;  0.0000000E+00;  1.0000000E+03;  1.0000000E-01;  0.0000000E+00;0;  0.0000000E+00;  0.0000000E+00;  0.0000000E+00;0;  1.6102323E-01;  4.0000000E+04;  0.0000000E+00;  0.0000000E+00;  4.0000000E+04;  0.0000000E+00;  4.0000000E+04;  1.6280556E-01;  0.0000000E+00; -1.7823348E-03;  8.4683975E+01;
 -1.1000000E-01;  9.9999998E-03; -1.2000000E-01;850;  0.0000000E+00;  0.0000000E+00;  0.0000000E+00;  1.0000000E+03;  1.0000000E-01;  0.0000000E+00;0;  0.0000000E+00;  0.0000000E+00;  0.0000000E+00;0;  1.6393268E-01;  4.0000000E+04;  0.0000000E+00;  0.0000000E+00;  4.0000000E+04;  0.0000000E+00;  4.0000000E+04;  1.6564298E-01;  0.0000000E+00; -1.7102911E-03;  9.4087784E+01;
 -1.1000000E-01;  9.9999998E-03; -1.1000000E-01;851;  0.0000000E+00;  0.0000000E+00;  0.0000000E+00;  1.0000000E+03;  1.0000000E-01;  0.0000000E+00;0;  0.0000000E+00;  0.0000000E+00;  0.0000000E+00;0;  1.6621779E-01;  4.0000000E+04;  0.0000000E+00;  0.0000000E+00;  4.0000000E+04;  0.0000000E+00;  4.0000000E+04;  1.6783020E-01;  0.0000000E+00; -1.6124171E-03;  9.9599228E+01;
 -1.0000000E-01;  9.9999998E-03; -2.7000001E-01;926;  0.0000000E+00;  0.0000000E+00;  0.0000000E+00;  1.0001971E+03;  1.0000000E-01;  1.6335341E+02;0;  0.0000000E+00;  0.0000000E+00;  0.0000000E+00;0;  6.1806541E-02;  4.0000000E+04;  0.0000000E+00;  0.0000000E+00;  4.0000000E+04;  0.0000000E+00;  4.0000000E+04;  5.7068039E-02;  0.0000000E+00;  4.7385013E-03;  1.6765117E+02;
 -1.0000000E-01;  9.9999998E-03; -2.5999999E-01;927;  0.0000000E+00;  0.0000000E+00;  0.0000000E+00;  1.0001825E+03;  1.0000000E-01;  1.5120560E+02;0;  0.0000000E+00;  0.0000000E+00;  0.0000000E+00;0;  7.6783933E-02;  4.0000000E+04;  0.0000000E+00;  0.0000000E+00;  4.0000000E+04;  0.0000000E+00;  4.0000000E+04;  7.2307907E-02;  0.0000000E+00;  4.4760262E-03;  2.0970085E+02;
 -1.0000000E-01;  9.9999998E-03; -2.5000000E-01;928;  0.0000000E+00;  0.0000000E+00;  0.0000000E+00;  1.0001553E+03;  1.0000000E-01;  1.2868771E+02;0;  0.0000000E+00;  0.0000000E+00;  0.0000000E+00;0;  9.3332641E-02;  4.0000000E+04;  0.0000000E+00;  0.0000000E+00;  4.0000000E+04;  0.0000000E+00;  4.0000000E+04;  8.9312136E-02;  0.0000000E+00;  4.0205028E-03;  2.4065228E+02;
 -1.0000000E-01;  9.9999998E-03; -2.3999999E-01;929;  0.0000000E+00;  0.0000000E+00;  0.0000000E+00;  1.0001138E+03;  1.0000000E-01;  9.4318321E+01;0;  0.0000000E+00;  0.0000000E+00;  0.0000000E+00;0;  1.1108585E-01;  4.0000000E+04;  0.0000000E+00;  0.0000000E+00;  4.0000000E+04;  0.0000000E+00;  4.0000000E+04;  1.0769638E-01;  0.0000000E+00;  3.3894617E-03;  2.5673325E+02;
 -1.0000000E-01;  9.9999998E-03; -2.3000000E-01;930;  0.0000000E+00;  0.0000000E+00;  0.0000000E+00;  1.0000601E+03;  1.0000000E-01;  4.9776371E+01;0;  0.0000000E+00;  0.0000000E+00;  0.0000000E+00;0;  1.2957869E-01;  4.0000000E+04;  0.0000000E+00;  0.0000000E+00;  4.0000000E+04;  0.0000000E+00;  4.0000000E+04;  1.2696651E-01;  0.0000000E+00;  2.6121885E-03;  2.5586951E+02;
 -1.0000000E-01;  9.9999998E-03; -2.2000000E-01;931;  0.0000000E+00;  0.0000000E+00;  0.0000000E+00;  1.0000000E+03;  1.0000000E-01;  0.0000000E+00;0;  0.0000000E+00;  0.0000000E+00;  0.0000000E+00;0;  1.4828639E-01;  4.0000000E+04;  0.0000000E+00;  0.0000000E+00;  4.0000000E+04;  0.0000000E+00;  4.0000000E+04;  1.4655818E-01;  0.0000000E+00;  1.7282008E-03;  2.3793073E+02;
 -1.0000000E-01;  9.9999998E-03; -2.0999999E-01;932;  0.0000000E+00;  0.0000000E+00;  0.0000000E+00;  1.0000000E+03;  1.0000000E-01;  0.0000000E+00;0;  0.0000000E+00;  0.0000000E+00;  0.0000000E+00;0;  1.6666920E-01;  4.0000000E+04;  0.0000000E+00;  0.0000000E+00;  4.0000000E+04;  0.0000000E+00;  4.0000000E+04;  1.6588400E-01;  0.0000000E+00;  7.8520336E-04;  2.0467751E+02;
 -1.0000000E-01;  9.9999998E-03; -2.0000000E-01;933;  0.0000000E+00;  0.0000000E+00;  0.0000000E+00;  1.0000000E+03;  1.0000000E-01;  0.0000000E+00;0;  0.0000000E+00;  0.0000000E+00;  0.0000000E+00;0;  1.8422087E-01;  4.0000000E+04;  0.0000000E+00;  0.0000000E+00;  4.0000000E+04;  0.0000000E+00;  4.0000000E+04;  1.8438476E-01;  0.0000000E+00; -1.6389720E-04;  1.5942766E+02;
 -1.0000000E-01;  9.9999998E-03; -1.9000000E-01;934;  0.0000000E+00;  0.0000000E+00;  0.0000000E+00;  1.0000000E+03;  1.0000000E-01;  0.0000000E+00;0;  0.0000000E+00;  0.0000000E+00;  0.0000000E+00;0;  2.0051174E-01;  4.0000000E+04;  0.0000000E+00;  0.0000000E+00;  4.0000000E+04;  0.0000000E+00;  4.0000000E+04;  2.0157613E-01;  0.0000000E+00; -1.0643832E-03;  1.0650058E+02;
 -1.0000000E-01;  9.9999998E-03; -1.8000001E-01;935;  0.0000000E+00;  0.0000000E+00;  0.0000000E+00;  1.0000000E+03;  1.0000000E-01;  0.0000000E+00;0;  0.0000000E+00;  0.0000000E+00;  0.0000000E+00;0;  2.1522081E-01;  4.0000000E+04;  0.0000000E+00;  0.0000000E+00;  4.0000000E+04;  0.0000000E+00;  4.0000000E+04;  2.1708475E-01;  0.0000000E+00; -1.8639368E-03;  5.0548531E+01;
 -1.0000000E-01;  9.9999998E-03; -1.7000000E-01;936;  0.0000000E+00;  0.0000000E+00;  0.0000000E+00;  1.0000000E+03;  1.0000000E-01;  0.0000000E+00;0;  0.0000000E+00;  0.0000000E+00;  0.0000000E+00;0;  2.2815509E-01;  4.0000000E+04;  0.0000000E+00;  0.0000000E+00;  4.0000000E+04;  0.0000000E+00;  4.0000000E+04;  2.3067345E-01;  0.0000000E+00; -2.5183498E-03;  5.6225367E+00;
 -1.0000000E-01;  9.9999998E-03; -1.6000000E-01;937;  0.0000000E+00;  0.0000000E+00;  0.0000000E+00;  1.0000000E+03;  1.0000000E-01;  0.0000000E+00;0;  0.0000000E+00;  0.0000000E+00;  0.0000000E+00;0;  2.3924795E-01;  4.0000000E+04;  0.0000000E+00;  0.0000000E+00;  4.0000000E+04;  0.0000000E+00;  4.0000000E+04;  2.4224693E-01;  0.0000000E+00; -2.9989805E-03;  5.4799839E+01;
 -1.0000000E-01;  9.9999998E-03; -1.5000001E-01;938;  0.0000000E+00;  0.0000000E+00;  0.0000000E+00;  1.0000000E+03;  1.0000000E-01;  0.0000000E+00;0;  0.0000000E+00;  0.0000000E+00;  0.0000000E+00;0;  2.4854584E-01;  4.0000000E+04;  0.0000000E+00;  0.0000000E+00;  4.0000000E+04;  0.0000000E+00;  4.0000000E+04;  2.5184408E-01;  0.0000000E+00; -3.2982400E-03;  9.8076523E+01;
 -1.0000000E-01;  9.9999998E-03; -1.4000000E-01;939;  0.0000000E+00;  0.0000000E+00;  0.0000000E+00;  1.0000000E+03;  1.0000000E-01;  0.0000000E+00;0;  0.0000000E+00;  0.0000000E+00;  0.0000000E+00;0;  2.5618389E-01;  4.0000000E+04;  0.0000000E+00;  0.0000000E+00;  4.0000000E+04;  0.0000000E+00;  4.0000000E+04;  2.5961286E-01;  0.0000000E+00; -3.4289653E-03;  1.3319681E+02;
 -1.0000000E-01;  9.9999998E-03; -1.3000000E-01;940;  0.0000000E+00;  0.0000000E+00;  0.0000000E+00;  1.0000000E+03;  1.0000000E-01;  0.0000000E+00;0;  0.0000000E+00;  0.0000000E+00;  0.0000000E+00;0;  2.6235595E-01;  4.0000000E+04;  0.0000000E+00;  0.0000000E+00;  4.0000000E+04;  0.0000000E+00;  4.0000000E+04;  2.6577759E-01;  0.0000000E+00; -3.4216279E-03;  1.5975449E+02;
 -1.0000000E-01;  9.9999998E-03; -1.2000000E-01;941;  0.0000000E+00;  0.0000000E+00;  0.0000000E+00;  1.0000000E+03;  1.0000000E-01;  0.0000000E+00;0;  0.0000000E+00;  0.0000000E+00;  0.0000000E+00;0;  2.6728585E-01;  4.0000000E+04;  0.0000000E+00;  0.0000000E+00;  4.0000000E+04;  0.0000000E+00;  4.0000000E+04;  2.7060279E-01;  0.0000000E+00; -3.3169468E-03;  1.7811720E+02;
 -1.0000000E-01;  9.9999998E-03; -1.1000000E-01;942;  0.0000000E+00;  0.0000000E+00;  0.0000000E+00;  1.0000000E+03;  1.0000000E-01;  0.0000000E+00;0;  0.0000000E+00;  0.0000000E+00;  0.0000000E+00;0;  2.7120060E-01;  4.0000000E+04;  0.0000000E+00;  0.0000000E+00;  4.0000000E+04;  0.0000000E+00;  4.0000000E+04;  2.7435818E-01;  0.0000000E+00; -3.1575728E-03;  1.8924922E+02;
 -9.0000004E-02;  9.9999998E-03; -2.7000001E-01;1017;  0.0000000E+00;  0.0000000E+00;  0.0000000E+00;  1.0002585E+03;  1.0000000E-01;  2.1411740E+02;0;  0.0000000E+00;  0.0000000E+00;  0.0000000E+00;0;  1.0029900E-01;  4.0000000E+04;  0.0000000E+00;  0.0000000E+00;  4.0000000E+04;  0.0000000E+00;  4.0000000E+04;  9.2093393E-02;  0.0000000E+00;  8.2056038E-03;  3.1054749E+02;
 -9.0000004E-02;  9.9999998E-03; -2.5999999E-01;1018;  0.0000000E+00;  0.0000000E+00;  0.0000000E+00;  1.0002321E+03;  1.0000000E-01;  1.9229086E+02;0;  0.0000000E+00;  0.0000000E+00;  0.0000000E+00;0;  1.2295614E-01;  4.0000000E+04;  0.0000000E+00;  0.0000000E+00;  4.0000000E+04;  0.0000000E+00;  4.0000000E+04;  1.1531033E-01;  0.0000000E+00;  7.6458161E-03;  3.7535788E+02;
 -9.0000004E-02;  9.9999998E-03; -2.5000000E-01;1019;  0.0000000E+00;  0.0000000E+00;  0.0000000E+00;  1.0001834E+03;  1.0000000E-01;  1.5199570E+02;0;  0.0000000E+00;  0.0000000E+00;  0.0000000E+00;0;  1.4770496E-01;  4.0000000E+04;  0.0000000E+00;  0.0000000E+00;  4.0000000E+04;  0.0000000E+00;  4.0000000E+04;  1.4094067E-01;  0.0000000E+00;  6.7642885E-03;  4.2095935E+02;
 -9.0000004E-02;  9.9999998E-03; -2.3999999E-01;1020;  0.0000000E+00;  0.0000000E+00;  0.0000000E+00;  1.0001163E+03;  1.0000000E-01;  9.6392334E+01;0;  0.0000000E+00;  0.0000000E+00;  0.0000000E+00;0;  1.7400938E-01;  4.0000000E+04;  0.0000000E+00;  0.0000000E+00;  4.0000000E+04;  0.0000000E+00;  4.0000000E+04;  1.6840799E-01;  0.0000000E+00;  5.6013940E-03;  4.4186581E+02;
 -9.0000004E-02;  9.9999998E-03; -2.3000000E-01;1021;  0.0000000E+00;  0.0000000E+00;  0.0000000E+00;  1.0000307E+03;  1.0000000E-01;  2.5480761E+01;0;  0.0000000E+00;  0.0000000E+00;  0.0000000E+00;0;  2.0121454E-01;  4.0000000E+04;  0.0000000E+00;  0.0000000E+00;  4.0000000E+04;  0.0000000E+00;  4.0000000E+04;  1.9699883E-01;  0.0000000E+00;  4.2156959E-03;  4.3524854E+02;
 -9.0000004E-02;  9.9999998E-03; -2.2000000E-01;1022;  0.0000000E+00;  0.0000000E+00;  0.0000000E+00;  1.0000000E+03;  1.0000000E-01;  0.0000000E+00;0;  0.0000000E+00;  0.0000000E+00;  0.0000000E+00;0;  2.2859536E-01;  4.0000000E+04;  0.0000000E+00;  0.0000000E+00;  4.0000000E+04;  0.0000000E+00;  4.0000000E+04;  2.2591533E-01;  0.0000000E+00;  2.6800325E-03;  4.0122925E+02;
 -9.0000004E-02;  9.9999998E-03; -2.0999999E-01;1023;  0.0000000E+00;  0.0000000E+00;  0.0000000E+00;  1.0000000E+03;  1.0000000E-01;  0.0000000E+00;0;  0.0000000E+00;  0.0000000E+00;  0.0000000E+00;0;  2.5541753E-01;  4.0000000E+04;  0.0000000E+00;  0.0000000E+00;  4.0000000E+04;  0.0000000E+00;  4.0000000E+04;  2.5434086E-01;  0.0000000E+00;  1.0766664E-03;  3.4275473E+02;
 -9.0000004E-02;  9.9999998E-03; -2.0000000E-01;1024;  0.0000000E+00;  0.0000000E+00;  0.0000000E+00;  1.0000000E+03;  1.0000000E-01;  0.0000000E+00;0;  0.0000000E+00;  0.0000000E+00;  0.0000000E+00;0;  2.8099847E-01;  4.0000000E+04;  0.0000000E+00;  0.0000000E+00;  4.0000000E+04;  0.0000000E+00;  4.0000000E+04;  2.8150719E-01;  0.0000000E+00; -5.0872815E-04;  2.6509955E+02;
 -9.0000004E-02;  9.9999998E-03; -1.9000000E-01;1025;  0.0000000E+00;  0.0000000E+00;  0.0000000E+00;  1.0000000E+03;  1.0000000E-01;  0.0000000E+00;0;  0.0000000E+00;  0.0000000E+00;  0.0000000E+00;0;  3.0476144E-01;  4.0000000E+04;  0.0000000E+00;  0.0000000E+00;  4.0000000E+04;  0.0000000E+00;  4.0000000E+04;  3.0675465E-01;  0.0000000E+00; -1.9932189E-03;  1.7508844E+02;
 -9.0000004E-02;  9.9999998E-03; -1.8000001E-01;1026;  0.0000000E+00;  0.0000000E+00;  0.0000000E+00;  1.0000000E+03;  1.0000000E-01;  0.0000000E+00;0;  0.0000000E+00;  0.0000000E+00;  0.0000000E+00;0;  3.2627732E-01;  4.0000000E+04;  0.0000000E+00;  0.0000000E+00;  4.0000000E+04;  0.0000000E+00;  4.0000000E+04;  3.2957980E-01;  0.0000000E+00; -3.3024729E-03;  8.0218948E+01;
 -9.0000004E-02;  9.9999998E-03; -1.7000000E-01;1027;  0.0000000E+00;  0.0000000E+00;  0.0000000E+00;  1.0000000E+03;  1.0000000E-01;  0.0000000E+00;0;  0.0000000E+00;  0.0000000E+00;  0.0000000E+00;0;  3.4528664E-01;  4.0000000E+04;  0.0000000E+00;  0.0000000E+00;  4.0000000E+04;  0.0000000E+00;  4.0000000E+04;  3.4966296E-01;  0.0000000E+00; -4.3763169E-03;  1.5747306E+01;
 -9.0000004E-02;  9.9999998E-03; -1.6000000E-01;1028;  0.0000000E+00;  0.0000000E+00;  0.0000000E+00;  1.0000000E+03;  1.0000000E-01;  0.0000000E+00;0;  0.0000000E+00;  0.0000000E+00;  0.0000000E+00;0;  3.6170009E-01;  4.0000000E+04;  0.0000000E+00;  0.0000000E+00;  4.0000000E+04;  0.0000000E+00;  4.0000000E+04;  3.6687526E-01;  0.0000000E+00; -5.1751747E-03;  9.9389496E+01;
 -9.0000004E-02;  9.9999998E-03; -1.5000001E-01;1029;  0.0000000E+00;  0.0000000E+00;  0.0000000E+00;  1.0000000E+03;  1.0000000E-01;  0.0000000E+00;0;  0.0000000E+00;  0.0000000E+00;  0.0000000E+00;0;  3.7557787E-01;  4.0000000E+04;  0.0000000E+00;  0.0000000E+00;  4.0000000E+04;  0.0000000E+00;  4.0000000E+04;  3.8126579E-01;  0.0000000E+00; -5.6879148E-03;  1.7335196E+02;
 -9.0000004E-02;  9.9999998E-03; -1.4000000E-01;1030;  0.0000000E+00;  0.0000000E+00;  0.0000000E+00;  1.0000000E+03;  1.0000000E-01;  0.0000000E+00;0;  0.0000000E+00;  0.0000000E+00;  0.0000000E+00;0;  3.8709569E-01;  4.0000000E+04;  0.0000000E+00;  0.0000000E+00;  4.0000000E+04;  0.0000000E+00;  4.0000000E+04;  3.9302906E-01;  0.0000000E+00; -5.9333849E-03;  2.3367256E+02;
 -9.0000004E-02;  9.9999998E-03; -1.3000000E-01;1031;  0.0000000E+00;  0.0000000E+00;  0.0000000E+00;  1.0000000E+03;  1.0000000E-01;  0.0000000E+00;0;  0.0000000E+00;  0.0000000E+00;  0.0000000E+00;0;  3.9650923E-01;  4.0000000E+04;  0.0000000E+00;  0.0000000E+00;  4.0000000E+04;  0.0000000E+00;  4.0000000E+04;  4.0246472E-01;  0.0000000E+00; -5.9554977E-03;  2.7965509E+02;
 -9.0000004E-02;  9.9999998E-03; -1.2000000E-01;1032;  0.0000000E+00;  0.0000000E+00;  0.0000000E+00;  1.0000000E+03;  1.0000000E-01;  0.0000000E+00;0;  0.0000000E+00;  0.0000000E+00;  0.0000000E+00;0;  4.0411410E-01;  4.0000000E+04;  0.0000000E+00;  0.0000000E+00;  4.0000000E+04;  0.0000000E+00;  4.0000000E+04;  4.0992877E-01;  0.0000000E+00; -5.8146683E-03;  3.1185355E+02;
 -9.0000004E-02;  9.9999998E-03; -1.1000000E-01;1033;  0.0000000E+00;  0.0000000E+00;  0.0000000E+00;  1.0000000E+03;  1.0000000E-01;  0.0000000E+00;0;  0.0000000E+00;  0.0000000E+00;  0.0000000E+00;0;  4.1021368E-01;  4.0000000E+04;  0.0000000E+00;  0.0000000E+00;  4.0000000E+04;  0.0000000E+00;  4.0000000E+04;  4.1578969E-01;  0.0000000E+00; -5.5760238E-03;  3.3178580E+02;
 -7.9999998E-02;  9.9999998E-03; -2.7000001E-01;1108;  0.0000000E+00;  0.0000000E+00;  0.0000000E+00;  1.0003170E+03;  1.0000000E-01;  2.6260986E+02;0;  0.0000000E+00;  0.0000000E+00;  0.0000000E+00;0;  1.5223703E-01;  4.0000000E+04;  0.0000000E+00;  0.0000000E+00;  4.0000000E+04;  0.0000000E+00;  4.0000000E+04;  1.3908325E-01;  0.0000000E+00;  1.3153784E-02;  5.3509222E+02;
 -7.9999998E-02;  9.9999998E-03; -2.5999999E-01;1109;  0.0000000E+00;  0.0000000E+00;  0.0000000E+00;  1.0002672E+03;  1.0000000E-01;  2.2132707E+02;0;  0.0000000E+00;  0.0000000E+00;  0.0000000E+00;0;  1.8457381E-01;  4.0000000E+04;  0.0000000E+00;  0.0000000E+00;  4.0000000E+04;  0.0000000E+00;  4.0000000E+04;  1.7245510E-01;  0.0000000E+00;  1.2118715E-02;  6.2794440E+02;
 -7.9999998E-02;  9.9999998E-03; -2.5000000E-01;1110;  0.0000000E+00;  0.0000000E+00;  0.0000000E+00;  1.0001902E+03;  1.0000000E-01;  1.5762517E+02;0;  0.0000000E+00;  0.0000000E+00;  0.0000000E+00;0;  2.1955928E-01;  4.0000000E+04;  0.0000000E+00;  0.0000000E+00;  4.0000000E+04;  0.0000000E+00;  4.0000000E+04;  2.0897323E-01;  0.0000000E+00;  1.0586054E-02;  6.8939972E+02;
 -7.9999998E-02;  9.9999998E-03; -2.3999999E-01;1111;  0.0000000E+00;  0.0000000E+00;  0.0000000E+00;  1.0000848E+03;  1.0000000E-01;  7.0220238E+01;0;  0.0000000E+00;  0.0000000E+00;  0.0000000E+00;0;  2.5645295E-01;  4.0000000E+04;  0.0000000E+00;  0.0000000E+00;  4.0000000E+04;  0.0000000E+00;  4.0000000E+04;  2.4782211E-01;  0.0000000E+00;  8.6308550E-03;  7.1200488E+02;
 -7.9999998E-02;  9.9999998E-03; -2.3000000E-01;1112;  0.0000000E+00;  0.0000000E+00;  0.0000000E+00;  1.0000000E+03;  1.0000000E-01;  0.0000000E+00;0;  0.0000000E+00;  0.0000000E+00;  0.0000000E+00;0;  2.9437214E-01;  4.0000000E+04;  0.0000000E+00;  0.0000000E+00;  4.0000000E+04;  0.0000000E+00;  4.0000000E+04;  2.8801787E-01;  0.0000000E+00;  6.3542821E-03;  6.9231775E+02;
 -7.9999998E-02;  9.9999998E-03; -2.2000000E-01;1113;  0.0000000E+00;  0.0000000E+00;  0.0000000E+00;  1.0000000E+03;  1.0000000E-01;  0.0000000E+00;0;  0.0000000E+00;  0.0000000E+00;  0.0000000E+00;0;  3.3235735E-01;  4.0000000E+04;  0.0000000E+00;  0.0000000E+00;  4.0000000E+04;  0.0000000E+00;  4.0000000E+04;  3.2848039E-01;  0.0000000E+00;  3.8769452E-03;  6.3119427E+02;
 -7.9999998E-02;  9.9999998E-03; -2.0999999E-01;1114;  0.0000000E+00;  0.0000000E+00;  0.0000000E+00;  1.0000000E+03;  1.0000000E-01;  0.0000000E+00;0;  0.0000000E+00;  0.0000000E+00;  0.0000000E+00;0;  3.6944848E-01;  4.0000000E+04;  0.0000000E+00;  0.0000000E+00;  4.0000000E+04;  0.0000000E+00;  4.0000000E+04;  3.6811805E-01;  0.0000000E+00;  1.3304278E-03;  5.3350745E+02;
 -7.9999998E-02;  9.9999998E-03; -2.0000000E-01;1115;  0.0000000E+00;  0.0000000E+00;  0.0000000E+00;  1.0000000E+03;  1.0000000E-01;  0.0000000E+00;0;  0.0000000E+00;  0.0000000E+00;  0.0000000E+00;0;  4.0476099E-01;  4.0000000E+04;  0.0000000E+00;  0.0000000E+00;  4.0000000E+04;  0.0000000E+00;  4.0000000E+04;  4.0591386E-01;  0.0000000E+00; -1.1528685E-03;  4.0738629E+02;
 -7.9999998E-02;  9.9999998E-03; -1.9000000E-01;1116;  0.0000000E+00;  0.0000000E+00;  0.0000000E+00;  1.0000000E+03;  1.0000000E-01;  0.0000000E+00;0;  0.0000000E+00;  0.0000000E+00;  0.0000000E+00;0;  4.3755603E-01;  4.0000000E+04;  0.0000000E+00;  0.0000000E+00;  4.0000000E+04;  0.0000000E+00;  4.0000000E+04;  4.4100639E-01;  0.0000000E+00; -3.4503655E-03;  2.6313925E+02;
 -7.9999998E-02;  9.9999998E-03; -1.8000001E-01;1117;  0.0000000E+00;  0.0000000E+00;  0.0000000E+00;  1.0000000E+03;  1.0000000E-01;  0.0000000E+00;0;  0.0000000E+00;  0.0000000E+00;  0.0000000E+00;0;  4.6728665E-01;  4.0000000E+04;  0.0000000E+00;  0.0000000E+00;  4.0000000E+04;  0.0000000E+00;  4.0000000E+04;  4.7274527E-01;  0.0000000E+00; -5.4586264E-03;  1.1225105E+02;
 -7.9999998E-02;  9.9999998E-03; -1.7000000E-01;1118;  0.0000000E+00;  0.0000000E+00;  0.0000000E+00;  1.0000000E+03;  1.0000000E-01;  0.0000000E+00;0;  0.0000000E+00;  0.0000000E+00;  0.0000000E+00;0;  4.9362570E-01;  4.0000000E+04;  0.0000000E+00;  0.0000000E+00;  4.0000000E+04;  0.0000000E+00;  4.0000000E+04;  5.0072563E-01;  0.0000000E+00; -7.0999237E-03;  4.0861721E+01;
 -7.9999998E-02;  9.9999998E-03; -1.6000000E-01;1119;  0.0000000E+00;  0.0000000E+00;  0.0000000E+00;  1.0000000E+03;  1.0000000E-01;  0.0000000E+00;0;  0.0000000E+00;  0.0000000E+00;  0.0000000E+00;0;  5.1646626E-01;  4.0000000E+04;  0.0000000E+00;  0.0000000E+00;  4.0000000E+04;  0.0000000E+00;  4.0000000E+04;  5.2479303E-01;  0.0000000E+00; -8.3267409E-03;  1.7429260E+02;
 -7.9999998E-02;  9.9999998E-03; -1.5000001E-01;1120;  0.0000000E+00;  0.0000000E+00;  0.0000000E+00;  1.0000000E+03;  1.0000000E-01;  0.0000000E+00;0;  0.0000000E+00;  0.0000000E+00;  0.0000000E+00;0;  5.3589290E-01;  4.0000000E+04;  0.0000000E+00;  0.0000000E+00;  4.0000000E+04;  0.0000000E+00;  4.0000000E+04;  5.4502004E-01;  0.0000000E+00; -9.1271428E-03;  2.9196661E+02;
 -7.9999998E-02;  9.9999998E-03; -1.4000000E-01;1121;  0.0000000E+00;  0.0000000E+00;  0.0000000E+00;  1.0000000E+03;  1.0000000E-01;  0.0000000E+00;0;  0.0000000E+00;  0.0000000E+00;  0.0000000E+00;0;  5.5213708E-01;  4.0000000E+04;  0.0000000E+00;  0.0000000E+00;  4.0000000E+04;  0.0000000E+00;  4.0000000E+04;  5.6166679E-01;  0.0000000E+00; -9.5297210E-03;  3.8813684E+02;
 -7.9999998E-02;  9.9999998E-03; -1.3000000E-01;1122;  0.0000000E+00;  0.0000000E+00;  0.0000000E+00;  1.0000000E+03;  1.0000000E-01;  0.0000000E+00;0;  0.0000000E+00;  0.0000000E+00;  0.0000000E+00;0;  5.6552804E-01;  4.0000000E+04;  0.0000000E+00;  0.0000000E+00;  4.0000000E+04;  0.0000000E+00;  4.0000000E+04;  5.7512510E-01;  0.0000000E+00; -9.5970416E-03;  4.6168915E+02;
 -7.9999998E-02;  9.9999998E-03; -1.2000000E-01;1123;  0.0000000E+00;  0.0000000E+00;  0.0000000E+00;  1.0000000E+03;  1.0000000E-01;  0.0000000E+00;0;  0.0000000E+00;  0.0000000E+00;  0.0000000E+00;0;  5.7644457E-01;  4.0000000E+04;  0.0000000E+00;  0.0000000E+00;  4.0000000E+04;  0.0000000E+00;  4.0000000E+04;  5.8585948E-01;  0.0000000E+00; -9.4149224E-03;  5.1350983E+02;
 -7.9999998E-02;  9.9999998E-03; -1.1000000E-01;1124;  0.0000000E+00;  0.0000000E+00;  0.0000000E+00;  1.0000000E+03;  1.0000000E-01;  0.0000000E+00;0;  0.0000000E+00;  0.0000000E+00;  0.0000000E+00;0;  5.8527720E-01;  4.0000000E+04;  0.0000000E+00;  0.0000000E+00;  4.0000000E+04;  0.0000000E+00;  4.0000000E+04;  5.9435439E-01;  0.0000000E+00; -9.0771718E-03;  5.4592786E+02;
 -7.0000000E-02;  9.9999998E-03; -2.7000001E-01;1199;  0.0000000E+00;  0.0000000E+00;  0.0000000E+00;  1.0003568E+03;  1.0000000E-01;  2.9559659E+02;0;  0.0000000E+00;  0.0000000E+00;  0.0000000E+00;0;  2.1886264E-01;  4.0000000E+04;  0.0000000E+00;  0.0000000E+00;  4.0000000E+04;  0.0000000E+00;  4.0000000E+04;  1.9906472E-01;  0.0000000E+00;  1.9797927E-02;  8.6798425E+02;
 -7.0000000E-02;  9.9999998E-03; -2.5999999E-01;1200;  0.0000000E+00;  0.0000000E+00;  0.0000000E+00;  1.0002755E+03;  1.0000000E-01;  2.2824046E+02;0;  0.0000000E+00;  0.0000000E+00;  0.0000000E+00;0;  2.6287073E-01;  4.0000000E+04;  0.0000000E+00;  0.0000000E+00;  4.0000000E+04;  0.0000000E+00;  4.0000000E+04;  2.4480806E-01;  0.0000000E+00;  1.8062666E-02;  9.9289343E+02;
 -7.0000000E-02;  9.9999998E-03; -2.5000000E-01;1201;  0.0000000E+00;  0.0000000E+00;  0.0000000E+00;  1.0001585E+03;  1.0000000E-01;  1.3135431E+02;0;  0.0000000E+00;  0.0000000E+00;  0.0000000E+00;0;  3.1009138E-01;  4.0000000E+04;  0.0000000E+00;  0.0000000E+00;  4.0000000E+04;  0.0000000E+00;  4.0000000E+04;  2.9448801E-01;  0.0000000E+00;  1.5603351E-02;  1.0688920E+03;
 -7.0000000E-02;  9.9999998E-03; -2.3999999E-01;1202;  0.0000000E+00;  0.0000000E+00;  0.0000000E+00;  1.0000057E+03;  1.0000000E-01;  4.7406068E+00;0;  0.0000000E+00;  0.0000000E+00;  0.0000000E+00;0;  3.5954356E-01;  4.0000000E+04;  0.0000000E+00;  0.0000000E+00;  4.0000000E+04;  0.0000000E+00;  4.0000000E+04;  3.4700000E-01;  0.0000000E+00;  1.2543560E-02;  1.0864470E+03;
 -7.0000000E-02;  9.9999998E-03; -2.3000000E-01;1203;  0.0000000E+00;  0.0000000E+00;  0.0000000E+00;  1.0000000E+03;  1.0000000E-01;  0.0000000E+00;0;  0.0000000E+00;  0.0000000E+00;  0.0000000E+00;0;  4.1008130E-01;  4.0000000E+04;  0.0000000E+00;  0.0000000E+00;  4.0000000E+04;  0.0000000E+00;  4.0000000E+04;  4.0103936E-01;  0.0000000E+00;  9.0419492E-03;  1.0418971E+03;
 -7.0000000E-02;  9.9999998E-03; -2.2000000E-01;1204;  0.0000000E+00;  0.0000000E+00;  0.0000000E+00;  1.0000000E+03;  1.0000000E-01;  0.0000000E+00;0;  0.0000000E+00;  0.0000000E+00;  0.0000000E+00;0;  4.6047574E-01;  4.0000000E+04;  0.0000000E+00;  0.0000000E+00;  4.0000000E+04;  0.0000000E+00;  4.0000000E+04;  4.5519298E-01;  0.0000000E+00;  5.2827508E-03;  9.3763373E+02;
 -7.0000000E-02;  9.9999998E-03; -2.0999999E-01;1205;  0.0000000E+00;  0.0000000E+00;  0.0000000E+00;  1.0000000E+03;  1.0000000E-01;  0.0000000E+00;0;  0.0000000E+00;  0.0000000E+00;  0.0000000E+00;0;  5.0951242E-01;  4.0000000E+04;  0.0000000E+00;  0.0000000E+00;  4.0000000E+04;  0.0000000E+00;  4.0000000E+04;  5.0804883E-01;  0.0000000E+00;  1.4635690E-03;  7.8153381E+02;
 -7.0000000E-02;  9.9999998E-03; -2.0000000E-01;1206;  0.0000000E+00;  0.0000000E+00;  0.0000000E+00;  1.0000000E+03;  1.0000000E-01;  0.0000000E+00;0;  0.0000000E+00;  0.0000000E+00;  0.0000000E+00;0;  5.5608630E-01;  4.0000000E+04;  0.0000000E+00;  0.0000000E+00;  4.0000000E+04;  0.0000000E+00;  4.0000000E+04;  5.5830646E-01;  0.0000000E+00; -2.2201659E-03;  5.8581195E+02;
 -7.0000000E-02;  9.9999998E-03; -1.9000000E-01;1207;  0.0000000E+00;  0.0000000E+00;  0.0000000E+00;  1.0000000E+03;  1.0000000E-01;  0.0000000E+00;0;  0.0000000E+00;  0.0000000E+00;  0.0000000E+00;0;  5.9928495E-01;  4.0000000E+04;  0.0000000E+00;  0.0000000E+00;  4.0000000E+04;  0.0000000E+00;  4.0000000E+04;  6.0487717E-01;  0.0000000E+00; -5.5922288E-03;  3.6555484E+02;
 -7.0000000E-02;  9.9999998E-03; -1.8000001E-01;1208;  0.0000000E+00;  0.0000000E+00;  0.0000000E+00;  1.0000000E+03;  1.0000000E-01;  0.0000000E+00;0;  0.0000000E+00;  0.0000000E+00;  0.0000000E+00;0;  6.3844466E-01;  4.0000000E+04;  0.0000000E+00;  0.0000000E+00;  4.0000000E+04;  0.0000000E+00;  4.0000000E+04;  6.4695543E-01;  0.0000000E+00; -8.5107479E-03;  1.3797983E+02;
 -7.0000000E-02;  9.9999998E-03; -1.7000000E-01;1209;  0.0000000E+00;  0.0000000E+00;  0.0000000E+00;  1.0000000E+03;  1.0000000E-01;  0.0000000E+00;0;  0.0000000E+00;  0.0000000E+00;  0.0000000E+00;0;  6.7317891E-01;  4.0000000E+04;  0.0000000E+00;  0.0000000E+00;  4.0000000E+04;  0.0000000E+00;  4.0000000E+04;  6.8405676E-01;  0.0000000E+00; -1.0877826E-02;  9.3804482E+01;
 -7.0000000E-02;  9.9999998E-03; -1.6000000E-01;1210;  0.0000000E+00;  0.0000000E+00;  0.0000000E+00;  1.0000000E+03;  1.0000000E-01;  0.0000000E+00;0;  0.0000000E+00;  0.0000000E+00;  0.0000000E+00;0;  7.0337504E-01;  4.0000000E+04;  0.0000000E+00;  0.0000000E+00;  4.0000000E+04;  0.0000000E+00;  4.0000000E+04;  7.1601743E-01;  0.0000000E+00; -1.2642412E-02;  2.9516690E+02;
 -7.0000000E-02;  9.9999998E-03; -1.5000001E-01;1211;  0.0000000E+00;  0.0000000E+00;  0.0000000E+00;  1.0000000E+03;  1.0000000E-01;  0.0000000E+00;0;  0.0000000E+00;  0.0000000E+00;  0.0000000E+00;0;  7.2915769E-01;  4.0000000E+04;  0.0000000E+00;  0.0000000E+00;  4.0000000E+04;  0.0000000E+00;  4.0000000E+04;  7.4295771E-01;  0.0000000E+00; -1.3799996E-02;  4.7164655E+02;
 -7.0000000E-02;  9.9999998E-03; -1.4000000E-01;1212;  0.0000000E+00;  0.0000000E+00;  0.0000000E+00;  1.0000000E+03;  1.0000000E-01;  0.0000000E+00;0;  0.0000000E+00;  0.0000000E+00;  0.0000000E+00;0;  7.5083166E-01;  4.0000000E+04;  0.0000000E+00;  0.0000000E+00;  4.0000000E+04;  0.0000000E+00;  4.0000000E+04;  7.6522648E-01;  0.0000000E+00; -1.4394812E-02;  6.1577319E+02;
 -7.0000000E-02;  9.9999998E-03; -1.3000000E-01;1213;  0.0000000E+00;  0.0000000E+00;  0.0000000E+00;  1.0000000E+03;  1.0000000E-01;  0.0000000E+00;0;  0.0000000E+00;  0.0000000E+00;  0.0000000E+00;0;  7.6881611E-01;  4.0000000E+04;  0.0000000E+00;  0.0000000E+00;  4.0000000E+04;  0.0000000E+00;  4.0000000E+04;  7.8333205E-01;  0.0000000E+00; -1.4515950E-02;  7.2591669E+02;
 -7.0000000E-02;  9.9999998E-03; -1.2000000E-01;1214;  0.0000000E+00;  0.0000000E+00;  0.0000000E+00;  1.0000000E+03;  1.0000000E-01;  0.0000000E+00;0;  0.0000000E+00;  0.0000000E+00;  0.0000000E+00;0;  7.8358603E-01;  4.0000000E+04;  0.0000000E+00;  0.0000000E+00;  4.0000000E+04;  0.0000000E+00;  4.0000000E+04;  7.9786754E-01;  0.0000000E+00; -1.4281516E-02;  8.0354773E+02;
 -7.0000000E-02;  9.9999998E-03; -1.1000000E-01;1215;  0.0000000E+00;  0.0000000E+00;  0.0000000E+00;  1.0000000E+03;  1.0000000E-01;  0.0000000E+00;0;  0.0000000E+00;  0.0000000E+00;  0.0000000E+00;0;  7.9562515E-01;  4.0000000E+04;  0.0000000E+00;  0.0000000E+00;  4.0000000E+04;  0.0000000E+00;  4.0000000E+04;  8.0944598E-01;  0.0000000E+00; -1.3820841E-02;  8.5218744E+02;
 -5.9999999E-02;  9.9999998E-03; -2.7000001E-01;1290;  0.0000000E+00;  0.0000000E+00;  0.0000000E+00;  1.0003647E+03;  1.0000000E-01;  3.0221368E+02;0;  0.0000000E+00;  0.0000000E+00;  0.0000000E+00;0;  3.0027124E-01;  4.0000000E+04;  0.0000000E+00;  0.0000000E+00;  4.0000000E+04;  0.0000000E+00;  4.0000000E+04;  2.7202299E-01;  0.0000000E+00;  2.8248254E-02;  1.3368622E+03;
 -5.9999999E-02;  9.9999998E-03; -2.5999999E-01;1291;  0.0000000E+00;  0.0000000E+00;  0.0000000E+00;  1.0002410E+03;  1.0000000E-01;  1.9959929E+02;0;  0.0000000E+00;  0.0000000E+00;  0.0000000E+00;0;  3.5770324E-01;  4.0000000E+04;  0.0000000E+00;  0.0000000E+00;  4.0000000E+04;  0.0000000E+00;  4.0000000E+04;  3.3215949E-01;  0.0000000E+00;  2.5543757E-02;  1.4955170E+03;
 -5.9999999E-02;  9.9999998E-03; -2.5000000E-01;1292;  0.0000000E+00;  0.0000000E+00;  0.0000000E+00;  1.0000703E+03;  1.0000000E-01;  5.8171196E+01;0;  0.0000000E+00;  0.0000000E+00;  0.0000000E+00;0;  4.1886994E-01;  4.0000000E+04;  0.0000000E+00;  0.0000000E+00;  4.0000000E+04;  0.0000000E+00;  4.0000000E+04;  3.9703032E-01;  0.0000000E+00;  2.1839617E-02;  1.5810847E+03;
 -5.9999999E-02;  9.9999998E-03; -2.3999999E-01;1293;  0.0000000E+00;  0.0000000E+00;  0.0000000E+00;  1.0000000E+03;  1.0000000E-01;  0.0000000E+00;0;  0.0000000E+00;  0.0000000E+00;  0.0000000E+00;0;  4.8251820E-01;  4.0000000E+04;  0.0000000E+00;  0.0000000E+00;  4.0000000E+04;  0.0000000E+00;  4.0000000E+04;  4.6519512E-01;  0.0000000E+00;  1.7323082E-02;  1.5820828E+03;
 -5.9999999E-02;  9.9999998E-03; -2.3000000E-01;1294;  0.0000000E+00;  0.0000000E+00;  0.0000000E+00;  1.0000000E+03;  1.0000000E-01;  0.0000000E+00;0;  0.0000000E+00;  0.0000000E+00;  0.0000000E+00;0;  5.4720622E-01;  4.0000000E+04;  0.0000000E+00;  0.0000000E+00;  4.0000000E+04;  0.0000000E+00;  4.0000000E+04;  5.3498071E-01;  0.0000000E+00;  1.2225489E-02;  1.4953695E+03;
 -5.9999999E-02;  9.9999998E-03; -2.2000000E-01;1295;  0.0000000E+00;  0.0000000E+00;  0.0000000E+00;  1.0000000E+03;  1.0000000E-01;  0.0000000E+00;0;  0.0000000E+00;  0.0000000E+00;  0.0000000E+00;0;  6.1140859E-01;  4.0000000E+04;  0.0000000E+00;  0.0000000E+00;  4.0000000E+04;  0.0000000E+00;  4.0000000E+04;  6.0459769E-01;  0.0000000E+00;  6.8109254E-03;  1.3260699E+03;
 -5.9999999E-02;  9.9999998E-03; -2.0999999E-01;1296;  0.0000000E+00;  0.0000000E+00;  0.0000000E+00;  1.0000000E+03;  1.0000000E-01;  0.0000000E+00;0;  0.0000000E+00;  0.0000000E+00;  0.0000000E+00;0;  6.7363471E-01;  4.0000000E+04;  0.0000000E+00;  0.0000000E+00;  4.0000000E+04;  0.0000000E+00;  4.0000000E+04;  6.7227417E-01;  0.0000000E+00;  1.3605376E-03;  1.0865403E+03;
 -5.9999999E-02;  9.9999998E-03; -2.0000000E-01;1297;  0.0000000E+00;  0.0000000E+00;  0.0000000E+00;  1.0000000E+03;  1.0000000E-01;  0.0000000E+00;0;  0.0000000E+00;  0.0000000E+00;  0.0000000E+00;0;  7.3255134E-01;  4.0000000E+04;  0.0000000E+00;  0.0000000E+00;  4.0000000E+04;  0.0000000E+00;  4.0000000E+04;  7.3640066E-01;  0.0000000E+00; -3.8493120E-03;  7.9468317E+02;
 -5.9999999E-02;  9.9999998E-03; -1.9000000E-01;1298;  0.0000000E+00;  0.0000000E+00;  0.0000000E+00;  1.0000000E+03;  1.0000000E-01;  0.0000000E+00;0;  0.0000000E+00;  0.0000000E+00;  0.0000000E+00;0;  7.8707433E-01;  4.0000000E+04;  0.0000000E+00;  0.0000000E+00;  4.0000000E+04;  0.0000000E+00;  4.0000000E+04;  7.9564708E-01;  0.0000000E+00; -8.5727498E-03;  4.7202118E+02;
 -5.9999999E-02;  9.9999998E-03; -1.8000001E-01;1299;  0.0000000E+00;  0.0000000E+00;  0.0000000E+00;  1.0000000E+03;  1.0000000E-01;  0.0000000E+00;0;  0.0000000E+00;  0.0000000E+00;  0.0000000E+00;0;  8.3643907E-01;  4.0000000E+04;  0.0000000E+00;  0.0000000E+00;  4.0000000E+04;  0.0000000E+00;  4.0000000E+04;  8.4905756E-01;  0.0000000E+00; -1.2618502E-02;  1.4492180E+02;
 -5.9999999E-02;  9.9999998E-03; -1.7000000E-01;1300;  0.0000000E+00;  0.0000000E+00;  0.0000000E+00;  1.0000000E+03;  1.0000000E-01;  0.0000000E+00;0;  0.0000000E+00;  0.0000000E+00;  0.0000000E+00;0;  8.8022071E-01;  4.0000000E+04;  0.0000000E+00;  0.0000000E+00;  4.0000000E+04;  0.0000000E+00;  4.0000000E+04;  8.9608580E-01;  0.0000000E+00; -1.5865110E-02;  1.9192171E+02;
 -5.9999999E-02;  9.9999998E-03; -1.6000000E-01;1301;  0.0000000E+00;  0.0000000E+00;  0.0000000E+00;  1.0000000E+03;  1.0000000E-01;  0.0000000E+00;0;  0.0000000E+00;  0.0000000E+00;  0.0000000E+00;0;  9.1832435E-01;  4.0000000E+04;  0.0000000E+00;  0.0000000E+00;  4.0000000E+04;  0.0000000E+00;  4.0000000E+04;  9.3658775E-01;  0.0000000E+00; -1.8263418E-02;  4.8140784E+02;
 -5.9999999E-02;  9.9999998E-03; -1.5000001E-01;1302;  0.0000000E+00;  0.0000000E+00;  0.0000000E+00;  1.0000000E+03;  1.0000000E-01;  0.0000000E+00;0;  0.0000000E+00;  0.0000000E+00;  0.0000000E+00;0;  9.5093596E-01;  4.0000000E+04;  0.0000000E+00;  0.0000000E+00;  4.0000000E+04;  0.0000000E+00;  4.0000000E+04;  9.7076458E-01;  0.0000000E+00; -1.9828642E-02;  7.3310010E+02;
 -5.9999999E-02;  9.9999998E-03; -1.4000000E-01;1303;  0.0000000E+00;  0.0000000E+00;  0.0000000E+00;  1.0000000E+03;  1.0000000E-01;  0.0000000E+00;0;  0.0000000E+00;  0.0000000E+00;  0.0000000E+00;0;  9.7845590E-01;  4.0000000E+04;  0.0000000E+00;  0.0000000E+00;  4.0000000E+04;  0.0000000E+00;  4.0000000E+04;  9.9908864E-01;  0.0000000E+00; -2.0632766E-02;  9.3781531E+02;
 -5.9999999E-02;  9.9999998E-03; -1.3000000E-01;1304;  0.0000000E+00;  0.0000000E+00;  0.0000000E+00;  1.0000000E+03;  1.0000000E-01;  0.0000000E+00;0;  0.0000000E+00;  0.0000000E+00;  0.0000000E+00;0;  1.0014071E+00;  4.0000000E+04;  0.0000000E+00;  0.0000000E+00;  4.0000000E+04;  0.0000000E+00;  4.0000000E+04;  1.0222077E+00;  0.0000000E+00; -2.0800641E-02;  1.0935968E+03;
 -5.9999999E-02;  9.9999998E-03; -1.2000000E-01;1305;  0.0000000E+00;  0.0000000E+00;  0.0000000E+00;  1.0000000E+03;  1.0000000E-01;  0.0000000E+00;0;  0.0000000E+00;  0.0000000E+00;  0.0000000E+00;0;  1.0203719E+00;  4.0000000E+04;  0.0000000E+00;  0.0000000E+00;  4.0000000E+04;  0.0000000E+00;  4.0000000E+04;  1.0408636E+00;  0.0000000E+00; -2.0491749E-02;  1.2028506E+03;
 -5.9999999E-02;  9.9999998E-03; -1.1000000E-01;1306;  0.0000000E+00;  0.0000000E+00;  0.0000000E+00;  1.0000000E+03;  1.0000000E-01;  0.0000000E+00;0;  0.0000000E+00;  0.0000000E+00;  0.0000000E+00;0;  1.0359328E+00;  4.0000000E+04;  0.0000000E+00;  0.0000000E+00;  4.0000000E+04;  0.0000000E+00;  4.0000000E+04;  1.0558107E+00;  0.0000000E+00; -1.9877886E-02;  1.2708284E+03;
 -5.0000001E-02;  9.9999998E-03; -2.7000001E-01;1381;  0.0000000E+00;  0.0000000E+00;  0.0000000E+00;  1.0003224E+03;  1.0000000E-01;  2.6715292E+02;0;  0.0000000E+00;  0.0000000E+00;  0.0000000E+00;0;  3.9480057E-01;  4.0000000E+04;  0.0000000E+00;  0.0000000E+00;  4.0000000E+04;  0.0000000E+00;  4.0000000E+04;  3.5633838E-01;  0.0000000E+00;  3.8462196E-02;  1.9675115E+03;
 -5.0000001E-02;  9.9999998E-03; -2.5999999E-01;1382;  0.0000000E+00;  0.0000000E+00;  0.0000000E+00;  1.0001440E+03;  1.0000000E-01;  1.1930527E+02;0;  0.0000000E+00;  0.0000000E+00;  0.0000000E+00;0;  4.6683061E-01;  4.0000000E+04;  0.0000000E+00;  0.0000000E+00;  4.0000000E+04;  0.0000000E+00;  4.0000000E+04;  4.3234885E-01;  0.0000000E+00;  3.4481775E-02;  2.1580762E+03;
 -5.0000001E-02;  9.9999998E-03; -2.5000000E-01;1383;  0.0000000E+00;  0.0000000E+00;  0.0000000E+00;  1.0000000E+03;  1.0000000E-01;  0.0000000E+00;0;  0.0000000E+00;  0.0000000E+00;  0.0000000E+00;0;  5.4300117E-01;  4.0000000E+04;  0.0000000E+00;  0.0000000E+00;  4.0000000E+04;  0.0000000E+00;  4.0000000E+04;  5.1381570E-01;  0.0000000E+00;  2.9185446E-02;  2.2433872E+03;
 -5.0000001E-02;  9.9999998E-03; -2.3999999E-01;1384;  0.0000000E+00;  0.0000000E+00;  0.0000000E+00;  1.0000000E+03;  1.0000000E-01;  0.0000000E+00;0;  0.0000000E+00;  0.0000000E+00;  0.0000000E+00;0;  6.2176573E-01;  4.0000000E+04;  0.0000000E+00;  0.0000000E+00;  4.0000000E+04;  0.0000000E+00;  4.0000000E+04;  5.9892631E-01;  0.0000000E+00;  2.2839451E-02;  2.2105232E+03;
 -5.0000001E-02;  9.9999998E-03; -2.3000000E-01;1385;  0.0000000E+00;  0.0000000E+00;  0.0000000E+00;  1.0000000E+03;  1.0000000E-01;  0.0000000E+00;0;  0.0000000E+00;  0.0000000E+00;  0.0000000E+00;0;  7.0136726E-01;  4.0000000E+04;  0.0000000E+00;  0.0000000E+00;  4.0000000E+04;  0.0000000E+00;  4.0000000E+04;  6.8560559E-01;  0.0000000E+00;  1.5761675E-02;  2.0580696E+03;
 -5.0000001E-02;  9.9999998E-03; -2.2000000E-01;1386;  0.0000000E+00;  0.0000000E+00;  0.0000000E+00;  1.0000000E+03;  1.0000000E-01;  0.0000000E+00;0;  0.0000000E+00;  0.0000000E+00;  0.0000000E+00;0;  7.7996910E-01;  4.0000000E+04;  0.0000000E+00;  0.0000000E+00;  4.0000000E+04;  0.0000000E+00;  4.0000000E+04;  7.7165836E-01;  0.0000000E+00;  8.3107594E-03;  1.7955398E+03;
 -5.0000001E-02;  9.9999998E-03; -2.0999999E-01;1387;  0.0000000E+00;  0.0000000E+00;  0.0000000E+00;  1.0000000E+03;  1.0000000E-01;  0.0000000E+00;0;  0.0000000E+00;  0.0000000E+00;  0.0000000E+00;0;  8.5580242E-01;  4.0000000E+04;  0.0000000E+00;  0.0000000E+00;  4.0000000E+04;  0.0000000E+00;  4.0000000E+04;  8.5493398E-01;  0.0000000E+00;  8.6843985E-04;  1.4416637E+03;
 -5.0000001E-02;  9.9999998E-03; -2.0000000E-01;1388;  0.0000000E+00;  0.0000000E+00;  0.0000000E+00;  1.0000000E+03;  1.0000000E-01;  0.0000000E+00;0;  0.0000000E+00;  0.0000000E+00;  0.0000000E+00;0;  9.2731524E-01;  4.0000000E+04;  0.0000000E+00;  0.0000000E+00;  4.0000000E+04;  0.0000000E+00;  4.0000000E+04;  9.3350458E-01;  0.0000000E+00; -6.1893663E-03;  1.0220005E+03;
 -5.0000001E-02;  9.9999998E-03; -1.9000000E-01;1389;  0.0000000E+00;  0.0000000E+00;  0.0000000E+00;  1.0000000E+03;  1.0000000E-01;  0.0000000E+00;0;  0.0000000E+00;  0.0000000E+00;  0.0000000E+00;0;  9.9327785E-01;  4.0000000E+04;  0.0000000E+00;  0.0000000E+00;  4.0000000E+04;  0.0000000E+00;  4.0000000E+04;  1.0058078E+00;  0.0000000E+00; -1.2529938E-02;  5.6659406E+02;
 -5.0000001E-02;  9.9999998E-03; -1.8000001E-01;1390;  0.0000000E+00;  0.0000000E+00;  0.0000000E+00;  1.0000000E+03;  1.0000000E-01;  0.0000000E+00;0;  0.0000000E+00;  0.0000000E+00;  0.0000000E+00;0;  1.0528595E+00;  4.0000000E+04;  0.0000000E+00;  0.0000000E+00;  4.0000000E+04;  0.0000000E+00;  4.0000000E+04;  1.0707603E+00;  0.0000000E+00; -1.7900763E-02;  1.2189411E+02;
 -5.0000001E-02;  9.9999998E-03; -1.7000000E-01;1391;  0.0000000E+00;  0.0000000E+00;  0.0000000E+00;  1.0000000E+03;  1.0000000E-01;  0.0000000E+00;0;  0.0000000E+00;  0.0000000E+00;  0.0000000E+00;0;  1.1056389E+00;  4.0000000E+04;  0.0000000E+00;  0.0000000E+00;  4.0000000E+04;  0.0000000E+00;  4.0000000E+04;  1.1277928E+00;  0.0000000E+00; -2.2153955E-02;  3.5635175E+02;
 -5.0000001E-02;  9.9999998E-03; -1.6000000E-01;1392;  0.0000000E+00;  0.0000000E+00;  0.0000000E+00;  1.0000000E+03;  1.0000000E-01;  0.0000000E+00;0;  0.0000000E+00;  0.0000000E+00;  0.0000000E+00;0;  1.1515760E+00;  4.0000000E+04;  0.0000000E+00;  0.0000000E+00;  4.0000000E+04;  0.0000000E+00;  4.0000000E+04;  1.1768253E+00;  0.0000000E+00; -2.5249209E-02;  7.5493781E+02;
 -5.0000001E-02;  9.9999998E-03; -1.5000001E-01;1393;  0.0000000E+00;  0.0000000E+00;  0.0000000E+00;  1.0000000E+03;  1.0000000E-01;  0.0000000E+00;0;  0.0000000E+00;  0.0000000E+00;  0.0000000E+00;0;  1.1909472E+00;  4.0000000E+04;  0.0000000E+00;  0.0000000E+00;  4.0000000E+04;  0.0000000E+00;  4.0000000E+04;  1.2181845E+00;  0.0000000E+00; -2.7237274E-02;  1.0982086E+03;
 -5.0000001E-02;  9.9999998E-03; -1.4000000E-01;1394;  0.0000000E+00;  0.0000000E+00;  0.0000000E+00;  1.0000000E+03;  1.0000000E-01;  0.0000000E+00;0;  0.0000000E+00;  0.0000000E+00;  0.0000000E+00;0;  1.2242632E+00;  4.0000000E+04;  0.0000000E+00;  0.0000000E+00;  4.0000000E+04;  0.0000000E+00;  4.0000000E+04;  1.2524993E+00;  0.0000000E+00; -2.8236169E-02;  1.3754025E+03;
 -5.0000001E-02;  9.9999998E-03; -1.3000000E-01;1395;  0.0000000E+00;  0.0000000E+00;  0.0000000E+00;  1.0000000E+03;  1.0000000E-01;  0.0000000E+00;0;  0.0000000E+00;  0.0000000E+00;  0.0000000E+00;0;  1.2521659E+00;  4.0000000E+04;  0.0000000E+00;  0.0000000E+00;  4.0000000E+04;  0.0000000E+00;  4.0000000E+04;  1.2805849E+00;  0.0000000E+00; -2.8419062E-02;  1.5846932E+03;
 -5.0000001E-02;  9.9999998E-03; -1.2000000E-01;1396;  0.0000000E+00;  0.0000000E+00;  0.0000000E+00;  1.0000000E+03;  1.0000000E-01;  0.0000000E+00;0;  0.0000000E+00;  0.0000000E+00;  0.0000000E+00;0;  1.2753465E+00;  4.0000000E+04;  0.0000000E+00;  0.0000000E+00;  4.0000000E+04;  0.0000000E+00;  4.0000000E+04;  1.3033435E+00;  0.0000000E+00; -2.7997037E-02;  1.7299780E+03;
 -5.0000001E-02;  9.9999998E-03; -1.1000000E-01;1397;  0.0000000E+00;  0.0000000E+00;  0.0000000E+00;  1.0000000E+03;  1.0000000E-01;  0.0000000E+00;0;  0.0000000E+00;  0.0000000E+00;  0.0000000E+00;0;  1.2944828E+00;  4.0000000E+04;  0.0000000E+00;  0.0000000E+00;  4.0000000E+04;  0.0000000E+00;  4.0000000E+04;  1.3216741E+00;  0.0000000E+00; -2.7191270E-02;  1.8189421E+03;
 -3.9999999E-02;  9.9999998E-03; -2.7000001E-01;1472;  0.0000000E+00;  0.0000000E+00;  0.0000000E+00;  1.0002126E+03;  1.0000000E-01;  1.7609378E+02;0;  0.0000000E+00;  0.0000000E+00;  0.0000000E+00;0;  4.9857718E-01;  4.0000000E+04;  0.0000000E+00;  0.0000000E+00;  4.0000000E+04;  0.0000000E+00;  4.0000000E+04;  4.4837925E-01;  0.0000000E+00;  5.0197944E-02;  2.7806143E+03;
 -3.9999999E-02;  9.9999998E-03; -2.5999999E-01;1473;  0.0000000E+00;  0.0000000E+00;  0.0000000E+00;  1.0000000E+03;  1.0000000E-01;  0.0000000E+00;0;  0.0000000E+00;  0.0000000E+00;  0.0000000E+00;0;  5.8538669E-01;  4.0000000E+04;  0.0000000E+00;  0.0000000E+00;  4.0000000E+04;  0.0000000E+00;  4.0000000E+04;  5.4077870E-01;  0.0000000E+00;  4.4607982E-02;  2.9963438E+03;
 -3.9999999E-02;  9.9999998E-03; -2.5000000E-01;1474;  0.0000000E+00;  0.0000000E+00;  0.0000000E+00;  1.0000000E+03;  1.0000000E-01;  0.0000000E+00;0;  0.0000000E+00;  0.0000000E+00;  0.0000000E+00;0;  6.7652488E-01;  4.0000000E+04;  0.0000000E+00;  0.0000000E+00;  4.0000000E+04;  0.0000000E+00;  4.0000000E+04;  6.3916236E-01;  0.0000000E+00;  3.7362486E-02;  3.0654961E+03;
 -3.9999999E-02;  9.9999998E-03; -2.3999999E-01;1475;  0.0000000E+00;  0.0000000E+00;  0.0000000E+00;  1.0000000E+03;  1.0000000E-01;  0.0000000E+00;0;  0.0000000E+00;  0.0000000E+00;  0.0000000E+00;0;  7.7014619E-01;  4.0000000E+04;  0.0000000E+00;  0.0000000E+00;  4.0000000E+04;  0.0000000E+00;  4.0000000E+04;  7.4132562E-01;  0.0000000E+00;  2.8820585E-02;  2.9748010E+03;
 -3.9999999E-02;  9.9999998E-03; -2.3000000E-01;1476;  0.0000000E+00;  0.0000000E+00;  0.0000000E+00;  1.0000000E+03;  1.0000000E-01;  0.0000000E+00;0;  0.0000000E+00;  0.0000000E+00;  0.0000000E+00;0;  8.6417991E-01;  4.0000000E+04;  0.0000000E+00;  0.0000000E+00;  4.0000000E+04;  0.0000000E+00;  4.0000000E+04;  8.4478289E-01;  0.0000000E+00;  1.9396998E-02;  2.7263694E+03;
 -3.9999999E-02;  9.9999998E-03; -2.2000000E-01;1477;  0.0000000E+00;  0.0000000E+00;  0.0000000E+00;  1.0000000E+03;  1.0000000E-01;  0.0000000E+00;0;  0.0000000E+00;  0.0000000E+00;  0.0000000E+00;0;  9.5648998E-01;  4.0000000E+04;  0.0000000E+00;  0.0000000E+00;  4.0000000E+04;  0.0000000E+00;  4.0000000E+04;  9.4693381E-01;  0.0000000E+00;  9.5561547E-03;  2.3362581E+03;
 -3.9999999E-02;  9.9999998E-03; -2.0999999E-01;1478;  0.0000000E+00;  0.0000000E+00;  0.0000000E+00;  1.0000000E+03;  1.0000000E-01;  0.0000000E+00;0;  0.0000000E+00;  0.0000000E+00;  0.0000000E+00;0;  1.0450592E+00;  4.0000000E+04;  0.0000000E+00;  0.0000000E+00;  4.0000000E+04;  0.0000000E+00;  4.0000000E+04;  1.0452640E+00;  0.0000000E+00; -2.0481386E-04;  1.8318501E+03;
 -3.9999999E-02;  9.9999998E-03; -2.0000000E-01;1479;  0.0000000E+00;  0.0000000E+00;  0.0000000E+00;  1.0000000E+03;  1.0000000E-01;  0.0000000E+00;0;  0.0000000E+00;  0.0000000E+00;  0.0000000E+00;0;  1.1281606E+00;  4.0000000E+04;  0.0000000E+00;  0.0000000E+00;  4.0000000E+04;  0.0000000E+00;  4.0000000E+04;  1.1375530E+00;  0.0000000E+00; -9.3923658E-03;  1.2486471E+03;
 -3.9999999E-02;  9.9999998E-03; -1.9000000E-01;1480;  0.0000000E+00;  0.0000000E+00;  0.0000000E+00;  1.0000000E+03;  1.0000000E-01;  0.0000000E+00;0;  0.0000000E+00;  0.0000000E+00;  0.0000000E+00;0;  1.2044772E+00;  4.0000000E+04;  0.0000000E+00;  0.0000000E+00;  4.0000000E+04;  0.0000000E+00;  4.0000000E+04;  1.2220466E+00;  0.0000000E+00; -1.7569480E-02;  6.2787518E+02;
 -3.9999999E-02;  9.9999998E-03; -1.8000001E-01;1481;  0.0000000E+00;  0.0000000E+00;  0.0000000E+00;  1.0000000E+03;  1.0000000E-01;  0.0000000E+00;0;  0.0000000E+00;  0.0000000E+00;  0.0000000E+00;0;  1.2731752E+00;  4.0000000E+04;  0.0000000E+00;  0.0000000E+00;  4.0000000E+04;  0.0000000E+00;  4.0000000E+04;  1.2975863E+00;  0.0000000E+00; -2.4411090E-02;  1.0556688E+02;
 -3.9999999E-02;  9.9999998E-03; -1.7000000E-01;1482;  0.0000000E+00;  0.0000000E+00;  0.0000000E+00;  1.0000000E+03;  1.0000000E-01;  0.0000000E+00;0;  0.0000000E+00;  0.0000000E+00;  0.0000000E+00;0;  1.3339021E+00;  4.0000000E+04;  0.0000000E+00;  0.0000000E+00;  4.0000000E+04;  0.0000000E+00;  4.0000000E+04;  1.3636439E+00;  0.0000000E+00; -2.9741824E-02;  6.1058374E+02;
 -3.9999999E-02;  9.9999998E-03; -1.6000000E-01;1483;  0.0000000E+00;  0.0000000E+00;  0.0000000E+00;  1.0000000E+03;  1.0000000E-01;  0.0000000E+00;0;  0.0000000E+00;  0.0000000E+00;  0.0000000E+00;0;  1.3867228E+00;  4.0000000E+04;  0.0000000E+00;  0.0000000E+00;  4.0000000E+04;  0.0000000E+00;  4.0000000E+04;  1.4202638E+00;  0.0000000E+00; -3.3540949E-02;  1.1381454E+03;
 -3.9999999E-02;  9.9999998E-03; -1.5000001E-01;1484;  0.0000000E+00;  0.0000000E+00;  0.0000000E+00;  1.0000000E+03;  1.0000000E-01;  0.0000000E+00;0;  0.0000000E+00;  0.0000000E+00;  0.0000000E+00;0;  1.4320349E+00;  4.0000000E+04;  0.0000000E+00;  0.0000000E+00;  4.0000000E+04;  0.0000000E+00;  4.0000000E+04;  1.4679489E+00;  0.0000000E+00; -3.5914104E-02;  1.5874338E+03;
 -3.9999999E-02;  9.9999998E-03; -1.4000000E-01;1485;  0.0000000E+00;  0.0000000E+00;  0.0000000E+00;  1.0000000E+03;  1.0000000E-01;  0.0000000E+00;0;  0.0000000E+00;  0.0000000E+00;  0.0000000E+00;0;  1.4704694E+00;  4.0000000E+04;  0.0000000E+00;  0.0000000E+00;  4.0000000E+04;  0.0000000E+00;  4.0000000E+04;  1.5075178E+00;  0.0000000E+00; -3.7048511E-02;  1.9465819E+03;
 -3.9999999E-02;  9.9999998E-03; -1.3000000E-01;1486;  0.0000000E+00;  0.0000000E+00;  0.0000000E+00;  1.0000000E+03;  1.0000000E-01;  0.0000000E+00;0;  0.0000000E+00;  0.0000000E+00;  0.0000000E+00;0;  1.5027881E+00;  4.0000000E+04;  0.0000000E+00;  0.0000000E+00;  4.0000000E+04;  0.0000000E+00;  4.0000000E+04;  1.5399703E+00;  0.0000000E+00; -3.7182227E-02;  2.2145828E+03;
 -3.9999999E-02;  9.9999998E-03; -1.2000000E-01;1487;  0.0000000E+00;  0.0000000E+00;  0.0000000E+00;  1.0000000E+03;  1.0000000E-01;  0.0000000E+00;0;  0.0000000E+00;  0.0000000E+00;  0.0000000E+00;0;  1.5297778E+00;  4.0000000E+04;  0.0000000E+00;  0.0000000E+00;  4.0000000E+04;  0.0000000E+00;  4.0000000E+04;  1.5663657E+00;  0.0000000E+00; -3.6588002E-02;  2.3976731E+03;
 -3.9999999E-02;  9.9999998E-03; -1.1000000E-01;1488;  0.0000000E+00;  0.0000000E+00;  0.0000000E+00;  1.0000000E+03;  1.0000000E-01;  0.0000000E+00;0;  0.0000000E+00;  0.0000000E+00;  0.0000000E+00;0;  1.5521969E+00;  4.0000000E+04;  0.0000000E+00;  0.0000000E+00;  4.0000000E+04;  0.0000000E+00;  4.0000000E+04;  1.5877392E+00;  0.0000000E+00; -3.5542406E-02;  2.5068750E+03;
 -2.9999999E-02;  9.9999998E-03; -2.7000001E-01;1563;  0.0000000E+00;  0.0000000E+00;  0.0000000E+00;  1.0000124E+03;  1.0000000E-01;  1.0271315E+01;0;  0.0000000E+00;  0.0000000E+00;  0.0000000E+00;0;  6.0554194E-01;  4.0000000E+04;  0.0000000E+00;  0.0000000E+00;  4.0000000E+04;  0.0000000E+00;  4.0000000E+04;  5.4256886E-01;  0.0000000E+00;  6.2973097E-02;  3.7881089E+03;
 -2.9999999E-02;  9.9999998E-03; -2.5999999E-01;1564;  0.0000000E+00;  0.0000000E+00;  0.0000000E+00;  1.0000000E+03;  1.0000000E-01;  0.0000000E+00;0;  0.0000000E+00;  0.0000000E+00;  0.0000000E+00;0;  7.0593309E-01;  4.0000000E+04;  0.0000000E+00;  0.0000000E+00;  4.0000000E+04;  0.0000000E+00;  4.0000000E+04;  6.5050519E-01;  0.0000000E+00;  5.5427924E-02;  4.0156453E+03;
 -2.9999999E-02;  9.9999998E-03; -2.5000000E-01;1565;  0.0000000E+00;  0.0000000E+00;  0.0000000E+00;  1.0000000E+03;  1.0000000E-01;  0.0000000E+00;0;  0.0000000E+00;  0.0000000E+00;  0.0000000E+00;0;  8.1049377E-01;  4.0000000E+04;  0.0000000E+00;  0.0000000E+00;  4.0000000E+04;  0.0000000E+00;  4.0000000E+04;  7.6460147E-01;  0.0000000E+00;  4.5892283E-02;  4.0453435E+03;
 -2.9999999E-02;  9.9999998E-03; -2.3999999E-01;1566;  0.0000000E+00;  0.0000000E+00;  0.0000000E+00;  1.0000000E+03;  1.0000000E-01;  0.0000000E+00;0;  0.0000000E+00;  0.0000000E+00;  0.0000000E+00;0;  9.1709763E-01;  4.0000000E+04;  0.0000000E+00;  0.0000000E+00;  4.0000000E+04;  0.0000000E+00;  4.0000000E+04;  8.8226962E-01;  0.0000000E+00;  3.4827981E-02;  3.8655452E+03;
 -2.9999999E-02;  9.9999998E-03; -2.3000000E-01;1567;  0.0000000E+00;  0.0000000E+00;  0.0000000E+00;  1.0000000E+03;  1.0000000E-01;  0.0000000E+00;0;  0.0000000E+00;  0.0000000E+00;  0.0000000E+00;0;  1.0233922E+00;  4.0000000E+04;  0.0000000E+00;  0.0000000E+00;  4.0000000E+04;  0.0000000E+00;  4.0000000E+04;  1.0006409E+00;  0.0000000E+00;  2.2751311E-02;  3.4843821E+03;
 -2.9999999E-02;  9.9999998E-03; -2.2000000E-01;1568;  0.0000000E+00;  0.0000000E+00;  0.0000000E+00;  1.0000000E+03;  1.0000000E-01;  0.0000000E+00;0;  0.0000000E+00;  0.0000000E+00;  0.0000000E+00;0;  1.1269989E+00;  4.0000000E+04;  0.0000000E+00;  0.0000000E+00;  4.0000000E+04;  0.0000000E+00;  4.0000000E+04;  1.1167608E+00;  0.0000000E+00;  1.0238109E-02;  2.9270791E+03;
 -2.9999999E-02;  9.9999998E-03; -2.0999999E-01;1569;  0.0000000E+00;  0.0000000E+00;  0.0000000E+00;  1.0000000E+03;  1.0000000E-01;  0.0000000E+00;0;  0.0000000E+00;  0.0000000E+00;  0.0000000E+00;0;  1.2257278E+00;  4.0000000E+04;  0.0000000E+00;  0.0000000E+00;  4.0000000E+04;  0.0000000E+00;  4.0000000E+04;  1.2278162E+00;  0.0000000E+00; -2.0883908E-03;  2.2322297E+03;
 -2.9999999E-02;  9.9999998E-03; -2.0000000E-01;1570;  0.0000000E+00;  0.0000000E+00;  0.0000000E+00;  1.0000000E+03;  1.0000000E-01;  0.0000000E+00;0;  0.0000000E+00;  0.0000000E+00;  0.0000000E+00;0;  1.3177676E+00;  4.0000000E+04;  0.0000000E+00;  0.0000000E+00;  4.0000000E+04;  0.0000000E+00;  4.0000000E+04;  1.3313690E+00;  0.0000000E+00; -1.3601450E-02;  1.4477659E+03;
 -2.9999999E-02;  9.9999998E-03; -1.9000000E-01;1571;  0.0000000E+00;  0.0000000E+00;  0.0000000E+00;  1.0000000E+03;  1.0000000E-01;  0.0000000E+00;0;  0.0000000E+00;  0.0000000E+00;  0.0000000E+00;0;  1.4018209E+00;  4.0000000E+04;  0.0000000E+00;  0.0000000E+00;  4.0000000E+04;  0.0000000E+00;  4.0000000E+04;  1.4255646E+00;  0.0000000E+00; -2.3743762E-02;  6.2988782E+02;
 -2.9999999E-02;  9.9999998E-03; -1.8000001E-01;1572;  0.0000000E+00;  0.0000000E+00;  0.0000000E+00;  1.0000000E+03;  1.0000000E-01;  0.0000000E+00;0;  0.0000000E+00;  0.0000000E+00;  0.0000000E+00;0;  1.4771568E+00;  4.0000000E+04;  0.0000000E+00;  0.0000000E+00;  4.0000000E+04;  0.0000000E+00;  4.0000000E+04;  1.5092654E+00;  0.0000000E+00; -3.2108709E-02;  2.4804654E+02;
 -2.9999999E-02;  9.9999998E-03; -1.7000000E-01;1573;  0.0000000E+00;  0.0000000E+00;  0.0000000E+00;  1.0000000E+03;  1.0000000E-01;  0.0000000E+00;0;  0.0000000E+00;  0.0000000E+00;  0.0000000E+00;0;  1.5435700E+00;  4.0000000E+04;  0.0000000E+00;  0.0000000E+00;  4.0000000E+04;  0.0000000E+00;  4.0000000E+04;  1.5820671E+00;  0.0000000E+00; -3.8497150E-02;  9.7841077E+02;
 -2.9999999E-02;  9.9999998E-03; -1.6000000E-01;1574;  0.0000000E+00;  0.0000000E+00;  0.0000000E+00;  1.0000000E+03;  1.0000000E-01;  0.0000000E+00;0;  0.0000000E+00;  0.0000000E+00;  0.0000000E+00;0;  1.6012857E+00;  4.0000000E+04;  0.0000000E+00;  0.0000000E+00;  4.0000000E+04;  0.0000000E+00;  4.0000000E+04;  1.6442101E+00;  0.0000000E+00; -4.2924460E-02;  1.6511658E+03;
 -2.9999999E-02;  9.9999998E-03; -1.5000001E-01;1575;  0.0000000E+00;  0.0000000E+00;  0.0000000E+00;  1.0000000E+03;  1.0000000E-01;  0.0000000E+00;0;  0.0000000E+00;  0.0000000E+00;  0.0000000E+00;0;  1.6508503E+00;  4.0000000E+04;  0.0000000E+00;  0.0000000E+00;  4.0000000E+04;  0.0000000E+00;  4.0000000E+04;  1.6964253E+00;  0.0000000E+00; -4.5575008E-02;  2.2166357E+03;
 -2.9999999E-02;  9.9999998E-03; -1.4000000E-01;1576;  0.0000000E+00;  0.0000000E+00;  0.0000000E+00;  1.0000000E+03;  1.0000000E-01;  0.0000000E+00;0;  0.0000000E+00;  0.0000000E+00;  0.0000000E+00;0;  1.6930097E+00;  4.0000000E+04;  0.0000000E+00;  0.0000000E+00;  4.0000000E+04;  0.0000000E+00;  4.0000000E+04;  1.7397406E+00;  0.0000000E+00; -4.6730924E-02;  2.6627432E+03;
 -2.9999999E-02;  9.9999998E-03; -1.3000000E-01;1577;  0.0000000E+00;  0.0000000E+00;  0.0000000E+00;  1.0000000E+03;  1.0000000E-01;  0.0000000E+00;0;  0.0000000E+00;  0.0000000E+00;  0.0000000E+00;0;  1.7286158E+00;  4.0000000E+04;  0.0000000E+00;  0.0000000E+00;  4.0000000E+04;  0.0000000E+00;  4.0000000E+04;  1.7753301E+00;  0.0000000E+00; -4.6714306E-02;  2.9903145E+03;
 -2.9999999E-02;  9.9999998E-03; -1.2000000E-01;1578;  0.0000000E+00;  0.0000000E+00;  0.0000000E+00;  1.0000000E+03;  1.0000000E-01;  0.0000000E+00;0;  0.0000000E+00;  0.0000000E+00;  0.0000000E+00;0;  1.7585233E+00;  4.0000000E+04;  0.0000000E+00;  0.0000000E+00;  4.0000000E+04;  0.0000000E+00;  4.0000000E+04;  1.8043916E+00;  0.0000000E+00; -4.5868289E-02;  3.2090979E+03;
 -2.9999999E-02;  9.9999998E-03; -1.1000000E-01;1579;  0.0000000E+00;  0.0000000E+00;  0.0000000E+00;  1.0000000E+03;  1.0000000E-01;  0.0000000E+00;0;  0.0000000E+00;  0.0000000E+00;  0.0000000E+00;0;  1.7835271E+00;  4.0000000E+04;  0.0000000E+00;  0.0000000E+00;  4.0000000E+04;  0.0000000E+00;  4.0000000E+04;  1.8280550E+00;  0.0000000E+00; -4.4527881E-02;  3.3344722E+03;
 -2.0000000E-02;  9.9999998E-03; -2.7000001E-01;1654;  0.0000000E+00;  0.0000000E+00;  0.0000000E+00;  1.0000000E+03;  1.0000000E-01;  0.0000000E+00;0;  0.0000000E+00;  0.0000000E+00;  0.0000000E+00;0;  7.0815301E-01;  4.0000000E+04;  0.0000000E+00;  0.0000000E+00;  4.0000000E+04;  0.0000000E+00;  4.0000000E+04;  6.3211995E-01;  0.0000000E+00;  7.6033086E-02;  4.9890049E+03;
 -2.0000000E-02;  9.9999998E-03; -2.5999999E-01;1655;  0.0000000E+00;  0.0000000E+00;  0.0000000E+00;  1.0000000E+03;  1.0000000E-01;  0.0000000E+00;0;  0.0000000E+00;  0.0000000E+00;  0.0000000E+00;0;  8.1931973E-01;  4.0000000E+04;  0.0000000E+00;  0.0000000E+00;  4.0000000E+04;  0.0000000E+00;  4.0000000E+04;  7.5312316E-01;  0.0000000E+00;  6.6196576E-02;  5.2061196E+03;
 -2.0000000E-02;  9.9999998E-03; -2.5000000E-01;1656;  0.0000000E+00;  0.0000000E+00;  0.0000000E+00;  1.0000000E+03;  1.0000000E-01;  0.0000000E+00;0;  0.0000000E+00;  0.0000000E+00;  0.0000000E+00;0;  9.3399918E-01;  4.0000000E+04;  0.0000000E+00;  0.0000000E+00;  4.0000000E+04;  0.0000000E+00;  4.0000000E+04;  8.7992311E-01;  0.0000000E+00;  5.4076072E-02;  5.1643169E+03;
 -2.0000000E-02;  9.9999998E-03; -2.3999999E-01;1657;  0.0000000E+00;  0.0000000E+00;  0.0000000E+00;  1.0000000E+03;  1.0000000E-01;  0.0000000E+00;0;  0.0000000E+00;  0.0000000E+00;  0.0000000E+00;0;  1.0498271E+00;  4.0000000E+04;  0.0000000E+00;  0.0000000E+00;  4.0000000E+04;  0.0000000E+00;  4.0000000E+04;  1.0095865E+00;  0.0000000E+00;  4.0240631E-02;  4.8566055E+03;
 -2.0000000E-02;  9.9999998E-03; -2.3000000E-01;1658;  0.0000000E+00;  0.0000000E+00;  0.0000000E+00;  1.0000000E+03;  1.0000000E-01;  0.0000000E+00;0;  0.0000000E+00;  0.0000000E+00;  0.0000000E+00;0;  1.1642503E+00;  4.0000000E+04;  0.0000000E+00;  0.0000000E+00;  4.0000000E+04;  0.0000000E+00;  4.0000000E+04;  1.1389432E+00;  0.0000000E+00;  2.5307072E-02;  4.3003101E+03;
 -2.0000000E-02;  9.9999998E-03; -2.2000000E-01;1659;  0.0000000E+00;  0.0000000E+00;  0.0000000E+00;  1.0000000E+03;  1.0000000E-01;  0.0000000E+00;0;  0.0000000E+00;  0.0000000E+00;  0.0000000E+00;0;  1.2747561E+00;  4.0000000E+04;  0.0000000E+00;  0.0000000E+00;  4.0000000E+04;  0.0000000E+00;  4.0000000E+04;  1.2647939E+00;  0.0000000E+00;  9.9622514E-03;  3.5327803E+03;
 -2.0000000E-02;  9.9999998E-03; -2.0999999E-01;1660;  0.0000000E+00;  0.0000000E+00;  0.0000000E+00;  1.0000000E+03;  1.0000000E-01;  0.0000000E+00;0;  0.0000000E+00;  0.0000000E+00;  0.0000000E+00;0;  1.3791230E+00;  4.0000000E+04;  0.0000000E+00;  0.0000000E+00;  4.0000000E+04;  0.0000000E+00;  4.0000000E+04;  1.3841636E+00;  0.0000000E+00; -5.0406181E-03;  2.6064980E+03;
 -2.0000000E-02;  9.9999998E-03; -2.0000000E-01;1661;  0.0000000E+00;  0.0000000E+00;  0.0000000E+00;  1.0000000E+03;  1.0000000E-01;  0.0000000E+00;0;  0.0000000E+00;  0.0000000E+00;  0.0000000E+00;0;  1.4756219E+00;  4.0000000E+04;  0.0000000E+00;  0.0000000E+00;  4.0000000E+04;  0.0000000E+00;  4.0000000E+04;  1.4945537E+00;  0.0000000E+00; -1.8931763E-02;  1.5843939E+03;
 -2.0000000E-02;  9.9999998E-03; -1.9000000E-01;1662;  0.0000000E+00;  0.0000000E+00;  0.0000000E+00;  1.0000000E+03;  1.0000000E-01;  0.0000000E+00;0;  0.0000000E+00;  0.0000000E+00;  0.0000000E+00;0;  1.5631381E+00;  4.0000000E+04;  0.0000000E+00;  0.0000000E+00;  4.0000000E+04;  0.0000000E+00;  4.0000000E+04;  1.5941608E+00;  0.0000000E+00; -3.1022703E-02;  5.4522125E+02;
 -2.0000000E-02;  9.9999998E-03; -1.8000001E-01;1663;  0.0000000E+00;  0.0000000E+00;  0.0000000E+00;  1.0000000E+03;  1.0000000E-01;  0.0000000E+00;0;  0.0000000E+00;  0.0000000E+00;  0.0000000E+00;0;  1.6411759E+00;  4.0000000E+04;  0.0000000E+00;  0.0000000E+00;  4.0000000E+04;  0.0000000E+00;  4.0000000E+04;  1.6819985E+00;  0.0000000E+00; -4.0822569E-02;  5.4945300E+02;
 -2.0000000E-02;  9.9999998E-03; -1.7000000E-01;1664;  0.0000000E+00;  0.0000000E+00;  0.0000000E+00;  1.0000000E+03;  1.0000000E-01;  0.0000000E+00;0;  0.0000000E+00;  0.0000000E+00;  0.0000000E+00;0;  1.7097777E+00;  4.0000000E+04;  0.0000000E+00;  0.0000000E+00;  4.0000000E+04;  0.0000000E+00;  4.0000000E+04;  1.7578983E+00;  0.0000000E+00; -4.8120610E-02;  1.4813501E+03;
 -2.0000000E-02;  9.9999998E-03; -1.6000000E-01;1665;  0.0000000E+00;  0.0000000E+00;  0.0000000E+00;  1.0000000E+03;  1.0000000E-01;  0.0000000E+00;0;  0.0000000E+00;  0.0000000E+00;  0.0000000E+00;0;  1.7693845E+00;  4.0000000E+04;  0.0000000E+00;  0.0000000E+00;  4.0000000E+04;  0.0000000E+00;  4.0000000E+04;  1.8223773E+00;  0.0000000E+00; -5.2992869E-02;  2.3086926E+03;
 -2.0000000E-02;  9.9999998E-03; -1.5000001E-01;1666;  0.0000000E+00;  0.0000000E+00;  0.0000000E+00;  1.0000000E+03;  1.0000000E-01;  0.0000000E+00;0;  0.0000000E+00;  0.0000000E+00;  0.0000000E+00;0;  1.8206824E+00;  4.0000000E+04;  0.0000000E+00;  0.0000000E+00;  4.0000000E+04;  0.0000000E+00;  4.0000000E+04;  1.8764136E+00;  0.0000000E+00; -5.5731136E-02;  2.9934976E+03;
 -2.0000000E-02;  9.9999998E-03; -1.4000000E-01;1667;  0.0000000E+00;  0.0000000E+00;  0.0000000E+00;  1.0000000E+03;  1.0000000E-01;  0.0000000E+00;0;  0.0000000E+00;  0.0000000E+00;  0.0000000E+00;0;  1.8644965E+00;  4.0000000E+04;  0.0000000E+00;  0.0000000E+00;  4.0000000E+04;  0.0000000E+00;  4.0000000E+04;  1.9212337E+00;  0.0000000E+00; -5.6737222E-02;  3.5248694E+03;
 -2.0000000E-02;  9.9999998E-03; -1.3000000E-01;1668;  0.0000000E+00;  0.0000000E+00;  0.0000000E+00;  1.0000000E+03;  1.0000000E-01;  0.0000000E+00;0;  0.0000000E+00;  0.0000000E+00;  0.0000000E+00;0;  1.9017121E+00;  4.0000000E+04;  0.0000000E+00;  0.0000000E+00;  4.0000000E+04;  0.0000000E+00;  4.0000000E+04;  1.9581468E+00;  0.0000000E+00; -5.6434758E-02;  3.9069023E+03;
 -2.0000000E-02;  9.9999998E-03; -1.2000000E-01;1669;  0.0000000E+00;  0.0000000E+00;  0.0000000E+00;  1.0000000E+03;  1.0000000E-01;  0.0000000E+00;0;  0.0000000E+00;  0.0000000E+00;  0.0000000E+00;0;  1.9331868E+00;  4.0000000E+04;  0.0000000E+00;  0.0000000E+00;  4.0000000E+04;  0.0000000E+00;  4.0000000E+04;  1.9884285E+00;  0.0000000E+00; -5.5241674E-02;  4.1542173E+03;
 -2.0000000E-02;  9.9999998E-03; -1.1000000E-01;1670;  0.0000000E+00;  0.0000000E+00;  0.0000000E+00;  1.0000000E+03;  1.0000000E-01;  0.0000000E+00;0;  0.0000000E+00;  0.0000000E+00;  0.0000000E+00;0;  1.9597038E+00;  4.0000000E+04;  0.0000000E+00;  0.0000000E+00;  4.0000000E+04;  0.0000000E+00;  4.0000000E+04;  2.0132542E+00;  0.0000000E+00; -5.3550411E-02;  4.2877144E+03;
 -9.9999998E-03;  9.9999998E-03; -2.7000001E-01;1745;  0.0000000E+00;  0.0000000E+00;  0.0000000E+00;  1.0000000E+03;  1.0000000E-01;  0.0000000E+00;0;  0.0000000E+00;  0.0000000E+00;  0.0000000E+00;0;  7.9835367E-01;  4.0000000E+04;  0.0000000E+00;  0.0000000E+00;  4.0000000E+04;  0.0000000E+00;  4.0000000E+04;  7.1000552E-01;  0.0000000E+00;  8.8348165E-02;  6.3642026E+03;
 -9.9999998E-03;  9.9999998E-03; -2.5999999E-01;1746;  0.0000000E+00;  0.0000000E+00;  0.0000000E+00;  1.0000000E+03;  1.0000000E-01;  0.0000000E+00;0;  0.0000000E+00;  0.0000000E+00;  0.0000000E+00;0;  9.1587698E-01;  4.0000000E+04;  0.0000000E+00;  0.0000000E+00;  4.0000000E+04;  0.0000000E+00;  4.0000000E+04;  8.3995402E-01;  0.0000000E+00;  7.5922981E-02;  6.5371729E+03;
 -9.9999998E-03;  9.9999998E-03; -2.5000000E-01;1747;  0.0000000E+00;  0.0000000E+00;  0.0000000E+00;  1.0000000E+03;  1.0000000E-01;  0.0000000E+00;0;  0.0000000E+00;  0.0000000E+00;  0.0000000E+00;0;  1.0355922E+00;  4.0000000E+04;  0.0000000E+00;  0.0000000E+00;  4.0000000E+04;  0.0000000E+00;  4.0000000E+04;  9.7459263E-01;  0.0000000E+00;  6.0999535E-02;  6.3820981E+03;
 -9.9999998E-03;  9.9999998E-03; -2.3999999E-01;1748;  0.0000000E+00;  0.0000000E+00;  0.0000000E+00;  1.0000000E+03;  1.0000000E-01;  0.0000000E+00;0;  0.0000000E+00;  0.0000000E+00;  0.0000000E+00;0;  1.1549733E+00;  4.0000000E+04;  0.0000000E+00;  0.0000000E+00;  4.0000000E+04;  0.0000000E+00;  4.0000000E+04;  1.1107162E+00;  0.0000000E+00;  4.4257097E-02;  5.9006929E+03;
 -9.9999998E-03;  9.9999998E-03; -2.3000000E-01;1749;  0.0000000E+00;  0.0000000E+00;  0.0000000E+00;  1.0000000E+03;  1.0000000E-01;  0.0000000E+00;0;  0.0000000E+00;  0.0000000E+00;  0.0000000E+00;0;  1.2713906E+00;  4.0000000E+04;  0.0000000E+00;  0.0000000E+00;  4.0000000E+04;  0.0000000E+00;  4.0000000E+04;  1.2449794E+00;  0.0000000E+00;  2.6411209E-02;  5.1231113E+03;
 -9.9999998E-03;  9.9999998E-03; -2.2000000E-01;1750;  0.0000000E+00;  0.0000000E+00;  0.0000000E+00;  1.0000000E+03;  1.0000000E-01;  0.0000000E+00;0;  0.0000000E+00;  0.0000000E+00;  0.0000000E+00;0;  1.3823879E+00;  4.0000000E+04;  0.0000000E+00;  0.0000000E+00;  4.0000000E+04;  0.0000000E+00;  4.0000000E+04;  1.3741329E+00;  0.0000000E+00;  8.2550589E-03;  4.1019233E+03;
 -9.9999998E-03;  9.9999998E-03; -2.0999999E-01;1751;  0.0000000E+00;  0.0000000E+00;  0.0000000E+00;  1.0000000E+03;  1.0000000E-01;  0.0000000E+00;0;  0.0000000E+00;  0.0000000E+00;  0.0000000E+00;0;  1.4859433E+00;  4.0000000E+04;  0.0000000E+00;  0.0000000E+00;  4.0000000E+04;  0.0000000E+00;  4.0000000E+04;  1.4952760E+00;  0.0000000E+00; -9.3326131E-03;  2.9060754E+03;
 -9.9999998E-03;  9.9999998E-03; -2.0000000E-01;1752;  0.0000000E+00;  0.0000000E+00;  0.0000000E+00;  1.0000000E+03;  1.0000000E-01;  0.0000000E+00;0;  0.0000000E+00;  0.0000000E+00;  0.0000000E+00;0;  1.5806519E+00;  4.0000000E+04;  0.0000000E+00;  0.0000000E+00;  4.0000000E+04;  0.0000000E+00;  4.0000000E+04;  1.6060932E+00;  0.0000000E+00; -2.5441259E-02;  1.6161477E+03;
 -9.9999998E-03;  9.9999998E-03; -1.9000000E-01;1753;  0.0000000E+00;  0.0000000E+00;  0.0000000E+00;  1.0000000E+03;  1.0000000E-01;  0.0000000E+00;0;  0.0000000E+00;  0.0000000E+00;  0.0000000E+00;0;  1.6658088E+00;  4.0000000E+04;  0.0000000E+00;  0.0000000E+00;  4.0000000E+04;  0.0000000E+00;  4.0000000E+04;  1.7050632E+00;  0.0000000E+00; -3.9254401E-02;  3.6344989E+02;
 -9.9999998E-03;  9.9999998E-03; -1.8000001E-01;1754;  0.0000000E+00;  0.0000000E+00;  0.0000000E+00;  1.0000000E+03;  1.0000000E-01;  0.0000000E+00;0;  0.0000000E+00;  0.0000000E+00;  0.0000000E+00;0;  1.7413334E+00;  4.0000000E+04;  0.0000000E+00;  0.0000000E+00;  4.0000000E+04;  0.0000000E+00;  4.0000000E+04;  1.7915418E+00;  0.0000000E+00; -5.0208449E-02;  1.0037540E+03;
 -9.9999998E-03;  9.9999998E-03; -1.7000000E-01;1755;  0.0000000E+00;  0.0000000E+00;  0.0000000E+00;  1.0000000E+03;  1.0000000E-01;  0.0000000E+00;0;  0.0000000E+00;  0.0000000E+00;  0.0000000E+00;0;  1.8076094E+00;  4.0000000E+04;  0.0000000E+00;  0.0000000E+00;  4.0000000E+04;  0.0000000E+00;  4.0000000E+04;  1.8657156E+00;  0.0000000E+00; -5.8106232E-02;  2.1351533E+03;
 -9.9999998E-03;  9.9999998E-03; -1.6000000E-01;1756;  0.0000000E+00;  0.0000000E+00;  0.0000000E+00;  1.0000000E+03;  1.0000000E-01;  0.0000000E+00;0;  0.0000000E+00;  0.0000000E+00;  0.0000000E+00;0;  1.8653022E+00;  4.0000000E+04;  0.0000000E+00;  0.0000000E+00;  4.0000000E+04;  0.0000000E+00;  4.0000000E+04;  1.9284205E+00;  0.0000000E+00; -6.3118286E-02;  3.1160356E+03;
 -9.9999998E-03;  9.9999998E-03; -1.5000001E-01;1757;  0.0000000E+00;  0.0000000E+00;  0.0000000E+00;  1.0000000E+03;  1.0000000E-01;  0.0000000E+00;0;  0.0000000E+00;  0.0000000E+00;  0.0000000E+00;0;  1.9151865E+00;  4.0000000E+04;  0.0000000E+00;  0.0000000E+00;  4.0000000E+04;  0.0000000E+00;  4.0000000E+04;  1.9808594E+00;  0.0000000E+00; -6.5672927E-02;  3.9134526E+03;
 -9.9999998E-03;  9.9999998E-03; -1.4000000E-01;1758;  0.0000000E+00;  0.0000000E+00;  0.0000000E+00;  1.0000000E+03;  1.0000000E-01;  0.0000000E+00;0;  0.0000000E+00;  0.0000000E+00;  0.0000000E+00;0;  1.9580801E+00;  4.0000000E+04;  0.0000000E+00;  0.0000000E+00;  4.0000000E+04;  0.0000000E+00;  4.0000000E+04;  2.0243897E+00;  0.0000000E+00; -6.6309646E-02;  4.5196221E+03;
 -9.9999998E-03;  9.9999998E-03; -1.3000000E-01;1759;  0.0000000E+00;  0.0000000E+00;  0.0000000E+00;  1.0000000E+03;  1.0000000E-01;  0.0000000E+00;0;  0.0000000E+00;  0.0000000E+00;  0.0000000E+00;0;  1.9948076E+00;  4.0000000E+04;  0.0000000E+00;  0.0000000E+00;  4.0000000E+04;  0.0000000E+00;  4.0000000E+04;  2.0603704E+00;  0.0000000E+00; -6.5562814E-02;  4.9436538E+03;
 -9.9999998E-03;  9.9999998E-03; -1.2000000E-01;1760;  0.0000000E+00;  0.0000000E+00;  0.0000000E+00;  1.0000000E+03;  1.0000000E-01;  0.0000000E+00;0;  0.0000000E+00;  0.0000000E+00;  0.0000000E+00;0;  2.0261512E+00;  4.0000000E+04;  0.0000000E+00;  0.0000000E+00;  4.0000000E+04;  0.0000000E+00;  4.0000000E+04;  2.0900748E+00;  0.0000000E+00; -6.3923538E-02;  5.2065518E+03;
 -9.9999998E-03;  9.9999998E-03; -1.1000000E-01;1761;  0.0000000E+00;  0.0000000E+00;  0.0000000E+00;  1.0000000E+03;  1.0000000E-01;  0.0000000E+00;0;  0.0000000E+00;  0.0000000E+00;  0.0000000E+00;0;  2.0528104E+00;  4.0000000E+04;  0.0000000E+00;  0.0000000E+00;  4.0000000E+04;  0.0000000E+00;  4.0000000E+04;  2.1146445E+00;  0.0000000E+00; -6.1834067E-02;  5.3358223E+03;
 -1.9000000E-01;  9.9999998E-03; -1.0000000E-01;124;  0.0000000E+00;  0.0000000E+00;  0.0000000E+00;  1.0000000E+03;  1.0000000E-01;  0.0000000E+00;0;  0.0000000E+00;  0.0000000E+00;  0.0000000E+00;0;  0.0000000E+00;  4.0000000E+04;  0.0000000E+00;  0.0000000E+00;  4.0000000E+04;  0.0000000E+00;  4.0000000E+04;  0.0000000E+00;  0.0000000E+00;  0.0000000E+00;  0.0000000E+00;
 -1.9000000E-01;  9.9999998E-03; -9.0000004E-02;125;  0.0000000E+00;  0.0000000E+00;  0.0000000E+00;  1.0000000E+03;  1.0000000E-01;  0.0000000E+00;0;  0.0000000E+00;  0.0000000E+00;  0.0000000E+00;0;  0.0000000E+00;  4.0000000E+04;  0.0000000E+00;  0.0000000E+00;  4.0000000E+04;  0.0000000E+00;  4.0000000E+04;  0.0000000E+00;  0.0000000E+00;  0.0000000E+00;  0.0000000E+00;
 -1.9000000E-01;  9.9999998E-03; -7.9999998E-02;126;  0.0000000E+00;  0.0000000E+00;  0.0000000E+00;  1.0000000E+03;  1.0000000E-01;  0.0000000E+00;0;  0.0000000E+00;  0.0000000E+00;  0.0000000E+00;0;  0.0000000E+00;  4.0000000E+04;  0.0000000E+00;  0.0000000E+00;  4.0000000E+04;  0.0000000E+00;  4.0000000E+04;  0.0000000E+00;  0.0000000E+00;  0.0000000E+00;  0.0000000E+00;
 -1.9000000E-01;  9.9999998E-03; -7.0000000E-02;127;  0.0000000E+00;  0.0000000E+00;  0.0000000E+00;  1.0000000E+03;  1.0000000E-01;  0.0000000E+00;0;  0.0000000E+00;  0.0000000E+00;  0.0000000E+00;0;  0.0000000E+00;  4.0000000E+04;  0.0000000E+00;  0.0000000E+00;  4.0000000E+04;  0.0000000E+00;  4.0000000E+04;  0.0000000E+00;  0.0000000E+00;  0.0000000E+00;  0.0000000E+00;
 -1.9000000E-01;  9.9999998E-03; -5.9999999E-02;128;  0.0000000E+00;  0.0000000E+00;  0.0000000E+00;  1.0000000E+03;  1.0000000E-01;  0.0000000E+00;0;  0.0000000E+00;  0.0000000E+00;  0.0000000E+00;0;  0.0000000E+00;  4.0000000E+04;  0.0000000E+00;  0.0000000E+00;  4.0000000E+04;  0.0000000E+00;  4.0000000E+04;  0.0000000E+00;  0.0000000E+00;  0.0000000E+00;  0.0000000E+00;
 -1.9000000E-01;  9.9999998E-03; -5.0000001E-02;129;  0.0000000E+00;  0.0000000E+00;  0.0000000E+00;  1.0000000E+03;  1.0000000E-01;  0.0000000E+00;0;  0.0000000E+00;  0.0000000E+00;  0.0000000E+00;0;  0.0000000E+00;  4.0000000E+04;  0.0000000E+00;  0.0000000E+00;  4.0000000E+04;  0.0000000E+00;  4.0000000E+04;  0.0000000E+00;  0.0000000E+00;  0.0000000E+00;  0.0000000E+00;
 -1.9000000E-01;  9.9999998E-03; -3.9999999E-02;130;  0.0000000E+00;  0.0000000E+00;  0.0000000E+00;  1.0000000E+03;  1.0000000E-01;  0.0000000E+00;0;  0.0000000E+00;  0.0000000E+00;  0.0000000E+00;0;  0.0000000E+00;  4.0000000E+04;  0.0000000E+00;  0.0000000E+00;  4.0000000E+04;  0.0000000E+00;  4.0000000E+04;  0.0000000E+00;  0.0000000E+00;  0.0000000E+00;  0.0000000E+00;
 -1.9000000E-01;  9.9999998E-03; -2.9999999E-02;131;  0.0000000E+00;  0.0000000E+00;  0.0000000E+00;  1.0000000E+03;  1.0000000E-01;  0.0000000E+00;0;  0.0000000E+00;  0.0000000E+00;  0.0000000E+00;0;  0.0000000E+00;  4.0000000E+04;  0.0000000E+00;  0.0000000E+00;  4.0000000E+04;  0.0000000E+00;  4.0000000E+04;  0.0000000E+00;  0.0000000E+00;  0.0000000E+00;  0.0000000E+00;
 -1.9000000E-01;  9.9999998E-03; -2.0000000E-02;132;  0.0000000E+00;  0.0000000E+00;  0.0000000E+00;  1.0000000E+03;  1.0000000E-01;  0.0000000E+00;0;  0.0000000E+00;  0.0000000E+00;  0.0000000E+00;0;  0.0000000E+00;  4.0000000E+04;  0.0000000E+00;  0.0000000E+00;  4.0000000E+04;  0.0000000E+00;  4.0000000E+04;  0.0000000E+00;  0.0000000E+00;  0.0000000E+00;  0.0000000E+00;
 -1.9000000E-01;  9.9999998E-03; -9.9999998E-03;133;  0.0000000E+00;  0.0000000E+00;  0.0000000E+00;  1.0000000E+03;  1.0000000E-01;  0.0000000E+00;0;  0.0000000E+00;  0.0000000E+00;  0.0000000E+00;0;  0.0000000E+00;  4.0000000E+04;  0.0000000E+00;  0.0000000E+00;  4.0000000E+04;  0.0000000E+00;  4.0000000E+04;  0.0000000E+00;  0.0000000E+00;  0.0000000E+00;  0.0000000E+00;
 -1.9000000E-01;  9.9999998E-03;  0.0000000E+00;134;  0.0000000E+00;  0.0000000E+00;  0.0000000E+00;  1.0000000E+03;  1.0000000E-01;  0.0000000E+00;0;  0.0000000E+00;  0.0000000E+00;  0.0000000E+00;0;  0.0000000E+00;  4.0000000E+04;  0.0000000E+00;  0.0000000E+00;  4.0000000E+04;  0.0000000E+00;  4.0000000E+04;  0.0000000E+00;  0.0000000E+00;  0.0000000E+00;  0.0000000E+00;
 -1.9000000E-01;  9.9999998E-03;  9.9999998E-03;135;  0.0000000E+00;  0.0000000E+00;  0.0000000E+00;  1.0000000E+03;  1.0000000E-01;  0.0000000E+00;0;  0.0000000E+00;  0.0000000E+00;  0.0000000E+00;0;  0.0000000E+00;  4.0000000E+04;  0.0000000E+00;  0.0000000E+00;  4.0000000E+04;  0.0000000E+00;  4.0000000E+04;  0.0000000E+00;  0.0000000E+00;  0.0000000E+00;  0.0000000E+00;
 -1.9000000E-01;  9.9999998E-03;  2.0000000E-02;136;  0.0000000E+00;  0.0000000E+00;  0.0000000E+00;  1.0000000E+03;  1.0000000E-01;  0.0000000E+00;0;  0.0000000E+00;  0.0000000E+00;  0.0000000E+00;0;  0.0000000E+00;  4.0000000E+04;  0.0000000E+00;  0.0000000E+00;  4.0000000E+04;  0.0000000E+00;  4.0000000E+04;  0.0000000E+00;  0.0000000E+00;  0.0000000E+00;  0.0000000E+00;
 -1.9000000E-01;  9.9999998E-03;  2.9999999E-02;137;  0.0000000E+00;  0.0000000E+00;  0.0000000E+00;  1.0000000E+03;  1.0000000E-01;  0.0000000E+00;0;  0.0000000E+00;  0.0000000E+00;  0.0000000E+00;0;  0.0000000E+00;  4.0000000E+04;  0.0000000E+00;  0.0000000E+00;  4.0000000E+04;  0.0000000E+00;  4.0000000E+04;  0.0000000E+00;  0.0000000E+00;  0.0000000E+00;  0.0000000E+00;
 -1.9000000E-01;  9.9999998E-03;  3.9999999E-02;138;  0.0000000E+00;  0.0000000E+00;  0.0000000E+00;  1.0000000E+03;  1.0000000E-01;  0.0000000E+00;0;  0.0000000E+00;  0.0000000E+00;  0.0000000E+00;0;  0.0000000E+00;  4.0000000E+04;  0.0000000E+00;  0.0000000E+00;  4.0000000E+04;  0.0000000E+00;  4.0000000E+04;  0.0000000E+00;  0.0000000E+00;  0.0000000E+00;  0.0000000E+00;
 -1.9000000E-01;  9.9999998E-03;  5.0000001E-02;139;  0.0000000E+00;  0.0000000E+00;  0.0000000E+00;  1.0000000E+03;  1.0000000E-01;  0.0000000E+00;0;  0.0000000E+00;  0.0000000E+00;  0.0000000E+00;0;  0.0000000E+00;  4.0000000E+04;  0.0000000E+00;  0.0000000E+00;  4.0000000E+04;  0.0000000E+00;  4.0000000E+04;  0.0000000E+00;  0.0000000E+00;  0.0000000E+00;  0.0000000E+00;
 -1.9000000E-01;  9.9999998E-03;  5.9999999E-02;140;  0.0000000E+00;  0.0000000E+00;  0.0000000E+00;  1.0000000E+03;  1.0000000E-01;  0.0000000E+00;0;  0.0000000E+00;  0.0000000E+00;  0.0000000E+00;0;  0.0000000E+00;  4.0000000E+04;  0.0000000E+00;  0.0000000E+00;  4.0000000E+04;  0.0000000E+00;  4.0000000E+04;  0.0000000E+00;  0.0000000E+00;  0.0000000E+00;  0.0000000E+00;
 -1.8000001E-01;  9.9999998E-03; -1.0000000E-01;215;  0.0000000E+00;  0.0000000E+00;  0.0000000E+00;  1.0000000E+03;  1.0000000E-01;  0.0000000E+00;0;  0.0000000E+00;  0.0000000E+00;  0.0000000E+00;0;  0.0000000E+00;  4.0000000E+04;  0.0000000E+00;  0.0000000E+00;  4.0000000E+04;  0.0000000E+00;  4.0000000E+04;  0.0000000E+00;  0.0000000E+00;  0.0000000E+00;  0.0000000E+00;
 -1.8000001E-01;  9.9999998E-03; -9.0000004E-02;216;  0.0000000E+00;  0.0000000E+00;  0.0000000E+00;  1.0000000E+03;  1.0000000E-01;  0.0000000E+00;0;  0.0000000E+00;  0.0000000E+00;  0.0000000E+00;0;  0.0000000E+00;  4.0000000E+04;  0.0000000E+00;  0.0000000E+00;  4.0000000E+04;  0.0000000E+00;  4.0000000E+04;  0.0000000E+00;  0.0000000E+00;  0.0000000E+00;  0.0000000E+00;
 -1.8000001E-01;  9.9999998E-03; -7.9999998E-02;217;  0.0000000E+00;  0.0000000E+00;  0.0000000E+00;  1.0000000E+03;  1.0000000E-01;  0.0000000E+00;0;  0.0000000E+00;  0.0000000E+00;  0.0000000E+00;0;  0.0000000E+00;  4.0000000E+04;  0.0000000E+00;  0.0000000E+00;  4.0000000E+04;  0.0000000E+00;  4.0000000E+04;  0.0000000E+00;  0.0000000E+00;  0.0000000E+00;  0.0000000E+00;
 -1.8000001E-01;  9.9999998E-03; -7.0000000E-02;218;  0.0000000E+00;  0.0000000E+00;  0.0000000E+00;  1.0000000E+03;  1.0000000E-01;  0.0000000E+00;0;  0.0000000E+00;  0.0000000E+00;  0.0000000E+00;0;  0.0000000E+00;  4.0000000E+04;  0.0000000E+00;  0.0000000E+00;  4.0000000E+04;  0.0000000E+00;  4.0000000E+04;  0.0000000E+00;  0.0000000E+00;  0.0000000E+00;  0.0000000E+00;
 -1.8000001E-01;  9.9999998E-03; -5.9999999E-02;219;  0.0000000E+00;  0.0000000E+00;  0.0000000E+00;  1.0000000E+03;  1.0000000E-01;  0.0000000E+00;0;  0.0000000E+00;  0.0000000E+00;  0.0000000E+00;0;  0.0000000E+00;  4.0000000E+04;  0.0000000E+00;  0.0000000E+00;  4.0000000E+04;  0.0000000E+00;  4.0000000E+04;  0.0000000E+00;  0.0000000E+00;  0.0000000E+00;  0.0000000E+00;
 -1.8000001E-01;  9.9999998E-03; -5.0000001E-02;220;  0.0000000E+00;  0.0000000E+00;  0.0000000E+00;  1.0000000E+03;  1.0000000E-01;  0.0000000E+00;0;  0.0000000E+00;  0.0000000E+00;  0.0000000E+00;0;  0.0000000E+00;  4.0000000E+04;  0.0000000E+00;  0.0000000E+00;  4.0000000E+04;  0.0000000E+00;  4.0000000E+04;  0.0000000E+00;  0.0000000E+00;  0.0000000E+00;  0.0000000E+00;
 -1.8000001E-01;  9.9999998E-03; -3.9999999E-02;221;  0.0000000E+00;  0.0000000E+00;  0.0000000E+00;  1.0000000E+03;  1.0000000E-01;  0.0000000E+00;0;  0.0000000E+00;  0.0000000E+00;  0.0000000E+00;0;  0.0000000E+00;  4.0000000E+04;  0.0000000E+00;  0.0000000E+00;  4.0000000E+04;  0.0000000E+00;  4.0000000E+04;  0.0000000E+00;  0.0000000E+00;  0.0000000E+00;  0.0000000E+00;
 -1.8000001E-01;  9.9999998E-03; -2.9999999E-02;222;  0.0000000E+00;  0.0000000E+00;  0.0000000E+00;  1.0000000E+03;  1.0000000E-01;  0.0000000E+00;0;  0.0000000E+00;  0.0000000E+00;  0.0000000E+00;0;  0.0000000E+00;  4.0000000E+04;  0.0000000E+00;  0.0000000E+00;  4.0000000E+04;  0.0000000E+00;  4.0000000E+04;  0.0000000E+00;  0.0000000E+00;  0.0000000E+00;  0.0000000E+00;
 -1.8000001E-01;  9.9999998E-03; -2.0000000E-02;223;  0.0000000E+00;  0.0000000E+00;  0.0000000E+00;  1.0000000E+03;  1.0000000E-01;  0.0000000E+00;0;  0.0000000E+00;  0.0000000E+00;  0.0000000E+00;0;  0.0000000E+00;  4.0000000E+04;  0.0000000E+00;  0.0000000E+00;  4.0000000E+04;  0.0000000E+00;  4.0000000E+04;  0.0000000E+00;  0.0000000E+00;  0.0000000E+00;  0.0000000E+00;
 -1.8000001E-01;  9.9999998E-03; -9.9999998E-03;224;  0.0000000E+00;  0.0000000E+00;  0.0000000E+00;  1.0000000E+03;  1.0000000E-01;  0.0000000E+00;0;  0.0000000E+00;  0.0000000E+00;  0.0000000E+00;0;  0.0000000E+00;  4.0000000E+04;  0.0000000E+00;  0.0000000E+00;  4.0000000E+04;  0.0000000E+00;  4.0000000E+04;  0.0000000E+00;  0.0000000E+00;  0.0000000E+00;  0.0000000E+00;
 -1.8000001E-01;  9.9999998E-03;  0.0000000E+00;225;  0.0000000E+00;  0.0000000E+00;  0.0000000E+00;  1.0000000E+03;  1.0000000E-01;  0.0000000E+00;0;  0.0000000E+00;  0.0000000E+00;  0.0000000E+00;0;  0.0000000E+00;  4.0000000E+04;  0.0000000E+00;  0.0000000E+00;  4.0000000E+04;  0.0000000E+00;  4.0000000E+04;  0.0000000E+00;  0.0000000E+00;  0.0000000E+00;  0.0000000E+00;
 -1.8000001E-01;  9.9999998E-03;  9.9999998E-03;226;  0.0000000E+00;  0.0000000E+00;  0.0000000E+00;  1.0000000E+03;  1.0000000E-01;  0.0000000E+00;0;  0.0000000E+00;  0.0000000E+00;  0.0000000E+00;0;  0.0000000E+00;  4.0000000E+04;  0.0000000E+00;  0.0000000E+00;  4.0000000E+04;  0.0000000E+00;  4.0000000E+04;  0.0000000E+00;  0.0000000E+00;  0.0000000E+00;  0.0000000E+00;
 -1.8000001E-01;  9.9999998E-03;  2.0000000E-02;227;  0.0000000E+00;  0.0000000E+00;  0.0000000E+00;  1.0000000E+03;  1.0000000E-01;  0.0000000E+00;0;  0.0000000E+00;  0.0000000E+00;  0.0000000E+00;0;  0.0000000E+00;  4.0000000E+04;  0.0000000E+00;  0.0000000E+00;  4.0000000E+04;  0.0000000E+00;  4.0000000E+04;  0.0000000E+00;  0.0000000E+00;  0.0000000E+00;  0.0000000E+00;
 -1.8000001E-01;  9.9999998E-03;  2.9999999E-02;228;  0.0000000E+00;  0.0000000E+00;  0.0000000E+00;  1.0000000E+03;  1.0000000E-01;  0.0000000E+00;0;  0.0000000E+00;  0.0000000E+00;  0.0000000E+00;0;  0.0000000E+00;  4.0000000E+04;  0.0000000E+00;  0.0000000E+00;  4.0000000E+04;  0.0000000E+00;  4.0000000E+04;  0.0000000E+00;  0.0000000E+00;  0.0000000E+00;  0.0000000E+00;
 -1.8000001E-01;  9.9999998E-03;  3.9999999E-02;229;  0.0000000E+00;  0.0000000E+00;  0.0000000E+00;  1.0000000E+03;  1.0000000E-01;  0.0000000E+00;0;  0.0000000E+00;  0.0000000E+00;  0.0000000E+00;0;  0.0000000E+00;  4.0000000E+04;  0.0000000E+00;  0.0000000E+00;  4.0000000E+04;  0.0000000E+00;  4.0000000E+04;  0.0000000E+00;  0.0000000E+00;  0.0000000E+00;  0.0000000E+00;
 -1.8000001E-01;  9.9999998E-03;  5.0000001E-02;230;  0.0000000E+00;  0.0000000E+00;  0.0000000E+00;  1.0000000E+03;  1.0000000E-01;  0.0000000E+00;0;  0.0000000E+00;  0.0000000E+00;  0.0000000E+00;0;  0.0000000E+00;  4.0000000E+04;  0.0000000E+00;  0.0000000E+00;  4.0000000E+04;  0.0000000E+00;  4.0000000E+04;  0.0000000E+00;  0.0000000E+00;  0.0000000E+00;  0.0000000E+00;
 -1.8000001E-01;  9.9999998E-03;  5.9999999E-02;231;  0.0000000E+00;  0.0000000E+00;  0.0000000E+00;  1.0000000E+03;  1.0000000E-01;  0.0000000E+00;0;  0.0000000E+00;  0.0000000E+00;  0.0000000E+00;0;  0.0000000E+00;  4.0000000E+04;  0.0000000E+00;  0.0000000E+00;  4.0000000E+04;  0.0000000E+00;  4.0000000E+04;  0.0000000E+00;  0.0000000E+00;  0.0000000E+00;  0.0000000E+00;
 -1.7000000E-01;  9.9999998E-03; -1.0000000E-01;306;  0.0000000E+00;  0.0000000E+00;  0.0000000E+00;  1.0000000E+03;  1.0000000E-01;  0.0000000E+00;0;  0.0000000E+00;  0.0000000E+00;  0.0000000E+00;0;  0.0000000E+00;  4.0000000E+04;  0.0000000E+00;  0.0000000E+00;  4.0000000E+04;  0.0000000E+00;  4.0000000E+04;  0.0000000E+00;  0.0000000E+00;  0.0000000E+00;  1.9801023E-09;
 -1.7000000E-01;  9.9999998E-03; -9.0000004E-02;307;  0.0000000E+00;  0.0000000E+00;  0.0000000E+00;  1.0000000E+03;  1.0000000E-01;  0.0000000E+00;0;  0.0000000E+00;  0.0000000E+00;  0.0000000E+00;0;  0.0000000E+00;  4.0000000E+04;  0.0000000E+00;  0.0000000E+00;  4.0000000E+04;  0.0000000E+00;  4.0000000E+04;  0.0000000E+00;  0.0000000E+00;  0.0000000E+00;  1.9974504E-09;
 -1.7000000E-01;  9.9999998E-03; -7.9999998E-02;308;  0.0000000E+00;  0.0000000E+00;  0.0000000E+00;  1.0000000E+03;  1.0000000E-01;  0.0000000E+00;0;  0.0000000E+00;  0.0000000E+00;  0.0000000E+00;0;  0.0000000E+00;  4.0000000E+04;  0.0000000E+00;  0.0000000E+00;  4.0000000E+04;  0.0000000E+00;  4.0000000E+04;  0.0000000E+00;  0.0000000E+00;  0.0000000E+00;  2.0288866E-09;
 -1.7000000E-01;  9.9999998E-03; -7.0000000E-02;309;  0.0000000E+00;  0.0000000E+00;  0.0000000E+00;  1.0000000E+03;  1.0000000E-01;  0.0000000E+00;0;  0.0000000E+00;  0.0000000E+00;  0.0000000E+00;0;  0.0000000E+00;  4.0000000E+04;  0.0000000E+00;  0.0000000E+00;  4.0000000E+04;  0.0000000E+00;  4.0000000E+04;  0.0000000E+00;  0.0000000E+00;  0.0000000E+00;  2.0664868E-09;
 -1.7000000E-01;  9.9999998E-03; -5.9999999E-02;310;  0.0000000E+00;  0.0000000E+00;  0.0000000E+00;  1.0000000E+03;  1.0000000E-01;  0.0000000E+00;0;  0.0000000E+00;  0.0000000E+00;  0.0000000E+00;0;  0.0000000E+00;  4.0000000E+04;  0.0000000E+00;  0.0000000E+00;  4.0000000E+04;  0.0000000E+00;  4.0000000E+04;  0.0000000E+00;  0.0000000E+00;  0.0000000E+00;  2.0963358E-09;
 -1.7000000E-01;  9.9999998E-03; -5.0000001E-02;311;  0.0000000E+00;  0.0000000E+00;  0.0000000E+00;  1.0000000E+03;  1.0000000E-01;  0.0000000E+00;0;  0.0000000E+00;  0.0000000E+00;  0.0000000E+00;0;  0.0000000E+00;  4.0000000E+04;  0.0000000E+00;  0.0000000E+00;  4.0000000E+04;  0.0000000E+00;  4.0000000E+04;  0.0000000E+00;  0.0000000E+00;  0.0000000E+00;  2.0985100E-09;
 -1.7000000E-01;  9.9999998E-03; -3.9999999E-02;312;  0.0000000E+00;  0.0000000E+00;  0.0000000E+00;  1.0000000E+03;  1.0000000E-01;  0.0000000E+00;0;  0.0000000E+00;  0.0000000E+00;  0.0000000E+00;0;  0.0000000E+00;  4.0000000E+04;  0.0000000E+00;  0.0000000E+00;  4.0000000E+04;  0.0000000E+00;  4.0000000E+04;  0.0000000E+00;  0.0000000E+00;  0.0000000E+00;  2.0709305E-09;
 -1.7000000E-01;  9.9999998E-03; -2.9999999E-02;313;  0.0000000E+00;  0.0000000E+00;  0.0000000E+00;  1.0000000E+03;  1.0000000E-01;  0.0000000E+00;0;  0.0000000E+00;  0.0000000E+00;  0.0000000E+00;0;  0.0000000E+00;  4.0000000E+04;  0.0000000E+00;  0.0000000E+00;  4.0000000E+04;  0.0000000E+00;  4.0000000E+04;  0.0000000E+00;  0.0000000E+00;  0.0000000E+00;  2.0022204E-09;
 -1.7000000E-01;  9.9999998E-03; -2.0000000E-02;314;  0.0000000E+00;  0.0000000E+00;  0.0000000E+00;  1.0000000E+03;  1.0000000E-01;  0.0000000E+00;0;  0.0000000E+00;  0.0000000E+00;  0.0000000E+00;0;  0.0000000E+00;  4.0000000E+04;  0.0000000E+00;  0.0000000E+00;  4.0000000E+04;  0.0000000E+00;  4.0000000E+04;  0.0000000E+00;  0.0000000E+00;  0.0000000E+00;  1.8807096E-09;
 -1.7000000E-01;  9.9999998E-03; -9.9999998E-03;315;  0.0000000E+00;  0.0000000E+00;  0.0000000E+00;  1.0000000E+03;  1.0000000E-01;  0.0000000E+00;0;  0.0000000E+00;  0.0000000E+00;  0.0000000E+00;0;  0.0000000E+00;  4.0000000E+04;  0.0000000E+00;  0.0000000E+00;  4.0000000E+04;  0.0000000E+00;  4.0000000E+04;  0.0000000E+00;  0.0000000E+00;  0.0000000E+00;  1.7538491E-09;
 -1.7000000E-01;  9.9999998E-03;  0.0000000E+00;316;  0.0000000E+00;  0.0000000E+00;  0.0000000E+00;  1.0000000E+03;  1.0000000E-01;  0.0000000E+00;0;  0.0000000E+00;  0.0000000E+00;  0.0000000E+00;0;  0.0000000E+00;  4.0000000E+04;  0.0000000E+00;  0.0000000E+00;  4.0000000E+04;  0.0000000E+00;  4.0000000E+04;  0.0000000E+00;  0.0000000E+00;  0.0000000E+00;  1.6940426E-09;
 -1.7000000E-01;  9.9999998E-03;  9.9999998E-03;317;  0.0000000E+00;  0.0000000E+00;  0.0000000E+00;  1.0000000E+03;  1.0000000E-01;  0.0000000E+00;0;  0.0000000E+00;  0.0000000E+00;  0.0000000E+00;0;  0.0000000E+00;  4.0000000E+04;  0.0000000E+00;  0.0000000E+00;  4.0000000E+04;  0.0000000E+00;  4.0000000E+04;  0.0000000E+00;  0.0000000E+00;  0.0000000E+00;  1.7541210E-09;
 -1.7000000E-01;  9.9999998E-03;  2.0000000E-02;318;  0.0000000E+00;  0.0000000E+00;  0.0000000E+00;  1.0000000E+03;  1.0000000E-01;  0.0000000E+00;0;  0.0000000E+00;  0.0000000E+00;  0.0000000E+00;0;  0.0000000E+00;  4.0000000E+04;  0.0000000E+00;  0.0000000E+00;  4.0000000E+04;  0.0000000E+00;  4.0000000E+04;  0.0000000E+00;  0.0000000E+00;  0.0000000E+00;  1.8806892E-09;
 -1.7000000E-01;  9.9999998E-03;  2.9999999E-02;319;  0.0000000E+00;  0.0000000E+00;  0.0000000E+00;  1.0000000E+03;  1.0000000E-01;  0.0000000E+00;0;  0.0000000E+00;  0.0000000E+00;  0.0000000E+00;0;  0.0000000E+00;  4.0000000E+04;  0.0000000E+00;  0.0000000E+00;  4.0000000E+04;  0.0000000E+00;  4.0000000E+04;  0.0000000E+00;  0.0000000E+00;  0.0000000E+00;  2.0024555E-09;
 -1.7000000E-01;  9.9999998E-03;  3.9999999E-02;320;  0.0000000E+00;  0.0000000E+00;  0.0000000E+00;  1.0000000E+03;  1.0000000E-01;  0.0000000E+00;0;  0.0000000E+00;  0.0000000E+00;  0.0000000E+00;0;  0.0000000E+00;  4.0000000E+04;  0.0000000E+00;  0.0000000E+00;  4.0000000E+04;  0.0000000E+00;  4.0000000E+04;  0.0000000E+00;  0.0000000E+00;  0.0000000E+00;  2.0701814E-09;
 -1.7000000E-01;  9.9999998E-03;  5.0000001E-02;321;  0.0000000E+00;  0.0000000E+00;  0.0000000E+00;  1.0000000E+03;  1.0000000E-01;  0.0000000E+00;0;  0.0000000E+00;  0.0000000E+00;  0.0000000E+00;0;  0.0000000E+00;  4.0000000E+04;  0.0000000E+00;  0.0000000E+00;  4.0000000E+04;  0.0000000E+00;  4.0000000E+04;  0.0000000E+00;  0.0000000E+00;  0.0000000E+00;  2.0988598E-09;
 -1.7000000E-01;  9.9999998E-03;  5.9999999E-02;322;  0.0000000E+00;  0.0000000E+00;  0.0000000E+00;  1.0000000E+03;  1.0000000E-01;  0.0000000E+00;0;  0.0000000E+00;  0.0000000E+00;  0.0000000E+00;0;  0.0000000E+00;  4.0000000E+04;  0.0000000E+00;  0.0000000E+00;  4.0000000E+04;  0.0000000E+00;  4.0000000E+04;  0.0000000E+00;  0.0000000E+00;  0.0000000E+00;  2.0959194E-09;
 -1.6000000E-01;  9.9999998E-03; -1.0000000E-01;397;  0.0000000E+00;  0.0000000E+00;  0.0000000E+00;  1.0000000E+03;  1.0000000E-01;  0.0000000E+00;0;  0.0000000E+00;  0.0000000E+00;  0.0000000E+00;0;  3.1662729E-04;  4.0000000E+04;  0.0000000E+00;  0.0000000E+00;  4.0000000E+04;  0.0000000E+00;  4.0000000E+04;  3.1701778E-04;  0.0000000E+00; -3.9049274E-07;  8.6651571E-02;
 -1.6000000E-01;  9.9999998E-03; -9.0000004E-02;398;  0.0000000E+00;  0.0000000E+00;  0.0000000E+00;  1.0000000E+03;  1.0000000E-01;  0.0000000E+00;0;  0.0000000E+00;  0.0000000E+00;  0.0000000E+00;0;  3.1869006E-04;  4.0000000E+04;  0.0000000E+00;  0.0000000E+00;  4.0000000E+04;  0.0000000E+00;  4.0000000E+04;  3.1904413E-04;  0.0000000E+00; -3.5408041E-07;  8.5168451E-02;
 -1.6000000E-01;  9.9999998E-03; -7.9999998E-02;399;  0.0000000E+00;  0.0000000E+00;  0.0000000E+00;  1.0000000E+03;  1.0000000E-01;  0.0000000E+00;0;  0.0000000E+00;  0.0000000E+00;  0.0000000E+00;0;  3.2114825E-04;  4.0000000E+04;  0.0000000E+00;  0.0000000E+00;  4.0000000E+04;  0.0000000E+00;  4.0000000E+04;  3.2147844E-04;  0.0000000E+00; -3.3017432E-07;  8.3154820E-02;
 -1.6000000E-01;  9.9999998E-03; -7.0000000E-02;400;  0.0000000E+00;  0.0000000E+00;  0.0000000E+00;  1.0000000E+03;  1.0000000E-01;  0.0000000E+00;0;  0.0000000E+00;  0.0000000E+00;  0.0000000E+00;0;  3.2384263E-04;  4.0000000E+04;  0.0000000E+00;  0.0000000E+00;  4.0000000E+04;  0.0000000E+00;  4.0000000E+04;  3.2415870E-04;  0.0000000E+00; -3.1606598E-07;  8.0873594E-02;
 -1.6000000E-01;  9.9999998E-03; -5.9999999E-02;401;  0.0000000E+00;  0.0000000E+00;  0.0000000E+00;  1.0000000E+03;  1.0000000E-01;  0.0000000E+00;0;  0.0000000E+00;  0.0000000E+00;  0.0000000E+00;0;  3.2660222E-04;  4.0000000E+04;  0.0000000E+00;  0.0000000E+00;  4.0000000E+04;  0.0000000E+00;  4.0000000E+04;  3.2691157E-04;  0.0000000E+00; -3.0935840E-07;  7.8515828E-02;
 -1.6000000E-01;  9.9999998E-03; -5.0000001E-02;402;  0.0000000E+00;  0.0000000E+00;  0.0000000E+00;  1.0000000E+03;  1.0000000E-01;  0.0000000E+00;0;  0.0000000E+00;  0.0000000E+00;  0.0000000E+00;0;  3.2925876E-04;  4.0000000E+04;  0.0000000E+00;  0.0000000E+00;  4.0000000E+04;  0.0000000E+00;  4.0000000E+04;  3.2956665E-04;  0.0000000E+00; -3.0787947E-07;  7.6217256E-02;
 -1.6000000E-01;  9.9999998E-03; -3.9999999E-02;403;  0.0000000E+00;  0.0000000E+00;  0.0000000E+00;  1.0000000E+03;  1.0000000E-01;  0.0000000E+00;0;  0.0000000E+00;  0.0000000E+00;  0.0000000E+00;0;  3.3165992E-04;  4.0000000E+04;  0.0000000E+00;  0.0000000E+00;  4.0000000E+04;  0.0000000E+00;  4.0000000E+04;  3.3196961E-04;  0.0000000E+00; -3.0968351E-07;  7.4086227E-02;
 -1.6000000E-01;  9.9999998E-03; -2.9999999E-02;404;  0.0000000E+00;  0.0000000E+00;  0.0000000E+00;  1.0000000E+03;  1.0000000E-01;  0.0000000E+00;0;  0.0000000E+00;  0.0000000E+00;  0.0000000E+00;0;  3.3367088E-04;  4.0000000E+04;  0.0000000E+00;  0.0000000E+00;  4.0000000E+04;  0.0000000E+00;  4.0000000E+04;  3.3398392E-04;  0.0000000E+00; -3.1305365E-07;  7.2226912E-02;
 -1.6000000E-01;  9.9999998E-03; -2.0000000E-02;405;  0.0000000E+00;  0.0000000E+00;  0.0000000E+00;  1.0000000E+03;  1.0000000E-01;  0.0000000E+00;0;  0.0000000E+00;  0.0000000E+00;  0.0000000E+00;0;  3.3518596E-04;  4.0000000E+04;  0.0000000E+00;  0.0000000E+00;  4.0000000E+04;  0.0000000E+00;  4.0000000E+04;  3.3550253E-04;  0.0000000E+00; -3.1656180E-07;  7.0756853E-02;
 -1.6000000E-01;  9.9999998E-03; -9.9999998E-03;406;  0.0000000E+00;  0.0000000E+00;  0.0000000E+00;  1.0000000E+03;  1.0000000E-01;  0.0000000E+00;0;  0.0000000E+00;  0.0000000E+00;  0.0000000E+00;0;  3.3612602E-04;  4.0000000E+04;  0.0000000E+00;  0.0000000E+00;  4.0000000E+04;  0.0000000E+00;  4.0000000E+04;  3.3644514E-04;  0.0000000E+00; -3.1911759E-07;  6.9804758E-02;
 -1.6000000E-01;  9.9999998E-03;  0.0000000E+00;407;  0.0000000E+00;  0.0000000E+00;  0.0000000E+00;  1.0000000E+03;  1.0000000E-01;  0.0000000E+00;0;  0.0000000E+00;  0.0000000E+00;  0.0000000E+00;0;  3.3644546E-04;  4.0000000E+04;  0.0000000E+00;  0.0000000E+00;  4.0000000E+04;  0.0000000E+00;  4.0000000E+04;  3.3676552E-04;  0.0000000E+00; -3.2004735E-07;  6.9474488E-02;
 -1.6000000E-01;  9.9999998E-03;  9.9999998E-03;408;  0.0000000E+00;  0.0000000E+00;  0.0000000E+00;  1.0000000E+03;  1.0000000E-01;  0.0000000E+00;0;  0.0000000E+00;  0.0000000E+00;  0.0000000E+00;0;  3.3612584E-04;  4.0000000E+04;  0.0000000E+00;  0.0000000E+00;  4.0000000E+04;  0.0000000E+00;  4.0000000E+04;  3.3644497E-04;  0.0000000E+00; -3.1911773E-07;  6.9804639E-02;
 -1.6000000E-01;  9.9999998E-03;  2.0000000E-02;409;  0.0000000E+00;  0.0000000E+00;  0.0000000E+00;  1.0000000E+03;  1.0000000E-01;  0.0000000E+00;0;  0.0000000E+00;  0.0000000E+00;  0.0000000E+00;0;  3.3518567E-04;  4.0000000E+04;  0.0000000E+00;  0.0000000E+00;  4.0000000E+04;  0.0000000E+00;  4.0000000E+04;  3.3550223E-04;  0.0000000E+00; -3.1656199E-07;  7.0756786E-02;
 -1.6000000E-01;  9.9999998E-03;  2.9999999E-02;410;  0.0000000E+00;  0.0000000E+00;  0.0000000E+00;  1.0000000E+03;  1.0000000E-01;  0.0000000E+00;0;  0.0000000E+00;  0.0000000E+00;  0.0000000E+00;0;  3.3367053E-04;  4.0000000E+04;  0.0000000E+00;  0.0000000E+00;  4.0000000E+04;  0.0000000E+00;  4.0000000E+04;  3.3398357E-04;  0.0000000E+00; -3.1305407E-07;  7.2226785E-02;
 -1.6000000E-01;  9.9999998E-03;  3.9999999E-02;411;  0.0000000E+00;  0.0000000E+00;  0.0000000E+00;  1.0000000E+03;  1.0000000E-01;  0.0000000E+00;0;  0.0000000E+00;  0.0000000E+00;  0.0000000E+00;0;  3.3165968E-04;  4.0000000E+04;  0.0000000E+00;  0.0000000E+00;  4.0000000E+04;  0.0000000E+00;  4.0000000E+04;  3.3196938E-04;  0.0000000E+00; -3.0968400E-07;  7.4086070E-02;
 -1.6000000E-01;  9.9999998E-03;  5.0000001E-02;412;  0.0000000E+00;  0.0000000E+00;  0.0000000E+00;  1.0000000E+03;  1.0000000E-01;  0.0000000E+00;0;  0.0000000E+00;  0.0000000E+00;  0.0000000E+00;0;  3.2925850E-04;  4.0000000E+04;  0.0000000E+00;  0.0000000E+00;  4.0000000E+04;  0.0000000E+00;  4.0000000E+04;  3.2956639E-04;  0.0000000E+00; -3.0788016E-07;  7.6217018E-02;
 -1.6000000E-01;  9.9999998E-03;  5.9999999E-02;413;  0.0000000E+00;  0.0000000E+00;  0.0000000E+00;  1.0000000E+03;  1.0000000E-01;  0.0000000E+00;0;  0.0000000E+00;  0.0000000E+00;  0.0000000E+00;0;  3.2660205E-04;  4.0000000E+04;  0.0000000E+00;  0.0000000E+00;  4.0000000E+04;  0.0000000E+00;  4.0000000E+04;  3.2691142E-04;  0.0000000E+00; -3.0935919E-07;  7.8515552E-02;
 -1.5000001E-01;  9.9999998E-03; -1.0000000E-01;488;  0.0000000E+00;  0.0000000E+00;  0.0000000E+00;  1.0000000E+03;  1.0000000E-01;  0.0000000E+00;0;  0.0000000E+00;  0.0000000E+00;  0.0000000E+00;0;  3.8214370E-03;  4.0000000E+04;  0.0000000E+00;  0.0000000E+00;  4.0000000E+04;  0.0000000E+00;  4.0000000E+04;  3.8313169E-03;  0.0000000E+00; -9.8798255E-06;  1.2066123E+00;
 -1.5000001E-01;  9.9999998E-03; -9.0000004E-02;489;  0.0000000E+00;  0.0000000E+00;  0.0000000E+00;  1.0000000E+03;  1.0000000E-01;  0.0000000E+00;0;  0.0000000E+00;  0.0000000E+00;  0.0000000E+00;0;  3.8462866E-03;  4.0000000E+04;  0.0000000E+00;  0.0000000E+00;  4.0000000E+04;  0.0000000E+00;  4.0000000E+04;  3.8553746E-03;  0.0000000E+00; -9.0879721E-06;  1.1884816E+00;
 -1.5000001E-01;  9.9999998E-03; -7.9999998E-02;490;  0.0000000E+00;  0.0000000E+00;  0.0000000E+00;  1.0000000E+03;  1.0000000E-01;  0.0000000E+00;0;  0.0000000E+00;  0.0000000E+00;  0.0000000E+00;0;  3.8706234E-03;  4.0000000E+04;  0.0000000E+00;  0.0000000E+00;  4.0000000E+04;  0.0000000E+00;  4.0000000E+04;  3.8791476E-03;  0.0000000E+00; -8.5241809E-06;  1.1606249E+00;
 -1.5000001E-01;  9.9999998E-03; -7.0000000E-02;491;  0.0000000E+00;  0.0000000E+00;  0.0000000E+00;  1.0000000E+03;  1.0000000E-01;  0.0000000E+00;0;  0.0000000E+00;  0.0000000E+00;  0.0000000E+00;0;  3.8941572E-03;  4.0000000E+04;  0.0000000E+00;  0.0000000E+00;  4.0000000E+04;  0.0000000E+00;  4.0000000E+04;  3.9023010E-03;  0.0000000E+00; -8.1437329E-06;  1.1277467E+00;
 -1.5000001E-01;  9.9999998E-03; -5.9999999E-02;492;  0.0000000E+00;  0.0000000E+00;  0.0000000E+00;  1.0000000E+03;  1.0000000E-01;  0.0000000E+00;0;  0.0000000E+00;  0.0000000E+00;  0.0000000E+00;0;  3.9163600E-03;  4.0000000E+04;  0.0000000E+00;  0.0000000E+00;  4.0000000E+04;  0.0000000E+00;  4.0000000E+04;  3.9242669E-03;  0.0000000E+00; -7.9069459E-06;  1.0932676E+00;
 -1.5000001E-01;  9.9999998E-03; -5.0000001E-02;493;  0.0000000E+00;  0.0000000E+00;  0.0000000E+00;  1.0000000E+03;  1.0000000E-01;  0.0000000E+00;0;  0.0000000E+00;  0.0000000E+00;  0.0000000E+00;0;  3.9366065E-03;  4.0000000E+04;  0.0000000E+00;  0.0000000E+00;  4.0000000E+04;  0.0000000E+00;  4.0000000E+04;  3.9443839E-03;  0.0000000E+00; -7.7776058E-06;  1.0596966E+00;
 -1.5000001E-01;  9.9999998E-03; -3.9999999E-02;494;  0.0000000E+00;  0.0000000E+00;  0.0000000E+00;  1.0000000E+03;  1.0000000E-01;  0.0000000E+00;0;  0.0000000E+00;  0.0000000E+00;  0.0000000E+00;0;  3.9542452E-03;  4.0000000E+04;  0.0000000E+00;  0.0000000E+00;  4.0000000E+04;  0.0000000E+00;  4.0000000E+04;  3.9619682E-03;  0.0000000E+00; -7.7228869E-06;  1.0290077E+00;
 -1.5000001E-01;  9.9999998E-03; -2.9999999E-02;495;  0.0000000E+00;  0.0000000E+00;  0.0000000E+00;  1.0000000E+03;  1.0000000E-01;  0.0000000E+00;0;  0.0000000E+00;  0.0000000E+00;  0.0000000E+00;0;  3.9686775E-03;  4.0000000E+04;  0.0000000E+00;  0.0000000E+00;  4.0000000E+04;  0.0000000E+00;  4.0000000E+04;  3.9763912E-03;  0.0000000E+00; -7.7137474E-06;  1.0028948E+00;
 -1.5000001E-01;  9.9999998E-03; -2.0000000E-02;496;  0.0000000E+00;  0.0000000E+00;  0.0000000E+00;  1.0000000E+03;  1.0000000E-01;  0.0000000E+00;0;  0.0000000E+00;  0.0000000E+00;  0.0000000E+00;0;  3.9793835E-03;  4.0000000E+04;  0.0000000E+00;  0.0000000E+00;  4.0000000E+04;  0.0000000E+00;  4.0000000E+04;  3.9871093E-03;  0.0000000E+00; -7.7258755E-06;  9.8287994E-01;
 -1.5000001E-01;  9.9999998E-03; -9.9999998E-03;497;  0.0000000E+00;  0.0000000E+00;  0.0000000E+00;  1.0000000E+03;  1.0000000E-01;  0.0000000E+00;0;  0.0000000E+00;  0.0000000E+00;  0.0000000E+00;0;  3.9859680E-03;  4.0000000E+04;  0.0000000E+00;  0.0000000E+00;  4.0000000E+04;  0.0000000E+00;  4.0000000E+04;  3.9937086E-03;  0.0000000E+00; -7.7408649E-06;  9.7026896E-01;
 -1.5000001E-01;  9.9999998E-03;  0.0000000E+00;498;  0.0000000E+00;  0.0000000E+00;  0.0000000E+00;  1.0000000E+03;  1.0000000E-01;  0.0000000E+00;0;  0.0000000E+00;  0.0000000E+00;  0.0000000E+00;0;  3.9881915E-03;  4.0000000E+04;  0.0000000E+00;  0.0000000E+00;  4.0000000E+04;  0.0000000E+00;  4.0000000E+04;  3.9959387E-03;  0.0000000E+00; -7.7471705E-06;  9.6595943E-01;
 -1.5000001E-01;  9.9999998E-03;  9.9999998E-03;499;  0.0000000E+00;  0.0000000E+00;  0.0000000E+00;  1.0000000E+03;  1.0000000E-01;  0.0000000E+00;0;  0.0000000E+00;  0.0000000E+00;  0.0000000E+00;0;  3.9859670E-03;  4.0000000E+04;  0.0000000E+00;  0.0000000E+00;  4.0000000E+04;  0.0000000E+00;  4.0000000E+04;  3.9937077E-03;  0.0000000E+00; -7.7408686E-06;  9.7026831E-01;
 -1.5000001E-01;  9.9999998E-03;  2.0000000E-02;500;  0.0000000E+00;  0.0000000E+00;  0.0000000E+00;  1.0000000E+03;  1.0000000E-01;  0.0000000E+00;0;  0.0000000E+00;  0.0000000E+00;  0.0000000E+00;0;  3.9793826E-03;  4.0000000E+04;  0.0000000E+00;  0.0000000E+00;  4.0000000E+04;  0.0000000E+00;  4.0000000E+04;  3.9871084E-03;  0.0000000E+00; -7.7258801E-06;  9.8287863E-01;
 -1.5000001E-01;  9.9999998E-03;  2.9999999E-02;501;  0.0000000E+00;  0.0000000E+00;  0.0000000E+00;  1.0000000E+03;  1.0000000E-01;  0.0000000E+00;0;  0.0000000E+00;  0.0000000E+00;  0.0000000E+00;0;  3.9686752E-03;  4.0000000E+04;  0.0000000E+00;  0.0000000E+00;  4.0000000E+04;  0.0000000E+00;  4.0000000E+04;  3.9763888E-03;  0.0000000E+00; -7.7137611E-06;  1.0028925E+00;
 -1.5000001E-01;  9.9999998E-03;  3.9999999E-02;502;  0.0000000E+00;  0.0000000E+00;  0.0000000E+00;  1.0000000E+03;  1.0000000E-01;  0.0000000E+00;0;  0.0000000E+00;  0.0000000E+00;  0.0000000E+00;0;  3.9542411E-03;  4.0000000E+04;  0.0000000E+00;  0.0000000E+00;  4.0000000E+04;  0.0000000E+00;  4.0000000E+04;  3.9619640E-03;  0.0000000E+00; -7.7229070E-06;  1.0290049E+00;
 -1.5000001E-01;  9.9999998E-03;  5.0000001E-02;503;  0.0000000E+00;  0.0000000E+00;  0.0000000E+00;  1.0000000E+03;  1.0000000E-01;  0.0000000E+00;0;  0.0000000E+00;  0.0000000E+00;  0.0000000E+00;0;  3.9366037E-03;  4.0000000E+04;  0.0000000E+00;  0.0000000E+00;  4.0000000E+04;  0.0000000E+00;  4.0000000E+04;  3.9443811E-03;  0.0000000E+00; -7.7776358E-06;  1.0596930E+00;
 -1.5000001E-01;  9.9999998E-03;  5.9999999E-02;504;  0.0000000E+00;  0.0000000E+00;  0.0000000E+00;  1.0000000E+03;  1.0000000E-01;  0.0000000E+00;0;  0.0000000E+00;  0.0000000E+00;  0.0000000E+00;0;  3.9163581E-03;  4.0000000E+04;  0.0000000E+00;  0.0000000E+00;  4.0000000E+04;  0.0000000E+00;  4.0000000E+04;  3.9242650E-03;  0.0000000E+00; -7.9069669E-06;  1.0932647E+00;
 -1.4000000E-01;  9.9999998E-03; -1.0000000E-01;579;  0.0000000E+00;  0.0000000E+00;  0.0000000E+00;  1.0000000E+03;  1.0000000E-01;  0.0000000E+00;0;  0.0000000E+00;  0.0000000E+00;  0.0000000E+00;0;  1.6148018E-02;  4.0000000E+04;  0.0000000E+00;  0.0000000E+00;  4.0000000E+04;  0.0000000E+00;  4.0000000E+04;  1.6212070E-02;  0.0000000E+00; -6.4052336E-05;  6.0075674E+00;
 -1.4000000E-01;  9.9999998E-03; -9.0000004E-02;580;  0.0000000E+00;  0.0000000E+00;  0.0000000E+00;  1.0000000E+03;  1.0000000E-01;  0.0000000E+00;0;  0.0000000E+00;  0.0000000E+00;  0.0000000E+00;0;  1.6259557E-02;  4.0000000E+04;  0.0000000E+00;  0.0000000E+00;  4.0000000E+04;  0.0000000E+00;  4.0000000E+04;  1.6318776E-02;  0.0000000E+00; -5.9219896E-05;  5.9386420E+00;
 -1.4000000E-01;  9.9999998E-03; -7.9999998E-02;581;  0.0000000E+00;  0.0000000E+00;  0.0000000E+00;  1.0000000E+03;  1.0000000E-01;  0.0000000E+00;0;  0.0000000E+00;  0.0000000E+00;  0.0000000E+00;0;  1.6359976E-02;  4.0000000E+04;  0.0000000E+00;  0.0000000E+00;  4.0000000E+04;  0.0000000E+00;  4.0000000E+04;  1.6415665E-02;  0.0000000E+00; -5.5688604E-05;  5.8100123E+00;
 -1.4000000E-01;  9.9999998E-03; -7.0000000E-02;582;  0.0000000E+00;  0.0000000E+00;  0.0000000E+00;  1.0000000E+03;  1.0000000E-01;  0.0000000E+00;0;  0.0000000E+00;  0.0000000E+00;  0.0000000E+00;0;  1.6450945E-02;  4.0000000E+04;  0.0000000E+00;  0.0000000E+00;  4.0000000E+04;  0.0000000E+00;  4.0000000E+04;  1.6504150E-02;  0.0000000E+00; -5.3203687E-05;  5.6504226E+00;
 -1.4000000E-01;  9.9999998E-03; -5.9999999E-02;583;  0.0000000E+00;  0.0000000E+00;  0.0000000E+00;  1.0000000E+03;  1.0000000E-01;  0.0000000E+00;0;  0.0000000E+00;  0.0000000E+00;  0.0000000E+00;0;  1.6532579E-02;  4.0000000E+04;  0.0000000E+00;  0.0000000E+00;  4.0000000E+04;  0.0000000E+00;  4.0000000E+04;  1.6584124E-02;  0.0000000E+00; -5.1544364E-05;  5.4803820E+00;
 -1.4000000E-01;  9.9999998E-03; -5.0000001E-02;584;  0.0000000E+00;  0.0000000E+00;  0.0000000E+00;  1.0000000E+03;  1.0000000E-01;  0.0000000E+00;0;  0.0000000E+00;  0.0000000E+00;  0.0000000E+00;0;  1.6604228E-02;  4.0000000E+04;  0.0000000E+00;  0.0000000E+00;  4.0000000E+04;  0.0000000E+00;  4.0000000E+04;  1.6654743E-02;  0.0000000E+00; -5.0515642E-05;  5.3149204E+00;
 -1.4000000E-01;  9.9999998E-03; -3.9999999E-02;585;  0.0000000E+00;  0.0000000E+00;  0.0000000E+00;  1.0000000E+03;  1.0000000E-01;  0.0000000E+00;0;  0.0000000E+00;  0.0000000E+00;  0.0000000E+00;0;  1.6664937E-02;  4.0000000E+04;  0.0000000E+00;  0.0000000E+00;  4.0000000E+04;  0.0000000E+00;  4.0000000E+04;  1.6714880E-02;  0.0000000E+00; -4.9942933E-05;  5.1652727E+00;
 -1.4000000E-01;  9.9999998E-03; -2.9999999E-02;586;  0.0000000E+00;  0.0000000E+00;  0.0000000E+00;  1.0000000E+03;  1.0000000E-01;  0.0000000E+00;0;  0.0000000E+00;  0.0000000E+00;  0.0000000E+00;0;  1.6713606E-02;  4.0000000E+04;  0.0000000E+00;  0.0000000E+00;  4.0000000E+04;  0.0000000E+00;  4.0000000E+04;  1.6763279E-02;  0.0000000E+00; -4.9672693E-05;  5.0400395E+00;
 -1.4000000E-01;  9.9999998E-03; -2.0000000E-02;587;  0.0000000E+00;  0.0000000E+00;  0.0000000E+00;  1.0000000E+03;  1.0000000E-01;  0.0000000E+00;0;  0.0000000E+00;  0.0000000E+00;  0.0000000E+00;0;  1.6749205E-02;  4.0000000E+04;  0.0000000E+00;  0.0000000E+00;  4.0000000E+04;  0.0000000E+00;  4.0000000E+04;  1.6798783E-02;  0.0000000E+00; -4.9577433E-05;  4.9457965E+00;
 -1.4000000E-01;  9.9999998E-03; -9.9999998E-03;588;  0.0000000E+00;  0.0000000E+00;  0.0000000E+00;  1.0000000E+03;  1.0000000E-01;  0.0000000E+00;0;  0.0000000E+00;  0.0000000E+00;  0.0000000E+00;0;  1.6770931E-02;  4.0000000E+04;  0.0000000E+00;  0.0000000E+00;  4.0000000E+04;  0.0000000E+00;  4.0000000E+04;  1.6820492E-02;  0.0000000E+00; -4.9560549E-05;  4.8872852E+00;
 -1.4000000E-01;  9.9999998E-03;  0.0000000E+00;589;  0.0000000E+00;  0.0000000E+00;  0.0000000E+00;  1.0000000E+03;  1.0000000E-01;  0.0000000E+00;0;  0.0000000E+00;  0.0000000E+00;  0.0000000E+00;0;  1.6778234E-02;  4.0000000E+04;  0.0000000E+00;  0.0000000E+00;  4.0000000E+04;  0.0000000E+00;  4.0000000E+04;  1.6827796E-02;  0.0000000E+00; -4.9561764E-05;  4.8674569E+00;
 -1.4000000E-01;  9.9999998E-03;  9.9999998E-03;590;  0.0000000E+00;  0.0000000E+00;  0.0000000E+00;  1.0000000E+03;  1.0000000E-01;  0.0000000E+00;0;  0.0000000E+00;  0.0000000E+00;  0.0000000E+00;0;  1.6770931E-02;  4.0000000E+04;  0.0000000E+00;  0.0000000E+00;  4.0000000E+04;  0.0000000E+00;  4.0000000E+04;  1.6820492E-02;  0.0000000E+00; -4.9560571E-05;  4.8872828E+00;
 -1.4000000E-01;  9.9999998E-03;  2.0000000E-02;591;  0.0000000E+00;  0.0000000E+00;  0.0000000E+00;  1.0000000E+03;  1.0000000E-01;  0.0000000E+00;0;  0.0000000E+00;  0.0000000E+00;  0.0000000E+00;0;  1.6749213E-02;  4.0000000E+04;  0.0000000E+00;  0.0000000E+00;  4.0000000E+04;  0.0000000E+00;  4.0000000E+04;  1.6798791E-02;  0.0000000E+00; -4.9577458E-05;  4.9457908E+00;
 -1.4000000E-01;  9.9999998E-03;  2.9999999E-02;592;  0.0000000E+00;  0.0000000E+00;  0.0000000E+00;  1.0000000E+03;  1.0000000E-01;  0.0000000E+00;0;  0.0000000E+00;  0.0000000E+00;  0.0000000E+00;0;  1.6713599E-02;  4.0000000E+04;  0.0000000E+00;  0.0000000E+00;  4.0000000E+04;  0.0000000E+00;  4.0000000E+04;  1.6763272E-02;  0.0000000E+00; -4.9672759E-05;  5.0400333E+00;
 -1.4000000E-01;  9.9999998E-03;  3.9999999E-02;593;  0.0000000E+00;  0.0000000E+00;  0.0000000E+00;  1.0000000E+03;  1.0000000E-01;  0.0000000E+00;0;  0.0000000E+00;  0.0000000E+00;  0.0000000E+00;0;  1.6664930E-02;  4.0000000E+04;  0.0000000E+00;  0.0000000E+00;  4.0000000E+04;  0.0000000E+00;  4.0000000E+04;  1.6714873E-02;  0.0000000E+00; -4.9943024E-05;  5.1652622E+00;
 -1.4000000E-01;  9.9999998E-03;  5.0000001E-02;594;  0.0000000E+00;  0.0000000E+00;  0.0000000E+00;  1.0000000E+03;  1.0000000E-01;  0.0000000E+00;0;  0.0000000E+00;  0.0000000E+00;  0.0000000E+00;0;  1.6604217E-02;  4.0000000E+04;  0.0000000E+00;  0.0000000E+00;  4.0000000E+04;  0.0000000E+00;  4.0000000E+04;  1.6654732E-02;  0.0000000E+00; -5.0515766E-05;  5.3149076E+00;
 -1.4000000E-01;  9.9999998E-03;  5.9999999E-02;595;  0.0000000E+00;  0.0000000E+00;  0.0000000E+00;  1.0000000E+03;  1.0000000E-01;  0.0000000E+00;0;  0.0000000E+00;  0.0000000E+00;  0.0000000E+00;0;  1.6532572E-02;  4.0000000E+04;  0.0000000E+00;  0.0000000E+00;  4.0000000E+04;  0.0000000E+00;  4.0000000E+04;  1.6584117E-02;  0.0000000E+00; -5.1544499E-05;  5.4803629E+00;
 -1.3000000E-01;  9.9999998E-03; -1.0000000E-01;670;  0.0000000E+00;  0.0000000E+00;  0.0000000E+00;  1.0000000E+03;  1.0000000E-01;  0.0000000E+00;0;  0.0000000E+00;  0.0000000E+00;  0.0000000E+00;0;  4.3764599E-02;  4.0000000E+04;  0.0000000E+00;  0.0000000E+00;  4.0000000E+04;  0.0000000E+00;  4.0000000E+04;  4.4005144E-02;  0.0000000E+00; -2.4054735E-04;  1.9210049E+01;
 -1.3000000E-01;  9.9999998E-03; -9.0000004E-02;671;  0.0000000E+00;  0.0000000E+00;  0.0000000E+00;  1.0000000E+03;  1.0000000E-01;  0.0000000E+00;0;  0.0000000E+00;  0.0000000E+00;  0.0000000E+00;0;  4.4091076E-02;  4.0000000E+04;  0.0000000E+00;  0.0000000E+00;  4.0000000E+04;  0.0000000E+00;  4.0000000E+04;  4.4314452E-02;  0.0000000E+00; -2.2337466E-04;  1.9073553E+01;
 -1.3000000E-01;  9.9999998E-03; -7.9999998E-02;672;  0.0000000E+00;  0.0000000E+00;  0.0000000E+00;  1.0000000E+03;  1.0000000E-01;  0.0000000E+00;0;  0.0000000E+00;  0.0000000E+00;  0.0000000E+00;0;  4.4370014E-02;  4.0000000E+04;  0.0000000E+00;  0.0000000E+00;  4.0000000E+04;  0.0000000E+00;  4.0000000E+04;  4.4580474E-02;  0.0000000E+00; -2.1045856E-04;  1.8709183E+01;
 -1.3000000E-01;  9.9999998E-03; -7.0000000E-02;673;  0.0000000E+00;  0.0000000E+00;  0.0000000E+00;  1.0000000E+03;  1.0000000E-01;  0.0000000E+00;0;  0.0000000E+00;  0.0000000E+00;  0.0000000E+00;0;  4.4612136E-02;  4.0000000E+04;  0.0000000E+00;  0.0000000E+00;  4.0000000E+04;  0.0000000E+00;  4.0000000E+04;  4.4813316E-02;  0.0000000E+00; -2.0118171E-04;  1.8224409E+01;
 -1.3000000E-01;  9.9999998E-03; -5.9999999E-02;674;  0.0000000E+00;  0.0000000E+00;  0.0000000E+00;  1.0000000E+03;  1.0000000E-01;  0.0000000E+00;0;  0.0000000E+00;  0.0000000E+00;  0.0000000E+00;0;  4.4822060E-02;  4.0000000E+04;  0.0000000E+00;  0.0000000E+00;  4.0000000E+04;  0.0000000E+00;  4.0000000E+04;  4.5016848E-02;  0.0000000E+00; -1.9478798E-04;  1.7696230E+01;
 -1.3000000E-01;  9.9999998E-03; -5.0000001E-02;675;  0.0000000E+00;  0.0000000E+00;  0.0000000E+00;  1.0000000E+03;  1.0000000E-01;  0.0000000E+00;0;  0.0000000E+00;  0.0000000E+00;  0.0000000E+00;0;  4.5001369E-02;  4.0000000E+04;  0.0000000E+00;  0.0000000E+00;  4.0000000E+04;  0.0000000E+00;  4.0000000E+04;  4.5191977E-02;  0.0000000E+00; -1.9060745E-04;  1.7179358E+01;
 -1.3000000E-01;  9.9999998E-03; -3.9999999E-02;676;  0.0000000E+00;  0.0000000E+00;  0.0000000E+00;  1.0000000E+03;  1.0000000E-01;  0.0000000E+00;0;  0.0000000E+00;  0.0000000E+00;  0.0000000E+00;0;  4.5149993E-02;  4.0000000E+04;  0.0000000E+00;  0.0000000E+00;  4.0000000E+04;  0.0000000E+00;  4.0000000E+04;  4.5338053E-02;  0.0000000E+00; -1.8805929E-04;  1.6713087E+01;
 -1.3000000E-01;  9.9999998E-03; -2.9999999E-02;677;  0.0000000E+00;  0.0000000E+00;  0.0000000E+00;  1.0000000E+03;  1.0000000E-01;  0.0000000E+00;0;  0.0000000E+00;  0.0000000E+00;  0.0000000E+00;0;  4.5267187E-02;  4.0000000E+04;  0.0000000E+00;  0.0000000E+00;  4.0000000E+04;  0.0000000E+00;  4.0000000E+04;  4.5453828E-02;  0.0000000E+00; -1.8664259E-04;  1.6325579E+01;
 -1.3000000E-01;  9.9999998E-03; -2.0000000E-02;678;  0.0000000E+00;  0.0000000E+00;  0.0000000E+00;  1.0000000E+03;  1.0000000E-01;  0.0000000E+00;0;  0.0000000E+00;  0.0000000E+00;  0.0000000E+00;0;  4.5351956E-02;  4.0000000E+04;  0.0000000E+00;  0.0000000E+00;  4.0000000E+04;  0.0000000E+00;  4.0000000E+04;  4.5537900E-02;  0.0000000E+00; -1.8594449E-04;  1.6036308E+01;
 -1.3000000E-01;  9.9999998E-03; -9.9999998E-03;679;  0.0000000E+00;  0.0000000E+00;  0.0000000E+00;  1.0000000E+03;  1.0000000E-01;  0.0000000E+00;0;  0.0000000E+00;  0.0000000E+00;  0.0000000E+00;0;  4.5403279E-02;  4.0000000E+04;  0.0000000E+00;  0.0000000E+00;  4.0000000E+04;  0.0000000E+00;  4.0000000E+04;  4.5588933E-02;  0.0000000E+00; -1.8565473E-04;  1.5858028E+01;
 -1.3000000E-01;  9.9999998E-03;  0.0000000E+00;680;  0.0000000E+00;  0.0000000E+00;  0.0000000E+00;  1.0000000E+03;  1.0000000E-01;  0.0000000E+00;0;  0.0000000E+00;  0.0000000E+00;  0.0000000E+00;0;  4.5420434E-02;  4.0000000E+04;  0.0000000E+00;  0.0000000E+00;  4.0000000E+04;  0.0000000E+00;  4.0000000E+04;  4.5606013E-02;  0.0000000E+00; -1.8558009E-04;  1.5797831E+01;
 -1.3000000E-01;  9.9999998E-03;  9.9999998E-03;681;  0.0000000E+00;  0.0000000E+00;  0.0000000E+00;  1.0000000E+03;  1.0000000E-01;  0.0000000E+00;0;  0.0000000E+00;  0.0000000E+00;  0.0000000E+00;0;  4.5403291E-02;  4.0000000E+04;  0.0000000E+00;  0.0000000E+00;  4.0000000E+04;  0.0000000E+00;  4.0000000E+04;  4.5588944E-02;  0.0000000E+00; -1.8565482E-04;  1.5858017E+01;
 -1.3000000E-01;  9.9999998E-03;  2.0000000E-02;682;  0.0000000E+00;  0.0000000E+00;  0.0000000E+00;  1.0000000E+03;  1.0000000E-01;  0.0000000E+00;0;  0.0000000E+00;  0.0000000E+00;  0.0000000E+00;0;  4.5351952E-02;  4.0000000E+04;  0.0000000E+00;  0.0000000E+00;  4.0000000E+04;  0.0000000E+00;  4.0000000E+04;  4.5537896E-02;  0.0000000E+00; -1.8594466E-04;  1.6036299E+01;
 -1.3000000E-01;  9.9999998E-03;  2.9999999E-02;683;  0.0000000E+00;  0.0000000E+00;  0.0000000E+00;  1.0000000E+03;  1.0000000E-01;  0.0000000E+00;0;  0.0000000E+00;  0.0000000E+00;  0.0000000E+00;0;  4.5267187E-02;  4.0000000E+04;  0.0000000E+00;  0.0000000E+00;  4.0000000E+04;  0.0000000E+00;  4.0000000E+04;  4.5453832E-02;  0.0000000E+00; -1.8664286E-04;  1.6325558E+01;
 -1.3000000E-01;  9.9999998E-03;  3.9999999E-02;684;  0.0000000E+00;  0.0000000E+00;  0.0000000E+00;  1.0000000E+03;  1.0000000E-01;  0.0000000E+00;0;  0.0000000E+00;  0.0000000E+00;  0.0000000E+00;0;  4.5150008E-02;  4.0000000E+04;  0.0000000E+00;  0.0000000E+00;  4.0000000E+04;  0.0000000E+00;  4.0000000E+04;  4.5338068E-02;  0.0000000E+00; -1.8805961E-04;  1.6713053E+01;
 -1.3000000E-01;  9.9999998E-03;  5.0000001E-02;685;  0.0000000E+00;  0.0000000E+00;  0.0000000E+00;  1.0000000E+03;  1.0000000E-01;  0.0000000E+00;0;  0.0000000E+00;  0.0000000E+00;  0.0000000E+00;0;  4.5001384E-02;  4.0000000E+04;  0.0000000E+00;  0.0000000E+00;  4.0000000E+04;  0.0000000E+00;  4.0000000E+04;  4.5191992E-02;  0.0000000E+00; -1.9060780E-04;  1.7179331E+01;
 -1.3000000E-01;  9.9999998E-03;  5.9999999E-02;686;  0.0000000E+00;  0.0000000E+00;  0.0000000E+00;  1.0000000E+03;  1.0000000E-01;  0.0000000E+00;0;  0.0000000E+00;  0.0000000E+00;  0.0000000E+00;0;  4.4822060E-02;  4.0000000E+04;  0.0000000E+00;  0.0000000E+00;  4.0000000E+04;  0.0000000E+00;  4.0000000E+04;  4.5016848E-02;  0.0000000E+00; -1.9478843E-04;  1.7696190E+01;
 -1.2000000E-01;  9.9999998E-03; -1.0000000E-01;761;  0.0000000E+00;  0.0000000E+00;  0.0000000E+00;  1.0000000E+03;  1.0000000E-01;  0.0000000E+00;0;  0.0000000E+00;  0.0000000E+00;  0.0000000E+00;0;  9.2659175E-02;  4.0000000E+04;  0.0000000E+00;  0.0000000E+00;  4.0000000E+04;  0.0000000E+00;  4.0000000E+04;  9.3324527E-02;  0.0000000E+00; -6.6535035E-04;  4.7914219E+01;
 -1.2000000E-01;  9.9999998E-03; -9.0000004E-02;762;  0.0000000E+00;  0.0000000E+00;  0.0000000E+00;  1.0000000E+03;  1.0000000E-01;  0.0000000E+00;0;  0.0000000E+00;  0.0000000E+00;  0.0000000E+00;0;  9.3405098E-02;  4.0000000E+04;  0.0000000E+00;  0.0000000E+00;  4.0000000E+04;  0.0000000E+00;  4.0000000E+04;  9.4026223E-02;  0.0000000E+00; -6.2112627E-04;  4.7786552E+01;
 -1.2000000E-01;  9.9999998E-03; -7.9999998E-02;763;  0.0000000E+00;  0.0000000E+00;  0.0000000E+00;  1.0000000E+03;  1.0000000E-01;  0.0000000E+00;0;  0.0000000E+00;  0.0000000E+00;  0.0000000E+00;0;  9.4022334E-02;  4.0000000E+04;  0.0000000E+00;  0.0000000E+00;  4.0000000E+04;  0.0000000E+00;  4.0000000E+04;  9.4608895E-02;  0.0000000E+00; -5.8656093E-04;  4.7011806E+01;
 -1.2000000E-01;  9.9999998E-03; -7.0000000E-02;764;  0.0000000E+00;  0.0000000E+00;  0.0000000E+00;  1.0000000E+03;  1.0000000E-01;  0.0000000E+00;0;  0.0000000E+00;  0.0000000E+00;  0.0000000E+00;0;  9.4541818E-02;  4.0000000E+04;  0.0000000E+00;  0.0000000E+00;  4.0000000E+04;  0.0000000E+00;  4.0000000E+04;  9.5103011E-02;  0.0000000E+00; -5.6119252E-04;  4.5882515E+01;
 -1.2000000E-01;  9.9999998E-03; -5.9999999E-02;765;  0.0000000E+00;  0.0000000E+00;  0.0000000E+00;  1.0000000E+03;  1.0000000E-01;  0.0000000E+00;0;  0.0000000E+00;  0.0000000E+00;  0.0000000E+00;0;  9.4980963E-02;  4.0000000E+04;  0.0000000E+00;  0.0000000E+00;  4.0000000E+04;  0.0000000E+00;  4.0000000E+04;  9.5524371E-02;  0.0000000E+00; -5.4341176E-04;  4.4614761E+01;
 -1.2000000E-01;  9.9999998E-03; -5.0000001E-02;766;  0.0000000E+00;  0.0000000E+00;  0.0000000E+00;  1.0000000E+03;  1.0000000E-01;  0.0000000E+00;0;  0.0000000E+00;  0.0000000E+00;  0.0000000E+00;0;  9.5348254E-02;  4.0000000E+04;  0.0000000E+00;  0.0000000E+00;  4.0000000E+04;  0.0000000E+00;  4.0000000E+04;  9.5879734E-02;  0.0000000E+00; -5.3147774E-04;  4.3360794E+01;
 -1.2000000E-01;  9.9999998E-03; -3.9999999E-02;767;  0.0000000E+00;  0.0000000E+00;  0.0000000E+00;  1.0000000E+03;  1.0000000E-01;  0.0000000E+00;0;  0.0000000E+00;  0.0000000E+00;  0.0000000E+00;0;  9.5647588E-02;  4.0000000E+04;  0.0000000E+00;  0.0000000E+00;  4.0000000E+04;  0.0000000E+00;  4.0000000E+04;  9.6171476E-02;  0.0000000E+00; -5.2388548E-04;  4.2226402E+01;
 -1.2000000E-01;  9.9999998E-03; -2.9999999E-02;768;  0.0000000E+00;  0.0000000E+00;  0.0000000E+00;  1.0000000E+03;  1.0000000E-01;  0.0000000E+00;0;  0.0000000E+00;  0.0000000E+00;  0.0000000E+00;0;  9.5880635E-02;  4.0000000E+04;  0.0000000E+00;  0.0000000E+00;  4.0000000E+04;  0.0000000E+00;  4.0000000E+04;  9.6400008E-02;  0.0000000E+00; -5.1937369E-04;  4.1284153E+01;
 -1.2000000E-01;  9.9999998E-03; -2.0000000E-02;769;  0.0000000E+00;  0.0000000E+00;  0.0000000E+00;  1.0000000E+03;  1.0000000E-01;  0.0000000E+00;0;  0.0000000E+00;  0.0000000E+00;  0.0000000E+00;0;  9.6047536E-02;  4.0000000E+04;  0.0000000E+00;  0.0000000E+00;  4.0000000E+04;  0.0000000E+00;  4.0000000E+04;  9.6564457E-02;  0.0000000E+00; -5.1691983E-04;  4.0582138E+01;
 -1.2000000E-01;  9.9999998E-03; -9.9999998E-03;770;  0.0000000E+00;  0.0000000E+00;  0.0000000E+00;  1.0000000E+03;  1.0000000E-01;  0.0000000E+00;0;  0.0000000E+00;  0.0000000E+00;  0.0000000E+00;0;  9.6147887E-02;  4.0000000E+04;  0.0000000E+00;  0.0000000E+00;  4.0000000E+04;  0.0000000E+00;  4.0000000E+04;  9.6663646E-02;  0.0000000E+00; -5.1576237E-04;  4.0150303E+01;
 -1.2000000E-01;  9.9999998E-03;  0.0000000E+00;771;  0.0000000E+00;  0.0000000E+00;  0.0000000E+00;  1.0000000E+03;  1.0000000E-01;  0.0000000E+00;0;  0.0000000E+00;  0.0000000E+00;  0.0000000E+00;0;  9.6181422E-02;  4.0000000E+04;  0.0000000E+00;  0.0000000E+00;  4.0000000E+04;  0.0000000E+00;  4.0000000E+04;  9.6696854E-02;  0.0000000E+00; -5.1543000E-04;  4.0004639E+01;
 -1.2000000E-01;  9.9999998E-03;  9.9999998E-03;772;  0.0000000E+00;  0.0000000E+00;  0.0000000E+00;  1.0000000E+03;  1.0000000E-01;  0.0000000E+00;0;  0.0000000E+00;  0.0000000E+00;  0.0000000E+00;0;  9.6147887E-02;  4.0000000E+04;  0.0000000E+00;  0.0000000E+00;  4.0000000E+04;  0.0000000E+00;  4.0000000E+04;  9.6663654E-02;  0.0000000E+00; -5.1576277E-04;  4.0150295E+01;
 -1.2000000E-01;  9.9999998E-03;  2.0000000E-02;773;  0.0000000E+00;  0.0000000E+00;  0.0000000E+00;  1.0000000E+03;  1.0000000E-01;  0.0000000E+00;0;  0.0000000E+00;  0.0000000E+00;  0.0000000E+00;0;  9.6047550E-02;  4.0000000E+04;  0.0000000E+00;  0.0000000E+00;  4.0000000E+04;  0.0000000E+00;  4.0000000E+04;  9.6564472E-02;  0.0000000E+00; -5.1692018E-04;  4.0582077E+01;
 -1.2000000E-01;  9.9999998E-03;  2.9999999E-02;774;  0.0000000E+00;  0.0000000E+00;  0.0000000E+00;  1.0000000E+03;  1.0000000E-01;  0.0000000E+00;0;  0.0000000E+00;  0.0000000E+00;  0.0000000E+00;0;  9.5880672E-02;  4.0000000E+04;  0.0000000E+00;  0.0000000E+00;  4.0000000E+04;  0.0000000E+00;  4.0000000E+04;  9.6400045E-02;  0.0000000E+00; -5.1937421E-04;  4.1284100E+01;
 -1.2000000E-01;  9.9999998E-03;  3.9999999E-02;775;  0.0000000E+00;  0.0000000E+00;  0.0000000E+00;  1.0000000E+03;  1.0000000E-01;  0.0000000E+00;0;  0.0000000E+00;  0.0000000E+00;  0.0000000E+00;0;  9.5647663E-02;  4.0000000E+04;  0.0000000E+00;  0.0000000E+00;  4.0000000E+04;  0.0000000E+00;  4.0000000E+04;  9.6171550E-02;  0.0000000E+00; -5.2388641E-04;  4.2226349E+01;
 -1.2000000E-01;  9.9999998E-03;  5.0000001E-02;776;  0.0000000E+00;  0.0000000E+00;  0.0000000E+00;  1.0000000E+03;  1.0000000E-01;  0.0000000E+00;0;  0.0000000E+00;  0.0000000E+00;  0.0000000E+00;0;  9.5348321E-02;  4.0000000E+04;  0.0000000E+00;  0.0000000E+00;  4.0000000E+04;  0.0000000E+00;  4.0000000E+04;  9.5879801E-02;  0.0000000E+00; -5.3147873E-04;  4.3360718E+01;
 -1.2000000E-01;  9.9999998E-03;  5.9999999E-02;777;  0.0000000E+00;  0.0000000E+00;  0.0000000E+00;  1.0000000E+03;  1.0000000E-01;  0.0000000E+00;0;  0.0000000E+00;  0.0000000E+00;  0.0000000E+00;0;  9.4980985E-02;  4.0000000E+04;  0.0000000E+00;  0.0000000E+00;  4.0000000E+04;  0.0000000E+00;  4.0000000E+04;  9.5524400E-02;  0.0000000E+00; -5.4341269E-04;  4.4614685E+01;
 -1.1000000E-01;  9.9999998E-03; -1.0000000E-01;852;  0.0000000E+00;  0.0000000E+00;  0.0000000E+00;  1.0000000E+03;  1.0000000E-01;  0.0000000E+00;0;  0.0000000E+00;  0.0000000E+00;  0.0000000E+00;0;  1.6802315E-01;  4.0000000E+04;  0.0000000E+00;  0.0000000E+00;  4.0000000E+04;  0.0000000E+00;  4.0000000E+04;  1.6953328E-01;  0.0000000E+00; -1.5101240E-03;  1.0200089E+02;
 -1.1000000E-01;  9.9999998E-03; -9.0000004E-02;853;  0.0000000E+00;  0.0000000E+00;  0.0000000E+00;  1.0000000E+03;  1.0000000E-01;  0.0000000E+00;0;  0.0000000E+00;  0.0000000E+00;  0.0000000E+00;0;  1.6946784E-01;  4.0000000E+04;  0.0000000E+00;  0.0000000E+00;  4.0000000E+04;  0.0000000E+00;  4.0000000E+04;  1.7088576E-01;  0.0000000E+00; -1.4179213E-03;  1.0212904E+02;
 -1.1000000E-01;  9.9999998E-03; -7.9999998E-02;854;  0.0000000E+00;  0.0000000E+00;  0.0000000E+00;  1.0000000E+03;  1.0000000E-01;  0.0000000E+00;0;  0.0000000E+00;  0.0000000E+00;  0.0000000E+00;0;  1.7064293E-01;  4.0000000E+04;  0.0000000E+00;  0.0000000E+00;  4.0000000E+04;  0.0000000E+00;  4.0000000E+04;  1.7198591E-01;  0.0000000E+00; -1.3429807E-03;  1.0075876E+02;
 -1.1000000E-01;  9.9999998E-03; -7.0000000E-02;855;  0.0000000E+00;  0.0000000E+00;  0.0000000E+00;  1.0000000E+03;  1.0000000E-01;  0.0000000E+00;0;  0.0000000E+00;  0.0000000E+00;  0.0000000E+00;0;  1.7161180E-01;  4.0000000E+04;  0.0000000E+00;  0.0000000E+00;  4.0000000E+04;  0.0000000E+00;  4.0000000E+04;  1.7289837E-01;  0.0000000E+00; -1.2865618E-03;  9.8535683E+01;
 -1.1000000E-01;  9.9999998E-03; -5.9999999E-02;856;  0.0000000E+00;  0.0000000E+00;  0.0000000E+00;  1.0000000E+03;  1.0000000E-01;  0.0000000E+00;0;  0.0000000E+00;  0.0000000E+00;  0.0000000E+00;0;  1.7241478E-01;  4.0000000E+04;  0.0000000E+00;  0.0000000E+00;  4.0000000E+04;  0.0000000E+00;  4.0000000E+04;  1.7366122E-01;  0.0000000E+00; -1.2464374E-03;  9.5952202E+01;
 -1.1000000E-01;  9.9999998E-03; -5.0000001E-02;857;  0.0000000E+00;  0.0000000E+00;  0.0000000E+00;  1.0000000E+03;  1.0000000E-01;  0.0000000E+00;0;  0.0000000E+00;  0.0000000E+00;  0.0000000E+00;0;  1.7307562E-01;  4.0000000E+04;  0.0000000E+00;  0.0000000E+00;  4.0000000E+04;  0.0000000E+00;  4.0000000E+04;  1.7429478E-01;  0.0000000E+00; -1.2191609E-03;  9.3360573E+01;
 -1.1000000E-01;  9.9999998E-03; -3.9999999E-02;858;  0.0000000E+00;  0.0000000E+00;  0.0000000E+00;  1.0000000E+03;  1.0000000E-01;  0.0000000E+00;0;  0.0000000E+00;  0.0000000E+00;  0.0000000E+00;0;  1.7360738E-01;  4.0000000E+04;  0.0000000E+00;  0.0000000E+00;  4.0000000E+04;  0.0000000E+00;  4.0000000E+04;  1.7480882E-01;  0.0000000E+00; -1.2014427E-03;  9.1002052E+01;
 -1.1000000E-01;  9.9999998E-03; -2.9999999E-02;859;  0.0000000E+00;  0.0000000E+00;  0.0000000E+00;  1.0000000E+03;  1.0000000E-01;  0.0000000E+00;0;  0.0000000E+00;  0.0000000E+00;  0.0000000E+00;0;  1.7401709E-01;  4.0000000E+04;  0.0000000E+00;  0.0000000E+00;  4.0000000E+04;  0.0000000E+00;  4.0000000E+04;  1.7520766E-01;  0.0000000E+00; -1.1905683E-03;  8.9038208E+01;
 -1.1000000E-01;  9.9999998E-03; -2.0000000E-02;860;  0.0000000E+00;  0.0000000E+00;  0.0000000E+00;  1.0000000E+03;  1.0000000E-01;  0.0000000E+00;0;  0.0000000E+00;  0.0000000E+00;  0.0000000E+00;0;  1.7430818E-01;  4.0000000E+04;  0.0000000E+00;  0.0000000E+00;  4.0000000E+04;  0.0000000E+00;  4.0000000E+04;  1.7549257E-01;  0.0000000E+00; -1.1843927E-03;  8.7573608E+01;
 -1.1000000E-01;  9.9999998E-03; -9.9999998E-03;861;  0.0000000E+00;  0.0000000E+00;  0.0000000E+00;  1.0000000E+03;  1.0000000E-01;  0.0000000E+00;0;  0.0000000E+00;  0.0000000E+00;  0.0000000E+00;0;  1.7448223E-01;  4.0000000E+04;  0.0000000E+00;  0.0000000E+00;  4.0000000E+04;  0.0000000E+00;  4.0000000E+04;  1.7566356E-01;  0.0000000E+00; -1.1813348E-03;  8.6672165E+01;
 -1.1000000E-01;  9.9999998E-03;  0.0000000E+00;862;  0.0000000E+00;  0.0000000E+00;  0.0000000E+00;  1.0000000E+03;  1.0000000E-01;  0.0000000E+00;0;  0.0000000E+00;  0.0000000E+00;  0.0000000E+00;0;  1.7454013E-01;  4.0000000E+04;  0.0000000E+00;  0.0000000E+00;  4.0000000E+04;  0.0000000E+00;  4.0000000E+04;  1.7572056E-01;  0.0000000E+00; -1.1804248E-03;  8.6368164E+01;
 -1.1000000E-01;  9.9999998E-03;  9.9999998E-03;863;  0.0000000E+00;  0.0000000E+00;  0.0000000E+00;  1.0000000E+03;  1.0000000E-01;  0.0000000E+00;0;  0.0000000E+00;  0.0000000E+00;  0.0000000E+00;0;  1.7448224E-01;  4.0000000E+04;  0.0000000E+00;  0.0000000E+00;  4.0000000E+04;  0.0000000E+00;  4.0000000E+04;  1.7566358E-01;  0.0000000E+00; -1.1813354E-03;  8.6672134E+01;
 -1.1000000E-01;  9.9999998E-03;  2.0000000E-02;864;  0.0000000E+00;  0.0000000E+00;  0.0000000E+00;  1.0000000E+03;  1.0000000E-01;  0.0000000E+00;0;  0.0000000E+00;  0.0000000E+00;  0.0000000E+00;0;  1.7430817E-01;  4.0000000E+04;  0.0000000E+00;  0.0000000E+00;  4.0000000E+04;  0.0000000E+00;  4.0000000E+04;  1.7549255E-01;  0.0000000E+00; -1.1843938E-03;  8.7573532E+01;
 -1.1000000E-01;  9.9999998E-03;  2.9999999E-02;865;  0.0000000E+00;  0.0000000E+00;  0.0000000E+00;  1.0000000E+03;  1.0000000E-01;  0.0000000E+00;0;  0.0000000E+00;  0.0000000E+00;  0.0000000E+00;0;  1.7401716E-01;  4.0000000E+04;  0.0000000E+00;  0.0000000E+00;  4.0000000E+04;  0.0000000E+00;  4.0000000E+04;  1.7520773E-01;  0.0000000E+00; -1.1905701E-03;  8.9038193E+01;
 -1.1000000E-01;  9.9999998E-03;  3.9999999E-02;866;  0.0000000E+00;  0.0000000E+00;  0.0000000E+00;  1.0000000E+03;  1.0000000E-01;  0.0000000E+00;0;  0.0000000E+00;  0.0000000E+00;  0.0000000E+00;0;  1.7360753E-01;  4.0000000E+04;  0.0000000E+00;  0.0000000E+00;  4.0000000E+04;  0.0000000E+00;  4.0000000E+04;  1.7480898E-01;  0.0000000E+00; -1.2014444E-03;  9.1001945E+01;
 -1.1000000E-01;  9.9999998E-03;  5.0000001E-02;867;  0.0000000E+00;  0.0000000E+00;  0.0000000E+00;  1.0000000E+03;  1.0000000E-01;  0.0000000E+00;0;  0.0000000E+00;  0.0000000E+00;  0.0000000E+00;0;  1.7307577E-01;  4.0000000E+04;  0.0000000E+00;  0.0000000E+00;  4.0000000E+04;  0.0000000E+00;  4.0000000E+04;  1.7429493E-01;  0.0000000E+00; -1.2191632E-03;  9.3360367E+01;
 -1.1000000E-01;  9.9999998E-03;  5.9999999E-02;868;  0.0000000E+00;  0.0000000E+00;  0.0000000E+00;  1.0000000E+03;  1.0000000E-01;  0.0000000E+00;0;  0.0000000E+00;  0.0000000E+00;  0.0000000E+00;0;  1.7241488E-01;  4.0000000E+04;  0.0000000E+00;  0.0000000E+00;  4.0000000E+04;  0.0000000E+00;  4.0000000E+04;  1.7366132E-01;  0.0000000E+00; -1.2464403E-03;  9.5952065E+01;
 -1.0000000E-01;  9.9999998E-03; -1.0000000E-01;943;  0.0000000E+00;  0.0000000E+00;  0.0000000E+00;  1.0000000E+03;  1.0000000E-01;  0.0000000E+00;0;  0.0000000E+00;  0.0000000E+00;  0.0000000E+00;0;  2.7431086E-01;  4.0000000E+04;  0.0000000E+00;  0.0000000E+00;  4.0000000E+04;  0.0000000E+00;  4.0000000E+04;  2.7729186E-01;  0.0000000E+00; -2.9810052E-03;  1.9448921E+02;
 -1.0000000E-01;  9.9999998E-03; -9.0000004E-02;944;  0.0000000E+00;  0.0000000E+00;  0.0000000E+00;  1.0000000E+03;  1.0000000E-01;  0.0000000E+00;0;  0.0000000E+00;  0.0000000E+00;  0.0000000E+00;0;  2.7679712E-01;  4.0000000E+04;  0.0000000E+00;  0.0000000E+00;  4.0000000E+04;  0.0000000E+00;  4.0000000E+04;  2.7961195E-01;  0.0000000E+00; -2.8148305E-03;  1.9531842E+02;
 -1.0000000E-01;  9.9999998E-03; -7.9999998E-02;945;  0.0000000E+00;  0.0000000E+00;  0.0000000E+00;  1.0000000E+03;  1.0000000E-01;  0.0000000E+00;0;  0.0000000E+00;  0.0000000E+00;  0.0000000E+00;0;  2.7880311E-01;  4.0000000E+04;  0.0000000E+00;  0.0000000E+00;  4.0000000E+04;  0.0000000E+00;  4.0000000E+04;  2.8147817E-01;  0.0000000E+00; -2.6750474E-03;  1.9315959E+02;
 -1.0000000E-01;  9.9999998E-03; -7.0000000E-02;946;  0.0000000E+00;  0.0000000E+00;  0.0000000E+00;  1.0000000E+03;  1.0000000E-01;  0.0000000E+00;0;  0.0000000E+00;  0.0000000E+00;  0.0000000E+00;0;  2.8043705E-01;  4.0000000E+04;  0.0000000E+00;  0.0000000E+00;  4.0000000E+04;  0.0000000E+00;  4.0000000E+04;  2.8300419E-01;  0.0000000E+00; -2.5671436E-03;  1.8924170E+02;
 -1.0000000E-01;  9.9999998E-03; -5.9999999E-02;947;  0.0000000E+00;  0.0000000E+00;  0.0000000E+00;  1.0000000E+03;  1.0000000E-01;  0.0000000E+00;0;  0.0000000E+00;  0.0000000E+00;  0.0000000E+00;0;  2.8177264E-01;  4.0000000E+04;  0.0000000E+00;  0.0000000E+00;  4.0000000E+04;  0.0000000E+00;  4.0000000E+04;  2.8426188E-01;  0.0000000E+00; -2.4892529E-03;  1.8453163E+02;
 -1.0000000E-01;  9.9999998E-03; -5.0000001E-02;948;  0.0000000E+00;  0.0000000E+00;  0.0000000E+00;  1.0000000E+03;  1.0000000E-01;  0.0000000E+00;0;  0.0000000E+00;  0.0000000E+00;  0.0000000E+00;0;  2.8285789E-01;  4.0000000E+04;  0.0000000E+00;  0.0000000E+00;  4.0000000E+04;  0.0000000E+00;  4.0000000E+04;  2.8529379E-01;  0.0000000E+00; -2.4359061E-03;  1.7973613E+02;
 -1.0000000E-01;  9.9999998E-03; -3.9999999E-02;949;  0.0000000E+00;  0.0000000E+00;  0.0000000E+00;  1.0000000E+03;  1.0000000E-01;  0.0000000E+00;0;  0.0000000E+00;  0.0000000E+00;  0.0000000E+00;0;  2.8372231E-01;  4.0000000E+04;  0.0000000E+00;  0.0000000E+00;  4.0000000E+04;  0.0000000E+00;  4.0000000E+04;  2.8612331E-01;  0.0000000E+00; -2.4009906E-03;  1.7534178E+02;
 -1.0000000E-01;  9.9999998E-03; -2.9999999E-02;950;  0.0000000E+00;  0.0000000E+00;  0.0000000E+00;  1.0000000E+03;  1.0000000E-01;  0.0000000E+00;0;  0.0000000E+00;  0.0000000E+00;  0.0000000E+00;0;  2.8438300E-01;  4.0000000E+04;  0.0000000E+00;  0.0000000E+00;  4.0000000E+04;  0.0000000E+00;  4.0000000E+04;  2.8676227E-01;  0.0000000E+00; -2.3792733E-03;  1.7166966E+02;
 -1.0000000E-01;  9.9999998E-03; -2.0000000E-02;951;  0.0000000E+00;  0.0000000E+00;  0.0000000E+00;  1.0000000E+03;  1.0000000E-01;  0.0000000E+00;0;  0.0000000E+00;  0.0000000E+00;  0.0000000E+00;0;  2.8484929E-01;  4.0000000E+04;  0.0000000E+00;  0.0000000E+00;  4.0000000E+04;  0.0000000E+00;  4.0000000E+04;  2.8721598E-01;  0.0000000E+00; -2.3666981E-03;  1.6892598E+02;
 -1.0000000E-01;  9.9999998E-03; -9.9999998E-03;952;  0.0000000E+00;  0.0000000E+00;  0.0000000E+00;  1.0000000E+03;  1.0000000E-01;  0.0000000E+00;0;  0.0000000E+00;  0.0000000E+00;  0.0000000E+00;0;  2.8512740E-01;  4.0000000E+04;  0.0000000E+00;  0.0000000E+00;  4.0000000E+04;  0.0000000E+00;  4.0000000E+04;  2.8748775E-01;  0.0000000E+00; -2.3603418E-03;  1.6723534E+02;
 -1.0000000E-01;  9.9999998E-03;  0.0000000E+00;953;  0.0000000E+00;  0.0000000E+00;  0.0000000E+00;  1.0000000E+03;  1.0000000E-01;  0.0000000E+00;0;  0.0000000E+00;  0.0000000E+00;  0.0000000E+00;0;  2.8521967E-01;  4.0000000E+04;  0.0000000E+00;  0.0000000E+00;  4.0000000E+04;  0.0000000E+00;  4.0000000E+04;  2.8757811E-01;  0.0000000E+00; -2.3584217E-03;  1.6666490E+02;
 -1.0000000E-01;  9.9999998E-03;  9.9999998E-03;954;  0.0000000E+00;  0.0000000E+00;  0.0000000E+00;  1.0000000E+03;  1.0000000E-01;  0.0000000E+00;0;  0.0000000E+00;  0.0000000E+00;  0.0000000E+00;0;  2.8512737E-01;  4.0000000E+04;  0.0000000E+00;  0.0000000E+00;  4.0000000E+04;  0.0000000E+00;  4.0000000E+04;  2.8748772E-01;  0.0000000E+00; -2.3603432E-03;  1.6723529E+02;
 -1.0000000E-01;  9.9999998E-03;  2.0000000E-02;955;  0.0000000E+00;  0.0000000E+00;  0.0000000E+00;  1.0000000E+03;  1.0000000E-01;  0.0000000E+00;0;  0.0000000E+00;  0.0000000E+00;  0.0000000E+00;0;  2.8484946E-01;  4.0000000E+04;  0.0000000E+00;  0.0000000E+00;  4.0000000E+04;  0.0000000E+00;  4.0000000E+04;  2.8721616E-01;  0.0000000E+00; -2.3667009E-03;  1.6892583E+02;
 -1.0000000E-01;  9.9999998E-03;  2.9999999E-02;956;  0.0000000E+00;  0.0000000E+00;  0.0000000E+00;  1.0000000E+03;  1.0000000E-01;  0.0000000E+00;0;  0.0000000E+00;  0.0000000E+00;  0.0000000E+00;0;  2.8438297E-01;  4.0000000E+04;  0.0000000E+00;  0.0000000E+00;  4.0000000E+04;  0.0000000E+00;  4.0000000E+04;  2.8676224E-01;  0.0000000E+00; -2.3792768E-03;  1.7166949E+02;
 -1.0000000E-01;  9.9999998E-03;  3.9999999E-02;957;  0.0000000E+00;  0.0000000E+00;  0.0000000E+00;  1.0000000E+03;  1.0000000E-01;  0.0000000E+00;0;  0.0000000E+00;  0.0000000E+00;  0.0000000E+00;0;  2.8372246E-01;  4.0000000E+04;  0.0000000E+00;  0.0000000E+00;  4.0000000E+04;  0.0000000E+00;  4.0000000E+04;  2.8612345E-01;  0.0000000E+00; -2.4009952E-03;  1.7534149E+02;
 -1.0000000E-01;  9.9999998E-03;  5.0000001E-02;958;  0.0000000E+00;  0.0000000E+00;  0.0000000E+00;  1.0000000E+03;  1.0000000E-01;  0.0000000E+00;0;  0.0000000E+00;  0.0000000E+00;  0.0000000E+00;0;  2.8285816E-01;  4.0000000E+04;  0.0000000E+00;  0.0000000E+00;  4.0000000E+04;  0.0000000E+00;  4.0000000E+04;  2.8529409E-01;  0.0000000E+00; -2.4359107E-03;  1.7973582E+02;
 -1.0000000E-01;  9.9999998E-03;  5.9999999E-02;959;  0.0000000E+00;  0.0000000E+00;  0.0000000E+00;  1.0000000E+03;  1.0000000E-01;  0.0000000E+00;0;  0.0000000E+00;  0.0000000E+00;  0.0000000E+00;0;  2.8177279E-01;  4.0000000E+04;  0.0000000E+00;  0.0000000E+00;  4.0000000E+04;  0.0000000E+00;  4.0000000E+04;  2.8426206E-01;  0.0000000E+00; -2.4892581E-03;  1.8453143E+02;
 -9.0000004E-02;  9.9999998E-03; -1.0000000E-01;1034;  0.0000000E+00;  0.0000000E+00;  0.0000000E+00;  1.0000000E+03;  1.0000000E-01;  0.0000000E+00;0;  0.0000000E+00;  0.0000000E+00;  0.0000000E+00;0;  4.1509381E-01;  4.0000000E+04;  0.0000000E+00;  0.0000000E+00;  4.0000000E+04;  0.0000000E+00;  4.0000000E+04;  4.2039269E-01;  0.0000000E+00; -5.2988785E-03;  3.4159656E+02;
 -9.0000004E-02;  9.9999998E-03; -9.0000004E-02;1035;  0.0000000E+00;  0.0000000E+00;  0.0000000E+00;  1.0000000E+03;  1.0000000E-01;  0.0000000E+00;0;  0.0000000E+00;  0.0000000E+00;  0.0000000E+00;0;  4.1900542E-01;  4.0000000E+04;  0.0000000E+00;  0.0000000E+00;  4.0000000E+04;  0.0000000E+00;  4.0000000E+04;  4.2403457E-01;  0.0000000E+00; -5.0291521E-03;  3.4370874E+02;
 -9.0000004E-02;  9.9999998E-03; -7.9999998E-02;1036;  0.0000000E+00;  0.0000000E+00;  0.0000000E+00;  1.0000000E+03;  1.0000000E-01;  0.0000000E+00;0;  0.0000000E+00;  0.0000000E+00;  0.0000000E+00;0;  4.2215493E-01;  4.0000000E+04;  0.0000000E+00;  0.0000000E+00;  4.0000000E+04;  0.0000000E+00;  4.0000000E+04;  4.2695090E-01;  0.0000000E+00; -4.7959583E-03;  3.4050131E+02;
 -9.0000004E-02;  9.9999998E-03; -7.0000000E-02;1037;  0.0000000E+00;  0.0000000E+00;  0.0000000E+00;  1.0000000E+03;  1.0000000E-01;  0.0000000E+00;0;  0.0000000E+00;  0.0000000E+00;  0.0000000E+00;0;  4.2470360E-01;  4.0000000E+04;  0.0000000E+00;  0.0000000E+00;  4.0000000E+04;  0.0000000E+00;  4.0000000E+04;  4.2931569E-01;  0.0000000E+00; -4.6120789E-03;  3.3407944E+02;
 -9.0000004E-02;  9.9999998E-03; -5.9999999E-02;1038;  0.0000000E+00;  0.0000000E+00;  0.0000000E+00;  1.0000000E+03;  1.0000000E-01;  0.0000000E+00;0;  0.0000000E+00;  0.0000000E+00;  0.0000000E+00;0;  4.2676872E-01;  4.0000000E+04;  0.0000000E+00;  0.0000000E+00;  4.0000000E+04;  0.0000000E+00;  4.0000000E+04;  4.3124625E-01;  0.0000000E+00; -4.4775307E-03;  3.2614322E+02;
 -9.0000004E-02;  9.9999998E-03; -5.0000001E-02;1039;  0.0000000E+00;  0.0000000E+00;  0.0000000E+00;  1.0000000E+03;  1.0000000E-01;  0.0000000E+00;0;  0.0000000E+00;  0.0000000E+00;  0.0000000E+00;0;  4.2843220E-01;  4.0000000E+04;  0.0000000E+00;  0.0000000E+00;  4.0000000E+04;  0.0000000E+00;  4.0000000E+04;  4.3281710E-01;  0.0000000E+00; -4.3849167E-03;  3.1795984E+02;
 -9.0000004E-02;  9.9999998E-03; -3.9999999E-02;1040;  0.0000000E+00;  0.0000000E+00;  0.0000000E+00;  1.0000000E+03;  1.0000000E-01;  0.0000000E+00;0;  0.0000000E+00;  0.0000000E+00;  0.0000000E+00;0;  4.2974663E-01;  4.0000000E+04;  0.0000000E+00;  0.0000000E+00;  4.0000000E+04;  0.0000000E+00;  4.0000000E+04;  4.3407094E-01;  0.0000000E+00; -4.3243258E-03;  3.1041296E+02;
 -9.0000004E-02;  9.9999998E-03; -2.9999999E-02;1041;  0.0000000E+00;  0.0000000E+00;  0.0000000E+00;  1.0000000E+03;  1.0000000E-01;  0.0000000E+00;0;  0.0000000E+00;  0.0000000E+00;  0.0000000E+00;0;  4.3074453E-01;  4.0000000E+04;  0.0000000E+00;  0.0000000E+00;  4.0000000E+04;  0.0000000E+00;  4.0000000E+04;  4.3503115E-01;  0.0000000E+00; -4.2866305E-03;  3.0408743E+02;
 -9.0000004E-02;  9.9999998E-03; -2.0000000E-02;1042;  0.0000000E+00;  0.0000000E+00;  0.0000000E+00;  1.0000000E+03;  1.0000000E-01;  0.0000000E+00;0;  0.0000000E+00;  0.0000000E+00;  0.0000000E+00;0;  4.3144616E-01;  4.0000000E+04;  0.0000000E+00;  0.0000000E+00;  4.0000000E+04;  0.0000000E+00;  4.0000000E+04;  4.3571088E-01;  0.0000000E+00; -4.2647230E-03;  2.9935181E+02;
 -9.0000004E-02;  9.9999998E-03; -9.9999998E-03;1043;  0.0000000E+00;  0.0000000E+00;  0.0000000E+00;  1.0000000E+03;  1.0000000E-01;  0.0000000E+00;0;  0.0000000E+00;  0.0000000E+00;  0.0000000E+00;0;  4.3186262E-01;  4.0000000E+04;  0.0000000E+00;  0.0000000E+00;  4.0000000E+04;  0.0000000E+00;  4.0000000E+04;  4.3611622E-01;  0.0000000E+00; -4.2535877E-03;  2.9643188E+02;
 -9.0000004E-02;  9.9999998E-03;  0.0000000E+00;1044;  0.0000000E+00;  0.0000000E+00;  0.0000000E+00;  1.0000000E+03;  1.0000000E-01;  0.0000000E+00;0;  0.0000000E+00;  0.0000000E+00;  0.0000000E+00;0;  4.3200156E-01;  4.0000000E+04;  0.0000000E+00;  0.0000000E+00;  4.0000000E+04;  0.0000000E+00;  4.0000000E+04;  4.3625176E-01;  0.0000000E+00; -4.2502098E-03;  2.9544604E+02;
 -9.0000004E-02;  9.9999998E-03;  9.9999998E-03;1045;  0.0000000E+00;  0.0000000E+00;  0.0000000E+00;  1.0000000E+03;  1.0000000E-01;  0.0000000E+00;0;  0.0000000E+00;  0.0000000E+00;  0.0000000E+00;0;  4.3186259E-01;  4.0000000E+04;  0.0000000E+00;  0.0000000E+00;  4.0000000E+04;  0.0000000E+00;  4.0000000E+04;  4.3611619E-01;  0.0000000E+00; -4.2535858E-03;  2.9643173E+02;
 -9.0000004E-02;  9.9999998E-03;  2.0000000E-02;1046;  0.0000000E+00;  0.0000000E+00;  0.0000000E+00;  1.0000000E+03;  1.0000000E-01;  0.0000000E+00;0;  0.0000000E+00;  0.0000000E+00;  0.0000000E+00;0;  4.3144614E-01;  4.0000000E+04;  0.0000000E+00;  0.0000000E+00;  4.0000000E+04;  0.0000000E+00;  4.0000000E+04;  4.3571085E-01;  0.0000000E+00; -4.2647254E-03;  2.9935165E+02;
 -9.0000004E-02;  9.9999998E-03;  2.9999999E-02;1047;  0.0000000E+00;  0.0000000E+00;  0.0000000E+00;  1.0000000E+03;  1.0000000E-01;  0.0000000E+00;0;  0.0000000E+00;  0.0000000E+00;  0.0000000E+00;0;  4.3074444E-01;  4.0000000E+04;  0.0000000E+00;  0.0000000E+00;  4.0000000E+04;  0.0000000E+00;  4.0000000E+04;  4.3503109E-01;  0.0000000E+00; -4.2866357E-03;  3.0408707E+02;
 -9.0000004E-02;  9.9999998E-03;  3.9999999E-02;1048;  0.0000000E+00;  0.0000000E+00;  0.0000000E+00;  1.0000000E+03;  1.0000000E-01;  0.0000000E+00;0;  0.0000000E+00;  0.0000000E+00;  0.0000000E+00;0;  4.2974681E-01;  4.0000000E+04;  0.0000000E+00;  0.0000000E+00;  4.0000000E+04;  0.0000000E+00;  4.0000000E+04;  4.3407115E-01;  0.0000000E+00; -4.3243328E-03;  3.1041269E+02;
 -9.0000004E-02;  9.9999998E-03;  5.0000001E-02;1049;  0.0000000E+00;  0.0000000E+00;  0.0000000E+00;  1.0000000E+03;  1.0000000E-01;  0.0000000E+00;0;  0.0000000E+00;  0.0000000E+00;  0.0000000E+00;0;  4.2843235E-01;  4.0000000E+04;  0.0000000E+00;  0.0000000E+00;  4.0000000E+04;  0.0000000E+00;  4.0000000E+04;  4.3281728E-01;  0.0000000E+00; -4.3849261E-03;  3.1795932E+02;
 -9.0000004E-02;  9.9999998E-03;  5.9999999E-02;1050;  0.0000000E+00;  0.0000000E+00;  0.0000000E+00;  1.0000000E+03;  1.0000000E-01;  0.0000000E+00;0;  0.0000000E+00;  0.0000000E+00;  0.0000000E+00;0;  4.2676881E-01;  4.0000000E+04;  0.0000000E+00;  0.0000000E+00;  4.0000000E+04;  0.0000000E+00;  4.0000000E+04;  4.3124634E-01;  0.0000000E+00; -4.4775405E-03;  3.2614255E+02;
 -7.9999998E-02;  9.9999998E-03; -1.0000000E-01;1125;  0.0000000E+00;  0.0000000E+00;  0.0000000E+00;  1.0000000E+03;  1.0000000E-01;  0.0000000E+00;0;  0.0000000E+00;  0.0000000E+00;  0.0000000E+00;0;  5.9239435E-01;  4.0000000E+04;  0.0000000E+00;  0.0000000E+00;  4.0000000E+04;  0.0000000E+00;  4.0000000E+04;  6.0106534E-01;  0.0000000E+00; -8.6709848E-03;  5.6223419E+02;
 -7.9999998E-02;  9.9999998E-03; -9.0000004E-02;1126;  0.0000000E+00;  0.0000000E+00;  0.0000000E+00;  1.0000000E+03;  1.0000000E-01;  0.0000000E+00;0;  0.0000000E+00;  0.0000000E+00;  0.0000000E+00;0;  5.9812397E-01;  4.0000000E+04;  0.0000000E+00;  0.0000000E+00;  4.0000000E+04;  0.0000000E+00;  4.0000000E+04;  6.0639000E-01;  0.0000000E+00; -8.2660588E-03;  5.6616541E+02;
 -7.9999998E-02;  9.9999998E-03; -7.9999998E-02;1127;  0.0000000E+00;  0.0000000E+00;  0.0000000E+00;  1.0000000E+03;  1.0000000E-01;  0.0000000E+00;0;  0.0000000E+00;  0.0000000E+00;  0.0000000E+00;0;  6.0274345E-01;  4.0000000E+04;  0.0000000E+00;  0.0000000E+00;  4.0000000E+04;  0.0000000E+00;  4.0000000E+04;  6.1065245E-01;  0.0000000E+00; -7.9089971E-03;  5.6143921E+02;
 -7.9999998E-02;  9.9999998E-03; -7.0000000E-02;1128;  0.0000000E+00;  0.0000000E+00;  0.0000000E+00;  1.0000000E+03;  1.0000000E-01;  0.0000000E+00;0;  0.0000000E+00;  0.0000000E+00;  0.0000000E+00;0;  6.0647267E-01;  4.0000000E+04;  0.0000000E+00;  0.0000000E+00;  4.0000000E+04;  0.0000000E+00;  4.0000000E+04;  6.1409557E-01;  0.0000000E+00; -7.6229214E-03;  5.5139148E+02;
 -7.9999998E-02;  9.9999998E-03; -5.9999999E-02;1129;  0.0000000E+00;  0.0000000E+00;  0.0000000E+00;  1.0000000E+03;  1.0000000E-01;  0.0000000E+00;0;  0.0000000E+00;  0.0000000E+00;  0.0000000E+00;0;  6.0948062E-01;  4.0000000E+04;  0.0000000E+00;  0.0000000E+00;  4.0000000E+04;  0.0000000E+00;  4.0000000E+04;  6.1689210E-01;  0.0000000E+00; -7.4115046E-03;  5.3876453E+02;
 -7.9999998E-02;  9.9999998E-03; -5.0000001E-02;1130;  0.0000000E+00;  0.0000000E+00;  0.0000000E+00;  1.0000000E+03;  1.0000000E-01;  0.0000000E+00;0;  0.0000000E+00;  0.0000000E+00;  0.0000000E+00;0;  6.1188960E-01;  4.0000000E+04;  0.0000000E+00;  0.0000000E+00;  4.0000000E+04;  0.0000000E+00;  4.0000000E+04;  6.1915523E-01;  0.0000000E+00; -7.2656493E-03;  5.2563861E+02;
 -7.9999998E-02;  9.9999998E-03; -3.9999999E-02;1131;  0.0000000E+00;  0.0000000E+00;  0.0000000E+00;  1.0000000E+03;  1.0000000E-01;  0.0000000E+00;0;  0.0000000E+00;  0.0000000E+00;  0.0000000E+00;0;  6.1378115E-01;  4.0000000E+04;  0.0000000E+00;  0.0000000E+00;  4.0000000E+04;  0.0000000E+00;  4.0000000E+04;  6.2095195E-01;  0.0000000E+00; -7.1707955E-03;  5.1348199E+02;
 -7.9999998E-02;  9.9999998E-03; -2.9999999E-02;1132;  0.0000000E+00;  0.0000000E+00;  0.0000000E+00;  1.0000000E+03;  1.0000000E-01;  0.0000000E+00;0;  0.0000000E+00;  0.0000000E+00;  0.0000000E+00;0;  6.1521053E-01;  4.0000000E+04;  0.0000000E+00;  0.0000000E+00;  4.0000000E+04;  0.0000000E+00;  4.0000000E+04;  6.2232292E-01;  0.0000000E+00; -7.1123713E-03;  5.0327023E+02;
 -7.9999998E-02;  9.9999998E-03; -2.0000000E-02;1133;  0.0000000E+00;  0.0000000E+00;  0.0000000E+00;  1.0000000E+03;  1.0000000E-01;  0.0000000E+00;0;  0.0000000E+00;  0.0000000E+00;  0.0000000E+00;0;  6.1621231E-01;  4.0000000E+04;  0.0000000E+00;  0.0000000E+00;  4.0000000E+04;  0.0000000E+00;  4.0000000E+04;  6.2329108E-01;  0.0000000E+00; -7.0787454E-03;  4.9561963E+02;
 -7.9999998E-02;  9.9999998E-03; -9.9999998E-03;1134;  0.0000000E+00;  0.0000000E+00;  0.0000000E+00;  1.0000000E+03;  1.0000000E-01;  0.0000000E+00;0;  0.0000000E+00;  0.0000000E+00;  0.0000000E+00;0;  6.1680573E-01;  4.0000000E+04;  0.0000000E+00;  0.0000000E+00;  4.0000000E+04;  0.0000000E+00;  4.0000000E+04;  6.2386751E-01;  0.0000000E+00; -7.0617702E-03;  4.9089990E+02;
 -7.9999998E-02;  9.9999998E-03;  0.0000000E+00;1135;  0.0000000E+00;  0.0000000E+00;  0.0000000E+00;  1.0000000E+03;  1.0000000E-01;  0.0000000E+00;0;  0.0000000E+00;  0.0000000E+00;  0.0000000E+00;0;  6.1700249E-01;  4.0000000E+04;  0.0000000E+00;  0.0000000E+00;  4.0000000E+04;  0.0000000E+00;  4.0000000E+04;  6.2405914E-01;  0.0000000E+00; -7.0566540E-03;  4.8930615E+02;
 -7.9999998E-02;  9.9999998E-03;  9.9999998E-03;1136;  0.0000000E+00;  0.0000000E+00;  0.0000000E+00;  1.0000000E+03;  1.0000000E-01;  0.0000000E+00;0;  0.0000000E+00;  0.0000000E+00;  0.0000000E+00;0;  6.1680585E-01;  4.0000000E+04;  0.0000000E+00;  0.0000000E+00;  4.0000000E+04;  0.0000000E+00;  4.0000000E+04;  6.2386763E-01;  0.0000000E+00; -7.0617725E-03;  4.9089975E+02;
 -7.9999998E-02;  9.9999998E-03;  2.0000000E-02;1137;  0.0000000E+00;  0.0000000E+00;  0.0000000E+00;  1.0000000E+03;  1.0000000E-01;  0.0000000E+00;0;  0.0000000E+00;  0.0000000E+00;  0.0000000E+00;0;  6.1621213E-01;  4.0000000E+04;  0.0000000E+00;  0.0000000E+00;  4.0000000E+04;  0.0000000E+00;  4.0000000E+04;  6.2329090E-01;  0.0000000E+00; -7.0787487E-03;  4.9561942E+02;
 -7.9999998E-02;  9.9999998E-03;  2.9999999E-02;1138;  0.0000000E+00;  0.0000000E+00;  0.0000000E+00;  1.0000000E+03;  1.0000000E-01;  0.0000000E+00;0;  0.0000000E+00;  0.0000000E+00;  0.0000000E+00;0;  6.1521095E-01;  4.0000000E+04;  0.0000000E+00;  0.0000000E+00;  4.0000000E+04;  0.0000000E+00;  4.0000000E+04;  6.2232333E-01;  0.0000000E+00; -7.1123815E-03;  5.0326993E+02;
 -7.9999998E-02;  9.9999998E-03;  3.9999999E-02;1139;  0.0000000E+00;  0.0000000E+00;  0.0000000E+00;  1.0000000E+03;  1.0000000E-01;  0.0000000E+00;0;  0.0000000E+00;  0.0000000E+00;  0.0000000E+00;0;  6.1378151E-01;  4.0000000E+04;  0.0000000E+00;  0.0000000E+00;  4.0000000E+04;  0.0000000E+00;  4.0000000E+04;  6.2095231E-01;  0.0000000E+00; -7.1708048E-03;  5.1348114E+02;
 -7.9999998E-02;  9.9999998E-03;  5.0000001E-02;1140;  0.0000000E+00;  0.0000000E+00;  0.0000000E+00;  1.0000000E+03;  1.0000000E-01;  0.0000000E+00;0;  0.0000000E+00;  0.0000000E+00;  0.0000000E+00;0;  6.1188960E-01;  4.0000000E+04;  0.0000000E+00;  0.0000000E+00;  4.0000000E+04;  0.0000000E+00;  4.0000000E+04;  6.1915529E-01;  0.0000000E+00; -7.2656600E-03;  5.2563782E+02;
 -7.9999998E-02;  9.9999998E-03;  5.9999999E-02;1141;  0.0000000E+00;  0.0000000E+00;  0.0000000E+00;  1.0000000E+03;  1.0000000E-01;  0.0000000E+00;0;  0.0000000E+00;  0.0000000E+00;  0.0000000E+00;0;  6.0948068E-01;  4.0000000E+04;  0.0000000E+00;  0.0000000E+00;  4.0000000E+04;  0.0000000E+00;  4.0000000E+04;  6.1689222E-01;  0.0000000E+00; -7.4115200E-03;  5.3876367E+02;
 -7.0000000E-02;  9.9999998E-03; -1.0000000E-01;1216;  0.0000000E+00;  0.0000000E+00;  0.0000000E+00;  1.0000000E+03;  1.0000000E-01;  0.0000000E+00;0;  0.0000000E+00;  0.0000000E+00;  0.0000000E+00;0;  8.0539322E-01;  4.0000000E+04;  0.0000000E+00;  0.0000000E+00;  4.0000000E+04;  0.0000000E+00;  4.0000000E+04;  8.1864828E-01;  0.0000000E+00; -1.3255044E-02;  8.7671466E+02;
 -7.0000000E-02;  9.9999998E-03; -9.0000004E-02;1217;  0.0000000E+00;  0.0000000E+00;  0.0000000E+00;  1.0000000E+03;  1.0000000E-01;  0.0000000E+00;0;  0.0000000E+00;  0.0000000E+00;  0.0000000E+00;0;  8.1329870E-01;  4.0000000E+04;  0.0000000E+00;  0.0000000E+00;  4.0000000E+04;  0.0000000E+00;  4.0000000E+04;  8.2598144E-01;  0.0000000E+00; -1.2682752E-02;  8.8264874E+02;
 -7.0000000E-02;  9.9999998E-03; -7.9999998E-02;1218;  0.0000000E+00;  0.0000000E+00;  0.0000000E+00;  1.0000000E+03;  1.0000000E-01;  0.0000000E+00;0;  0.0000000E+00;  0.0000000E+00;  0.0000000E+00;0;  8.1969017E-01;  4.0000000E+04;  0.0000000E+00;  0.0000000E+00;  4.0000000E+04;  0.0000000E+00;  4.0000000E+04;  8.3186209E-01;  0.0000000E+00; -1.2171946E-02;  8.7549396E+02;
 -7.0000000E-02;  9.9999998E-03; -7.0000000E-02;1219;  0.0000000E+00;  0.0000000E+00;  0.0000000E+00;  1.0000000E+03;  1.0000000E-01;  0.0000000E+00;0;  0.0000000E+00;  0.0000000E+00;  0.0000000E+00;0;  8.2485318E-01;  4.0000000E+04;  0.0000000E+00;  0.0000000E+00;  4.0000000E+04;  0.0000000E+00;  4.0000000E+04;  8.3661193E-01;  0.0000000E+00; -1.1758753E-02;  8.6022943E+02;
 -7.0000000E-02;  9.9999998E-03; -5.9999999E-02;1220;  0.0000000E+00;  0.0000000E+00;  0.0000000E+00;  1.0000000E+03;  1.0000000E-01;  0.0000000E+00;0;  0.0000000E+00;  0.0000000E+00;  0.0000000E+00;0;  8.2901061E-01;  4.0000000E+04;  0.0000000E+00;  0.0000000E+00;  4.0000000E+04;  0.0000000E+00;  4.0000000E+04;  8.4046239E-01;  0.0000000E+00; -1.1451810E-02;  8.4098663E+02;
 -7.0000000E-02;  9.9999998E-03; -5.0000001E-02;1221;  0.0000000E+00;  0.0000000E+00;  0.0000000E+00;  1.0000000E+03;  1.0000000E-01;  0.0000000E+00;0;  0.0000000E+00;  0.0000000E+00;  0.0000000E+00;0;  8.3232832E-01;  4.0000000E+04;  0.0000000E+00;  0.0000000E+00;  4.0000000E+04;  0.0000000E+00;  4.0000000E+04;  8.4356886E-01;  0.0000000E+00; -1.1240526E-02;  8.2094141E+02;
 -7.0000000E-02;  9.9999998E-03; -3.9999999E-02;1222;  0.0000000E+00;  0.0000000E+00;  0.0000000E+00;  1.0000000E+03;  1.0000000E-01;  0.0000000E+00;0;  0.0000000E+00;  0.0000000E+00;  0.0000000E+00;0;  8.3492470E-01;  4.0000000E+04;  0.0000000E+00;  0.0000000E+00;  4.0000000E+04;  0.0000000E+00;  4.0000000E+04;  8.4602940E-01;  0.0000000E+00; -1.1104689E-02;  8.0235382E+02;
 -7.0000000E-02;  9.9999998E-03; -2.9999999E-02;1223;  0.0000000E+00;  0.0000000E+00;  0.0000000E+00;  1.0000000E+03;  1.0000000E-01;  0.0000000E+00;0;  0.0000000E+00;  0.0000000E+00;  0.0000000E+00;0;  8.3687961E-01;  4.0000000E+04;  0.0000000E+00;  0.0000000E+00;  4.0000000E+04;  0.0000000E+00;  4.0000000E+04;  8.4790236E-01;  0.0000000E+00; -1.1022728E-02;  7.8673486E+02;
 -7.0000000E-02;  9.9999998E-03; -2.0000000E-02;1224;  0.0000000E+00;  0.0000000E+00;  0.0000000E+00;  1.0000000E+03;  1.0000000E-01;  0.0000000E+00;0;  0.0000000E+00;  0.0000000E+00;  0.0000000E+00;0;  8.3824611E-01;  4.0000000E+04;  0.0000000E+00;  0.0000000E+00;  4.0000000E+04;  0.0000000E+00;  4.0000000E+04;  8.4922278E-01;  0.0000000E+00; -1.0976687E-02;  7.7503473E+02;
 -7.0000000E-02;  9.9999998E-03; -9.9999998E-03;1225;  0.0000000E+00;  0.0000000E+00;  0.0000000E+00;  1.0000000E+03;  1.0000000E-01;  0.0000000E+00;0;  0.0000000E+00;  0.0000000E+00;  0.0000000E+00;0;  8.3905429E-01;  4.0000000E+04;  0.0000000E+00;  0.0000000E+00;  4.0000000E+04;  0.0000000E+00;  4.0000000E+04;  8.5000825E-01;  0.0000000E+00; -1.0953940E-02;  7.6781885E+02;
 -7.0000000E-02;  9.9999998E-03;  0.0000000E+00;1226;  0.0000000E+00;  0.0000000E+00;  0.0000000E+00;  1.0000000E+03;  1.0000000E-01;  0.0000000E+00;0;  0.0000000E+00;  0.0000000E+00;  0.0000000E+00;0;  8.3932203E-01;  4.0000000E+04;  0.0000000E+00;  0.0000000E+00;  4.0000000E+04;  0.0000000E+00;  4.0000000E+04;  8.5026920E-01;  0.0000000E+00; -1.0947171E-02;  7.6538342E+02;
 -7.0000000E-02;  9.9999998E-03;  9.9999998E-03;1227;  0.0000000E+00;  0.0000000E+00;  0.0000000E+00;  1.0000000E+03;  1.0000000E-01;  0.0000000E+00;0;  0.0000000E+00;  0.0000000E+00;  0.0000000E+00;0;  8.3905417E-01;  4.0000000E+04;  0.0000000E+00;  0.0000000E+00;  4.0000000E+04;  0.0000000E+00;  4.0000000E+04;  8.5000813E-01;  0.0000000E+00; -1.0953942E-02;  7.6781854E+02;
 -7.0000000E-02;  9.9999998E-03;  2.0000000E-02;1228;  0.0000000E+00;  0.0000000E+00;  0.0000000E+00;  1.0000000E+03;  1.0000000E-01;  0.0000000E+00;0;  0.0000000E+00;  0.0000000E+00;  0.0000000E+00;0;  8.3824569E-01;  4.0000000E+04;  0.0000000E+00;  0.0000000E+00;  4.0000000E+04;  0.0000000E+00;  4.0000000E+04;  8.4922236E-01;  0.0000000E+00; -1.0976686E-02;  7.7503461E+02;
 -7.0000000E-02;  9.9999998E-03;  2.9999999E-02;1229;  0.0000000E+00;  0.0000000E+00;  0.0000000E+00;  1.0000000E+03;  1.0000000E-01;  0.0000000E+00;0;  0.0000000E+00;  0.0000000E+00;  0.0000000E+00;0;  8.3687955E-01;  4.0000000E+04;  0.0000000E+00;  0.0000000E+00;  4.0000000E+04;  0.0000000E+00;  4.0000000E+04;  8.4790230E-01;  0.0000000E+00; -1.1022737E-02;  7.8673407E+02;
 -7.0000000E-02;  9.9999998E-03;  3.9999999E-02;1230;  0.0000000E+00;  0.0000000E+00;  0.0000000E+00;  1.0000000E+03;  1.0000000E-01;  0.0000000E+00;0;  0.0000000E+00;  0.0000000E+00;  0.0000000E+00;0;  8.3492464E-01;  4.0000000E+04;  0.0000000E+00;  0.0000000E+00;  4.0000000E+04;  0.0000000E+00;  4.0000000E+04;  8.4602934E-01;  0.0000000E+00; -1.1104700E-02;  8.0235254E+02;
 -7.0000000E-02;  9.9999998E-03;  5.0000001E-02;1231;  0.0000000E+00;  0.0000000E+00;  0.0000000E+00;  1.0000000E+03;  1.0000000E-01;  0.0000000E+00;0;  0.0000000E+00;  0.0000000E+00;  0.0000000E+00;0;  8.3232850E-01;  4.0000000E+04;  0.0000000E+00;  0.0000000E+00;  4.0000000E+04;  0.0000000E+00;  4.0000000E+04;  8.4356904E-01;  0.0000000E+00; -1.1240542E-02;  8.2094067E+02;
 -7.0000000E-02;  9.9999998E-03;  5.9999999E-02;1232;  0.0000000E+00;  0.0000000E+00;  0.0000000E+00;  1.0000000E+03;  1.0000000E-01;  0.0000000E+00;0;  0.0000000E+00;  0.0000000E+00;  0.0000000E+00;0;  8.2901031E-01;  4.0000000E+04;  0.0000000E+00;  0.0000000E+00;  4.0000000E+04;  0.0000000E+00;  4.0000000E+04;  8.4046215E-01;  0.0000000E+00; -1.1451835E-02;  8.4098517E+02;
 -5.9999999E-02;  9.9999998E-03; -1.0000000E-01;1307;  0.0000000E+00;  0.0000000E+00;  0.0000000E+00;  1.0000000E+03;  1.0000000E-01;  0.0000000E+00;0;  0.0000000E+00;  0.0000000E+00;  0.0000000E+00;0;  1.0486388E+00;  4.0000000E+04;  0.0000000E+00;  0.0000000E+00;  4.0000000E+04;  0.0000000E+00;  4.0000000E+04;  1.0677587E+00;  0.0000000E+00; -1.9119892E-02;  1.3045640E+03;
 -5.9999999E-02;  9.9999998E-03; -9.0000004E-02;1308;  0.0000000E+00;  0.0000000E+00;  0.0000000E+00;  1.0000000E+03;  1.0000000E-01;  0.0000000E+00;0;  0.0000000E+00;  0.0000000E+00;  0.0000000E+00;0;  1.0589799E+00;  4.0000000E+04;  0.0000000E+00;  0.0000000E+00;  4.0000000E+04;  0.0000000E+00;  4.0000000E+04;  1.0773293E+00;  0.0000000E+00; -1.8349392E-02;  1.3119182E+03;
 -5.9999999E-02;  9.9999998E-03; -7.9999998E-02;1309;  0.0000000E+00;  0.0000000E+00;  0.0000000E+00;  1.0000000E+03;  1.0000000E-01;  0.0000000E+00;0;  0.0000000E+00;  0.0000000E+00;  0.0000000E+00;0;  1.0673761E+00;  4.0000000E+04;  0.0000000E+00;  0.0000000E+00;  4.0000000E+04;  0.0000000E+00;  4.0000000E+04;  1.0850347E+00;  0.0000000E+00; -1.7658634E-02;  1.3007002E+03;
 -5.9999999E-02;  9.9999998E-03; -7.0000000E-02;1310;  0.0000000E+00;  0.0000000E+00;  0.0000000E+00;  1.0000000E+03;  1.0000000E-01;  0.0000000E+00;0;  0.0000000E+00;  0.0000000E+00;  0.0000000E+00;0;  1.0741713E+00;  4.0000000E+04;  0.0000000E+00;  0.0000000E+00;  4.0000000E+04;  0.0000000E+00;  4.0000000E+04;  1.0912696E+00;  0.0000000E+00; -1.7098274E-02;  1.2779790E+03;
 -5.9999999E-02;  9.9999998E-03; -5.9999999E-02;1311;  0.0000000E+00;  0.0000000E+00;  0.0000000E+00;  1.0000000E+03;  1.0000000E-01;  0.0000000E+00;0;  0.0000000E+00;  0.0000000E+00;  0.0000000E+00;0;  1.0796455E+00;  4.0000000E+04;  0.0000000E+00;  0.0000000E+00;  4.0000000E+04;  0.0000000E+00;  4.0000000E+04;  1.0963279E+00;  0.0000000E+00; -1.6682424E-02;  1.2496504E+03;
 -5.9999999E-02;  9.9999998E-03; -5.0000001E-02;1312;  0.0000000E+00;  0.0000000E+00;  0.0000000E+00;  1.0000000E+03;  1.0000000E-01;  0.0000000E+00;0;  0.0000000E+00;  0.0000000E+00;  0.0000000E+00;0;  1.0840089E+00;  4.0000000E+04;  0.0000000E+00;  0.0000000E+00;  4.0000000E+04;  0.0000000E+00;  4.0000000E+04;  1.1004075E+00;  0.0000000E+00; -1.6398525E-02;  1.2202604E+03;
 -5.9999999E-02;  9.9999998E-03; -3.9999999E-02;1313;  0.0000000E+00;  0.0000000E+00;  0.0000000E+00;  1.0000000E+03;  1.0000000E-01;  0.0000000E+00;0;  0.0000000E+00;  0.0000000E+00;  0.0000000E+00;0;  1.0874165E+00;  4.0000000E+04;  0.0000000E+00;  0.0000000E+00;  4.0000000E+04;  0.0000000E+00;  4.0000000E+04;  1.1036360E+00;  0.0000000E+00; -1.6219482E-02;  1.1930707E+03;
 -5.9999999E-02;  9.9999998E-03; -2.9999999E-02;1314;  0.0000000E+00;  0.0000000E+00;  0.0000000E+00;  1.0000000E+03;  1.0000000E-01;  0.0000000E+00;0;  0.0000000E+00;  0.0000000E+00;  0.0000000E+00;0;  1.0899764E+00;  4.0000000E+04;  0.0000000E+00;  0.0000000E+00;  4.0000000E+04;  0.0000000E+00;  4.0000000E+04;  1.1060914E+00;  0.0000000E+00; -1.6114952E-02;  1.1702628E+03;
 -5.9999999E-02;  9.9999998E-03; -2.0000000E-02;1315;  0.0000000E+00;  0.0000000E+00;  0.0000000E+00;  1.0000000E+03;  1.0000000E-01;  0.0000000E+00;0;  0.0000000E+00;  0.0000000E+00;  0.0000000E+00;0;  1.0917637E+00;  4.0000000E+04;  0.0000000E+00;  0.0000000E+00;  4.0000000E+04;  0.0000000E+00;  4.0000000E+04;  1.1078224E+00;  0.0000000E+00; -1.6058721E-02;  1.1532019E+03;
 -5.9999999E-02;  9.9999998E-03; -9.9999998E-03;1316;  0.0000000E+00;  0.0000000E+00;  0.0000000E+00;  1.0000000E+03;  1.0000000E-01;  0.0000000E+00;0;  0.0000000E+00;  0.0000000E+00;  0.0000000E+00;0;  1.0928199E+00;  4.0000000E+04;  0.0000000E+00;  0.0000000E+00;  4.0000000E+04;  0.0000000E+00;  4.0000000E+04;  1.1088520E+00;  0.0000000E+00; -1.6032159E-02;  1.1426908E+03;
 -5.9999999E-02;  9.9999998E-03;  0.0000000E+00;1317;  0.0000000E+00;  0.0000000E+00;  0.0000000E+00;  1.0000000E+03;  1.0000000E-01;  0.0000000E+00;0;  0.0000000E+00;  0.0000000E+00;  0.0000000E+00;0;  1.0931680E+00;  4.0000000E+04;  0.0000000E+00;  0.0000000E+00;  4.0000000E+04;  0.0000000E+00;  4.0000000E+04;  1.1091925E+00;  0.0000000E+00; -1.6024491E-02;  1.1391449E+03;
 -5.9999999E-02;  9.9999998E-03;  9.9999998E-03;1318;  0.0000000E+00;  0.0000000E+00;  0.0000000E+00;  1.0000000E+03;  1.0000000E-01;  0.0000000E+00;0;  0.0000000E+00;  0.0000000E+00;  0.0000000E+00;0;  1.0928185E+00;  4.0000000E+04;  0.0000000E+00;  0.0000000E+00;  4.0000000E+04;  0.0000000E+00;  4.0000000E+04;  1.1088507E+00;  0.0000000E+00; -1.6032169E-02;  1.1426906E+03;
 -5.9999999E-02;  9.9999998E-03;  2.0000000E-02;1319;  0.0000000E+00;  0.0000000E+00;  0.0000000E+00;  1.0000000E+03;  1.0000000E-01;  0.0000000E+00;0;  0.0000000E+00;  0.0000000E+00;  0.0000000E+00;0;  1.0917633E+00;  4.0000000E+04;  0.0000000E+00;  0.0000000E+00;  4.0000000E+04;  0.0000000E+00;  4.0000000E+04;  1.1078219E+00;  0.0000000E+00; -1.6058730E-02;  1.1532009E+03;
 -5.9999999E-02;  9.9999998E-03;  2.9999999E-02;1320;  0.0000000E+00;  0.0000000E+00;  0.0000000E+00;  1.0000000E+03;  1.0000000E-01;  0.0000000E+00;0;  0.0000000E+00;  0.0000000E+00;  0.0000000E+00;0;  1.0899773E+00;  4.0000000E+04;  0.0000000E+00;  0.0000000E+00;  4.0000000E+04;  0.0000000E+00;  4.0000000E+04;  1.1060922E+00;  0.0000000E+00; -1.6114965E-02;  1.1702625E+03;
 -5.9999999E-02;  9.9999998E-03;  3.9999999E-02;1321;  0.0000000E+00;  0.0000000E+00;  0.0000000E+00;  1.0000000E+03;  1.0000000E-01;  0.0000000E+00;0;  0.0000000E+00;  0.0000000E+00;  0.0000000E+00;0;  1.0874165E+00;  4.0000000E+04;  0.0000000E+00;  0.0000000E+00;  4.0000000E+04;  0.0000000E+00;  4.0000000E+04;  1.1036360E+00;  0.0000000E+00; -1.6219508E-02;  1.1930696E+03;
 -5.9999999E-02;  9.9999998E-03;  5.0000001E-02;1322;  0.0000000E+00;  0.0000000E+00;  0.0000000E+00;  1.0000000E+03;  1.0000000E-01;  0.0000000E+00;0;  0.0000000E+00;  0.0000000E+00;  0.0000000E+00;0;  1.0840089E+00;  4.0000000E+04;  0.0000000E+00;  0.0000000E+00;  4.0000000E+04;  0.0000000E+00;  4.0000000E+04;  1.1004075E+00;  0.0000000E+00; -1.6398557E-02;  1.2202590E+03;
 -5.9999999E-02;  9.9999998E-03;  5.9999999E-02;1323;  0.0000000E+00;  0.0000000E+00;  0.0000000E+00;  1.0000000E+03;  1.0000000E-01;  0.0000000E+00;0;  0.0000000E+00;  0.0000000E+00;  0.0000000E+00;0;  1.0796461E+00;  4.0000000E+04;  0.0000000E+00;  0.0000000E+00;  4.0000000E+04;  0.0000000E+00;  4.0000000E+04;  1.0963285E+00;  0.0000000E+00; -1.6682444E-02;  1.2496490E+03;
 -5.0000001E-02;  9.9999998E-03; -1.0000000E-01;1398;  0.0000000E+00;  0.0000000E+00;  0.0000000E+00;  1.0000000E+03;  1.0000000E-01;  0.0000000E+00;0;  0.0000000E+00;  0.0000000E+00;  0.0000000E+00;0;  1.3102096E+00;  4.0000000E+04;  0.0000000E+00;  0.0000000E+00;  4.0000000E+04;  0.0000000E+00;  4.0000000E+04;  1.3364164E+00;  0.0000000E+00; -2.6206749E-02;  1.8614836E+03;
 -5.0000001E-02;  9.9999998E-03; -9.0000004E-02;1399;  0.0000000E+00;  0.0000000E+00;  0.0000000E+00;  1.0000000E+03;  1.0000000E-01;  0.0000000E+00;0;  0.0000000E+00;  0.0000000E+00;  0.0000000E+00;0;  1.3230808E+00;  4.0000000E+04;  0.0000000E+00;  0.0000000E+00;  4.0000000E+04;  0.0000000E+00;  4.0000000E+04;  1.3482915E+00;  0.0000000E+00; -2.5210729E-02;  1.8684451E+03;
 -5.0000001E-02;  9.9999998E-03; -7.9999998E-02;1400;  0.0000000E+00;  0.0000000E+00;  0.0000000E+00;  1.0000000E+03;  1.0000000E-01;  0.0000000E+00;0;  0.0000000E+00;  0.0000000E+00;  0.0000000E+00;0;  1.3335809E+00;  4.0000000E+04;  0.0000000E+00;  0.0000000E+00;  4.0000000E+04;  0.0000000E+00;  4.0000000E+04;  1.3579016E+00;  0.0000000E+00; -2.4320679E-02;  1.8505083E+03;
 -5.0000001E-02;  9.9999998E-03; -7.0000000E-02;1401;  0.0000000E+00;  0.0000000E+00;  0.0000000E+00;  1.0000000E+03;  1.0000000E-01;  0.0000000E+00;0;  0.0000000E+00;  0.0000000E+00;  0.0000000E+00;0;  1.3421097E+00;  4.0000000E+04;  0.0000000E+00;  0.0000000E+00;  4.0000000E+04;  0.0000000E+00;  4.0000000E+04;  1.3657115E+00;  0.0000000E+00; -2.3601757E-02;  1.8172816E+03;
 -5.0000001E-02;  9.9999998E-03; -5.9999999E-02;1402;  0.0000000E+00;  0.0000000E+00;  0.0000000E+00;  1.0000000E+03;  1.0000000E-01;  0.0000000E+00;0;  0.0000000E+00;  0.0000000E+00;  0.0000000E+00;0;  1.3489908E+00;  4.0000000E+04;  0.0000000E+00;  0.0000000E+00;  4.0000000E+04;  0.0000000E+00;  4.0000000E+04;  1.3720634E+00;  0.0000000E+00; -2.3072626E-02;  1.7767828E+03;
 -5.0000001E-02;  9.9999998E-03; -5.0000001E-02;1403;  0.0000000E+00;  0.0000000E+00;  0.0000000E+00;  1.0000000E+03;  1.0000000E-01;  0.0000000E+00;0;  0.0000000E+00;  0.0000000E+00;  0.0000000E+00;0;  1.3544754E+00;  4.0000000E+04;  0.0000000E+00;  0.0000000E+00;  4.0000000E+04;  0.0000000E+00;  4.0000000E+04;  1.3771927E+00;  0.0000000E+00; -2.2717344E-02;  1.7351919E+03;
 -5.0000001E-02;  9.9999998E-03; -3.9999999E-02;1404;  0.0000000E+00;  0.0000000E+00;  0.0000000E+00;  1.0000000E+03;  1.0000000E-01;  0.0000000E+00;0;  0.0000000E+00;  0.0000000E+00;  0.0000000E+00;0;  1.3587579E+00;  4.0000000E+04;  0.0000000E+00;  0.0000000E+00;  4.0000000E+04;  0.0000000E+00;  4.0000000E+04;  1.3812580E+00;  0.0000000E+00; -2.2500150E-02;  1.6969358E+03;
 -5.0000001E-02;  9.9999998E-03; -2.9999999E-02;1405;  0.0000000E+00;  0.0000000E+00;  0.0000000E+00;  1.0000000E+03;  1.0000000E-01;  0.0000000E+00;0;  0.0000000E+00;  0.0000000E+00;  0.0000000E+00;0;  1.3619721E+00;  4.0000000E+04;  0.0000000E+00;  0.0000000E+00;  4.0000000E+04;  0.0000000E+00;  4.0000000E+04;  1.3843518E+00;  0.0000000E+00; -2.2379801E-02;  1.6649651E+03;
 -5.0000001E-02;  9.9999998E-03; -2.0000000E-02;1406;  0.0000000E+00;  0.0000000E+00;  0.0000000E+00;  1.0000000E+03;  1.0000000E-01;  0.0000000E+00;0;  0.0000000E+00;  0.0000000E+00;  0.0000000E+00;0;  1.3642126E+00;  4.0000000E+04;  0.0000000E+00;  0.0000000E+00;  4.0000000E+04;  0.0000000E+00;  4.0000000E+04;  1.3865325E+00;  0.0000000E+00; -2.2319904E-02;  1.6411177E+03;
 -5.0000001E-02;  9.9999998E-03; -9.9999998E-03;1407;  0.0000000E+00;  0.0000000E+00;  0.0000000E+00;  1.0000000E+03;  1.0000000E-01;  0.0000000E+00;0;  0.0000000E+00;  0.0000000E+00;  0.0000000E+00;0;  1.3655345E+00;  4.0000000E+04;  0.0000000E+00;  0.0000000E+00;  4.0000000E+04;  0.0000000E+00;  4.0000000E+04;  1.3878287E+00;  0.0000000E+00; -2.2294132E-02;  1.6264523E+03;
 -5.0000001E-02;  9.9999998E-03;  0.0000000E+00;1408;  0.0000000E+00;  0.0000000E+00;  0.0000000E+00;  1.0000000E+03;  1.0000000E-01;  0.0000000E+00;0;  0.0000000E+00;  0.0000000E+00;  0.0000000E+00;0;  1.3659730E+00;  4.0000000E+04;  0.0000000E+00;  0.0000000E+00;  4.0000000E+04;  0.0000000E+00;  4.0000000E+04;  1.3882602E+00;  0.0000000E+00; -2.2287212E-02;  1.6215092E+03;
 -5.0000001E-02;  9.9999998E-03;  9.9999998E-03;1409;  0.0000000E+00;  0.0000000E+00;  0.0000000E+00;  1.0000000E+03;  1.0000000E-01;  0.0000000E+00;0;  0.0000000E+00;  0.0000000E+00;  0.0000000E+00;0;  1.3655344E+00;  4.0000000E+04;  0.0000000E+00;  0.0000000E+00;  4.0000000E+04;  0.0000000E+00;  4.0000000E+04;  1.3878286E+00;  0.0000000E+00; -2.2294139E-02;  1.6264518E+03;
 -5.0000001E-02;  9.9999998E-03;  2.0000000E-02;1410;  0.0000000E+00;  0.0000000E+00;  0.0000000E+00;  1.0000000E+03;  1.0000000E-01;  0.0000000E+00;0;  0.0000000E+00;  0.0000000E+00;  0.0000000E+00;0;  1.3642123E+00;  4.0000000E+04;  0.0000000E+00;  0.0000000E+00;  4.0000000E+04;  0.0000000E+00;  4.0000000E+04;  1.3865322E+00;  0.0000000E+00; -2.2319915E-02;  1.6411165E+03;
 -5.0000001E-02;  9.9999998E-03;  2.9999999E-02;1411;  0.0000000E+00;  0.0000000E+00;  0.0000000E+00;  1.0000000E+03;  1.0000000E-01;  0.0000000E+00;0;  0.0000000E+00;  0.0000000E+00;  0.0000000E+00;0;  1.3619716E+00;  4.0000000E+04;  0.0000000E+00;  0.0000000E+00;  4.0000000E+04;  0.0000000E+00;  4.0000000E+04;  1.3843515E+00;  0.0000000E+00; -2.2379827E-02;  1.6649644E+03;
 -5.0000001E-02;  9.9999998E-03;  3.9999999E-02;1412;  0.0000000E+00;  0.0000000E+00;  0.0000000E+00;  1.0000000E+03;  1.0000000E-01;  0.0000000E+00;0;  0.0000000E+00;  0.0000000E+00;  0.0000000E+00;0;  1.3587581E+00;  4.0000000E+04;  0.0000000E+00;  0.0000000E+00;  4.0000000E+04;  0.0000000E+00;  4.0000000E+04;  1.3812582E+00;  0.0000000E+00; -2.2500187E-02;  1.6969333E+03;
 -5.0000001E-02;  9.9999998E-03;  5.0000001E-02;1413;  0.0000000E+00;  0.0000000E+00;  0.0000000E+00;  1.0000000E+03;  1.0000000E-01;  0.0000000E+00;0;  0.0000000E+00;  0.0000000E+00;  0.0000000E+00;0;  1.3544756E+00;  4.0000000E+04;  0.0000000E+00;  0.0000000E+00;  4.0000000E+04;  0.0000000E+00;  4.0000000E+04;  1.3771930E+00;  0.0000000E+00; -2.2717386E-02;  1.7351903E+03;
 -5.0000001E-02;  9.9999998E-03;  5.9999999E-02;1414;  0.0000000E+00;  0.0000000E+00;  0.0000000E+00;  1.0000000E+03;  1.0000000E-01;  0.0000000E+00;0;  0.0000000E+00;  0.0000000E+00;  0.0000000E+00;0;  1.3489909E+00;  4.0000000E+04;  0.0000000E+00;  0.0000000E+00;  4.0000000E+04;  0.0000000E+00;  4.0000000E+04;  1.3720636E+00;  0.0000000E+00; -2.3072686E-02;  1.7767809E+03;
 -3.9999999E-02;  9.9999998E-03; -1.0000000E-01;1489;  0.0000000E+00;  0.0000000E+00;  0.0000000E+00;  1.0000000E+03;  1.0000000E-01;  0.0000000E+00;0;  0.0000000E+00;  0.0000000E+00;  0.0000000E+00;0;  1.5707338E+00;  4.0000000E+04;  0.0000000E+00;  0.0000000E+00;  4.0000000E+04;  0.0000000E+00;  4.0000000E+04;  1.6050308E+00;  0.0000000E+00; -3.4296945E-02;  2.5557532E+03;
 -3.9999999E-02;  9.9999998E-03; -9.0000004E-02;1490;  0.0000000E+00;  0.0000000E+00;  0.0000000E+00;  1.0000000E+03;  1.0000000E-01;  0.0000000E+00;0;  0.0000000E+00;  0.0000000E+00;  0.0000000E+00;0;  1.5860031E+00;  4.0000000E+04;  0.0000000E+00;  0.0000000E+00;  4.0000000E+04;  0.0000000E+00;  4.0000000E+04;  1.6190577E+00;  0.0000000E+00; -3.3054605E-02;  2.5588499E+03;
 -3.9999999E-02;  9.9999998E-03; -7.9999998E-02;1491;  0.0000000E+00;  0.0000000E+00;  0.0000000E+00;  1.0000000E+03;  1.0000000E-01;  0.0000000E+00;0;  0.0000000E+00;  0.0000000E+00;  0.0000000E+00;0;  1.5985233E+00;  4.0000000E+04;  0.0000000E+00;  0.0000000E+00;  4.0000000E+04;  0.0000000E+00;  4.0000000E+04;  1.6304797E+00;  0.0000000E+00; -3.1956449E-02;  2.5302671E+03;
 -3.9999999E-02;  9.9999998E-03; -7.0000000E-02;1492;  0.0000000E+00;  0.0000000E+00;  0.0000000E+00;  1.0000000E+03;  1.0000000E-01;  0.0000000E+00;0;  0.0000000E+00;  0.0000000E+00;  0.0000000E+00;0;  1.6087353E+00;  4.0000000E+04;  0.0000000E+00;  0.0000000E+00;  4.0000000E+04;  0.0000000E+00;  4.0000000E+04;  1.6398154E+00;  0.0000000E+00; -3.1080108E-02;  2.4825977E+03;
 -3.9999999E-02;  9.9999998E-03; -5.9999999E-02;1493;  0.0000000E+00;  0.0000000E+00;  0.0000000E+00;  1.0000000E+03;  1.0000000E-01;  0.0000000E+00;0;  0.0000000E+00;  0.0000000E+00;  0.0000000E+00;0;  1.6169976E+00;  4.0000000E+04;  0.0000000E+00;  0.0000000E+00;  4.0000000E+04;  0.0000000E+00;  4.0000000E+04;  1.6474435E+00;  0.0000000E+00; -3.0445989E-02;  2.4262668E+03;
 -3.9999999E-02;  9.9999998E-03; -5.0000001E-02;1494;  0.0000000E+00;  0.0000000E+00;  0.0000000E+00;  1.0000000E+03;  1.0000000E-01;  0.0000000E+00;0;  0.0000000E+00;  0.0000000E+00;  0.0000000E+00;0;  1.6235927E+00;  4.0000000E+04;  0.0000000E+00;  0.0000000E+00;  4.0000000E+04;  0.0000000E+00;  4.0000000E+04;  1.6536249E+00;  0.0000000E+00; -3.0032197E-02;  2.3692712E+03;
 -3.9999999E-02;  9.9999998E-03; -3.9999999E-02;1495;  0.0000000E+00;  0.0000000E+00;  0.0000000E+00;  1.0000000E+03;  1.0000000E-01;  0.0000000E+00;0;  0.0000000E+00;  0.0000000E+00;  0.0000000E+00;0;  1.6287429E+00;  4.0000000E+04;  0.0000000E+00;  0.0000000E+00;  4.0000000E+04;  0.0000000E+00;  4.0000000E+04;  1.6585346E+00;  0.0000000E+00; -2.9791672E-02;  2.3173118E+03;
 -3.9999999E-02;  9.9999998E-03; -2.9999999E-02;1496;  0.0000000E+00;  0.0000000E+00;  0.0000000E+00;  1.0000000E+03;  1.0000000E-01;  0.0000000E+00;0;  0.0000000E+00;  0.0000000E+00;  0.0000000E+00;0;  1.6326094E+00;  4.0000000E+04;  0.0000000E+00;  0.0000000E+00;  4.0000000E+04;  0.0000000E+00;  4.0000000E+04;  1.6622794E+00;  0.0000000E+00; -2.9669948E-02;  2.2741465E+03;
 -3.9999999E-02;  9.9999998E-03; -2.0000000E-02;1497;  0.0000000E+00;  0.0000000E+00;  0.0000000E+00;  1.0000000E+03;  1.0000000E-01;  0.0000000E+00;0;  0.0000000E+00;  0.0000000E+00;  0.0000000E+00;0;  1.6353005E+00;  4.0000000E+04;  0.0000000E+00;  0.0000000E+00;  4.0000000E+04;  0.0000000E+00;  4.0000000E+04;  1.6649189E+00;  0.0000000E+00; -2.9618371E-02;  2.2420789E+03;
 -3.9999999E-02;  9.9999998E-03; -9.9999998E-03;1498;  0.0000000E+00;  0.0000000E+00;  0.0000000E+00;  1.0000000E+03;  1.0000000E-01;  0.0000000E+00;0;  0.0000000E+00;  0.0000000E+00;  0.0000000E+00;0;  1.6368904E+00;  4.0000000E+04;  0.0000000E+00;  0.0000000E+00;  4.0000000E+04;  0.0000000E+00;  4.0000000E+04;  1.6664916E+00;  0.0000000E+00; -2.9601265E-02;  2.2224102E+03;
 -3.9999999E-02;  9.9999998E-03;  0.0000000E+00;1499;  0.0000000E+00;  0.0000000E+00;  0.0000000E+00;  1.0000000E+03;  1.0000000E-01;  0.0000000E+00;0;  0.0000000E+00;  0.0000000E+00;  0.0000000E+00;0;  1.6374164E+00;  4.0000000E+04;  0.0000000E+00;  0.0000000E+00;  4.0000000E+04;  0.0000000E+00;  4.0000000E+04;  1.6670141E+00;  0.0000000E+00; -2.9597782E-02;  2.2157878E+03;
 -3.9999999E-02;  9.9999998E-03;  9.9999998E-03;1500;  0.0000000E+00;  0.0000000E+00;  0.0000000E+00;  1.0000000E+03;  1.0000000E-01;  0.0000000E+00;0;  0.0000000E+00;  0.0000000E+00;  0.0000000E+00;0;  1.6368904E+00;  4.0000000E+04;  0.0000000E+00;  0.0000000E+00;  4.0000000E+04;  0.0000000E+00;  4.0000000E+04;  1.6664916E+00;  0.0000000E+00; -2.9601274E-02;  2.2224087E+03;
 -3.9999999E-02;  9.9999998E-03;  2.0000000E-02;1501;  0.0000000E+00;  0.0000000E+00;  0.0000000E+00;  1.0000000E+03;  1.0000000E-01;  0.0000000E+00;0;  0.0000000E+00;  0.0000000E+00;  0.0000000E+00;0;  1.6353000E+00;  4.0000000E+04;  0.0000000E+00;  0.0000000E+00;  4.0000000E+04;  0.0000000E+00;  4.0000000E+04;  1.6649184E+00;  0.0000000E+00; -2.9618407E-02;  2.2420781E+03;
 -3.9999999E-02;  9.9999998E-03;  2.9999999E-02;1502;  0.0000000E+00;  0.0000000E+00;  0.0000000E+00;  1.0000000E+03;  1.0000000E-01;  0.0000000E+00;0;  0.0000000E+00;  0.0000000E+00;  0.0000000E+00;0;  1.6326092E+00;  4.0000000E+04;  0.0000000E+00;  0.0000000E+00;  4.0000000E+04;  0.0000000E+00;  4.0000000E+04;  1.6622792E+00;  0.0000000E+00; -2.9669993E-02;  2.2741460E+03;
 -3.9999999E-02;  9.9999998E-03;  3.9999999E-02;1503;  0.0000000E+00;  0.0000000E+00;  0.0000000E+00;  1.0000000E+03;  1.0000000E-01;  0.0000000E+00;0;  0.0000000E+00;  0.0000000E+00;  0.0000000E+00;0;  1.6287434E+00;  4.0000000E+04;  0.0000000E+00;  0.0000000E+00;  4.0000000E+04;  0.0000000E+00;  4.0000000E+04;  1.6585351E+00;  0.0000000E+00; -2.9791713E-02;  2.3173103E+03;
 -3.9999999E-02;  9.9999998E-03;  5.0000001E-02;1504;  0.0000000E+00;  0.0000000E+00;  0.0000000E+00;  1.0000000E+03;  1.0000000E-01;  0.0000000E+00;0;  0.0000000E+00;  0.0000000E+00;  0.0000000E+00;0;  1.6235938E+00;  4.0000000E+04;  0.0000000E+00;  0.0000000E+00;  4.0000000E+04;  0.0000000E+00;  4.0000000E+04;  1.6536261E+00;  0.0000000E+00; -3.0032242E-02;  2.3692703E+03;
 -3.9999999E-02;  9.9999998E-03;  5.9999999E-02;1505;  0.0000000E+00;  0.0000000E+00;  0.0000000E+00;  1.0000000E+03;  1.0000000E-01;  0.0000000E+00;0;  0.0000000E+00;  0.0000000E+00;  0.0000000E+00;0;  1.6169981E+00;  4.0000000E+04;  0.0000000E+00;  0.0000000E+00;  4.0000000E+04;  0.0000000E+00;  4.0000000E+04;  1.6474441E+00;  0.0000000E+00; -3.0446049E-02;  2.4262632E+03;
 -2.9999999E-02;  9.9999998E-03; -1.0000000E-01;1580;  0.0000000E+00;  0.0000000E+00;  0.0000000E+00;  1.0000000E+03;  1.0000000E-01;  0.0000000E+00;0;  0.0000000E+00;  0.0000000E+00;  0.0000000E+00;0;  1.8043462E+00;  4.0000000E+04;  0.0000000E+00;  0.0000000E+00;  4.0000000E+04;  0.0000000E+00;  4.0000000E+04;  1.8473366E+00;  0.0000000E+00; -4.2990431E-02;  3.3845940E+03;
 -2.9999999E-02;  9.9999998E-03; -9.0000004E-02;1581;  0.0000000E+00;  0.0000000E+00;  0.0000000E+00;  1.0000000E+03;  1.0000000E-01;  0.0000000E+00;0;  0.0000000E+00;  0.0000000E+00;  0.0000000E+00;0;  1.8216079E+00;  4.0000000E+04;  0.0000000E+00;  0.0000000E+00;  4.0000000E+04;  0.0000000E+00;  4.0000000E+04;  1.8630991E+00;  0.0000000E+00; -4.1491196E-02;  3.3783813E+03;
 -2.9999999E-02;  9.9999998E-03; -7.9999998E-02;1582;  0.0000000E+00;  0.0000000E+00;  0.0000000E+00;  1.0000000E+03;  1.0000000E-01;  0.0000000E+00;0;  0.0000000E+00;  0.0000000E+00;  0.0000000E+00;0;  1.8358450E+00;  4.0000000E+04;  0.0000000E+00;  0.0000000E+00;  4.0000000E+04;  0.0000000E+00;  4.0000000E+04;  1.8760358E+00;  0.0000000E+00; -4.0190823E-02;  3.3338794E+03;
 -2.9999999E-02;  9.9999998E-03; -7.0000000E-02;1583;  0.0000000E+00;  0.0000000E+00;  0.0000000E+00;  1.0000000E+03;  1.0000000E-01;  0.0000000E+00;0;  0.0000000E+00;  0.0000000E+00;  0.0000000E+00;0;  1.8475106E+00;  4.0000000E+04;  0.0000000E+00;  0.0000000E+00;  4.0000000E+04;  0.0000000E+00;  4.0000000E+04;  1.8866847E+00;  0.0000000E+00; -3.9174061E-02;  3.2669895E+03;
 -2.9999999E-02;  9.9999998E-03; -5.9999999E-02;1584;  0.0000000E+00;  0.0000000E+00;  0.0000000E+00;  1.0000000E+03;  1.0000000E-01;  0.0000000E+00;0;  0.0000000E+00;  0.0000000E+00;  0.0000000E+00;0;  1.8569809E+00;  4.0000000E+04;  0.0000000E+00;  0.0000000E+00;  4.0000000E+04;  0.0000000E+00;  4.0000000E+04;  1.8954399E+00;  0.0000000E+00; -3.8458958E-02;  3.1907363E+03;
 -2.9999999E-02;  9.9999998E-03; -5.0000001E-02;1585;  0.0000000E+00;  0.0000000E+00;  0.0000000E+00;  1.0000000E+03;  1.0000000E-01;  0.0000000E+00;0;  0.0000000E+00;  0.0000000E+00;  0.0000000E+00;0;  1.8645575E+00;  4.0000000E+04;  0.0000000E+00;  0.0000000E+00;  4.0000000E+04;  0.0000000E+00;  4.0000000E+04;  1.9025710E+00;  0.0000000E+00; -3.8013455E-02;  3.1150112E+03;
 -2.9999999E-02;  9.9999998E-03; -3.9999999E-02;1586;  0.0000000E+00;  0.0000000E+00;  0.0000000E+00;  1.0000000E+03;  1.0000000E-01;  0.0000000E+00;0;  0.0000000E+00;  0.0000000E+00;  0.0000000E+00;0;  1.8704772E+00;  4.0000000E+04;  0.0000000E+00;  0.0000000E+00;  4.0000000E+04;  0.0000000E+00;  4.0000000E+04;  1.9082531E+00;  0.0000000E+00; -3.7775919E-02;  3.0467612E+03;
 -2.9999999E-02;  9.9999998E-03; -2.9999999E-02;1587;  0.0000000E+00;  0.0000000E+00;  0.0000000E+00;  1.0000000E+03;  1.0000000E-01;  0.0000000E+00;0;  0.0000000E+00;  0.0000000E+00;  0.0000000E+00;0;  1.8749235E+00;  4.0000000E+04;  0.0000000E+00;  0.0000000E+00;  4.0000000E+04;  0.0000000E+00;  4.0000000E+04;  1.9125994E+00;  0.0000000E+00; -3.7676033E-02;  2.9905034E+03;
 -2.9999999E-02;  9.9999998E-03; -2.0000000E-02;1588;  0.0000000E+00;  0.0000000E+00;  0.0000000E+00;  1.0000000E+03;  1.0000000E-01;  0.0000000E+00;0;  0.0000000E+00;  0.0000000E+00;  0.0000000E+00;0;  1.8780190E+00;  4.0000000E+04;  0.0000000E+00;  0.0000000E+00;  4.0000000E+04;  0.0000000E+00;  4.0000000E+04;  1.9156698E+00;  0.0000000E+00; -3.7650827E-02;  2.9489277E+03;
 -2.9999999E-02;  9.9999998E-03; -9.9999998E-03;1589;  0.0000000E+00;  0.0000000E+00;  0.0000000E+00;  1.0000000E+03;  1.0000000E-01;  0.0000000E+00;0;  0.0000000E+00;  0.0000000E+00;  0.0000000E+00;0;  1.8798488E+00;  4.0000000E+04;  0.0000000E+00;  0.0000000E+00;  4.0000000E+04;  0.0000000E+00;  4.0000000E+04;  1.9175026E+00;  0.0000000E+00; -3.7653826E-02;  2.9235161E+03;
 -2.9999999E-02;  9.9999998E-03;  0.0000000E+00;1590;  0.0000000E+00;  0.0000000E+00;  0.0000000E+00;  1.0000000E+03;  1.0000000E-01;  0.0000000E+00;0;  0.0000000E+00;  0.0000000E+00;  0.0000000E+00;0;  1.8804531E+00;  4.0000000E+04;  0.0000000E+00;  0.0000000E+00;  4.0000000E+04;  0.0000000E+00;  4.0000000E+04;  1.9181108E+00;  0.0000000E+00; -3.7657760E-02;  2.9149734E+03;
 -2.9999999E-02;  9.9999998E-03;  9.9999998E-03;1591;  0.0000000E+00;  0.0000000E+00;  0.0000000E+00;  1.0000000E+03;  1.0000000E-01;  0.0000000E+00;0;  0.0000000E+00;  0.0000000E+00;  0.0000000E+00;0;  1.8798488E+00;  4.0000000E+04;  0.0000000E+00;  0.0000000E+00;  4.0000000E+04;  0.0000000E+00;  4.0000000E+04;  1.9175026E+00;  0.0000000E+00; -3.7653841E-02;  2.9235146E+03;
 -2.9999999E-02;  9.9999998E-03;  2.0000000E-02;1592;  0.0000000E+00;  0.0000000E+00;  0.0000000E+00;  1.0000000E+03;  1.0000000E-01;  0.0000000E+00;0;  0.0000000E+00;  0.0000000E+00;  0.0000000E+00;0;  1.8780196E+00;  4.0000000E+04;  0.0000000E+00;  0.0000000E+00;  4.0000000E+04;  0.0000000E+00;  4.0000000E+04;  1.9156704E+00;  0.0000000E+00; -3.7650876E-02;  2.9489260E+03;
 -2.9999999E-02;  9.9999998E-03;  2.9999999E-02;1593;  0.0000000E+00;  0.0000000E+00;  0.0000000E+00;  1.0000000E+03;  1.0000000E-01;  0.0000000E+00;0;  0.0000000E+00;  0.0000000E+00;  0.0000000E+00;0;  1.8749230E+00;  4.0000000E+04;  0.0000000E+00;  0.0000000E+00;  4.0000000E+04;  0.0000000E+00;  4.0000000E+04;  1.9125991E+00;  0.0000000E+00; -3.7676089E-02;  2.9905012E+03;
 -2.9999999E-02;  9.9999998E-03;  3.9999999E-02;1594;  0.0000000E+00;  0.0000000E+00;  0.0000000E+00;  1.0000000E+03;  1.0000000E-01;  0.0000000E+00;0;  0.0000000E+00;  0.0000000E+00;  0.0000000E+00;0;  1.8704777E+00;  4.0000000E+04;  0.0000000E+00;  0.0000000E+00;  4.0000000E+04;  0.0000000E+00;  4.0000000E+04;  1.9082537E+00;  0.0000000E+00; -3.7775964E-02;  3.0467605E+03;
 -2.9999999E-02;  9.9999998E-03;  5.0000001E-02;1595;  0.0000000E+00;  0.0000000E+00;  0.0000000E+00;  1.0000000E+03;  1.0000000E-01;  0.0000000E+00;0;  0.0000000E+00;  0.0000000E+00;  0.0000000E+00;0;  1.8645577E+00;  4.0000000E+04;  0.0000000E+00;  0.0000000E+00;  4.0000000E+04;  0.0000000E+00;  4.0000000E+04;  1.9025712E+00;  0.0000000E+00; -3.8013514E-02;  3.1150083E+03;
 -2.9999999E-02;  9.9999998E-03;  5.9999999E-02;1596;  0.0000000E+00;  0.0000000E+00;  0.0000000E+00;  1.0000000E+03;  1.0000000E-01;  0.0000000E+00;0;  0.0000000E+00;  0.0000000E+00;  0.0000000E+00;0;  1.8569809E+00;  4.0000000E+04;  0.0000000E+00;  0.0000000E+00;  4.0000000E+04;  0.0000000E+00;  4.0000000E+04;  1.8954400E+00;  0.0000000E+00; -3.8459036E-02;  3.1907327E+03;
 -2.0000000E-02;  9.9999998E-03; -1.0000000E-01;1671;  0.0000000E+00;  0.0000000E+00;  0.0000000E+00;  1.0000000E+03;  1.0000000E-01;  0.0000000E+00;0;  0.0000000E+00;  0.0000000E+00;  0.0000000E+00;0;  1.9819568E+00;  4.0000000E+04;  0.0000000E+00;  0.0000000E+00;  4.0000000E+04;  0.0000000E+00;  4.0000000E+04;  2.0336556E+00;  0.0000000E+00; -5.1698849E-02;  4.3310083E+03;
 -2.0000000E-02;  9.9999998E-03; -9.0000004E-02;1672;  0.0000000E+00;  0.0000000E+00;  0.0000000E+00;  1.0000000E+03;  1.0000000E-01;  0.0000000E+00;0;  0.0000000E+00;  0.0000000E+00;  0.0000000E+00;0;  2.0005352E+00;  4.0000000E+04;  0.0000000E+00;  0.0000000E+00;  4.0000000E+04;  0.0000000E+00;  4.0000000E+04;  2.0504827E+00;  0.0000000E+00; -4.9947605E-02;  4.3080254E+03;
 -2.0000000E-02;  9.9999998E-03; -7.9999998E-02;1673;  0.0000000E+00;  0.0000000E+00;  0.0000000E+00;  1.0000000E+03;  1.0000000E-01;  0.0000000E+00;0;  0.0000000E+00;  0.0000000E+00;  0.0000000E+00;0;  2.0159578E+00;  4.0000000E+04;  0.0000000E+00;  0.0000000E+00;  4.0000000E+04;  0.0000000E+00;  4.0000000E+04;  2.0644267E+00;  0.0000000E+00; -4.8468724E-02;  4.2411182E+03;
 -2.0000000E-02;  9.9999998E-03; -7.0000000E-02;1674;  0.0000000E+00;  0.0000000E+00;  0.0000000E+00;  1.0000000E+03;  1.0000000E-01;  0.0000000E+00;0;  0.0000000E+00;  0.0000000E+00;  0.0000000E+00;0;  2.0286593E+00;  4.0000000E+04;  0.0000000E+00;  0.0000000E+00;  4.0000000E+04;  0.0000000E+00;  4.0000000E+04;  2.0760067E+00;  0.0000000E+00; -4.7347218E-02;  4.1496646E+03;
 -2.0000000E-02;  9.9999998E-03; -5.9999999E-02;1675;  0.0000000E+00;  0.0000000E+00;  0.0000000E+00;  1.0000000E+03;  1.0000000E-01;  0.0000000E+00;0;  0.0000000E+00;  0.0000000E+00;  0.0000000E+00;0;  2.0390108E+00;  4.0000000E+04;  0.0000000E+00;  0.0000000E+00;  4.0000000E+04;  0.0000000E+00;  4.0000000E+04;  2.0856030E+00;  0.0000000E+00; -4.6592243E-02;  4.0493074E+03;
 -2.0000000E-02;  9.9999998E-03; -5.0000001E-02;1676;  0.0000000E+00;  0.0000000E+00;  0.0000000E+00;  1.0000000E+03;  1.0000000E-01;  0.0000000E+00;0;  0.0000000E+00;  0.0000000E+00;  0.0000000E+00;0;  2.0473096E+00;  4.0000000E+04;  0.0000000E+00;  0.0000000E+00;  4.0000000E+04;  0.0000000E+00;  4.0000000E+04;  2.0934660E+00;  0.0000000E+00; -4.6156503E-02;  3.9517410E+03;
 -2.0000000E-02;  9.9999998E-03; -3.9999999E-02;1677;  0.0000000E+00;  0.0000000E+00;  0.0000000E+00;  1.0000000E+03;  1.0000000E-01;  0.0000000E+00;0;  0.0000000E+00;  0.0000000E+00;  0.0000000E+00;0;  2.0538044E+00;  4.0000000E+04;  0.0000000E+00;  0.0000000E+00;  4.0000000E+04;  0.0000000E+00;  4.0000000E+04;  2.0997643E+00;  0.0000000E+00; -4.5959957E-02;  3.8650095E+03;
 -2.0000000E-02;  9.9999998E-03; -2.9999999E-02;1678;  0.0000000E+00;  0.0000000E+00;  0.0000000E+00;  1.0000000E+03;  1.0000000E-01;  0.0000000E+00;0;  0.0000000E+00;  0.0000000E+00;  0.0000000E+00;0;  2.0586858E+00;  4.0000000E+04;  0.0000000E+00;  0.0000000E+00;  4.0000000E+04;  0.0000000E+00;  4.0000000E+04;  2.1045997E+00;  0.0000000E+00; -4.5913838E-02;  3.7941797E+03;
 -2.0000000E-02;  9.9999998E-03; -2.0000000E-02;1679;  0.0000000E+00;  0.0000000E+00;  0.0000000E+00;  1.0000000E+03;  1.0000000E-01;  0.0000000E+00;0;  0.0000000E+00;  0.0000000E+00;  0.0000000E+00;0;  2.0620830E+00;  4.0000000E+04;  0.0000000E+00;  0.0000000E+00;  4.0000000E+04;  0.0000000E+00;  4.0000000E+04;  2.1080220E+00;  0.0000000E+00; -4.5938909E-02;  3.7421775E+03;
 -2.0000000E-02;  9.9999998E-03; -9.9999998E-03;1680;  0.0000000E+00;  0.0000000E+00;  0.0000000E+00;  1.0000000E+03;  1.0000000E-01;  0.0000000E+00;0;  0.0000000E+00;  0.0000000E+00;  0.0000000E+00;0;  2.0640934E+00;  4.0000000E+04;  0.0000000E+00;  0.0000000E+00;  4.0000000E+04;  0.0000000E+00;  4.0000000E+04;  2.1100702E+00;  0.0000000E+00; -4.5976821E-02;  3.7105176E+03;
 -2.0000000E-02;  9.9999998E-03;  0.0000000E+00;1681;  0.0000000E+00;  0.0000000E+00;  0.0000000E+00;  1.0000000E+03;  1.0000000E-01;  0.0000000E+00;0;  0.0000000E+00;  0.0000000E+00;  0.0000000E+00;0;  2.0647569E+00;  4.0000000E+04;  0.0000000E+00;  0.0000000E+00;  4.0000000E+04;  0.0000000E+00;  4.0000000E+04;  2.1107500E+00;  0.0000000E+00; -4.5993187E-02;  3.6999055E+03;
 -2.0000000E-02;  9.9999998E-03;  9.9999998E-03;1682;  0.0000000E+00;  0.0000000E+00;  0.0000000E+00;  1.0000000E+03;  1.0000000E-01;  0.0000000E+00;0;  0.0000000E+00;  0.0000000E+00;  0.0000000E+00;0;  2.0640936E+00;  4.0000000E+04;  0.0000000E+00;  0.0000000E+00;  4.0000000E+04;  0.0000000E+00;  4.0000000E+04;  2.1100705E+00;  0.0000000E+00; -4.5976803E-02;  3.7105188E+03;
 -2.0000000E-02;  9.9999998E-03;  2.0000000E-02;1683;  0.0000000E+00;  0.0000000E+00;  0.0000000E+00;  1.0000000E+03;  1.0000000E-01;  0.0000000E+00;0;  0.0000000E+00;  0.0000000E+00;  0.0000000E+00;0;  2.0620837E+00;  4.0000000E+04;  0.0000000E+00;  0.0000000E+00;  4.0000000E+04;  0.0000000E+00;  4.0000000E+04;  2.1080227E+00;  0.0000000E+00; -4.5938917E-02;  3.7421748E+03;
 -2.0000000E-02;  9.9999998E-03;  2.9999999E-02;1684;  0.0000000E+00;  0.0000000E+00;  0.0000000E+00;  1.0000000E+03;  1.0000000E-01;  0.0000000E+00;0;  0.0000000E+00;  0.0000000E+00;  0.0000000E+00;0;  2.0586865E+00;  4.0000000E+04;  0.0000000E+00;  0.0000000E+00;  4.0000000E+04;  0.0000000E+00;  4.0000000E+04;  2.1046004E+00;  0.0000000E+00; -4.5913901E-02;  3.7941782E+03;
 -2.0000000E-02;  9.9999998E-03;  3.9999999E-02;1685;  0.0000000E+00;  0.0000000E+00;  0.0000000E+00;  1.0000000E+03;  1.0000000E-01;  0.0000000E+00;0;  0.0000000E+00;  0.0000000E+00;  0.0000000E+00;0;  2.0538056E+00;  4.0000000E+04;  0.0000000E+00;  0.0000000E+00;  4.0000000E+04;  0.0000000E+00;  4.0000000E+04;  2.0997655E+00;  0.0000000E+00; -4.5960017E-02;  3.8650068E+03;
 -2.0000000E-02;  9.9999998E-03;  5.0000001E-02;1686;  0.0000000E+00;  0.0000000E+00;  0.0000000E+00;  1.0000000E+03;  1.0000000E-01;  0.0000000E+00;0;  0.0000000E+00;  0.0000000E+00;  0.0000000E+00;0;  2.0473089E+00;  4.0000000E+04;  0.0000000E+00;  0.0000000E+00;  4.0000000E+04;  0.0000000E+00;  4.0000000E+04;  2.0934656E+00;  0.0000000E+00; -4.6156529E-02;  3.9517383E+03;
 -2.0000000E-02;  9.9999998E-03;  5.9999999E-02;1687;  0.0000000E+00;  0.0000000E+00;  0.0000000E+00;  1.0000000E+03;  1.0000000E-01;  0.0000000E+00;0;  0.0000000E+00;  0.0000000E+00;  0.0000000E+00;0;  2.0390115E+00;  4.0000000E+04;  0.0000000E+00;  0.0000000E+00;  4.0000000E+04;  0.0000000E+00;  4.0000000E+04;  2.0856037E+00;  0.0000000E+00; -4.6592332E-02;  4.0493025E+03;
 -9.9999998E-03;  9.9999998E-03; -1.0000000E-01;1762;  0.0000000E+00;  0.0000000E+00;  0.0000000E+00;  1.0000000E+03;  1.0000000E-01;  0.0000000E+00;0;  0.0000000E+00;  0.0000000E+00;  0.0000000E+00;0;  2.0753806E+00;  4.0000000E+04;  0.0000000E+00;  0.0000000E+00;  4.0000000E+04;  0.0000000E+00;  4.0000000E+04;  2.1350429E+00;  0.0000000E+00; -5.9662398E-02;  5.3613027E+03;
 -9.9999998E-03;  9.9999998E-03; -9.0000004E-02;1763;  0.0000000E+00;  0.0000000E+00;  0.0000000E+00;  1.0000000E+03;  1.0000000E-01;  0.0000000E+00;0;  0.0000000E+00;  0.0000000E+00;  0.0000000E+00;0;  2.0943847E+00;  4.0000000E+04;  0.0000000E+00;  0.0000000E+00;  4.0000000E+04;  0.0000000E+00;  4.0000000E+04;  2.1520684E+00;  0.0000000E+00; -5.7683598E-02;  5.3123608E+03;
 -9.9999998E-03;  9.9999998E-03; -7.9999998E-02;1764;  0.0000000E+00;  0.0000000E+00;  0.0000000E+00;  1.0000000E+03;  1.0000000E-01;  0.0000000E+00;0;  0.0000000E+00;  0.0000000E+00;  0.0000000E+00;0;  2.1102693E+00;  4.0000000E+04;  0.0000000E+00;  0.0000000E+00;  4.0000000E+04;  0.0000000E+00;  4.0000000E+04;  2.1663401E+00;  0.0000000E+00; -5.6070723E-02;  5.2157930E+03;
 -9.9999998E-03;  9.9999998E-03; -7.0000000E-02;1765;  0.0000000E+00;  0.0000000E+00;  0.0000000E+00;  1.0000000E+03;  1.0000000E-01;  0.0000000E+00;0;  0.0000000E+00;  0.0000000E+00;  0.0000000E+00;0;  2.1234250E+00;  4.0000000E+04;  0.0000000E+00;  0.0000000E+00;  4.0000000E+04;  0.0000000E+00;  4.0000000E+04;  2.1783245E+00;  0.0000000E+00; -5.4899447E-02;  5.0944053E+03;
 -9.9999998E-03;  9.9999998E-03; -5.9999999E-02;1766;  0.0000000E+00;  0.0000000E+00;  0.0000000E+00;  1.0000000E+03;  1.0000000E-01;  0.0000000E+00;0;  0.0000000E+00;  0.0000000E+00;  0.0000000E+00;0;  2.1341825E+00;  4.0000000E+04;  0.0000000E+00;  0.0000000E+00;  4.0000000E+04;  0.0000000E+00;  4.0000000E+04;  2.1883447E+00;  0.0000000E+00; -5.4162320E-02;  4.9662266E+03;
 -9.9999998E-03;  9.9999998E-03; -5.0000001E-02;1767;  0.0000000E+00;  0.0000000E+00;  0.0000000E+00;  1.0000000E+03;  1.0000000E-01;  0.0000000E+00;0;  0.0000000E+00;  0.0000000E+00;  0.0000000E+00;0;  2.1428325E+00;  4.0000000E+04;  0.0000000E+00;  0.0000000E+00;  4.0000000E+04;  0.0000000E+00;  4.0000000E+04;  2.1966236E+00;  0.0000000E+00; -5.3791162E-02;  4.8444395E+03;
 -9.9999998E-03;  9.9999998E-03; -3.9999999E-02;1768;  0.0000000E+00;  0.0000000E+00;  0.0000000E+00;  1.0000000E+03;  1.0000000E-01;  0.0000000E+00;0;  0.0000000E+00;  0.0000000E+00;  0.0000000E+00;0;  2.1496112E+00;  4.0000000E+04;  0.0000000E+00;  0.0000000E+00;  4.0000000E+04;  0.0000000E+00;  4.0000000E+04;  2.2032948E+00;  0.0000000E+00; -5.3683594E-02;  4.7378428E+03;
 -9.9999998E-03;  9.9999998E-03; -2.9999999E-02;1769;  0.0000000E+00;  0.0000000E+00;  0.0000000E+00;  1.0000000E+03;  1.0000000E-01;  0.0000000E+00;0;  0.0000000E+00;  0.0000000E+00;  0.0000000E+00;0;  2.1547065E+00;  4.0000000E+04;  0.0000000E+00;  0.0000000E+00;  4.0000000E+04;  0.0000000E+00;  4.0000000E+04;  2.2084363E+00;  0.0000000E+00; -5.3729862E-02;  4.6517534E+03;
 -9.9999998E-03;  9.9999998E-03; -2.0000000E-02;1770;  0.0000000E+00;  0.0000000E+00;  0.0000000E+00;  1.0000000E+03;  1.0000000E-01;  0.0000000E+00;0;  0.0000000E+00;  0.0000000E+00;  0.0000000E+00;0;  2.1582561E+00;  4.0000000E+04;  0.0000000E+00;  0.0000000E+00;  4.0000000E+04;  0.0000000E+00;  4.0000000E+04;  2.2120895E+00;  0.0000000E+00; -5.3833503E-02;  4.5890342E+03;
 -9.9999998E-03;  9.9999998E-03; -9.9999998E-03;1771;  0.0000000E+00;  0.0000000E+00;  0.0000000E+00;  1.0000000E+03;  1.0000000E-01;  0.0000000E+00;0;  0.0000000E+00;  0.0000000E+00;  0.0000000E+00;0;  2.1603510E+00;  4.0000000E+04;  0.0000000E+00;  0.0000000E+00;  4.0000000E+04;  0.0000000E+00;  4.0000000E+04;  2.2142744E+00;  0.0000000E+00; -5.3923283E-02;  4.5510449E+03;
 -9.9999998E-03;  9.9999998E-03;  0.0000000E+00;1772;  0.0000000E+00;  0.0000000E+00;  0.0000000E+00;  1.0000000E+03;  1.0000000E-01;  0.0000000E+00;0;  0.0000000E+00;  0.0000000E+00;  0.0000000E+00;0;  2.1610451E+00;  4.0000000E+04;  0.0000000E+00;  0.0000000E+00;  4.0000000E+04;  0.0000000E+00;  4.0000000E+04;  2.2150028E+00;  0.0000000E+00; -5.3957764E-02;  4.5383276E+03;
 -9.9999998E-03;  9.9999998E-03;  9.9999998E-03;1773;  0.0000000E+00;  0.0000000E+00;  0.0000000E+00;  1.0000000E+03;  1.0000000E-01;  0.0000000E+00;0;  0.0000000E+00;  0.0000000E+00;  0.0000000E+00;0;  2.1603520E+00;  4.0000000E+04;  0.0000000E+00;  0.0000000E+00;  4.0000000E+04;  0.0000000E+00;  4.0000000E+04;  2.2142754E+00;  0.0000000E+00; -5.3923320E-02;  4.5510439E+03;
 -9.9999998E-03;  9.9999998E-03;  2.0000000E-02;1774;  0.0000000E+00;  0.0000000E+00;  0.0000000E+00;  1.0000000E+03;  1.0000000E-01;  0.0000000E+00;0;  0.0000000E+00;  0.0000000E+00;  0.0000000E+00;0;  2.1582580E+00;  4.0000000E+04;  0.0000000E+00;  0.0000000E+00;  4.0000000E+04;  0.0000000E+00;  4.0000000E+04;  2.2120914E+00;  0.0000000E+00; -5.3833526E-02;  4.5890337E+03;
 -9.9999998E-03;  9.9999998E-03;  2.9999999E-02;1775;  0.0000000E+00;  0.0000000E+00;  0.0000000E+00;  1.0000000E+03;  1.0000000E-01;  0.0000000E+00;0;  0.0000000E+00;  0.0000000E+00;  0.0000000E+00;0;  2.1547065E+00;  4.0000000E+04;  0.0000000E+00;  0.0000000E+00;  4.0000000E+04;  0.0000000E+00;  4.0000000E+04;  2.2084365E+00;  0.0000000E+00; -5.3729918E-02;  4.6517529E+03;
 -9.9999998E-03;  9.9999998E-03;  3.9999999E-02;1776;  0.0000000E+00;  0.0000000E+00;  0.0000000E+00;  1.0000000E+03;  1.0000000E-01;  0.0000000E+00;0;  0.0000000E+00;  0.0000000E+00;  0.0000000E+00;0;  2.1496108E+00;  4.0000000E+04;  0.0000000E+00;  0.0000000E+00;  4.0000000E+04;  0.0000000E+00;  4.0000000E+04;  2.2032945E+00;  0.0000000E+00; -5.3683676E-02;  4.7378408E+03;
 -9.9999998E-03;  9.9999998E-03;  5.0000001E-02;1777;  0.0000000E+00;  0.0000000E+00;  0.0000000E+00;  1.0000000E+03;  1.0000000E-01;  0.0000000E+00;0;  0.0000000E+00;  0.0000000E+00;  0.0000000E+00;0;  2.1428332E+00;  4.0000000E+04;  0.0000000E+00;  0.0000000E+00;  4.0000000E+04;  0.0000000E+00;  4.0000000E+04;  2.1966245E+00;  0.0000000E+00; -5.3791221E-02;  4.8444331E+03;
 -9.9999998E-03;  9.9999998E-03;  5.9999999E-02;1778;  0.0000000E+00;  0.0000000E+00;  0.0000000E+00;  1.0000000E+03;  1.0000000E-01;  0.0000000E+00;0;  0.0000000E+00;  0.0000000E+00;  0.0000000E+00;0;  2.1341836E+00;  4.0000000E+04;  0.0000000E+00;  0.0000000E+00;  4.0000000E+04;  0.0000000E+00;  4.0000000E+04;  2.1883461E+00;  0.0000000E+00; -5.4162428E-02;  4.9662231E+03;
 -1.9000000E-01;  9.9999998E-03;  7.0000000E-02;141;  0.0000000E+00;  0.0000000E+00;  0.0000000E+00;  1.0000000E+03;  1.0000000E-01;  0.0000000E+00;0;  0.0000000E+00;  0.0000000E+00;  0.0000000E+00;0;  0.0000000E+00;  4.0000000E+04;  0.0000000E+00;  0.0000000E+00;  4.0000000E+04;  0.0000000E+00;  4.0000000E+04;  0.0000000E+00;  0.0000000E+00;  0.0000000E+00;  0.0000000E+00;
 -1.9000000E-01;  9.9999998E-03;  7.9999998E-02;142;  0.0000000E+00;  0.0000000E+00;  0.0000000E+00;  1.0000000E+03;  1.0000000E-01;  0.0000000E+00;0;  0.0000000E+00;  0.0000000E+00;  0.0000000E+00;0;  0.0000000E+00;  4.0000000E+04;  0.0000000E+00;  0.0000000E+00;  4.0000000E+04;  0.0000000E+00;  4.0000000E+04;  0.0000000E+00;  0.0000000E+00;  0.0000000E+00;  0.0000000E+00;
 -1.9000000E-01;  9.9999998E-03;  9.0000004E-02;143;  0.0000000E+00;  0.0000000E+00;  0.0000000E+00;  1.0000000E+03;  1.0000000E-01;  0.0000000E+00;0;  0.0000000E+00;  0.0000000E+00;  0.0000000E+00;0;  0.0000000E+00;  4.0000000E+04;  0.0000000E+00;  0.0000000E+00;  4.0000000E+04;  0.0000000E+00;  4.0000000E+04;  0.0000000E+00;  0.0000000E+00;  0.0000000E+00;  0.0000000E+00;
 -1.9000000E-01;  9.9999998E-03;  1.0000000E-01;144;  0.0000000E+00;  0.0000000E+00;  0.0000000E+00;  1.0000000E+03;  1.0000000E-01;  0.0000000E+00;0;  0.0000000E+00;  0.0000000E+00;  0.0000000E+00;0;  0.0000000E+00;  4.0000000E+04;  0.0000000E+00;  0.0000000E+00;  4.0000000E+04;  0.0000000E+00;  4.0000000E+04;  0.0000000E+00;  0.0000000E+00;  0.0000000E+00;  0.0000000E+00;
 -1.9000000E-01;  9.9999998E-03;  1.1000000E-01;145;  0.0000000E+00;  0.0000000E+00;  0.0000000E+00;  1.0000000E+03;  1.0000000E-01;  0.0000000E+00;0;  0.0000000E+00;  0.0000000E+00;  0.0000000E+00;0;  0.0000000E+00;  4.0000000E+04;  0.0000000E+00;  0.0000000E+00;  4.0000000E+04;  0.0000000E+00;  4.0000000E+04;  0.0000000E+00;  0.0000000E+00;  0.0000000E+00;  0.0000000E+00;
 -1.9000000E-01;  9.9999998E-03;  1.2000000E-01;146;  0.0000000E+00;  0.0000000E+00;  0.0000000E+00;  1.0000000E+03;  1.0000000E-01;  0.0000000E+00;0;  0.0000000E+00;  0.0000000E+00;  0.0000000E+00;0;  0.0000000E+00;  4.0000000E+04;  0.0000000E+00;  0.0000000E+00;  4.0000000E+04;  0.0000000E+00;  4.0000000E+04;  0.0000000E+00;  0.0000000E+00;  0.0000000E+00;  0.0000000E+00;
 -1.9000000E-01;  9.9999998E-03;  1.3000000E-01;147;  0.0000000E+00;  0.0000000E+00;  0.0000000E+00;  1.0000000E+03;  1.0000000E-01;  0.0000000E+00;0;  0.0000000E+00;  0.0000000E+00;  0.0000000E+00;0;  0.0000000E+00;  4.0000000E+04;  0.0000000E+00;  0.0000000E+00;  4.0000000E+04;  0.0000000E+00;  4.0000000E+04;  0.0000000E+00;  0.0000000E+00;  0.0000000E+00;  0.0000000E+00;
 -1.9000000E-01;  9.9999998E-03;  1.4000000E-01;148;  0.0000000E+00;  0.0000000E+00;  0.0000000E+00;  1.0000000E+03;  1.0000000E-01;  0.0000000E+00;0;  0.0000000E+00;  0.0000000E+00;  0.0000000E+00;0;  0.0000000E+00;  4.0000000E+04;  0.0000000E+00;  0.0000000E+00;  4.0000000E+04;  0.0000000E+00;  4.0000000E+04;  0.0000000E+00;  0.0000000E+00;  0.0000000E+00;  0.0000000E+00;
 -1.9000000E-01;  9.9999998E-03;  1.5000001E-01;149;  0.0000000E+00;  0.0000000E+00;  0.0000000E+00;  1.0000000E+03;  1.0000000E-01;  0.0000000E+00;0;  0.0000000E+00;  0.0000000E+00;  0.0000000E+00;0;  0.0000000E+00;  4.0000000E+04;  0.0000000E+00;  0.0000000E+00;  4.0000000E+04;  0.0000000E+00;  4.0000000E+04;  0.0000000E+00;  0.0000000E+00;  0.0000000E+00;  0.0000000E+00;
 -1.9000000E-01;  9.9999998E-03;  1.6000000E-01;150;  0.0000000E+00;  0.0000000E+00;  0.0000000E+00;  1.0000000E+03;  1.0000000E-01;  0.0000000E+00;0;  0.0000000E+00;  0.0000000E+00;  0.0000000E+00;0;  0.0000000E+00;  4.0000000E+04;  0.0000000E+00;  0.0000000E+00;  4.0000000E+04;  0.0000000E+00;  4.0000000E+04;  0.0000000E+00;  0.0000000E+00;  0.0000000E+00;  0.0000000E+00;
 -1.9000000E-01;  9.9999998E-03;  1.7000000E-01;151;  0.0000000E+00;  0.0000000E+00;  0.0000000E+00;  1.0000000E+03;  1.0000000E-01;  0.0000000E+00;0;  0.0000000E+00;  0.0000000E+00;  0.0000000E+00;0;  0.0000000E+00;  4.0000000E+04;  0.0000000E+00;  0.0000000E+00;  4.0000000E+04;  0.0000000E+00;  4.0000000E+04;  0.0000000E+00;  0.0000000E+00;  0.0000000E+00;  0.0000000E+00;
 -1.9000000E-01;  9.9999998E-03;  1.8000001E-01;152;  0.0000000E+00;  0.0000000E+00;  0.0000000E+00;  1.0000000E+03;  1.0000000E-01;  0.0000000E+00;0;  0.0000000E+00;  0.0000000E+00;  0.0000000E+00;0;  0.0000000E+00;  4.0000000E+04;  0.0000000E+00;  0.0000000E+00;  4.0000000E+04;  0.0000000E+00;  4.0000000E+04;  0.0000000E+00;  0.0000000E+00;  0.0000000E+00;  0.0000000E+00;
 -1.9000000E-01;  9.9999998E-03;  1.9000000E-01;153;  0.0000000E+00;  0.0000000E+00;  0.0000000E+00;  1.0000000E+03;  1.0000000E-01;  0.0000000E+00;0;  0.0000000E+00;  0.0000000E+00;  0.0000000E+00;0;  0.0000000E+00;  4.0000000E+04;  0.0000000E+00;  0.0000000E+00;  4.0000000E+04;  0.0000000E+00;  4.0000000E+04;  0.0000000E+00;  0.0000000E+00;  0.0000000E+00;  0.0000000E+00;
 -1.9000000E-01;  9.9999998E-03;  2.0000000E-01;154;  0.0000000E+00;  0.0000000E+00;  0.0000000E+00;  1.0000000E+03;  1.0000000E-01;  0.0000000E+00;0;  0.0000000E+00;  0.0000000E+00;  0.0000000E+00;0;  0.0000000E+00;  4.0000000E+04;  0.0000000E+00;  0.0000000E+00;  4.0000000E+04;  0.0000000E+00;  4.0000000E+04;  0.0000000E+00;  0.0000000E+00;  0.0000000E+00;  0.0000000E+00;
 -1.9000000E-01;  9.9999998E-03;  2.0999999E-01;155;  0.0000000E+00;  0.0000000E+00;  0.0000000E+00;  1.0000000E+03;  1.0000000E-01;  0.0000000E+00;0;  0.0000000E+00;  0.0000000E+00;  0.0000000E+00;0;  0.0000000E+00;  4.0000000E+04;  0.0000000E+00;  0.0000000E+00;  4.0000000E+04;  0.0000000E+00;  4.0000000E+04;  0.0000000E+00;  0.0000000E+00;  0.0000000E+00;  0.0000000E+00;
 -1.9000000E-01;  9.9999998E-03;  2.2000000E-01;156;  0.0000000E+00;  0.0000000E+00;  0.0000000E+00;  1.0000000E+03;  1.0000000E-01;  0.0000000E+00;0;  0.0000000E+00;  0.0000000E+00;  0.0000000E+00;0;  0.0000000E+00;  4.0000000E+04;  0.0000000E+00;  0.0000000E+00;  4.0000000E+04;  0.0000000E+00;  4.0000000E+04;  0.0000000E+00;  0.0000000E+00;  0.0000000E+00;  0.0000000E+00;
 -1.9000000E-01;  9.9999998E-03;  2.3000000E-01;157;  0.0000000E+00;  0.0000000E+00;  0.0000000E+00;  1.0000000E+03;  1.0000000E-01;  0.0000000E+00;0;  0.0000000E+00;  0.0000000E+00;  0.0000000E+00;0;  0.0000000E+00;  4.0000000E+04;  0.0000000E+00;  0.0000000E+00;  4.0000000E+04;  0.0000000E+00;  4.0000000E+04;  0.0000000E+00;  0.0000000E+00;  0.0000000E+00;  0.0000000E+00;
 -1.8000001E-01;  9.9999998E-03;  7.0000000E-02;232;  0.0000000E+00;  0.0000000E+00;  0.0000000E+00;  1.0000000E+03;  1.0000000E-01;  0.0000000E+00;0;  0.0000000E+00;  0.0000000E+00;  0.0000000E+00;0;  0.0000000E+00;  4.0000000E+04;  0.0000000E+00;  0.0000000E+00;  4.0000000E+04;  0.0000000E+00;  4.0000000E+04;  0.0000000E+00;  0.0000000E+00;  0.0000000E+00;  0.0000000E+00;
 -1.8000001E-01;  9.9999998E-03;  7.9999998E-02;233;  0.0000000E+00;  0.0000000E+00;  0.0000000E+00;  1.0000000E+03;  1.0000000E-01;  0.0000000E+00;0;  0.0000000E+00;  0.0000000E+00;  0.0000000E+00;0;  0.0000000E+00;  4.0000000E+04;  0.0000000E+00;  0.0000000E+00;  4.0000000E+04;  0.0000000E+00;  4.0000000E+04;  0.0000000E+00;  0.0000000E+00;  0.0000000E+00;  0.0000000E+00;
 -1.8000001E-01;  9.9999998E-03;  9.0000004E-02;234;  0.0000000E+00;  0.0000000E+00;  0.0000000E+00;  1.0000000E+03;  1.0000000E-01;  0.0000000E+00;0;  0.0000000E+00;  0.0000000E+00;  0.0000000E+00;0;  0.0000000E+00;  4.0000000E+04;  0.0000000E+00;  0.0000000E+00;  4.0000000E+04;  0.0000000E+00;  4.0000000E+04;  0.0000000E+00;  0.0000000E+00;  0.0000000E+00;  0.0000000E+00;
 -1.8000001E-01;  9.9999998E-03;  1.0000000E-01;235;  0.0000000E+00;  0.0000000E+00;  0.0000000E+00;  1.0000000E+03;  1.0000000E-01;  0.0000000E+00;0;  0.0000000E+00;  0.0000000E+00;  0.0000000E+00;0;  0.0000000E+00;  4.0000000E+04;  0.0000000E+00;  0.0000000E+00;  4.0000000E+04;  0.0000000E+00;  4.0000000E+04;  0.0000000E+00;  0.0000000E+00;  0.0000000E+00;  0.0000000E+00;
 -1.8000001E-01;  9.9999998E-03;  1.1000000E-01;236;  0.0000000E+00;  0.0000000E+00;  0.0000000E+00;  1.0000000E+03;  1.0000000E-01;  0.0000000E+00;0;  0.0000000E+00;  0.0000000E+00;  0.0000000E+00;0;  0.0000000E+00;  4.0000000E+04;  0.0000000E+00;  0.0000000E+00;  4.0000000E+04;  0.0000000E+00;  4.0000000E+04;  0.0000000E+00;  0.0000000E+00;  0.0000000E+00;  0.0000000E+00;
 -1.8000001E-01;  9.9999998E-03;  1.2000000E-01;237;  0.0000000E+00;  0.0000000E+00;  0.0000000E+00;  1.0000000E+03;  1.0000000E-01;  0.0000000E+00;0;  0.0000000E+00;  0.0000000E+00;  0.0000000E+00;0;  0.0000000E+00;  4.0000000E+04;  0.0000000E+00;  0.0000000E+00;  4.0000000E+04;  0.0000000E+00;  4.0000000E+04;  0.0000000E+00;  0.0000000E+00;  0.0000000E+00;  0.0000000E+00;
 -1.8000001E-01;  9.9999998E-03;  1.3000000E-01;238;  0.0000000E+00;  0.0000000E+00;  0.0000000E+00;  1.0000000E+03;  1.0000000E-01;  0.0000000E+00;0;  0.0000000E+00;  0.0000000E+00;  0.0000000E+00;0;  0.0000000E+00;  4.0000000E+04;  0.0000000E+00;  0.0000000E+00;  4.0000000E+04;  0.0000000E+00;  4.0000000E+04;  0.0000000E+00;  0.0000000E+00;  0.0000000E+00;  0.0000000E+00;
 -1.8000001E-01;  9.9999998E-03;  1.4000000E-01;239;  0.0000000E+00;  0.0000000E+00;  0.0000000E+00;  1.0000000E+03;  1.0000000E-01;  0.0000000E+00;0;  0.0000000E+00;  0.0000000E+00;  0.0000000E+00;0;  0.0000000E+00;  4.0000000E+04;  0.0000000E+00;  0.0000000E+00;  4.0000000E+04;  0.0000000E+00;  4.0000000E+04;  0.0000000E+00;  0.0000000E+00;  0.0000000E+00;  0.0000000E+00;
 -1.8000001E-01;  9.9999998E-03;  1.5000001E-01;240;  0.0000000E+00;  0.0000000E+00;  0.0000000E+00;  1.0000000E+03;  1.0000000E-01;  0.0000000E+00;0;  0.0000000E+00;  0.0000000E+00;  0.0000000E+00;0;  0.0000000E+00;  4.0000000E+04;  0.0000000E+00;  0.0000000E+00;  4.0000000E+04;  0.0000000E+00;  4.0000000E+04;  0.0000000E+00;  0.0000000E+00;  0.0000000E+00;  0.0000000E+00;
 -1.8000001E-01;  9.9999998E-03;  1.6000000E-01;241;  0.0000000E+00;  0.0000000E+00;  0.0000000E+00;  1.0000000E+03;  1.0000000E-01;  0.0000000E+00;0;  0.0000000E+00;  0.0000000E+00;  0.0000000E+00;0;  0.0000000E+00;  4.0000000E+04;  0.0000000E+00;  0.0000000E+00;  4.0000000E+04;  0.0000000E+00;  4.0000000E+04;  0.0000000E+00;  0.0000000E+00;  0.0000000E+00;  0.0000000E+00;
 -1.8000001E-01;  9.9999998E-03;  1.7000000E-01;242;  0.0000000E+00;  0.0000000E+00;  0.0000000E+00;  1.0000000E+03;  1.0000000E-01;  0.0000000E+00;0;  0.0000000E+00;  0.0000000E+00;  0.0000000E+00;0;  0.0000000E+00;  4.0000000E+04;  0.0000000E+00;  0.0000000E+00;  4.0000000E+04;  0.0000000E+00;  4.0000000E+04;  0.0000000E+00;  0.0000000E+00;  0.0000000E+00;  0.0000000E+00;
 -1.8000001E-01;  9.9999998E-03;  1.8000001E-01;243;  0.0000000E+00;  0.0000000E+00;  0.0000000E+00;  1.0000000E+03;  1.0000000E-01;  0.0000000E+00;0;  0.0000000E+00;  0.0000000E+00;  0.0000000E+00;0;  0.0000000E+00;  4.0000000E+04;  0.0000000E+00;  0.0000000E+00;  4.0000000E+04;  0.0000000E+00;  4.0000000E+04;  0.0000000E+00;  0.0000000E+00;  0.0000000E+00;  0.0000000E+00;
 -1.8000001E-01;  9.9999998E-03;  1.9000000E-01;244;  0.0000000E+00;  0.0000000E+00;  0.0000000E+00;  1.0000000E+03;  1.0000000E-01;  0.0000000E+00;0;  0.0000000E+00;  0.0000000E+00;  0.0000000E+00;0;  0.0000000E+00;  4.0000000E+04;  0.0000000E+00;  0.0000000E+00;  4.0000000E+04;  0.0000000E+00;  4.0000000E+04;  0.0000000E+00;  0.0000000E+00;  0.0000000E+00;  0.0000000E+00;
 -1.8000001E-01;  9.9999998E-03;  2.0000000E-01;245;  0.0000000E+00;  0.0000000E+00;  0.0000000E+00;  1.0000000E+03;  1.0000000E-01;  0.0000000E+00;0;  0.0000000E+00;  0.0000000E+00;  0.0000000E+00;0;  0.0000000E+00;  4.0000000E+04;  0.0000000E+00;  0.0000000E+00;  4.0000000E+04;  0.0000000E+00;  4.0000000E+04;  0.0000000E+00;  0.0000000E+00;  0.0000000E+00;  0.0000000E+00;
 -1.8000001E-01;  9.9999998E-03;  2.0999999E-01;246;  0.0000000E+00;  0.0000000E+00;  0.0000000E+00;  1.0000000E+03;  1.0000000E-01;  0.0000000E+00;0;  0.0000000E+00;  0.0000000E+00;  0.0000000E+00;0;  0.0000000E+00;  4.0000000E+04;  0.0000000E+00;  0.0000000E+00;  4.0000000E+04;  0.0000000E+00;  4.0000000E+04;  0.0000000E+00;  0.0000000E+00;  0.0000000E+00;  0.0000000E+00;
 -1.8000001E-01;  9.9999998E-03;  2.2000000E-01;247;  0.0000000E+00;  0.0000000E+00;  0.0000000E+00;  1.0000000E+03;  1.0000000E-01;  0.0000000E+00;0;  0.0000000E+00;  0.0000000E+00;  0.0000000E+00;0;  0.0000000E+00;  4.0000000E+04;  0.0000000E+00;  0.0000000E+00;  4.0000000E+04;  0.0000000E+00;  4.0000000E+04;  0.0000000E+00;  0.0000000E+00;  0.0000000E+00;  0.0000000E+00;
 -1.8000001E-01;  9.9999998E-03;  2.3000000E-01;248;  0.0000000E+00;  0.0000000E+00;  0.0000000E+00;  1.0000000E+03;  1.0000000E-01;  0.0000000E+00;0;  0.0000000E+00;  0.0000000E+00;  0.0000000E+00;0;  0.0000000E+00;  4.0000000E+04;  0.0000000E+00;  0.0000000E+00;  4.0000000E+04;  0.0000000E+00;  4.0000000E+04;  0.0000000E+00;  0.0000000E+00;  0.0000000E+00;  0.0000000E+00;
 -1.7000000E-01;  9.9999998E-03;  7.0000000E-02;323;  0.0000000E+00;  0.0000000E+00;  0.0000000E+00;  1.0000000E+03;  1.0000000E-01;  0.0000000E+00;0;  0.0000000E+00;  0.0000000E+00;  0.0000000E+00;0;  0.0000000E+00;  4.0000000E+04;  0.0000000E+00;  0.0000000E+00;  4.0000000E+04;  0.0000000E+00;  4.0000000E+04;  0.0000000E+00;  0.0000000E+00;  0.0000000E+00;  2.0677076E-09;
 -1.7000000E-01;  9.9999998E-03;  7.9999998E-02;324;  0.0000000E+00;  0.0000000E+00;  0.0000000E+00;  1.0000000E+03;  1.0000000E-01;  0.0000000E+00;0;  0.0000000E+00;  0.0000000E+00;  0.0000000E+00;0;  0.0000000E+00;  4.0000000E+04;  0.0000000E+00;  0.0000000E+00;  4.0000000E+04;  0.0000000E+00;  4.0000000E+04;  0.0000000E+00;  0.0000000E+00;  0.0000000E+00;  2.0276110E-09;
 -1.7000000E-01;  9.9999998E-03;  9.0000004E-02;325;  0.0000000E+00;  0.0000000E+00;  0.0000000E+00;  1.0000000E+03;  1.0000000E-01;  0.0000000E+00;0;  0.0000000E+00;  0.0000000E+00;  0.0000000E+00;0;  0.0000000E+00;  4.0000000E+04;  0.0000000E+00;  0.0000000E+00;  4.0000000E+04;  0.0000000E+00;  4.0000000E+04;  0.0000000E+00;  0.0000000E+00;  0.0000000E+00;  1.9964661E-09;
 -1.7000000E-01;  9.9999998E-03;  1.0000000E-01;326;  0.0000000E+00;  0.0000000E+00;  0.0000000E+00;  1.0000000E+03;  1.0000000E-01;  0.0000000E+00;0;  0.0000000E+00;  0.0000000E+00;  0.0000000E+00;0;  0.0000000E+00;  4.0000000E+04;  0.0000000E+00;  0.0000000E+00;  4.0000000E+04;  0.0000000E+00;  4.0000000E+04;  0.0000000E+00;  0.0000000E+00;  0.0000000E+00;  1.9806543E-09;
 -1.7000000E-01;  9.9999998E-03;  1.1000000E-01;327;  0.0000000E+00;  0.0000000E+00;  0.0000000E+00;  1.0000000E+03;  1.0000000E-01;  0.0000000E+00;0;  0.0000000E+00;  0.0000000E+00;  0.0000000E+00;0;  0.0000000E+00;  4.0000000E+04;  0.0000000E+00;  0.0000000E+00;  4.0000000E+04;  0.0000000E+00;  4.0000000E+04;  0.0000000E+00;  0.0000000E+00;  0.0000000E+00;  1.9613826E-09;
 -1.7000000E-01;  9.9999998E-03;  1.2000000E-01;328;  0.0000000E+00;  0.0000000E+00;  0.0000000E+00;  1.0000000E+03;  1.0000000E-01;  0.0000000E+00;0;  0.0000000E+00;  0.0000000E+00;  0.0000000E+00;0;  0.0000000E+00;  4.0000000E+04;  0.0000000E+00;  0.0000000E+00;  4.0000000E+04;  0.0000000E+00;  4.0000000E+04;  0.0000000E+00;  0.0000000E+00;  0.0000000E+00;  1.9547131E-09;
 -1.7000000E-01;  9.9999998E-03;  1.3000000E-01;329;  0.0000000E+00;  0.0000000E+00;  0.0000000E+00;  1.0000000E+03;  1.0000000E-01;  0.0000000E+00;0;  0.0000000E+00;  0.0000000E+00;  0.0000000E+00;0;  0.0000000E+00;  4.0000000E+04;  0.0000000E+00;  0.0000000E+00;  4.0000000E+04;  0.0000000E+00;  4.0000000E+04;  0.0000000E+00;  0.0000000E+00;  0.0000000E+00;  1.9304123E-09;
 -1.7000000E-01;  9.9999998E-03;  1.4000000E-01;330;  0.0000000E+00;  0.0000000E+00;  0.0000000E+00;  1.0000000E+03;  1.0000000E-01;  0.0000000E+00;0;  0.0000000E+00;  0.0000000E+00;  0.0000000E+00;0;  0.0000000E+00;  4.0000000E+04;  0.0000000E+00;  0.0000000E+00;  4.0000000E+04;  0.0000000E+00;  4.0000000E+04;  0.0000000E+00;  0.0000000E+00;  0.0000000E+00;  1.9071280E-09;
 -1.7000000E-01;  9.9999998E-03;  1.5000001E-01;331;  0.0000000E+00;  0.0000000E+00;  0.0000000E+00;  1.0000000E+03;  1.0000000E-01;  0.0000000E+00;0;  0.0000000E+00;  0.0000000E+00;  0.0000000E+00;0;  0.0000000E+00;  4.0000000E+04;  0.0000000E+00;  0.0000000E+00;  4.0000000E+04;  0.0000000E+00;  4.0000000E+04;  0.0000000E+00;  0.0000000E+00;  0.0000000E+00;  1.8279691E-09;
 -1.7000000E-01;  9.9999998E-03;  1.6000000E-01;332;  0.0000000E+00;  0.0000000E+00;  0.0000000E+00;  1.0000000E+03;  1.0000000E-01;  0.0000000E+00;0;  0.0000000E+00;  0.0000000E+00;  0.0000000E+00;0;  0.0000000E+00;  4.0000000E+04;  0.0000000E+00;  0.0000000E+00;  4.0000000E+04;  0.0000000E+00;  4.0000000E+04;  0.0000000E+00;  0.0000000E+00;  0.0000000E+00;  1.7068014E-09;
 -1.7000000E-01;  9.9999998E-03;  1.7000000E-01;333;  0.0000000E+00;  0.0000000E+00;  0.0000000E+00;  1.0000000E+03;  1.0000000E-01;  0.0000000E+00;0;  0.0000000E+00;  0.0000000E+00;  0.0000000E+00;0;  0.0000000E+00;  4.0000000E+04;  0.0000000E+00;  0.0000000E+00;  4.0000000E+04;  0.0000000E+00;  4.0000000E+04;  0.0000000E+00;  0.0000000E+00;  0.0000000E+00;  1.5737418E-09;
 -1.7000000E-01;  9.9999998E-03;  1.8000001E-01;334;  0.0000000E+00;  0.0000000E+00;  0.0000000E+00;  1.0000000E+03;  1.0000000E-01;  0.0000000E+00;0;  0.0000000E+00;  0.0000000E+00;  0.0000000E+00;0;  0.0000000E+00;  4.0000000E+04;  0.0000000E+00;  0.0000000E+00;  4.0000000E+04;  0.0000000E+00;  4.0000000E+04;  0.0000000E+00;  0.0000000E+00;  0.0000000E+00;  1.4536757E-09;
 -1.7000000E-01;  9.9999998E-03;  1.9000000E-01;335;  0.0000000E+00;  0.0000000E+00;  0.0000000E+00;  1.0000000E+03;  1.0000000E-01;  0.0000000E+00;0;  0.0000000E+00;  0.0000000E+00;  0.0000000E+00;0;  0.0000000E+00;  4.0000000E+04;  0.0000000E+00;  0.0000000E+00;  4.0000000E+04;  0.0000000E+00;  4.0000000E+04;  0.0000000E+00;  0.0000000E+00;  0.0000000E+00;  1.3804979E-09;
 -1.7000000E-01;  9.9999998E-03;  2.0000000E-01;336;  0.0000000E+00;  0.0000000E+00;  0.0000000E+00;  1.0000000E+03;  1.0000000E-01;  0.0000000E+00;0;  0.0000000E+00;  0.0000000E+00;  0.0000000E+00;0;  0.0000000E+00;  4.0000000E+04;  0.0000000E+00;  0.0000000E+00;  4.0000000E+04;  0.0000000E+00;  4.0000000E+04;  0.0000000E+00;  0.0000000E+00;  0.0000000E+00;  1.3572699E-09;
 -1.7000000E-01;  9.9999998E-03;  2.0999999E-01;337;  0.0000000E+00;  0.0000000E+00;  0.0000000E+00;  1.0000000E+03;  1.0000000E-01;  0.0000000E+00;0;  0.0000000E+00;  0.0000000E+00;  0.0000000E+00;0;  0.0000000E+00;  4.0000000E+04;  0.0000000E+00;  0.0000000E+00;  4.0000000E+04;  0.0000000E+00;  4.0000000E+04;  0.0000000E+00;  0.0000000E+00;  0.0000000E+00;  1.3090043E-09;
 -1.7000000E-01;  9.9999998E-03;  2.2000000E-01;338;  0.0000000E+00;  0.0000000E+00;  0.0000000E+00;  1.0000000E+03;  1.0000000E-01;  0.0000000E+00;0;  0.0000000E+00;  0.0000000E+00;  0.0000000E+00;0;  0.0000000E+00;  4.0000000E+04;  0.0000000E+00;  0.0000000E+00;  4.0000000E+04;  0.0000000E+00;  4.0000000E+04;  0.0000000E+00;  0.0000000E+00;  0.0000000E+00;  1.1702984E-09;
 -1.7000000E-01;  9.9999998E-03;  2.3000000E-01;339;  0.0000000E+00;  0.0000000E+00;  0.0000000E+00;  1.0000000E+03;  1.0000000E-01;  0.0000000E+00;0;  0.0000000E+00;  0.0000000E+00;  0.0000000E+00;0;  1.6807746E-12;  4.0000000E+04;  0.0000000E+00;  0.0000000E+00;  4.0000000E+04;  0.0000000E+00;  4.0000000E+04;  1.6807405E-12;  0.0000000E+00;  3.4039740E-17;  9.4456076E-10;
 -1.6000000E-01;  9.9999998E-03;  7.0000000E-02;414;  0.0000000E+00;  0.0000000E+00;  0.0000000E+00;  1.0000000E+03;  1.0000000E-01;  0.0000000E+00;0;  0.0000000E+00;  0.0000000E+00;  0.0000000E+00;0;  3.2384263E-04;  4.0000000E+04;  0.0000000E+00;  0.0000000E+00;  4.0000000E+04;  0.0000000E+00;  4.0000000E+04;  3.2415870E-04;  0.0000000E+00; -3.1606808E-07;  8.0873340E-02;
 -1.6000000E-01;  9.9999998E-03;  7.9999998E-02;415;  0.0000000E+00;  0.0000000E+00;  0.0000000E+00;  1.0000000E+03;  1.0000000E-01;  0.0000000E+00;0;  0.0000000E+00;  0.0000000E+00;  0.0000000E+00;0;  3.2114837E-04;  4.0000000E+04;  0.0000000E+00;  0.0000000E+00;  4.0000000E+04;  0.0000000E+00;  4.0000000E+04;  3.2147855E-04;  0.0000000E+00; -3.3017636E-07;  8.3154567E-02;
 -1.6000000E-01;  9.9999998E-03;  9.0000004E-02;416;  0.0000000E+00;  0.0000000E+00;  0.0000000E+00;  1.0000000E+03;  1.0000000E-01;  0.0000000E+00;0;  0.0000000E+00;  0.0000000E+00;  0.0000000E+00;0;  3.1869038E-04;  4.0000000E+04;  0.0000000E+00;  0.0000000E+00;  4.0000000E+04;  0.0000000E+00;  4.0000000E+04;  3.1904445E-04;  0.0000000E+00; -3.5408246E-07;  8.5168205E-02;
 -1.6000000E-01;  9.9999998E-03;  1.0000000E-01;417;  0.0000000E+00;  0.0000000E+00;  0.0000000E+00;  1.0000000E+03;  1.0000000E-01;  0.0000000E+00;0;  0.0000000E+00;  0.0000000E+00;  0.0000000E+00;0;  3.1662788E-04;  4.0000000E+04;  0.0000000E+00;  0.0000000E+00;  4.0000000E+04;  0.0000000E+00;  4.0000000E+04;  3.1701836E-04;  0.0000000E+00; -3.9049519E-07;  8.6651407E-02;
 -1.6000000E-01;  9.9999998E-03;  1.1000000E-01;418;  0.0000000E+00;  0.0000000E+00;  0.0000000E+00;  1.0000000E+03;  1.0000000E-01;  0.0000000E+00;0;  0.0000000E+00;  0.0000000E+00;  0.0000000E+00;0;  3.1509428E-04;  4.0000000E+04;  0.0000000E+00;  0.0000000E+00;  4.0000000E+04;  0.0000000E+00;  4.0000000E+04;  3.1553683E-04;  0.0000000E+00; -4.4254315E-07;  8.7253138E-02;
 -1.6000000E-01;  9.9999998E-03;  1.2000000E-01;419;  0.0000000E+00;  0.0000000E+00;  0.0000000E+00;  1.0000000E+03;  1.0000000E-01;  0.0000000E+00;0;  0.0000000E+00;  0.0000000E+00;  0.0000000E+00;0;  3.1417052E-04;  4.0000000E+04;  0.0000000E+00;  0.0000000E+00;  4.0000000E+04;  0.0000000E+00;  4.0000000E+04;  3.1468456E-04;  0.0000000E+00; -5.1403964E-07;  8.6508647E-02;
 -1.6000000E-01;  9.9999998E-03;  1.3000000E-01;420;  0.0000000E+00;  0.0000000E+00;  0.0000000E+00;  1.0000000E+03;  1.0000000E-01;  0.0000000E+00;0;  0.0000000E+00;  0.0000000E+00;  0.0000000E+00;0;  3.1384634E-04;  4.0000000E+04;  0.0000000E+00;  0.0000000E+00;  4.0000000E+04;  0.0000000E+00;  4.0000000E+04;  3.1445638E-04;  0.0000000E+00; -6.1005841E-07;  8.3785251E-02;
 -1.6000000E-01;  9.9999998E-03;  1.4000000E-01;421;  0.0000000E+00;  0.0000000E+00;  0.0000000E+00;  1.0000000E+03;  1.0000000E-01;  0.0000000E+00;0;  0.0000000E+00;  0.0000000E+00;  0.0000000E+00;0;  3.1387873E-04;  4.0000000E+04;  0.0000000E+00;  0.0000000E+00;  4.0000000E+04;  0.0000000E+00;  4.0000000E+04;  3.1461506E-04;  0.0000000E+00; -7.3632674E-07;  7.8183018E-02;
 -1.6000000E-01;  9.9999998E-03;  1.5000001E-01;422;  0.0000000E+00;  0.0000000E+00;  0.0000000E+00;  1.0000000E+03;  1.0000000E-01;  0.0000000E+00;0;  0.0000000E+00;  0.0000000E+00;  0.0000000E+00;0;  3.1352404E-04;  4.0000000E+04;  0.0000000E+00;  0.0000000E+00;  4.0000000E+04;  0.0000000E+00;  4.0000000E+04;  3.1441188E-04;  0.0000000E+00; -8.8783378E-07;  6.8510115E-02;
 -1.6000000E-01;  9.9999998E-03;  1.6000000E-01;423;  0.0000000E+00;  0.0000000E+00;  0.0000000E+00;  1.0000000E+03;  1.0000000E-01;  0.0000000E+00;0;  0.0000000E+00;  0.0000000E+00;  0.0000000E+00;0;  3.1133404E-04;  4.0000000E+04;  0.0000000E+00;  0.0000000E+00;  4.0000000E+04;  0.0000000E+00;  4.0000000E+04;  3.1236088E-04;  0.0000000E+00; -1.0268365E-06;  5.3527523E-02;
 -1.6000000E-01;  9.9999998E-03;  1.7000000E-01;424;  0.0000000E+00;  0.0000000E+00;  0.0000000E+00;  1.0000000E+03;  1.0000000E-01;  0.0000000E+00;0;  0.0000000E+00;  0.0000000E+00;  0.0000000E+00;0;  3.0527631E-04;  4.0000000E+04;  0.0000000E+00;  0.0000000E+00;  4.0000000E+04;  0.0000000E+00;  4.0000000E+04;  3.0635358E-04;  0.0000000E+00; -1.0772925E-06;  3.2553680E-02;
 -1.6000000E-01;  9.9999998E-03;  1.8000001E-01;425;  0.0000000E+00;  0.0000000E+00;  0.0000000E+00;  1.0000000E+03;  1.0000000E-01;  0.0000000E+00;0;  0.0000000E+00;  0.0000000E+00;  0.0000000E+00;0;  2.9325121E-04;  4.0000000E+04;  0.0000000E+00;  0.0000000E+00;  4.0000000E+04;  0.0000000E+00;  4.0000000E+04;  2.9420503E-04;  0.0000000E+00; -9.5380983E-07;  6.2065255E-03;
 -1.6000000E-01;  9.9999998E-03;  1.9000000E-01;426;  0.0000000E+00;  0.0000000E+00;  0.0000000E+00;  1.0000000E+03;  1.0000000E-01;  0.0000000E+00;0;  0.0000000E+00;  0.0000000E+00;  0.0000000E+00;0;  2.7379603E-04;  4.0000000E+04;  0.0000000E+00;  0.0000000E+00;  4.0000000E+04;  0.0000000E+00;  4.0000000E+04;  2.7441085E-04;  0.0000000E+00; -6.1482825E-07;  2.3473265E-02;
 -1.6000000E-01;  9.9999998E-03;  2.0000000E-01;427;  0.0000000E+00;  0.0000000E+00;  0.0000000E+00;  1.0000000E+03;  1.0000000E-01;  0.0000000E+00;0;  0.0000000E+00;  0.0000000E+00;  0.0000000E+00;0;  2.4670863E-04;  4.0000000E+04;  0.0000000E+00;  0.0000000E+00;  4.0000000E+04;  0.0000000E+00;  4.0000000E+04;  2.4681145E-04;  0.0000000E+00; -1.0283112E-07;  5.2939419E-02;
 -1.6000000E-01;  9.9999998E-03;  2.0999999E-01;428;  0.0000000E+00;  0.0000000E+00;  0.0000000E+00;  1.0000000E+03;  1.0000000E-01;  0.0000000E+00;0;  0.0000000E+00;  0.0000000E+00;  0.0000000E+00;0;  2.1331559E-04;  4.0000000E+04;  0.0000000E+00;  0.0000000E+00;  4.0000000E+04;  0.0000000E+00;  4.0000000E+04;  2.1285238E-04;  0.0000000E+00;  4.6322171E-07;  7.8729510E-02;
 -1.6000000E-01;  9.9999998E-03;  2.2000000E-01;429;  0.0000000E+00;  0.0000000E+00;  0.0000000E+00;  1.0000000E+03;  1.0000000E-01;  0.0000000E+00;0;  0.0000000E+00;  0.0000000E+00;  0.0000000E+00;0;  1.7624120E-04;  4.0000000E+04;  0.0000000E+00;  0.0000000E+00;  4.0000000E+04;  0.0000000E+00;  4.0000000E+04;  1.7530160E-04;  0.0000000E+00;  9.3960227E-07;  9.8237388E-02;
 -1.6000000E-01;  9.9999998E-03;  2.3000000E-01;430;  0.0000000E+00;  0.0000000E+00;  0.0000000E+00;  1.0000000E+03;  1.0000000E-01;  0.0000000E+00;0;  0.0000000E+00;  0.0000000E+00;  0.0000000E+00;0;  1.3877178E-04;  4.0000000E+04;  0.0000000E+00;  0.0000000E+00;  4.0000000E+04;  0.0000000E+00;  4.0000000E+04;  1.3755022E-04;  0.0000000E+00;  1.2215540E-06;  1.1039464E-01;
 -1.5000001E-01;  9.9999998E-03;  7.0000000E-02;505;  0.0000000E+00;  0.0000000E+00;  0.0000000E+00;  1.0000000E+03;  1.0000000E-01;  0.0000000E+00;0;  0.0000000E+00;  0.0000000E+00;  0.0000000E+00;0;  3.8941570E-03;  4.0000000E+04;  0.0000000E+00;  0.0000000E+00;  4.0000000E+04;  0.0000000E+00;  4.0000000E+04;  3.9023007E-03;  0.0000000E+00; -8.1437665E-06;  1.1277429E+00;
 -1.5000001E-01;  9.9999998E-03;  7.9999998E-02;506;  0.0000000E+00;  0.0000000E+00;  0.0000000E+00;  1.0000000E+03;  1.0000000E-01;  0.0000000E+00;0;  0.0000000E+00;  0.0000000E+00;  0.0000000E+00;0;  3.8706267E-03;  4.0000000E+04;  0.0000000E+00;  0.0000000E+00;  4.0000000E+04;  0.0000000E+00;  4.0000000E+04;  3.8791508E-03;  0.0000000E+00; -8.5242200E-06;  1.1606215E+00;
 -1.5000001E-01;  9.9999998E-03;  9.0000004E-02;507;  0.0000000E+00;  0.0000000E+00;  0.0000000E+00;  1.0000000E+03;  1.0000000E-01;  0.0000000E+00;0;  0.0000000E+00;  0.0000000E+00;  0.0000000E+00;0;  3.8462891E-03;  4.0000000E+04;  0.0000000E+00;  0.0000000E+00;  4.0000000E+04;  0.0000000E+00;  4.0000000E+04;  3.8553772E-03;  0.0000000E+00; -9.0879939E-06;  1.1884781E+00;
 -1.5000001E-01;  9.9999998E-03;  1.0000000E-01;508;  0.0000000E+00;  0.0000000E+00;  0.0000000E+00;  1.0000000E+03;  1.0000000E-01;  0.0000000E+00;0;  0.0000000E+00;  0.0000000E+00;  0.0000000E+00;0;  3.8214414E-03;  4.0000000E+04;  0.0000000E+00;  0.0000000E+00;  4.0000000E+04;  0.0000000E+00;  4.0000000E+04;  3.8313214E-03;  0.0000000E+00; -9.8798619E-06;  1.2066094E+00;
 -1.5000001E-01;  9.9999998E-03;  1.1000000E-01;509;  0.0000000E+00;  0.0000000E+00;  0.0000000E+00;  1.0000000E+03;  1.0000000E-01;  0.0000000E+00;0;  0.0000000E+00;  0.0000000E+00;  0.0000000E+00;0;  3.7959355E-03;  4.0000000E+04;  0.0000000E+00;  0.0000000E+00;  4.0000000E+04;  0.0000000E+00;  4.0000000E+04;  3.8068893E-03;  0.0000000E+00; -1.0953728E-05;  1.2084677E+00;
 -1.5000001E-01;  9.9999998E-03;  1.2000000E-01;510;  0.0000000E+00;  0.0000000E+00;  0.0000000E+00;  1.0000000E+03;  1.0000000E-01;  0.0000000E+00;0;  0.0000000E+00;  0.0000000E+00;  0.0000000E+00;0;  3.7685826E-03;  4.0000000E+04;  0.0000000E+00;  0.0000000E+00;  4.0000000E+04;  0.0000000E+00;  4.0000000E+04;  3.7809485E-03;  0.0000000E+00; -1.2365970E-05;  1.1848838E+00;
 -1.5000001E-01;  9.9999998E-03;  1.3000000E-01;511;  0.0000000E+00;  0.0000000E+00;  0.0000000E+00;  1.0000000E+03;  1.0000000E-01;  0.0000000E+00;0;  0.0000000E+00;  0.0000000E+00;  0.0000000E+00;0;  3.7361283E-03;  4.0000000E+04;  0.0000000E+00;  0.0000000E+00;  4.0000000E+04;  0.0000000E+00;  4.0000000E+04;  3.7502339E-03;  0.0000000E+00; -1.4105560E-05;  1.1234591E+00;
 -1.5000001E-01;  9.9999998E-03;  1.4000000E-01;512;  0.0000000E+00;  0.0000000E+00;  0.0000000E+00;  1.0000000E+03;  1.0000000E-01;  0.0000000E+00;0;  0.0000000E+00;  0.0000000E+00;  0.0000000E+00;0;  3.6923820E-03;  4.0000000E+04;  0.0000000E+00;  0.0000000E+00;  4.0000000E+04;  0.0000000E+00;  4.0000000E+04;  3.7083412E-03;  0.0000000E+00; -1.5959202E-05;  1.0093659E+00;
 -1.5000001E-01;  9.9999998E-03;  1.5000001E-01;513;  0.0000000E+00;  0.0000000E+00;  0.0000000E+00;  1.0000000E+03;  1.0000000E-01;  0.0000000E+00;0;  0.0000000E+00;  0.0000000E+00;  0.0000000E+00;0;  3.6280584E-03;  4.0000000E+04;  0.0000000E+00;  0.0000000E+00;  4.0000000E+04;  0.0000000E+00;  4.0000000E+04;  3.6454774E-03;  0.0000000E+00; -1.7419010E-05;  8.2846087E-01;
 -1.5000001E-01;  9.9999998E-03;  1.6000000E-01;514;  0.0000000E+00;  0.0000000E+00;  0.0000000E+00;  1.0000000E+03;  1.0000000E-01;  0.0000000E+00;0;  0.0000000E+00;  0.0000000E+00;  0.0000000E+00;0;  3.5316912E-03;  4.0000000E+04;  0.0000000E+00;  0.0000000E+00;  4.0000000E+04;  0.0000000E+00;  4.0000000E+04;  3.5494221E-03;  0.0000000E+00; -1.7730910E-05;  5.7242459E-01;
 -1.5000001E-01;  9.9999998E-03;  1.7000000E-01;515;  0.0000000E+00;  0.0000000E+00;  0.0000000E+00;  1.0000000E+03;  1.0000000E-01;  0.0000000E+00;0;  0.0000000E+00;  0.0000000E+00;  0.0000000E+00;0;  3.3915571E-03;  4.0000000E+04;  0.0000000E+00;  0.0000000E+00;  4.0000000E+04;  0.0000000E+00;  4.0000000E+04;  3.4076804E-03;  0.0000000E+00; -1.6123282E-05;  2.4420170E-01;
 -1.5000001E-01;  9.9999998E-03;  1.8000001E-01;516;  0.0000000E+00;  0.0000000E+00;  0.0000000E+00;  1.0000000E+03;  1.0000000E-01;  0.0000000E+00;0;  0.0000000E+00;  0.0000000E+00;  0.0000000E+00;0;  3.1984881E-03;  4.0000000E+04;  0.0000000E+00;  0.0000000E+00;  4.0000000E+04;  0.0000000E+00;  4.0000000E+04;  3.2106233E-03;  0.0000000E+00; -1.2135194E-05;  1.3960120E-01;
 -1.5000001E-01;  9.9999998E-03;  1.9000000E-01;517;  0.0000000E+00;  0.0000000E+00;  0.0000000E+00;  1.0000000E+03;  1.0000000E-01;  0.0000000E+00;0;  0.0000000E+00;  0.0000000E+00;  0.0000000E+00;0;  2.9486918E-03;  4.0000000E+04;  0.0000000E+00;  0.0000000E+00;  4.0000000E+04;  0.0000000E+00;  4.0000000E+04;  2.9545769E-03;  0.0000000E+00; -5.8850032E-06;  5.4732746E-01;
 -1.5000001E-01;  9.9999998E-03;  2.0000000E-01;518;  0.0000000E+00;  0.0000000E+00;  0.0000000E+00;  1.0000000E+03;  1.0000000E-01;  0.0000000E+00;0;  0.0000000E+00;  0.0000000E+00;  0.0000000E+00;0;  2.6458749E-03;  4.0000000E+04;  0.0000000E+00;  0.0000000E+00;  4.0000000E+04;  0.0000000E+00;  4.0000000E+04;  2.6440285E-03;  0.0000000E+00;  1.8462833E-06;  9.4167668E-01;
 -1.5000001E-01;  9.9999998E-03;  2.0999999E-01;519;  0.0000000E+00;  0.0000000E+00;  0.0000000E+00;  1.0000000E+03;  1.0000000E-01;  0.0000000E+00;0;  0.0000000E+00;  0.0000000E+00;  0.0000000E+00;0;  2.3018548E-03;  4.0000000E+04;  0.0000000E+00;  0.0000000E+00;  4.0000000E+04;  0.0000000E+00;  4.0000000E+04;  2.2920822E-03;  0.0000000E+00;  9.7724851E-06;  1.2848992E+00;
 -1.5000001E-01;  9.9999998E-03;  2.2000000E-01;520;  0.0000000E+00;  0.0000000E+00;  0.0000000E+00;  1.0000000E+03;  1.0000000E-01;  0.0000000E+00;0;  0.0000000E+00;  0.0000000E+00;  0.0000000E+00;0;  1.9352919E-03;  4.0000000E+04;  0.0000000E+00;  0.0000000E+00;  4.0000000E+04;  0.0000000E+00;  4.0000000E+04;  1.9188282E-03;  0.0000000E+00;  1.6463700E-05;  1.5484115E+00;
 -1.5000001E-01;  9.9999998E-03;  2.3000000E-01;521;  0.0000000E+00;  0.0000000E+00;  0.0000000E+00;  1.0000000E+03;  1.0000000E-01;  0.0000000E+00;0;  0.0000000E+00;  0.0000000E+00;  0.0000000E+00;0;  1.5686087E-03;  4.0000000E+04;  0.0000000E+00;  0.0000000E+00;  4.0000000E+04;  0.0000000E+00;  4.0000000E+04;  1.5477445E-03;  0.0000000E+00;  2.0864136E-05;  1.7076237E+00;
 -1.4000000E-01;  9.9999998E-03;  7.0000000E-02;596;  0.0000000E+00;  0.0000000E+00;  0.0000000E+00;  1.0000000E+03;  1.0000000E-01;  0.0000000E+00;0;  0.0000000E+00;  0.0000000E+00;  0.0000000E+00;0;  1.6450949E-02;  4.0000000E+04;  0.0000000E+00;  0.0000000E+00;  4.0000000E+04;  0.0000000E+00;  4.0000000E+04;  1.6504154E-02;  0.0000000E+00; -5.3203807E-05;  5.6504045E+00;
 -1.4000000E-01;  9.9999998E-03;  7.9999998E-02;597;  0.0000000E+00;  0.0000000E+00;  0.0000000E+00;  1.0000000E+03;  1.0000000E-01;  0.0000000E+00;0;  0.0000000E+00;  0.0000000E+00;  0.0000000E+00;0;  1.6359981E-02;  4.0000000E+04;  0.0000000E+00;  0.0000000E+00;  4.0000000E+04;  0.0000000E+00;  4.0000000E+04;  1.6415671E-02;  0.0000000E+00; -5.5688779E-05;  5.8099933E+00;
 -1.4000000E-01;  9.9999998E-03;  9.0000004E-02;598;  0.0000000E+00;  0.0000000E+00;  0.0000000E+00;  1.0000000E+03;  1.0000000E-01;  0.0000000E+00;0;  0.0000000E+00;  0.0000000E+00;  0.0000000E+00;0;  1.6259570E-02;  4.0000000E+04;  0.0000000E+00;  0.0000000E+00;  4.0000000E+04;  0.0000000E+00;  4.0000000E+04;  1.6318791E-02;  0.0000000E+00; -5.9220059E-05;  5.9386234E+00;
 -1.4000000E-01;  9.9999998E-03;  1.0000000E-01;599;  0.0000000E+00;  0.0000000E+00;  0.0000000E+00;  1.0000000E+03;  1.0000000E-01;  0.0000000E+00;0;  0.0000000E+00;  0.0000000E+00;  0.0000000E+00;0;  1.6148029E-02;  4.0000000E+04;  0.0000000E+00;  0.0000000E+00;  4.0000000E+04;  0.0000000E+00;  4.0000000E+04;  1.6212082E-02;  0.0000000E+00; -6.4052481E-05;  6.0075512E+00;
 -1.4000000E-01;  9.9999998E-03;  1.1000000E-01;600;  0.0000000E+00;  0.0000000E+00;  0.0000000E+00;  1.0000000E+03;  1.0000000E-01;  0.0000000E+00;0;  0.0000000E+00;  0.0000000E+00;  0.0000000E+00;0;  1.6020488E-02;  4.0000000E+04;  0.0000000E+00;  0.0000000E+00;  4.0000000E+04;  0.0000000E+00;  4.0000000E+04;  1.6090879E-02;  0.0000000E+00; -7.0390292E-05;  5.9765229E+00;
 -1.4000000E-01;  9.9999998E-03;  1.2000000E-01;601;  0.0000000E+00;  0.0000000E+00;  0.0000000E+00;  1.0000000E+03;  1.0000000E-01;  0.0000000E+00;0;  0.0000000E+00;  0.0000000E+00;  0.0000000E+00;0;  1.5866647E-02;  4.0000000E+04;  0.0000000E+00;  0.0000000E+00;  4.0000000E+04;  0.0000000E+00;  4.0000000E+04;  1.5944753E-02;  0.0000000E+00; -7.8106117E-05;  5.7920585E+00;
 -1.4000000E-01;  9.9999998E-03;  1.3000000E-01;602;  0.0000000E+00;  0.0000000E+00;  0.0000000E+00;  1.0000000E+03;  1.0000000E-01;  0.0000000E+00;0;  0.0000000E+00;  0.0000000E+00;  0.0000000E+00;0;  1.5669134E-02;  4.0000000E+04;  0.0000000E+00;  0.0000000E+00;  4.0000000E+04;  0.0000000E+00;  4.0000000E+04;  1.5755491E-02;  0.0000000E+00; -8.6357446E-05;  5.3905387E+00;
 -1.4000000E-01;  9.9999998E-03;  1.4000000E-01;603;  0.0000000E+00;  0.0000000E+00;  0.0000000E+00;  1.0000000E+03;  1.0000000E-01;  0.0000000E+00;0;  0.0000000E+00;  0.0000000E+00;  0.0000000E+00;0;  1.5403069E-02;  4.0000000E+04;  0.0000000E+00;  0.0000000E+00;  4.0000000E+04;  0.0000000E+00;  4.0000000E+04;  1.5496398E-02;  0.0000000E+00; -9.3329880E-05;  4.7081394E+00;
 -1.4000000E-01;  9.9999998E-03;  1.5000001E-01;604;  0.0000000E+00;  0.0000000E+00;  0.0000000E+00;  1.0000000E+03;  1.0000000E-01;  0.0000000E+00;0;  0.0000000E+00;  0.0000000E+00;  0.0000000E+00;0;  1.5037660E-02;  4.0000000E+04;  0.0000000E+00;  0.0000000E+00;  4.0000000E+04;  0.0000000E+00;  4.0000000E+04;  1.5134024E-02;  0.0000000E+00; -9.6363721E-05;  3.6971920E+00;
 -1.4000000E-01;  9.9999998E-03;  1.6000000E-01;605;  0.0000000E+00;  0.0000000E+00;  0.0000000E+00;  1.0000000E+03;  1.0000000E-01;  0.0000000E+00;0;  0.0000000E+00;  0.0000000E+00;  0.0000000E+00;0;  1.4540308E-02;  4.0000000E+04;  0.0000000E+00;  0.0000000E+00;  4.0000000E+04;  0.0000000E+00;  4.0000000E+04;  1.4632867E-02;  0.0000000E+00; -9.2558868E-05;  2.3445091E+00;
 -1.4000000E-01;  9.9999998E-03;  1.7000000E-01;606;  0.0000000E+00;  0.0000000E+00;  0.0000000E+00;  1.0000000E+03;  1.0000000E-01;  0.0000000E+00;0;  0.0000000E+00;  0.0000000E+00;  0.0000000E+00;0;  1.3882235E-02;  4.0000000E+04;  0.0000000E+00;  0.0000000E+00;  4.0000000E+04;  0.0000000E+00;  4.0000000E+04;  1.3961892E-02;  0.0000000E+00; -7.9657169E-05;  6.8554384E-01;
 -1.4000000E-01;  9.9999998E-03;  1.8000001E-01;607;  0.0000000E+00;  0.0000000E+00;  0.0000000E+00;  1.0000000E+03;  1.0000000E-01;  0.0000000E+00;0;  0.0000000E+00;  0.0000000E+00;  0.0000000E+00;0;  1.3044855E-02;  4.0000000E+04;  0.0000000E+00;  0.0000000E+00;  4.0000000E+04;  0.0000000E+00;  4.0000000E+04;  1.3101762E-02;  0.0000000E+00; -5.6907946E-05;  1.1940480E+00;
 -1.4000000E-01;  9.9999998E-03;  1.9000000E-01;608;  0.0000000E+00;  0.0000000E+00;  0.0000000E+00;  1.0000000E+03;  1.0000000E-01;  0.0000000E+00;0;  0.0000000E+00;  0.0000000E+00;  0.0000000E+00;0;  1.2025808E-02;  4.0000000E+04;  0.0000000E+00;  0.0000000E+00;  4.0000000E+04;  0.0000000E+00;  4.0000000E+04;  1.2051432E-02;  0.0000000E+00; -2.5624402E-05;  3.1603527E+00;
 -1.4000000E-01;  9.9999998E-03;  2.0000000E-01;609;  0.0000000E+00;  0.0000000E+00;  0.0000000E+00;  1.0000002E+03;  1.0000000E-01;  1.9752528E-01;0;  0.0000000E+00;  0.0000000E+00;  0.0000000E+00;0;  1.0842754E-02;  4.0000000E+04;  0.0000000E+00;  0.0000000E+00;  4.0000000E+04;  0.0000000E+00;  4.0000000E+04;  1.0831945E-02;  0.0000000E+00;  1.0809351E-05;  5.0600271E+00;
 -1.4000000E-01;  9.9999998E-03;  2.0999999E-01;610;  0.0000000E+00;  0.0000000E+00;  0.0000000E+00;  1.0000054E+03;  1.0000000E-01;  4.4443188E+00;0;  0.0000000E+00;  0.0000000E+00;  0.0000000E+00;0;  9.5339213E-03;  4.0000000E+04;  0.0000000E+00;  0.0000000E+00;  4.0000000E+04;  0.0000000E+00;  4.0000000E+04;  9.4863288E-03;  0.0000000E+00;  4.7592213E-05;  6.7359138E+00;
 -1.4000000E-01;  9.9999998E-03;  2.2000000E-01;611;  0.0000000E+00;  0.0000000E+00;  0.0000000E+00;  1.0000097E+03;  1.0000000E-01;  7.9997740E+00;0;  0.0000000E+00;  0.0000000E+00;  0.0000000E+00;0;  8.1546567E-03;  4.0000000E+04;  0.0000000E+00;  0.0000000E+00;  4.0000000E+04;  0.0000000E+00;  4.0000000E+04;  8.0745546E-03;  0.0000000E+00;  8.0101905E-05;  7.9871154E+00;
 -1.4000000E-01;  9.9999998E-03;  2.3000000E-01;612;  0.0000000E+00;  0.0000000E+00;  0.0000000E+00;  1.0000126E+03;  1.0000000E-01;  1.0370077E+01;0;  0.0000000E+00;  0.0000000E+00;  0.0000000E+00;0;  6.7704408E-03;  4.0000000E+04;  0.0000000E+00;  0.0000000E+00;  4.0000000E+04;  0.0000000E+00;  4.0000000E+04;  6.6655264E-03;  0.0000000E+00;  1.0491420E-04;  8.6086798E+00;
 -1.3000000E-01;  9.9999998E-03;  7.0000000E-02;687;  0.0000000E+00;  0.0000000E+00;  0.0000000E+00;  1.0000000E+03;  1.0000000E-01;  0.0000000E+00;0;  0.0000000E+00;  0.0000000E+00;  0.0000000E+00;0;  4.4612139E-02;  4.0000000E+04;  0.0000000E+00;  0.0000000E+00;  4.0000000E+04;  0.0000000E+00;  4.0000000E+04;  4.4813320E-02;  0.0000000E+00; -2.0118216E-04;  1.8224367E+01;
 -1.3000000E-01;  9.9999998E-03;  7.9999998E-02;688;  0.0000000E+00;  0.0000000E+00;  0.0000000E+00;  1.0000000E+03;  1.0000000E-01;  0.0000000E+00;0;  0.0000000E+00;  0.0000000E+00;  0.0000000E+00;0;  4.4370022E-02;  4.0000000E+04;  0.0000000E+00;  0.0000000E+00;  4.0000000E+04;  0.0000000E+00;  4.0000000E+04;  4.4580482E-02;  0.0000000E+00; -2.1045911E-04;  1.8709137E+01;
 -1.3000000E-01;  9.9999998E-03;  9.0000004E-02;689;  0.0000000E+00;  0.0000000E+00;  0.0000000E+00;  1.0000000E+03;  1.0000000E-01;  0.0000000E+00;0;  0.0000000E+00;  0.0000000E+00;  0.0000000E+00;0;  4.4091105E-02;  4.0000000E+04;  0.0000000E+00;  0.0000000E+00;  4.0000000E+04;  0.0000000E+00;  4.0000000E+04;  4.4314481E-02;  0.0000000E+00; -2.2337526E-04;  1.9073502E+01;
 -1.3000000E-01;  9.9999998E-03;  1.0000000E-01;690;  0.0000000E+00;  0.0000000E+00;  0.0000000E+00;  1.0000000E+03;  1.0000000E-01;  0.0000000E+00;0;  0.0000000E+00;  0.0000000E+00;  0.0000000E+00;0;  4.3764614E-02;  4.0000000E+04;  0.0000000E+00;  0.0000000E+00;  4.0000000E+04;  0.0000000E+00;  4.0000000E+04;  4.4005163E-02;  0.0000000E+00; -2.4054784E-04;  1.9210009E+01;
 -1.3000000E-01;  9.9999998E-03;  1.1000000E-01;691;  0.0000000E+00;  0.0000000E+00;  0.0000000E+00;  1.0000000E+03;  1.0000000E-01;  0.0000000E+00;0;  0.0000000E+00;  0.0000000E+00;  0.0000000E+00;0;  4.3370489E-02;  4.0000000E+04;  0.0000000E+00;  0.0000000E+00;  4.0000000E+04;  0.0000000E+00;  4.0000000E+04;  4.3632332E-02;  0.0000000E+00; -2.6184376E-04;  1.8975231E+01;
 -1.3000000E-01;  9.9999998E-03;  1.2000000E-01;692;  0.0000000E+00;  0.0000000E+00;  0.0000000E+00;  1.0000000E+03;  1.0000000E-01;  0.0000000E+00;0;  0.0000000E+00;  0.0000000E+00;  0.0000000E+00;0;  4.2876039E-02;  4.0000000E+04;  0.0000000E+00;  0.0000000E+00;  4.0000000E+04;  0.0000000E+00;  4.0000000E+04;  4.3161586E-02;  0.0000000E+00; -2.8554691E-04;  1.8194155E+01;
 -1.3000000E-01;  9.9999998E-03;  1.3000000E-01;693;  0.0000000E+00;  0.0000000E+00;  0.0000000E+00;  1.0000000E+03;  1.0000000E-01;  0.0000000E+00;0;  0.0000000E+00;  0.0000000E+00;  0.0000000E+00;0;  4.2235088E-02;  4.0000000E+04;  0.0000000E+00;  0.0000000E+00;  4.0000000E+04;  0.0000000E+00;  4.0000000E+04;  4.2542819E-02;  0.0000000E+00; -3.0772993E-04;  1.6679619E+01;
 -1.3000000E-01;  9.9999998E-03;  1.4000000E-01;694;  0.0000000E+00;  0.0000000E+00;  0.0000000E+00;  1.0000000E+03;  1.0000000E-01;  0.0000000E+00;0;  0.0000000E+00;  0.0000000E+00;  0.0000000E+00;0;  4.1389555E-02;  4.0000000E+04;  0.0000000E+00;  0.0000000E+00;  4.0000000E+04;  0.0000000E+00;  4.0000000E+04;  4.1711893E-02;  0.0000000E+00; -3.2233665E-04;  1.4266608E+01;
 -1.3000000E-01;  9.9999998E-03;  1.5000001E-01;695;  0.0000000E+00;  0.0000000E+00;  0.0000000E+00;  1.0000000E+03;  1.0000000E-01;  0.0000000E+00;0;  0.0000000E+00;  0.0000000E+00;  0.0000000E+00;0;  4.0274851E-02;  4.0000000E+04;  0.0000000E+00;  0.0000000E+00;  4.0000000E+04;  0.0000000E+00;  4.0000000E+04;  4.0596992E-02;  0.0000000E+00; -3.2214230E-04;  1.0854961E+01;
 -1.3000000E-01;  9.9999998E-03;  1.6000000E-01;696;  0.0000000E+00;  0.0000000E+00;  0.0000000E+00;  1.0000000E+03;  1.0000000E-01;  0.0000000E+00;0;  0.0000000E+00;  0.0000000E+00;  0.0000000E+00;0;  3.8828041E-02;  4.0000000E+04;  0.0000000E+00;  0.0000000E+00;  4.0000000E+04;  0.0000000E+00;  4.0000000E+04;  3.9128434E-02;  0.0000000E+00; -3.0039184E-04;  6.4484372E+00;
 -1.3000000E-01;  9.9999998E-03;  1.7000000E-01;697;  0.0000000E+00;  0.0000000E+00;  0.0000000E+00;  1.0000000E+03;  1.0000000E-01;  0.0000000E+00;0;  0.0000000E+00;  0.0000000E+00;  0.0000000E+00;0;  3.6998641E-02;  4.0000000E+04;  0.0000000E+00;  0.0000000E+00;  4.0000000E+04;  0.0000000E+00;  4.0000000E+04;  3.7251361E-02;  0.0000000E+00; -2.5272163E-04;  1.1791939E+00;
 -1.3000000E-01;  9.9999998E-03;  1.8000001E-01;698;  0.0000000E+00;  0.0000000E+00;  0.0000000E+00;  1.0000000E+03;  1.0000000E-01;  0.0000000E+00;0;  0.0000000E+00;  0.0000000E+00;  0.0000000E+00;0;  3.4759749E-02;  4.0000000E+04;  0.0000000E+00;  0.0000000E+00;  4.0000000E+04;  0.0000000E+00;  4.0000000E+04;  3.4938551E-02;  0.0000000E+00; -1.7880091E-04;  4.6918902E+00;
 -1.3000000E-01;  9.9999998E-03;  1.9000000E-01;699;  0.0000000E+00;  0.0000000E+00;  0.0000000E+00;  1.0000000E+03;  1.0000000E-01;  0.0000000E+00;0;  0.0000000E+00;  0.0000000E+00;  0.0000000E+00;0;  3.2117210E-02;  4.0000000E+04;  0.0000000E+00;  0.0000000E+00;  4.0000000E+04;  0.0000000E+00;  4.0000000E+04;  3.2200370E-02;  0.0000000E+00; -8.3161241E-05;  1.0800878E+01;
 -1.3000000E-01;  9.9999998E-03;  2.0000000E-01;700;  0.0000000E+00;  0.0000000E+00;  0.0000000E+00;  1.0000000E+03;  1.0000000E-01;  0.0000000E+00;0;  0.0000000E+00;  0.0000000E+00;  0.0000000E+00;0;  2.9115386E-02;  4.0000000E+04;  0.0000000E+00;  0.0000000E+00;  4.0000000E+04;  0.0000000E+00;  4.0000000E+04;  2.9090021E-02;  0.0000000E+00;  2.5365760E-05;  1.6698095E+01;
 -1.3000000E-01;  9.9999998E-03;  2.0999999E-01;701;  0.0000000E+00;  0.0000000E+00;  0.0000000E+00;  1.0000088E+03;  1.0000000E-01;  7.3084354E+00;0;  0.0000000E+00;  0.0000000E+00;  0.0000000E+00;0;  2.5837293E-02;  4.0000000E+04;  0.0000000E+00;  0.0000000E+00;  4.0000000E+04;  0.0000000E+00;  4.0000000E+04;  2.5701294E-02;  0.0000000E+00;  1.3599994E-04;  2.1787565E+01;
 -1.3000000E-01;  9.9999998E-03;  2.2000000E-01;702;  0.0000000E+00;  0.0000000E+00;  0.0000000E+00;  1.0000179E+03;  1.0000000E-01;  1.4913158E+01;0;  0.0000000E+00;  0.0000000E+00;  0.0000000E+00;0;  2.2398060E-02;  4.0000000E+04;  0.0000000E+00;  0.0000000E+00;  4.0000000E+04;  0.0000000E+00;  4.0000000E+04;  2.2160374E-02;  0.0000000E+00;  2.3768733E-04;  2.5463076E+01;
 -1.3000000E-01;  9.9999998E-03;  2.3000000E-01;703;  0.0000000E+00;  0.0000000E+00;  0.0000000E+00;  1.0000300E+03;  1.0000000E-01;  2.4789423E+01;0;  0.0000000E+00;  0.0000000E+00;  0.0000000E+00;0;  1.8933022E-02;  4.0000000E+04;  0.0000000E+00;  0.0000000E+00;  4.0000000E+04;  0.0000000E+00;  4.0000000E+04;  1.8611435E-02;  0.0000000E+00;  3.2158842E-04;  2.7210424E+01;
 -1.2000000E-01;  9.9999998E-03;  7.0000000E-02;778;  0.0000000E+00;  0.0000000E+00;  0.0000000E+00;  1.0000000E+03;  1.0000000E-01;  0.0000000E+00;0;  0.0000000E+00;  0.0000000E+00;  0.0000000E+00;0;  9.4541885E-02;  4.0000000E+04;  0.0000000E+00;  0.0000000E+00;  4.0000000E+04;  0.0000000E+00;  4.0000000E+04;  9.5103078E-02;  0.0000000E+00; -5.6119403E-04;  4.5882408E+01;
 -1.2000000E-01;  9.9999998E-03;  7.9999998E-02;779;  0.0000000E+00;  0.0000000E+00;  0.0000000E+00;  1.0000000E+03;  1.0000000E-01;  0.0000000E+00;0;  0.0000000E+00;  0.0000000E+00;  0.0000000E+00;0;  9.4022386E-02;  4.0000000E+04;  0.0000000E+00;  0.0000000E+00;  4.0000000E+04;  0.0000000E+00;  4.0000000E+04;  9.4608948E-02;  0.0000000E+00; -5.8656209E-04;  4.7011658E+01;
 -1.2000000E-01;  9.9999998E-03;  9.0000004E-02;780;  0.0000000E+00;  0.0000000E+00;  0.0000000E+00;  1.0000000E+03;  1.0000000E-01;  0.0000000E+00;0;  0.0000000E+00;  0.0000000E+00;  0.0000000E+00;0;  9.3405128E-02;  4.0000000E+04;  0.0000000E+00;  0.0000000E+00;  4.0000000E+04;  0.0000000E+00;  4.0000000E+04;  9.4026253E-02;  0.0000000E+00; -6.2112766E-04;  4.7786461E+01;
 -1.2000000E-01;  9.9999998E-03;  1.0000000E-01;781;  0.0000000E+00;  0.0000000E+00;  0.0000000E+00;  1.0000000E+03;  1.0000000E-01;  0.0000000E+00;0;  0.0000000E+00;  0.0000000E+00;  0.0000000E+00;0;  9.2659228E-02;  4.0000000E+04;  0.0000000E+00;  0.0000000E+00;  4.0000000E+04;  0.0000000E+00;  4.0000000E+04;  9.3324579E-02;  0.0000000E+00; -6.6535175E-04;  4.7914120E+01;
 -1.2000000E-01;  9.9999998E-03;  1.1000000E-01;782;  0.0000000E+00;  0.0000000E+00;  0.0000000E+00;  1.0000000E+03;  1.0000000E-01;  0.0000000E+00;0;  0.0000000E+00;  0.0000000E+00;  0.0000000E+00;0;  9.1735870E-02;  4.0000000E+04;  0.0000000E+00;  0.0000000E+00;  4.0000000E+04;  0.0000000E+00;  4.0000000E+04;  9.2452928E-02;  0.0000000E+00; -7.1705686E-04;  4.7025158E+01;
 -1.2000000E-01;  9.9999998E-03;  1.2000000E-01;783;  0.0000000E+00;  0.0000000E+00;  0.0000000E+00;  1.0000000E+03;  1.0000000E-01;  0.0000000E+00;0;  0.0000000E+00;  0.0000000E+00;  0.0000000E+00;0;  9.0565607E-02;  4.0000000E+04;  0.0000000E+00;  0.0000000E+00;  4.0000000E+04;  0.0000000E+00;  4.0000000E+04;  9.1335706E-02;  0.0000000E+00; -7.7010057E-04;  4.4700279E+01;
 -1.2000000E-01;  9.9999998E-03;  1.3000000E-01;784;  0.0000000E+00;  0.0000000E+00;  0.0000000E+00;  1.0000000E+03;  1.0000000E-01;  0.0000000E+00;0;  0.0000000E+00;  0.0000000E+00;  0.0000000E+00;0;  8.9059241E-02;  4.0000000E+04;  0.0000000E+00;  0.0000000E+00;  4.0000000E+04;  0.0000000E+00;  4.0000000E+04;  8.9873239E-02;  0.0000000E+00; -8.1400067E-04;  4.0524559E+01;
 -1.2000000E-01;  9.9999998E-03;  1.4000000E-01;785;  0.0000000E+00;  0.0000000E+00;  0.0000000E+00;  1.0000000E+03;  1.0000000E-01;  0.0000000E+00;0;  0.0000000E+00;  0.0000000E+00;  0.0000000E+00;0;  8.7112859E-02;  4.0000000E+04;  0.0000000E+00;  0.0000000E+00;  4.0000000E+04;  0.0000000E+00;  4.0000000E+04;  8.7947823E-02;  0.0000000E+00; -8.3496491E-04;  3.4165237E+01;
 -1.2000000E-01;  9.9999998E-03;  1.5000001E-01;786;  0.0000000E+00;  0.0000000E+00;  0.0000000E+00;  1.0000000E+03;  1.0000000E-01;  0.0000000E+00;0;  0.0000000E+00;  0.0000000E+00;  0.0000000E+00;0;  8.4617466E-02;  4.0000000E+04;  0.0000000E+00;  0.0000000E+00;  4.0000000E+04;  0.0000000E+00;  4.0000000E+04;  8.5435711E-02;  0.0000000E+00; -8.1824302E-04;  2.5454128E+01;
 -1.2000000E-01;  9.9999998E-03;  1.6000000E-01;787;  0.0000000E+00;  0.0000000E+00;  0.0000000E+00;  1.0000000E+03;  1.0000000E-01;  0.0000000E+00;0;  0.0000000E+00;  0.0000000E+00;  0.0000000E+00;0;  8.1473239E-02;  4.0000000E+04;  0.0000000E+00;  0.0000000E+00;  4.0000000E+04;  0.0000000E+00;  4.0000000E+04;  8.2224600E-02;  0.0000000E+00; -7.5135805E-04;  1.4457539E+01;
 -1.2000000E-01;  9.9999998E-03;  1.7000000E-01;788;  0.0000000E+00;  0.0000000E+00;  0.0000000E+00;  1.0000000E+03;  1.0000000E-01;  0.0000000E+00;0;  0.0000000E+00;  0.0000000E+00;  0.0000000E+00;0;  7.7605203E-02;  4.0000000E+04;  0.0000000E+00;  0.0000000E+00;  4.0000000E+04;  0.0000000E+00;  4.0000000E+04;  7.8232683E-02;  0.0000000E+00; -6.2748388E-04;  1.5250316E+00;
 -1.2000000E-01;  9.9999998E-03;  1.8000001E-01;789;  0.0000000E+00;  0.0000000E+00;  0.0000000E+00;  1.0000000E+03;  1.0000000E-01;  0.0000000E+00;0;  0.0000000E+00;  0.0000000E+00;  0.0000000E+00;0;  7.2980173E-02;  4.0000000E+04;  0.0000000E+00;  0.0000000E+00;  4.0000000E+04;  0.0000000E+00;  4.0000000E+04;  7.3428221E-02;  0.0000000E+00; -4.4804509E-04;  1.2799714E+01;
 -1.2000000E-01;  9.9999998E-03;  1.9000000E-01;790;  0.0000000E+00;  0.0000000E+00;  0.0000000E+00;  1.0000000E+03;  1.0000000E-01;  0.0000000E+00;0;  0.0000000E+00;  0.0000000E+00;  0.0000000E+00;0;  6.7619264E-02;  4.0000000E+04;  0.0000000E+00;  0.0000000E+00;  4.0000000E+04;  0.0000000E+00;  4.0000000E+04;  6.7842558E-02;  0.0000000E+00; -2.2329514E-04;  2.7601200E+01;
 -1.2000000E-01;  9.9999998E-03;  2.0000000E-01;791;  0.0000000E+00;  0.0000000E+00;  0.0000000E+00;  1.0000000E+03;  1.0000000E-01;  0.0000000E+00;0;  0.0000000E+00;  0.0000000E+00;  0.0000000E+00;0;  6.1606560E-02;  4.0000000E+04;  0.0000000E+00;  0.0000000E+00;  4.0000000E+04;  0.0000000E+00;  4.0000000E+04;  6.1576657E-02;  0.0000000E+00;  2.9901743E-05;  4.1697674E+01;
 -1.2000000E-01;  9.9999998E-03;  2.0999999E-01;792;  0.0000000E+00;  0.0000000E+00;  0.0000000E+00;  1.0000015E+03;  1.0000000E-01;  1.2839143E+00;0;  0.0000000E+00;  0.0000000E+00;  0.0000000E+00;0;  5.5087537E-02;  4.0000000E+04;  0.0000000E+00;  0.0000000E+00;  4.0000000E+04;  0.0000000E+00;  4.0000000E+04;  5.4797214E-02;  0.0000000E+00;  2.9032194E-04;  5.3738659E+01;
 -1.2000000E-01;  9.9999998E-03;  2.2000000E-01;793;  0.0000000E+00;  0.0000000E+00;  0.0000000E+00;  1.0000273E+03;  1.0000000E-01;  2.2616644E+01;0;  0.0000000E+00;  0.0000000E+00;  0.0000000E+00;0;  4.8260193E-02;  4.0000000E+04;  0.0000000E+00;  0.0000000E+00;  4.0000000E+04;  0.0000000E+00;  4.0000000E+04;  4.7723357E-02;  0.0000000E+00;  5.3683663E-04;  6.2383038E+01;
 -1.2000000E-01;  9.9999998E-03;  2.3000000E-01;794;  0.0000000E+00;  0.0000000E+00;  0.0000000E+00;  1.0000484E+03;  1.0000000E-01;  4.0097630E+01;0;  0.0000000E+00;  0.0000000E+00;  0.0000000E+00;0;  4.1356757E-02;  4.0000000E+04;  0.0000000E+00;  0.0000000E+00;  4.0000000E+04;  0.0000000E+00;  4.0000000E+04;  4.0604755E-02;  0.0000000E+00;  7.5200206E-04;  6.6536995E+01;
 -1.1000000E-01;  9.9999998E-03;  7.0000000E-02;869;  0.0000000E+00;  0.0000000E+00;  0.0000000E+00;  1.0000000E+03;  1.0000000E-01;  0.0000000E+00;0;  0.0000000E+00;  0.0000000E+00;  0.0000000E+00;0;  1.7161199E-01;  4.0000000E+04;  0.0000000E+00;  0.0000000E+00;  4.0000000E+04;  0.0000000E+00;  4.0000000E+04;  1.7289856E-01;  0.0000000E+00; -1.2865647E-03;  9.8535446E+01;
 -1.1000000E-01;  9.9999998E-03;  7.9999998E-02;870;  0.0000000E+00;  0.0000000E+00;  0.0000000E+00;  1.0000000E+03;  1.0000000E-01;  0.0000000E+00;0;  0.0000000E+00;  0.0000000E+00;  0.0000000E+00;0;  1.7064306E-01;  4.0000000E+04;  0.0000000E+00;  0.0000000E+00;  4.0000000E+04;  0.0000000E+00;  4.0000000E+04;  1.7198604E-01;  0.0000000E+00; -1.3429838E-03;  1.0075851E+02;
 -1.1000000E-01;  9.9999998E-03;  9.0000004E-02;871;  0.0000000E+00;  0.0000000E+00;  0.0000000E+00;  1.0000000E+03;  1.0000000E-01;  0.0000000E+00;0;  0.0000000E+00;  0.0000000E+00;  0.0000000E+00;0;  1.6946790E-01;  4.0000000E+04;  0.0000000E+00;  0.0000000E+00;  4.0000000E+04;  0.0000000E+00;  4.0000000E+04;  1.7088582E-01;  0.0000000E+00; -1.4179238E-03;  1.0212882E+02;
 -1.1000000E-01;  9.9999998E-03;  1.0000000E-01;872;  0.0000000E+00;  0.0000000E+00;  0.0000000E+00;  1.0000000E+03;  1.0000000E-01;  0.0000000E+00;0;  0.0000000E+00;  0.0000000E+00;  0.0000000E+00;0;  1.6802311E-01;  4.0000000E+04;  0.0000000E+00;  0.0000000E+00;  4.0000000E+04;  0.0000000E+00;  4.0000000E+04;  1.6953324E-01;  0.0000000E+00; -1.5101269E-03;  1.0200066E+02;
 -1.1000000E-01;  9.9999998E-03;  1.1000000E-01;873;  0.0000000E+00;  0.0000000E+00;  0.0000000E+00;  1.0000000E+03;  1.0000000E-01;  0.0000000E+00;0;  0.0000000E+00;  0.0000000E+00;  0.0000000E+00;0;  1.6621779E-01;  4.0000000E+04;  0.0000000E+00;  0.0000000E+00;  4.0000000E+04;  0.0000000E+00;  4.0000000E+04;  1.6783021E-01;  0.0000000E+00; -1.6124202E-03;  9.9599037E+01;
 -1.1000000E-01;  9.9999998E-03;  1.2000000E-01;874;  0.0000000E+00;  0.0000000E+00;  0.0000000E+00;  1.0000000E+03;  1.0000000E-01;  0.0000000E+00;0;  0.0000000E+00;  0.0000000E+00;  0.0000000E+00;0;  1.6393273E-01;  4.0000000E+04;  0.0000000E+00;  0.0000000E+00;  4.0000000E+04;  0.0000000E+00;  4.0000000E+04;  1.6564302E-01;  0.0000000E+00; -1.7102937E-03;  9.4087639E+01;
 -1.1000000E-01;  9.9999998E-03;  1.3000000E-01;875;  0.0000000E+00;  0.0000000E+00;  0.0000000E+00;  1.0000000E+03;  1.0000000E-01;  0.0000000E+00;0;  0.0000000E+00;  0.0000000E+00;  0.0000000E+00;0;  1.6102314E-01;  4.0000000E+04;  0.0000000E+00;  0.0000000E+00;  4.0000000E+04;  0.0000000E+00;  4.0000000E+04;  1.6280548E-01;  0.0000000E+00; -1.7823364E-03;  8.4683907E+01;
 -1.1000000E-01;  9.9999998E-03;  1.4000000E-01;876;  0.0000000E+00;  0.0000000E+00;  0.0000000E+00;  1.0000000E+03;  1.0000000E-01;  0.0000000E+00;0;  0.0000000E+00;  0.0000000E+00;  0.0000000E+00;0;  1.5732864E-01;  4.0000000E+04;  0.0000000E+00;  0.0000000E+00;  4.0000000E+04;  0.0000000E+00;  4.0000000E+04;  1.5913142E-01;  0.0000000E+00; -1.8027831E-03;  7.0799561E+01;
 -1.1000000E-01;  9.9999998E-03;  1.5000001E-01;877;  0.0000000E+00;  0.0000000E+00;  0.0000000E+00;  1.0000000E+03;  1.0000000E-01;  0.0000000E+00;0;  0.0000000E+00;  0.0000000E+00;  0.0000000E+00;0;  1.5268737E-01;  4.0000000E+04;  0.0000000E+00;  0.0000000E+00;  4.0000000E+04;  0.0000000E+00;  4.0000000E+04;  1.5443328E-01;  0.0000000E+00; -1.7459021E-03;  5.2182556E+01;
 -1.1000000E-01;  9.9999998E-03;  1.6000000E-01;878;  0.0000000E+00;  0.0000000E+00;  0.0000000E+00;  1.0000000E+03;  1.0000000E-01;  0.0000000E+00;0;  0.0000000E+00;  0.0000000E+00;  0.0000000E+00;0;  1.4695576E-01;  4.0000000E+04;  0.0000000E+00;  0.0000000E+00;  4.0000000E+04;  0.0000000E+00;  4.0000000E+04;  1.4854720E-01;  0.0000000E+00; -1.5914408E-03;  2.9028580E+01;
 -1.1000000E-01;  9.9999998E-03;  1.7000000E-01;879;  0.0000000E+00;  0.0000000E+00;  0.0000000E+00;  1.0000000E+03;  1.0000000E-01;  0.0000000E+00;0;  0.0000000E+00;  0.0000000E+00;  0.0000000E+00;0;  1.4003195E-01;  4.0000000E+04;  0.0000000E+00;  0.0000000E+00;  4.0000000E+04;  0.0000000E+00;  4.0000000E+04;  1.4136183E-01;  0.0000000E+00; -1.3298868E-03;  2.2894945E+00;
 -1.1000000E-01;  9.9999998E-03;  1.8000001E-01;880;  0.0000000E+00;  0.0000000E+00;  0.0000000E+00;  1.0000000E+03;  1.0000000E-01;  0.0000000E+00;0;  0.0000000E+00;  0.0000000E+00;  0.0000000E+00;0;  1.3187657E-01;  4.0000000E+04;  0.0000000E+00;  0.0000000E+00;  4.0000000E+04;  0.0000000E+00;  4.0000000E+04;  1.3284233E-01;  0.0000000E+00; -9.6575584E-04;  2.7715481E+01;
 -1.1000000E-01;  9.9999998E-03;  1.9000000E-01;881;  0.0000000E+00;  0.0000000E+00;  0.0000000E+00;  1.0000000E+03;  1.0000000E-01;  0.0000000E+00;0;  0.0000000E+00;  0.0000000E+00;  0.0000000E+00;0;  1.2253254E-01;  4.0000000E+04;  0.0000000E+00;  0.0000000E+00;  4.0000000E+04;  0.0000000E+00;  4.0000000E+04;  1.2304942E-01;  0.0000000E+00; -5.1688118E-04;  5.8129189E+01;
 -1.1000000E-01;  9.9999998E-03;  2.0000000E-01;882;  0.0000000E+00;  0.0000000E+00;  0.0000000E+00;  1.0000000E+03;  1.0000000E-01;  0.0000000E+00;0;  0.0000000E+00;  0.0000000E+00;  0.0000000E+00;0;  1.1213376E-01;  4.0000000E+04;  0.0000000E+00;  0.0000000E+00;  4.0000000E+04;  0.0000000E+00;  4.0000000E+04;  1.1214641E-01;  0.0000000E+00; -1.2653968E-05;  8.6933632E+01;
 -1.1000000E-01;  9.9999998E-03;  2.0999999E-01;883;  0.0000000E+00;  0.0000000E+00;  0.0000000E+00;  1.0000000E+03;  1.0000000E-01;  0.0000000E+00;0;  0.0000000E+00;  0.0000000E+00;  0.0000000E+00;0;  1.0090555E-01;  4.0000000E+04;  0.0000000E+00;  0.0000000E+00;  4.0000000E+04;  0.0000000E+00;  4.0000000E+04;  1.0039373E-01;  0.0000000E+00;  5.1182066E-04;  1.1147602E+02;
 -1.1000000E-01;  9.9999998E-03;  2.2000000E-01;884;  0.0000000E+00;  0.0000000E+00;  0.0000000E+00;  1.0000233E+03;  1.0000000E-01;  1.9258715E+01;0;  0.0000000E+00;  0.0000000E+00;  0.0000000E+00;0;  8.9151070E-02;  4.0000000E+04;  0.0000000E+00;  0.0000000E+00;  4.0000000E+04;  0.0000000E+00;  4.0000000E+04;  8.8129565E-02;  0.0000000E+00;  1.0215038E-03;  1.2920824E+02;
 -1.1000000E-01;  9.9999998E-03;  2.3000000E-01;885;  0.0000000E+00;  0.0000000E+00;  0.0000000E+00;  1.0000623E+03;  1.0000000E-01;  5.1554096E+01;0;  0.0000000E+00;  0.0000000E+00;  0.0000000E+00;0;  7.7226199E-02;  4.0000000E+04;  0.0000000E+00;  0.0000000E+00;  4.0000000E+04;  0.0000000E+00;  4.0000000E+04;  7.5741000E-02;  0.0000000E+00;  1.4851964E-03;  1.3814056E+02;
 -1.0000000E-01;  9.9999998E-03;  7.0000000E-02;960;  0.0000000E+00;  0.0000000E+00;  0.0000000E+00;  1.0000000E+03;  1.0000000E-01;  0.0000000E+00;0;  0.0000000E+00;  0.0000000E+00;  0.0000000E+00;0;  2.8043714E-01;  4.0000000E+04;  0.0000000E+00;  0.0000000E+00;  4.0000000E+04;  0.0000000E+00;  4.0000000E+04;  2.8300428E-01;  0.0000000E+00; -2.5671497E-03;  1.8924130E+02;
 -1.0000000E-01;  9.9999998E-03;  7.9999998E-02;961;  0.0000000E+00;  0.0000000E+00;  0.0000000E+00;  1.0000000E+03;  1.0000000E-01;  0.0000000E+00;0;  0.0000000E+00;  0.0000000E+00;  0.0000000E+00;0;  2.7880326E-01;  4.0000000E+04;  0.0000000E+00;  0.0000000E+00;  4.0000000E+04;  0.0000000E+00;  4.0000000E+04;  2.8147832E-01;  0.0000000E+00; -2.6750523E-03;  1.9315923E+02;
 -1.0000000E-01;  9.9999998E-03;  9.0000004E-02;962;  0.0000000E+00;  0.0000000E+00;  0.0000000E+00;  1.0000000E+03;  1.0000000E-01;  0.0000000E+00;0;  0.0000000E+00;  0.0000000E+00;  0.0000000E+00;0;  2.7679697E-01;  4.0000000E+04;  0.0000000E+00;  0.0000000E+00;  4.0000000E+04;  0.0000000E+00;  4.0000000E+04;  2.7961180E-01;  0.0000000E+00; -2.8148354E-03;  1.9531799E+02;
 -1.0000000E-01;  9.9999998E-03;  1.0000000E-01;963;  0.0000000E+00;  0.0000000E+00;  0.0000000E+00;  1.0000000E+03;  1.0000000E-01;  0.0000000E+00;0;  0.0000000E+00;  0.0000000E+00;  0.0000000E+00;0;  2.7431083E-01;  4.0000000E+04;  0.0000000E+00;  0.0000000E+00;  4.0000000E+04;  0.0000000E+00;  4.0000000E+04;  2.7729183E-01;  0.0000000E+00; -2.9810108E-03;  1.9448891E+02;
 -1.0000000E-01;  9.9999998E-03;  1.1000000E-01;964;  0.0000000E+00;  0.0000000E+00;  0.0000000E+00;  1.0000000E+03;  1.0000000E-01;  0.0000000E+00;0;  0.0000000E+00;  0.0000000E+00;  0.0000000E+00;0;  2.7120066E-01;  4.0000000E+04;  0.0000000E+00;  0.0000000E+00;  4.0000000E+04;  0.0000000E+00;  4.0000000E+04;  2.7435824E-01;  0.0000000E+00; -3.1575777E-03;  1.8924892E+02;
 -1.0000000E-01;  9.9999998E-03;  1.2000000E-01;965;  0.0000000E+00;  0.0000000E+00;  0.0000000E+00;  1.0000000E+03;  1.0000000E-01;  0.0000000E+00;0;  0.0000000E+00;  0.0000000E+00;  0.0000000E+00;0;  2.6728579E-01;  4.0000000E+04;  0.0000000E+00;  0.0000000E+00;  4.0000000E+04;  0.0000000E+00;  4.0000000E+04;  2.7060273E-01;  0.0000000E+00; -3.3169484E-03;  1.7811687E+02;
 -1.0000000E-01;  9.9999998E-03;  1.3000000E-01;966;  0.0000000E+00;  0.0000000E+00;  0.0000000E+00;  1.0000000E+03;  1.0000000E-01;  0.0000000E+00;0;  0.0000000E+00;  0.0000000E+00;  0.0000000E+00;0;  2.6235595E-01;  4.0000000E+04;  0.0000000E+00;  0.0000000E+00;  4.0000000E+04;  0.0000000E+00;  4.0000000E+04;  2.6577759E-01;  0.0000000E+00; -3.4216312E-03;  1.5975433E+02;
 -1.0000000E-01;  9.9999998E-03;  1.4000000E-01;967;  0.0000000E+00;  0.0000000E+00;  0.0000000E+00;  1.0000000E+03;  1.0000000E-01;  0.0000000E+00;0;  0.0000000E+00;  0.0000000E+00;  0.0000000E+00;0;  2.5618386E-01;  4.0000000E+04;  0.0000000E+00;  0.0000000E+00;  4.0000000E+04;  0.0000000E+00;  4.0000000E+04;  2.5961283E-01;  0.0000000E+00; -3.4289674E-03;  1.3319687E+02;
 -1.0000000E-01;  9.9999998E-03;  1.5000001E-01;968;  0.0000000E+00;  0.0000000E+00;  0.0000000E+00;  1.0000000E+03;  1.0000000E-01;  0.0000000E+00;0;  0.0000000E+00;  0.0000000E+00;  0.0000000E+00;0;  2.4854584E-01;  4.0000000E+04;  0.0000000E+00;  0.0000000E+00;  4.0000000E+04;  0.0000000E+00;  4.0000000E+04;  2.5184408E-01;  0.0000000E+00; -3.2982430E-03;  9.8076706E+01;
 -1.0000000E-01;  9.9999998E-03;  1.6000000E-01;969;  0.0000000E+00;  0.0000000E+00;  0.0000000E+00;  1.0000000E+03;  1.0000000E-01;  0.0000000E+00;0;  0.0000000E+00;  0.0000000E+00;  0.0000000E+00;0;  2.3924799E-01;  4.0000000E+04;  0.0000000E+00;  0.0000000E+00;  4.0000000E+04;  0.0000000E+00;  4.0000000E+04;  2.4224697E-01;  0.0000000E+00; -2.9989828E-03;  5.4800087E+01;
 -1.0000000E-01;  9.9999998E-03;  1.7000000E-01;970;  0.0000000E+00;  0.0000000E+00;  0.0000000E+00;  1.0000000E+03;  1.0000000E-01;  0.0000000E+00;0;  0.0000000E+00;  0.0000000E+00;  0.0000000E+00;0;  2.2815511E-01;  4.0000000E+04;  0.0000000E+00;  0.0000000E+00;  4.0000000E+04;  0.0000000E+00;  4.0000000E+04;  2.3067346E-01;  0.0000000E+00; -2.5183503E-03;  5.6230292E+00;
 -1.0000000E-01;  9.9999998E-03;  1.8000001E-01;971;  0.0000000E+00;  0.0000000E+00;  0.0000000E+00;  1.0000000E+03;  1.0000000E-01;  0.0000000E+00;0;  0.0000000E+00;  0.0000000E+00;  0.0000000E+00;0;  2.1522088E-01;  4.0000000E+04;  0.0000000E+00;  0.0000000E+00;  4.0000000E+04;  0.0000000E+00;  4.0000000E+04;  2.1708483E-01;  0.0000000E+00; -1.8639368E-03;  5.0548126E+01;
 -1.0000000E-01;  9.9999998E-03;  1.9000000E-01;972;  0.0000000E+00;  0.0000000E+00;  0.0000000E+00;  1.0000000E+03;  1.0000000E-01;  0.0000000E+00;0;  0.0000000E+00;  0.0000000E+00;  0.0000000E+00;0;  2.0051177E-01;  4.0000000E+04;  0.0000000E+00;  0.0000000E+00;  4.0000000E+04;  0.0000000E+00;  4.0000000E+04;  2.0157616E-01;  0.0000000E+00; -1.0643830E-03;  1.0650014E+02;
 -1.0000000E-01;  9.9999998E-03;  2.0000000E-01;973;  0.0000000E+00;  0.0000000E+00;  0.0000000E+00;  1.0000000E+03;  1.0000000E-01;  0.0000000E+00;0;  0.0000000E+00;  0.0000000E+00;  0.0000000E+00;0;  1.8422098E-01;  4.0000000E+04;  0.0000000E+00;  0.0000000E+00;  4.0000000E+04;  0.0000000E+00;  4.0000000E+04;  1.8438488E-01;  0.0000000E+00; -1.6389576E-04;  1.5942715E+02;
 -1.0000000E-01;  9.9999998E-03;  2.0999999E-01;974;  0.0000000E+00;  0.0000000E+00;  0.0000000E+00;  1.0000000E+03;  1.0000000E-01;  0.0000000E+00;0;  0.0000000E+00;  0.0000000E+00;  0.0000000E+00;0;  1.6666925E-01;  4.0000000E+04;  0.0000000E+00;  0.0000000E+00;  4.0000000E+04;  0.0000000E+00;  4.0000000E+04;  1.6588405E-01;  0.0000000E+00;  7.8520528E-04;  2.0467714E+02;
 -1.0000000E-01;  9.9999998E-03;  2.2000000E-01;975;  0.0000000E+00;  0.0000000E+00;  0.0000000E+00;  1.0000000E+03;  1.0000000E-01;  0.0000000E+00;0;  0.0000000E+00;  0.0000000E+00;  0.0000000E+00;0;  1.4828636E-01;  4.0000000E+04;  0.0000000E+00;  0.0000000E+00;  4.0000000E+04;  0.0000000E+00;  4.0000000E+04;  1.4655815E-01;  0.0000000E+00;  1.7282009E-03;  2.3793057E+02;
 -1.0000000E-01;  9.9999998E-03;  2.3000000E-01;976;  0.0000000E+00;  0.0000000E+00;  0.0000000E+00;  1.0000601E+03;  1.0000000E-01;  4.9776371E+01;0;  0.0000000E+00;  0.0000000E+00;  0.0000000E+00;0;  1.2957871E-01;  4.0000000E+04;  0.0000000E+00;  0.0000000E+00;  4.0000000E+04;  0.0000000E+00;  4.0000000E+04;  1.2696652E-01;  0.0000000E+00;  2.6121908E-03;  2.5586932E+02;
 -9.0000004E-02;  9.9999998E-03;  7.0000000E-02;1051;  0.0000000E+00;  0.0000000E+00;  0.0000000E+00;  1.0000000E+03;  1.0000000E-01;  0.0000000E+00;0;  0.0000000E+00;  0.0000000E+00;  0.0000000E+00;0;  4.2470387E-01;  4.0000000E+04;  0.0000000E+00;  0.0000000E+00;  4.0000000E+04;  0.0000000E+00;  4.0000000E+04;  4.2931595E-01;  0.0000000E+00; -4.6120859E-03;  3.3407886E+02;
 -9.0000004E-02;  9.9999998E-03;  7.9999998E-02;1052;  0.0000000E+00;  0.0000000E+00;  0.0000000E+00;  1.0000000E+03;  1.0000000E-01;  0.0000000E+00;0;  0.0000000E+00;  0.0000000E+00;  0.0000000E+00;0;  4.2215511E-01;  4.0000000E+04;  0.0000000E+00;  0.0000000E+00;  4.0000000E+04;  0.0000000E+00;  4.0000000E+04;  4.2695108E-01;  0.0000000E+00; -4.7959699E-03;  3.4050058E+02;
 -9.0000004E-02;  9.9999998E-03;  9.0000004E-02;1053;  0.0000000E+00;  0.0000000E+00;  0.0000000E+00;  1.0000000E+03;  1.0000000E-01;  0.0000000E+00;0;  0.0000000E+00;  0.0000000E+00;  0.0000000E+00;0;  4.1900572E-01;  4.0000000E+04;  0.0000000E+00;  0.0000000E+00;  4.0000000E+04;  0.0000000E+00;  4.0000000E+04;  4.2403489E-01;  0.0000000E+00; -5.0291610E-03;  3.4370807E+02;
 -9.0000004E-02;  9.9999998E-03;  1.0000000E-01;1054;  0.0000000E+00;  0.0000000E+00;  0.0000000E+00;  1.0000000E+03;  1.0000000E-01;  0.0000000E+00;0;  0.0000000E+00;  0.0000000E+00;  0.0000000E+00;0;  4.1509396E-01;  4.0000000E+04;  0.0000000E+00;  0.0000000E+00;  4.0000000E+04;  0.0000000E+00;  4.0000000E+04;  4.2039284E-01;  0.0000000E+00; -5.2988851E-03;  3.4159598E+02;
 -9.0000004E-02;  9.9999998E-03;  1.1000000E-01;1055;  0.0000000E+00;  0.0000000E+00;  0.0000000E+00;  1.0000000E+03;  1.0000000E-01;  0.0000000E+00;0;  0.0000000E+00;  0.0000000E+00;  0.0000000E+00;0;  4.1021386E-01;  4.0000000E+04;  0.0000000E+00;  0.0000000E+00;  4.0000000E+04;  0.0000000E+00;  4.0000000E+04;  4.1578990E-01;  0.0000000E+00; -5.5760327E-03;  3.3178528E+02;
 -9.0000004E-02;  9.9999998E-03;  1.2000000E-01;1056;  0.0000000E+00;  0.0000000E+00;  0.0000000E+00;  1.0000000E+03;  1.0000000E-01;  0.0000000E+00;0;  0.0000000E+00;  0.0000000E+00;  0.0000000E+00;0;  4.0411434E-01;  4.0000000E+04;  0.0000000E+00;  0.0000000E+00;  4.0000000E+04;  0.0000000E+00;  4.0000000E+04;  4.0992901E-01;  0.0000000E+00; -5.8146715E-03;  3.1185315E+02;
 -9.0000004E-02;  9.9999998E-03;  1.3000000E-01;1057;  0.0000000E+00;  0.0000000E+00;  0.0000000E+00;  1.0000000E+03;  1.0000000E-01;  0.0000000E+00;0;  0.0000000E+00;  0.0000000E+00;  0.0000000E+00;0;  3.9650926E-01;  4.0000000E+04;  0.0000000E+00;  0.0000000E+00;  4.0000000E+04;  0.0000000E+00;  4.0000000E+04;  4.0246475E-01;  0.0000000E+00; -5.9555001E-03;  2.7965506E+02;
 -9.0000004E-02;  9.9999998E-03;  1.4000000E-01;1058;  0.0000000E+00;  0.0000000E+00;  0.0000000E+00;  1.0000000E+03;  1.0000000E-01;  0.0000000E+00;0;  0.0000000E+00;  0.0000000E+00;  0.0000000E+00;0;  3.8709560E-01;  4.0000000E+04;  0.0000000E+00;  0.0000000E+00;  4.0000000E+04;  0.0000000E+00;  4.0000000E+04;  3.9302900E-01;  0.0000000E+00; -5.9333905E-03;  2.3367252E+02;
 -9.0000004E-02;  9.9999998E-03;  1.5000001E-01;1059;  0.0000000E+00;  0.0000000E+00;  0.0000000E+00;  1.0000000E+03;  1.0000000E-01;  0.0000000E+00;0;  0.0000000E+00;  0.0000000E+00;  0.0000000E+00;0;  3.7557787E-01;  4.0000000E+04;  0.0000000E+00;  0.0000000E+00;  4.0000000E+04;  0.0000000E+00;  4.0000000E+04;  3.8126579E-01;  0.0000000E+00; -5.6879167E-03;  1.7335231E+02;
 -9.0000004E-02;  9.9999998E-03;  1.6000000E-01;1060;  0.0000000E+00;  0.0000000E+00;  0.0000000E+00;  1.0000000E+03;  1.0000000E-01;  0.0000000E+00;0;  0.0000000E+00;  0.0000000E+00;  0.0000000E+00;0;  3.6170012E-01;  4.0000000E+04;  0.0000000E+00;  0.0000000E+00;  4.0000000E+04;  0.0000000E+00;  4.0000000E+04;  3.6687529E-01;  0.0000000E+00; -5.1751751E-03;  9.9389862E+01;
 -9.0000004E-02;  9.9999998E-03;  1.7000000E-01;1061;  0.0000000E+00;  0.0000000E+00;  0.0000000E+00;  1.0000000E+03;  1.0000000E-01;  0.0000000E+00;0;  0.0000000E+00;  0.0000000E+00;  0.0000000E+00;0;  3.4528667E-01;  4.0000000E+04;  0.0000000E+00;  0.0000000E+00;  4.0000000E+04;  0.0000000E+00;  4.0000000E+04;  3.4966299E-01;  0.0000000E+00; -4.3763146E-03;  1.5747883E+01;
 -9.0000004E-02;  9.9999998E-03;  1.8000001E-01;1062;  0.0000000E+00;  0.0000000E+00;  0.0000000E+00;  1.0000000E+03;  1.0000000E-01;  0.0000000E+00;0;  0.0000000E+00;  0.0000000E+00;  0.0000000E+00;0;  3.2627735E-01;  4.0000000E+04;  0.0000000E+00;  0.0000000E+00;  4.0000000E+04;  0.0000000E+00;  4.0000000E+04;  3.2957983E-01;  0.0000000E+00; -3.3024773E-03;  8.0218239E+01;
 -9.0000004E-02;  9.9999998E-03;  1.9000000E-01;1063;  0.0000000E+00;  0.0000000E+00;  0.0000000E+00;  1.0000000E+03;  1.0000000E-01;  0.0000000E+00;0;  0.0000000E+00;  0.0000000E+00;  0.0000000E+00;0;  3.0476144E-01;  4.0000000E+04;  0.0000000E+00;  0.0000000E+00;  4.0000000E+04;  0.0000000E+00;  4.0000000E+04;  3.0675465E-01;  0.0000000E+00; -1.9932170E-03;  1.7508778E+02;
 -9.0000004E-02;  9.9999998E-03;  2.0000000E-01;1064;  0.0000000E+00;  0.0000000E+00;  0.0000000E+00;  1.0000000E+03;  1.0000000E-01;  0.0000000E+00;0;  0.0000000E+00;  0.0000000E+00;  0.0000000E+00;0;  2.8099829E-01;  4.0000000E+04;  0.0000000E+00;  0.0000000E+00;  4.0000000E+04;  0.0000000E+00;  4.0000000E+04;  2.8150702E-01;  0.0000000E+00; -5.0872844E-04;  2.6509891E+02;
 -9.0000004E-02;  9.9999998E-03;  2.0999999E-01;1065;  0.0000000E+00;  0.0000000E+00;  0.0000000E+00;  1.0000000E+03;  1.0000000E-01;  0.0000000E+00;0;  0.0000000E+00;  0.0000000E+00;  0.0000000E+00;0;  2.5541750E-01;  4.0000000E+04;  0.0000000E+00;  0.0000000E+00;  4.0000000E+04;  0.0000000E+00;  4.0000000E+04;  2.5434083E-01;  0.0000000E+00;  1.0766689E-03;  3.4275424E+02;
 -9.0000004E-02;  9.9999998E-03;  2.2000000E-01;1066;  0.0000000E+00;  0.0000000E+00;  0.0000000E+00;  1.0000000E+03;  1.0000000E-01;  0.0000000E+00;0;  0.0000000E+00;  0.0000000E+00;  0.0000000E+00;0;  2.2859530E-01;  4.0000000E+04;  0.0000000E+00;  0.0000000E+00;  4.0000000E+04;  0.0000000E+00;  4.0000000E+04;  2.2591527E-01;  0.0000000E+00;  2.6800288E-03;  4.0122873E+02;
 -9.0000004E-02;  9.9999998E-03;  2.3000000E-01;1067;  0.0000000E+00;  0.0000000E+00;  0.0000000E+00;  1.0000307E+03;  1.0000000E-01;  2.5480761E+01;0;  0.0000000E+00;  0.0000000E+00;  0.0000000E+00;0;  2.0121443E-01;  4.0000000E+04;  0.0000000E+00;  0.0000000E+00;  4.0000000E+04;  0.0000000E+00;  4.0000000E+04;  1.9699873E-01;  0.0000000E+00;  4.2156973E-03;  4.3524832E+02;
 -7.9999998E-02;  9.9999998E-03;  7.0000000E-02;1142;  0.0000000E+00;  0.0000000E+00;  0.0000000E+00;  1.0000000E+03;  1.0000000E-01;  0.0000000E+00;0;  0.0000000E+00;  0.0000000E+00;  0.0000000E+00;0;  6.0647273E-01;  4.0000000E+04;  0.0000000E+00;  0.0000000E+00;  4.0000000E+04;  0.0000000E+00;  4.0000000E+04;  6.1409569E-01;  0.0000000E+00; -7.6229405E-03;  5.5139056E+02;
 -7.9999998E-02;  9.9999998E-03;  7.9999998E-02;1143;  0.0000000E+00;  0.0000000E+00;  0.0000000E+00;  1.0000000E+03;  1.0000000E-01;  0.0000000E+00;0;  0.0000000E+00;  0.0000000E+00;  0.0000000E+00;0;  6.0274345E-01;  4.0000000E+04;  0.0000000E+00;  0.0000000E+00;  4.0000000E+04;  0.0000000E+00;  4.0000000E+04;  6.1065245E-01;  0.0000000E+00; -7.9090111E-03;  5.6143854E+02;
 -7.9999998E-02;  9.9999998E-03;  9.0000004E-02;1144;  0.0000000E+00;  0.0000000E+00;  0.0000000E+00;  1.0000000E+03;  1.0000000E-01;  0.0000000E+00;0;  0.0000000E+00;  0.0000000E+00;  0.0000000E+00;0;  5.9812433E-01;  4.0000000E+04;  0.0000000E+00;  0.0000000E+00;  4.0000000E+04;  0.0000000E+00;  4.0000000E+04;  6.0639042E-01;  0.0000000E+00; -8.2660727E-03;  5.6616467E+02;
 -7.9999998E-02;  9.9999998E-03;  1.0000000E-01;1145;  0.0000000E+00;  0.0000000E+00;  0.0000000E+00;  1.0000000E+03;  1.0000000E-01;  0.0000000E+00;0;  0.0000000E+00;  0.0000000E+00;  0.0000000E+00;0;  5.9239441E-01;  4.0000000E+04;  0.0000000E+00;  0.0000000E+00;  4.0000000E+04;  0.0000000E+00;  4.0000000E+04;  6.0106540E-01;  0.0000000E+00; -8.6709997E-03;  5.6223322E+02;
 -7.9999998E-02;  9.9999998E-03;  1.1000000E-01;1146;  0.0000000E+00;  0.0000000E+00;  0.0000000E+00;  1.0000000E+03;  1.0000000E-01;  0.0000000E+00;0;  0.0000000E+00;  0.0000000E+00;  0.0000000E+00;0;  5.8527708E-01;  4.0000000E+04;  0.0000000E+00;  0.0000000E+00;  4.0000000E+04;  0.0000000E+00;  4.0000000E+04;  5.9435427E-01;  0.0000000E+00; -9.0771848E-03;  5.4592719E+02;
 -7.9999998E-02;  9.9999998E-03;  1.2000000E-01;1147;  0.0000000E+00;  0.0000000E+00;  0.0000000E+00;  1.0000000E+03;  1.0000000E-01;  0.0000000E+00;0;  0.0000000E+00;  0.0000000E+00;  0.0000000E+00;0;  5.7644492E-01;  4.0000000E+04;  0.0000000E+00;  0.0000000E+00;  4.0000000E+04;  0.0000000E+00;  4.0000000E+04;  5.8585984E-01;  0.0000000E+00; -9.4149336E-03;  5.1350916E+02;
 -7.9999998E-02;  9.9999998E-03;  1.3000000E-01;1148;  0.0000000E+00;  0.0000000E+00;  0.0000000E+00;  1.0000000E+03;  1.0000000E-01;  0.0000000E+00;0;  0.0000000E+00;  0.0000000E+00;  0.0000000E+00;0;  5.6552839E-01;  4.0000000E+04;  0.0000000E+00;  0.0000000E+00;  4.0000000E+04;  0.0000000E+00;  4.0000000E+04;  5.7512546E-01;  0.0000000E+00; -9.5970482E-03;  4.6168924E+02;
 -7.9999998E-02;  9.9999998E-03;  1.4000000E-01;1149;  0.0000000E+00;  0.0000000E+00;  0.0000000E+00;  1.0000000E+03;  1.0000000E-01;  0.0000000E+00;0;  0.0000000E+00;  0.0000000E+00;  0.0000000E+00;0;  5.5213732E-01;  4.0000000E+04;  0.0000000E+00;  0.0000000E+00;  4.0000000E+04;  0.0000000E+00;  4.0000000E+04;  5.6166703E-01;  0.0000000E+00; -9.5297322E-03;  3.8813675E+02;
 -7.9999998E-02;  9.9999998E-03;  1.5000001E-01;1150;  0.0000000E+00;  0.0000000E+00;  0.0000000E+00;  1.0000000E+03;  1.0000000E-01;  0.0000000E+00;0;  0.0000000E+00;  0.0000000E+00;  0.0000000E+00;0;  5.3589278E-01;  4.0000000E+04;  0.0000000E+00;  0.0000000E+00;  4.0000000E+04;  0.0000000E+00;  4.0000000E+04;  5.4501992E-01;  0.0000000E+00; -9.1271475E-03;  2.9196701E+02;
 -7.9999998E-02;  9.9999998E-03;  1.6000000E-01;1151;  0.0000000E+00;  0.0000000E+00;  0.0000000E+00;  1.0000000E+03;  1.0000000E-01;  0.0000000E+00;0;  0.0000000E+00;  0.0000000E+00;  0.0000000E+00;0;  5.1646620E-01;  4.0000000E+04;  0.0000000E+00;  0.0000000E+00;  4.0000000E+04;  0.0000000E+00;  4.0000000E+04;  5.2479297E-01;  0.0000000E+00; -8.3267428E-03;  1.7429333E+02;
 -7.9999998E-02;  9.9999998E-03;  1.7000000E-01;1152;  0.0000000E+00;  0.0000000E+00;  0.0000000E+00;  1.0000000E+03;  1.0000000E-01;  0.0000000E+00;0;  0.0000000E+00;  0.0000000E+00;  0.0000000E+00;0;  4.9362582E-01;  4.0000000E+04;  0.0000000E+00;  0.0000000E+00;  4.0000000E+04;  0.0000000E+00;  4.0000000E+04;  5.0072575E-01;  0.0000000E+00; -7.0999227E-03;  4.0862427E+01;
 -7.9999998E-02;  9.9999998E-03;  1.8000001E-01;1153;  0.0000000E+00;  0.0000000E+00;  0.0000000E+00;  1.0000000E+03;  1.0000000E-01;  0.0000000E+00;0;  0.0000000E+00;  0.0000000E+00;  0.0000000E+00;0;  4.6728668E-01;  4.0000000E+04;  0.0000000E+00;  0.0000000E+00;  4.0000000E+04;  0.0000000E+00;  4.0000000E+04;  4.7274530E-01;  0.0000000E+00; -5.4586255E-03;  1.1225001E+02;
 -7.9999998E-02;  9.9999998E-03;  1.9000000E-01;1154;  0.0000000E+00;  0.0000000E+00;  0.0000000E+00;  1.0000000E+03;  1.0000000E-01;  0.0000000E+00;0;  0.0000000E+00;  0.0000000E+00;  0.0000000E+00;0;  4.3755603E-01;  4.0000000E+04;  0.0000000E+00;  0.0000000E+00;  4.0000000E+04;  0.0000000E+00;  4.0000000E+04;  4.4100639E-01;  0.0000000E+00; -3.4503643E-03;  2.6313824E+02;
 -7.9999998E-02;  9.9999998E-03;  2.0000000E-01;1155;  0.0000000E+00;  0.0000000E+00;  0.0000000E+00;  1.0000000E+03;  1.0000000E-01;  0.0000000E+00;0;  0.0000000E+00;  0.0000000E+00;  0.0000000E+00;0;  4.0476099E-01;  4.0000000E+04;  0.0000000E+00;  0.0000000E+00;  4.0000000E+04;  0.0000000E+00;  4.0000000E+04;  4.0591386E-01;  0.0000000E+00; -1.1528670E-03;  4.0738550E+02;
 -7.9999998E-02;  9.9999998E-03;  2.0999999E-01;1156;  0.0000000E+00;  0.0000000E+00;  0.0000000E+00;  1.0000000E+03;  1.0000000E-01;  0.0000000E+00;0;  0.0000000E+00;  0.0000000E+00;  0.0000000E+00;0;  3.6944833E-01;  4.0000000E+04;  0.0000000E+00;  0.0000000E+00;  4.0000000E+04;  0.0000000E+00;  4.0000000E+04;  3.6811790E-01;  0.0000000E+00;  1.3304283E-03;  5.3350684E+02;
 -7.9999998E-02;  9.9999998E-03;  2.2000000E-01;1157;  0.0000000E+00;  0.0000000E+00;  0.0000000E+00;  1.0000000E+03;  1.0000000E-01;  0.0000000E+00;0;  0.0000000E+00;  0.0000000E+00;  0.0000000E+00;0;  3.3235717E-01;  4.0000000E+04;  0.0000000E+00;  0.0000000E+00;  4.0000000E+04;  0.0000000E+00;  4.0000000E+04;  3.2848021E-01;  0.0000000E+00;  3.8769429E-03;  6.3119397E+02;
 -7.9999998E-02;  9.9999998E-03;  2.3000000E-01;1158;  0.0000000E+00;  0.0000000E+00;  0.0000000E+00;  1.0000000E+03;  1.0000000E-01;  0.0000000E+00;0;  0.0000000E+00;  0.0000000E+00;  0.0000000E+00;0;  2.9437199E-01;  4.0000000E+04;  0.0000000E+00;  0.0000000E+00;  4.0000000E+04;  0.0000000E+00;  4.0000000E+04;  2.8801769E-01;  0.0000000E+00;  6.3542882E-03;  6.9231750E+02;
 -7.0000000E-02;  9.9999998E-03;  7.0000000E-02;1233;  0.0000000E+00;  0.0000000E+00;  0.0000000E+00;  1.0000000E+03;  1.0000000E-01;  0.0000000E+00;0;  0.0000000E+00;  0.0000000E+00;  0.0000000E+00;0;  8.2485342E-01;  4.0000000E+04;  0.0000000E+00;  0.0000000E+00;  4.0000000E+04;  0.0000000E+00;  4.0000000E+04;  8.3661222E-01;  0.0000000E+00; -1.1758775E-02;  8.6022784E+02;
 -7.0000000E-02;  9.9999998E-03;  7.9999998E-02;1234;  0.0000000E+00;  0.0000000E+00;  0.0000000E+00;  1.0000000E+03;  1.0000000E-01;  0.0000000E+00;0;  0.0000000E+00;  0.0000000E+00;  0.0000000E+00;0;  8.1969029E-01;  4.0000000E+04;  0.0000000E+00;  0.0000000E+00;  4.0000000E+04;  0.0000000E+00;  4.0000000E+04;  8.3186227E-01;  0.0000000E+00; -1.2171962E-02;  8.7549268E+02;
 -7.0000000E-02;  9.9999998E-03;  9.0000004E-02;1235;  0.0000000E+00;  0.0000000E+00;  0.0000000E+00;  1.0000000E+03;  1.0000000E-01;  0.0000000E+00;0;  0.0000000E+00;  0.0000000E+00;  0.0000000E+00;0;  8.1329864E-01;  4.0000000E+04;  0.0000000E+00;  0.0000000E+00;  4.0000000E+04;  0.0000000E+00;  4.0000000E+04;  8.2598144E-01;  0.0000000E+00; -1.2682771E-02;  8.8264752E+02;
 -7.0000000E-02;  9.9999998E-03;  1.0000000E-01;1236;  0.0000000E+00;  0.0000000E+00;  0.0000000E+00;  1.0000000E+03;  1.0000000E-01;  0.0000000E+00;0;  0.0000000E+00;  0.0000000E+00;  0.0000000E+00;0;  8.0539316E-01;  4.0000000E+04;  0.0000000E+00;  0.0000000E+00;  4.0000000E+04;  0.0000000E+00;  4.0000000E+04;  8.1864822E-01;  0.0000000E+00; -1.3255065E-02;  8.7671375E+02;
 -7.0000000E-02;  9.9999998E-03;  1.1000000E-01;1237;  0.0000000E+00;  0.0000000E+00;  0.0000000E+00;  1.0000000E+03;  1.0000000E-01;  0.0000000E+00;0;  0.0000000E+00;  0.0000000E+00;  0.0000000E+00;0;  7.9562569E-01;  4.0000000E+04;  0.0000000E+00;  0.0000000E+00;  4.0000000E+04;  0.0000000E+00;  4.0000000E+04;  8.0944651E-01;  0.0000000E+00; -1.3820855E-02;  8.5218677E+02;
 -7.0000000E-02;  9.9999998E-03;  1.2000000E-01;1238;  0.0000000E+00;  0.0000000E+00;  0.0000000E+00;  1.0000000E+03;  1.0000000E-01;  0.0000000E+00;0;  0.0000000E+00;  0.0000000E+00;  0.0000000E+00;0;  7.8358585E-01;  4.0000000E+04;  0.0000000E+00;  0.0000000E+00;  4.0000000E+04;  0.0000000E+00;  4.0000000E+04;  7.9786736E-01;  0.0000000E+00; -1.4281537E-02;  8.0354681E+02;
 -7.0000000E-02;  9.9999998E-03;  1.3000000E-01;1239;  0.0000000E+00;  0.0000000E+00;  0.0000000E+00;  1.0000000E+03;  1.0000000E-01;  0.0000000E+00;0;  0.0000000E+00;  0.0000000E+00;  0.0000000E+00;0;  7.6881665E-01;  4.0000000E+04;  0.0000000E+00;  0.0000000E+00;  4.0000000E+04;  0.0000000E+00;  4.0000000E+04;  7.8333259E-01;  0.0000000E+00; -1.4515965E-02;  7.2591638E+02;
 -7.0000000E-02;  9.9999998E-03;  1.4000000E-01;1240;  0.0000000E+00;  0.0000000E+00;  0.0000000E+00;  1.0000000E+03;  1.0000000E-01;  0.0000000E+00;0;  0.0000000E+00;  0.0000000E+00;  0.0000000E+00;0;  7.5083184E-01;  4.0000000E+04;  0.0000000E+00;  0.0000000E+00;  4.0000000E+04;  0.0000000E+00;  4.0000000E+04;  7.6522666E-01;  0.0000000E+00; -1.4394837E-02;  6.1577350E+02;
 -7.0000000E-02;  9.9999998E-03;  1.5000001E-01;1241;  0.0000000E+00;  0.0000000E+00;  0.0000000E+00;  1.0000000E+03;  1.0000000E-01;  0.0000000E+00;0;  0.0000000E+00;  0.0000000E+00;  0.0000000E+00;0;  7.2915757E-01;  4.0000000E+04;  0.0000000E+00;  0.0000000E+00;  4.0000000E+04;  0.0000000E+00;  4.0000000E+04;  7.4295759E-01;  0.0000000E+00; -1.3800001E-02;  4.7164728E+02;
 -7.0000000E-02;  9.9999998E-03;  1.6000000E-01;1242;  0.0000000E+00;  0.0000000E+00;  0.0000000E+00;  1.0000000E+03;  1.0000000E-01;  0.0000000E+00;0;  0.0000000E+00;  0.0000000E+00;  0.0000000E+00;0;  7.0337510E-01;  4.0000000E+04;  0.0000000E+00;  0.0000000E+00;  4.0000000E+04;  0.0000000E+00;  4.0000000E+04;  7.1601754E-01;  0.0000000E+00; -1.2642421E-02;  2.9516769E+02;
 -7.0000000E-02;  9.9999998E-03;  1.7000000E-01;1243;  0.0000000E+00;  0.0000000E+00;  0.0000000E+00;  1.0000000E+03;  1.0000000E-01;  0.0000000E+00;0;  0.0000000E+00;  0.0000000E+00;  0.0000000E+00;0;  6.7317909E-01;  4.0000000E+04;  0.0000000E+00;  0.0000000E+00;  4.0000000E+04;  0.0000000E+00;  4.0000000E+04;  6.8405694E-01;  0.0000000E+00; -1.0877834E-02;  9.3805252E+01;
 -7.0000000E-02;  9.9999998E-03;  1.8000001E-01;1244;  0.0000000E+00;  0.0000000E+00;  0.0000000E+00;  1.0000000E+03;  1.0000000E-01;  0.0000000E+00;0;  0.0000000E+00;  0.0000000E+00;  0.0000000E+00;0;  6.3844442E-01;  4.0000000E+04;  0.0000000E+00;  0.0000000E+00;  4.0000000E+04;  0.0000000E+00;  4.0000000E+04;  6.4695519E-01;  0.0000000E+00; -8.5107498E-03;  1.3797871E+02;
 -7.0000000E-02;  9.9999998E-03;  1.9000000E-01;1245;  0.0000000E+00;  0.0000000E+00;  0.0000000E+00;  1.0000000E+03;  1.0000000E-01;  0.0000000E+00;0;  0.0000000E+00;  0.0000000E+00;  0.0000000E+00;0;  5.9928501E-01;  4.0000000E+04;  0.0000000E+00;  0.0000000E+00;  4.0000000E+04;  0.0000000E+00;  4.0000000E+04;  6.0487723E-01;  0.0000000E+00; -5.5922288E-03;  3.6555341E+02;
 -7.0000000E-02;  9.9999998E-03;  2.0000000E-01;1246;  0.0000000E+00;  0.0000000E+00;  0.0000000E+00;  1.0000000E+03;  1.0000000E-01;  0.0000000E+00;0;  0.0000000E+00;  0.0000000E+00;  0.0000000E+00;0;  5.5608588E-01;  4.0000000E+04;  0.0000000E+00;  0.0000000E+00;  4.0000000E+04;  0.0000000E+00;  4.0000000E+04;  5.5830604E-01;  0.0000000E+00; -2.2201610E-03;  5.8581049E+02;
 -7.0000000E-02;  9.9999998E-03;  2.0999999E-01;1247;  0.0000000E+00;  0.0000000E+00;  0.0000000E+00;  1.0000000E+03;  1.0000000E-01;  0.0000000E+00;0;  0.0000000E+00;  0.0000000E+00;  0.0000000E+00;0;  5.0951207E-01;  4.0000000E+04;  0.0000000E+00;  0.0000000E+00;  4.0000000E+04;  0.0000000E+00;  4.0000000E+04;  5.0804847E-01;  0.0000000E+00;  1.4635727E-03;  7.8153241E+02;
 -7.0000000E-02;  9.9999998E-03;  2.2000000E-01;1248;  0.0000000E+00;  0.0000000E+00;  0.0000000E+00;  1.0000000E+03;  1.0000000E-01;  0.0000000E+00;0;  0.0000000E+00;  0.0000000E+00;  0.0000000E+00;0;  4.6047571E-01;  4.0000000E+04;  0.0000000E+00;  0.0000000E+00;  4.0000000E+04;  0.0000000E+00;  4.0000000E+04;  4.5519298E-01;  0.0000000E+00;  5.2827382E-03;  9.3763300E+02;
 -7.0000000E-02;  9.9999998E-03;  2.3000000E-01;1249;  0.0000000E+00;  0.0000000E+00;  0.0000000E+00;  1.0000000E+03;  1.0000000E-01;  0.0000000E+00;0;  0.0000000E+00;  0.0000000E+00;  0.0000000E+00;0;  4.1008121E-01;  4.0000000E+04;  0.0000000E+00;  0.0000000E+00;  4.0000000E+04;  0.0000000E+00;  4.0000000E+04;  4.0103927E-01;  0.0000000E+00;  9.0419501E-03;  1.0418971E+03;
 -5.9999999E-02;  9.9999998E-03;  7.0000000E-02;1324;  0.0000000E+00;  0.0000000E+00;  0.0000000E+00;  1.0000000E+03;  1.0000000E-01;  0.0000000E+00;0;  0.0000000E+00;  0.0000000E+00;  0.0000000E+00;0;  1.0741724E+00;  4.0000000E+04;  0.0000000E+00;  0.0000000E+00;  4.0000000E+04;  0.0000000E+00;  4.0000000E+04;  1.0912707E+00;  0.0000000E+00; -1.7098306E-02;  1.2779780E+03;
 -5.9999999E-02;  9.9999998E-03;  7.9999998E-02;1325;  0.0000000E+00;  0.0000000E+00;  0.0000000E+00;  1.0000000E+03;  1.0000000E-01;  0.0000000E+00;0;  0.0000000E+00;  0.0000000E+00;  0.0000000E+00;0;  1.0673758E+00;  4.0000000E+04;  0.0000000E+00;  0.0000000E+00;  4.0000000E+04;  0.0000000E+00;  4.0000000E+04;  1.0850345E+00;  0.0000000E+00; -1.7658662E-02;  1.3006985E+03;
 -5.9999999E-02;  9.9999998E-03;  9.0000004E-02;1326;  0.0000000E+00;  0.0000000E+00;  0.0000000E+00;  1.0000000E+03;  1.0000000E-01;  0.0000000E+00;0;  0.0000000E+00;  0.0000000E+00;  0.0000000E+00;0;  1.0589812E+00;  4.0000000E+04;  0.0000000E+00;  0.0000000E+00;  4.0000000E+04;  0.0000000E+00;  4.0000000E+04;  1.0773306E+00;  0.0000000E+00; -1.8349437E-02;  1.3119164E+03;
 -5.9999999E-02;  9.9999998E-03;  1.0000000E-01;1327;  0.0000000E+00;  0.0000000E+00;  0.0000000E+00;  1.0000000E+03;  1.0000000E-01;  0.0000000E+00;0;  0.0000000E+00;  0.0000000E+00;  0.0000000E+00;0;  1.0486383E+00;  4.0000000E+04;  0.0000000E+00;  0.0000000E+00;  4.0000000E+04;  0.0000000E+00;  4.0000000E+04;  1.0677583E+00;  0.0000000E+00; -1.9119920E-02;  1.3045625E+03;
 -5.9999999E-02;  9.9999998E-03;  1.1000000E-01;1328;  0.0000000E+00;  0.0000000E+00;  0.0000000E+00;  1.0000000E+03;  1.0000000E-01;  0.0000000E+00;0;  0.0000000E+00;  0.0000000E+00;  0.0000000E+00;0;  1.0359333E+00;  4.0000000E+04;  0.0000000E+00;  0.0000000E+00;  4.0000000E+04;  0.0000000E+00;  4.0000000E+04;  1.0558112E+00;  0.0000000E+00; -1.9877926E-02;  1.2708271E+03;
 -5.9999999E-02;  9.9999998E-03;  1.2000000E-01;1329;  0.0000000E+00;  0.0000000E+00;  0.0000000E+00;  1.0000000E+03;  1.0000000E-01;  0.0000000E+00;0;  0.0000000E+00;  0.0000000E+00;  0.0000000E+00;0;  1.0203717E+00;  4.0000000E+04;  0.0000000E+00;  0.0000000E+00;  4.0000000E+04;  0.0000000E+00;  4.0000000E+04;  1.0408635E+00;  0.0000000E+00; -2.0491781E-02;  1.2028501E+03;
 -5.9999999E-02;  9.9999998E-03;  1.3000000E-01;1330;  0.0000000E+00;  0.0000000E+00;  0.0000000E+00;  1.0000000E+03;  1.0000000E-01;  0.0000000E+00;0;  0.0000000E+00;  0.0000000E+00;  0.0000000E+00;0;  1.0014068E+00;  4.0000000E+04;  0.0000000E+00;  0.0000000E+00;  4.0000000E+04;  0.0000000E+00;  4.0000000E+04;  1.0222075E+00;  0.0000000E+00; -2.0800672E-02;  1.0935958E+03;
 -5.9999999E-02;  9.9999998E-03;  1.4000000E-01;1331;  0.0000000E+00;  0.0000000E+00;  0.0000000E+00;  1.0000000E+03;  1.0000000E-01;  0.0000000E+00;0;  0.0000000E+00;  0.0000000E+00;  0.0000000E+00;0;  9.7845638E-01;  4.0000000E+04;  0.0000000E+00;  0.0000000E+00;  4.0000000E+04;  0.0000000E+00;  4.0000000E+04;  9.9908918E-01;  0.0000000E+00; -2.0632787E-02;  9.3781549E+02;
 -5.9999999E-02;  9.9999998E-03;  1.5000001E-01;1332;  0.0000000E+00;  0.0000000E+00;  0.0000000E+00;  1.0000000E+03;  1.0000000E-01;  0.0000000E+00;0;  0.0000000E+00;  0.0000000E+00;  0.0000000E+00;0;  9.5093638E-01;  4.0000000E+04;  0.0000000E+00;  0.0000000E+00;  4.0000000E+04;  0.0000000E+00;  4.0000000E+04;  9.7076505E-01;  0.0000000E+00; -1.9828673E-02;  7.3310071E+02;
 -5.9999999E-02;  9.9999998E-03;  1.6000000E-01;1333;  0.0000000E+00;  0.0000000E+00;  0.0000000E+00;  1.0000000E+03;  1.0000000E-01;  0.0000000E+00;0;  0.0000000E+00;  0.0000000E+00;  0.0000000E+00;0;  9.1832483E-01;  4.0000000E+04;  0.0000000E+00;  0.0000000E+00;  4.0000000E+04;  0.0000000E+00;  4.0000000E+04;  9.3658829E-01;  0.0000000E+00; -1.8263444E-02;  4.8140878E+02;
 -5.9999999E-02;  9.9999998E-03;  1.7000000E-01;1334;  0.0000000E+00;  0.0000000E+00;  0.0000000E+00;  1.0000000E+03;  1.0000000E-01;  0.0000000E+00;0;  0.0000000E+00;  0.0000000E+00;  0.0000000E+00;0;  8.8022041E-01;  4.0000000E+04;  0.0000000E+00;  0.0000000E+00;  4.0000000E+04;  0.0000000E+00;  4.0000000E+04;  8.9608556E-01;  0.0000000E+00; -1.5865132E-02;  1.9192250E+02;
 -5.9999999E-02;  9.9999998E-03;  1.8000001E-01;1335;  0.0000000E+00;  0.0000000E+00;  0.0000000E+00;  1.0000000E+03;  1.0000000E-01;  0.0000000E+00;0;  0.0000000E+00;  0.0000000E+00;  0.0000000E+00;0;  8.3643895E-01;  4.0000000E+04;  0.0000000E+00;  0.0000000E+00;  4.0000000E+04;  0.0000000E+00;  4.0000000E+04;  8.4905744E-01;  0.0000000E+00; -1.2618502E-02;  1.4492053E+02;
 -5.9999999E-02;  9.9999998E-03;  1.9000000E-01;1336;  0.0000000E+00;  0.0000000E+00;  0.0000000E+00;  1.0000000E+03;  1.0000000E-01;  0.0000000E+00;0;  0.0000000E+00;  0.0000000E+00;  0.0000000E+00;0;  7.8707409E-01;  4.0000000E+04;  0.0000000E+00;  0.0000000E+00;  4.0000000E+04;  0.0000000E+00;  4.0000000E+04;  7.9564685E-01;  0.0000000E+00; -8.5727451E-03;  4.7201926E+02;
 -5.9999999E-02;  9.9999998E-03;  2.0000000E-01;1337;  0.0000000E+00;  0.0000000E+00;  0.0000000E+00;  1.0000000E+03;  1.0000000E-01;  0.0000000E+00;0;  0.0000000E+00;  0.0000000E+00;  0.0000000E+00;0;  7.3255056E-01;  4.0000000E+04;  0.0000000E+00;  0.0000000E+00;  4.0000000E+04;  0.0000000E+00;  4.0000000E+04;  7.3639989E-01;  0.0000000E+00; -3.8493003E-03;  7.9468127E+02;
 -5.9999999E-02;  9.9999998E-03;  2.0999999E-01;1338;  0.0000000E+00;  0.0000000E+00;  0.0000000E+00;  1.0000000E+03;  1.0000000E-01;  0.0000000E+00;0;  0.0000000E+00;  0.0000000E+00;  0.0000000E+00;0;  6.7363513E-01;  4.0000000E+04;  0.0000000E+00;  0.0000000E+00;  4.0000000E+04;  0.0000000E+00;  4.0000000E+04;  6.7227459E-01;  0.0000000E+00;  1.3605453E-03;  1.0865385E+03;
 -5.9999999E-02;  9.9999998E-03;  2.2000000E-01;1339;  0.0000000E+00;  0.0000000E+00;  0.0000000E+00;  1.0000000E+03;  1.0000000E-01;  0.0000000E+00;0;  0.0000000E+00;  0.0000000E+00;  0.0000000E+00;0;  6.1140823E-01;  4.0000000E+04;  0.0000000E+00;  0.0000000E+00;  4.0000000E+04;  0.0000000E+00;  4.0000000E+04;  6.0459733E-01;  0.0000000E+00;  6.8109306E-03;  1.3260692E+03;
 -5.9999999E-02;  9.9999998E-03;  2.3000000E-01;1340;  0.0000000E+00;  0.0000000E+00;  0.0000000E+00;  1.0000000E+03;  1.0000000E-01;  0.0000000E+00;0;  0.0000000E+00;  0.0000000E+00;  0.0000000E+00;0;  5.4720616E-01;  4.0000000E+04;  0.0000000E+00;  0.0000000E+00;  4.0000000E+04;  0.0000000E+00;  4.0000000E+04;  5.3498065E-01;  0.0000000E+00;  1.2225489E-02;  1.4953691E+03;
 -5.0000001E-02;  9.9999998E-03;  7.0000000E-02;1415;  0.0000000E+00;  0.0000000E+00;  0.0000000E+00;  1.0000000E+03;  1.0000000E-01;  0.0000000E+00;0;  0.0000000E+00;  0.0000000E+00;  0.0000000E+00;0;  1.3421112E+00;  4.0000000E+04;  0.0000000E+00;  0.0000000E+00;  4.0000000E+04;  0.0000000E+00;  4.0000000E+04;  1.3657130E+00;  0.0000000E+00; -2.3601796E-02;  1.8172804E+03;
 -5.0000001E-02;  9.9999998E-03;  7.9999998E-02;1416;  0.0000000E+00;  0.0000000E+00;  0.0000000E+00;  1.0000000E+03;  1.0000000E-01;  0.0000000E+00;0;  0.0000000E+00;  0.0000000E+00;  0.0000000E+00;0;  1.3335820E+00;  4.0000000E+04;  0.0000000E+00;  0.0000000E+00;  4.0000000E+04;  0.0000000E+00;  4.0000000E+04;  1.3579028E+00;  0.0000000E+00; -2.4320718E-02;  1.8505052E+03;
 -5.0000001E-02;  9.9999998E-03;  9.0000004E-02;1417;  0.0000000E+00;  0.0000000E+00;  0.0000000E+00;  1.0000000E+03;  1.0000000E-01;  0.0000000E+00;0;  0.0000000E+00;  0.0000000E+00;  0.0000000E+00;0;  1.3230817E+00;  4.0000000E+04;  0.0000000E+00;  0.0000000E+00;  4.0000000E+04;  0.0000000E+00;  4.0000000E+04;  1.3482925E+00;  0.0000000E+00; -2.5210779E-02;  1.8684432E+03;
 -5.0000001E-02;  9.9999998E-03;  1.0000000E-01;1418;  0.0000000E+00;  0.0000000E+00;  0.0000000E+00;  1.0000000E+03;  1.0000000E-01;  0.0000000E+00;0;  0.0000000E+00;  0.0000000E+00;  0.0000000E+00;0;  1.3102083E+00;  4.0000000E+04;  0.0000000E+00;  0.0000000E+00;  4.0000000E+04;  0.0000000E+00;  4.0000000E+04;  1.3364152E+00;  0.0000000E+00; -2.6206799E-02;  1.8614813E+03;
 -5.0000001E-02;  9.9999998E-03;  1.1000000E-01;1419;  0.0000000E+00;  0.0000000E+00;  0.0000000E+00;  1.0000000E+03;  1.0000000E-01;  0.0000000E+00;0;  0.0000000E+00;  0.0000000E+00;  0.0000000E+00;0;  1.2944843E+00;  4.0000000E+04;  0.0000000E+00;  0.0000000E+00;  4.0000000E+04;  0.0000000E+00;  4.0000000E+04;  1.3216755E+00;  0.0000000E+00; -2.7191315E-02;  1.8189413E+03;
 -5.0000001E-02;  9.9999998E-03;  1.2000000E-01;1420;  0.0000000E+00;  0.0000000E+00;  0.0000000E+00;  1.0000000E+03;  1.0000000E-01;  0.0000000E+00;0;  0.0000000E+00;  0.0000000E+00;  0.0000000E+00;0;  1.2753470E+00;  4.0000000E+04;  0.0000000E+00;  0.0000000E+00;  4.0000000E+04;  0.0000000E+00;  4.0000000E+04;  1.3033441E+00;  0.0000000E+00; -2.7997080E-02;  1.7299763E+03;
 -5.0000001E-02;  9.9999998E-03;  1.3000000E-01;1421;  0.0000000E+00;  0.0000000E+00;  0.0000000E+00;  1.0000000E+03;  1.0000000E-01;  0.0000000E+00;0;  0.0000000E+00;  0.0000000E+00;  0.0000000E+00;0;  1.2521654E+00;  4.0000000E+04;  0.0000000E+00;  0.0000000E+00;  4.0000000E+04;  0.0000000E+00;  4.0000000E+04;  1.2805846E+00;  0.0000000E+00; -2.8419105E-02;  1.5846923E+03;
 -5.0000001E-02;  9.9999998E-03;  1.4000000E-01;1422;  0.0000000E+00;  0.0000000E+00;  0.0000000E+00;  1.0000000E+03;  1.0000000E-01;  0.0000000E+00;0;  0.0000000E+00;  0.0000000E+00;  0.0000000E+00;0;  1.2242637E+00;  4.0000000E+04;  0.0000000E+00;  0.0000000E+00;  4.0000000E+04;  0.0000000E+00;  4.0000000E+04;  1.2524998E+00;  0.0000000E+00; -2.8236195E-02;  1.3754019E+03;
 -5.0000001E-02;  9.9999998E-03;  1.5000001E-01;1423;  0.0000000E+00;  0.0000000E+00;  0.0000000E+00;  1.0000000E+03;  1.0000000E-01;  0.0000000E+00;0;  0.0000000E+00;  0.0000000E+00;  0.0000000E+00;0;  1.1909472E+00;  4.0000000E+04;  0.0000000E+00;  0.0000000E+00;  4.0000000E+04;  0.0000000E+00;  4.0000000E+04;  1.2181845E+00;  0.0000000E+00; -2.7237281E-02;  1.0982098E+03;
 -5.0000001E-02;  9.9999998E-03;  1.6000000E-01;1424;  0.0000000E+00;  0.0000000E+00;  0.0000000E+00;  1.0000000E+03;  1.0000000E-01;  0.0000000E+00;0;  0.0000000E+00;  0.0000000E+00;  0.0000000E+00;0;  1.1515760E+00;  4.0000000E+04;  0.0000000E+00;  0.0000000E+00;  4.0000000E+04;  0.0000000E+00;  4.0000000E+04;  1.1768253E+00;  0.0000000E+00; -2.5249232E-02;  7.5493927E+02;
 -5.0000001E-02;  9.9999998E-03;  1.7000000E-01;1425;  0.0000000E+00;  0.0000000E+00;  0.0000000E+00;  1.0000000E+03;  1.0000000E-01;  0.0000000E+00;0;  0.0000000E+00;  0.0000000E+00;  0.0000000E+00;0;  1.1056386E+00;  4.0000000E+04;  0.0000000E+00;  0.0000000E+00;  4.0000000E+04;  0.0000000E+00;  4.0000000E+04;  1.1277926E+00;  0.0000000E+00; -2.2153957E-02;  3.5635367E+02;
 -5.0000001E-02;  9.9999998E-03;  1.8000001E-01;1426;  0.0000000E+00;  0.0000000E+00;  0.0000000E+00;  1.0000000E+03;  1.0000000E-01;  0.0000000E+00;0;  0.0000000E+00;  0.0000000E+00;  0.0000000E+00;0;  1.0528592E+00;  4.0000000E+04;  0.0000000E+00;  0.0000000E+00;  4.0000000E+04;  0.0000000E+00;  4.0000000E+04;  1.0707600E+00;  0.0000000E+00; -1.7900782E-02;  1.2189262E+02;
 -5.0000001E-02;  9.9999998E-03;  1.9000000E-01;1427;  0.0000000E+00;  0.0000000E+00;  0.0000000E+00;  1.0000000E+03;  1.0000000E-01;  0.0000000E+00;0;  0.0000000E+00;  0.0000000E+00;  0.0000000E+00;0;  9.9327695E-01;  4.0000000E+04;  0.0000000E+00;  0.0000000E+00;  4.0000000E+04;  0.0000000E+00;  4.0000000E+04;  1.0058069E+00;  0.0000000E+00; -1.2529942E-02;  5.6659131E+02;
 -5.0000001E-02;  9.9999998E-03;  2.0000000E-01;1428;  0.0000000E+00;  0.0000000E+00;  0.0000000E+00;  1.0000000E+03;  1.0000000E-01;  0.0000000E+00;0;  0.0000000E+00;  0.0000000E+00;  0.0000000E+00;0;  9.2731512E-01;  4.0000000E+04;  0.0000000E+00;  0.0000000E+00;  4.0000000E+04;  0.0000000E+00;  4.0000000E+04;  9.3350446E-01;  0.0000000E+00; -6.1893729E-03;  1.0219987E+03;
 -5.0000001E-02;  9.9999998E-03;  2.0999999E-01;1429;  0.0000000E+00;  0.0000000E+00;  0.0000000E+00;  1.0000000E+03;  1.0000000E-01;  0.0000000E+00;0;  0.0000000E+00;  0.0000000E+00;  0.0000000E+00;0;  8.5580224E-01;  4.0000000E+04;  0.0000000E+00;  0.0000000E+00;  4.0000000E+04;  0.0000000E+00;  4.0000000E+04;  8.5493380E-01;  0.0000000E+00;  8.6845638E-04;  1.4416616E+03;
 -5.0000001E-02;  9.9999998E-03;  2.2000000E-01;1430;  0.0000000E+00;  0.0000000E+00;  0.0000000E+00;  1.0000000E+03;  1.0000000E-01;  0.0000000E+00;0;  0.0000000E+00;  0.0000000E+00;  0.0000000E+00;0;  7.7996886E-01;  4.0000000E+04;  0.0000000E+00;  0.0000000E+00;  4.0000000E+04;  0.0000000E+00;  4.0000000E+04;  7.7165806E-01;  0.0000000E+00;  8.3107669E-03;  1.7955378E+03;
 -5.0000001E-02;  9.9999998E-03;  2.3000000E-01;1431;  0.0000000E+00;  0.0000000E+00;  0.0000000E+00;  1.0000000E+03;  1.0000000E-01;  0.0000000E+00;0;  0.0000000E+00;  0.0000000E+00;  0.0000000E+00;0;  7.0136744E-01;  4.0000000E+04;  0.0000000E+00;  0.0000000E+00;  4.0000000E+04;  0.0000000E+00;  4.0000000E+04;  6.8560576E-01;  0.0000000E+00;  1.5761662E-02;  2.0580691E+03;
 -3.9999999E-02;  9.9999998E-03;  7.0000000E-02;1506;  0.0000000E+00;  0.0000000E+00;  0.0000000E+00;  1.0000000E+03;  1.0000000E-01;  0.0000000E+00;0;  0.0000000E+00;  0.0000000E+00;  0.0000000E+00;0;  1.6087363E+00;  4.0000000E+04;  0.0000000E+00;  0.0000000E+00;  4.0000000E+04;  0.0000000E+00;  4.0000000E+04;  1.6398164E+00;  0.0000000E+00; -3.1080164E-02;  2.4825959E+03;
 -3.9999999E-02;  9.9999998E-03;  7.9999998E-02;1507;  0.0000000E+00;  0.0000000E+00;  0.0000000E+00;  1.0000000E+03;  1.0000000E-01;  0.0000000E+00;0;  0.0000000E+00;  0.0000000E+00;  0.0000000E+00;0;  1.5985248E+00;  4.0000000E+04;  0.0000000E+00;  0.0000000E+00;  4.0000000E+04;  0.0000000E+00;  4.0000000E+04;  1.6304814E+00;  0.0000000E+00; -3.1956531E-02;  2.5302649E+03;
 -3.9999999E-02;  9.9999998E-03;  9.0000004E-02;1508;  0.0000000E+00;  0.0000000E+00;  0.0000000E+00;  1.0000000E+03;  1.0000000E-01;  0.0000000E+00;0;  0.0000000E+00;  0.0000000E+00;  0.0000000E+00;0;  1.5860034E+00;  4.0000000E+04;  0.0000000E+00;  0.0000000E+00;  4.0000000E+04;  0.0000000E+00;  4.0000000E+04;  1.6190580E+00;  0.0000000E+00; -3.3054620E-02;  2.5588474E+03;
 -3.9999999E-02;  9.9999998E-03;  1.0000000E-01;1509;  0.0000000E+00;  0.0000000E+00;  0.0000000E+00;  1.0000000E+03;  1.0000000E-01;  0.0000000E+00;0;  0.0000000E+00;  0.0000000E+00;  0.0000000E+00;0;  1.5707350E+00;  4.0000000E+04;  0.0000000E+00;  0.0000000E+00;  4.0000000E+04;  0.0000000E+00;  4.0000000E+04;  1.6050320E+00;  0.0000000E+00; -3.4297008E-02;  2.5557507E+03;
 -3.9999999E-02;  9.9999998E-03;  1.1000000E-01;1510;  0.0000000E+00;  0.0000000E+00;  0.0000000E+00;  1.0000000E+03;  1.0000000E-01;  0.0000000E+00;0;  0.0000000E+00;  0.0000000E+00;  0.0000000E+00;0;  1.5521977E+00;  4.0000000E+04;  0.0000000E+00;  0.0000000E+00;  4.0000000E+04;  0.0000000E+00;  4.0000000E+04;  1.5877402E+00;  0.0000000E+00; -3.5542477E-02;  2.5068708E+03;
 -3.9999999E-02;  9.9999998E-03;  1.2000000E-01;1511;  0.0000000E+00;  0.0000000E+00;  0.0000000E+00;  1.0000000E+03;  1.0000000E-01;  0.0000000E+00;0;  0.0000000E+00;  0.0000000E+00;  0.0000000E+00;0;  1.5297778E+00;  4.0000000E+04;  0.0000000E+00;  0.0000000E+00;  4.0000000E+04;  0.0000000E+00;  4.0000000E+04;  1.5663658E+00;  0.0000000E+00; -3.6588065E-02;  2.3976711E+03;
 -3.9999999E-02;  9.9999998E-03;  1.3000000E-01;1512;  0.0000000E+00;  0.0000000E+00;  0.0000000E+00;  1.0000000E+03;  1.0000000E-01;  0.0000000E+00;0;  0.0000000E+00;  0.0000000E+00;  0.0000000E+00;0;  1.5027888E+00;  4.0000000E+04;  0.0000000E+00;  0.0000000E+00;  4.0000000E+04;  0.0000000E+00;  4.0000000E+04;  1.5399711E+00;  0.0000000E+00; -3.7182294E-02;  2.2145818E+03;
 -3.9999999E-02;  9.9999998E-03;  1.4000000E-01;1513;  0.0000000E+00;  0.0000000E+00;  0.0000000E+00;  1.0000000E+03;  1.0000000E-01;  0.0000000E+00;0;  0.0000000E+00;  0.0000000E+00;  0.0000000E+00;0;  1.4704697E+00;  4.0000000E+04;  0.0000000E+00;  0.0000000E+00;  4.0000000E+04;  0.0000000E+00;  4.0000000E+04;  1.5075183E+00;  0.0000000E+00; -3.7048560E-02;  1.9465814E+03;
 -3.9999999E-02;  9.9999998E-03;  1.5000001E-01;1514;  0.0000000E+00;  0.0000000E+00;  0.0000000E+00;  1.0000000E+03;  1.0000000E-01;  0.0000000E+00;0;  0.0000000E+00;  0.0000000E+00;  0.0000000E+00;0;  1.4320357E+00;  4.0000000E+04;  0.0000000E+00;  0.0000000E+00;  4.0000000E+04;  0.0000000E+00;  4.0000000E+04;  1.4679499E+00;  0.0000000E+00; -3.5914164E-02;  1.5874338E+03;
 -3.9999999E-02;  9.9999998E-03;  1.6000000E-01;1515;  0.0000000E+00;  0.0000000E+00;  0.0000000E+00;  1.0000000E+03;  1.0000000E-01;  0.0000000E+00;0;  0.0000000E+00;  0.0000000E+00;  0.0000000E+00;0;  1.3867226E+00;  4.0000000E+04;  0.0000000E+00;  0.0000000E+00;  4.0000000E+04;  0.0000000E+00;  4.0000000E+04;  1.4202635E+00;  0.0000000E+00; -3.3540986E-02;  1.1381478E+03;
 -3.9999999E-02;  9.9999998E-03;  1.7000000E-01;1516;  0.0000000E+00;  0.0000000E+00;  0.0000000E+00;  1.0000000E+03;  1.0000000E-01;  0.0000000E+00;0;  0.0000000E+00;  0.0000000E+00;  0.0000000E+00;0;  1.3339022E+00;  4.0000000E+04;  0.0000000E+00;  0.0000000E+00;  4.0000000E+04;  0.0000000E+00;  4.0000000E+04;  1.3636440E+00;  0.0000000E+00; -2.9741820E-02;  6.1058600E+02;
 -3.9999999E-02;  9.9999998E-03;  1.8000001E-01;1517;  0.0000000E+00;  0.0000000E+00;  0.0000000E+00;  1.0000000E+03;  1.0000000E-01;  0.0000000E+00;0;  0.0000000E+00;  0.0000000E+00;  0.0000000E+00;0;  1.2731746E+00;  4.0000000E+04;  0.0000000E+00;  0.0000000E+00;  4.0000000E+04;  0.0000000E+00;  4.0000000E+04;  1.2975857E+00;  0.0000000E+00; -2.4411095E-02;  1.0556717E+02;
 -3.9999999E-02;  9.9999998E-03;  1.9000000E-01;1518;  0.0000000E+00;  0.0000000E+00;  0.0000000E+00;  1.0000000E+03;  1.0000000E-01;  0.0000000E+00;0;  0.0000000E+00;  0.0000000E+00;  0.0000000E+00;0;  1.2044768E+00;  4.0000000E+04;  0.0000000E+00;  0.0000000E+00;  4.0000000E+04;  0.0000000E+00;  4.0000000E+04;  1.2220463E+00;  0.0000000E+00; -1.7569482E-02;  6.2787140E+02;
 -3.9999999E-02;  9.9999998E-03;  2.0000000E-01;1519;  0.0000000E+00;  0.0000000E+00;  0.0000000E+00;  1.0000000E+03;  1.0000000E-01;  0.0000000E+00;0;  0.0000000E+00;  0.0000000E+00;  0.0000000E+00;0;  1.1281600E+00;  4.0000000E+04;  0.0000000E+00;  0.0000000E+00;  4.0000000E+04;  0.0000000E+00;  4.0000000E+04;  1.1375524E+00;  0.0000000E+00; -9.3923630E-03;  1.2486440E+03;
 -3.9999999E-02;  9.9999998E-03;  2.0999999E-01;1520;  0.0000000E+00;  0.0000000E+00;  0.0000000E+00;  1.0000000E+03;  1.0000000E-01;  0.0000000E+00;0;  0.0000000E+00;  0.0000000E+00;  0.0000000E+00;0;  1.0450605E+00;  4.0000000E+04;  0.0000000E+00;  0.0000000E+00;  4.0000000E+04;  0.0000000E+00;  4.0000000E+04;  1.0452653E+00;  0.0000000E+00; -2.0480336E-04;  1.8318478E+03;
 -3.9999999E-02;  9.9999998E-03;  2.2000000E-01;1521;  0.0000000E+00;  0.0000000E+00;  0.0000000E+00;  1.0000000E+03;  1.0000000E-01;  0.0000000E+00;0;  0.0000000E+00;  0.0000000E+00;  0.0000000E+00;0;  9.5648950E-01;  4.0000000E+04;  0.0000000E+00;  0.0000000E+00;  4.0000000E+04;  0.0000000E+00;  4.0000000E+04;  9.4693333E-01;  0.0000000E+00;  9.5561612E-03;  2.3362559E+03;
 -3.9999999E-02;  9.9999998E-03;  2.3000000E-01;1522;  0.0000000E+00;  0.0000000E+00;  0.0000000E+00;  1.0000000E+03;  1.0000000E-01;  0.0000000E+00;0;  0.0000000E+00;  0.0000000E+00;  0.0000000E+00;0;  8.6417967E-01;  4.0000000E+04;  0.0000000E+00;  0.0000000E+00;  4.0000000E+04;  0.0000000E+00;  4.0000000E+04;  8.4478265E-01;  0.0000000E+00;  1.9397013E-02;  2.7263677E+03;
 -2.9999999E-02;  9.9999998E-03;  7.0000000E-02;1597;  0.0000000E+00;  0.0000000E+00;  0.0000000E+00;  1.0000000E+03;  1.0000000E-01;  0.0000000E+00;0;  0.0000000E+00;  0.0000000E+00;  0.0000000E+00;0;  1.8475107E+00;  4.0000000E+04;  0.0000000E+00;  0.0000000E+00;  4.0000000E+04;  0.0000000E+00;  4.0000000E+04;  1.8866848E+00;  0.0000000E+00; -3.9174125E-02;  3.2669866E+03;
 -2.9999999E-02;  9.9999998E-03;  7.9999998E-02;1598;  0.0000000E+00;  0.0000000E+00;  0.0000000E+00;  1.0000000E+03;  1.0000000E-01;  0.0000000E+00;0;  0.0000000E+00;  0.0000000E+00;  0.0000000E+00;0;  1.8358439E+00;  4.0000000E+04;  0.0000000E+00;  0.0000000E+00;  4.0000000E+04;  0.0000000E+00;  4.0000000E+04;  1.8760349E+00;  0.0000000E+00; -4.0190879E-02;  3.3338757E+03;
 -2.9999999E-02;  9.9999998E-03;  9.0000004E-02;1599;  0.0000000E+00;  0.0000000E+00;  0.0000000E+00;  1.0000000E+03;  1.0000000E-01;  0.0000000E+00;0;  0.0000000E+00;  0.0000000E+00;  0.0000000E+00;0;  1.8216087E+00;  4.0000000E+04;  0.0000000E+00;  0.0000000E+00;  4.0000000E+04;  0.0000000E+00;  4.0000000E+04;  1.8630999E+00;  0.0000000E+00; -4.1491263E-02;  3.3783782E+03;
 -2.9999999E-02;  9.9999998E-03;  1.0000000E-01;1600;  0.0000000E+00;  0.0000000E+00;  0.0000000E+00;  1.0000000E+03;  1.0000000E-01;  0.0000000E+00;0;  0.0000000E+00;  0.0000000E+00;  0.0000000E+00;0;  1.8043478E+00;  4.0000000E+04;  0.0000000E+00;  0.0000000E+00;  4.0000000E+04;  0.0000000E+00;  4.0000000E+04;  1.8473382E+00;  0.0000000E+00; -4.2990487E-02;  3.3845889E+03;
 -2.9999999E-02;  9.9999998E-03;  1.1000000E-01;1601;  0.0000000E+00;  0.0000000E+00;  0.0000000E+00;  1.0000000E+03;  1.0000000E-01;  0.0000000E+00;0;  0.0000000E+00;  0.0000000E+00;  0.0000000E+00;0;  1.7835288E+00;  4.0000000E+04;  0.0000000E+00;  0.0000000E+00;  4.0000000E+04;  0.0000000E+00;  4.0000000E+04;  1.8280567E+00;  0.0000000E+00; -4.4527940E-02;  3.3344678E+03;
 -2.9999999E-02;  9.9999998E-03;  1.2000000E-01;1602;  0.0000000E+00;  0.0000000E+00;  0.0000000E+00;  1.0000000E+03;  1.0000000E-01;  0.0000000E+00;0;  0.0000000E+00;  0.0000000E+00;  0.0000000E+00;0;  1.7585244E+00;  4.0000000E+04;  0.0000000E+00;  0.0000000E+00;  4.0000000E+04;  0.0000000E+00;  4.0000000E+04;  1.8043927E+00;  0.0000000E+00; -4.5868304E-02;  3.2090947E+03;
 -2.9999999E-02;  9.9999998E-03;  1.3000000E-01;1603;  0.0000000E+00;  0.0000000E+00;  0.0000000E+00;  1.0000000E+03;  1.0000000E-01;  0.0000000E+00;0;  0.0000000E+00;  0.0000000E+00;  0.0000000E+00;0;  1.7286162E+00;  4.0000000E+04;  0.0000000E+00;  0.0000000E+00;  4.0000000E+04;  0.0000000E+00;  4.0000000E+04;  1.7753307E+00;  0.0000000E+00; -4.6714377E-02;  2.9903120E+03;
 -2.9999999E-02;  9.9999998E-03;  1.4000000E-01;1604;  0.0000000E+00;  0.0000000E+00;  0.0000000E+00;  1.0000000E+03;  1.0000000E-01;  0.0000000E+00;0;  0.0000000E+00;  0.0000000E+00;  0.0000000E+00;0;  1.6930096E+00;  4.0000000E+04;  0.0000000E+00;  0.0000000E+00;  4.0000000E+04;  0.0000000E+00;  4.0000000E+04;  1.7397406E+00;  0.0000000E+00; -4.6730950E-02;  2.6627412E+03;
 -2.9999999E-02;  9.9999998E-03;  1.5000001E-01;1605;  0.0000000E+00;  0.0000000E+00;  0.0000000E+00;  1.0000000E+03;  1.0000000E-01;  0.0000000E+00;0;  0.0000000E+00;  0.0000000E+00;  0.0000000E+00;0;  1.6508507E+00;  4.0000000E+04;  0.0000000E+00;  0.0000000E+00;  4.0000000E+04;  0.0000000E+00;  4.0000000E+04;  1.6964257E+00;  0.0000000E+00; -4.5575038E-02;  2.2166355E+03;
 -2.9999999E-02;  9.9999998E-03;  1.6000000E-01;1606;  0.0000000E+00;  0.0000000E+00;  0.0000000E+00;  1.0000000E+03;  1.0000000E-01;  0.0000000E+00;0;  0.0000000E+00;  0.0000000E+00;  0.0000000E+00;0;  1.6012858E+00;  4.0000000E+04;  0.0000000E+00;  0.0000000E+00;  4.0000000E+04;  0.0000000E+00;  4.0000000E+04;  1.6442103E+00;  0.0000000E+00; -4.2924467E-02;  1.6511678E+03;
 -2.9999999E-02;  9.9999998E-03;  1.7000000E-01;1607;  0.0000000E+00;  0.0000000E+00;  0.0000000E+00;  1.0000000E+03;  1.0000000E-01;  0.0000000E+00;0;  0.0000000E+00;  0.0000000E+00;  0.0000000E+00;0;  1.5435704E+00;  4.0000000E+04;  0.0000000E+00;  0.0000000E+00;  4.0000000E+04;  0.0000000E+00;  4.0000000E+04;  1.5820675E+00;  0.0000000E+00; -3.8497135E-02;  9.7841327E+02;
 -2.9999999E-02;  9.9999998E-03;  1.8000001E-01;1608;  0.0000000E+00;  0.0000000E+00;  0.0000000E+00;  1.0000000E+03;  1.0000000E-01;  0.0000000E+00;0;  0.0000000E+00;  0.0000000E+00;  0.0000000E+00;0;  1.4771570E+00;  4.0000000E+04;  0.0000000E+00;  0.0000000E+00;  4.0000000E+04;  0.0000000E+00;  4.0000000E+04;  1.5092657E+00;  0.0000000E+00; -3.2108705E-02;  2.4804887E+02;
 -2.9999999E-02;  9.9999998E-03;  1.9000000E-01;1609;  0.0000000E+00;  0.0000000E+00;  0.0000000E+00;  1.0000000E+03;  1.0000000E-01;  0.0000000E+00;0;  0.0000000E+00;  0.0000000E+00;  0.0000000E+00;0;  1.4018215E+00;  4.0000000E+04;  0.0000000E+00;  0.0000000E+00;  4.0000000E+04;  0.0000000E+00;  4.0000000E+04;  1.4255652E+00;  0.0000000E+00; -2.3743754E-02;  6.2988397E+02;
 -2.9999999E-02;  9.9999998E-03;  2.0000000E-01;1610;  0.0000000E+00;  0.0000000E+00;  0.0000000E+00;  1.0000000E+03;  1.0000000E-01;  0.0000000E+00;0;  0.0000000E+00;  0.0000000E+00;  0.0000000E+00;0;  1.3177683E+00;  4.0000000E+04;  0.0000000E+00;  0.0000000E+00;  4.0000000E+04;  0.0000000E+00;  4.0000000E+04;  1.3313698E+00;  0.0000000E+00; -1.3601450E-02;  1.4477622E+03;
 -2.9999999E-02;  9.9999998E-03;  2.0999999E-01;1611;  0.0000000E+00;  0.0000000E+00;  0.0000000E+00;  1.0000000E+03;  1.0000000E-01;  0.0000000E+00;0;  0.0000000E+00;  0.0000000E+00;  0.0000000E+00;0;  1.2257283E+00;  4.0000000E+04;  0.0000000E+00;  0.0000000E+00;  4.0000000E+04;  0.0000000E+00;  4.0000000E+04;  1.2278167E+00;  0.0000000E+00; -2.0883717E-03;  2.2322268E+03;
 -2.9999999E-02;  9.9999998E-03;  2.2000000E-01;1612;  0.0000000E+00;  0.0000000E+00;  0.0000000E+00;  1.0000000E+03;  1.0000000E-01;  0.0000000E+00;0;  0.0000000E+00;  0.0000000E+00;  0.0000000E+00;0;  1.1269989E+00;  4.0000000E+04;  0.0000000E+00;  0.0000000E+00;  4.0000000E+04;  0.0000000E+00;  4.0000000E+04;  1.1167608E+00;  0.0000000E+00;  1.0238107E-02;  2.9270764E+03;
 -2.9999999E-02;  9.9999998E-03;  2.3000000E-01;1613;  0.0000000E+00;  0.0000000E+00;  0.0000000E+00;  1.0000000E+03;  1.0000000E-01;  0.0000000E+00;0;  0.0000000E+00;  0.0000000E+00;  0.0000000E+00;0;  1.0233920E+00;  4.0000000E+04;  0.0000000E+00;  0.0000000E+00;  4.0000000E+04;  0.0000000E+00;  4.0000000E+04;  1.0006407E+00;  0.0000000E+00;  2.2751272E-02;  3.4843818E+03;
 -2.0000000E-02;  9.9999998E-03;  7.0000000E-02;1688;  0.0000000E+00;  0.0000000E+00;  0.0000000E+00;  1.0000000E+03;  1.0000000E-01;  0.0000000E+00;0;  0.0000000E+00;  0.0000000E+00;  0.0000000E+00;0;  2.0286603E+00;  4.0000000E+04;  0.0000000E+00;  0.0000000E+00;  4.0000000E+04;  0.0000000E+00;  4.0000000E+04;  2.0760076E+00;  0.0000000E+00; -4.7347292E-02;  4.1496602E+03;
 -2.0000000E-02;  9.9999998E-03;  7.9999998E-02;1689;  0.0000000E+00;  0.0000000E+00;  0.0000000E+00;  1.0000000E+03;  1.0000000E-01;  0.0000000E+00;0;  0.0000000E+00;  0.0000000E+00;  0.0000000E+00;0;  2.0159585E+00;  4.0000000E+04;  0.0000000E+00;  0.0000000E+00;  4.0000000E+04;  0.0000000E+00;  4.0000000E+04;  2.0644274E+00;  0.0000000E+00; -4.8468802E-02;  4.2411138E+03;
 -2.0000000E-02;  9.9999998E-03;  9.0000004E-02;1690;  0.0000000E+00;  0.0000000E+00;  0.0000000E+00;  1.0000000E+03;  1.0000000E-01;  0.0000000E+00;0;  0.0000000E+00;  0.0000000E+00;  0.0000000E+00;0;  2.0005357E+00;  4.0000000E+04;  0.0000000E+00;  0.0000000E+00;  4.0000000E+04;  0.0000000E+00;  4.0000000E+04;  2.0504835E+00;  0.0000000E+00; -4.9947713E-02;  4.3080205E+03;
 -2.0000000E-02;  9.9999998E-03;  1.0000000E-01;1691;  0.0000000E+00;  0.0000000E+00;  0.0000000E+00;  1.0000000E+03;  1.0000000E-01;  0.0000000E+00;0;  0.0000000E+00;  0.0000000E+00;  0.0000000E+00;0;  1.9819555E+00;  4.0000000E+04;  0.0000000E+00;  0.0000000E+00;  4.0000000E+04;  0.0000000E+00;  4.0000000E+04;  2.0336545E+00;  0.0000000E+00; -5.1698975E-02;  4.3310029E+03;
 -2.0000000E-02;  9.9999998E-03;  1.1000000E-01;1692;  0.0000000E+00;  0.0000000E+00;  0.0000000E+00;  1.0000000E+03;  1.0000000E-01;  0.0000000E+00;0;  0.0000000E+00;  0.0000000E+00;  0.0000000E+00;0;  1.9597044E+00;  4.0000000E+04;  0.0000000E+00;  0.0000000E+00;  4.0000000E+04;  0.0000000E+00;  4.0000000E+04;  2.0132549E+00;  0.0000000E+00; -5.3550515E-02;  4.2877095E+03;
 -2.0000000E-02;  9.9999998E-03;  1.2000000E-01;1693;  0.0000000E+00;  0.0000000E+00;  0.0000000E+00;  1.0000000E+03;  1.0000000E-01;  0.0000000E+00;0;  0.0000000E+00;  0.0000000E+00;  0.0000000E+00;0;  1.9331878E+00;  4.0000000E+04;  0.0000000E+00;  0.0000000E+00;  4.0000000E+04;  0.0000000E+00;  4.0000000E+04;  1.9884295E+00;  0.0000000E+00; -5.5241738E-02;  4.1542148E+03;
 -2.0000000E-02;  9.9999998E-03;  1.3000000E-01;1694;  0.0000000E+00;  0.0000000E+00;  0.0000000E+00;  1.0000000E+03;  1.0000000E-01;  0.0000000E+00;0;  0.0000000E+00;  0.0000000E+00;  0.0000000E+00;0;  1.9017127E+00;  4.0000000E+04;  0.0000000E+00;  0.0000000E+00;  4.0000000E+04;  0.0000000E+00;  4.0000000E+04;  1.9581474E+00;  0.0000000E+00; -5.6434743E-02;  3.9068987E+03;
 -2.0000000E-02;  9.9999998E-03;  1.4000000E-01;1695;  0.0000000E+00;  0.0000000E+00;  0.0000000E+00;  1.0000000E+03;  1.0000000E-01;  0.0000000E+00;0;  0.0000000E+00;  0.0000000E+00;  0.0000000E+00;0;  1.8644980E+00;  4.0000000E+04;  0.0000000E+00;  0.0000000E+00;  4.0000000E+04;  0.0000000E+00;  4.0000000E+04;  1.9212353E+00;  0.0000000E+00; -5.6737285E-02;  3.5248689E+03;
 -2.0000000E-02;  9.9999998E-03;  1.5000001E-01;1696;  0.0000000E+00;  0.0000000E+00;  0.0000000E+00;  1.0000000E+03;  1.0000000E-01;  0.0000000E+00;0;  0.0000000E+00;  0.0000000E+00;  0.0000000E+00;0;  1.8206830E+00;  4.0000000E+04;  0.0000000E+00;  0.0000000E+00;  4.0000000E+04;  0.0000000E+00;  4.0000000E+04;  1.8764142E+00;  0.0000000E+00; -5.5731159E-02;  2.9934958E+03;
 -2.0000000E-02;  9.9999998E-03;  1.6000000E-01;1697;  0.0000000E+00;  0.0000000E+00;  0.0000000E+00;  1.0000000E+03;  1.0000000E-01;  0.0000000E+00;0;  0.0000000E+00;  0.0000000E+00;  0.0000000E+00;0;  1.7693844E+00;  4.0000000E+04;  0.0000000E+00;  0.0000000E+00;  4.0000000E+04;  0.0000000E+00;  4.0000000E+04;  1.8223772E+00;  0.0000000E+00; -5.2992858E-02;  2.3086943E+03;
 -2.0000000E-02;  9.9999998E-03;  1.7000000E-01;1698;  0.0000000E+00;  0.0000000E+00;  0.0000000E+00;  1.0000000E+03;  1.0000000E-01;  0.0000000E+00;0;  0.0000000E+00;  0.0000000E+00;  0.0000000E+00;0;  1.7097781E+00;  4.0000000E+04;  0.0000000E+00;  0.0000000E+00;  4.0000000E+04;  0.0000000E+00;  4.0000000E+04;  1.7578987E+00;  0.0000000E+00; -4.8120648E-02;  1.4813521E+03;
 -2.0000000E-02;  9.9999998E-03;  1.8000001E-01;1699;  0.0000000E+00;  0.0000000E+00;  0.0000000E+00;  1.0000000E+03;  1.0000000E-01;  0.0000000E+00;0;  0.0000000E+00;  0.0000000E+00;  0.0000000E+00;0;  1.6411767E+00;  4.0000000E+04;  0.0000000E+00;  0.0000000E+00;  4.0000000E+04;  0.0000000E+00;  4.0000000E+04;  1.6819993E+00;  0.0000000E+00; -4.0822584E-02;  5.4945514E+02;
 -2.0000000E-02;  9.9999998E-03;  1.9000000E-01;1700;  0.0000000E+00;  0.0000000E+00;  0.0000000E+00;  1.0000000E+03;  1.0000000E-01;  0.0000000E+00;0;  0.0000000E+00;  0.0000000E+00;  0.0000000E+00;0;  1.5631385E+00;  4.0000000E+04;  0.0000000E+00;  0.0000000E+00;  4.0000000E+04;  0.0000000E+00;  4.0000000E+04;  1.5941612E+00;  0.0000000E+00; -3.1022713E-02;  5.4521655E+02;
 -2.0000000E-02;  9.9999998E-03;  2.0000000E-01;1701;  0.0000000E+00;  0.0000000E+00;  0.0000000E+00;  1.0000000E+03;  1.0000000E-01;  0.0000000E+00;0;  0.0000000E+00;  0.0000000E+00;  0.0000000E+00;0;  1.4756222E+00;  4.0000000E+04;  0.0000000E+00;  0.0000000E+00;  4.0000000E+04;  0.0000000E+00;  4.0000000E+04;  1.4945539E+00;  0.0000000E+00; -1.8931748E-02;  1.5843921E+03;
 -2.0000000E-02;  9.9999998E-03;  2.0999999E-01;1702;  0.0000000E+00;  0.0000000E+00;  0.0000000E+00;  1.0000000E+03;  1.0000000E-01;  0.0000000E+00;0;  0.0000000E+00;  0.0000000E+00;  0.0000000E+00;0;  1.3791237E+00;  4.0000000E+04;  0.0000000E+00;  0.0000000E+00;  4.0000000E+04;  0.0000000E+00;  4.0000000E+04;  1.3841643E+00;  0.0000000E+00; -5.0406125E-03;  2.6064976E+03;
 -2.0000000E-02;  9.9999998E-03;  2.2000000E-01;1703;  0.0000000E+00;  0.0000000E+00;  0.0000000E+00;  1.0000000E+03;  1.0000000E-01;  0.0000000E+00;0;  0.0000000E+00;  0.0000000E+00;  0.0000000E+00;0;  1.2747571E+00;  4.0000000E+04;  0.0000000E+00;  0.0000000E+00;  4.0000000E+04;  0.0000000E+00;  4.0000000E+04;  1.2647949E+00;  0.0000000E+00;  9.9622589E-03;  3.5327800E+03;
 -2.0000000E-02;  9.9999998E-03;  2.3000000E-01;1704;  0.0000000E+00;  0.0000000E+00;  0.0000000E+00;  1.0000000E+03;  1.0000000E-01;  0.0000000E+00;0;  0.0000000E+00;  0.0000000E+00;  0.0000000E+00;0;  1.1642506E+00;  4.0000000E+04;  0.0000000E+00;  0.0000000E+00;  4.0000000E+04;  0.0000000E+00;  4.0000000E+04;  1.1389436E+00;  0.0000000E+00;  2.5307044E-02;  4.3003110E+03;
 -9.9999998E-03;  9.9999998E-03;  7.0000000E-02;1779;  0.0000000E+00;  0.0000000E+00;  0.0000000E+00;  1.0000000E+03;  1.0000000E-01;  0.0000000E+00;0;  0.0000000E+00;  0.0000000E+00;  0.0000000E+00;0;  2.1234250E+00;  4.0000000E+04;  0.0000000E+00;  0.0000000E+00;  4.0000000E+04;  0.0000000E+00;  4.0000000E+04;  2.1783245E+00;  0.0000000E+00; -5.4899573E-02;  5.0943994E+03;
 -9.9999998E-03;  9.9999998E-03;  7.9999998E-02;1780;  0.0000000E+00;  0.0000000E+00;  0.0000000E+00;  1.0000000E+03;  1.0000000E-01;  0.0000000E+00;0;  0.0000000E+00;  0.0000000E+00;  0.0000000E+00;0;  2.1102705E+00;  4.0000000E+04;  0.0000000E+00;  0.0000000E+00;  4.0000000E+04;  0.0000000E+00;  4.0000000E+04;  2.1663413E+00;  0.0000000E+00; -5.6070838E-02;  5.2157900E+03;
 -9.9999998E-03;  9.9999998E-03;  9.0000004E-02;1781;  0.0000000E+00;  0.0000000E+00;  0.0000000E+00;  1.0000000E+03;  1.0000000E-01;  0.0000000E+00;0;  0.0000000E+00;  0.0000000E+00;  0.0000000E+00;0;  2.0943851E+00;  4.0000000E+04;  0.0000000E+00;  0.0000000E+00;  4.0000000E+04;  0.0000000E+00;  4.0000000E+04;  2.1520689E+00;  0.0000000E+00; -5.7683695E-02;  5.3123555E+03;
 -9.9999998E-03;  9.9999998E-03;  1.0000000E-01;1782;  0.0000000E+00;  0.0000000E+00;  0.0000000E+00;  1.0000000E+03;  1.0000000E-01;  0.0000000E+00;0;  0.0000000E+00;  0.0000000E+00;  0.0000000E+00;0;  2.0753796E+00;  4.0000000E+04;  0.0000000E+00;  0.0000000E+00;  4.0000000E+04;  0.0000000E+00;  4.0000000E+04;  2.1350422E+00;  0.0000000E+00; -5.9662517E-02;  5.3612959E+03;
 -9.9999998E-03;  9.9999998E-03;  1.1000000E-01;1783;  0.0000000E+00;  0.0000000E+00;  0.0000000E+00;  1.0000000E+03;  1.0000000E-01;  0.0000000E+00;0;  0.0000000E+00;  0.0000000E+00;  0.0000000E+00;0;  2.0528114E+00;  4.0000000E+04;  0.0000000E+00;  0.0000000E+00;  4.0000000E+04;  0.0000000E+00;  4.0000000E+04;  2.1146455E+00;  0.0000000E+00; -6.1834086E-02;  5.3358154E+03;
 -9.9999998E-03;  9.9999998E-03;  1.2000000E-01;1784;  0.0000000E+00;  0.0000000E+00;  0.0000000E+00;  1.0000000E+03;  1.0000000E-01;  0.0000000E+00;0;  0.0000000E+00;  0.0000000E+00;  0.0000000E+00;0;  2.0261540E+00;  4.0000000E+04;  0.0000000E+00;  0.0000000E+00;  4.0000000E+04;  0.0000000E+00;  4.0000000E+04;  2.0900776E+00;  0.0000000E+00; -6.3923620E-02;  5.2065493E+03;
 -9.9999998E-03;  9.9999998E-03;  1.3000000E-01;1785;  0.0000000E+00;  0.0000000E+00;  0.0000000E+00;  1.0000000E+03;  1.0000000E-01;  0.0000000E+00;0;  0.0000000E+00;  0.0000000E+00;  0.0000000E+00;0;  1.9948101E+00;  4.0000000E+04;  0.0000000E+00;  0.0000000E+00;  4.0000000E+04;  0.0000000E+00;  4.0000000E+04;  2.0603731E+00;  0.0000000E+00; -6.5562963E-02;  4.9436504E+03;
 -9.9999998E-03;  9.9999998E-03;  1.4000000E-01;1786;  0.0000000E+00;  0.0000000E+00;  0.0000000E+00;  1.0000000E+03;  1.0000000E-01;  0.0000000E+00;0;  0.0000000E+00;  0.0000000E+00;  0.0000000E+00;0;  1.9580809E+00;  4.0000000E+04;  0.0000000E+00;  0.0000000E+00;  4.0000000E+04;  0.0000000E+00;  4.0000000E+04;  2.0243907E+00;  0.0000000E+00; -6.6309780E-02;  4.5196182E+03;
 -9.9999998E-03;  9.9999998E-03;  1.5000001E-01;1787;  0.0000000E+00;  0.0000000E+00;  0.0000000E+00;  1.0000000E+03;  1.0000000E-01;  0.0000000E+00;0;  0.0000000E+00;  0.0000000E+00;  0.0000000E+00;0;  1.9151877E+00;  4.0000000E+04;  0.0000000E+00;  0.0000000E+00;  4.0000000E+04;  0.0000000E+00;  4.0000000E+04;  1.9808607E+00;  0.0000000E+00; -6.5672956E-02;  3.9134534E+03;
 -9.9999998E-03;  9.9999998E-03;  1.6000000E-01;1788;  0.0000000E+00;  0.0000000E+00;  0.0000000E+00;  1.0000000E+03;  1.0000000E-01;  0.0000000E+00;0;  0.0000000E+00;  0.0000000E+00;  0.0000000E+00;0;  1.8653034E+00;  4.0000000E+04;  0.0000000E+00;  0.0000000E+00;  4.0000000E+04;  0.0000000E+00;  4.0000000E+04;  1.9284217E+00;  0.0000000E+00; -6.3118353E-02;  3.1160371E+03;
 -9.9999998E-03;  9.9999998E-03;  1.7000000E-01;1789;  0.0000000E+00;  0.0000000E+00;  0.0000000E+00;  1.0000000E+03;  1.0000000E-01;  0.0000000E+00;0;  0.0000000E+00;  0.0000000E+00;  0.0000000E+00;0;  1.8076105E+00;  4.0000000E+04;  0.0000000E+00;  0.0000000E+00;  4.0000000E+04;  0.0000000E+00;  4.0000000E+04;  1.8657168E+00;  0.0000000E+00; -5.8106281E-02;  2.1351526E+03;
 -9.9999998E-03;  9.9999998E-03;  1.8000001E-01;1790;  0.0000000E+00;  0.0000000E+00;  0.0000000E+00;  1.0000000E+03;  1.0000000E-01;  0.0000000E+00;0;  0.0000000E+00;  0.0000000E+00;  0.0000000E+00;0;  1.7413348E+00;  4.0000000E+04;  0.0000000E+00;  0.0000000E+00;  4.0000000E+04;  0.0000000E+00;  4.0000000E+04;  1.7915432E+00;  0.0000000E+00; -5.0208472E-02;  1.0037576E+03;
 -9.9999998E-03;  9.9999998E-03;  1.9000000E-01;1791;  0.0000000E+00;  0.0000000E+00;  0.0000000E+00;  1.0000000E+03;  1.0000000E-01;  0.0000000E+00;0;  0.0000000E+00;  0.0000000E+00;  0.0000000E+00;0;  1.6658096E+00;  4.0000000E+04;  0.0000000E+00;  0.0000000E+00;  4.0000000E+04;  0.0000000E+00;  4.0000000E+04;  1.7050641E+00;  0.0000000E+00; -3.9254397E-02;  3.6344507E+02;
 -9.9999998E-03;  9.9999998E-03;  2.0000000E-01;1792;  0.0000000E+00;  0.0000000E+00;  0.0000000E+00;  1.0000000E+03;  1.0000000E-01;  0.0000000E+00;0;  0.0000000E+00;  0.0000000E+00;  0.0000000E+00;0;  1.5806528E+00;  4.0000000E+04;  0.0000000E+00;  0.0000000E+00;  4.0000000E+04;  0.0000000E+00;  4.0000000E+04;  1.6060941E+00;  0.0000000E+00; -2.5441254E-02;  1.6161432E+03;
 -9.9999998E-03;  9.9999998E-03;  2.0999999E-01;1793;  0.0000000E+00;  0.0000000E+00;  0.0000000E+00;  1.0000000E+03;  1.0000000E-01;  0.0000000E+00;0;  0.0000000E+00;  0.0000000E+00;  0.0000000E+00;0;  1.4859439E+00;  4.0000000E+04;  0.0000000E+00;  0.0000000E+00;  4.0000000E+04;  0.0000000E+00;  4.0000000E+04;  1.4952765E+00;  0.0000000E+00; -9.3325842E-03;  2.9060720E+03;
 -9.9999998E-03;  9.9999998E-03;  2.2000000E-01;1794;  0.0000000E+00;  0.0000000E+00;  0.0000000E+00;  1.0000000E+03;  1.0000000E-01;  0.0000000E+00;0;  0.0000000E+00;  0.0000000E+00;  0.0000000E+00;0;  1.3823888E+00;  4.0000000E+04;  0.0000000E+00;  0.0000000E+00;  4.0000000E+04;  0.0000000E+00;  4.0000000E+04;  1.3741337E+00;  0.0000000E+00;  8.2550934E-03;  4.1019233E+03;
 -9.9999998E-03;  9.9999998E-03;  2.3000000E-01;1795;  0.0000000E+00;  0.0000000E+00;  0.0000000E+00;  1.0000000E+03;  1.0000000E-01;  0.0000000E+00;0;  0.0000000E+00;  0.0000000E+00;  0.0000000E+00;0;  1.2713904E+00;  4.0000000E+04;  0.0000000E+00;  0.0000000E+00;  4.0000000E+04;  0.0000000E+00;  4.0000000E+04;  1.2449793E+00;  0.0000000E+00;  2.6411202E-02;  5.1231099E+03;
 -1.9000000E-01;  9.9999998E-03;  2.3999999E-01;158;  0.0000000E+00;  0.0000000E+00;  0.0000000E+00;  1.0000000E+03;  1.0000000E-01;  0.0000000E+00;0;  0.0000000E+00;  0.0000000E+00;  0.0000000E+00;0;  0.0000000E+00;  4.0000000E+04;  0.0000000E+00;  0.0000000E+00;  4.0000000E+04;  0.0000000E+00;  4.0000000E+04;  0.0000000E+00;  0.0000000E+00;  0.0000000E+00;  0.0000000E+00;
 -1.9000000E-01;  9.9999998E-03;  2.5000000E-01;159;  0.0000000E+00;  0.0000000E+00;  0.0000000E+00;  1.0000000E+03;  1.0000000E-01;  0.0000000E+00;0;  0.0000000E+00;  0.0000000E+00;  0.0000000E+00;0;  0.0000000E+00;  4.0000000E+04;  0.0000000E+00;  0.0000000E+00;  4.0000000E+04;  0.0000000E+00;  4.0000000E+04;  0.0000000E+00;  0.0000000E+00;  0.0000000E+00;  0.0000000E+00;
 -1.9000000E-01;  9.9999998E-03;  2.5999999E-01;160;  0.0000000E+00;  0.0000000E+00;  0.0000000E+00;  1.0000000E+03;  1.0000000E-01;  0.0000000E+00;0;  0.0000000E+00;  0.0000000E+00;  0.0000000E+00;0;  0.0000000E+00;  4.0000000E+04;  0.0000000E+00;  0.0000000E+00;  4.0000000E+04;  0.0000000E+00;  4.0000000E+04;  0.0000000E+00;  0.0000000E+00;  0.0000000E+00;  0.0000000E+00;
 -1.9000000E-01;  9.9999998E-03;  2.7000001E-01;161;  0.0000000E+00;  0.0000000E+00;  0.0000000E+00;  1.0000000E+03;  1.0000000E-01;  0.0000000E+00;0;  0.0000000E+00;  0.0000000E+00;  0.0000000E+00;0;  0.0000000E+00;  4.0000000E+04;  0.0000000E+00;  0.0000000E+00;  4.0000000E+04;  0.0000000E+00;  4.0000000E+04;  0.0000000E+00;  0.0000000E+00;  0.0000000E+00;  0.0000000E+00;
 -1.9000000E-01;  9.9999998E-03;  2.8000000E-01;162;  0.0000000E+00;  0.0000000E+00;  0.0000000E+00;  1.0000000E+03;  1.0000000E-01;  0.0000000E+00;0;  0.0000000E+00;  0.0000000E+00;  0.0000000E+00;0;  0.0000000E+00;  4.0000000E+04;  0.0000000E+00;  0.0000000E+00;  4.0000000E+04;  0.0000000E+00;  4.0000000E+04;  0.0000000E+00;  0.0000000E+00;  0.0000000E+00;  0.0000000E+00;
 -1.9000000E-01;  9.9999998E-03;  2.8999999E-01;163;  0.0000000E+00;  0.0000000E+00;  0.0000000E+00;  1.0000000E+03;  1.0000000E-01;  0.0000000E+00;0;  0.0000000E+00;  0.0000000E+00;  0.0000000E+00;0;  0.0000000E+00;  4.0000000E+04;  0.0000000E+00;  0.0000000E+00;  4.0000000E+04;  0.0000000E+00;  4.0000000E+04;  0.0000000E+00;  0.0000000E+00;  0.0000000E+00;  0.0000000E+00;
 -1.9000000E-01;  9.9999998E-03;  3.0000001E-01;164;  0.0000000E+00;  0.0000000E+00;  0.0000000E+00;  1.0000000E+03;  1.0000000E-01;  0.0000000E+00;0;  0.0000000E+00;  0.0000000E+00;  0.0000000E+00;0;  0.0000000E+00;  4.0000000E+04;  0.0000000E+00;  0.0000000E+00;  4.0000000E+04;  0.0000000E+00;  4.0000000E+04;  0.0000000E+00;  0.0000000E+00;  0.0000000E+00;  0.0000000E+00;
 -1.9000000E-01;  9.9999998E-03;  3.1000000E-01;165;  0.0000000E+00;  0.0000000E+00;  0.0000000E+00;  1.0000000E+03;  1.0000000E-01;  0.0000000E+00;0;  0.0000000E+00;  0.0000000E+00;  0.0000000E+00;0;  0.0000000E+00;  4.0000000E+04;  0.0000000E+00;  0.0000000E+00;  4.0000000E+04;  0.0000000E+00;  4.0000000E+04;  0.0000000E+00;  0.0000000E+00;  0.0000000E+00;  0.0000000E+00;
 -1.9000000E-01;  9.9999998E-03;  3.1999999E-01;166;  0.0000000E+00;  0.0000000E+00;  0.0000000E+00;  1.0000000E+03;  1.0000000E-01;  0.0000000E+00;0;  0.0000000E+00;  0.0000000E+00;  0.0000000E+00;0;  0.0000000E+00;  4.0000000E+04;  0.0000000E+00;  0.0000000E+00;  4.0000000E+04;  0.0000000E+00;  4.0000000E+04;  0.0000000E+00;  0.0000000E+00;  0.0000000E+00;  0.0000000E+00;
 -1.9000000E-01;  9.9999998E-03;  3.3000001E-01;167;  0.0000000E+00;  0.0000000E+00;  0.0000000E+00;  1.0000000E+03;  1.0000000E-01;  0.0000000E+00;0;  0.0000000E+00;  0.0000000E+00;  0.0000000E+00;0;  0.0000000E+00;  4.0000000E+04;  0.0000000E+00;  0.0000000E+00;  4.0000000E+04;  0.0000000E+00;  4.0000000E+04;  0.0000000E+00;  0.0000000E+00;  0.0000000E+00;  0.0000000E+00;
 -1.9000000E-01;  9.9999998E-03;  3.4000000E-01;168;  0.0000000E+00;  0.0000000E+00;  0.0000000E+00;  1.0000000E+03;  1.0000000E-01;  0.0000000E+00;0;  0.0000000E+00;  0.0000000E+00;  0.0000000E+00;0;  0.0000000E+00;  4.0000000E+04;  0.0000000E+00;  0.0000000E+00;  4.0000000E+04;  0.0000000E+00;  4.0000000E+04;  0.0000000E+00;  0.0000000E+00;  0.0000000E+00;  0.0000000E+00;
 -1.9000000E-01;  9.9999998E-03;  3.4999999E-01;169;  0.0000000E+00;  0.0000000E+00;  0.0000000E+00;  1.0000000E+03;  1.0000000E-01;  0.0000000E+00;0;  0.0000000E+00;  0.0000000E+00;  0.0000000E+00;0;  0.0000000E+00;  4.0000000E+04;  0.0000000E+00;  0.0000000E+00;  4.0000000E+04;  0.0000000E+00;  4.0000000E+04;  0.0000000E+00;  0.0000000E+00;  0.0000000E+00;  0.0000000E+00;
 -1.9000000E-01;  9.9999998E-03;  3.6000001E-01;170;  0.0000000E+00;  0.0000000E+00;  0.0000000E+00;  1.0000000E+03;  1.0000000E-01;  0.0000000E+00;0;  0.0000000E+00;  0.0000000E+00;  0.0000000E+00;0;  0.0000000E+00;  4.0000000E+04;  0.0000000E+00;  0.0000000E+00;  4.0000000E+04;  0.0000000E+00;  4.0000000E+04;  0.0000000E+00;  0.0000000E+00;  0.0000000E+00;  0.0000000E+00;
 -1.9000000E-01;  9.9999998E-03;  3.7000000E-01;171;  0.0000000E+00;  0.0000000E+00;  0.0000000E+00;  1.0000000E+03;  1.0000000E-01;  0.0000000E+00;0;  0.0000000E+00;  0.0000000E+00;  0.0000000E+00;0;  0.0000000E+00;  4.0000000E+04;  0.0000000E+00;  0.0000000E+00;  4.0000000E+04;  0.0000000E+00;  4.0000000E+04;  0.0000000E+00;  0.0000000E+00;  0.0000000E+00;  0.0000000E+00;
 -1.9000000E-01;  9.9999998E-03;  3.8000000E-01;172;  0.0000000E+00;  0.0000000E+00;  0.0000000E+00;  1.0000000E+03;  1.0000000E-01;  0.0000000E+00;0;  0.0000000E+00;  0.0000000E+00;  0.0000000E+00;0;  0.0000000E+00;  4.0000000E+04;  0.0000000E+00;  0.0000000E+00;  4.0000000E+04;  0.0000000E+00;  4.0000000E+04;  0.0000000E+00;  0.0000000E+00;  0.0000000E+00;  0.0000000E+00;
 -1.9000000E-01;  9.9999998E-03;  3.8999999E-01;173;  0.0000000E+00;  0.0000000E+00;  0.0000000E+00;  1.0000000E+03;  1.0000000E-01;  0.0000000E+00;0;  0.0000000E+00;  0.0000000E+00;  0.0000000E+00;0;  0.0000000E+00;  4.0000000E+04;  0.0000000E+00;  0.0000000E+00;  4.0000000E+04;  0.0000000E+00;  4.0000000E+04;  0.0000000E+00;  0.0000000E+00;  0.0000000E+00;  0.0000000E+00;
 -1.9000000E-01;  9.9999998E-03;  4.0000001E-01;174;  0.0000000E+00;  0.0000000E+00;  0.0000000E+00;  1.0000000E+03;  1.0000000E-01;  0.0000000E+00;0;  0.0000000E+00;  0.0000000E+00;  0.0000000E+00;0;  0.0000000E+00;  4.0000000E+04;  0.0000000E+00;  0.0000000E+00;  4.0000000E+04;  0.0000000E+00;  4.0000000E+04;  0.0000000E+00;  0.0000000E+00;  0.0000000E+00;  0.0000000E+00;
 -1.8000001E-01;  9.9999998E-03;  2.3999999E-01;249;  0.0000000E+00;  0.0000000E+00;  0.0000000E+00;  1.0000000E+03;  1.0000000E-01;  0.0000000E+00;0;  0.0000000E+00;  0.0000000E+00;  0.0000000E+00;0;  0.0000000E+00;  4.0000000E+04;  0.0000000E+00;  0.0000000E+00;  4.0000000E+04;  0.0000000E+00;  4.0000000E+04;  0.0000000E+00;  0.0000000E+00;  0.0000000E+00;  0.0000000E+00;
 -1.8000001E-01;  9.9999998E-03;  2.5000000E-01;250;  0.0000000E+00;  0.0000000E+00;  0.0000000E+00;  1.0000000E+03;  1.0000000E-01;  0.0000000E+00;0;  0.0000000E+00;  0.0000000E+00;  0.0000000E+00;0;  0.0000000E+00;  4.0000000E+04;  0.0000000E+00;  0.0000000E+00;  4.0000000E+04;  0.0000000E+00;  4.0000000E+04;  0.0000000E+00;  0.0000000E+00;  0.0000000E+00;  0.0000000E+00;
 -1.8000001E-01;  9.9999998E-03;  2.5999999E-01;251;  0.0000000E+00;  0.0000000E+00;  0.0000000E+00;  1.0000000E+03;  1.0000000E-01;  0.0000000E+00;0;  0.0000000E+00;  0.0000000E+00;  0.0000000E+00;0;  0.0000000E+00;  4.0000000E+04;  0.0000000E+00;  0.0000000E+00;  4.0000000E+04;  0.0000000E+00;  4.0000000E+04;  0.0000000E+00;  0.0000000E+00;  0.0000000E+00;  0.0000000E+00;
 -1.8000001E-01;  9.9999998E-03;  2.7000001E-01;252;  0.0000000E+00;  0.0000000E+00;  0.0000000E+00;  1.0000000E+03;  1.0000000E-01;  0.0000000E+00;0;  0.0000000E+00;  0.0000000E+00;  0.0000000E+00;0;  0.0000000E+00;  4.0000000E+04;  0.0000000E+00;  0.0000000E+00;  4.0000000E+04;  0.0000000E+00;  4.0000000E+04;  0.0000000E+00;  0.0000000E+00;  0.0000000E+00;  0.0000000E+00;
 -1.8000001E-01;  9.9999998E-03;  2.8000000E-01;253;  0.0000000E+00;  0.0000000E+00;  0.0000000E+00;  1.0000000E+03;  1.0000000E-01;  0.0000000E+00;0;  0.0000000E+00;  0.0000000E+00;  0.0000000E+00;0;  0.0000000E+00;  4.0000000E+04;  0.0000000E+00;  0.0000000E+00;  4.0000000E+04;  0.0000000E+00;  4.0000000E+04;  0.0000000E+00;  0.0000000E+00;  0.0000000E+00;  0.0000000E+00;
 -1.8000001E-01;  9.9999998E-03;  2.8999999E-01;254;  0.0000000E+00;  0.0000000E+00;  0.0000000E+00;  1.0000000E+03;  1.0000000E-01;  0.0000000E+00;0;  0.0000000E+00;  0.0000000E+00;  0.0000000E+00;0;  0.0000000E+00;  4.0000000E+04;  0.0000000E+00;  0.0000000E+00;  4.0000000E+04;  0.0000000E+00;  4.0000000E+04;  0.0000000E+00;  0.0000000E+00;  0.0000000E+00;  0.0000000E+00;
 -1.8000001E-01;  9.9999998E-03;  3.0000001E-01;255;  0.0000000E+00;  0.0000000E+00;  0.0000000E+00;  1.0000000E+03;  1.0000000E-01;  0.0000000E+00;0;  0.0000000E+00;  0.0000000E+00;  0.0000000E+00;0;  0.0000000E+00;  4.0000000E+04;  0.0000000E+00;  0.0000000E+00;  4.0000000E+04;  0.0000000E+00;  4.0000000E+04;  0.0000000E+00;  0.0000000E+00;  0.0000000E+00;  0.0000000E+00;
 -1.8000001E-01;  9.9999998E-03;  3.1000000E-01;256;  0.0000000E+00;  0.0000000E+00;  0.0000000E+00;  1.0000000E+03;  1.0000000E-01;  0.0000000E+00;0;  0.0000000E+00;  0.0000000E+00;  0.0000000E+00;0;  0.0000000E+00;  4.0000000E+04;  0.0000000E+00;  0.0000000E+00;  4.0000000E+04;  0.0000000E+00;  4.0000000E+04;  0.0000000E+00;  0.0000000E+00;  0.0000000E+00;  0.0000000E+00;
 -1.8000001E-01;  9.9999998E-03;  3.1999999E-01;257;  0.0000000E+00;  0.0000000E+00;  0.0000000E+00;  1.0000000E+03;  1.0000000E-01;  0.0000000E+00;0;  0.0000000E+00;  0.0000000E+00;  0.0000000E+00;0;  0.0000000E+00;  4.0000000E+04;  0.0000000E+00;  0.0000000E+00;  4.0000000E+04;  0.0000000E+00;  4.0000000E+04;  0.0000000E+00;  0.0000000E+00;  0.0000000E+00;  0.0000000E+00;
 -1.8000001E-01;  9.9999998E-03;  3.3000001E-01;258;  0.0000000E+00;  0.0000000E+00;  0.0000000E+00;  1.0000000E+03;  1.0000000E-01;  0.0000000E+00;0;  0.0000000E+00;  0.0000000E+00;  0.0000000E+00;0;  0.0000000E+00;  4.0000000E+04;  0.0000000E+00;  0.0000000E+00;  4.0000000E+04;  0.0000000E+00;  4.0000000E+04;  0.0000000E+00;  0.0000000E+00;  0.0000000E+00;  0.0000000E+00;
 -1.8000001E-01;  9.9999998E-03;  3.4000000E-01;259;  0.0000000E+00;  0.0000000E+00;  0.0000000E+00;  1.0000000E+03;  1.0000000E-01;  0.0000000E+00;0;  0.0000000E+00;  0.0000000E+00;  0.0000000E+00;0;  0.0000000E+00;  4.0000000E+04;  0.0000000E+00;  0.0000000E+00;  4.0000000E+04;  0.0000000E+00;  4.0000000E+04;  0.0000000E+00;  0.0000000E+00;  0.0000000E+00;  0.0000000E+00;
 -1.8000001E-01;  9.9999998E-03;  3.4999999E-01;260;  0.0000000E+00;  0.0000000E+00;  0.0000000E+00;  1.0000000E+03;  1.0000000E-01;  0.0000000E+00;0;  0.0000000E+00;  0.0000000E+00;  0.0000000E+00;0;  0.0000000E+00;  4.0000000E+04;  0.0000000E+00;  0.0000000E+00;  4.0000000E+04;  0.0000000E+00;  4.0000000E+04;  0.0000000E+00;  0.0000000E+00;  0.0000000E+00;  0.0000000E+00;
 -1.8000001E-01;  9.9999998E-03;  3.6000001E-01;261;  0.0000000E+00;  0.0000000E+00;  0.0000000E+00;  1.0000000E+03;  1.0000000E-01;  0.0000000E+00;0;  0.0000000E+00;  0.0000000E+00;  0.0000000E+00;0;  0.0000000E+00;  4.0000000E+04;  0.0000000E+00;  0.0000000E+00;  4.0000000E+04;  0.0000000E+00;  4.0000000E+04;  0.0000000E+00;  0.0000000E+00;  0.0000000E+00;  0.0000000E+00;
 -1.8000001E-01;  9.9999998E-03;  3.7000000E-01;262;  0.0000000E+00;  0.0000000E+00;  0.0000000E+00;  1.0000000E+03;  1.0000000E-01;  0.0000000E+00;0;  0.0000000E+00;  0.0000000E+00;  0.0000000E+00;0;  0.0000000E+00;  4.0000000E+04;  0.0000000E+00;  0.0000000E+00;  4.0000000E+04;  0.0000000E+00;  4.0000000E+04;  0.0000000E+00;  0.0000000E+00;  0.0000000E+00;  0.0000000E+00;
 -1.8000001E-01;  9.9999998E-03;  3.8000000E-01;263;  0.0000000E+00;  0.0000000E+00;  0.0000000E+00;  1.0000000E+03;  1.0000000E-01;  0.0000000E+00;0;  0.0000000E+00;  0.0000000E+00;  0.0000000E+00;0;  0.0000000E+00;  4.0000000E+04;  0.0000000E+00;  0.0000000E+00;  4.0000000E+04;  0.0000000E+00;  4.0000000E+04;  0.0000000E+00;  0.0000000E+00;  0.0000000E+00;  0.0000000E+00;
 -1.8000001E-01;  9.9999998E-03;  3.8999999E-01;264;  0.0000000E+00;  0.0000000E+00;  0.0000000E+00;  1.0000000E+03;  1.0000000E-01;  0.0000000E+00;0;  0.0000000E+00;  0.0000000E+00;  0.0000000E+00;0;  0.0000000E+00;  4.0000000E+04;  0.0000000E+00;  0.0000000E+00;  4.0000000E+04;  0.0000000E+00;  4.0000000E+04;  0.0000000E+00;  0.0000000E+00;  0.0000000E+00;  0.0000000E+00;
 -1.8000001E-01;  9.9999998E-03;  4.0000001E-01;265;  0.0000000E+00;  0.0000000E+00;  0.0000000E+00;  1.0000000E+03;  1.0000000E-01;  0.0000000E+00;0;  0.0000000E+00;  0.0000000E+00;  0.0000000E+00;0;  0.0000000E+00;  4.0000000E+04;  0.0000000E+00;  0.0000000E+00;  4.0000000E+04;  0.0000000E+00;  4.0000000E+04;  0.0000000E+00;  0.0000000E+00;  0.0000000E+00;  0.0000000E+00;
 -1.7000000E-01;  9.9999998E-03;  2.3999999E-01;340;  0.0000000E+00;  0.0000000E+00;  0.0000000E+00;  1.0000000E+03;  1.0000000E-01;  0.0000000E+00;0;  0.0000000E+00;  0.0000000E+00;  0.0000000E+00;0;  1.0408243E-11;  4.0000000E+04;  0.0000000E+00;  0.0000000E+00;  4.0000000E+04;  0.0000000E+00;  4.0000000E+04;  1.0408614E-11;  0.0000000E+00; -3.7139634E-16;  3.9915374E-10;
 -1.7000000E-01;  9.9999998E-03;  2.5000000E-01;341;  0.0000000E+00;  0.0000000E+00;  0.0000000E+00;  1.0000000E+03;  1.0000000E-01;  0.0000000E+00;0;  0.0000000E+00;  0.0000000E+00;  0.0000000E+00;0;  1.2149406E-11;  4.0000000E+04;  0.0000000E+00;  0.0000000E+00;  4.0000000E+04;  0.0000000E+00;  4.0000000E+04;  1.2150749E-11;  0.0000000E+00; -1.3437159E-15;  3.2539801E-10;
 -1.7000000E-01;  9.9999998E-03;  2.5999999E-01;342;  0.0000000E+00;  0.0000000E+00;  0.0000000E+00;  1.0000000E+03;  1.0000000E-01;  0.0000000E+00;0;  0.0000000E+00;  0.0000000E+00;  0.0000000E+00;0;  6.5179598E-12;  4.0000000E+04;  0.0000000E+00;  0.0000000E+00;  4.0000000E+04;  0.0000000E+00;  4.0000000E+04;  6.5194130E-12;  0.0000000E+00; -1.4534518E-15;  4.0789283E-10;
 -1.7000000E-01;  9.9999998E-03;  2.7000001E-01;343;  0.0000000E+00;  0.0000000E+00;  0.0000000E+00;  1.0000000E+03;  1.0000000E-01;  0.0000000E+00;0;  0.0000000E+00;  0.0000000E+00;  0.0000000E+00;0;  1.8155741E-12;  4.0000000E+04;  0.0000000E+00;  0.0000000E+00;  4.0000000E+04;  0.0000000E+00;  4.0000000E+04;  1.8163001E-12;  0.0000000E+00; -7.2605795E-16;  1.3862372E-10;
 -1.7000000E-01;  9.9999998E-03;  2.8000000E-01;344;  0.0000000E+00;  0.0000000E+00;  0.0000000E+00;  1.0000000E+03;  1.0000000E-01;  0.0000000E+00;0;  0.0000000E+00;  0.0000000E+00;  0.0000000E+00;0;  1.7717844E-13;  4.0000000E+04;  0.0000000E+00;  0.0000000E+00;  4.0000000E+04;  0.0000000E+00;  4.0000000E+04;  1.7729497E-13;  0.0000000E+00; -1.1653298E-16;  5.3976467E-12;
 -1.7000000E-01;  9.9999998E-03;  2.8999999E-01;345;  0.0000000E+00;  0.0000000E+00;  0.0000000E+00;  1.0000000E+03;  1.0000000E-01;  0.0000000E+00;0;  0.0000000E+00;  0.0000000E+00;  0.0000000E+00;0;  0.0000000E+00;  4.0000000E+04;  0.0000000E+00;  0.0000000E+00;  4.0000000E+04;  0.0000000E+00;  4.0000000E+04;  0.0000000E+00;  0.0000000E+00;  0.0000000E+00;  6.8908875E-14;
 -1.7000000E-01;  9.9999998E-03;  3.0000001E-01;346;  0.0000000E+00;  0.0000000E+00;  0.0000000E+00;  1.0000000E+03;  1.0000000E-01;  0.0000000E+00;0;  0.0000000E+00;  0.0000000E+00;  0.0000000E+00;0;  0.0000000E+00;  4.0000000E+04;  0.0000000E+00;  0.0000000E+00;  4.0000000E+04;  0.0000000E+00;  4.0000000E+04;  0.0000000E+00;  0.0000000E+00;  0.0000000E+00;  0.0000000E+00;
 -1.7000000E-01;  9.9999998E-03;  3.1000000E-01;347;  0.0000000E+00;  0.0000000E+00;  0.0000000E+00;  1.0000000E+03;  1.0000000E-01;  0.0000000E+00;0;  0.0000000E+00;  0.0000000E+00;  0.0000000E+00;0;  0.0000000E+00;  4.0000000E+04;  0.0000000E+00;  0.0000000E+00;  4.0000000E+04;  0.0000000E+00;  4.0000000E+04;  0.0000000E+00;  0.0000000E+00;  0.0000000E+00;  0.0000000E+00;
 -1.7000000E-01;  9.9999998E-03;  3.1999999E-01;348;  0.0000000E+00;  0.0000000E+00;  0.0000000E+00;  1.0000000E+03;  1.0000000E-01;  0.0000000E+00;0;  0.0000000E+00;  0.0000000E+00;  0.0000000E+00;0;  0.0000000E+00;  4.0000000E+04;  0.0000000E+00;  0.0000000E+00;  4.0000000E+04;  0.0000000E+00;  4.0000000E+04;  0.0000000E+00;  0.0000000E+00;  0.0000000E+00;  0.0000000E+00;
 -1.7000000E-01;  9.9999998E-03;  3.3000001E-01;349;  0.0000000E+00;  0.0000000E+00;  0.0000000E+00;  1.0000000E+03;  1.0000000E-01;  0.0000000E+00;0;  0.0000000E+00;  0.0000000E+00;  0.0000000E+00;0;  0.0000000E+00;  4.0000000E+04;  0.0000000E+00;  0.0000000E+00;  4.0000000E+04;  0.0000000E+00;  4.0000000E+04;  0.0000000E+00;  0.0000000E+00;  0.0000000E+00;  0.0000000E+00;
 -1.7000000E-01;  9.9999998E-03;  3.4000000E-01;350;  0.0000000E+00;  0.0000000E+00;  0.0000000E+00;  1.0000000E+03;  1.0000000E-01;  0.0000000E+00;0;  0.0000000E+00;  0.0000000E+00;  0.0000000E+00;0;  0.0000000E+00;  4.0000000E+04;  0.0000000E+00;  0.0000000E+00;  4.0000000E+04;  0.0000000E+00;  4.0000000E+04;  0.0000000E+00;  0.0000000E+00;  0.0000000E+00;  0.0000000E+00;
 -1.7000000E-01;  9.9999998E-03;  3.4999999E-01;351;  0.0000000E+00;  0.0000000E+00;  0.0000000E+00;  1.0000000E+03;  1.0000000E-01;  0.0000000E+00;0;  0.0000000E+00;  0.0000000E+00;  0.0000000E+00;0;  0.0000000E+00;  4.0000000E+04;  0.0000000E+00;  0.0000000E+00;  4.0000000E+04;  0.0000000E+00;  4.0000000E+04;  0.0000000E+00;  0.0000000E+00;  0.0000000E+00;  0.0000000E+00;
 -1.7000000E-01;  9.9999998E-03;  3.6000001E-01;352;  0.0000000E+00;  0.0000000E+00;  0.0000000E+00;  1.0000000E+03;  1.0000000E-01;  0.0000000E+00;0;  0.0000000E+00;  0.0000000E+00;  0.0000000E+00;0;  0.0000000E+00;  4.0000000E+04;  0.0000000E+00;  0.0000000E+00;  4.0000000E+04;  0.0000000E+00;  4.0000000E+04;  0.0000000E+00;  0.0000000E+00;  0.0000000E+00;  0.0000000E+00;
 -1.7000000E-01;  9.9999998E-03;  3.7000000E-01;353;  0.0000000E+00;  0.0000000E+00;  0.0000000E+00;  1.0000000E+03;  1.0000000E-01;  0.0000000E+00;0;  0.0000000E+00;  0.0000000E+00;  0.0000000E+00;0;  0.0000000E+00;  4.0000000E+04;  0.0000000E+00;  0.0000000E+00;  4.0000000E+04;  0.0000000E+00;  4.0000000E+04;  0.0000000E+00;  0.0000000E+00;  0.0000000E+00;  0.0000000E+00;
 -1.7000000E-01;  9.9999998E-03;  3.8000000E-01;354;  0.0000000E+00;  0.0000000E+00;  0.0000000E+00;  1.0000000E+03;  1.0000000E-01;  0.0000000E+00;0;  0.0000000E+00;  0.0000000E+00;  0.0000000E+00;0;  0.0000000E+00;  4.0000000E+04;  0.0000000E+00;  0.0000000E+00;  4.0000000E+04;  0.0000000E+00;  4.0000000E+04;  0.0000000E+00;  0.0000000E+00;  0.0000000E+00;  0.0000000E+00;
 -1.7000000E-01;  9.9999998E-03;  3.8999999E-01;355;  0.0000000E+00;  0.0000000E+00;  0.0000000E+00;  1.0000000E+03;  1.0000000E-01;  0.0000000E+00;0;  0.0000000E+00;  0.0000000E+00;  0.0000000E+00;0;  0.0000000E+00;  4.0000000E+04;  0.0000000E+00;  0.0000000E+00;  4.0000000E+04;  0.0000000E+00;  4.0000000E+04;  0.0000000E+00;  0.0000000E+00;  0.0000000E+00;  0.0000000E+00;
 -1.7000000E-01;  9.9999998E-03;  4.0000001E-01;356;  0.0000000E+00;  0.0000000E+00;  0.0000000E+00;  1.0000000E+03;  1.0000000E-01;  0.0000000E+00;0;  0.0000000E+00;  0.0000000E+00;  0.0000000E+00;0;  0.0000000E+00;  4.0000000E+04;  0.0000000E+00;  0.0000000E+00;  4.0000000E+04;  0.0000000E+00;  4.0000000E+04;  0.0000000E+00;  0.0000000E+00;  0.0000000E+00;  0.0000000E+00;
 -1.6000000E-01;  9.9999998E-03;  2.3999999E-01;431;  0.0000000E+00;  0.0000000E+00;  0.0000000E+00;  1.0000000E+03;  1.0000000E-01;  0.0000000E+00;0;  0.0000000E+00;  0.0000000E+00;  0.0000000E+00;0;  1.0403609E-04;  4.0000000E+04;  0.0000000E+00;  0.0000000E+00;  4.0000000E+04;  0.0000000E+00;  4.0000000E+04;  1.0275587E-04;  0.0000000E+00;  1.2802257E-06;  1.1556163E-01;
 -1.6000000E-01;  9.9999998E-03;  2.5000000E-01;432;  0.0000000E+00;  0.0000000E+00;  0.0000000E+00;  1.0000000E+03;  1.0000000E-01;  0.0000000E+00;0;  0.0000000E+00;  0.0000000E+00;  0.0000000E+00;0;  7.4336851E-05;  4.0000000E+04;  0.0000000E+00;  0.0000000E+00;  4.0000000E+04;  0.0000000E+00;  4.0000000E+04;  7.3172436E-05;  0.0000000E+00;  1.1644179E-06;  1.1389603E-01;
 -1.6000000E-01;  9.9999998E-03;  2.5999999E-01;433;  0.0000000E+00;  0.0000000E+00;  0.0000000E+00;  1.0000000E+03;  1.0000000E-01;  0.0000000E+00;0;  0.0000000E+00;  0.0000000E+00;  0.0000000E+00;0;  5.0766270E-05;  4.0000000E+04;  0.0000000E+00;  0.0000000E+00;  4.0000000E+04;  0.0000000E+00;  4.0000000E+04;  4.9756574E-05;  0.0000000E+00;  1.0096938E-06;  9.8754659E-02;
 -1.6000000E-01;  9.9999998E-03;  2.7000001E-01;434;  0.0000000E+00;  0.0000000E+00;  0.0000000E+00;  1.0000000E+03;  1.0000000E-01;  0.0000000E+00;0;  0.0000000E+00;  0.0000000E+00;  0.0000000E+00;0;  3.3259468E-05;  4.0000000E+04;  0.0000000E+00;  0.0000000E+00;  4.0000000E+04;  0.0000000E+00;  4.0000000E+04;  3.2341508E-05;  0.0000000E+00;  9.1795926E-07;  6.6657677E-02;
 -1.6000000E-01;  9.9999998E-03;  2.8000000E-01;435;  0.0000000E+00;  0.0000000E+00;  0.0000000E+00;  1.0000000E+03;  1.0000000E-01;  0.0000000E+00;0;  0.0000000E+00;  0.0000000E+00;  0.0000000E+00;0;  2.0951804E-05;  4.0000000E+04;  0.0000000E+00;  0.0000000E+00;  4.0000000E+04;  0.0000000E+00;  4.0000000E+04;  2.0063620E-05;  0.0000000E+00;  8.8818274E-07;  2.4735425E-02;
 -1.6000000E-01;  9.9999998E-03;  2.8999999E-01;436;  0.0000000E+00;  0.0000000E+00;  0.0000000E+00;  1.0000000E+03;  1.0000000E-01;  0.0000000E+00;0;  0.0000000E+00;  0.0000000E+00;  0.0000000E+00;0;  1.2632197E-05;  4.0000000E+04;  0.0000000E+00;  0.0000000E+00;  4.0000000E+04;  0.0000000E+00;  4.0000000E+04;  1.1781985E-05;  0.0000000E+00;  8.5021236E-07;  1.3075919E-02;
 -1.6000000E-01;  9.9999998E-03;  3.0000001E-01;437;  0.0000000E+00;  0.0000000E+00;  0.0000000E+00;  1.0000000E+03;  1.0000000E-01;  0.0000000E+00;0;  0.0000000E+00;  0.0000000E+00;  0.0000000E+00;0;  7.1404152E-06;  4.0000000E+04;  0.0000000E+00;  0.0000000E+00;  4.0000000E+04;  0.0000000E+00;  4.0000000E+04;  6.4057690E-06;  0.0000000E+00;  7.3464633E-07;  3.4363579E-02;
 -1.6000000E-01;  9.9999998E-03;  3.1000000E-01;438;  0.0000000E+00;  0.0000000E+00;  0.0000000E+00;  1.0000000E+03;  1.0000000E-01;  0.0000000E+00;0;  0.0000000E+00;  0.0000000E+00;  0.0000000E+00;0;  3.6048784E-06;  4.0000000E+04;  0.0000000E+00;  0.0000000E+00;  4.0000000E+04;  0.0000000E+00;  4.0000000E+04;  3.0760148E-06;  0.0000000E+00;  5.2886372E-07;  3.5500322E-02;
 -1.6000000E-01;  9.9999998E-03;  3.1999999E-01;439;  0.0000000E+00;  0.0000000E+00;  0.0000000E+00;  1.0000000E+03;  1.0000000E-01;  0.0000000E+00;0;  0.0000000E+00;  0.0000000E+00;  0.0000000E+00;0;  1.4782934E-06;  4.0000000E+04;  0.0000000E+00;  0.0000000E+00;  4.0000000E+04;  0.0000000E+00;  4.0000000E+04;  1.1896682E-06;  0.0000000E+00;  2.8862524E-07;  2.2957047E-02;
 -1.6000000E-01;  9.9999998E-03;  3.3000001E-01;440;  0.0000000E+00;  0.0000000E+00;  0.0000000E+00;  1.0000000E+03;  1.0000000E-01;  0.0000000E+00;0;  0.0000000E+00;  0.0000000E+00;  0.0000000E+00;0;  4.0327072E-07;  4.0000000E+04;  0.0000000E+00;  0.0000000E+00;  4.0000000E+04;  0.0000000E+00;  4.0000000E+04;  3.0416442E-07;  0.0000000E+00;  9.9106295E-08;  8.4980717E-03;
 -1.6000000E-01;  9.9999998E-03;  3.4000000E-01;441;  0.0000000E+00;  0.0000000E+00;  0.0000000E+00;  1.0000000E+03;  1.0000000E-01;  0.0000000E+00;0;  0.0000000E+00;  0.0000000E+00;  0.0000000E+00;0;  3.8907622E-08;  4.0000000E+04;  0.0000000E+00;  0.0000000E+00;  4.0000000E+04;  0.0000000E+00;  4.0000000E+04;  2.7421509E-08;  0.0000000E+00;  1.1486114E-08;  9.2997140E-04;
 -1.6000000E-01;  9.9999998E-03;  3.4999999E-01;442;  0.0000000E+00;  0.0000000E+00;  0.0000000E+00;  1.0000000E+03;  1.0000000E-01;  0.0000000E+00;0;  0.0000000E+00;  0.0000000E+00;  0.0000000E+00;0;  0.0000000E+00;  4.0000000E+04;  0.0000000E+00;  0.0000000E+00;  4.0000000E+04;  0.0000000E+00;  4.0000000E+04;  0.0000000E+00;  0.0000000E+00;  0.0000000E+00;  0.0000000E+00;
 -1.6000000E-01;  9.9999998E-03;  3.6000001E-01;443;  0.0000000E+00;  0.0000000E+00;  0.0000000E+00;  1.0000000E+03;  1.0000000E-01;  0.0000000E+00;0;  0.0000000E+00;  0.0000000E+00;  0.0000000E+00;0;  0.0000000E+00;  4.0000000E+04;  0.0000000E+00;  0.0000000E+00;  4.0000000E+04;  0.0000000E+00;  4.0000000E+04;  0.0000000E+00;  0.0000000E+00;  0.0000000E+00;  0.0000000E+00;
 -1.6000000E-01;  9.9999998E-03;  3.7000000E-01;444;  0.0000000E+00;  0.0000000E+00;  0.0000000E+00;  1.0000000E+03;  1.0000000E-01;  0.0000000E+00;0;  0.0000000E+00;  0.0000000E+00;  0.0000000E+00;0;  0.0000000E+00;  4.0000000E+04;  0.0000000E+00;  0.0000000E+00;  4.0000000E+04;  0.0000000E+00;  4.0000000E+04;  0.0000000E+00;  0.0000000E+00;  0.0000000E+00;  0.0000000E+00;
 -1.6000000E-01;  9.9999998E-03;  3.8000000E-01;445;  0.0000000E+00;  0.0000000E+00;  0.0000000E+00;  1.0000000E+03;  1.0000000E-01;  0.0000000E+00;0;  0.0000000E+00;  0.0000000E+00;  0.0000000E+00;0;  0.0000000E+00;  4.0000000E+04;  0.0000000E+00;  0.0000000E+00;  4.0000000E+04;  0.0000000E+00;  4.0000000E+04;  0.0000000E+00;  0.0000000E+00;  0.0000000E+00;  0.0000000E+00;
 -1.6000000E-01;  9.9999998E-03;  3.8999999E-01;446;  0.0000000E+00;  0.0000000E+00;  0.0000000E+00;  1.0000000E+03;  1.0000000E-01;  0.0000000E+00;0;  0.0000000E+00;  0.0000000E+00;  0.0000000E+00;0;  0.0000000E+00;  4.0000000E+04;  0.0000000E+00;  0.0000000E+00;  4.0000000E+04;  0.0000000E+00;  4.0000000E+04;  0.0000000E+00;  0.0000000E+00;  0.0000000E+00;  0.0000000E+00;
 -1.6000000E-01;  9.9999998E-03;  4.0000001E-01;447;  0.0000000E+00;  0.0000000E+00;  0.0000000E+00;  1.0000000E+03;  1.0000000E-01;  0.0000000E+00;0;  0.0000000E+00;  0.0000000E+00;  0.0000000E+00;0;  0.0000000E+00;  4.0000000E+04;  0.0000000E+00;  0.0000000E+00;  4.0000000E+04;  0.0000000E+00;  4.0000000E+04;  0.0000000E+00;  0.0000000E+00;  0.0000000E+00;  0.0000000E+00;
 -1.5000001E-01;  9.9999998E-03;  2.3999999E-01;522;  0.0000000E+00;  0.0000000E+00;  0.0000000E+00;  1.0000000E+03;  1.0000000E-01;  0.0000000E+00;0;  0.0000000E+00;  0.0000000E+00;  0.0000000E+00;0;  1.2238122E-03;  4.0000000E+04;  0.0000000E+00;  0.0000000E+00;  4.0000000E+04;  0.0000000E+00;  4.0000000E+04;  1.2010088E-03;  0.0000000E+00;  2.2803377E-05;  1.7174019E+00;
 -1.5000001E-01;  9.9999998E-03;  2.5000000E-01;523;  0.0000000E+00;  0.0000000E+00;  0.0000000E+00;  1.0000000E+03;  1.0000000E-01;  0.0000000E+00;0;  0.0000000E+00;  0.0000000E+00;  0.0000000E+00;0;  9.1854250E-04;  4.0000000E+04;  0.0000000E+00;  0.0000000E+00;  4.0000000E+04;  0.0000000E+00;  4.0000000E+04;  8.9577655E-04;  0.0000000E+00;  2.2765960E-05;  1.5483123E+00;
 -1.5000001E-01;  9.9999998E-03;  2.5999999E-01;524;  0.0000000E+00;  0.0000000E+00;  0.0000000E+00;  1.0000000E+03;  1.0000000E-01;  0.0000000E+00;0;  0.0000000E+00;  0.0000000E+00;  0.0000000E+00;0;  6.6346850E-04;  4.0000000E+04;  0.0000000E+00;  0.0000000E+00;  4.0000000E+04;  0.0000000E+00;  4.0000000E+04;  6.4196129E-04;  0.0000000E+00;  2.1507227E-05;  1.2130320E+00;
 -1.5000001E-01;  9.9999998E-03;  2.7000001E-01;525;  0.0000000E+00;  0.0000000E+00;  0.0000000E+00;  1.0000000E+03;  1.0000000E-01;  0.0000000E+00;0;  0.0000000E+00;  0.0000000E+00;  0.0000000E+00;0;  4.6159752E-04;  4.0000000E+04;  0.0000000E+00;  0.0000000E+00;  4.0000000E+04;  0.0000000E+00;  4.0000000E+04;  4.4183576E-04;  0.0000000E+00;  1.9761765E-05;  7.6218534E-01;
 -1.5000001E-01;  9.9999998E-03;  2.8000000E-01;526;  0.0000000E+00;  0.0000000E+00;  0.0000000E+00;  1.0000000E+03;  1.0000000E-01;  0.0000000E+00;0;  0.0000000E+00;  0.0000000E+00;  0.0000000E+00;0;  3.0956368E-04;  4.0000000E+04;  0.0000000E+00;  0.0000000E+00;  4.0000000E+04;  0.0000000E+00;  4.0000000E+04;  2.9165554E-04;  0.0000000E+00;  1.7908147E-05;  2.7729344E-01;
 -1.5000001E-01;  9.9999998E-03;  2.8999999E-01;527;  0.0000000E+00;  0.0000000E+00;  0.0000000E+00;  1.0000000E+03;  1.0000000E-01;  0.0000000E+00;0;  0.0000000E+00;  0.0000000E+00;  0.0000000E+00;0;  1.9997488E-04;  4.0000000E+04;  0.0000000E+00;  0.0000000E+00;  4.0000000E+04;  0.0000000E+00;  4.0000000E+04;  1.8406342E-04;  0.0000000E+00;  1.5911452E-05;  1.4791436E-01;
 -1.5000001E-01;  9.9999998E-03;  3.0000001E-01;528;  0.0000000E+00;  0.0000000E+00;  0.0000000E+00;  1.0000000E+03;  1.0000000E-01;  0.0000000E+00;0;  0.0000000E+00;  0.0000000E+00;  0.0000000E+00;0;  1.2386491E-04;  4.0000000E+04;  0.0000000E+00;  0.0000000E+00;  4.0000000E+04;  0.0000000E+00;  4.0000000E+04;  1.1031450E-04;  0.0000000E+00;  1.3550421E-05;  4.3399554E-01;
 -1.5000001E-01;  9.9999998E-03;  3.1000000E-01;529;  0.0000000E+00;  0.0000000E+00;  0.0000000E+00;  1.0000000E+03;  1.0000000E-01;  0.0000000E+00;0;  0.0000000E+00;  0.0000000E+00;  0.0000000E+00;0;  7.2684154E-05;  4.0000000E+04;  0.0000000E+00;  0.0000000E+00;  4.0000000E+04;  0.0000000E+00;  4.0000000E+04;  6.1963423E-05;  0.0000000E+00;  1.0720727E-05;  5.4544824E-01;
 -1.5000001E-01;  9.9999998E-03;  3.1999999E-01;530;  0.0000000E+00;  0.0000000E+00;  0.0000000E+00;  1.0000000E+03;  1.0000000E-01;  0.0000000E+00;0;  0.0000000E+00;  0.0000000E+00;  0.0000000E+00;0;  3.9431205E-05;  4.0000000E+04;  0.0000000E+00;  0.0000000E+00;  4.0000000E+04;  0.0000000E+00;  4.0000000E+04;  3.1834908E-05;  0.0000000E+00;  7.5962976E-06;  4.9910235E-01;
 -1.5000001E-01;  9.9999998E-03;  3.3000001E-01;531;  0.0000000E+00;  0.0000000E+00;  0.0000000E+00;  1.0000000E+03;  1.0000000E-01;  0.0000000E+00;0;  0.0000000E+00;  0.0000000E+00;  0.0000000E+00;0;  1.8917961E-05;  4.0000000E+04;  0.0000000E+00;  0.0000000E+00;  4.0000000E+04;  0.0000000E+00;  4.0000000E+04;  1.4324381E-05;  0.0000000E+00;  4.5935794E-06;  3.5505578E-01;
 -1.5000001E-01;  9.9999998E-03;  3.4000000E-01;532;  0.0000000E+00;  0.0000000E+00;  0.0000000E+00;  1.0000000E+03;  1.0000000E-01;  0.0000000E+00;0;  0.0000000E+00;  0.0000000E+00;  0.0000000E+00;0;  7.4180634E-06;  4.0000000E+04;  0.0000000E+00;  0.0000000E+00;  4.0000000E+04;  0.0000000E+00;  4.0000000E+04;  5.2222822E-06;  0.0000000E+00;  2.1957810E-06;  1.9060788E-01;
 -1.5000001E-01;  9.9999998E-03;  3.4999999E-01;533;  0.0000000E+00;  0.0000000E+00;  0.0000000E+00;  1.0000000E+03;  1.0000000E-01;  0.0000000E+00;0;  0.0000000E+00;  0.0000000E+00;  0.0000000E+00;0;  2.0417492E-06;  4.0000000E+04;  0.0000000E+00;  0.0000000E+00;  4.0000000E+04;  0.0000000E+00;  4.0000000E+04;  1.3264746E-06;  0.0000000E+00;  7.1527467E-07;  6.8205431E-02;
 -1.5000001E-01;  9.9999998E-03;  3.6000001E-01;534;  0.0000000E+00;  0.0000000E+00;  0.0000000E+00;  1.0000000E+03;  1.0000000E-01;  0.0000000E+00;0;  0.0000000E+00;  0.0000000E+00;  0.0000000E+00;0;  2.6759776E-07;  4.0000000E+04;  0.0000000E+00;  0.0000000E+00;  4.0000000E+04;  0.0000000E+00;  4.0000000E+04;  1.6002484E-07;  0.0000000E+00;  1.0757292E-07;  1.0858541E-02;
 -1.5000001E-01;  9.9999998E-03;  3.7000000E-01;535;  0.0000000E+00;  0.0000000E+00;  0.0000000E+00;  1.0000000E+03;  1.0000000E-01;  0.0000000E+00;0;  0.0000000E+00;  0.0000000E+00;  0.0000000E+00;0;  4.1651653E-14;  4.0000000E+04;  0.0000000E+00;  0.0000000E+00;  4.0000000E+04;  0.0000000E+00;  4.0000000E+04;  2.3059505E-14;  0.0000000E+00;  1.8592150E-14;  2.9818290E-09;
 -1.5000001E-01;  9.9999998E-03;  3.8000000E-01;536;  0.0000000E+00;  0.0000000E+00;  0.0000000E+00;  1.0000000E+03;  1.0000000E-01;  0.0000000E+00;0;  0.0000000E+00;  0.0000000E+00;  0.0000000E+00;0;  0.0000000E+00;  4.0000000E+04;  0.0000000E+00;  0.0000000E+00;  4.0000000E+04;  0.0000000E+00;  4.0000000E+04;  0.0000000E+00;  0.0000000E+00;  0.0000000E+00;  0.0000000E+00;
 -1.5000001E-01;  9.9999998E-03;  3.8999999E-01;537;  0.0000000E+00;  0.0000000E+00;  0.0000000E+00;  1.0000000E+03;  1.0000000E-01;  0.0000000E+00;0;  0.0000000E+00;  0.0000000E+00;  0.0000000E+00;0;  0.0000000E+00;  4.0000000E+04;  0.0000000E+00;  0.0000000E+00;  4.0000000E+04;  0.0000000E+00;  4.0000000E+04;  0.0000000E+00;  0.0000000E+00;  0.0000000E+00;  0.0000000E+00;
 -1.5000001E-01;  9.9999998E-03;  4.0000001E-01;538;  0.0000000E+00;  0.0000000E+00;  0.0000000E+00;  1.0000000E+03;  1.0000000E-01;  0.0000000E+00;0;  0.0000000E+00;  0.0000000E+00;  0.0000000E+00;0;  0.0000000E+00;  4.0000000E+04;  0.0000000E+00;  0.0000000E+00;  4.0000000E+04;  0.0000000E+00;  4.0000000E+04;  0.0000000E+00;  0.0000000E+00;  0.0000000E+00;  0.0000000E+00;
 -1.4000000E-01;  9.9999998E-03;  2.3999999E-01;613;  0.0000000E+00;  0.0000000E+00;  0.0000000E+00;  1.0000106E+03;  1.0000000E-01;  8.7898750E+00;0;  0.0000000E+00;  0.0000000E+00;  0.0000000E+00;0;  5.4475600E-03;  4.0000000E+04;  0.0000000E+00;  0.0000000E+00;  4.0000000E+04;  0.0000000E+00;  4.0000000E+04;  5.3272475E-03;  0.0000000E+00;  1.2031259E-04;  8.4739962E+00;
 -1.4000000E-01;  9.9999998E-03;  2.5000000E-01;614;  0.0000000E+00;  0.0000000E+00;  0.0000000E+00;  1.0000130E+03;  1.0000000E-01;  1.0765127E+01;0;  0.0000000E+00;  0.0000000E+00;  0.0000000E+00;0;  4.2434530E-03;  4.0000000E+04;  0.0000000E+00;  0.0000000E+00;  4.0000000E+04;  0.0000000E+00;  4.0000000E+04;  4.1167396E-03;  0.0000000E+00;  1.2671328E-04;  7.5555859E+00;
 -1.4000000E-01;  9.9999998E-03;  2.5999999E-01;615;  0.0000000E+00;  0.0000000E+00;  0.0000000E+00;  1.0000137E+03;  1.0000000E-01;  1.1357703E+01;0;  0.0000000E+00;  0.0000000E+00;  0.0000000E+00;0;  3.1988944E-03;  4.0000000E+04;  0.0000000E+00;  0.0000000E+00;  4.0000000E+04;  0.0000000E+00;  4.0000000E+04;  3.0729941E-03;  0.0000000E+00;  1.2590033E-04;  5.9606514E+00;
 -1.4000000E-01;  9.9999998E-03;  2.7000001E-01;616;  0.0000000E+00;  0.0000000E+00;  0.0000000E+00;  1.0000142E+03;  1.0000000E-01;  1.1752754E+01;0;  0.0000000E+00;  0.0000000E+00;  0.0000000E+00;0;  2.3338571E-03;  4.0000000E+04;  0.0000000E+00;  0.0000000E+00;  4.0000000E+04;  0.0000000E+00;  4.0000000E+04;  2.2137230E-03;  0.0000000E+00;  1.2013402E-04;  3.9226527E+00;
 -1.4000000E-01;  9.9999998E-03;  2.8000000E-01;617;  0.0000000E+00;  0.0000000E+00;  0.0000000E+00;  1.0000143E+03;  1.0000000E-01;  1.1851517E+01;0;  0.0000000E+00;  0.0000000E+00;  0.0000000E+00;0;  1.6481178E-03;  4.0000000E+04;  0.0000000E+00;  0.0000000E+00;  4.0000000E+04;  0.0000000E+00;  4.0000000E+04;  1.5369268E-03;  0.0000000E+00;  1.1119097E-04;  1.7595171E+00;
 -1.4000000E-01;  9.9999998E-03;  2.8999999E-01;618;  0.0000000E+00;  0.0000000E+00;  0.0000000E+00;  1.0000122E+03;  1.0000000E-01;  1.0073790E+01;0;  0.0000000E+00;  0.0000000E+00;  0.0000000E+00;0;  1.1259204E-03;  4.0000000E+04;  0.0000000E+00;  0.0000000E+00;  4.0000000E+04;  0.0000000E+00;  4.0000000E+04;  1.0260023E-03;  0.0000000E+00;  9.9918143E-05;  1.9859727E-01;
 -1.4000000E-01;  9.9999998E-03;  3.0000001E-01;619;  0.0000000E+00;  0.0000000E+00;  0.0000000E+00;  1.0000073E+03;  1.0000000E-01;  6.0245209E+00;0;  0.0000000E+00;  0.0000000E+00;  0.0000000E+00;0;  7.4247608E-04;  4.0000000E+04;  0.0000000E+00;  0.0000000E+00;  4.0000000E+04;  0.0000000E+00;  4.0000000E+04;  6.5596716E-04;  0.0000000E+00;  8.6508931E-05;  1.6556911E+00;
 -1.4000000E-01;  9.9999998E-03;  3.1000000E-01;620;  0.0000000E+00;  0.0000000E+00;  0.0000000E+00;  1.0000000E+03;  1.0000000E-01;  0.0000000E+00;0;  0.0000000E+00;  0.0000000E+00;  0.0000000E+00;0;  4.7017654E-04;  4.0000000E+04;  0.0000000E+00;  0.0000000E+00;  4.0000000E+04;  0.0000000E+00;  4.0000000E+04;  3.9898520E-04;  0.0000000E+00;  7.1191353E-05;  2.4700072E+00;
 -1.4000000E-01;  9.9999998E-03;  3.1999999E-01;621;  0.0000000E+00;  0.0000000E+00;  0.0000000E+00;  1.0000000E+03;  1.0000000E-01;  0.0000000E+00;0;  0.0000000E+00;  0.0000000E+00;  0.0000000E+00;0;  2.8306613E-04;  4.0000000E+04;  0.0000000E+00;  0.0000000E+00;  4.0000000E+04;  0.0000000E+00;  4.0000000E+04;  2.2835555E-04;  0.0000000E+00;  5.4710570E-05;  2.6361988E+00;
 -1.4000000E-01;  9.9999998E-03;  3.3000001E-01;622;  0.0000000E+00;  0.0000000E+00;  0.0000000E+00;  1.0000000E+03;  1.0000000E-01;  0.0000000E+00;0;  0.0000000E+00;  0.0000000E+00;  0.0000000E+00;0;  1.5919399E-04;  4.0000000E+04;  0.0000000E+00;  0.0000000E+00;  4.0000000E+04;  0.0000000E+00;  4.0000000E+04;  1.2080333E-04;  0.0000000E+00;  3.8390663E-05;  2.2916241E+00;
 -1.4000000E-01;  9.9999998E-03;  3.4000000E-01;623;  0.0000000E+00;  0.0000000E+00;  0.0000000E+00;  1.0000000E+03;  1.0000000E-01;  0.0000000E+00;0;  0.0000000E+00;  0.0000000E+00;  0.0000000E+00;0;  8.1184924E-05;  4.0000000E+04;  0.0000000E+00;  0.0000000E+00;  4.0000000E+04;  0.0000000E+00;  4.0000000E+04;  5.7350953E-05;  0.0000000E+00;  2.3833973E-05;  1.6596162E+00;
 -1.4000000E-01;  9.9999998E-03;  3.4999999E-01;624;  0.0000000E+00;  0.0000000E+00;  0.0000000E+00;  1.0000000E+03;  1.0000000E-01;  0.0000000E+00;0;  0.0000000E+00;  0.0000000E+00;  0.0000000E+00;0;  3.5658548E-05;  4.0000000E+04;  0.0000000E+00;  0.0000000E+00;  4.0000000E+04;  0.0000000E+00;  4.0000000E+04;  2.3217255E-05;  0.0000000E+00;  1.2441294E-05;  9.7933942E-01;
 -1.4000000E-01;  9.9999998E-03;  3.6000001E-01;625;  0.0000000E+00;  0.0000000E+00;  0.0000000E+00;  1.0000000E+03;  1.0000000E-01;  0.0000000E+00;0;  0.0000000E+00;  0.0000000E+00;  0.0000000E+00;0;  1.2205244E-05;  4.0000000E+04;  0.0000000E+00;  0.0000000E+00;  4.0000000E+04;  0.0000000E+00;  4.0000000E+04;  7.2546036E-06;  0.0000000E+00;  4.9506411E-06;  4.3618569E-01;
 -1.4000000E-01;  9.9999998E-03;  3.7000000E-01;626;  0.0000000E+00;  0.0000000E+00;  0.0000000E+00;  1.0000000E+03;  1.0000000E-01;  0.0000000E+00;0;  0.0000000E+00;  0.0000000E+00;  0.0000000E+00;0;  2.5548911E-06;  4.0000000E+04;  0.0000000E+00;  0.0000000E+00;  4.0000000E+04;  0.0000000E+00;  4.0000000E+04;  1.3735831E-06;  0.0000000E+00;  1.1813081E-06;  1.1812267E-01;
 -1.4000000E-01;  9.9999998E-03;  3.8000000E-01;627;  0.0000000E+00;  0.0000000E+00;  0.0000000E+00;  1.0000000E+03;  1.0000000E-01;  0.0000000E+00;0;  0.0000000E+00;  0.0000000E+00;  0.0000000E+00;0;  1.4814798E-07;  4.0000000E+04;  0.0000000E+00;  0.0000000E+00;  4.0000000E+04;  0.0000000E+00;  4.0000000E+04;  7.1899414E-08;  0.0000000E+00;  7.6248561E-08;  8.5166087E-03;
 -1.4000000E-01;  9.9999998E-03;  3.8999999E-01;628;  0.0000000E+00;  0.0000000E+00;  0.0000000E+00;  1.0000000E+03;  1.0000000E-01;  0.0000000E+00;0;  0.0000000E+00;  0.0000000E+00;  0.0000000E+00;0;  0.0000000E+00;  4.0000000E+04;  0.0000000E+00;  0.0000000E+00;  4.0000000E+04;  0.0000000E+00;  4.0000000E+04;  0.0000000E+00;  0.0000000E+00;  0.0000000E+00;  0.0000000E+00;
 -1.4000000E-01;  9.9999998E-03;  4.0000001E-01;629;  0.0000000E+00;  0.0000000E+00;  0.0000000E+00;  1.0000000E+03;  1.0000000E-01;  0.0000000E+00;0;  0.0000000E+00;  0.0000000E+00;  0.0000000E+00;0;  0.0000000E+00;  4.0000000E+04;  0.0000000E+00;  0.0000000E+00;  4.0000000E+04;  0.0000000E+00;  4.0000000E+04;  0.0000000E+00;  0.0000000E+00;  0.0000000E+00;  0.0000000E+00;
 -1.3000000E-01;  9.9999998E-03;  2.3999999E-01;704;  0.0000000E+00;  0.0000000E+00;  0.0000000E+00;  1.0000386E+03;  1.0000000E-01;  3.1999096E+01;0;  0.0000000E+00;  0.0000000E+00;  0.0000000E+00;0;  1.5581889E-02;  4.0000000E+04;  0.0000000E+00;  0.0000000E+00;  4.0000000E+04;  0.0000000E+00;  4.0000000E+04;  1.5199371E-02;  0.0000000E+00;  3.8251822E-04;  2.6722668E+01;
 -1.3000000E-01;  9.9999998E-03;  2.5000000E-01;705;  0.0000000E+00;  0.0000000E+00;  0.0000000E+00;  1.0000428E+03;  1.0000000E-01;  3.5455788E+01;0;  0.0000000E+00;  0.0000000E+00;  0.0000000E+00;0;  1.2471325E-02;  4.0000000E+04;  0.0000000E+00;  0.0000000E+00;  4.0000000E+04;  0.0000000E+00;  4.0000000E+04;  1.2052019E-02;  0.0000000E+00;  4.1930523E-04;  2.3995270E+01;
 -1.3000000E-01;  9.9999998E-03;  2.5999999E-01;706;  0.0000000E+00;  0.0000000E+00;  0.0000000E+00;  1.0000424E+03;  1.0000000E-01;  3.5159500E+01;0;  0.0000000E+00;  0.0000000E+00;  0.0000000E+00;0;  9.7001586E-03;  4.0000000E+04;  0.0000000E+00;  0.0000000E+00;  4.0000000E+04;  0.0000000E+00;  4.0000000E+04;  9.2664873E-03;  0.0000000E+00;  4.3367123E-04;  1.9369629E+01;
 -1.3000000E-01;  9.9999998E-03;  2.7000001E-01;707;  0.0000000E+00;  0.0000000E+00;  0.0000000E+00;  1.0000443E+03;  1.0000000E-01;  3.6739700E+01;0;  0.0000000E+00;  0.0000000E+00;  0.0000000E+00;0;  7.3292921E-03;  4.0000000E+04;  0.0000000E+00;  0.0000000E+00;  4.0000000E+04;  0.0000000E+00;  4.0000000E+04;  6.9003194E-03;  0.0000000E+00;  4.2897277E-04;  1.3488358E+01;
 -1.3000000E-01;  9.9999998E-03;  2.8000000E-01;708;  0.0000000E+00;  0.0000000E+00;  0.0000000E+00;  1.0000364E+03;  1.0000000E-01;  3.0122604E+01;0;  0.0000000E+00;  0.0000000E+00;  0.0000000E+00;0;  5.3787013E-03;  4.0000000E+04;  0.0000000E+00;  0.0000000E+00;  4.0000000E+04;  0.0000000E+00;  4.0000000E+04;  4.9698786E-03;  0.0000000E+00;  4.0882255E-04;  7.1807280E+00;
 -1.3000000E-01;  9.9999998E-03;  2.8999999E-01;709;  0.0000000E+00;  0.0000000E+00;  0.0000000E+00;  1.0000353E+03;  1.0000000E-01;  2.9233742E+01;0;  0.0000000E+00;  0.0000000E+00;  0.0000000E+00;0;  3.8319607E-03;  4.0000000E+04;  0.0000000E+00;  0.0000000E+00;  4.0000000E+04;  0.0000000E+00;  4.0000000E+04;  3.4557928E-03;  0.0000000E+00;  3.7616794E-04;  1.3128006E+00;
 -1.3000000E-01;  9.9999998E-03;  3.0000001E-01;710;  0.0000000E+00;  0.0000000E+00;  0.0000000E+00;  1.0000297E+03;  1.0000000E-01;  2.4591898E+01;0;  0.0000000E+00;  0.0000000E+00;  0.0000000E+00;0;  2.6465622E-03;  4.0000000E+04;  0.0000000E+00;  0.0000000E+00;  4.0000000E+04;  0.0000000E+00;  4.0000000E+04;  2.3133093E-03;  0.0000000E+00;  3.3325280E-04;  3.4107251E+00;
 -1.3000000E-01;  9.9999998E-03;  3.1000000E-01;711;  0.0000000E+00;  0.0000000E+00;  0.0000000E+00;  1.0000180E+03;  1.0000000E-01;  1.4913158E+01;0;  0.0000000E+00;  0.0000000E+00;  0.0000000E+00;0;  1.7666550E-03;  4.0000000E+04;  0.0000000E+00;  0.0000000E+00;  4.0000000E+04;  0.0000000E+00;  4.0000000E+04;  1.4841686E-03;  0.0000000E+00;  2.8248644E-04;  6.4989238E+00;
 -1.3000000E-01;  9.9999998E-03;  3.1999999E-01;712;  0.0000000E+00;  0.0000000E+00;  0.0000000E+00;  1.0000150E+03;  1.0000000E-01;  1.2444093E+01;0;  0.0000000E+00;  0.0000000E+00;  0.0000000E+00;0;  1.1336069E-03;  4.0000000E+04;  0.0000000E+00;  0.0000000E+00;  4.0000000E+04;  0.0000000E+00;  4.0000000E+04;  9.0653542E-04;  0.0000000E+00;  2.2707149E-04;  7.8550696E+00;
 -1.3000000E-01;  9.9999998E-03;  3.3000001E-01;713;  0.0000000E+00;  0.0000000E+00;  0.0000000E+00;  1.0000093E+03;  1.0000000E-01;  7.7034860E+00;0;  0.0000000E+00;  0.0000000E+00;  0.0000000E+00;0;  6.9280993E-04;  4.0000000E+04;  0.0000000E+00;  0.0000000E+00;  4.0000000E+04;  0.0000000E+00;  4.0000000E+04;  5.2181940E-04;  0.0000000E+00;  1.7099056E-04;  7.6897693E+00;
 -1.3000000E-01;  9.9999998E-03;  3.4000000E-01;714;  0.0000000E+00;  0.0000000E+00;  0.0000000E+00;  1.0000000E+03;  1.0000000E-01;  0.0000000E+00;0;  0.0000000E+00;  0.0000000E+00;  0.0000000E+00;0;  3.9725361E-04;  4.0000000E+04;  0.0000000E+00;  0.0000000E+00;  4.0000000E+04;  0.0000000E+00;  4.0000000E+04;  2.7867057E-04;  0.0000000E+00;  1.1858302E-04;  6.4404821E+00;
 -1.3000000E-01;  9.9999998E-03;  3.4999999E-01;715;  0.0000000E+00;  0.0000000E+00;  0.0000000E+00;  1.0000000E+03;  1.0000000E-01;  0.0000000E+00;0;  0.0000000E+00;  0.0000000E+00;  0.0000000E+00;0;  2.0850325E-04;  4.0000000E+04;  0.0000000E+00;  0.0000000E+00;  4.0000000E+04;  0.0000000E+00;  4.0000000E+04;  1.3467669E-04;  0.0000000E+00;  7.3826559E-05;  4.6468267E+00;
 -1.3000000E-01;  9.9999998E-03;  3.6000001E-01;716;  0.0000000E+00;  0.0000000E+00;  0.0000000E+00;  1.0000000E+03;  1.0000000E-01;  0.0000000E+00;0;  0.0000000E+00;  0.0000000E+00;  0.0000000E+00;0;  9.6021715E-05;  4.0000000E+04;  0.0000000E+00;  0.0000000E+00;  4.0000000E+04;  0.0000000E+00;  4.0000000E+04;  5.6469504E-05;  0.0000000E+00;  3.9552207E-05;  2.8245873E+00;
 -1.3000000E-01;  9.9999998E-03;  3.7000000E-01;717;  0.0000000E+00;  0.0000000E+00;  0.0000000E+00;  1.0000000E+03;  1.0000000E-01;  0.0000000E+00;0;  0.0000000E+00;  0.0000000E+00;  0.0000000E+00;0;  3.5882280E-05;  4.0000000E+04;  0.0000000E+00;  0.0000000E+00;  4.0000000E+04;  0.0000000E+00;  4.0000000E+04;  1.9010347E-05;  0.0000000E+00;  1.6871931E-05;  1.3589176E+00;
 -1.3000000E-01;  9.9999998E-03;  3.8000000E-01;718;  0.0000000E+00;  0.0000000E+00;  0.0000000E+00;  1.0000000E+03;  1.0000000E-01;  0.0000000E+00;0;  0.0000000E+00;  0.0000000E+00;  0.0000000E+00;0;  9.2519431E-06;  4.0000000E+04;  0.0000000E+00;  0.0000000E+00;  4.0000000E+04;  0.0000000E+00;  4.0000000E+04;  4.3817527E-06;  0.0000000E+00;  4.8701904E-06;  4.4231144E-01;
 -1.3000000E-01;  9.9999998E-03;  3.8999999E-01;719;  0.0000000E+00;  0.0000000E+00;  0.0000000E+00;  1.0000000E+03;  1.0000000E-01;  0.0000000E+00;0;  0.0000000E+00;  0.0000000E+00;  0.0000000E+00;0;  9.5535779E-07;  4.0000000E+04;  0.0000000E+00;  0.0000000E+00;  4.0000000E+04;  0.0000000E+00;  4.0000000E+04;  4.0429470E-07;  0.0000000E+00;  5.5106312E-07;  5.6931898E-02;
 -1.3000000E-01;  9.9999998E-03;  4.0000001E-01;720;  0.0000000E+00;  0.0000000E+00;  0.0000000E+00;  1.0000000E+03;  1.0000000E-01;  0.0000000E+00;0;  0.0000000E+00;  0.0000000E+00;  0.0000000E+00;0;  0.0000000E+00;  4.0000000E+04;  0.0000000E+00;  0.0000000E+00;  4.0000000E+04;  0.0000000E+00;  4.0000000E+04;  0.0000000E+00;  0.0000000E+00;  0.0000000E+00;  0.0000000E+00;
 -1.2000000E-01;  9.9999998E-03;  2.3999999E-01;795;  0.0000000E+00;  0.0000000E+00;  0.0000000E+00;  1.0000643E+03;  1.0000000E-01;  5.3331825E+01;0;  0.0000000E+00;  0.0000000E+00;  0.0000000E+00;0;  3.4620095E-02;  4.0000000E+04;  0.0000000E+00;  0.0000000E+00;  4.0000000E+04;  0.0000000E+00;  4.0000000E+04;  3.3696476E-02;  0.0000000E+00;  9.2361844E-04;  6.5603844E+01;
 -1.2000000E-01;  9.9999998E-03;  2.5000000E-01;796;  0.0000000E+00;  0.0000000E+00;  0.0000000E+00;  1.0000779E+03;  1.0000000E-01;  6.4492004E+01;0;  0.0000000E+00;  0.0000000E+00;  0.0000000E+00;0;  2.8277397E-02;  4.0000000E+04;  0.0000000E+00;  0.0000000E+00;  4.0000000E+04;  0.0000000E+00;  4.0000000E+04;  2.7232213E-02;  0.0000000E+00;  1.0451836E-03;  5.9644421E+01;
 -1.2000000E-01;  9.9999998E-03;  2.5999999E-01;797;  0.0000000E+00;  0.0000000E+00;  0.0000000E+00;  1.0000828E+03;  1.0000000E-01;  6.8640038E+01;0;  0.0000000E+00;  0.0000000E+00;  0.0000000E+00;0;  2.2516549E-02;  4.0000000E+04;  0.0000000E+00;  0.0000000E+00;  4.0000000E+04;  0.0000000E+00;  4.0000000E+04;  2.1401580E-02;  0.0000000E+00;  1.1149682E-03;  4.9414665E+01;
 -1.2000000E-01;  9.9999998E-03;  2.7000001E-01;798;  0.0000000E+00;  0.0000000E+00;  0.0000000E+00;  1.0000819E+03;  1.0000000E-01;  6.7849930E+01;0;  0.0000000E+00;  0.0000000E+00;  0.0000000E+00;0;  1.7468469E-02;  4.0000000E+04;  0.0000000E+00;  0.0000000E+00;  4.0000000E+04;  0.0000000E+00;  4.0000000E+04;  1.6333537E-02;  0.0000000E+00;  1.1349327E-03;  3.6260319E+01;
 -1.2000000E-01;  9.9999998E-03;  2.8000000E-01;799;  0.0000000E+00;  0.0000000E+00;  0.0000000E+00;  1.0000775E+03;  1.0000000E-01;  6.4195717E+01;0;  0.0000000E+00;  0.0000000E+00;  0.0000000E+00;0;  1.3198318E-02;  4.0000000E+04;  0.0000000E+00;  0.0000000E+00;  4.0000000E+04;  0.0000000E+00;  4.0000000E+04;  1.2088894E-02;  0.0000000E+00;  1.1094242E-03;  2.1895390E+01;
 -1.2000000E-01;  9.9999998E-03;  2.8999999E-01;800;  0.0000000E+00;  0.0000000E+00;  0.0000000E+00;  1.0000720E+03;  1.0000000E-01;  5.9652634E+01;0;  0.0000000E+00;  0.0000000E+00;  0.0000000E+00;0;  9.7070578E-03;  4.0000000E+04;  0.0000000E+00;  0.0000000E+00;  4.0000000E+04;  0.0000000E+00;  4.0000000E+04;  8.6629847E-03;  0.0000000E+00;  1.0440735E-03;  8.1142540E+00;
 -1.2000000E-01;  9.9999998E-03;  3.0000001E-01;801;  0.0000000E+00;  0.0000000E+00;  0.0000000E+00;  1.0000615E+03;  1.0000000E-01;  5.0961521E+01;0;  0.0000000E+00;  0.0000000E+00;  0.0000000E+00;0;  6.9428291E-03;  4.0000000E+04;  0.0000000E+00;  0.0000000E+00;  4.0000000E+04;  0.0000000E+00;  4.0000000E+04;  5.9974785E-03;  0.0000000E+00;  9.4535074E-04;  3.5555360E+00;
 -1.2000000E-01;  9.9999998E-03;  3.1000000E-01;802;  0.0000000E+00;  0.0000000E+00;  0.0000000E+00;  1.0000508E+03;  1.0000000E-01;  4.2072884E+01;0;  0.0000000E+00;  0.0000000E+00;  0.0000000E+00;0;  4.8196847E-03;  4.0000000E+04;  0.0000000E+00;  0.0000000E+00;  4.0000000E+04;  0.0000000E+00;  4.0000000E+04;  3.9983965E-03;  0.0000000E+00;  8.2128844E-04;  1.1960225E+01;
 -1.2000000E-01;  9.9999998E-03;  3.1999999E-01;803;  0.0000000E+00;  0.0000000E+00;  0.0000000E+00;  1.0000374E+03;  1.0000000E-01;  3.0912706E+01;0;  0.0000000E+00;  0.0000000E+00;  0.0000000E+00;0;  3.2364610E-03;  4.0000000E+04;  0.0000000E+00;  0.0000000E+00;  4.0000000E+04;  0.0000000E+00;  4.0000000E+04;  2.5549240E-03;  0.0000000E+00;  6.8153685E-04;  1.6738203E+01;
 -1.2000000E-01;  9.9999998E-03;  3.3000001E-01;804;  0.0000000E+00;  0.0000000E+00;  0.0000000E+00;  1.0000244E+03;  1.0000000E-01;  2.0147579E+01;0;  0.0000000E+00;  0.0000000E+00;  0.0000000E+00;0;  2.0907195E-03;  4.0000000E+04;  0.0000000E+00;  0.0000000E+00;  4.0000000E+04;  0.0000000E+00;  4.0000000E+04;  1.5541563E-03;  0.0000000E+00;  5.3656334E-04;  1.8096769E+01;
 -1.2000000E-01;  9.9999998E-03;  3.4000000E-01;805;  0.0000000E+00;  0.0000000E+00;  0.0000000E+00;  1.0000161E+03;  1.0000000E-01;  1.3332956E+01;0;  0.0000000E+00;  0.0000000E+00;  0.0000000E+00;0;  1.2877516E-03;  4.0000000E+04;  0.0000000E+00;  0.0000000E+00;  4.0000000E+04;  0.0000000E+00;  4.0000000E+04;  8.9105824E-04;  0.0000000E+00;  3.9669336E-04;  1.6724268E+01;
 -1.2000000E-01;  9.9999998E-03;  3.4999999E-01;806;  0.0000000E+00;  0.0000000E+00;  0.0000000E+00;  1.0000094E+03;  1.0000000E-01;  7.8022485E+00;0;  0.0000000E+00;  0.0000000E+00;  0.0000000E+00;0;  7.4552931E-04;  4.0000000E+04;  0.0000000E+00;  0.0000000E+00;  4.0000000E+04;  0.0000000E+00;  4.0000000E+04;  4.7433737E-04;  0.0000000E+00;  2.7119197E-04;  1.3570352E+01;
 -1.2000000E-01;  9.9999998E-03;  3.6000001E-01;807;  0.0000000E+00;  0.0000000E+00;  0.0000000E+00;  1.0000000E+03;  1.0000000E-01;  0.0000000E+00;0;  0.0000000E+00;  0.0000000E+00;  0.0000000E+00;0;  3.9630011E-04;  4.0000000E+04;  0.0000000E+00;  0.0000000E+00;  4.0000000E+04;  0.0000000E+00;  4.0000000E+04;  2.2897433E-04;  0.0000000E+00;  1.6732578E-04;  9.6463108E+00;
 -1.2000000E-01;  9.9999998E-03;  3.7000000E-01;808;  0.0000000E+00;  0.0000000E+00;  0.0000000E+00;  1.0000000E+03;  1.0000000E-01;  0.0000000E+00;0;  0.0000000E+00;  0.0000000E+00;  0.0000000E+00;0;  1.8592432E-04;  4.0000000E+04;  0.0000000E+00;  0.0000000E+00;  4.0000000E+04;  0.0000000E+00;  4.0000000E+04;  9.6401047E-05;  0.0000000E+00;  8.9523273E-05;  5.8533883E+00;
 -1.2000000E-01;  9.9999998E-03;  3.8000000E-01;809;  0.0000000E+00;  0.0000000E+00;  0.0000000E+00;  1.0000000E+03;  1.0000000E-01;  0.0000000E+00;0;  0.0000000E+00;  0.0000000E+00;  0.0000000E+00;0;  7.1730261E-05;  4.0000000E+04;  0.0000000E+00;  0.0000000E+00;  4.0000000E+04;  0.0000000E+00;  4.0000000E+04;  3.3046712E-05;  0.0000000E+00;  3.8683553E-05;  2.8490667E+00;
 -1.2000000E-01;  9.9999998E-03;  3.8999999E-01;810;  0.0000000E+00;  0.0000000E+00;  0.0000000E+00;  1.0000000E+03;  1.0000000E-01;  0.0000000E+00;0;  0.0000000E+00;  0.0000000E+00;  0.0000000E+00;0;  1.9579355E-05;  4.0000000E+04;  0.0000000E+00;  0.0000000E+00;  4.0000000E+04;  0.0000000E+00;  4.0000000E+04;  7.9696283E-06;  0.0000000E+00;  1.1609725E-05;  9.6036685E-01;
 -1.2000000E-01;  9.9999998E-03;  4.0000001E-01;811;  0.0000000E+00;  0.0000000E+00;  0.0000000E+00;  1.0000000E+03;  1.0000000E-01;  0.0000000E+00;0;  0.0000000E+00;  0.0000000E+00;  0.0000000E+00;0;  2.5272757E-06;  4.0000000E+04;  0.0000000E+00;  0.0000000E+00;  4.0000000E+04;  0.0000000E+00;  4.0000000E+04;  9.1751406E-07;  0.0000000E+00;  1.6097616E-06;  1.4480226E-01;
 -1.1000000E-01;  9.9999998E-03;  2.3999999E-01;886;  0.0000000E+00;  0.0000000E+00;  0.0000000E+00;  1.0000942E+03;  1.0000000E-01;  7.8022484E+01;0;  0.0000000E+00;  0.0000000E+00;  0.0000000E+00;0;  6.5506957E-02;  4.0000000E+04;  0.0000000E+00;  0.0000000E+00;  4.0000000E+04;  0.0000000E+00;  4.0000000E+04;  6.3629411E-02;  0.0000000E+00;  1.8775436E-03;  1.3723120E+02;
 -1.1000000E-01;  9.9999998E-03;  2.5000000E-01;887;  0.0000000E+00;  0.0000000E+00;  0.0000000E+00;  1.0001169E+03;  1.0000000E-01;  9.6787384E+01;0;  0.0000000E+00;  0.0000000E+00;  0.0000000E+00;0;  5.4352950E-02;  4.0000000E+04;  0.0000000E+00;  0.0000000E+00;  4.0000000E+04;  0.0000000E+00;  4.0000000E+04;  5.2172724E-02;  0.0000000E+00;  2.1802271E-03;  1.2661723E+02;
 -1.1000000E-01;  9.9999998E-03;  2.5999999E-01;888;  0.0000000E+00;  0.0000000E+00;  0.0000000E+00;  1.0001304E+03;  1.0000000E-01;  1.0804633E+02;0;  0.0000000E+00;  0.0000000E+00;  0.0000000E+00;0;  4.4073611E-02;  4.0000000E+04;  0.0000000E+00;  0.0000000E+00;  4.0000000E+04;  0.0000000E+00;  4.0000000E+04;  4.1691542E-02;  0.0000000E+00;  2.3820698E-03;  1.0764774E+02;
 -1.1000000E-01;  9.9999998E-03;  2.7000001E-01;889;  0.0000000E+00;  0.0000000E+00;  0.0000000E+00;  1.0001359E+03;  1.0000000E-01;  1.1258941E+02;0;  0.0000000E+00;  0.0000000E+00;  0.0000000E+00;0;  3.4901302E-02;  4.0000000E+04;  0.0000000E+00;  0.0000000E+00;  4.0000000E+04;  0.0000000E+00;  4.0000000E+04;  3.2422449E-02;  0.0000000E+00;  2.4788540E-03;  8.2707268E+01;
 -1.1000000E-01;  9.9999998E-03;  2.8000000E-01;890;  0.0000000E+00;  0.0000000E+00;  0.0000000E+00;  1.0001317E+03;  1.0000000E-01;  1.0913271E+02;0;  0.0000000E+00;  0.0000000E+00;  0.0000000E+00;0;  2.6975237E-02;  4.0000000E+04;  0.0000000E+00;  0.0000000E+00;  4.0000000E+04;  0.0000000E+00;  4.0000000E+04;  2.4502531E-02;  0.0000000E+00;  2.4727066E-03;  5.4856098E+01;
 -1.1000000E-01;  9.9999998E-03;  2.8999999E-01;891;  0.0000000E+00;  0.0000000E+00;  0.0000000E+00;  1.0001235E+03;  1.0000000E-01;  1.0231809E+02;0;  0.0000000E+00;  0.0000000E+00;  0.0000000E+00;0;  2.0338140E-02;  4.0000000E+04;  0.0000000E+00;  0.0000000E+00;  4.0000000E+04;  0.0000000E+00;  4.0000000E+04;  1.7966855E-02;  0.0000000E+00;  2.3712856E-03;  2.7354168E+01;
 -1.1000000E-01;  9.9999998E-03;  3.0000001E-01;892;  0.0000000E+00;  0.0000000E+00;  0.0000000E+00;  1.0001071E+03;  1.0000000E-01;  8.8688850E+01;0;  0.0000000E+00;  0.0000000E+00;  0.0000000E+00;0;  1.4946353E-02;  4.0000000E+04;  0.0000000E+00;  0.0000000E+00;  4.0000000E+04;  0.0000000E+00;  4.0000000E+04;  1.2759131E-02;  0.0000000E+00;  2.1872211E-03;  3.2301352E+00;
 -1.1000000E-01;  9.9999998E-03;  3.1000000E-01;893;  0.0000000E+00;  0.0000000E+00;  0.0000000E+00;  1.0000909E+03;  1.0000000E-01;  7.5257133E+01;0;  0.0000000E+00;  0.0000000E+00;  0.0000000E+00;0;  1.0692086E-02;  4.0000000E+04;  0.0000000E+00;  0.0000000E+00;  4.0000000E+04;  0.0000000E+00;  4.0000000E+04;  8.7532597E-03;  0.0000000E+00;  1.9388264E-03;  1.5642483E+01;
 -1.1000000E-01;  9.9999998E-03;  3.1999999E-01;894;  0.0000000E+00;  0.0000000E+00;  0.0000000E+00;  1.0000694E+03;  1.0000000E-01;  5.7479855E+01;0;  0.0000000E+00;  0.0000000E+00;  0.0000000E+00;0;  7.4293758E-03;  4.0000000E+04;  0.0000000E+00;  0.0000000E+00;  4.0000000E+04;  0.0000000E+00;  4.0000000E+04;  5.7808869E-03;  0.0000000E+00;  1.6484889E-03;  2.7851690E+01;
 -1.1000000E-01;  9.9999998E-03;  3.3000001E-01;895;  0.0000000E+00;  0.0000000E+00;  0.0000000E+00;  1.0000530E+03;  1.0000000E-01;  4.3850613E+01;0;  0.0000000E+00;  0.0000000E+00;  0.0000000E+00;0;  4.9967710E-03;  4.0000000E+04;  0.0000000E+00;  0.0000000E+00;  4.0000000E+04;  0.0000000E+00;  4.0000000E+04;  3.6572425E-03;  0.0000000E+00;  1.3395285E-03;  3.3594261E+01;
 -1.1000000E-01;  9.9999998E-03;  3.4000000E-01;896;  0.0000000E+00;  0.0000000E+00;  0.0000000E+00;  1.0000368E+03;  1.0000000E-01;  3.0517656E+01;0;  0.0000000E+00;  0.0000000E+00;  0.0000000E+00;0;  3.2346966E-03;  4.0000000E+04;  0.0000000E+00;  0.0000000E+00;  4.0000000E+04;  0.0000000E+00;  4.0000000E+04;  2.2009399E-03;  0.0000000E+00;  1.0337568E-03;  3.3788612E+01;
 -1.1000000E-01;  9.9999998E-03;  3.4999999E-01;897;  0.0000000E+00;  0.0000000E+00;  0.0000000E+00;  1.0000186E+03;  1.0000000E-01;  1.5406972E+01;0;  0.0000000E+00;  0.0000000E+00;  0.0000000E+00;0;  1.9972336E-03;  4.0000000E+04;  0.0000000E+00;  0.0000000E+00;  4.0000000E+04;  0.0000000E+00;  4.0000000E+04;  1.2471917E-03;  0.0000000E+00;  7.5004197E-04;  2.9878218E+01;
 -1.1000000E-01;  9.9999998E-03;  3.6000001E-01;898;  0.0000000E+00;  0.0000000E+00;  0.0000000E+00;  1.0000140E+03;  1.0000000E-01;  1.1555229E+01;0;  0.0000000E+00;  0.0000000E+00;  0.0000000E+00;0;  1.1588580E-03;  4.0000000E+04;  0.0000000E+00;  0.0000000E+00;  4.0000000E+04;  0.0000000E+00;  4.0000000E+04;  6.5534265E-04;  0.0000000E+00;  5.0351524E-04;  2.3515541E+01;
 -1.1000000E-01;  9.9999998E-03;  3.7000000E-01;899;  0.0000000E+00;  0.0000000E+00;  0.0000000E+00;  1.0000000E+03;  1.0000000E-01;  0.0000000E+00;0;  0.0000000E+00;  0.0000000E+00;  0.0000000E+00;0;  6.1665347E-04;  4.0000000E+04;  0.0000000E+00;  0.0000000E+00;  4.0000000E+04;  0.0000000E+00;  4.0000000E+04;  3.1175007E-04;  0.0000000E+00;  3.0490340E-04;  1.6316277E+01;
 -1.1000000E-01;  9.9999998E-03;  3.8000000E-01;900;  0.0000000E+00;  0.0000000E+00;  0.0000000E+00;  1.0000000E+03;  1.0000000E-01;  0.0000000E+00;0;  0.0000000E+00;  0.0000000E+00;  0.0000000E+00;0;  2.8880560E-04;  4.0000000E+04;  0.0000000E+00;  0.0000000E+00;  4.0000000E+04;  0.0000000E+00;  4.0000000E+04;  1.2909467E-04;  0.0000000E+00;  1.5971094E-04;  9.6664171E+00;
 -1.1000000E-01;  9.9999998E-03;  3.8999999E-01;901;  0.0000000E+00;  0.0000000E+00;  0.0000000E+00;  1.0000000E+03;  1.0000000E-01;  0.0000000E+00;0;  0.0000000E+00;  0.0000000E+00;  0.0000000E+00;0;  1.1045554E-04;  4.0000000E+04;  0.0000000E+00;  0.0000000E+00;  4.0000000E+04;  0.0000000E+00;  4.0000000E+04;  4.3340377E-05;  0.0000000E+00;  6.7115165E-05;  4.5613379E+00;
 -1.1000000E-01;  9.9999998E-03;  4.0000001E-01;902;  0.0000000E+00;  0.0000000E+00;  0.0000000E+00;  1.0000000E+03;  1.0000000E-01;  0.0000000E+00;0;  0.0000000E+00;  0.0000000E+00;  0.0000000E+00;0;  2.9653092E-05;  4.0000000E+04;  0.0000000E+00;  0.0000000E+00;  4.0000000E+04;  0.0000000E+00;  4.0000000E+04;  1.0221183E-05;  0.0000000E+00;  1.9431909E-05;  1.4669797E+00;
 -1.0000000E-01;  9.9999998E-03;  2.3999999E-01;977;  0.0000000E+00;  0.0000000E+00;  0.0000000E+00;  1.0001138E+03;  1.0000000E-01;  9.4318321E+01;0;  0.0000000E+00;  0.0000000E+00;  0.0000000E+00;0;  1.1108581E-01;  4.0000000E+04;  0.0000000E+00;  0.0000000E+00;  4.0000000E+04;  0.0000000E+00;  4.0000000E+04;  1.0769635E-01;  0.0000000E+00;  3.3894642E-03;  2.5673337E+02;
 -1.0000000E-01;  9.9999998E-03;  2.5000000E-01;978;  0.0000000E+00;  0.0000000E+00;  0.0000000E+00;  1.0001553E+03;  1.0000000E-01;  1.2868771E+02;0;  0.0000000E+00;  0.0000000E+00;  0.0000000E+00;0;  9.3332604E-02;  4.0000000E+04;  0.0000000E+00;  0.0000000E+00;  4.0000000E+04;  0.0000000E+00;  4.0000000E+04;  8.9312099E-02;  0.0000000E+00;  4.0205014E-03;  2.4065240E+02;
 -1.0000000E-01;  9.9999998E-03;  2.5999999E-01;979;  0.0000000E+00;  0.0000000E+00;  0.0000000E+00;  1.0001825E+03;  1.0000000E-01;  1.5120560E+02;0;  0.0000000E+00;  0.0000000E+00;  0.0000000E+00;0;  7.6783888E-02;  4.0000000E+04;  0.0000000E+00;  0.0000000E+00;  4.0000000E+04;  0.0000000E+00;  4.0000000E+04;  7.2307862E-02;  0.0000000E+00;  4.4760276E-03;  2.0970110E+02;
 -1.0000000E-01;  9.9999998E-03;  2.7000001E-01;980;  0.0000000E+00;  0.0000000E+00;  0.0000000E+00;  1.0001971E+03;  1.0000000E-01;  1.6335341E+02;0;  0.0000000E+00;  0.0000000E+00;  0.0000000E+00;0;  6.1806541E-02;  4.0000000E+04;  0.0000000E+00;  0.0000000E+00;  4.0000000E+04;  0.0000000E+00;  4.0000000E+04;  5.7068042E-02;  0.0000000E+00;  4.7384999E-03;  1.6765149E+02;
 -1.0000000E-01;  9.9999998E-03;  2.8000000E-01;981;  0.0000000E+00;  0.0000000E+00;  0.0000000E+00;  1.0001960E+03;  1.0000000E-01;  1.6236578E+02;0;  0.0000000E+00;  0.0000000E+00;  0.0000000E+00;0;  4.8644539E-02;  4.0000000E+04;  0.0000000E+00;  0.0000000E+00;  4.0000000E+04;  0.0000000E+00;  4.0000000E+04;  4.3841671E-02;  0.0000000E+00;  4.8028668E-03;  1.1944938E+02;
 -1.0000000E-01;  9.9999998E-03;  2.8999999E-01;982;  0.0000000E+00;  0.0000000E+00;  0.0000000E+00;  1.0001869E+03;  1.0000000E-01;  1.5485982E+02;0;  0.0000000E+00;  0.0000000E+00;  0.0000000E+00;0;  3.7410300E-02;  4.0000000E+04;  0.0000000E+00;  0.0000000E+00;  4.0000000E+04;  0.0000000E+00;  4.0000000E+04;  3.2733671E-02;  0.0000000E+00;  4.6766284E-03;  7.0493332E+01;
 -1.0000000E-01;  9.9999998E-03;  3.0000001E-01;983;  0.0000000E+00;  0.0000000E+00;  0.0000000E+00;  1.0001664E+03;  1.0000000E-01;  1.3787265E+02;0;  0.0000000E+00;  0.0000000E+00;  0.0000000E+00;0;  2.8091392E-02;  4.0000000E+04;  0.0000000E+00;  0.0000000E+00;  4.0000000E+04;  0.0000000E+00;  4.0000000E+04;  2.3711666E-02;  0.0000000E+00;  4.3797246E-03;  2.5851440E+01;
 -1.0000000E-01;  9.9999998E-03;  3.1000000E-01;984;  0.0000000E+00;  0.0000000E+00;  0.0000000E+00;  1.0001445E+03;  1.0000000E-01;  1.1970032E+02;0;  0.0000000E+00;  0.0000000E+00;  0.0000000E+00;0;  2.0575378E-02;  4.0000000E+04;  0.0000000E+00;  0.0000000E+00;  4.0000000E+04;  0.0000000E+00;  4.0000000E+04;  1.6629333E-02;  0.0000000E+00;  3.9460454E-03;  1.0719501E+01;
 -1.0000000E-01;  9.9999998E-03;  3.1999999E-01;985;  0.0000000E+00;  0.0000000E+00;  0.0000000E+00;  1.0001185E+03;  1.0000000E-01;  9.8170067E+01;0;  0.0000000E+00;  0.0000000E+00;  0.0000000E+00;0;  1.4679228E-02;  4.0000000E+04;  0.0000000E+00;  0.0000000E+00;  4.0000000E+04;  0.0000000E+00;  4.0000000E+04;  1.1259994E-02;  0.0000000E+00;  3.4192335E-03;  3.6590519E+01;
 -1.0000000E-01;  9.9999998E-03;  3.3000001E-01;986;  0.0000000E+00;  0.0000000E+00;  0.0000000E+00;  1.0000920E+03;  1.0000000E-01;  7.6244759E+01;0;  0.0000000E+00;  0.0000000E+00;  0.0000000E+00;0;  1.0178491E-02;  4.0000000E+04;  0.0000000E+00;  0.0000000E+00;  4.0000000E+04;  0.0000000E+00;  4.0000000E+04;  7.3337145E-03;  0.0000000E+00;  2.8447770E-03;  5.1630623E+01;
 -1.0000000E-01;  9.9999998E-03;  3.4000000E-01;987;  0.0000000E+00;  0.0000000E+00;  0.0000000E+00;  1.0000663E+03;  1.0000000E-01;  5.5010788E+01;0;  0.0000000E+00;  0.0000000E+00;  0.0000000E+00;0;  6.8347044E-03;  4.0000000E+04;  0.0000000E+00;  0.0000000E+00;  4.0000000E+04;  0.0000000E+00;  4.0000000E+04;  4.5705768E-03;  0.0000000E+00;  2.2641276E-03;  5.6841358E+01;
 -1.0000000E-01;  9.9999998E-03;  3.4999999E-01;988;  0.0000000E+00;  0.0000000E+00;  0.0000000E+00;  1.0000476E+03;  1.0000000E-01;  3.9406292E+01;0;  0.0000000E+00;  0.0000000E+00;  0.0000000E+00;0;  4.4176830E-03;  4.0000000E+04;  0.0000000E+00;  0.0000000E+00;  4.0000000E+04;  0.0000000E+00;  4.0000000E+04;  2.7056092E-03;  0.0000000E+00;  1.7120736E-03;  5.4203529E+01;
 -1.0000000E-01;  9.9999998E-03;  3.6000001E-01;989;  0.0000000E+00;  0.0000000E+00;  0.0000000E+00;  1.0000312E+03;  1.0000000E-01;  2.5875811E+01;0;  0.0000000E+00;  0.0000000E+00;  0.0000000E+00;0;  2.7210638E-03;  4.0000000E+04;  0.0000000E+00;  0.0000000E+00;  4.0000000E+04;  0.0000000E+00;  4.0000000E+04;  1.5048655E-03;  0.0000000E+00;  1.2161982E-03;  4.6136765E+01;
 -1.0000000E-01;  9.9999998E-03;  3.7000000E-01;990;  0.0000000E+00;  0.0000000E+00;  0.0000000E+00;  1.0000157E+03;  1.0000000E-01;  1.3036669E+01;0;  0.0000000E+00;  0.0000000E+00;  0.0000000E+00;0;  1.5707829E-03;  4.0000000E+04;  0.0000000E+00;  0.0000000E+00;  4.0000000E+04;  0.0000000E+00;  4.0000000E+04;  7.7365543E-04;  0.0000000E+00;  7.9712743E-04;  3.5141197E+01;
 -1.0000000E-01;  9.9999998E-03;  3.8000000E-01;991;  0.0000000E+00;  0.0000000E+00;  0.0000000E+00;  1.0000063E+03;  1.0000000E-01;  5.2344198E+00;0;  0.0000000E+00;  0.0000000E+00;  0.0000000E+00;0;  8.2665915E-04;  4.0000000E+04;  0.0000000E+00;  0.0000000E+00;  4.0000000E+04;  0.0000000E+00;  4.0000000E+04;  3.5828230E-04;  0.0000000E+00;  4.6837685E-04;  2.3552670E+01;
 -1.0000000E-01;  9.9999998E-03;  3.8999999E-01;992;  0.0000000E+00;  0.0000000E+00;  0.0000000E+00;  1.0000000E+03;  1.0000000E-01;  0.0000000E+00;0;  0.0000000E+00;  0.0000000E+00;  0.0000000E+00;0;  3.7828722E-04;  4.0000000E+04;  0.0000000E+00;  0.0000000E+00;  4.0000000E+04;  0.0000000E+00;  4.0000000E+04;  1.4311876E-04;  0.0000000E+00;  2.3516848E-04;  1.3339170E+01;
 -1.0000000E-01;  9.9999998E-03;  4.0000001E-01;993;  0.0000000E+00;  0.0000000E+00;  0.0000000E+00;  1.0000000E+03;  1.0000000E-01;  0.0000000E+00;0;  0.0000000E+00;  0.0000000E+00;  0.0000000E+00;0;  1.3826104E-04;  4.0000000E+04;  0.0000000E+00;  0.0000000E+00;  4.0000000E+04;  0.0000000E+00;  4.0000000E+04;  4.5616533E-05;  0.0000000E+00;  9.2644506E-05;  5.8767071E+00;
 -9.0000004E-02;  9.9999998E-03;  2.3999999E-01;1068;  0.0000000E+00;  0.0000000E+00;  0.0000000E+00;  1.0001163E+03;  1.0000000E-01;  9.6392334E+01;0;  0.0000000E+00;  0.0000000E+00;  0.0000000E+00;0;  1.7400937E-01;  4.0000000E+04;  0.0000000E+00;  0.0000000E+00;  4.0000000E+04;  0.0000000E+00;  4.0000000E+04;  1.6840798E-01;  0.0000000E+00;  5.6013959E-03;  4.4186588E+02;
 -9.0000004E-02;  9.9999998E-03;  2.5000000E-01;1069;  0.0000000E+00;  0.0000000E+00;  0.0000000E+00;  1.0001834E+03;  1.0000000E-01;  1.5199570E+02;0;  0.0000000E+00;  0.0000000E+00;  0.0000000E+00;0;  1.4770500E-01;  4.0000000E+04;  0.0000000E+00;  0.0000000E+00;  4.0000000E+04;  0.0000000E+00;  4.0000000E+04;  1.4094071E-01;  0.0000000E+00;  6.7642881E-03;  4.2095966E+02;
 -9.0000004E-02;  9.9999998E-03;  2.5999999E-01;1070;  0.0000000E+00;  0.0000000E+00;  0.0000000E+00;  1.0002321E+03;  1.0000000E-01;  1.9229086E+02;0;  0.0000000E+00;  0.0000000E+00;  0.0000000E+00;0;  1.2295611E-01;  4.0000000E+04;  0.0000000E+00;  0.0000000E+00;  4.0000000E+04;  0.0000000E+00;  4.0000000E+04;  1.1531030E-01;  0.0000000E+00;  7.6458184E-03;  3.7535822E+02;
 -9.0000004E-02;  9.9999998E-03;  2.7000001E-01;1071;  0.0000000E+00;  0.0000000E+00;  0.0000000E+00;  1.0002585E+03;  1.0000000E-01;  2.1411740E+02;0;  0.0000000E+00;  0.0000000E+00;  0.0000000E+00;0;  1.0029894E-01;  4.0000000E+04;  0.0000000E+00;  0.0000000E+00;  4.0000000E+04;  0.0000000E+00;  4.0000000E+04;  9.2093334E-02;  0.0000000E+00;  8.2056066E-03;  3.1054807E+02;
 -9.0000004E-02;  9.9999998E-03;  2.8000000E-01;1072;  0.0000000E+00;  0.0000000E+00;  0.0000000E+00;  1.0002684E+03;  1.0000000E-01;  2.2241347E+02;0;  0.0000000E+00;  0.0000000E+00;  0.0000000E+00;0;  8.0115229E-02;  4.0000000E+04;  0.0000000E+00;  0.0000000E+00;  4.0000000E+04;  0.0000000E+00;  4.0000000E+04;  7.1690999E-02;  0.0000000E+00;  8.4242262E-03;  2.3396414E+02;
 -9.0000004E-02;  9.9999998E-03;  2.8999999E-01;1073;  0.0000000E+00;  0.0000000E+00;  0.0000000E+00;  1.0002614E+03;  1.0000000E-01;  2.1648770E+02;0;  0.0000000E+00;  0.0000000E+00;  0.0000000E+00;0;  6.2616274E-02;  4.0000000E+04;  0.0000000E+00;  0.0000000E+00;  4.0000000E+04;  0.0000000E+00;  4.0000000E+04;  5.4311335E-02;  0.0000000E+00;  8.3049368E-03;  1.5395619E+02;
 -9.0000004E-02;  9.9999998E-03;  3.0000001E-01;1074;  0.0000000E+00;  0.0000000E+00;  0.0000000E+00;  1.0002402E+03;  1.0000000E-01;  1.9900671E+02;0;  0.0000000E+00;  0.0000000E+00;  0.0000000E+00;0;  4.7847688E-02;  4.0000000E+04;  0.0000000E+00;  0.0000000E+00;  4.0000000E+04;  0.0000000E+00;  4.0000000E+04;  3.9972749E-02;  0.0000000E+00;  7.8749387E-03;  7.8609894E+01;
 -9.0000004E-02;  9.9999998E-03;  3.1000000E-01;1075;  0.0000000E+00;  0.0000000E+00;  0.0000000E+00;  1.0002100E+03;  1.0000000E-01;  1.7392101E+02;0;  0.0000000E+00;  0.0000000E+00;  0.0000000E+00;0;  3.5715524E-02;  4.0000000E+04;  0.0000000E+00;  0.0000000E+00;  4.0000000E+04;  0.0000000E+00;  4.0000000E+04;  2.8526392E-02;  0.0000000E+00;  7.1891313E-03;  1.4693249E+01;
 -9.0000004E-02;  9.9999998E-03;  3.1999999E-01;1076;  0.0000000E+00;  0.0000000E+00;  0.0000000E+00;  1.0001764E+03;  1.0000000E-01;  1.4616870E+02;0;  0.0000000E+00;  0.0000000E+00;  0.0000000E+00;0;  2.6016986E-02;  4.0000000E+04;  0.0000000E+00;  0.0000000E+00;  4.0000000E+04;  0.0000000E+00;  4.0000000E+04;  1.9694185E-02;  0.0000000E+00;  6.3228006E-03;  3.4204659E+01;
 -9.0000004E-02;  9.9999998E-03;  3.3000001E-01;1077;  0.0000000E+00;  0.0000000E+00;  0.0000000E+00;  1.0001413E+03;  1.0000000E-01;  1.1703373E+02;0;  0.0000000E+00;  0.0000000E+00;  0.0000000E+00;0;  1.8470507E-02;  4.0000000E+04;  0.0000000E+00;  0.0000000E+00;  4.0000000E+04;  0.0000000E+00;  4.0000000E+04;  1.3114423E-02;  0.0000000E+00;  5.3560855E-03;  6.5967278E+01;
 -9.0000004E-02;  9.9999998E-03;  3.4000000E-01;1078;  0.0000000E+00;  0.0000000E+00;  0.0000000E+00;  1.0001056E+03;  1.0000000E-01;  8.7503700E+01;0;  0.0000000E+00;  0.0000000E+00;  0.0000000E+00;0;  1.2751035E-02;  4.0000000E+04;  0.0000000E+00;  0.0000000E+00;  4.0000000E+04;  0.0000000E+00;  4.0000000E+04;  8.3894935E-03;  0.0000000E+00;  4.3615415E-03;  8.1922852E+01;
 -9.0000004E-02;  9.9999998E-03;  3.4999999E-01;1079;  0.0000000E+00;  0.0000000E+00;  0.0000000E+00;  1.0000771E+03;  1.0000000E-01;  6.3899426E+01;0;  0.0000000E+00;  0.0000000E+00;  0.0000000E+00;0;  8.5255448E-03;  4.0000000E+04;  0.0000000E+00;  0.0000000E+00;  4.0000000E+04;  0.0000000E+00;  4.0000000E+04;  5.1269615E-03;  0.0000000E+00;  3.3985835E-03;  8.4564049E+01;
 -9.0000004E-02;  9.9999998E-03;  3.6000001E-01;1080;  0.0000000E+00;  0.0000000E+00;  0.0000000E+00;  1.0000500E+03;  1.0000000E-01;  4.1381546E+01;0;  0.0000000E+00;  0.0000000E+00;  0.0000000E+00;0;  5.4822341E-03;  4.0000000E+04;  0.0000000E+00;  0.0000000E+00;  4.0000000E+04;  0.0000000E+00;  4.0000000E+04;  2.9690000E-03;  0.0000000E+00;  2.5132343E-03;  7.7178619E+01;
 -9.0000004E-02;  9.9999998E-03;  3.7000000E-01;1081;  0.0000000E+00;  0.0000000E+00;  0.0000000E+00;  1.0000328E+03;  1.0000000E-01;  2.7159725E+01;0;  0.0000000E+00;  0.0000000E+00;  0.0000000E+00;0;  3.3498607E-03;  4.0000000E+04;  0.0000000E+00;  0.0000000E+00;  4.0000000E+04;  0.0000000E+00;  4.0000000E+04;  1.6098178E-03;  0.0000000E+00;  1.7400427E-03;  6.3298378E+01;
 -9.0000004E-02;  9.9999998E-03;  3.8000000E-01;1082;  0.0000000E+00;  0.0000000E+00;  0.0000000E+00;  1.0000145E+03;  1.0000000E-01;  1.2049042E+01;0;  0.0000000E+00;  0.0000000E+00;  0.0000000E+00;0;  1.9062411E-03;  4.0000000E+04;  0.0000000E+00;  0.0000000E+00;  4.0000000E+04;  0.0000000E+00;  4.0000000E+04;  8.0238265E-04;  0.0000000E+00;  1.1038583E-03;  4.6385857E+01;
 -9.0000004E-02;  9.9999998E-03;  3.8999999E-01;1083;  0.0000000E+00;  0.0000000E+00;  0.0000000E+00;  1.0000076E+03;  1.0000000E-01;  6.2220464E+00;0;  0.0000000E+00;  0.0000000E+00;  0.0000000E+00;0;  9.7666006E-04;  4.0000000E+04;  0.0000000E+00;  0.0000000E+00;  4.0000000E+04;  0.0000000E+00;  4.0000000E+04;  3.5689402E-04;  0.0000000E+00;  6.1976601E-04;  2.9619677E+01;
 -9.0000004E-02;  9.9999998E-03;  4.0000001E-01;1084;  0.0000000E+00;  0.0000000E+00;  0.0000000E+00;  1.0000000E+03;  1.0000000E-01;  0.0000000E+00;0;  0.0000000E+00;  0.0000000E+00;  0.0000000E+00;0;  4.2537774E-04;  4.0000000E+04;  0.0000000E+00;  0.0000000E+00;  4.0000000E+04;  0.0000000E+00;  4.0000000E+04;  1.3471209E-04;  0.0000000E+00;  2.9066566E-04;  1.5641787E+01;
 -7.9999998E-02;  9.9999998E-03;  2.3999999E-01;1159;  0.0000000E+00;  0.0000000E+00;  0.0000000E+00;  1.0000848E+03;  1.0000000E-01;  7.0220238E+01;0;  0.0000000E+00;  0.0000000E+00;  0.0000000E+00;0;  2.5645283E-01;  4.0000000E+04;  0.0000000E+00;  0.0000000E+00;  4.0000000E+04;  0.0000000E+00;  4.0000000E+04;  2.4782197E-01;  0.0000000E+00;  8.6308504E-03;  7.1200500E+02;
 -7.9999998E-02;  9.9999998E-03;  2.5000000E-01;1160;  0.0000000E+00;  0.0000000E+00;  0.0000000E+00;  1.0001902E+03;  1.0000000E-01;  1.5762517E+02;0;  0.0000000E+00;  0.0000000E+00;  0.0000000E+00;0;  2.1955934E-01;  4.0000000E+04;  0.0000000E+00;  0.0000000E+00;  4.0000000E+04;  0.0000000E+00;  4.0000000E+04;  2.0897329E-01;  0.0000000E+00;  1.0586057E-02;  6.8940027E+02;
 -7.9999998E-02;  9.9999998E-03;  2.5999999E-01;1161;  0.0000000E+00;  0.0000000E+00;  0.0000000E+00;  1.0002672E+03;  1.0000000E-01;  2.2132707E+02;0;  0.0000000E+00;  0.0000000E+00;  0.0000000E+00;0;  1.8457383E-01;  4.0000000E+04;  0.0000000E+00;  0.0000000E+00;  4.0000000E+04;  0.0000000E+00;  4.0000000E+04;  1.7245512E-01;  0.0000000E+00;  1.2118714E-02;  6.2794519E+02;
 -7.9999998E-02;  9.9999998E-03;  2.7000001E-01;1162;  0.0000000E+00;  0.0000000E+00;  0.0000000E+00;  1.0003170E+03;  1.0000000E-01;  2.6260986E+02;0;  0.0000000E+00;  0.0000000E+00;  0.0000000E+00;0;  1.5223709E-01;  4.0000000E+04;  0.0000000E+00;  0.0000000E+00;  4.0000000E+04;  0.0000000E+00;  4.0000000E+04;  1.3908330E-01;  0.0000000E+00;  1.3153784E-02;  5.3509308E+02;
 -7.9999998E-02;  9.9999998E-03;  2.8000000E-01;1163;  0.0000000E+00;  0.0000000E+00;  0.0000000E+00;  1.0003401E+03;  1.0000000E-01;  2.8176981E+02;0;  0.0000000E+00;  0.0000000E+00;  0.0000000E+00;0;  1.2310200E-01;  4.0000000E+04;  0.0000000E+00;  0.0000000E+00;  4.0000000E+04;  0.0000000E+00;  4.0000000E+04;  1.0945421E-01;  0.0000000E+00;  1.3647794E-02;  4.2141116E+02;
 -7.9999998E-02;  9.9999998E-03;  2.8999999E-01;1164;  0.0000000E+00;  0.0000000E+00;  0.0000000E+00;  1.0003399E+03;  1.0000000E-01;  2.8157230E+02;0;  0.0000000E+00;  0.0000000E+00;  0.0000000E+00;0;  9.7510368E-02;  4.0000000E+04;  0.0000000E+00;  0.0000000E+00;  4.0000000E+04;  0.0000000E+00;  4.0000000E+04;  8.3917223E-02;  0.0000000E+00;  1.3593141E-02;  2.9916006E+02;
 -7.9999998E-02;  9.9999998E-03;  3.0000001E-01;1165;  0.0000000E+00;  0.0000000E+00;  0.0000000E+00;  1.0003196E+03;  1.0000000E-01;  2.6478262E+02;0;  0.0000000E+00;  0.0000000E+00;  0.0000000E+00;0;  7.5594388E-02;  4.0000000E+04;  0.0000000E+00;  0.0000000E+00;  4.0000000E+04;  0.0000000E+00;  4.0000000E+04;  6.2572017E-02;  0.0000000E+00;  1.3022371E-02;  1.8058739E+02;
 -7.9999998E-02;  9.9999998E-03;  3.1000000E-01;1166;  0.0000000E+00;  0.0000000E+00;  0.0000000E+00;  1.0002870E+03;  1.0000000E-01;  2.3782043E+02;0;  0.0000000E+00;  0.0000000E+00;  0.0000000E+00;0;  5.7306442E-02;  4.0000000E+04;  0.0000000E+00;  0.0000000E+00;  4.0000000E+04;  0.0000000E+00;  4.0000000E+04;  4.5290098E-02;  0.0000000E+00;  1.2016346E-02;  7.6222069E+01;
 -7.9999998E-02;  9.9999998E-03;  3.1999999E-01;1167;  0.0000000E+00;  0.0000000E+00;  0.0000000E+00;  1.0002450E+03;  1.0000000E-01;  2.0295723E+02;0;  0.0000000E+00;  0.0000000E+00;  0.0000000E+00;0;  4.2449072E-02;  4.0000000E+04;  0.0000000E+00;  0.0000000E+00;  4.0000000E+04;  0.0000000E+00;  4.0000000E+04;  3.1755213E-02;  0.0000000E+00;  1.0693861E-02;  7.7556129E+00;
 -7.9999998E-02;  9.9999998E-03;  3.3000001E-01;1168;  0.0000000E+00;  0.0000000E+00;  0.0000000E+00;  1.0001979E+03;  1.0000000E-01;  1.6394598E+02;0;  0.0000000E+00;  0.0000000E+00;  0.0000000E+00;0;  3.0700386E-02;  4.0000000E+04;  0.0000000E+00;  0.0000000E+00;  4.0000000E+04;  0.0000000E+00;  4.0000000E+04;  2.1514978E-02;  0.0000000E+00;  9.1854073E-03;  6.5940376E+01;
 -7.9999998E-02;  9.9999998E-03;  3.4000000E-01;1169;  0.0000000E+00;  0.0000000E+00;  0.0000000E+00;  1.0001531E+03;  1.0000000E-01;  1.2681123E+02;0;  0.0000000E+00;  0.0000000E+00;  0.0000000E+00;0;  2.1650735E-02;  4.0000000E+04;  0.0000000E+00;  0.0000000E+00;  4.0000000E+04;  0.0000000E+00;  4.0000000E+04;  1.4040811E-02;  0.0000000E+00;  7.6099243E-03;  1.0105061E+02;
 -7.9999998E-02;  9.9999998E-03;  3.4999999E-01;1170;  0.0000000E+00;  0.0000000E+00;  0.0000000E+00;  1.0001139E+03;  1.0000000E-01;  9.4318321E+01;0;  0.0000000E+00;  0.0000000E+00;  0.0000000E+00;0;  1.4850840E-02;  4.0000000E+04;  0.0000000E+00;  0.0000000E+00;  4.0000000E+04;  0.0000000E+00;  4.0000000E+04;  8.7874969E-03;  0.0000000E+00;  6.0633426E-03;  1.1542233E+02;
 -7.9999998E-02;  9.9999998E-03;  3.6000001E-01;1171;  0.0000000E+00;  0.0000000E+00;  0.0000000E+00;  1.0000811E+03;  1.0000000E-01;  6.7158592E+01;0;  0.0000000E+00;  0.0000000E+00;  0.0000000E+00;0;  9.8592276E-03;  4.0000000E+04;  0.0000000E+00;  0.0000000E+00;  4.0000000E+04;  0.0000000E+00;  4.0000000E+04;  5.2413945E-03;  0.0000000E+00;  4.6178331E-03;  1.1327091E+02;
 -7.9999998E-02;  9.9999998E-03;  3.7000000E-01;1172;  0.0000000E+00;  0.0000000E+00;  0.0000000E+00;  1.0000530E+03;  1.0000000E-01;  4.3949375E+01;0;  0.0000000E+00;  0.0000000E+00;  0.0000000E+00;0;  6.2786355E-03;  4.0000000E+04;  0.0000000E+00;  0.0000000E+00;  4.0000000E+04;  0.0000000E+00;  4.0000000E+04;  2.9522756E-03;  0.0000000E+00;  3.3263599E-03;  9.9286789E+01;
 -7.9999998E-02;  9.9999998E-03;  3.8000000E-01;1173;  0.0000000E+00;  0.0000000E+00;  0.0000000E+00;  1.0000317E+03;  1.0000000E-01;  2.6270863E+01;0;  0.0000000E+00;  0.0000000E+00;  0.0000000E+00;0;  3.7766905E-03;  4.0000000E+04;  0.0000000E+00;  0.0000000E+00;  4.0000000E+04;  0.0000000E+00;  4.0000000E+04;  1.5487598E-03;  0.0000000E+00;  2.2279306E-03;  7.8197044E+01;
 -7.9999998E-02;  9.9999998E-03;  3.8999999E-01;1174;  0.0000000E+00;  0.0000000E+00;  0.0000000E+00;  1.0000135E+03;  1.0000000E-01;  1.1258941E+01;0;  0.0000000E+00;  0.0000000E+00;  0.0000000E+00;0;  2.0908390E-03;  4.0000000E+04;  0.0000000E+00;  0.0000000E+00;  4.0000000E+04;  0.0000000E+00;  4.0000000E+04;  7.4038556E-04;  0.0000000E+00;  1.3504534E-03;  5.4558990E+01;
 -7.9999998E-02;  9.9999998E-03;  4.0000001E-01;1175;  0.0000000E+00;  0.0000000E+00;  0.0000000E+00;  1.0000062E+03;  1.0000000E-01;  5.1356573E+00;0;  0.0000000E+00;  0.0000000E+00;  0.0000000E+00;0;  1.0204586E-03;  4.0000000E+04;  0.0000000E+00;  0.0000000E+00;  4.0000000E+04;  0.0000000E+00;  4.0000000E+04;  3.1122667E-04;  0.0000000E+00;  7.0923200E-04;  3.2544491E+01;
 -7.0000000E-02;  9.9999998E-03;  2.3999999E-01;1250;  0.0000000E+00;  0.0000000E+00;  0.0000000E+00;  1.0000057E+03;  1.0000000E-01;  4.7406068E+00;0;  0.0000000E+00;  0.0000000E+00;  0.0000000E+00;0;  3.5954344E-01;  4.0000000E+04;  0.0000000E+00;  0.0000000E+00;  4.0000000E+04;  0.0000000E+00;  4.0000000E+04;  3.4699988E-01;  0.0000000E+00;  1.2543557E-02;  1.0864473E+03;
 -7.0000000E-02;  9.9999998E-03;  2.5000000E-01;1251;  0.0000000E+00;  0.0000000E+00;  0.0000000E+00;  1.0001585E+03;  1.0000000E-01;  1.3135431E+02;0;  0.0000000E+00;  0.0000000E+00;  0.0000000E+00;0;  3.1009132E-01;  4.0000000E+04;  0.0000000E+00;  0.0000000E+00;  4.0000000E+04;  0.0000000E+00;  4.0000000E+04;  2.9448798E-01;  0.0000000E+00;  1.5603346E-02;  1.0688925E+03;
 -7.0000000E-02;  9.9999998E-03;  2.5999999E-01;1252;  0.0000000E+00;  0.0000000E+00;  0.0000000E+00;  1.0002755E+03;  1.0000000E-01;  2.2824046E+02;0;  0.0000000E+00;  0.0000000E+00;  0.0000000E+00;0;  2.6287055E-01;  4.0000000E+04;  0.0000000E+00;  0.0000000E+00;  4.0000000E+04;  0.0000000E+00;  4.0000000E+04;  2.4480790E-01;  0.0000000E+00;  1.8062662E-02;  9.9289429E+02;
 -7.0000000E-02;  9.9999998E-03;  2.7000001E-01;1253;  0.0000000E+00;  0.0000000E+00;  0.0000000E+00;  1.0003568E+03;  1.0000000E-01;  2.9559659E+02;0;  0.0000000E+00;  0.0000000E+00;  0.0000000E+00;0;  2.1886261E-01;  4.0000000E+04;  0.0000000E+00;  0.0000000E+00;  4.0000000E+04;  0.0000000E+00;  4.0000000E+04;  1.9906469E-01;  0.0000000E+00;  1.9797921E-02;  8.6798529E+02;
 -7.0000000E-02;  9.9999998E-03;  2.8000000E-01;1254;  0.0000000E+00;  0.0000000E+00;  0.0000000E+00;  1.0004019E+03;  1.0000000E-01;  3.3292886E+02;0;  0.0000000E+00;  0.0000000E+00;  0.0000000E+00;0;  1.7882435E-01;  4.0000000E+04;  0.0000000E+00;  0.0000000E+00;  4.0000000E+04;  0.0000000E+00;  4.0000000E+04;  1.5809520E-01;  0.0000000E+00;  2.0729154E-02;  7.0850812E+02;
 -7.0000000E-02;  9.9999998E-03;  2.8999999E-01;1255;  0.0000000E+00;  0.0000000E+00;  0.0000000E+00;  1.0004157E+03;  1.0000000E-01;  3.4438531E+02;0;  0.0000000E+00;  0.0000000E+00;  0.0000000E+00;0;  1.4325853E-01;  4.0000000E+04;  0.0000000E+00;  0.0000000E+00;  4.0000000E+04;  0.0000000E+00;  4.0000000E+04;  1.2243055E-01;  0.0000000E+00;  2.0827975E-02;  5.3172900E+02;
 -7.0000000E-02;  9.9999998E-03;  3.0000001E-01;1256;  0.0000000E+00;  0.0000000E+00;  0.0000000E+00;  1.0004016E+03;  1.0000000E-01;  3.3273132E+02;0;  0.0000000E+00;  0.0000000E+00;  0.0000000E+00;0;  1.1241437E-01;  4.0000000E+04;  0.0000000E+00;  0.0000000E+00;  4.0000000E+04;  0.0000000E+00;  4.0000000E+04;  9.2287078E-02;  0.0000000E+00;  2.0127291E-02;  3.5544211E+02;
 -7.0000000E-02;  9.9999998E-03;  3.1000000E-01;1257;  0.0000000E+00;  0.0000000E+00;  0.0000000E+00;  1.0003666E+03;  1.0000000E-01;  3.0369513E+02;0;  0.0000000E+00;  0.0000000E+00;  0.0000000E+00;0;  8.6322300E-02;  4.0000000E+04;  0.0000000E+00;  0.0000000E+00;  4.0000000E+04;  0.0000000E+00;  4.0000000E+04;  6.7584790E-02;  0.0000000E+00;  1.8737510E-02;  1.9548491E+02;
 -7.0000000E-02;  9.9999998E-03;  3.1999999E-01;1258;  0.0000000E+00;  0.0000000E+00;  0.0000000E+00;  1.0003190E+03;  1.0000000E-01;  2.6428882E+02;0;  0.0000000E+00;  0.0000000E+00;  0.0000000E+00;0;  6.4822741E-02;  4.0000000E+04;  0.0000000E+00;  0.0000000E+00;  4.0000000E+04;  0.0000000E+00;  4.0000000E+04;  4.7989052E-02;  0.0000000E+00;  1.6833691E-02;  6.3223331E+01;
 -7.0000000E-02;  9.9999998E-03;  3.3000001E-01;1259;  0.0000000E+00;  0.0000000E+00;  0.0000000E+00;  1.0002655E+03;  1.0000000E-01;  2.1994440E+02;0;  0.0000000E+00;  0.0000000E+00;  0.0000000E+00;0;  4.7581054E-02;  4.0000000E+04;  0.0000000E+00;  0.0000000E+00;  4.0000000E+04;  0.0000000E+00;  4.0000000E+04;  3.2965776E-02;  0.0000000E+00;  1.4615281E-02;  3.6334370E+01;
 -7.0000000E-02;  9.9999998E-03;  3.4000000E-01;1260;  0.0000000E+00;  0.0000000E+00;  0.0000000E+00;  1.0002095E+03;  1.0000000E-01;  1.7352596E+02;0;  0.0000000E+00;  0.0000000E+00;  0.0000000E+00;0;  3.4117792E-02;  4.0000000E+04;  0.0000000E+00;  0.0000000E+00;  4.0000000E+04;  0.0000000E+00;  4.0000000E+04;  2.1850523E-02;  0.0000000E+00;  1.2267268E-02;  1.0182280E+02;
 -7.0000000E-02;  9.9999998E-03;  3.4999999E-01;1261;  0.0000000E+00;  0.0000000E+00;  0.0000000E+00;  1.0001583E+03;  1.0000000E-01;  1.3115678E+02;0;  0.0000000E+00;  0.0000000E+00;  0.0000000E+00;0;  2.3863463E-02;  4.0000000E+04;  0.0000000E+00;  0.0000000E+00;  4.0000000E+04;  0.0000000E+00;  4.0000000E+04;  1.3925479E-02;  0.0000000E+00;  9.9379839E-03;  1.3713185E+02;
 -7.0000000E-02;  9.9999998E-03;  3.6000001E-01;1262;  0.0000000E+00;  0.0000000E+00;  0.0000000E+00;  1.0001149E+03;  1.0000000E-01;  9.5207184E+01;0;  0.0000000E+00;  0.0000000E+00;  0.0000000E+00;0;  1.6226970E-02;  4.0000000E+04;  0.0000000E+00;  0.0000000E+00;  4.0000000E+04;  0.0000000E+00;  4.0000000E+04;  8.4910011E-03;  0.0000000E+00;  7.7359681E-03;  1.4733206E+02;
 -7.0000000E-02;  9.9999998E-03;  3.7000000E-01;1263;  0.0000000E+00;  0.0000000E+00;  0.0000000E+00;  1.0000791E+03;  1.0000000E-01;  6.5578392E+01;0;  0.0000000E+00;  0.0000000E+00;  0.0000000E+00;0;  1.0655612E-02;  4.0000000E+04;  0.0000000E+00;  0.0000000E+00;  4.0000000E+04;  0.0000000E+00;  4.0000000E+04;  4.9178055E-03;  0.0000000E+00;  5.7378057E-03;  1.3836134E+02;
 -7.0000000E-02;  9.9999998E-03;  3.8000000E-01;1264;  0.0000000E+00;  0.0000000E+00;  0.0000000E+00;  1.0000507E+03;  1.0000000E-01;  4.1974121E+01;0;  0.0000000E+00;  0.0000000E+00;  0.0000000E+00;0;  6.6751102E-03;  4.0000000E+04;  0.0000000E+00;  0.0000000E+00;  4.0000000E+04;  0.0000000E+00;  4.0000000E+04;  2.6763328E-03;  0.0000000E+00;  3.9987774E-03;  1.1631603E+02;
 -7.0000000E-02;  9.9999998E-03;  3.8999999E-01;1265;  0.0000000E+00;  0.0000000E+00;  0.0000000E+00;  1.0000292E+03;  1.0000000E-01;  2.4196846E+01;0;  0.0000000E+00;  0.0000000E+00;  0.0000000E+00;0;  3.9067483E-03;  4.0000000E+04;  0.0000000E+00;  0.0000000E+00;  4.0000000E+04;  0.0000000E+00;  4.0000000E+04;  1.3456938E-03;  0.0000000E+00;  2.5610547E-03;  8.7233292E+01;
 -7.0000000E-02;  9.9999998E-03;  4.0000001E-01;1266;  0.0000000E+00;  0.0000000E+00;  0.0000000E+00;  1.0000121E+03;  1.0000000E-01;  9.9750261E+00;0;  0.0000000E+00;  0.0000000E+00;  0.0000000E+00;0;  2.0639314E-03;  4.0000000E+04;  0.0000000E+00;  0.0000000E+00;  4.0000000E+04;  0.0000000E+00;  4.0000000E+04;  6.0850539E-04;  0.0000000E+00;  1.4554261E-03;  5.6975632E+01;
 -5.9999999E-02;  9.9999998E-03;  2.3999999E-01;1341;  0.0000000E+00;  0.0000000E+00;  0.0000000E+00;  1.0000000E+03;  1.0000000E-01;  0.0000000E+00;0;  0.0000000E+00;  0.0000000E+00;  0.0000000E+00;0;  4.8251811E-01;  4.0000000E+04;  0.0000000E+00;  0.0000000E+00;  4.0000000E+04;  0.0000000E+00;  4.0000000E+04;  4.6519503E-01;  0.0000000E+00;  1.7323086E-02;  1.5820825E+03;
 -5.9999999E-02;  9.9999998E-03;  2.5000000E-01;1342;  0.0000000E+00;  0.0000000E+00;  0.0000000E+00;  1.0000703E+03;  1.0000000E-01;  5.8171196E+01;0;  0.0000000E+00;  0.0000000E+00;  0.0000000E+00;0;  4.1886985E-01;  4.0000000E+04;  0.0000000E+00;  0.0000000E+00;  4.0000000E+04;  0.0000000E+00;  4.0000000E+04;  3.9703026E-01;  0.0000000E+00;  2.1839604E-02;  1.5810851E+03;
 -5.9999999E-02;  9.9999998E-03;  2.5999999E-01;1343;  0.0000000E+00;  0.0000000E+00;  0.0000000E+00;  1.0002410E+03;  1.0000000E-01;  1.9959929E+02;0;  0.0000000E+00;  0.0000000E+00;  0.0000000E+00;0;  3.5770315E-01;  4.0000000E+04;  0.0000000E+00;  0.0000000E+00;  4.0000000E+04;  0.0000000E+00;  4.0000000E+04;  3.3215940E-01;  0.0000000E+00;  2.5543746E-02;  1.4955183E+03;
 -5.9999999E-02;  9.9999998E-03;  2.7000001E-01;1344;  0.0000000E+00;  0.0000000E+00;  0.0000000E+00;  1.0003647E+03;  1.0000000E-01;  3.0221368E+02;0;  0.0000000E+00;  0.0000000E+00;  0.0000000E+00;0;  3.0027127E-01;  4.0000000E+04;  0.0000000E+00;  0.0000000E+00;  4.0000000E+04;  0.0000000E+00;  4.0000000E+04;  2.7202299E-01;  0.0000000E+00;  2.8248273E-02;  1.3368641E+03;
 -5.9999999E-02;  9.9999998E-03;  2.8000000E-01;1345;  0.0000000E+00;  0.0000000E+00;  0.0000000E+00;  1.0004418E+03;  1.0000000E-01;  3.6601434E+02;0;  0.0000000E+00;  0.0000000E+00;  0.0000000E+00;0;  2.4756472E-01;  4.0000000E+04;  0.0000000E+00;  0.0000000E+00;  4.0000000E+04;  0.0000000E+00;  4.0000000E+04;  2.1774362E-01;  0.0000000E+00;  2.9821092E-02;  1.1238141E+03;
 -5.9999999E-02;  9.9999998E-03;  2.8999999E-01;1346;  0.0000000E+00;  0.0000000E+00;  0.0000000E+00;  1.0004765E+03;  1.0000000E-01;  3.9475427E+02;0;  0.0000000E+00;  0.0000000E+00;  0.0000000E+00;0;  2.0027590E-01;  4.0000000E+04;  0.0000000E+00;  0.0000000E+00;  4.0000000E+04;  0.0000000E+00;  4.0000000E+04;  1.7007723E-01;  0.0000000E+00;  3.0198662E-02;  8.7986841E+02;
 -5.9999999E-02;  9.9999998E-03;  3.0000001E-01;1347;  0.0000000E+00;  0.0000000E+00;  0.0000000E+00;  1.0004744E+03;  1.0000000E-01;  3.9307532E+02;0;  0.0000000E+00;  0.0000000E+00;  0.0000000E+00;0;  1.5880051E-01;  4.0000000E+04;  0.0000000E+00;  0.0000000E+00;  4.0000000E+04;  0.0000000E+00;  4.0000000E+04;  1.2939593E-01;  0.0000000E+00;  2.9404577E-02;  6.3000342E+02;
 -5.9999999E-02;  9.9999998E-03;  3.1000000E-01;1348;  0.0000000E+00;  0.0000000E+00;  0.0000000E+00;  1.0004435E+03;  1.0000000E-01;  3.6749579E+02;0;  0.0000000E+00;  0.0000000E+00;  0.0000000E+00;0;  1.2328251E-01;  4.0000000E+04;  0.0000000E+00;  0.0000000E+00;  4.0000000E+04;  0.0000000E+00;  4.0000000E+04;  9.5703065E-02;  0.0000000E+00;  2.7579440E-02;  3.9715533E+02;
 -5.9999999E-02;  9.9999998E-03;  3.1999999E-01;1349;  0.0000000E+00;  0.0000000E+00;  0.0000000E+00;  1.0003933E+03;  1.0000000E-01;  3.2581793E+02;0;  0.0000000E+00;  0.0000000E+00;  0.0000000E+00;0;  9.3641073E-02;  4.0000000E+04;  0.0000000E+00;  0.0000000E+00;  4.0000000E+04;  0.0000000E+00;  4.0000000E+04;  6.8673603E-02;  0.0000000E+00;  2.4967473E-02;  1.9839886E+02;
 -5.9999999E-02;  9.9999998E-03;  3.3000001E-01;1350;  0.0000000E+00;  0.0000000E+00;  0.0000000E+00;  1.0003320E+03;  1.0000000E-01;  2.7505396E+02;0;  0.0000000E+00;  0.0000000E+00;  0.0000000E+00;0;  6.9568247E-02;  4.0000000E+04;  0.0000000E+00;  0.0000000E+00;  4.0000000E+04;  0.0000000E+00;  4.0000000E+04;  4.7709659E-02;  0.0000000E+00;  2.1858592E-02;  4.3069378E+01;
 -5.9999999E-02;  9.9999998E-03;  3.4000000E-01;1351;  0.0000000E+00;  0.0000000E+00;  0.0000000E+00;  1.0002677E+03;  1.0000000E-01;  2.2182089E+02;0;  0.0000000E+00;  0.0000000E+00;  0.0000000E+00;0;  5.0543569E-02;  4.0000000E+04;  0.0000000E+00;  0.0000000E+00;  4.0000000E+04;  0.0000000E+00;  4.0000000E+04;  3.2015909E-02;  0.0000000E+00;  1.8527661E-02;  6.7635269E+01;
 -5.9999999E-02;  9.9999998E-03;  3.4999999E-01;1352;  0.0000000E+00;  0.0000000E+00;  0.0000000E+00;  1.0002064E+03;  1.0000000E-01;  1.7095813E+02;0;  0.0000000E+00;  0.0000000E+00;  0.0000000E+00;0;  3.5888173E-02;  4.0000000E+04;  0.0000000E+00;  0.0000000E+00;  4.0000000E+04;  0.0000000E+00;  4.0000000E+04;  2.0692073E-02;  0.0000000E+00;  1.5196101E-02;  1.3591992E+02;
 -5.9999999E-02;  9.9999998E-03;  3.6000001E-01;1353;  0.0000000E+00;  0.0000000E+00;  0.0000000E+00;  1.0001525E+03;  1.0000000E-01;  1.2631741E+02;0;  0.0000000E+00;  0.0000000E+00;  0.0000000E+00;0;  2.4850763E-02;  4.0000000E+04;  0.0000000E+00;  0.0000000E+00;  4.0000000E+04;  0.0000000E+00;  4.0000000E+04;  1.2828444E-02;  0.0000000E+00;  1.2022319E-02;  1.6837445E+02;
 -5.9999999E-02;  9.9999998E-03;  3.7000000E-01;1354;  0.0000000E+00;  0.0000000E+00;  0.0000000E+00;  1.0001071E+03;  1.0000000E-01;  8.8787613E+01;0;  0.0000000E+00;  0.0000000E+00;  0.0000000E+00;0;  1.6697705E-02;  4.0000000E+04;  0.0000000E+00;  0.0000000E+00;  4.0000000E+04;  0.0000000E+00;  4.0000000E+04;  7.5847250E-03;  0.0000000E+00;  9.1129793E-03;  1.7219658E+02;
 -5.9999999E-02;  9.9999998E-03;  3.8000000E-01;1355;  0.0000000E+00;  0.0000000E+00;  0.0000000E+00;  1.0000716E+03;  1.0000000E-01;  5.9356346E+01;0;  0.0000000E+00;  0.0000000E+00;  0.0000000E+00;0;  1.0780709E-02;  4.0000000E+04;  0.0000000E+00;  0.0000000E+00;  4.0000000E+04;  0.0000000E+00;  4.0000000E+04;  4.2394400E-03;  0.0000000E+00;  6.5412689E-03;  1.5490778E+02;
 -5.9999999E-02;  9.9999998E-03;  3.8999999E-01;1356;  0.0000000E+00;  0.0000000E+00;  0.0000000E+00;  1.0000416E+03;  1.0000000E-01;  3.4468163E+01;0;  0.0000000E+00;  0.0000000E+00;  0.0000000E+00;0;  6.5733530E-03;  4.0000000E+04;  0.0000000E+00;  0.0000000E+00;  4.0000000E+04;  0.0000000E+00;  4.0000000E+04;  2.2101041E-03;  0.0000000E+00;  4.3632486E-03;  1.2406613E+02;
 -5.9999999E-02;  9.9999998E-03;  4.0000001E-01;1357;  0.0000000E+00;  0.0000000E+00;  0.0000000E+00;  1.0000261E+03;  1.0000000E-01;  2.1629019E+01;0;  0.0000000E+00;  0.0000000E+00;  0.0000000E+00;0;  3.6777218E-03;  4.0000000E+04;  0.0000000E+00;  0.0000000E+00;  4.0000000E+04;  0.0000000E+00;  4.0000000E+04;  1.0518648E-03;  0.0000000E+00;  2.6258570E-03;  8.7283394E+01;
 -5.0000001E-02;  9.9999998E-03;  2.3999999E-01;1432;  0.0000000E+00;  0.0000000E+00;  0.0000000E+00;  1.0000000E+03;  1.0000000E-01;  0.0000000E+00;0;  0.0000000E+00;  0.0000000E+00;  0.0000000E+00;0;  6.2176538E-01;  4.0000000E+04;  0.0000000E+00;  0.0000000E+00;  4.0000000E+04;  0.0000000E+00;  4.0000000E+04;  5.9892595E-01;  0.0000000E+00;  2.2839434E-02;  2.2105229E+03;
 -5.0000001E-02;  9.9999998E-03;  2.5000000E-01;1433;  0.0000000E+00;  0.0000000E+00;  0.0000000E+00;  1.0000000E+03;  1.0000000E-01;  0.0000000E+00;0;  0.0000000E+00;  0.0000000E+00;  0.0000000E+00;0;  5.4300123E-01;  4.0000000E+04;  0.0000000E+00;  0.0000000E+00;  4.0000000E+04;  0.0000000E+00;  4.0000000E+04;  5.1381576E-01;  0.0000000E+00;  2.9185452E-02;  2.2433884E+03;
 -5.0000001E-02;  9.9999998E-03;  2.5999999E-01;1434;  0.0000000E+00;  0.0000000E+00;  0.0000000E+00;  1.0001440E+03;  1.0000000E-01;  1.1930527E+02;0;  0.0000000E+00;  0.0000000E+00;  0.0000000E+00;0;  4.6683061E-01;  4.0000000E+04;  0.0000000E+00;  0.0000000E+00;  4.0000000E+04;  0.0000000E+00;  4.0000000E+04;  4.3234885E-01;  0.0000000E+00;  3.4481771E-02;  2.1580774E+03;
 -5.0000001E-02;  9.9999998E-03;  2.7000001E-01;1435;  0.0000000E+00;  0.0000000E+00;  0.0000000E+00;  1.0003224E+03;  1.0000000E-01;  2.6715292E+02;0;  0.0000000E+00;  0.0000000E+00;  0.0000000E+00;0;  3.9480084E-01;  4.0000000E+04;  0.0000000E+00;  0.0000000E+00;  4.0000000E+04;  0.0000000E+00;  4.0000000E+04;  3.5633865E-01;  0.0000000E+00;  3.8462177E-02;  1.9675135E+03;
 -5.0000001E-02;  9.9999998E-03;  2.8000000E-01;1436;  0.0000000E+00;  0.0000000E+00;  0.0000000E+00;  1.0004434E+03;  1.0000000E-01;  3.6729825E+02;0;  0.0000000E+00;  0.0000000E+00;  0.0000000E+00;0;  3.2815814E-01;  4.0000000E+04;  0.0000000E+00;  0.0000000E+00;  4.0000000E+04;  0.0000000E+00;  4.0000000E+04;  2.8723428E-01;  0.0000000E+00;  4.0923860E-02;  1.6951376E+03;
 -5.0000001E-02;  9.9999998E-03;  2.8999999E-01;1437;  0.0000000E+00;  0.0000000E+00;  0.0000000E+00;  1.0005081E+03;  1.0000000E-01;  4.2092636E+02;0;  0.0000000E+00;  0.0000000E+00;  0.0000000E+00;0;  2.6780587E-01;  4.0000000E+04;  0.0000000E+00;  0.0000000E+00;  4.0000000E+04;  0.0000000E+00;  4.0000000E+04;  2.2605819E-01;  0.0000000E+00;  4.1747686E-02;  1.3719843E+03;
 -5.0000001E-02;  9.9999998E-03;  3.0000001E-01;1438;  0.0000000E+00;  0.0000000E+00;  0.0000000E+00;  1.0005266E+03;  1.0000000E-01;  4.3623459E+02;0;  0.0000000E+00;  0.0000000E+00;  0.0000000E+00;0;  2.1431309E-01;  4.0000000E+04;  0.0000000E+00;  0.0000000E+00;  4.0000000E+04;  0.0000000E+00;  4.0000000E+04;  1.7338227E-01;  0.0000000E+00;  4.0930822E-02;  1.0321560E+03;
 -5.0000001E-02;  9.9999998E-03;  3.1000000E-01;1439;  0.0000000E+00;  0.0000000E+00;  0.0000000E+00;  1.0005053E+03;  1.0000000E-01;  4.1865482E+02;0;  0.0000000E+00;  0.0000000E+00;  0.0000000E+00;0;  1.6797662E-01;  4.0000000E+04;  0.0000000E+00;  0.0000000E+00;  4.0000000E+04;  0.0000000E+00;  4.0000000E+04;  1.2933677E-01;  0.0000000E+00;  3.8639836E-02;  7.0779376E+02;
 -5.0000001E-02;  9.9999998E-03;  3.1999999E-01;1440;  0.0000000E+00;  0.0000000E+00;  0.0000000E+00;  1.0004567E+03;  1.0000000E-01;  3.7835968E+02;0;  0.0000000E+00;  0.0000000E+00;  0.0000000E+00;0;  1.2884501E-01;  4.0000000E+04;  0.0000000E+00;  0.0000000E+00;  4.0000000E+04;  0.0000000E+00;  4.0000000E+04;  9.3644753E-02;  0.0000000E+00;  3.5200249E-02;  4.2353436E+02;
 -5.0000001E-02;  9.9999998E-03;  3.3000001E-01;1441;  0.0000000E+00;  0.0000000E+00;  0.0000000E+00;  1.0003940E+03;  1.0000000E-01;  3.2641052E+02;0;  0.0000000E+00;  0.0000000E+00;  0.0000000E+00;0;  9.6690893E-02;  4.0000000E+04;  0.0000000E+00;  0.0000000E+00;  4.0000000E+04;  0.0000000E+00;  4.0000000E+04;  6.5674104E-02;  0.0000000E+00;  3.1016789E-02;  1.9346487E+02;
 -5.0000001E-02;  9.9999998E-03;  3.4000000E-01;1442;  0.0000000E+00;  0.0000000E+00;  0.0000000E+00;  1.0003222E+03;  1.0000000E-01;  2.6695541E+02;0;  0.0000000E+00;  0.0000000E+00;  0.0000000E+00;0;  7.0998751E-02;  4.0000000E+04;  0.0000000E+00;  0.0000000E+00;  4.0000000E+04;  0.0000000E+00;  4.0000000E+04;  4.4515990E-02;  0.0000000E+00;  2.6482759E-02;  2.2107325E+01;
 -5.0000001E-02;  9.9999998E-03;  3.4999999E-01;1443;  0.0000000E+00;  0.0000000E+00;  0.0000000E+00;  1.0002527E+03;  1.0000000E-01;  2.0937680E+02;0;  0.0000000E+00;  0.0000000E+00;  0.0000000E+00;0;  5.1007930E-02;  4.0000000E+04;  0.0000000E+00;  0.0000000E+00;  4.0000000E+04;  0.0000000E+00;  4.0000000E+04;  2.9090269E-02;  0.0000000E+00;  2.1917662E-02;  9.4556564E+01;
 -5.0000001E-02;  9.9999998E-03;  3.6000001E-01;1444;  0.0000000E+00;  0.0000000E+00;  0.0000000E+00;  1.0001892E+03;  1.0000000E-01;  1.5673631E+02;0;  0.0000000E+00;  0.0000000E+00;  0.0000000E+00;0;  3.5812467E-02;  4.0000000E+04;  0.0000000E+00;  0.0000000E+00;  4.0000000E+04;  0.0000000E+00;  4.0000000E+04;  1.8265238E-02;  0.0000000E+00;  1.7547227E-02;  1.6195094E+02;
 -5.0000001E-02;  9.9999998E-03;  3.7000000E-01;1445;  0.0000000E+00;  0.0000000E+00;  0.0000000E+00;  1.0001348E+03;  1.0000000E-01;  1.1160178E+02;0;  0.0000000E+00;  0.0000000E+00;  0.0000000E+00;0;  2.4482338E-02;  4.0000000E+04;  0.0000000E+00;  0.0000000E+00;  4.0000000E+04;  0.0000000E+00;  4.0000000E+04;  1.0965857E-02;  0.0000000E+00;  1.3516481E-02;  1.8913412E+02;
 -5.0000001E-02;  9.9999998E-03;  3.8000000E-01;1446;  0.0000000E+00;  0.0000000E+00;  0.0000000E+00;  1.0000924E+03;  1.0000000E-01;  7.6541046E+01;0;  0.0000000E+00;  0.0000000E+00;  0.0000000E+00;0;  1.6167702E-02;  4.0000000E+04;  0.0000000E+00;  0.0000000E+00;  4.0000000E+04;  0.0000000E+00;  4.0000000E+04;  6.2497091E-03;  0.0000000E+00;  9.9179931E-03;  1.8503395E+02;
 -5.0000001E-02;  9.9999998E-03;  3.8999999E-01;1447;  0.0000000E+00;  0.0000000E+00;  0.0000000E+00;  1.0000599E+03;  1.0000000E-01;  4.9677608E+01;0;  0.0000000E+00;  0.0000000E+00;  0.0000000E+00;0;  1.0163438E-02;  4.0000000E+04;  0.0000000E+00;  0.0000000E+00;  4.0000000E+04;  0.0000000E+00;  4.0000000E+04;  3.3437451E-03;  0.0000000E+00;  6.8196929E-03;  1.5870511E+02;
 -5.0000001E-02;  9.9999998E-03;  4.0000001E-01;1448;  0.0000000E+00;  0.0000000E+00;  0.0000000E+00;  1.0000361E+03;  1.0000000E-01;  2.9925079E+01;0;  0.0000000E+00;  0.0000000E+00;  0.0000000E+00;0;  5.9328759E-03;  4.0000000E+04;  0.0000000E+00;  0.0000000E+00;  4.0000000E+04;  0.0000000E+00;  4.0000000E+04;  1.6502027E-03;  0.0000000E+00;  4.2826734E-03;  1.1948205E+02;
 -3.9999999E-02;  9.9999998E-03;  2.3999999E-01;1523;  0.0000000E+00;  0.0000000E+00;  0.0000000E+00;  1.0000000E+03;  1.0000000E-01;  0.0000000E+00;0;  0.0000000E+00;  0.0000000E+00;  0.0000000E+00;0;  7.7014607E-01;  4.0000000E+04;  0.0000000E+00;  0.0000000E+00;  4.0000000E+04;  0.0000000E+00;  4.0000000E+04;  7.4132550E-01;  0.0000000E+00;  2.8820569E-02;  2.9748018E+03;
 -3.9999999E-02;  9.9999998E-03;  2.5000000E-01;1524;  0.0000000E+00;  0.0000000E+00;  0.0000000E+00;  1.0000000E+03;  1.0000000E-01;  0.0000000E+00;0;  0.0000000E+00;  0.0000000E+00;  0.0000000E+00;0;  6.7652458E-01;  4.0000000E+04;  0.0000000E+00;  0.0000000E+00;  4.0000000E+04;  0.0000000E+00;  4.0000000E+04;  6.3916206E-01;  0.0000000E+00;  3.7362494E-02;  3.0654966E+03;
 -3.9999999E-02;  9.9999998E-03;  2.5999999E-01;1525;  0.0000000E+00;  0.0000000E+00;  0.0000000E+00;  1.0000000E+03;  1.0000000E-01;  0.0000000E+00;0;  0.0000000E+00;  0.0000000E+00;  0.0000000E+00;0;  5.8538622E-01;  4.0000000E+04;  0.0000000E+00;  0.0000000E+00;  4.0000000E+04;  0.0000000E+00;  4.0000000E+04;  5.4077822E-01;  0.0000000E+00;  4.4607982E-02;  2.9963450E+03;
 -3.9999999E-02;  9.9999998E-03;  2.7000001E-01;1526;  0.0000000E+00;  0.0000000E+00;  0.0000000E+00;  1.0002126E+03;  1.0000000E-01;  1.7609378E+02;0;  0.0000000E+00;  0.0000000E+00;  0.0000000E+00;0;  4.9857727E-01;  4.0000000E+04;  0.0000000E+00;  0.0000000E+00;  4.0000000E+04;  0.0000000E+00;  4.0000000E+04;  4.4837931E-01;  0.0000000E+00;  5.0197951E-02;  2.7806160E+03;
 -3.9999999E-02;  9.9999998E-03;  2.8000000E-01;1527;  0.0000000E+00;  0.0000000E+00;  0.0000000E+00;  1.0003866E+03;  1.0000000E-01;  3.2028723E+02;0;  0.0000000E+00;  0.0000000E+00;  0.0000000E+00;0;  4.1760594E-01;  4.0000000E+04;  0.0000000E+00;  0.0000000E+00;  4.0000000E+04;  0.0000000E+00;  4.0000000E+04;  3.6376807E-01;  0.0000000E+00;  5.3837854E-02;  2.4464976E+03;
 -3.9999999E-02;  9.9999998E-03;  2.8999999E-01;1528;  0.0000000E+00;  0.0000000E+00;  0.0000000E+00;  1.0004942E+03;  1.0000000E-01;  4.0946991E+02;0;  0.0000000E+00;  0.0000000E+00;  0.0000000E+00;0;  3.4359702E-01;  4.0000000E+04;  0.0000000E+00;  0.0000000E+00;  4.0000000E+04;  0.0000000E+00;  4.0000000E+04;  2.8827289E-01;  0.0000000E+00;  5.5324133E-02;  2.0338857E+03;
 -3.9999999E-02;  9.9999998E-03;  3.0000001E-01;1529;  0.0000000E+00;  0.0000000E+00;  0.0000000E+00;  1.0005399E+03;  1.0000000E-01;  4.4729599E+02;0;  0.0000000E+00;  0.0000000E+00;  0.0000000E+00;0;  2.7731338E-01;  4.0000000E+04;  0.0000000E+00;  0.0000000E+00;  4.0000000E+04;  0.0000000E+00;  4.0000000E+04;  2.2271353E-01;  0.0000000E+00;  5.4599848E-02;  1.5882891E+03;
 -3.9999999E-02;  9.9999998E-03;  3.1000000E-01;1530;  0.0000000E+00;  0.0000000E+00;  0.0000000E+00;  1.0005389E+03;  1.0000000E-01;  4.4640714E+02;0;  0.0000000E+00;  0.0000000E+00;  0.0000000E+00;0;  2.1924624E-01;  4.0000000E+04;  0.0000000E+00;  0.0000000E+00;  4.0000000E+04;  0.0000000E+00;  4.0000000E+04;  1.6740163E-01;  0.0000000E+00;  5.1844619E-02;  1.1535613E+03;
 -3.9999999E-02;  9.9999998E-03;  3.1999999E-01;1531;  0.0000000E+00;  0.0000000E+00;  0.0000000E+00;  1.0004996E+03;  1.0000000E-01;  4.1391422E+02;0;  0.0000000E+00;  0.0000000E+00;  0.0000000E+00;0;  1.6963747E-01;  4.0000000E+04;  0.0000000E+00;  0.0000000E+00;  4.0000000E+04;  0.0000000E+00;  4.0000000E+04;  1.2216132E-01;  0.0000000E+00;  4.7476150E-02;  7.6386621E+02;
 -3.9999999E-02;  9.9999998E-03;  3.3000001E-01;1532;  0.0000000E+00;  0.0000000E+00;  0.0000000E+00;  1.0004379E+03;  1.0000000E-01;  3.6275516E+02;0;  0.0000000E+00;  0.0000000E+00;  0.0000000E+00;0;  1.2841313E-01;  4.0000000E+04;  0.0000000E+00;  0.0000000E+00;  4.0000000E+04;  0.0000000E+00;  4.0000000E+04;  8.6370789E-02;  0.0000000E+00;  4.2042334E-02;  4.3946036E+02;
 -3.9999999E-02;  9.9999998E-03;  3.4000000E-01;1533;  0.0000000E+00;  0.0000000E+00;  0.0000000E+00;  1.0003651E+03;  1.0000000E-01;  3.0250995E+02;0;  0.0000000E+00;  0.0000000E+00;  0.0000000E+00;0;  9.5127881E-02;  4.0000000E+04;  0.0000000E+00;  0.0000000E+00;  4.0000000E+04;  0.0000000E+00;  4.0000000E+04;  5.9039757E-02;  0.0000000E+00;  3.6088124E-02;  1.8766580E+02;
 -3.9999999E-02;  9.9999998E-03;  3.4999999E-01;1534;  0.0000000E+00;  0.0000000E+00;  0.0000000E+00;  1.0002908E+03;  1.0000000E-01;  2.4088208E+02;0;  0.0000000E+00;  0.0000000E+00;  0.0000000E+00;0;  6.8987206E-02;  4.0000000E+04;  0.0000000E+00;  0.0000000E+00;  4.0000000E+04;  0.0000000E+00;  4.0000000E+04;  3.8926937E-02;  0.0000000E+00;  3.0060265E-02;  7.3772225E+00;
 -3.9999999E-02;  9.9999998E-03;  3.6000001E-01;1535;  0.0000000E+00;  0.0000000E+00;  0.0000000E+00;  1.0002216E+03;  1.0000000E-01;  1.8359975E+02;0;  0.0000000E+00;  0.0000000E+00;  0.0000000E+00;0;  4.8954744E-02;  4.0000000E+04;  0.0000000E+00;  0.0000000E+00;  4.0000000E+04;  0.0000000E+00;  4.0000000E+04;  2.4682814E-02;  0.0000000E+00;  2.4271930E-02;  1.1126453E+02;
 -3.9999999E-02;  9.9999998E-03;  3.7000000E-01;1536;  0.0000000E+00;  0.0000000E+00;  0.0000000E+00;  1.0001620E+03;  1.0000000E-01;  1.3421843E+02;0;  0.0000000E+00;  0.0000000E+00;  0.0000000E+00;0;  3.3905536E-02;  4.0000000E+04;  0.0000000E+00;  0.0000000E+00;  4.0000000E+04;  0.0000000E+00;  4.0000000E+04;  1.4988846E-02;  0.0000000E+00;  1.8916689E-02;  1.7507768E+02;
 -3.9999999E-02;  9.9999998E-03;  3.8000000E-01;1537;  0.0000000E+00;  0.0000000E+00;  0.0000000E+00;  1.0001122E+03;  1.0000000E-01;  9.2935646E+01;0;  0.0000000E+00;  0.0000000E+00;  0.0000000E+00;0;  2.2771906E-02;  4.0000000E+04;  0.0000000E+00;  0.0000000E+00;  4.0000000E+04;  0.0000000E+00;  4.0000000E+04;  8.6634597E-03;  0.0000000E+00;  1.4108446E-02;  1.9531487E+02;
 -3.9999999E-02;  9.9999998E-03;  3.8999999E-01;1538;  0.0000000E+00;  0.0000000E+00;  0.0000000E+00;  1.0000735E+03;  1.0000000E-01;  6.0936546E+01;0;  0.0000000E+00;  0.0000000E+00;  0.0000000E+00;0;  1.4645161E-02;  4.0000000E+04;  0.0000000E+00;  0.0000000E+00;  4.0000000E+04;  0.0000000E+00;  4.0000000E+04;  4.7211745E-03;  0.0000000E+00;  9.9239862E-03;  1.8245410E+02;
 -3.9999999E-02;  9.9999998E-03;  4.0000001E-01;1539;  0.0000000E+00;  0.0000000E+00;  0.0000000E+00;  1.0000455E+03;  1.0000000E-01;  3.7727329E+01;0;  0.0000000E+00;  0.0000000E+00;  0.0000000E+00;0;  8.8242311E-03;  4.0000000E+04;  0.0000000E+00;  0.0000000E+00;  4.0000000E+04;  0.0000000E+00;  4.0000000E+04;  2.3900019E-03;  0.0000000E+00;  6.4342297E-03;  1.4745193E+02;
 -2.9999999E-02;  9.9999998E-03;  2.3999999E-01;1614;  0.0000000E+00;  0.0000000E+00;  0.0000000E+00;  1.0000000E+03;  1.0000000E-01;  0.0000000E+00;0;  0.0000000E+00;  0.0000000E+00;  0.0000000E+00;0;  9.1709763E-01;  4.0000000E+04;  0.0000000E+00;  0.0000000E+00;  4.0000000E+04;  0.0000000E+00;  4.0000000E+04;  8.8226962E-01;  0.0000000E+00;  3.4827985E-02;  3.8655474E+03;
 -2.9999999E-02;  9.9999998E-03;  2.5000000E-01;1615;  0.0000000E+00;  0.0000000E+00;  0.0000000E+00;  1.0000000E+03;  1.0000000E-01;  0.0000000E+00;0;  0.0000000E+00;  0.0000000E+00;  0.0000000E+00;0;  8.1049377E-01;  4.0000000E+04;  0.0000000E+00;  0.0000000E+00;  4.0000000E+04;  0.0000000E+00;  4.0000000E+04;  7.6460153E-01;  0.0000000E+00;  4.5892239E-02;  4.0453442E+03;
 -2.9999999E-02;  9.9999998E-03;  2.5999999E-01;1616;  0.0000000E+00;  0.0000000E+00;  0.0000000E+00;  1.0000000E+03;  1.0000000E-01;  0.0000000E+00;0;  0.0000000E+00;  0.0000000E+00;  0.0000000E+00;0;  7.0593345E-01;  4.0000000E+04;  0.0000000E+00;  0.0000000E+00;  4.0000000E+04;  0.0000000E+00;  4.0000000E+04;  6.5050554E-01;  0.0000000E+00;  5.5427916E-02;  4.0156453E+03;
 -2.9999999E-02;  9.9999998E-03;  2.7000001E-01;1617;  0.0000000E+00;  0.0000000E+00;  0.0000000E+00;  1.0000124E+03;  1.0000000E-01;  1.0271315E+01;0;  0.0000000E+00;  0.0000000E+00;  0.0000000E+00;0;  6.0554218E-01;  4.0000000E+04;  0.0000000E+00;  0.0000000E+00;  4.0000000E+04;  0.0000000E+00;  4.0000000E+04;  5.4256910E-01;  0.0000000E+00;  6.2973082E-02;  3.7881106E+03;
 -2.9999999E-02;  9.9999998E-03;  2.8000000E-01;1618;  0.0000000E+00;  0.0000000E+00;  0.0000000E+00;  1.0002535E+03;  1.0000000E-01;  2.1006813E+02;0;  0.0000000E+00;  0.0000000E+00;  0.0000000E+00;0;  5.1108235E-01;  4.0000000E+04;  0.0000000E+00;  0.0000000E+00;  4.0000000E+04;  0.0000000E+00;  4.0000000E+04;  4.4296294E-01;  0.0000000E+00;  6.8119429E-02;  3.3949089E+03;
 -2.9999999E-02;  9.9999998E-03;  2.8999999E-01;1619;  0.0000000E+00;  0.0000000E+00;  0.0000000E+00;  1.0004136E+03;  1.0000000E-01;  3.4270636E+02;0;  0.0000000E+00;  0.0000000E+00;  0.0000000E+00;0;  4.2389286E-01;  4.0000000E+04;  0.0000000E+00;  0.0000000E+00;  4.0000000E+04;  0.0000000E+00;  4.0000000E+04;  3.5335174E-01;  0.0000000E+00;  7.0541099E-02;  2.8858740E+03;
 -2.9999999E-02;  9.9999998E-03;  3.0000001E-01;1620;  0.0000000E+00;  0.0000000E+00;  0.0000000E+00;  1.0005015E+03;  1.0000000E-01;  4.1549442E+02;0;  0.0000000E+00;  0.0000000E+00;  0.0000000E+00;0;  3.4494078E-01;  4.0000000E+04;  0.0000000E+00;  0.0000000E+00;  4.0000000E+04;  0.0000000E+00;  4.0000000E+04;  2.7485877E-01;  0.0000000E+00;  7.0082009E-02;  2.3206807E+03;
 -2.9999999E-02;  9.9999998E-03;  3.1000000E-01;1621;  0.0000000E+00;  0.0000000E+00;  0.0000000E+00;  1.0005279E+03;  1.0000000E-01;  4.3732095E+02;0;  0.0000000E+00;  0.0000000E+00;  0.0000000E+00;0;  2.7495420E-01;  4.0000000E+04;  0.0000000E+00;  0.0000000E+00;  4.0000000E+04;  0.0000000E+00;  4.0000000E+04;  2.0804471E-01;  0.0000000E+00;  6.6909485E-02;  1.7578536E+03;
 -2.9999999E-02;  9.9999998E-03;  3.1999999E-01;1622;  0.0000000E+00;  0.0000000E+00;  0.0000000E+00;  1.0005076E+03;  1.0000000E-01;  4.2053131E+02;0;  0.0000000E+00;  0.0000000E+00;  0.0000000E+00;0;  2.1444836E-01;  4.0000000E+04;  0.0000000E+00;  0.0000000E+00;  4.0000000E+04;  0.0000000E+00;  4.0000000E+04;  1.5290594E-01;  0.0000000E+00;  6.1542429E-02;  1.2430868E+03;
 -2.9999999E-02;  9.9999998E-03;  3.3000001E-01;1623;  0.0000000E+00;  0.0000000E+00;  0.0000000E+00;  1.0004567E+03;  1.0000000E-01;  3.7835968E+02;0;  0.0000000E+00;  0.0000000E+00;  0.0000000E+00;0;  1.6359915E-01;  4.0000000E+04;  0.0000000E+00;  0.0000000E+00;  4.0000000E+04;  0.0000000E+00;  4.0000000E+04;  1.0889310E-01;  0.0000000E+00;  5.4706052E-02;  8.0402679E+02;
 -2.9999999E-02;  9.9999998E-03;  3.4000000E-01;1624;  0.0000000E+00;  0.0000000E+00;  0.0000000E+00;  1.0003870E+03;  1.0000000E-01;  3.2068228E+02;0;  0.0000000E+00;  0.0000000E+00;  0.0000000E+00;0;  1.2211983E-01;  4.0000000E+04;  0.0000000E+00;  0.0000000E+00;  4.0000000E+04;  0.0000000E+00;  4.0000000E+04;  7.4983627E-02;  0.0000000E+00;  4.7136202E-02;  4.5201288E+02;
 -2.9999999E-02;  9.9999998E-03;  3.4999999E-01;1625;  0.0000000E+00;  0.0000000E+00;  0.0000000E+00;  1.0003143E+03;  1.0000000E-01;  2.6033832E+02;0;  0.0000000E+00;  0.0000000E+00;  0.0000000E+00;0;  8.9249521E-02;  4.0000000E+04;  0.0000000E+00;  0.0000000E+00;  4.0000000E+04;  0.0000000E+00;  4.0000000E+04;  4.9811244E-02;  0.0000000E+00;  3.9438274E-02;  1.8678342E+02;
 -2.9999999E-02;  9.9999998E-03;  3.6000001E-01;1626;  0.0000000E+00;  0.0000000E+00;  0.0000000E+00;  1.0002418E+03;  1.0000000E-01;  2.0038939E+02;0;  0.0000000E+00;  0.0000000E+00;  0.0000000E+00;0;  6.3866228E-02;  4.0000000E+04;  0.0000000E+00;  0.0000000E+00;  4.0000000E+04;  0.0000000E+00;  4.0000000E+04;  3.1832855E-02;  0.0000000E+00;  3.2033369E-02;  3.1288435E+00;
 -2.9999999E-02;  9.9999998E-03;  3.7000000E-01;1627;  0.0000000E+00;  0.0000000E+00;  0.0000000E+00;  1.0001792E+03;  1.0000000E-01;  1.4844025E+02;0;  0.0000000E+00;  0.0000000E+00;  0.0000000E+00;0;  4.4671886E-02;  4.0000000E+04;  0.0000000E+00;  0.0000000E+00;  4.0000000E+04;  0.0000000E+00;  4.0000000E+04;  1.9497318E-02;  0.0000000E+00;  2.5174566E-02;  1.1499428E+02;
 -2.9999999E-02;  9.9999998E-03;  3.8000000E-01;1628;  0.0000000E+00;  0.0000000E+00;  0.0000000E+00;  1.0001277E+03;  1.0000000E-01;  1.0587355E+02;0;  0.0000000E+00;  0.0000000E+00;  0.0000000E+00;0;  3.0382408E-02;  4.0000000E+04;  0.0000000E+00;  0.0000000E+00;  4.0000000E+04;  0.0000000E+00;  4.0000000E+04;  1.1382831E-02;  0.0000000E+00;  1.8999577E-02;  1.7319440E+02;
 -2.9999999E-02;  9.9999998E-03;  3.8999999E-01;1629;  0.0000000E+00;  0.0000000E+00;  0.0000000E+00;  1.0000847E+03;  1.0000000E-01;  7.0220238E+01;0;  0.0000000E+00;  0.0000000E+00;  0.0000000E+00;0;  1.9873096E-02;  4.0000000E+04;  0.0000000E+00;  0.0000000E+00;  4.0000000E+04;  0.0000000E+00;  4.0000000E+04;  6.2819277E-03;  0.0000000E+00;  1.3591168E-02;  1.8525595E+02;
 -2.9999999E-02;  9.9999998E-03;  4.0000001E-01;1630;  0.0000000E+00;  0.0000000E+00;  0.0000000E+00;  1.0000554E+03;  1.0000000E-01;  4.5924625E+01;0;  0.0000000E+00;  0.0000000E+00;  0.0000000E+00;0;  1.2259880E-02;  4.0000000E+04;  0.0000000E+00;  0.0000000E+00;  4.0000000E+04;  0.0000000E+00;  4.0000000E+04;  3.2351282E-03;  0.0000000E+00;  9.0247523E-03;  1.6362138E+02;
 -2.0000000E-02;  9.9999998E-03;  2.3999999E-01;1705;  0.0000000E+00;  0.0000000E+00;  0.0000000E+00;  1.0000000E+03;  1.0000000E-01;  0.0000000E+00;0;  0.0000000E+00;  0.0000000E+00;  0.0000000E+00;0;  1.0498264E+00;  4.0000000E+04;  0.0000000E+00;  0.0000000E+00;  4.0000000E+04;  0.0000000E+00;  4.0000000E+04;  1.0095857E+00;  0.0000000E+00;  4.0240616E-02;  4.8566074E+03;
 -2.0000000E-02;  9.9999998E-03;  2.5000000E-01;1706;  0.0000000E+00;  0.0000000E+00;  0.0000000E+00;  1.0000000E+03;  1.0000000E-01;  0.0000000E+00;0;  0.0000000E+00;  0.0000000E+00;  0.0000000E+00;0;  9.3399942E-01;  4.0000000E+04;  0.0000000E+00;  0.0000000E+00;  4.0000000E+04;  0.0000000E+00;  4.0000000E+04;  8.7992334E-01;  0.0000000E+00;  5.4076076E-02;  5.1643184E+03;
 -2.0000000E-02;  9.9999998E-03;  2.5999999E-01;1707;  0.0000000E+00;  0.0000000E+00;  0.0000000E+00;  1.0000000E+03;  1.0000000E-01;  0.0000000E+00;0;  0.0000000E+00;  0.0000000E+00;  0.0000000E+00;0;  8.1932020E-01;  4.0000000E+04;  0.0000000E+00;  0.0000000E+00;  4.0000000E+04;  0.0000000E+00;  4.0000000E+04;  7.5312364E-01;  0.0000000E+00;  6.6196561E-02;  5.2061206E+03;
 -2.0000000E-02;  9.9999998E-03;  2.7000001E-01;1708;  0.0000000E+00;  0.0000000E+00;  0.0000000E+00;  1.0000000E+03;  1.0000000E-01;  0.0000000E+00;0;  0.0000000E+00;  0.0000000E+00;  0.0000000E+00;0;  7.0815307E-01;  4.0000000E+04;  0.0000000E+00;  0.0000000E+00;  4.0000000E+04;  0.0000000E+00;  4.0000000E+04;  6.3212001E-01;  0.0000000E+00;  7.6033048E-02;  4.9890054E+03;
 -2.0000000E-02;  9.9999998E-03;  2.8000000E-01;1709;  0.0000000E+00;  0.0000000E+00;  0.0000000E+00;  1.0000253E+03;  1.0000000E-01;  2.0937679E+01;0;  0.0000000E+00;  0.0000000E+00;  0.0000000E+00;0;  6.0248762E-01;  4.0000000E+04;  0.0000000E+00;  0.0000000E+00;  4.0000000E+04;  0.0000000E+00;  4.0000000E+04;  5.1944363E-01;  0.0000000E+00;  8.3044000E-02;  4.5469595E+03;
 -2.0000000E-02;  9.9999998E-03;  2.8999999E-01;1710;  0.0000000E+00;  0.0000000E+00;  0.0000000E+00;  1.0002518E+03;  1.0000000E-01;  2.0868546E+02;0;  0.0000000E+00;  0.0000000E+00;  0.0000000E+00;0;  5.0386333E-01;  4.0000000E+04;  0.0000000E+00;  0.0000000E+00;  4.0000000E+04;  0.0000000E+00;  4.0000000E+04;  4.1712686E-01;  0.0000000E+00;  8.6736493E-02;  3.9399348E+03;
 -2.0000000E-02;  9.9999998E-03;  3.0000001E-01;1711;  0.0000000E+00;  0.0000000E+00;  0.0000000E+00;  1.0003910E+03;  1.0000000E-01;  3.2394147E+02;0;  0.0000000E+00;  0.0000000E+00;  0.0000000E+00;0;  4.1344154E-01;  4.0000000E+04;  0.0000000E+00;  0.0000000E+00;  4.0000000E+04;  0.0000000E+00;  4.0000000E+04;  3.2665420E-01;  0.0000000E+00;  8.6787350E-02;  3.2450837E+03;
 -2.0000000E-02;  9.9999998E-03;  3.1000000E-01;1712;  0.0000000E+00;  0.0000000E+00;  0.0000000E+00;  1.0004579E+03;  1.0000000E-01;  3.7944604E+02;0;  0.0000000E+00;  0.0000000E+00;  0.0000000E+00;0;  3.3222711E-01;  4.0000000E+04;  0.0000000E+00;  0.0000000E+00;  4.0000000E+04;  0.0000000E+00;  4.0000000E+04;  2.4892253E-01;  0.0000000E+00;  8.3304569E-02;  2.5392090E+03;
 -2.0000000E-02;  9.9999998E-03;  3.1999999E-01;1713;  0.0000000E+00;  0.0000000E+00;  0.0000000E+00;  1.0004676E+03;  1.0000000E-01;  3.8734708E+02;0;  0.0000000E+00;  0.0000000E+00;  0.0000000E+00;0;  2.6110923E-01;  4.0000000E+04;  0.0000000E+00;  0.0000000E+00;  4.0000000E+04;  0.0000000E+00;  4.0000000E+04;  1.8419164E-01;  0.0000000E+00;  7.6917604E-02;  1.8812538E+03;
 -2.0000000E-02;  9.9999998E-03;  3.3000001E-01;1714;  0.0000000E+00;  0.0000000E+00;  0.0000000E+00;  1.0004370E+03;  1.0000000E-01;  3.6196506E+02;0;  0.0000000E+00;  0.0000000E+00;  0.0000000E+00;0;  2.0063733E-01;  4.0000000E+04;  0.0000000E+00;  0.0000000E+00;  4.0000000E+04;  0.0000000E+00;  4.0000000E+04;  1.3206536E-01;  0.0000000E+00;  6.8571970E-02;  1.3073802E+03;
 -2.0000000E-02;  9.9999998E-03;  3.4000000E-01;1715;  0.0000000E+00;  0.0000000E+00;  0.0000000E+00;  1.0003818E+03;  1.0000000E-01;  3.1633673E+02;0;  0.0000000E+00;  0.0000000E+00;  0.0000000E+00;0;  1.5079428E-01;  4.0000000E+04;  0.0000000E+00;  0.0000000E+00;  4.0000000E+04;  0.0000000E+00;  4.0000000E+04;  9.1555588E-02;  0.0000000E+00;  5.9238695E-02;  8.3415662E+02;
 -2.0000000E-02;  9.9999998E-03;  3.4999999E-01;1716;  0.0000000E+00;  0.0000000E+00;  0.0000000E+00;  1.0003162E+03;  1.0000000E-01;  2.6191852E+02;0;  0.0000000E+00;  0.0000000E+00;  0.0000000E+00;0;  1.1093920E-01;  4.0000000E+04;  0.0000000E+00;  0.0000000E+00;  4.0000000E+04;  0.0000000E+00;  4.0000000E+04;  6.1226360E-02;  0.0000000E+00;  4.9712844E-02;  4.6414478E+02;
 -2.0000000E-02;  9.9999998E-03;  3.6000001E-01;1717;  0.0000000E+00;  0.0000000E+00;  0.0000000E+00;  1.0002481E+03;  1.0000000E-01;  2.0552505E+02;0;  0.0000000E+00;  0.0000000E+00;  0.0000000E+00;0;  7.9927184E-02;  4.0000000E+04;  0.0000000E+00;  0.0000000E+00;  4.0000000E+04;  0.0000000E+00;  4.0000000E+04;  3.9386135E-02;  0.0000000E+00;  4.0541049E-02;  1.9130727E+02;
 -2.0000000E-02;  9.9999998E-03;  3.7000000E-01;1718;  0.0000000E+00;  0.0000000E+00;  0.0000000E+00;  1.0001884E+03;  1.0000000E-01;  1.5614374E+02;0;  0.0000000E+00;  0.0000000E+00;  0.0000000E+00;0;  5.6329150E-02;  4.0000000E+04;  0.0000000E+00;  0.0000000E+00;  4.0000000E+04;  0.0000000E+00;  4.0000000E+04;  2.4284318E-02;  0.0000000E+00;  3.2044832E-02;  5.7768202E+00;
 -2.0000000E-02;  9.9999998E-03;  3.8000000E-01;1719;  0.0000000E+00;  0.0000000E+00;  0.0000000E+00;  1.0001359E+03;  1.0000000E-01;  1.1258941E+02;0;  0.0000000E+00;  0.0000000E+00;  0.0000000E+00;0;  3.8667195E-02;  4.0000000E+04;  0.0000000E+00;  0.0000000E+00;  4.0000000E+04;  0.0000000E+00;  4.0000000E+04;  1.4278214E-02;  0.0000000E+00;  2.4388982E-02;  1.0671136E+02;
 -2.0000000E-02;  9.9999998E-03;  3.8999999E-01;1720;  0.0000000E+00;  0.0000000E+00;  0.0000000E+00;  1.0000934E+03;  1.0000000E-01;  7.7429909E+01;0;  0.0000000E+00;  0.0000000E+00;  0.0000000E+00;0;  2.5605626E-02;  4.0000000E+04;  0.0000000E+00;  0.0000000E+00;  4.0000000E+04;  0.0000000E+00;  4.0000000E+04;  7.9449592E-03;  0.0000000E+00;  1.7660666E-02;  1.5714839E+02;
 -2.0000000E-02;  9.9999998E-03;  4.0000001E-01;1721;  0.0000000E+00;  0.0000000E+00;  0.0000000E+00;  1.0000592E+03;  1.0000000E-01;  4.9085033E+01;0;  0.0000000E+00;  0.0000000E+00;  0.0000000E+00;0;  1.6070664E-02;  4.0000000E+04;  0.0000000E+00;  0.0000000E+00;  4.0000000E+04;  0.0000000E+00;  4.0000000E+04;  4.1354946E-03;  0.0000000E+00;  1.1935170E-02;  1.6009157E+02;
 -9.9999998E-03;  9.9999998E-03;  2.3999999E-01;1796;  0.0000000E+00;  0.0000000E+00;  0.0000000E+00;  1.0000000E+03;  1.0000000E-01;  0.0000000E+00;0;  0.0000000E+00;  0.0000000E+00;  0.0000000E+00;0;  1.1549730E+00;  4.0000000E+04;  0.0000000E+00;  0.0000000E+00;  4.0000000E+04;  0.0000000E+00;  4.0000000E+04;  1.1107159E+00;  0.0000000E+00;  4.4257119E-02;  5.9006934E+03;
 -9.9999998E-03;  9.9999998E-03;  2.5000000E-01;1797;  0.0000000E+00;  0.0000000E+00;  0.0000000E+00;  1.0000000E+03;  1.0000000E-01;  0.0000000E+00;0;  0.0000000E+00;  0.0000000E+00;  0.0000000E+00;0;  1.0355924E+00;  4.0000000E+04;  0.0000000E+00;  0.0000000E+00;  4.0000000E+04;  0.0000000E+00;  4.0000000E+04;  9.7459286E-01;  0.0000000E+00;  6.0999531E-02;  6.3821011E+03;
 -9.9999998E-03;  9.9999998E-03;  2.5999999E-01;1798;  0.0000000E+00;  0.0000000E+00;  0.0000000E+00;  1.0000000E+03;  1.0000000E-01;  0.0000000E+00;0;  0.0000000E+00;  0.0000000E+00;  0.0000000E+00;0;  9.1587710E-01;  4.0000000E+04;  0.0000000E+00;  0.0000000E+00;  4.0000000E+04;  0.0000000E+00;  4.0000000E+04;  8.3995414E-01;  0.0000000E+00;  7.5922996E-02;  6.5371748E+03;
 -9.9999998E-03;  9.9999998E-03;  2.7000001E-01;1799;  0.0000000E+00;  0.0000000E+00;  0.0000000E+00;  1.0000000E+03;  1.0000000E-01;  0.0000000E+00;0;  0.0000000E+00;  0.0000000E+00;  0.0000000E+00;0;  7.9835373E-01;  4.0000000E+04;  0.0000000E+00;  0.0000000E+00;  4.0000000E+04;  0.0000000E+00;  4.0000000E+04;  7.1000552E-01;  0.0000000E+00;  8.8348195E-02;  6.3642061E+03;
 -9.9999998E-03;  9.9999998E-03;  2.8000000E-01;1800;  0.0000000E+00;  0.0000000E+00;  0.0000000E+00;  1.0000000E+03;  1.0000000E-01;  0.0000000E+00;0;  0.0000000E+00;  0.0000000E+00;  0.0000000E+00;0;  6.8521553E-01;  4.0000000E+04;  0.0000000E+00;  0.0000000E+00;  4.0000000E+04;  0.0000000E+00;  4.0000000E+04;  5.8762813E-01;  0.0000000E+00;  9.7587422E-02;  5.8950039E+03;
 -9.9999998E-03;  9.9999998E-03;  2.8999999E-01;1801;  0.0000000E+00;  0.0000000E+00;  0.0000000E+00;  1.0000000E+03;  1.0000000E-01;  0.0000000E+00;0;  0.0000000E+00;  0.0000000E+00;  0.0000000E+00;0;  5.7819736E-01;  4.0000000E+04;  0.0000000E+00;  0.0000000E+00;  4.0000000E+04;  0.0000000E+00;  4.0000000E+04;  4.7525468E-01;  0.0000000E+00;  1.0294268E-01;  5.1972495E+03;
 -9.9999998E-03;  9.9999998E-03;  3.0000001E-01;1802;  0.0000000E+00;  0.0000000E+00;  0.0000000E+00;  1.0001964E+03;  1.0000000E-01;  1.6276083E+02;0;  0.0000000E+00;  0.0000000E+00;  0.0000000E+00;0;  4.7862667E-01;  4.0000000E+04;  0.0000000E+00;  0.0000000E+00;  4.0000000E+04;  0.0000000E+00;  4.0000000E+04;  3.7479481E-01;  0.0000000E+00;  1.0383185E-01;  4.3688999E+03;
 -9.9999998E-03;  9.9999998E-03;  3.1000000E-01;1803;  0.0000000E+00;  0.0000000E+00;  0.0000000E+00;  1.0003182E+03;  1.0000000E-01;  2.6369626E+02;0;  0.0000000E+00;  0.0000000E+00;  0.0000000E+00;0;  3.8780683E-01;  4.0000000E+04;  0.0000000E+00;  0.0000000E+00;  4.0000000E+04;  0.0000000E+00;  4.0000000E+04;  2.8758273E-01;  0.0000000E+00;  1.0022412E-01;  3.5095186E+03;
 -9.9999998E-03;  9.9999998E-03;  3.1999999E-01;1804;  0.0000000E+00;  0.0000000E+00;  0.0000000E+00;  1.0003704E+03;  1.0000000E-01;  3.0685553E+02;0;  0.0000000E+00;  0.0000000E+00;  0.0000000E+00;0;  3.0711985E-01;  4.0000000E+04;  0.0000000E+00;  0.0000000E+00;  4.0000000E+04;  0.0000000E+00;  4.0000000E+04;  2.1425164E-01;  0.0000000E+00;  9.2868216E-02;  2.6925630E+03;
 -9.9999998E-03;  9.9999998E-03;  3.3000001E-01;1805;  0.0000000E+00;  0.0000000E+00;  0.0000000E+00;  1.0003719E+03;  1.0000000E-01;  3.0813943E+02;0;  0.0000000E+00;  0.0000000E+00;  0.0000000E+00;0;  2.3764096E-01;  4.0000000E+04;  0.0000000E+00;  0.0000000E+00;  4.0000000E+04;  0.0000000E+00;  4.0000000E+04;  1.5465699E-01;  0.0000000E+00;  8.2983971E-02;  1.9642646E+03;
 -9.9999998E-03;  9.9999998E-03;  3.4000000E-01;1806;  0.0000000E+00;  0.0000000E+00;  0.0000000E+00;  1.0003406E+03;  1.0000000E-01;  2.8216486E+02;0;  0.0000000E+00;  0.0000000E+00;  0.0000000E+00;0;  1.7975286E-01;  4.0000000E+04;  0.0000000E+00;  0.0000000E+00;  4.0000000E+04;  0.0000000E+00;  4.0000000E+04;  1.0792828E-01;  0.0000000E+00;  7.1824573E-02;  1.3482456E+03;
 -9.9999998E-03;  9.9999998E-03;  3.4999999E-01;1807;  0.0000000E+00;  0.0000000E+00;  0.0000000E+00;  1.0002908E+03;  1.0000000E-01;  2.4098083E+02;0;  0.0000000E+00;  0.0000000E+00;  0.0000000E+00;0;  1.3303360E-01;  4.0000000E+04;  0.0000000E+00;  0.0000000E+00;  4.0000000E+04;  0.0000000E+00;  4.0000000E+04;  7.2634980E-02;  0.0000000E+00;  6.0398627E-02;  8.5167139E+02;
 -9.9999998E-03;  9.9999998E-03;  3.6000001E-01;1808;  0.0000000E+00;  0.0000000E+00;  0.0000000E+00;  1.0002360E+03;  1.0000000E-01;  1.9555002E+02;0;  0.0000000E+00;  0.0000000E+00;  0.0000000E+00;0;  9.6392989E-02;  4.0000000E+04;  0.0000000E+00;  0.0000000E+00;  4.0000000E+04;  0.0000000E+00;  4.0000000E+04;  4.7003910E-02;  0.0000000E+00;  4.9389075E-02;  4.7083478E+02;
 -9.9999998E-03;  9.9999998E-03;  3.7000000E-01;1809;  0.0000000E+00;  0.0000000E+00;  0.0000000E+00;  1.0001819E+03;  1.0000000E-01;  1.5071179E+02;0;  0.0000000E+00;  0.0000000E+00;  0.0000000E+00;0;  6.8331718E-02;  4.0000000E+04;  0.0000000E+00;  0.0000000E+00;  4.0000000E+04;  0.0000000E+00;  4.0000000E+04;  2.9140279E-02;  0.0000000E+00;  3.9191436E-02;  1.9578134E+02;
 -9.9999998E-03;  9.9999998E-03;  3.8000000E-01;1810;  0.0000000E+00;  0.0000000E+00;  0.0000000E+00;  1.0001340E+03;  1.0000000E-01;  1.1100921E+02;0;  0.0000000E+00;  0.0000000E+00;  0.0000000E+00;0;  4.7221750E-02;  4.0000000E+04;  0.0000000E+00;  0.0000000E+00;  4.0000000E+04;  0.0000000E+00;  4.0000000E+04;  1.7220508E-02;  0.0000000E+00;  3.0001242E-02;  1.3823015E+01;
 -9.9999998E-03;  9.9999998E-03;  3.8999999E-01;1811;  0.0000000E+00;  0.0000000E+00;  0.0000000E+00;  1.0000942E+03;  1.0000000E-01;  7.8022484E+01;0;  0.0000000E+00;  0.0000000E+00;  0.0000000E+00;0;  3.1541578E-02;  4.0000000E+04;  0.0000000E+00;  0.0000000E+00;  4.0000000E+04;  0.0000000E+00;  4.0000000E+04;  9.6301865E-03;  0.0000000E+00;  2.1911394E-02;  9.0011101E+01;
 -9.9999998E-03;  9.9999998E-03;  4.0000001E-01;1812;  0.0000000E+00;  0.0000000E+00;  0.0000000E+00;  1.0000627E+03;  1.0000000E-01;  5.1949146E+01;0;  0.0000000E+00;  0.0000000E+00;  0.0000000E+00;0;  2.0036407E-02;  4.0000000E+04;  0.0000000E+00;  0.0000000E+00;  4.0000000E+04;  0.0000000E+00;  4.0000000E+04;  5.0410749E-03;  0.0000000E+00;  1.4995332E-02;  1.3003835E+02;
  0.0000000E+00;  9.9999998E-03;  3.0000001E-01;1834;  0.0000000E+00;  0.0000000E+00;  0.0000000E+00;  1.0000000E+03;  1.0000000E-01;  0.0000000E+00;0;  0.0000000E+00;  0.0000000E+00;  0.0000000E+00;0;  5.3621167E-01;  4.0000000E+04;  0.0000000E+00;  0.0000000E+00;  4.0000000E+04;  0.0000000E+00;  4.0000000E+04;  4.1619447E-01;  0.0000000E+00;  1.2001720E-01;  5.6908066E+03;
  0.0000000E+00;  9.9999998E-03;  3.1000000E-01;1835;  0.0000000E+00;  0.0000000E+00;  0.0000000E+00;  1.0000988E+03;  1.0000000E-01;  8.1874229E+01;0;  0.0000000E+00;  0.0000000E+00;  0.0000000E+00;0;  4.3831909E-01;  4.0000000E+04;  0.0000000E+00;  0.0000000E+00;  4.0000000E+04;  0.0000000E+00;  4.0000000E+04;  3.2173949E-01;  0.0000000E+00;  1.1657958E-01;  4.6717080E+03;
  0.0000000E+00;  9.9999998E-03;  3.1999999E-01;1836;  0.0000000E+00;  0.0000000E+00;  0.0000000E+00;  1.0002077E+03;  1.0000000E-01;  1.7204451E+02;0;  0.0000000E+00;  0.0000000E+00;  0.0000000E+00;0;  3.4985819E-01;  4.0000000E+04;  0.0000000E+00;  0.0000000E+00;  4.0000000E+04;  0.0000000E+00;  4.0000000E+04;  2.4144639E-01;  0.0000000E+00;  1.0841180E-01;  3.6821809E+03;
  0.0000000E+00;  9.9999998E-03;  3.3000001E-01;1837;  0.0000000E+00;  0.0000000E+00;  0.0000000E+00;  1.0002560E+03;  1.0000000E-01;  2.1214215E+02;0;  0.0000000E+00;  0.0000000E+00;  0.0000000E+00;0;  2.7261686E-01;  4.0000000E+04;  0.0000000E+00;  0.0000000E+00;  4.0000000E+04;  0.0000000E+00;  4.0000000E+04;  1.7553298E-01;  0.0000000E+00;  9.7083896E-02;  2.7803789E+03;
  0.0000000E+00;  9.9999998E-03;  3.4000000E-01;1838;  0.0000000E+00;  0.0000000E+00;  0.0000000E+00;  1.0002604E+03;  1.0000000E-01;  2.1579637E+02;0;  0.0000000E+00;  0.0000000E+00;  0.0000000E+00;0;  2.0751244E-01;  4.0000000E+04;  0.0000000E+00;  0.0000000E+00;  4.0000000E+04;  0.0000000E+00;  4.0000000E+04;  1.2334396E-01;  0.0000000E+00;  8.4168471E-02;  1.9997347E+03;
  0.0000000E+00;  9.9999998E-03;  3.4999999E-01;1839;  0.0000000E+00;  0.0000000E+00;  0.0000000E+00;  1.0002369E+03;  1.0000000E-01;  1.9634013E+02;0;  0.0000000E+00;  0.0000000E+00;  0.0000000E+00;0;  1.5444678E-01;  4.0000000E+04;  0.0000000E+00;  0.0000000E+00;  4.0000000E+04;  0.0000000E+00;  4.0000000E+04;  8.3550267E-02;  0.0000000E+00;  7.0896514E-02;  1.3544775E+03;
  0.0000000E+00;  9.9999998E-03;  3.6000001E-01;1840;  0.0000000E+00;  0.0000000E+00;  0.0000000E+00;  1.0002006E+03;  1.0000000E-01;  1.6621751E+02;0;  0.0000000E+00;  0.0000000E+00;  0.0000000E+00;0;  1.1247470E-01;  4.0000000E+04;  0.0000000E+00;  0.0000000E+00;  4.0000000E+04;  0.0000000E+00;  4.0000000E+04;  5.4385237E-02;  0.0000000E+00;  5.8089465E-02;  8.4469232E+02;
  0.0000000E+00;  9.9999998E-03;  3.7000000E-01;1841;  0.0000000E+00;  0.0000000E+00;  0.0000000E+00;  1.0001604E+03;  1.0000000E-01;  1.3293451E+02;0;  0.0000000E+00;  0.0000000E+00;  0.0000000E+00;0;  8.0104396E-02;  4.0000000E+04;  0.0000000E+00;  0.0000000E+00;  4.0000000E+04;  0.0000000E+00;  4.0000000E+04;  3.3884991E-02;  0.0000000E+00;  4.6219409E-02;  4.6168665E+02;
  0.0000000E+00;  9.9999998E-03;  3.8000000E-01;1842;  0.0000000E+00;  0.0000000E+00;  0.0000000E+00;  1.0001218E+03;  1.0000000E-01;  1.0093542E+02;0;  0.0000000E+00;  0.0000000E+00;  0.0000000E+00;0;  5.5620968E-02;  4.0000000E+04;  0.0000000E+00;  0.0000000E+00;  4.0000000E+04;  0.0000000E+00;  4.0000000E+04;  2.0103315E-02;  0.0000000E+00;  3.5517652E-02;  1.9216365E+02;
  0.0000000E+00;  9.9999998E-03;  3.8999999E-01;1843;  0.0000000E+00;  0.0000000E+00;  0.0000000E+00;  1.0000879E+03;  1.0000000E-01;  7.2788063E+01;0;  0.0000000E+00;  0.0000000E+00;  0.0000000E+00;0;  3.7362441E-02;  4.0000000E+04;  0.0000000E+00;  0.0000000E+00;  4.0000000E+04;  0.0000000E+00;  4.0000000E+04;  1.1274199E-02;  0.0000000E+00;  2.6088241E-02;  2.0950439E+01;
  0.0000000E+00;  9.9999998E-03;  4.0000001E-01;1844;  0.0000000E+00;  0.0000000E+00;  0.0000000E+00;  1.0000607E+03;  1.0000000E-01;  5.0270184E+01;0;  0.0000000E+00;  0.0000000E+00;  0.0000000E+00;0;  2.3919130E-02;  4.0000000E+04;  0.0000000E+00;  0.0000000E+00;  4.0000000E+04;  0.0000000E+00;  4.0000000E+04;  5.9130550E-03;  0.0000000E+00;  1.8006075E-02;  6.9193085E+01;
  9.9999998E-03;  9.9999998E-03;  3.1000000E-01;1865;  0.0000000E+00;  0.0000000E+00;  0.0000000E+00;  1.0000000E+03;  1.0000000E-01;  0.0000000E+00;0;  0.0000000E+00;  0.0000000E+00;  0.0000000E+00;0;  4.8074460E-01;  4.0000000E+04;  0.0000000E+00;  0.0000000E+00;  4.0000000E+04;  0.0000000E+00;  4.0000000E+04;  3.4968892E-01;  0.0000000E+00;  1.3105568E-01;  6.0139307E+03;
  9.9999998E-03;  9.9999998E-03;  3.1999999E-01;1866;  0.0000000E+00;  0.0000000E+00;  0.0000000E+00;  1.0000000E+03;  1.0000000E-01;  0.0000000E+00;0;  0.0000000E+00;  0.0000000E+00;  0.0000000E+00;0;  3.8693693E-01;  4.0000000E+04;  0.0000000E+00;  0.0000000E+00;  4.0000000E+04;  0.0000000E+00;  4.0000000E+04;  2.6455465E-01;  0.0000000E+00;  1.2238229E-01;  4.8408574E+03;
  9.9999998E-03;  9.9999998E-03;  3.3000001E-01;1867;  0.0000000E+00;  0.0000000E+00;  0.0000000E+00;  1.0000881E+03;  1.0000000E-01;  7.2985588E+01;0;  0.0000000E+00;  0.0000000E+00;  0.0000000E+00;0;  3.0373466E-01;  4.0000000E+04;  0.0000000E+00;  0.0000000E+00;  4.0000000E+04;  0.0000000E+00;  4.0000000E+04;  1.9384702E-01;  0.0000000E+00;  1.0988764E-01;  3.7475327E+03;
  9.9999998E-03;  9.9999998E-03;  3.4000000E-01;1868;  0.0000000E+00;  0.0000000E+00;  0.0000000E+00;  1.0001389E+03;  1.0000000E-01;  1.1505847E+02;0;  0.0000000E+00;  0.0000000E+00;  0.0000000E+00;0;  2.3270407E-01;  4.0000000E+04;  0.0000000E+00;  0.0000000E+00;  4.0000000E+04;  0.0000000E+00;  4.0000000E+04;  1.3723913E-01;  0.0000000E+00;  9.5464937E-02;  2.7814570E+03;
  9.9999998E-03;  9.9999998E-03;  3.4999999E-01;1869;  0.0000000E+00;  0.0000000E+00;  0.0000000E+00;  1.0001530E+03;  1.0000000E-01;  1.2681123E+02;0;  0.0000000E+00;  0.0000000E+00;  0.0000000E+00;0;  1.7417489E-01;  4.0000000E+04;  0.0000000E+00;  0.0000000E+00;  4.0000000E+04;  0.0000000E+00;  4.0000000E+04;  9.3614988E-02;  0.0000000E+00;  8.0559902E-02;  1.9665966E+03;
  9.9999998E-03;  9.9999998E-03;  3.6000001E-01;1870;  0.0000000E+00;  0.0000000E+00;  0.0000000E+00;  1.0001431E+03;  1.0000000E-01;  1.1851517E+02;0;  0.0000000E+00;  0.0000000E+00;  0.0000000E+00;0;  1.2744507E-01;  4.0000000E+04;  0.0000000E+00;  0.0000000E+00;  4.0000000E+04;  0.0000000E+00;  4.0000000E+04;  6.1316539E-02;  0.0000000E+00;  6.6128537E-02;  1.3083110E+03;
  9.9999998E-03;  9.9999998E-03;  3.7000000E-01;1871;  0.0000000E+00;  0.0000000E+00;  0.0000000E+00;  1.0001221E+03;  1.0000000E-01;  1.0113294E+02;0;  0.0000000E+00;  0.0000000E+00;  0.0000000E+00;0;  9.1121465E-02;  4.0000000E+04;  0.0000000E+00;  0.0000000E+00;  4.0000000E+04;  0.0000000E+00;  4.0000000E+04;  3.8398758E-02;  0.0000000E+00;  5.2722704E-02;  7.9974841E+02;
  9.9999998E-03;  9.9999998E-03;  3.8000000E-01;1872;  0.0000000E+00;  0.0000000E+00;  0.0000000E+00;  1.0000975E+03;  1.0000000E-01;  8.0787842E+01;0;  0.0000000E+00;  0.0000000E+00;  0.0000000E+00;0;  6.3480288E-02;  4.0000000E+04;  0.0000000E+00;  0.0000000E+00;  4.0000000E+04;  0.0000000E+00;  4.0000000E+04;  2.2863310E-02;  0.0000000E+00;  4.0616978E-02;  4.2737567E+02;
  9.9999998E-03;  9.9999998E-03;  3.8999999E-01;1873;  0.0000000E+00;  0.0000000E+00;  0.0000000E+00;  1.0000718E+03;  1.0000000E-01;  5.9455109E+01;0;  0.0000000E+00;  0.0000000E+00;  0.0000000E+00;0;  4.2781074E-02;  4.0000000E+04;  0.0000000E+00;  0.0000000E+00;  4.0000000E+04;  0.0000000E+00;  4.0000000E+04;  1.2844088E-02;  0.0000000E+00;  2.9936986E-02;  1.7459668E+02;
  9.9999998E-03;  9.9999998E-03;  4.0000001E-01;1874;  0.0000000E+00;  0.0000000E+00;  0.0000000E+00;  1.0000508E+03;  1.0000000E-01;  4.2072884E+01;0;  0.0000000E+00;  0.0000000E+00;  0.0000000E+00;0;  2.7501900E-02;  4.0000000E+04;  0.0000000E+00;  0.0000000E+00;  4.0000000E+04;  0.0000000E+00;  4.0000000E+04;  6.7333994E-03;  0.0000000E+00;  2.0768501E-02;  2.3176399E+01;
  2.0000000E-02;  9.9999998E-03;  3.1000000E-01;1895;  0.0000000E+00;  0.0000000E+00;  0.0000000E+00;  1.0000000E+03;  1.0000000E-01;  0.0000000E+00;0;  0.0000000E+00;  0.0000000E+00;  0.0000000E+00;0;  5.1306719E-01;  4.0000000E+04;  0.0000000E+00;  0.0000000E+00;  4.0000000E+04;  0.0000000E+00;  4.0000000E+04;  3.7074885E-01;  0.0000000E+00;  1.4231832E-01;  7.4984448E+03;
  2.0000000E-02;  9.9999998E-03;  3.1999999E-01;1896;  0.0000000E+00;  0.0000000E+00;  0.0000000E+00;  1.0000000E+03;  1.0000000E-01;  0.0000000E+00;0;  0.0000000E+00;  0.0000000E+00;  0.0000000E+00;0;  4.1665655E-01;  4.0000000E+04;  0.0000000E+00;  0.0000000E+00;  4.0000000E+04;  0.0000000E+00;  4.0000000E+04;  2.8303403E-01;  0.0000000E+00;  1.3362254E-01;  6.1365132E+03;
  2.0000000E-02;  9.9999998E-03;  3.3000001E-01;1897;  0.0000000E+00;  0.0000000E+00;  0.0000000E+00;  1.0000000E+03;  1.0000000E-01;  0.0000000E+00;0;  0.0000000E+00;  0.0000000E+00;  0.0000000E+00;0;  3.2963914E-01;  4.0000000E+04;  0.0000000E+00;  0.0000000E+00;  4.0000000E+04;  0.0000000E+00;  4.0000000E+04;  2.0919666E-01;  0.0000000E+00;  1.2044248E-01;  4.8382251E+03;
  2.0000000E-02;  9.9999998E-03;  3.4000000E-01;1898;  0.0000000E+00;  0.0000000E+00;  0.0000000E+00;  1.0000000E+03;  1.0000000E-01;  0.0000000E+00;0;  0.0000000E+00;  0.0000000E+00;  0.0000000E+00;0;  2.5428575E-01;  4.0000000E+04;  0.0000000E+00;  0.0000000E+00;  4.0000000E+04;  0.0000000E+00;  4.0000000E+04;  1.4933549E-01;  0.0000000E+00;  1.0495026E-01;  3.6703130E+03;
  2.0000000E-02;  9.9999998E-03;  3.4999999E-01;1899;  0.0000000E+00;  0.0000000E+00;  0.0000000E+00;  1.0000408E+03;  1.0000000E-01;  3.3776821E+01;0;  0.0000000E+00;  0.0000000E+00;  0.0000000E+00;0;  1.9144088E-01;  4.0000000E+04;  0.0000000E+00;  0.0000000E+00;  4.0000000E+04;  0.0000000E+00;  4.0000000E+04;  1.0265400E-01;  0.0000000E+00;  8.8786878E-02;  2.6690774E+03;
  2.0000000E-02;  9.9999998E-03;  3.6000001E-01;1900;  0.0000000E+00;  0.0000000E+00;  0.0000000E+00;  1.0000659E+03;  1.0000000E-01;  5.4615738E+01;0;  0.0000000E+00;  0.0000000E+00;  0.0000000E+00;0;  1.4073959E-01;  4.0000000E+04;  0.0000000E+00;  0.0000000E+00;  4.0000000E+04;  0.0000000E+00;  4.0000000E+04;  6.7701854E-02;  0.0000000E+00;  7.3037744E-02;  1.8464436E+03;
  2.0000000E-02;  9.9999998E-03;  3.7000000E-01;1901;  0.0000000E+00;  0.0000000E+00;  0.0000000E+00;  1.0000693E+03;  1.0000000E-01;  5.7479855E+01;0;  0.0000000E+00;  0.0000000E+00;  0.0000000E+00;0;  1.0097893E-01;  4.0000000E+04;  0.0000000E+00;  0.0000000E+00;  4.0000000E+04;  0.0000000E+00;  4.0000000E+04;  4.2640027E-02;  0.0000000E+00;  5.8338907E-02;  1.1980397E+03;
  2.0000000E-02;  9.9999998E-03;  3.8000000E-01;1902;  0.0000000E+00;  0.0000000E+00;  0.0000000E+00;  1.0000636E+03;  1.0000000E-01;  5.2739250E+01;0;  0.0000000E+00;  0.0000000E+00;  0.0000000E+00;0;  7.0510119E-02;  4.0000000E+04;  0.0000000E+00;  0.0000000E+00;  4.0000000E+04;  0.0000000E+00;  4.0000000E+04;  2.5490742E-02;  0.0000000E+00;  4.5019381E-02;  7.1028522E+02;
  2.0000000E-02;  9.9999998E-03;  3.8999999E-01;1903;  0.0000000E+00;  0.0000000E+00;  0.0000000E+00;  1.0000512E+03;  1.0000000E-01;  4.2467934E+01;0;  0.0000000E+00;  0.0000000E+00;  0.0000000E+00;0;  4.7585409E-02;  4.0000000E+04;  0.0000000E+00;  0.0000000E+00;  4.0000000E+04;  0.0000000E+00;  4.0000000E+04;  1.4344475E-02;  0.0000000E+00;  3.3240933E-02;  3.6519406E+02;
  2.0000000E-02;  9.9999998E-03;  4.0000001E-01;1904;  0.0000000E+00;  0.0000000E+00;  0.0000000E+00;  1.0000397E+03;  1.0000000E-01;  3.2887959E+01;0;  0.0000000E+00;  0.0000000E+00;  0.0000000E+00;0;  3.0624582E-02;  4.0000000E+04;  0.0000000E+00;  0.0000000E+00;  4.0000000E+04;  0.0000000E+00;  4.0000000E+04;  7.5099673E-03;  0.0000000E+00;  2.3114614E-02;  1.4261438E+02;
  2.9999999E-02;  9.9999998E-03;  3.1000000E-01;1925;  0.0000000E+00;  0.0000000E+00;  0.0000000E+00;  1.0000000E+03;  1.0000000E-01;  0.0000000E+00;0;  0.0000000E+00;  0.0000000E+00;  0.0000000E+00;0;  5.3476954E-01;  4.0000000E+04;  0.0000000E+00;  0.0000000E+00;  4.0000000E+04;  0.0000000E+00;  4.0000000E+04;  3.8533431E-01;  0.0000000E+00;  1.4943521E-01;  9.0510781E+03;
  2.9999999E-02;  9.9999998E-03;  3.1999999E-01;1926;  0.0000000E+00;  0.0000000E+00;  0.0000000E+00;  1.0000000E+03;  1.0000000E-01;  0.0000000E+00;0;  0.0000000E+00;  0.0000000E+00;  0.0000000E+00;0;  4.3834636E-01;  4.0000000E+04;  0.0000000E+00;  0.0000000E+00;  4.0000000E+04;  0.0000000E+00;  4.0000000E+04;  2.9706851E-01;  0.0000000E+00;  1.4127785E-01;  7.5086870E+03;
  2.9999999E-02;  9.9999998E-03;  3.3000001E-01;1927;  0.0000000E+00;  0.0000000E+00;  0.0000000E+00;  1.0000000E+03;  1.0000000E-01;  0.0000000E+00;0;  0.0000000E+00;  0.0000000E+00;  0.0000000E+00;0;  3.4967309E-01;  4.0000000E+04;  0.0000000E+00;  0.0000000E+00;  4.0000000E+04;  0.0000000E+00;  4.0000000E+04;  2.2164698E-01;  0.0000000E+00;  1.2802610E-01;  6.0034941E+03;
  2.9999999E-02;  9.9999998E-03;  3.4000000E-01;1928;  0.0000000E+00;  0.0000000E+00;  0.0000000E+00;  1.0000000E+03;  1.0000000E-01;  0.0000000E+00;0;  0.0000000E+00;  0.0000000E+00;  0.0000000E+00;0;  2.7169043E-01;  4.0000000E+04;  0.0000000E+00;  0.0000000E+00;  4.0000000E+04;  0.0000000E+00;  4.0000000E+04;  1.5965100E-01;  0.0000000E+00;  1.1203942E-01;  4.6269634E+03;
  2.9999999E-02;  9.9999998E-03;  3.4999999E-01;1929;  0.0000000E+00;  0.0000000E+00;  0.0000000E+00;  1.0000000E+03;  1.0000000E-01;  0.0000000E+00;0;  0.0000000E+00;  0.0000000E+00;  0.0000000E+00;0;  2.0579270E-01;  4.0000000E+04;  0.0000000E+00;  0.0000000E+00;  4.0000000E+04;  0.0000000E+00;  4.0000000E+04;  1.1067688E-01;  0.0000000E+00;  9.5115818E-02;  3.4304741E+03;
  2.9999999E-02;  9.9999998E-03;  3.6000001E-01;1930;  0.0000000E+00;  0.0000000E+00;  0.0000000E+00;  1.0000000E+03;  1.0000000E-01;  0.0000000E+00;0;  0.0000000E+00;  0.0000000E+00;  0.0000000E+00;0;  1.5202078E-01;  4.0000000E+04;  0.0000000E+00;  0.0000000E+00;  4.0000000E+04;  0.0000000E+00;  4.0000000E+04;  7.3559925E-02;  0.0000000E+00;  7.8460857E-02;  2.4340715E+03;
  2.9999999E-02;  9.9999998E-03;  3.7000000E-01;1931;  0.0000000E+00;  0.0000000E+00;  0.0000000E+00;  1.0000046E+03;  1.0000000E-01;  3.7529802E+00;0;  0.0000000E+00;  0.0000000E+00;  0.0000000E+00;0;  1.0943870E-01;  4.0000000E+04;  0.0000000E+00;  0.0000000E+00;  4.0000000E+04;  0.0000000E+00;  4.0000000E+04;  4.6640050E-02;  0.0000000E+00;  6.2798657E-02;  1.6367576E+03;
  2.9999999E-02;  9.9999998E-03;  3.8000000E-01;1932;  0.0000000E+00;  0.0000000E+00;  0.0000000E+00;  1.0000193E+03;  1.0000000E-01;  1.5999548E+01;0;  0.0000000E+00;  0.0000000E+00;  0.0000000E+00;0;  7.6548725E-02;  4.0000000E+04;  0.0000000E+00;  0.0000000E+00;  4.0000000E+04;  0.0000000E+00;  4.0000000E+04;  2.8024497E-02;  0.0000000E+00;  4.8524231E-02;  1.0254231E+03;
  2.9999999E-02;  9.9999998E-03;  3.8999999E-01;1933;  0.0000000E+00;  0.0000000E+00;  0.0000000E+00;  1.0000236E+03;  1.0000000E-01;  1.9555002E+01;0;  0.0000000E+00;  0.0000000E+00;  0.0000000E+00;0;  5.1665176E-02;  4.0000000E+04;  0.0000000E+00;  0.0000000E+00;  4.0000000E+04;  0.0000000E+00;  4.0000000E+04;  1.5814051E-02;  0.0000000E+00;  3.5851125E-02;  5.8092737E+02;
  2.9999999E-02;  9.9999998E-03;  4.0000001E-01;1934;  0.0000000E+00;  0.0000000E+00;  0.0000000E+00;  1.0000225E+03;  1.0000000E-01;  1.8567375E+01;0;  0.0000000E+00;  0.0000000E+00;  0.0000000E+00;0;  3.3207543E-02;  4.0000000E+04;  0.0000000E+00;  0.0000000E+00;  4.0000000E+04;  0.0000000E+00;  4.0000000E+04;  8.2747266E-03;  0.0000000E+00;  2.4932815E-02;  2.8123514E+02;
  3.9999999E-02;  9.9999998E-03;  3.1000000E-01;1955;  0.0000000E+00;  0.0000000E+00;  0.0000000E+00;  1.0000000E+03;  1.0000000E-01;  0.0000000E+00;0;  0.0000000E+00;  0.0000000E+00;  0.0000000E+00;0;  5.4665154E-01;  4.0000000E+04;  0.0000000E+00;  0.0000000E+00;  4.0000000E+04;  0.0000000E+00;  4.0000000E+04;  3.9458379E-01;  0.0000000E+00;  1.5206777E-01;  1.0575714E+04;
  3.9999999E-02;  9.9999998E-03;  3.1999999E-01;1956;  0.0000000E+00;  0.0000000E+00;  0.0000000E+00;  1.0000000E+03;  1.0000000E-01;  0.0000000E+00;0;  0.0000000E+00;  0.0000000E+00;  0.0000000E+00;0;  4.5234039E-01;  4.0000000E+04;  0.0000000E+00;  0.0000000E+00;  4.0000000E+04;  0.0000000E+00;  4.0000000E+04;  3.0736613E-01;  0.0000000E+00;  1.4497426E-01;  8.8760938E+03;
  3.9999999E-02;  9.9999998E-03;  3.3000001E-01;1957;  0.0000000E+00;  0.0000000E+00;  0.0000000E+00;  1.0000000E+03;  1.0000000E-01;  0.0000000E+00;0;  0.0000000E+00;  0.0000000E+00;  0.0000000E+00;0;  3.6390018E-01;  4.0000000E+04;  0.0000000E+00;  0.0000000E+00;  4.0000000E+04;  0.0000000E+00;  4.0000000E+04;  2.3161970E-01;  0.0000000E+00;  1.3228050E-01;  7.1776421E+03;
  3.9999999E-02;  9.9999998E-03;  3.4000000E-01;1958;  0.0000000E+00;  0.0000000E+00;  0.0000000E+00;  1.0000000E+03;  1.0000000E-01;  0.0000000E+00;0;  0.0000000E+00;  0.0000000E+00;  0.0000000E+00;0;  2.8485006E-01;  4.0000000E+04;  0.0000000E+00;  0.0000000E+00;  4.0000000E+04;  0.0000000E+00;  4.0000000E+04;  1.6843234E-01;  0.0000000E+00;  1.1641774E-01;  5.5994561E+03;
  3.9999999E-02;  9.9999998E-03;  3.4999999E-01;1959;  0.0000000E+00;  0.0000000E+00;  0.0000000E+00;  1.0000000E+03;  1.0000000E-01;  0.0000000E+00;0;  0.0000000E+00;  0.0000000E+00;  0.0000000E+00;0;  2.1712109E-01;  4.0000000E+04;  0.0000000E+00;  0.0000000E+00;  4.0000000E+04;  0.0000000E+00;  4.0000000E+04;  1.1783324E-01;  0.0000000E+00;  9.9287845E-02;  4.2102002E+03;
  3.9999999E-02;  9.9999998E-03;  3.6000001E-01;1960;  0.0000000E+00;  0.0000000E+00;  0.0000000E+00;  1.0000000E+03;  1.0000000E-01;  0.0000000E+00;0;  0.0000000E+00;  0.0000000E+00;  0.0000000E+00;0;  1.6118819E-01;  4.0000000E+04;  0.0000000E+00;  0.0000000E+00;  4.0000000E+04;  0.0000000E+00;  4.0000000E+04;  7.8991577E-02;  0.0000000E+00;  8.2196616E-02;  3.0395249E+03;
  3.9999999E-02;  9.9999998E-03;  3.7000000E-01;1961;  0.0000000E+00;  0.0000000E+00;  0.0000000E+00;  1.0000000E+03;  1.0000000E-01;  0.0000000E+00;0;  0.0000000E+00;  0.0000000E+00;  0.0000000E+00;0;  1.1643212E-01;  4.0000000E+04;  0.0000000E+00;  0.0000000E+00;  4.0000000E+04;  0.0000000E+00;  4.0000000E+04;  5.0477646E-02;  0.0000000E+00;  6.5954477E-02;  2.0910518E+03;
  3.9999999E-02;  9.9999998E-03;  3.8000000E-01;1962;  0.0000000E+00;  0.0000000E+00;  0.0000000E+00;  1.0000000E+03;  1.0000000E-01;  0.0000000E+00;0;  0.0000000E+00;  0.0000000E+00;  0.0000000E+00;0;  8.1562772E-02;  4.0000000E+04;  0.0000000E+00;  0.0000000E+00;  4.0000000E+04;  0.0000000E+00;  4.0000000E+04;  3.0532541E-02;  0.0000000E+00;  5.1030230E-02;  1.3531985E+03;
  3.9999999E-02;  9.9999998E-03;  3.8999999E-01;1963;  0.0000000E+00;  0.0000000E+00;  0.0000000E+00;  1.0000000E+03;  1.0000000E-01;  0.0000000E+00;0;  0.0000000E+00;  0.0000000E+00;  0.0000000E+00;0;  5.5013634E-02;  4.0000000E+04;  0.0000000E+00;  0.0000000E+00;  4.0000000E+04;  0.0000000E+00;  4.0000000E+04;  1.7311560E-02;  0.0000000E+00;  3.7702072E-02;  8.0649622E+02;
  3.9999999E-02;  9.9999998E-03;  4.0000001E-01;1964;  0.0000000E+00;  0.0000000E+00;  0.0000000E+00;  1.0000040E+03;  1.0000000E-01;  3.3579297E+00;0;  0.0000000E+00;  0.0000000E+00;  0.0000000E+00;0;  3.5256624E-02;  4.0000000E+04;  0.0000000E+00;  0.0000000E+00;  4.0000000E+04;  0.0000000E+00;  4.0000000E+04;  9.0748090E-03;  0.0000000E+00;  2.6181817E-02;  4.2743704E+02;
  5.0000001E-02;  9.9999998E-03;  3.1000000E-01;1985;  0.0000000E+00;  0.0000000E+00;  0.0000000E+00;  1.0000000E+03;  1.0000000E-01;  0.0000000E+00;0;  0.0000000E+00;  0.0000000E+00;  0.0000000E+00;0;  5.5032814E-01;  4.0000000E+04;  0.0000000E+00;  0.0000000E+00;  4.0000000E+04;  0.0000000E+00;  4.0000000E+04;  3.9992899E-01;  0.0000000E+00;  1.5039916E-01;  1.1971964E+04;
  5.0000001E-02;  9.9999998E-03;  3.1999999E-01;1986;  0.0000000E+00;  0.0000000E+00;  0.0000000E+00;  1.0000000E+03;  1.0000000E-01;  0.0000000E+00;0;  0.0000000E+00;  0.0000000E+00;  0.0000000E+00;0;  4.5969543E-01;  4.0000000E+04;  0.0000000E+00;  0.0000000E+00;  4.0000000E+04;  0.0000000E+00;  4.0000000E+04;  3.1490088E-01;  0.0000000E+00;  1.4479455E-01;  1.0150232E+04;
  5.0000001E-02;  9.9999998E-03;  3.3000001E-01;1987;  0.0000000E+00;  0.0000000E+00;  0.0000000E+00;  1.0000000E+03;  1.0000000E-01;  0.0000000E+00;0;  0.0000000E+00;  0.0000000E+00;  0.0000000E+00;0;  3.7296098E-01;  4.0000000E+04;  0.0000000E+00;  0.0000000E+00;  4.0000000E+04;  0.0000000E+00;  4.0000000E+04;  2.3975091E-01;  0.0000000E+00;  1.3321006E-01;  8.2873574E+03;
  5.0000001E-02;  9.9999998E-03;  3.4000000E-01;1988;  0.0000000E+00;  0.0000000E+00;  0.0000000E+00;  1.0000000E+03;  1.0000000E-01;  0.0000000E+00;0;  0.0000000E+00;  0.0000000E+00;  0.0000000E+00;0;  2.9412764E-01;  4.0000000E+04;  0.0000000E+00;  0.0000000E+00;  4.0000000E+04;  0.0000000E+00;  4.0000000E+04;  1.7608014E-01;  0.0000000E+00;  1.1804751E-01;  6.5294614E+03;
  5.0000001E-02;  9.9999998E-03;  3.4999999E-01;1989;  0.0000000E+00;  0.0000000E+00;  0.0000000E+00;  1.0000000E+03;  1.0000000E-01;  0.0000000E+00;0;  0.0000000E+00;  0.0000000E+00;  0.0000000E+00;0;  2.2562146E-01;  4.0000000E+04;  0.0000000E+00;  0.0000000E+00;  4.0000000E+04;  0.0000000E+00;  4.0000000E+04;  1.2436944E-01;  0.0000000E+00;  1.0125202E-01;  4.9630620E+03;
  5.0000001E-02;  9.9999998E-03;  3.6000001E-01;1990;  0.0000000E+00;  0.0000000E+00;  0.0000000E+00;  1.0000000E+03;  1.0000000E-01;  0.0000000E+00;0;  0.0000000E+00;  0.0000000E+00;  0.0000000E+00;0;  1.6835049E-01;  4.0000000E+04;  0.0000000E+00;  0.0000000E+00;  4.0000000E+04;  0.0000000E+00;  4.0000000E+04;  8.4150150E-02;  0.0000000E+00;  8.4200330E-02;  3.6283472E+03;
  5.0000001E-02;  9.9999998E-03;  3.7000000E-01;1991;  0.0000000E+00;  0.0000000E+00;  0.0000000E+00;  1.0000000E+03;  1.0000000E-01;  0.0000000E+00;0;  0.0000000E+00;  0.0000000E+00;  0.0000000E+00;0;  1.2203428E-01;  4.0000000E+04;  0.0000000E+00;  0.0000000E+00;  4.0000000E+04;  0.0000000E+00;  4.0000000E+04;  5.4254841E-02;  0.0000000E+00;  6.7779444E-02;  2.5346790E+03;
  5.0000001E-02;  9.9999998E-03;  3.8000000E-01;1992;  0.0000000E+00;  0.0000000E+00;  0.0000000E+00;  1.0000000E+03;  1.0000000E-01;  0.0000000E+00;0;  0.0000000E+00;  0.0000000E+00;  0.0000000E+00;0;  8.5622959E-02;  4.0000000E+04;  0.0000000E+00;  0.0000000E+00;  4.0000000E+04;  0.0000000E+00;  4.0000000E+04;  3.3090752E-02;  0.0000000E+00;  5.2532207E-02;  1.6733342E+03;
  5.0000001E-02;  9.9999998E-03;  3.8999999E-01;1993;  0.0000000E+00;  0.0000000E+00;  0.0000000E+00;  1.0000000E+03;  1.0000000E-01;  0.0000000E+00;0;  0.0000000E+00;  0.0000000E+00;  0.0000000E+00;0;  5.7706982E-02;  4.0000000E+04;  0.0000000E+00;  0.0000000E+00;  4.0000000E+04;  0.0000000E+00;  4.0000000E+04;  1.8898593E-02;  0.0000000E+00;  3.8808387E-02;  1.0259423E+03;
  5.0000001E-02;  9.9999998E-03;  4.0000001E-01;1994;  0.0000000E+00;  0.0000000E+00;  0.0000000E+00;  1.0000000E+03;  1.0000000E-01;  0.0000000E+00;0;  0.0000000E+00;  0.0000000E+00;  0.0000000E+00;0;  3.6848605E-02;  4.0000000E+04;  0.0000000E+00;  0.0000000E+00;  4.0000000E+04;  0.0000000E+00;  4.0000000E+04;  9.9600591E-03;  0.0000000E+00;  2.6888547E-02;  5.6872968E+02;
  5.9999999E-02;  9.9999998E-03;  3.1000000E-01;2015;  0.0000000E+00;  0.0000000E+00;  0.0000000E+00;  1.0000000E+03;  1.0000000E-01;  0.0000000E+00;0;  0.0000000E+00;  0.0000000E+00;  0.0000000E+00;0;  5.4783577E-01;  4.0000000E+04;  0.0000000E+00;  0.0000000E+00;  4.0000000E+04;  0.0000000E+00;  4.0000000E+04;  4.0291202E-01;  0.0000000E+00;  1.4492376E-01;  1.3147813E+04;
  5.9999999E-02;  9.9999998E-03;  3.1999999E-01;2016;  0.0000000E+00;  0.0000000E+00;  0.0000000E+00;  1.0000000E+03;  1.0000000E-01;  0.0000000E+00;0;  0.0000000E+00;  0.0000000E+00;  0.0000000E+00;0;  4.6194202E-01;  4.0000000E+04;  0.0000000E+00;  0.0000000E+00;  4.0000000E+04;  0.0000000E+00;  4.0000000E+04;  3.2082057E-01;  0.0000000E+00;  1.4112145E-01;  1.1247953E+04;
  5.9999999E-02;  9.9999998E-03;  3.3000001E-01;2017;  0.0000000E+00;  0.0000000E+00;  0.0000000E+00;  1.0000000E+03;  1.0000000E-01;  0.0000000E+00;0;  0.0000000E+00;  0.0000000E+00;  0.0000000E+00;0;  3.7794682E-01;  4.0000000E+04;  0.0000000E+00;  0.0000000E+00;  4.0000000E+04;  0.0000000E+00;  4.0000000E+04;  2.4686868E-01;  0.0000000E+00;  1.3107814E-01;  9.2618398E+03;
  5.9999999E-02;  9.9999998E-03;  3.4000000E-01;2018;  0.0000000E+00;  0.0000000E+00;  0.0000000E+00;  1.0000000E+03;  1.0000000E-01;  0.0000000E+00;0;  0.0000000E+00;  0.0000000E+00;  0.0000000E+00;0;  3.0027011E-01;  4.0000000E+04;  0.0000000E+00;  0.0000000E+00;  4.0000000E+04;  0.0000000E+00;  4.0000000E+04;  1.8317242E-01;  0.0000000E+00;  1.1709769E-01;  7.3594785E+03;
  5.9999999E-02;  9.9999998E-03;  3.4999999E-01;2019;  0.0000000E+00;  0.0000000E+00;  0.0000000E+00;  1.0000000E+03;  1.0000000E-01;  0.0000000E+00;0;  0.0000000E+00;  0.0000000E+00;  0.0000000E+00;0;  2.3178990E-01;  4.0000000E+04;  0.0000000E+00;  0.0000000E+00;  4.0000000E+04;  0.0000000E+00;  4.0000000E+04;  1.3067456E-01;  0.0000000E+00;  1.0111535E-01;  5.6441846E+03;
  5.9999999E-02;  9.9999998E-03;  3.6000001E-01;2020;  0.0000000E+00;  0.0000000E+00;  0.0000000E+00;  1.0000000E+03;  1.0000000E-01;  0.0000000E+00;0;  0.0000000E+00;  0.0000000E+00;  0.0000000E+00;0;  1.7383385E-01;  4.0000000E+04;  0.0000000E+00;  0.0000000E+00;  4.0000000E+04;  0.0000000E+00;  4.0000000E+04;  8.9287467E-02;  0.0000000E+00;  8.4546387E-02;  4.1667549E+03;
  5.9999999E-02;  9.9999998E-03;  3.7000000E-01;2021;  0.0000000E+00;  0.0000000E+00;  0.0000000E+00;  1.0000000E+03;  1.0000000E-01;  0.0000000E+00;0;  0.0000000E+00;  0.0000000E+00;  0.0000000E+00;0;  1.2646753E-01;  4.0000000E+04;  0.0000000E+00;  0.0000000E+00;  4.0000000E+04;  0.0000000E+00;  4.0000000E+04;  5.8130283E-02;  0.0000000E+00;  6.8337239E-02;  2.9429165E+03;
  5.9999999E-02;  9.9999998E-03;  3.8000000E-01;2022;  0.0000000E+00;  0.0000000E+00;  0.0000000E+00;  1.0000000E+03;  1.0000000E-01;  0.0000000E+00;0;  0.0000000E+00;  0.0000000E+00;  0.0000000E+00;0;  8.8897303E-02;  4.0000000E+04;  0.0000000E+00;  0.0000000E+00;  4.0000000E+04;  0.0000000E+00;  4.0000000E+04;  3.5800401E-02;  0.0000000E+00;  5.3096898E-02;  1.9678480E+03;
  5.9999999E-02;  9.9999998E-03;  3.8999999E-01;2023;  0.0000000E+00;  0.0000000E+00;  0.0000000E+00;  1.0000000E+03;  1.0000000E-01;  0.0000000E+00;0;  0.0000000E+00;  0.0000000E+00;  0.0000000E+00;0;  5.9887424E-02;  4.0000000E+04;  0.0000000E+00;  0.0000000E+00;  4.0000000E+04;  0.0000000E+00;  4.0000000E+04;  2.0643342E-02;  0.0000000E+00;  3.9244082E-02;  1.2257711E+03;
  5.9999999E-02;  9.9999998E-03;  4.0000001E-01;2024;  0.0000000E+00;  0.0000000E+00;  0.0000000E+00;  1.0000000E+03;  1.0000000E-01;  0.0000000E+00;0;  0.0000000E+00;  0.0000000E+00;  0.0000000E+00;0;  3.8110688E-02;  4.0000000E+04;  0.0000000E+00;  0.0000000E+00;  4.0000000E+04;  0.0000000E+00;  4.0000000E+04;  1.0979415E-02;  0.0000000E+00;  2.7131272E-02;  6.9450519E+02;
  7.0000000E-02;  9.9999998E-03;  3.1000000E-01;2045;  0.0000000E+00;  0.0000000E+00;  0.0000000E+00;  1.0000000E+03;  1.0000000E-01;  0.0000000E+00;0;  0.0000000E+00;  0.0000000E+00;  0.0000000E+00;0;  5.4122627E-01;  4.0000000E+04;  0.0000000E+00;  0.0000000E+00;  4.0000000E+04;  0.0000000E+00;  4.0000000E+04;  4.0499321E-01;  0.0000000E+00;  1.3623309E-01;  1.4029314E+04;
  7.0000000E-02;  9.9999998E-03;  3.1999999E-01;2046;  0.0000000E+00;  0.0000000E+00;  0.0000000E+00;  1.0000000E+03;  1.0000000E-01;  0.0000000E+00;0;  0.0000000E+00;  0.0000000E+00;  0.0000000E+00;0;  4.6073157E-01;  4.0000000E+04;  0.0000000E+00;  0.0000000E+00;  4.0000000E+04;  0.0000000E+00;  4.0000000E+04;  3.2627663E-01;  0.0000000E+00;  1.3445494E-01;  1.2101323E+04;
  7.0000000E-02;  9.9999998E-03;  3.3000001E-01;2047;  0.0000000E+00;  0.0000000E+00;  0.0000000E+00;  1.0000000E+03;  1.0000000E-01;  0.0000000E+00;0;  0.0000000E+00;  0.0000000E+00;  0.0000000E+00;0;  3.8013011E-01;  4.0000000E+04;  0.0000000E+00;  0.0000000E+00;  4.0000000E+04;  0.0000000E+00;  4.0000000E+04;  2.5386342E-01;  0.0000000E+00;  1.2626669E-01;  1.0042001E+04;
  7.0000000E-02;  9.9999998E-03;  3.4000000E-01;2048;  0.0000000E+00;  0.0000000E+00;  0.0000000E+00;  1.0000000E+03;  1.0000000E-01;  0.0000000E+00;0;  0.0000000E+00;  0.0000000E+00;  0.0000000E+00;0;  3.0422172E-01;  4.0000000E+04;  0.0000000E+00;  0.0000000E+00;  4.0000000E+04;  0.0000000E+00;  4.0000000E+04;  1.9037996E-01;  0.0000000E+00;  1.1384176E-01;  8.0404282E+03;
  7.0000000E-02;  9.9999998E-03;  3.4999999E-01;2049;  0.0000000E+00;  0.0000000E+00;  0.0000000E+00;  1.0000000E+03;  1.0000000E-01;  0.0000000E+00;0;  0.0000000E+00;  0.0000000E+00;  0.0000000E+00;0;  2.3630732E-01;  4.0000000E+04;  0.0000000E+00;  0.0000000E+00;  4.0000000E+04;  0.0000000E+00;  4.0000000E+04;  1.3723874E-01;  0.0000000E+00;  9.9068590E-02;  6.2145171E+03;
  7.0000000E-02;  9.9999998E-03;  3.6000001E-01;2050;  0.0000000E+00;  0.0000000E+00;  0.0000000E+00;  1.0000000E+03;  1.0000000E-01;  0.0000000E+00;0;  0.0000000E+00;  0.0000000E+00;  0.0000000E+00;0;  1.7812249E-01;  4.0000000E+04;  0.0000000E+00;  0.0000000E+00;  4.0000000E+04;  0.0000000E+00;  4.0000000E+04;  9.4750419E-02;  0.0000000E+00;  8.3372064E-02;  4.6251050E+03;
  7.0000000E-02;  9.9999998E-03;  3.7000000E-01;2051;  0.0000000E+00;  0.0000000E+00;  0.0000000E+00;  1.0000000E+03;  1.0000000E-01;  0.0000000E+00;0;  0.0000000E+00;  0.0000000E+00;  0.0000000E+00;0;  1.3007461E-01;  4.0000000E+04;  0.0000000E+00;  0.0000000E+00;  4.0000000E+04;  0.0000000E+00;  4.0000000E+04;  6.2337827E-02;  0.0000000E+00;  6.7736775E-02;  3.2944612E+03;
  7.0000000E-02;  9.9999998E-03;  3.8000000E-01;2052;  0.0000000E+00;  0.0000000E+00;  0.0000000E+00;  1.0000000E+03;  1.0000000E-01;  0.0000000E+00;0;  0.0000000E+00;  0.0000000E+00;  0.0000000E+00;0;  9.1630653E-02;  4.0000000E+04;  0.0000000E+00;  0.0000000E+00;  4.0000000E+04;  0.0000000E+00;  4.0000000E+04;  3.8807709E-02;  0.0000000E+00;  5.2822948E-02;  2.2223147E+03;
  7.0000000E-02;  9.9999998E-03;  3.8999999E-01;2053;  0.0000000E+00;  0.0000000E+00;  0.0000000E+00;  1.0000000E+03;  1.0000000E-01;  0.0000000E+00;0;  0.0000000E+00;  0.0000000E+00;  0.0000000E+00;0;  6.1738767E-02;  4.0000000E+04;  0.0000000E+00;  0.0000000E+00;  4.0000000E+04;  0.0000000E+00;  4.0000000E+04;  2.2630591E-02;  0.0000000E+00;  3.9108176E-02;  1.3965702E+03;
  7.0000000E-02;  9.9999998E-03;  4.0000001E-01;2054;  0.0000000E+00;  0.0000000E+00;  0.0000000E+00;  1.0000000E+03;  1.0000000E-01;  0.0000000E+00;0;  0.0000000E+00;  0.0000000E+00;  0.0000000E+00;0;  3.9191671E-02;  4.0000000E+04;  0.0000000E+00;  0.0000000E+00;  4.0000000E+04;  0.0000000E+00;  4.0000000E+04;  1.2180851E-02;  0.0000000E+00;  2.7010819E-02;  7.9824188E+02;
  7.9999998E-02;  9.9999998E-03;  3.1000000E-01;2075;  0.0000000E+00;  0.0000000E+00;  0.0000000E+00;  1.0000000E+03;  1.0000000E-01;  0.0000000E+00;0;  0.0000000E+00;  0.0000000E+00;  0.0000000E+00;0;  5.3220558E-01;  4.0000000E+04;  0.0000000E+00;  0.0000000E+00;  4.0000000E+04;  0.0000000E+00;  4.0000000E+04;  4.0733901E-01;  0.0000000E+00;  1.2486660E-01;  1.4566016E+04;
  7.9999998E-02;  9.9999998E-03;  3.1999999E-01;2076;  0.0000000E+00;  0.0000000E+00;  0.0000000E+00;  1.0000000E+03;  1.0000000E-01;  0.0000000E+00;0;  0.0000000E+00;  0.0000000E+00;  0.0000000E+00;0;  4.5749739E-01;  4.0000000E+04;  0.0000000E+00;  0.0000000E+00;  4.0000000E+04;  0.0000000E+00;  4.0000000E+04;  3.3223170E-01;  0.0000000E+00;  1.2526569E-01;  1.2663264E+04;
  7.9999998E-02;  9.9999998E-03;  3.3000001E-01;2077;  0.0000000E+00;  0.0000000E+00;  0.0000000E+00;  1.0000000E+03;  1.0000000E-01;  0.0000000E+00;0;  0.0000000E+00;  0.0000000E+00;  0.0000000E+00;0;  3.8066906E-01;  4.0000000E+04;  0.0000000E+00;  0.0000000E+00;  4.0000000E+04;  0.0000000E+00;  4.0000000E+04;  2.6151767E-01;  0.0000000E+00;  1.1915137E-01;  1.0586488E+04;
  7.9999998E-02;  9.9999998E-03;  3.4000000E-01;2078;  0.0000000E+00;  0.0000000E+00;  0.0000000E+00;  1.0000000E+03;  1.0000000E-01;  0.0000000E+00;0;  0.0000000E+00;  0.0000000E+00;  0.0000000E+00;0;  3.0688614E-01;  4.0000000E+04;  0.0000000E+00;  0.0000000E+00;  4.0000000E+04;  0.0000000E+00;  4.0000000E+04;  1.9832587E-01;  0.0000000E+00;  1.0856026E-01;  8.5375498E+03;
  7.9999998E-02;  9.9999998E-03;  3.4999999E-01;2079;  0.0000000E+00;  0.0000000E+00;  0.0000000E+00;  1.0000000E+03;  1.0000000E-01;  0.0000000E+00;0;  0.0000000E+00;  0.0000000E+00;  0.0000000E+00;0;  2.3986186E-01;  4.0000000E+04;  0.0000000E+00;  0.0000000E+00;  4.0000000E+04;  0.0000000E+00;  4.0000000E+04;  1.4454788E-01;  0.0000000E+00;  9.5313981E-02;  6.6460308E+03;
  7.9999998E-02;  9.9999998E-03;  3.6000001E-01;2080;  0.0000000E+00;  0.0000000E+00;  0.0000000E+00;  1.0000000E+03;  1.0000000E-01;  0.0000000E+00;0;  0.0000000E+00;  0.0000000E+00;  0.0000000E+00;0;  1.8172473E-01;  4.0000000E+04;  0.0000000E+00;  0.0000000E+00;  4.0000000E+04;  0.0000000E+00;  4.0000000E+04;  1.0090335E-01;  0.0000000E+00;  8.0821380E-02;  4.9817788E+03;
  7.9999998E-02;  9.9999998E-03;  3.7000000E-01;2081;  0.0000000E+00;  0.0000000E+00;  0.0000000E+00;  1.0000000E+03;  1.0000000E-01;  0.0000000E+00;0;  0.0000000E+00;  0.0000000E+00;  0.0000000E+00;0;  1.3322137E-01;  4.0000000E+04;  0.0000000E+00;  0.0000000E+00;  4.0000000E+04;  0.0000000E+00;  4.0000000E+04;  6.7137197E-02;  0.0000000E+00;  6.6084176E-02;  3.5736768E+03;
  7.9999998E-02;  9.9999998E-03;  3.8000000E-01;2082;  0.0000000E+00;  0.0000000E+00;  0.0000000E+00;  1.0000000E+03;  1.0000000E-01;  0.0000000E+00;0;  0.0000000E+00;  0.0000000E+00;  0.0000000E+00;0;  9.4083548E-02;  4.0000000E+04;  0.0000000E+00;  0.0000000E+00;  4.0000000E+04;  0.0000000E+00;  4.0000000E+04;  4.2286083E-02;  0.0000000E+00;  5.1797464E-02;  2.4265576E+03;
  7.9999998E-02;  9.9999998E-03;  3.8999999E-01;2083;  0.0000000E+00;  0.0000000E+00;  0.0000000E+00;  1.0000000E+03;  1.0000000E-01;  0.0000000E+00;0;  0.0000000E+00;  0.0000000E+00;  0.0000000E+00;0;  6.3449018E-02;  4.0000000E+04;  0.0000000E+00;  0.0000000E+00;  4.0000000E+04;  0.0000000E+00;  4.0000000E+04;  2.4964847E-02;  0.0000000E+00;  3.8484171E-02;  1.5328036E+03;
  7.9999998E-02;  9.9999998E-03;  4.0000001E-01;2084;  0.0000000E+00;  0.0000000E+00;  0.0000000E+00;  1.0000000E+03;  1.0000000E-01;  0.0000000E+00;0;  0.0000000E+00;  0.0000000E+00;  0.0000000E+00;0;  4.0232930E-02;  4.0000000E+04;  0.0000000E+00;  0.0000000E+00;  4.0000000E+04;  0.0000000E+00;  4.0000000E+04;  1.3618210E-02;  0.0000000E+00;  2.6614720E-02;  8.7768115E+02;
  9.0000004E-02;  9.9999998E-03;  3.1000000E-01;2105;  0.0000000E+00;  0.0000000E+00;  0.0000000E+00;  1.0000000E+03;  1.0000000E-01;  0.0000000E+00;0;  0.0000000E+00;  0.0000000E+00;  0.0000000E+00;0;  5.2193242E-01;  4.0000000E+04;  0.0000000E+00;  0.0000000E+00;  4.0000000E+04;  0.0000000E+00;  4.0000000E+04;  4.1070011E-01;  0.0000000E+00;  1.1123231E-01;  1.4737551E+04;
  9.0000004E-02;  9.9999998E-03;  3.1999999E-01;2106;  0.0000000E+00;  0.0000000E+00;  0.0000000E+00;  1.0000000E+03;  1.0000000E-01;  0.0000000E+00;0;  0.0000000E+00;  0.0000000E+00;  0.0000000E+00;0;  4.5324707E-01;  4.0000000E+04;  0.0000000E+00;  0.0000000E+00;  4.0000000E+04;  0.0000000E+00;  4.0000000E+04;  3.3933711E-01;  0.0000000E+00;  1.1390995E-01;  1.2909903E+04;
  9.0000004E-02;  9.9999998E-03;  3.3000001E-01;2107;  0.0000000E+00;  0.0000000E+00;  0.0000000E+00;  1.0000000E+03;  1.0000000E-01;  0.0000000E+00;0;  0.0000000E+00;  0.0000000E+00;  0.0000000E+00;0;  3.8041520E-01;  4.0000000E+04;  0.0000000E+00;  0.0000000E+00;  4.0000000E+04;  0.0000000E+00;  4.0000000E+04;  2.7039596E-01;  0.0000000E+00;  1.1001925E-01;  1.0872987E+04;
  9.0000004E-02;  9.9999998E-03;  3.4000000E-01;2108;  0.0000000E+00;  0.0000000E+00;  0.0000000E+00;  1.0000000E+03;  1.0000000E-01;  0.0000000E+00;0;  0.0000000E+00;  0.0000000E+00;  0.0000000E+00;0;  3.0896214E-01;  4.0000000E+04;  0.0000000E+00;  0.0000000E+00;  4.0000000E+04;  0.0000000E+00;  4.0000000E+04;  2.0749237E-01;  0.0000000E+00;  1.0146977E-01;  8.8323496E+03;
  9.0000004E-02;  9.9999998E-03;  3.4999999E-01;2109;  0.0000000E+00;  0.0000000E+00;  0.0000000E+00;  1.0000000E+03;  1.0000000E-01;  0.0000000E+00;0;  0.0000000E+00;  0.0000000E+00;  0.0000000E+00;0;  2.4300104E-01;  4.0000000E+04;  0.0000000E+00;  0.0000000E+00;  4.0000000E+04;  0.0000000E+00;  4.0000000E+04;  1.5299727E-01;  0.0000000E+00;  9.0003774E-02;  6.9240229E+03;
  9.0000004E-02;  9.9999998E-03;  3.6000001E-01;2110;  0.0000000E+00;  0.0000000E+00;  0.0000000E+00;  1.0000000E+03;  1.0000000E-01;  0.0000000E+00;0;  0.0000000E+00;  0.0000000E+00;  0.0000000E+00;0;  1.8505242E-01;  4.0000000E+04;  0.0000000E+00;  0.0000000E+00;  4.0000000E+04;  0.0000000E+00;  4.0000000E+04;  1.0805665E-01;  0.0000000E+00;  7.6995768E-02;  5.2253628E+03;
  9.0000004E-02;  9.9999998E-03;  3.7000000E-01;2111;  0.0000000E+00;  0.0000000E+00;  0.0000000E+00;  1.0000000E+03;  1.0000000E-01;  0.0000000E+00;0;  0.0000000E+00;  0.0000000E+00;  0.0000000E+00;0;  1.3620599E-01;  4.0000000E+04;  0.0000000E+00;  0.0000000E+00;  4.0000000E+04;  0.0000000E+00;  4.0000000E+04;  7.2761089E-02;  0.0000000E+00;  6.3444898E-02;  3.7721909E+03;
  9.0000004E-02;  9.9999998E-03;  3.8000000E-01;2112;  0.0000000E+00;  0.0000000E+00;  0.0000000E+00;  1.0000000E+03;  1.0000000E-01;  0.0000000E+00;0;  0.0000000E+00;  0.0000000E+00;  0.0000000E+00;0;  9.6466720E-02;  4.0000000E+04;  0.0000000E+00;  0.0000000E+00;  4.0000000E+04;  0.0000000E+00;  4.0000000E+04;  4.6401396E-02;  0.0000000E+00;  5.0065320E-02;  2.5752974E+03;
  9.0000004E-02;  9.9999998E-03;  3.8999999E-01;2113;  0.0000000E+00;  0.0000000E+00;  0.0000000E+00;  1.0000000E+03;  1.0000000E-01;  0.0000000E+00;0;  0.0000000E+00;  0.0000000E+00;  0.0000000E+00;0;  6.5166250E-02;  4.0000000E+04;  0.0000000E+00;  0.0000000E+00;  4.0000000E+04;  0.0000000E+00;  4.0000000E+04;  2.7756298E-02;  0.0000000E+00;  3.7409954E-02;  1.6323641E+03;
  9.0000004E-02;  9.9999998E-03;  4.0000001E-01;2114;  0.0000000E+00;  0.0000000E+00;  0.0000000E+00;  1.0000000E+03;  1.0000000E-01;  0.0000000E+00;0;  0.0000000E+00;  0.0000000E+00;  0.0000000E+00;0;  4.1341312E-02;  4.0000000E+04;  0.0000000E+00;  0.0000000E+00;  4.0000000E+04;  0.0000000E+00;  4.0000000E+04;  1.5355763E-02;  0.0000000E+00;  2.5985550E-02;  9.3375751E+02;
  1.0000000E-01;  9.9999998E-03;  3.1000000E-01;2135;  0.0000000E+00;  0.0000000E+00;  0.0000000E+00;  1.0000000E+03;  1.0000000E-01;  0.0000000E+00;0;  0.0000000E+00;  0.0000000E+00;  0.0000000E+00;0;  5.1096022E-01;  4.0000000E+04;  0.0000000E+00;  0.0000000E+00;  4.0000000E+04;  0.0000000E+00;  4.0000000E+04;  4.1537374E-01;  0.0000000E+00;  9.5586456E-02;  1.4597713E+04;
  1.0000000E-01;  9.9999998E-03;  3.1999999E-01;2136;  0.0000000E+00;  0.0000000E+00;  0.0000000E+00;  1.0000000E+03;  1.0000000E-01;  0.0000000E+00;0;  0.0000000E+00;  0.0000000E+00;  0.0000000E+00;0;  4.4848287E-01;  4.0000000E+04;  0.0000000E+00;  0.0000000E+00;  4.0000000E+04;  0.0000000E+00;  4.0000000E+04;  3.4788546E-01;  0.0000000E+00;  1.0059741E-01;  1.2860016E+04;
  1.0000000E-01;  9.9999998E-03;  3.3000001E-01;2137;  0.0000000E+00;  0.0000000E+00;  0.0000000E+00;  1.0000000E+03;  1.0000000E-01;  0.0000000E+00;0;  0.0000000E+00;  0.0000000E+00;  0.0000000E+00;0;  3.7982586E-01;  4.0000000E+04;  0.0000000E+00;  0.0000000E+00;  4.0000000E+04;  0.0000000E+00;  4.0000000E+04;  2.8079301E-01;  0.0000000E+00;  9.9032857E-02;  1.0903155E+04;
  1.0000000E-01;  9.9999998E-03;  3.4000000E-01;2138;  0.0000000E+00;  0.0000000E+00;  0.0000000E+00;  1.0000000E+03;  1.0000000E-01;  0.0000000E+00;0;  0.0000000E+00;  0.0000000E+00;  0.0000000E+00;0;  3.1084475E-01;  4.0000000E+04;  0.0000000E+00;  0.0000000E+00;  4.0000000E+04;  0.0000000E+00;  4.0000000E+04;  2.1816097E-01;  0.0000000E+00;  9.2683770E-02;  8.9211543E+03;
  1.0000000E-01;  9.9999998E-03;  3.4999999E-01;2139;  0.0000000E+00;  0.0000000E+00;  0.0000000E+00;  1.0000000E+03;  1.0000000E-01;  0.0000000E+00;0;  0.0000000E+00;  0.0000000E+00;  0.0000000E+00;0;  2.4604531E-01;  4.0000000E+04;  0.0000000E+00;  0.0000000E+00;  4.0000000E+04;  0.0000000E+00;  4.0000000E+04;  1.6283883E-01;  0.0000000E+00;  8.3206475E-02;  7.0449746E+03;
  1.0000000E-01;  9.9999998E-03;  3.6000001E-01;2140;  0.0000000E+00;  0.0000000E+00;  0.0000000E+00;  1.0000000E+03;  1.0000000E-01;  0.0000000E+00;0;  0.0000000E+00;  0.0000000E+00;  0.0000000E+00;0;  1.8834838E-01;  4.0000000E+04;  0.0000000E+00;  0.0000000E+00;  4.0000000E+04;  0.0000000E+00;  4.0000000E+04;  1.1642217E-01;  0.0000000E+00;  7.1926214E-02;  5.3537617E+03;
  1.0000000E-01;  9.9999998E-03;  3.7000000E-01;2141;  0.0000000E+00;  0.0000000E+00;  0.0000000E+00;  1.0000000E+03;  1.0000000E-01;  0.0000000E+00;0;  0.0000000E+00;  0.0000000E+00;  0.0000000E+00;0;  1.3920261E-01;  4.0000000E+04;  0.0000000E+00;  0.0000000E+00;  4.0000000E+04;  0.0000000E+00;  4.0000000E+04;  7.9378940E-02;  0.0000000E+00;  5.9823669E-02;  3.8890532E+03;
  1.0000000E-01;  9.9999998E-03;  3.8000000E-01;2142;  0.0000000E+00;  0.0000000E+00;  0.0000000E+00;  1.0000000E+03;  1.0000000E-01;  0.0000000E+00;0;  0.0000000E+00;  0.0000000E+00;  0.0000000E+00;0;  9.8898262E-02;  4.0000000E+04;  0.0000000E+00;  0.0000000E+00;  4.0000000E+04;  0.0000000E+00;  4.0000000E+04;  5.1283050E-02;  0.0000000E+00;  4.7615215E-02;  2.6684600E+03;
  1.0000000E-01;  9.9999998E-03;  3.8999999E-01;2143;  0.0000000E+00;  0.0000000E+00;  0.0000000E+00;  1.0000000E+03;  1.0000000E-01;  0.0000000E+00;0;  0.0000000E+00;  0.0000000E+00;  0.0000000E+00;0;  6.6967078E-02;  4.0000000E+04;  0.0000000E+00;  0.0000000E+00;  4.0000000E+04;  0.0000000E+00;  4.0000000E+04;  3.1099092E-02;  0.0000000E+00;  3.5867985E-02;  1.6964261E+03;
  1.0000000E-01;  9.9999998E-03;  4.0000001E-01;2144;  0.0000000E+00;  0.0000000E+00;  0.0000000E+00;  1.0000000E+03;  1.0000000E-01;  0.0000000E+00;0;  0.0000000E+00;  0.0000000E+00;  0.0000000E+00;0;  4.2565674E-02;  4.0000000E+04;  0.0000000E+00;  0.0000000E+00;  4.0000000E+04;  0.0000000E+00;  4.0000000E+04;  1.7457070E-02;  0.0000000E+00;  2.5108604E-02;  9.6986896E+02;
  1.1000000E-01;  9.9999998E-03;  3.1000000E-01;2165;  0.0000000E+00;  0.0000000E+00;  0.0000000E+00;  1.0000000E+03;  1.0000000E-01;  0.0000000E+00;0;  0.0000000E+00;  0.0000000E+00;  0.0000000E+00;0;  4.9925405E-01;  4.0000000E+04;  0.0000000E+00;  0.0000000E+00;  4.0000000E+04;  0.0000000E+00;  4.0000000E+04;  4.2120570E-01;  0.0000000E+00;  7.8048334E-02;  1.4499309E+04;
  1.1000000E-01;  9.9999998E-03;  3.1999999E-01;2166;  0.0000000E+00;  0.0000000E+00;  0.0000000E+00;  1.0000000E+03;  1.0000000E-01;  0.0000000E+00;0;  0.0000000E+00;  0.0000000E+00;  0.0000000E+00;0;  4.4319302E-01;  4.0000000E+04;  0.0000000E+00;  0.0000000E+00;  4.0000000E+04;  0.0000000E+00;  4.0000000E+04;  3.5779339E-01;  0.0000000E+00;  8.5399628E-02;  1.2714521E+04;
  1.1000000E-01;  9.9999998E-03;  3.3000001E-01;2167;  0.0000000E+00;  0.0000000E+00;  0.0000000E+00;  1.0000000E+03;  1.0000000E-01;  0.0000000E+00;0;  0.0000000E+00;  0.0000000E+00;  0.0000000E+00;0;  3.7892261E-01;  4.0000000E+04;  0.0000000E+00;  0.0000000E+00;  4.0000000E+04;  0.0000000E+00;  4.0000000E+04;  2.9269490E-01;  0.0000000E+00;  8.6227715E-02;  1.0772998E+04;
  1.1000000E-01;  9.9999998E-03;  3.4000000E-01;2168;  0.0000000E+00;  0.0000000E+00;  0.0000000E+00;  1.0000000E+03;  1.0000000E-01;  0.0000000E+00;0;  0.0000000E+00;  0.0000000E+00;  0.0000000E+00;0;  3.1257749E-01;  4.0000000E+04;  0.0000000E+00;  0.0000000E+00;  4.0000000E+04;  0.0000000E+00;  4.0000000E+04;  2.3037064E-01;  0.0000000E+00;  8.2206845E-02;  8.8413857E+03;
  1.1000000E-01;  9.9999998E-03;  3.4999999E-01;2169;  0.0000000E+00;  0.0000000E+00;  0.0000000E+00;  1.0000000E+03;  1.0000000E-01;  0.0000000E+00;0;  0.0000000E+00;  0.0000000E+00;  0.0000000E+00;0;  2.4904235E-01;  4.0000000E+04;  0.0000000E+00;  0.0000000E+00;  4.0000000E+04;  0.0000000E+00;  4.0000000E+04;  1.7414238E-01;  0.0000000E+00;  7.4899971E-02;  7.0211240E+03;
  1.1000000E-01;  9.9999998E-03;  3.6000001E-01;2170;  0.0000000E+00;  0.0000000E+00;  0.0000000E+00;  1.0000000E+03;  1.0000000E-01;  0.0000000E+00;0;  0.0000000E+00;  0.0000000E+00;  0.0000000E+00;0;  1.9165084E-01;  4.0000000E+04;  0.0000000E+00;  0.0000000E+00;  4.0000000E+04;  0.0000000E+00;  4.0000000E+04;  1.2608109E-01;  0.0000000E+00;  6.5569751E-02;  5.3720444E+03;
  1.1000000E-01;  9.9999998E-03;  3.7000000E-01;2171;  0.0000000E+00;  0.0000000E+00;  0.0000000E+00;  1.0000000E+03;  1.0000000E-01;  0.0000000E+00;0;  0.0000000E+00;  0.0000000E+00;  0.0000000E+00;0;  1.4223184E-01;  4.0000000E+04;  0.0000000E+00;  0.0000000E+00;  4.0000000E+04;  0.0000000E+00;  4.0000000E+04;  8.7069526E-02;  0.0000000E+00;  5.5162311E-02;  3.9287153E+03;
  1.1000000E-01;  9.9999998E-03;  3.8000000E-01;2172;  0.0000000E+00;  0.0000000E+00;  0.0000000E+00;  1.0000000E+03;  1.0000000E-01;  0.0000000E+00;0;  0.0000000E+00;  0.0000000E+00;  0.0000000E+00;0;  1.0138055E-01;  4.0000000E+04;  0.0000000E+00;  0.0000000E+00;  4.0000000E+04;  0.0000000E+00;  4.0000000E+04;  5.7000253E-02;  0.0000000E+00;  4.4380296E-02;  2.7106697E+03;
  1.1000000E-01;  9.9999998E-03;  3.8999999E-01;2173;  0.0000000E+00;  0.0000000E+00;  0.0000000E+00;  1.0000000E+03;  1.0000000E-01;  0.0000000E+00;0;  0.0000000E+00;  0.0000000E+00;  0.0000000E+00;0;  6.8839602E-02;  4.0000000E+04;  0.0000000E+00;  0.0000000E+00;  4.0000000E+04;  0.0000000E+00;  4.0000000E+04;  3.5051111E-02;  0.0000000E+00;  3.3788491E-02;  1.7290555E+03;
  1.1000000E-01;  9.9999998E-03;  4.0000001E-01;2174;  0.0000000E+00;  0.0000000E+00;  0.0000000E+00;  1.0000000E+03;  1.0000000E-01;  0.0000000E+00;0;  0.0000000E+00;  0.0000000E+00;  0.0000000E+00;0;  4.3885820E-02;  4.0000000E+04;  0.0000000E+00;  0.0000000E+00;  4.0000000E+04;  0.0000000E+00;  4.0000000E+04;  1.9968785E-02;  0.0000000E+00;  2.3917032E-02;  9.8990417E+02;
  1.2000000E-01;  9.9999998E-03;  3.1000000E-01;2195;  0.0000000E+00;  0.0000000E+00;  0.0000000E+00;  1.0000000E+03;  1.0000000E-01;  0.0000000E+00;0;  0.0000000E+00;  0.0000000E+00;  0.0000000E+00;0;  4.8624009E-01;  4.0000000E+04;  0.0000000E+00;  0.0000000E+00;  4.0000000E+04;  0.0000000E+00;  4.0000000E+04;  4.2760977E-01;  0.0000000E+00;  5.8630314E-02;  1.5799507E+04;
  1.2000000E-01;  9.9999998E-03;  3.1999999E-01;2196;  0.0000000E+00;  0.0000000E+00;  0.0000000E+00;  1.0000000E+03;  1.0000000E-01;  0.0000000E+00;0;  0.0000000E+00;  0.0000000E+00;  0.0000000E+00;0;  4.3685851E-01;  4.0000000E+04;  0.0000000E+00;  0.0000000E+00;  4.0000000E+04;  0.0000000E+00;  4.0000000E+04;  3.6858088E-01;  0.0000000E+00;  6.8277620E-02;  1.3424375E+04;
  1.2000000E-01;  9.9999998E-03;  3.3000001E-01;2197;  0.0000000E+00;  0.0000000E+00;  0.0000000E+00;  1.0000000E+03;  1.0000000E-01;  0.0000000E+00;0;  0.0000000E+00;  0.0000000E+00;  0.0000000E+00;0;  3.7727517E-01;  4.0000000E+04;  0.0000000E+00;  0.0000000E+00;  4.0000000E+04;  0.0000000E+00;  4.0000000E+04;  3.0573797E-01;  0.0000000E+00;  7.1537189E-02;  1.1052985E+04;
  1.2000000E-01;  9.9999998E-03;  3.4000000E-01;2198;  0.0000000E+00;  0.0000000E+00;  0.0000000E+00;  1.0000000E+03;  1.0000000E-01;  0.0000000E+00;0;  0.0000000E+00;  0.0000000E+00;  0.0000000E+00;0;  3.1382185E-01;  4.0000000E+04;  0.0000000E+00;  0.0000000E+00;  4.0000000E+04;  0.0000000E+00;  4.0000000E+04;  2.4386555E-01;  0.0000000E+00;  6.9956295E-02;  8.8793789E+03;
  1.2000000E-01;  9.9999998E-03;  3.4999999E-01;2199;  0.0000000E+00;  0.0000000E+00;  0.0000000E+00;  1.0000000E+03;  1.0000000E-01;  0.0000000E+00;0;  0.0000000E+00;  0.0000000E+00;  0.0000000E+00;0;  2.5173312E-01;  4.0000000E+04;  0.0000000E+00;  0.0000000E+00;  4.0000000E+04;  0.0000000E+00;  4.0000000E+04;  1.8674193E-01;  0.0000000E+00;  6.4991191E-02;  6.9685225E+03;
  1.2000000E-01;  9.9999998E-03;  3.6000001E-01;2200;  0.0000000E+00;  0.0000000E+00;  0.0000000E+00;  1.0000000E+03;  1.0000000E-01;  0.0000000E+00;0;  0.0000000E+00;  0.0000000E+00;  0.0000000E+00;0;  1.9475882E-01;  4.0000000E+04;  0.0000000E+00;  0.0000000E+00;  4.0000000E+04;  0.0000000E+00;  4.0000000E+04;  1.3693340E-01;  0.0000000E+00;  5.7825420E-02;  5.3170591E+03;
  1.2000000E-01;  9.9999998E-03;  3.7000000E-01;2201;  0.0000000E+00;  0.0000000E+00;  0.0000000E+00;  1.0000000E+03;  1.0000000E-01;  0.0000000E+00;0;  0.0000000E+00;  0.0000000E+00;  0.0000000E+00;0;  1.4513272E-01;  4.0000000E+04;  0.0000000E+00;  0.0000000E+00;  4.0000000E+04;  0.0000000E+00;  4.0000000E+04;  9.5778339E-02;  0.0000000E+00;  4.9354374E-02;  3.9027644E+03;
  1.2000000E-01;  9.9999998E-03;  3.8000000E-01;2202;  0.0000000E+00;  0.0000000E+00;  0.0000000E+00;  1.0000000E+03;  1.0000000E-01;  0.0000000E+00;0;  0.0000000E+00;  0.0000000E+00;  0.0000000E+00;0;  1.0378034E-01;  4.0000000E+04;  0.0000000E+00;  0.0000000E+00;  4.0000000E+04;  0.0000000E+00;  4.0000000E+04;  6.3529365E-02;  0.0000000E+00;  4.0250976E-02;  2.7100300E+03;
  1.2000000E-01;  9.9999998E-03;  3.8999999E-01;2203;  0.0000000E+00;  0.0000000E+00;  0.0000000E+00;  1.0000000E+03;  1.0000000E-01;  0.0000000E+00;0;  0.0000000E+00;  0.0000000E+00;  0.0000000E+00;0;  7.0671767E-02;  4.0000000E+04;  0.0000000E+00;  0.0000000E+00;  4.0000000E+04;  0.0000000E+00;  4.0000000E+04;  3.9609309E-02;  0.0000000E+00;  3.1062461E-02;  1.7371823E+03;
  1.2000000E-01;  9.9999998E-03;  4.0000001E-01;2204;  0.0000000E+00;  0.0000000E+00;  0.0000000E+00;  1.0000000E+03;  1.0000000E-01;  0.0000000E+00;0;  0.0000000E+00;  0.0000000E+00;  0.0000000E+00;0;  4.5207828E-02;  4.0000000E+04;  0.0000000E+00;  0.0000000E+00;  4.0000000E+04;  0.0000000E+00;  4.0000000E+04;  2.2901854E-02;  0.0000000E+00;  2.2305977E-02;  9.9447699E+02;
  1.3000000E-01;  9.9999998E-03;  3.1000000E-01;2225;  0.0000000E+00;  0.0000000E+00;  0.0000000E+00;  1.0000000E+03;  1.0000000E-01;  0.0000000E+00;0;  0.0000000E+00;  0.0000000E+00;  0.0000000E+00;0;  4.7085318E-01;  4.0000000E+04;  0.0000000E+00;  0.0000000E+00;  4.0000000E+04;  0.0000000E+00;  4.0000000E+04;  4.3358448E-01;  0.0000000E+00;  3.7268709E-02;  2.1486027E+04;
  1.3000000E-01;  9.9999998E-03;  3.1999999E-01;2226;  0.0000000E+00;  0.0000000E+00;  0.0000000E+00;  1.0000000E+03;  1.0000000E-01;  0.0000000E+00;0;  0.0000000E+00;  0.0000000E+00;  0.0000000E+00;0;  4.2845291E-01;  4.0000000E+04;  0.0000000E+00;  0.0000000E+00;  4.0000000E+04;  0.0000000E+00;  4.0000000E+04;  3.7933394E-01;  0.0000000E+00;  4.9118970E-02;  1.7609766E+04;
  1.3000000E-01;  9.9999998E-03;  3.3000001E-01;2227;  0.0000000E+00;  0.0000000E+00;  0.0000000E+00;  1.0000000E+03;  1.0000000E-01;  0.0000000E+00;0;  0.0000000E+00;  0.0000000E+00;  0.0000000E+00;0;  3.7396860E-01;  4.0000000E+04;  0.0000000E+00;  0.0000000E+00;  4.0000000E+04;  0.0000000E+00;  4.0000000E+04;  3.1913587E-01;  0.0000000E+00;  5.4832723E-02;  1.3724688E+04;
  1.3000000E-01;  9.9999998E-03;  3.4000000E-01;2228;  0.0000000E+00;  0.0000000E+00;  0.0000000E+00;  1.0000000E+03;  1.0000000E-01;  0.0000000E+00;0;  0.0000000E+00;  0.0000000E+00;  0.0000000E+00;0;  3.1380638E-01;  4.0000000E+04;  0.0000000E+00;  0.0000000E+00;  4.0000000E+04;  0.0000000E+00;  4.0000000E+04;  2.5800374E-01;  0.0000000E+00;  5.5802643E-02;  1.0291126E+04;
  1.3000000E-01;  9.9999998E-03;  3.4999999E-01;2229;  0.0000000E+00;  0.0000000E+00;  0.0000000E+00;  1.0000000E+03;  1.0000000E-01;  0.0000000E+00;0;  0.0000000E+00;  0.0000000E+00;  0.0000000E+00;0;  2.5348866E-01;  4.0000000E+04;  0.0000000E+00;  0.0000000E+00;  4.0000000E+04;  0.0000000E+00;  4.0000000E+04;  2.0013615E-01;  0.0000000E+00;  5.3352520E-02;  7.5234146E+03;
  1.3000000E-01;  9.9999998E-03;  3.6000001E-01;2230;  0.0000000E+00;  0.0000000E+00;  0.0000000E+00;  1.0000000E+03;  1.0000000E-01;  0.0000000E+00;0;  0.0000000E+00;  0.0000000E+00;  0.0000000E+00;0;  1.9717300E-01;  4.0000000E+04;  0.0000000E+00;  0.0000000E+00;  4.0000000E+04;  0.0000000E+00;  4.0000000E+04;  1.4860673E-01;  0.0000000E+00;  4.8566274E-02;  5.4241357E+03;
  1.3000000E-01;  9.9999998E-03;  3.7000000E-01;2231;  0.0000000E+00;  0.0000000E+00;  0.0000000E+00;  1.0000000E+03;  1.0000000E-01;  0.0000000E+00;0;  0.0000000E+00;  0.0000000E+00;  0.0000000E+00;0;  1.4751393E-01;  4.0000000E+04;  0.0000000E+00;  0.0000000E+00;  4.0000000E+04;  0.0000000E+00;  4.0000000E+04;  1.0524221E-01;  0.0000000E+00;  4.2271722E-02;  3.8636633E+03;
  1.3000000E-01;  9.9999998E-03;  3.8000000E-01;2232;  0.0000000E+00;  0.0000000E+00;  0.0000000E+00;  1.0000000E+03;  1.0000000E-01;  0.0000000E+00;0;  0.0000000E+00;  0.0000000E+00;  0.0000000E+00;0;  1.0579376E-01;  4.0000000E+04;  0.0000000E+00;  0.0000000E+00;  4.0000000E+04;  0.0000000E+00;  4.0000000E+04;  7.0695765E-02;  0.0000000E+00;  3.5097998E-02;  2.6769053E+03;
  1.3000000E-01;  9.9999998E-03;  3.8999999E-01;2233;  0.0000000E+00;  0.0000000E+00;  0.0000000E+00;  1.0000000E+03;  1.0000000E-01;  0.0000000E+00;0;  0.0000000E+00;  0.0000000E+00;  0.0000000E+00;0;  7.2230130E-02;  4.0000000E+04;  0.0000000E+00;  0.0000000E+00;  4.0000000E+04;  0.0000000E+00;  4.0000000E+04;  4.4668969E-02;  0.0000000E+00;  2.7561160E-02;  1.7406740E+03;
  1.3000000E-01;  9.9999998E-03;  4.0000001E-01;2234;  0.0000000E+00;  0.0000000E+00;  0.0000000E+00;  1.0000000E+03;  1.0000000E-01;  0.0000000E+00;0;  0.0000000E+00;  0.0000000E+00;  0.0000000E+00;0;  4.6355542E-02;  4.0000000E+04;  0.0000000E+00;  0.0000000E+00;  4.0000000E+04;  0.0000000E+00;  4.0000000E+04;  2.6204202E-02;  0.0000000E+00;  2.0151339E-02;  1.0042585E+03;
  1.4000000E-01;  9.9999998E-03;  3.1000000E-01;2255;  0.0000000E+00;  0.0000000E+00;  0.0000000E+00;  1.0000000E+03;  1.0000000E-01;  0.0000000E+00;0;  0.0000000E+00;  0.0000000E+00;  0.0000000E+00;0;  4.5158508E-01;  4.0000000E+04;  0.0000000E+00;  0.0000000E+00;  4.0000000E+04;  0.0000000E+00;  4.0000000E+04;  4.3772605E-01;  0.0000000E+00;  1.3859048E-02;  3.4562445E+04;
  1.4000000E-01;  9.9999998E-03;  3.1999999E-01;2256;  0.0000000E+00;  0.0000000E+00;  0.0000000E+00;  1.0000000E+03;  1.0000000E-01;  0.0000000E+00;0;  0.0000000E+00;  0.0000000E+00;  0.0000000E+00;0;  4.1643953E-01;  4.0000000E+04;  0.0000000E+00;  0.0000000E+00;  4.0000000E+04;  0.0000000E+00;  4.0000000E+04;  3.8865823E-01;  0.0000000E+00;  2.7781304E-02;  2.8528162E+04;
  1.4000000E-01;  9.9999998E-03;  3.3000001E-01;2257;  0.0000000E+00;  0.0000000E+00;  0.0000000E+00;  1.0000000E+03;  1.0000000E-01;  0.0000000E+00;0;  0.0000000E+00;  0.0000000E+00;  0.0000000E+00;0;  3.6755082E-01;  4.0000000E+04;  0.0000000E+00;  0.0000000E+00;  4.0000000E+04;  0.0000000E+00;  4.0000000E+04;  3.3157900E-01;  0.0000000E+00;  3.5971820E-02;  2.1925766E+04;
  1.4000000E-01;  9.9999998E-03;  3.4000000E-01;2258;  0.0000000E+00;  0.0000000E+00;  0.0000000E+00;  1.0000000E+03;  1.0000000E-01;  0.0000000E+00;0;  0.0000000E+00;  0.0000000E+00;  0.0000000E+00;0;  3.1123710E-01;  4.0000000E+04;  0.0000000E+00;  0.0000000E+00;  4.0000000E+04;  0.0000000E+00;  4.0000000E+04;  2.7162179E-01;  0.0000000E+00;  3.9615296E-02;  1.5696065E+04;
  1.4000000E-01;  9.9999998E-03;  3.4999999E-01;2259;  0.0000000E+00;  0.0000000E+00;  0.0000000E+00;  1.0000000E+03;  1.0000000E-01;  0.0000000E+00;0;  0.0000000E+00;  0.0000000E+00;  0.0000000E+00;0;  2.5321162E-01;  4.0000000E+04;  0.0000000E+00;  0.0000000E+00;  4.0000000E+04;  0.0000000E+00;  4.0000000E+04;  2.1334799E-01;  0.0000000E+00;  3.9863639E-02;  1.0477612E+04;
  1.4000000E-01;  9.9999998E-03;  3.6000001E-01;2260;  0.0000000E+00;  0.0000000E+00;  0.0000000E+00;  1.0000000E+03;  1.0000000E-01;  0.0000000E+00;0;  0.0000000E+00;  0.0000000E+00;  0.0000000E+00;0;  1.9799675E-01;  4.0000000E+04;  0.0000000E+00;  0.0000000E+00;  4.0000000E+04;  0.0000000E+00;  4.0000000E+04;  1.6032104E-01;  0.0000000E+00;  3.7675705E-02;  6.5839717E+03;
  1.4000000E-01;  9.9999998E-03;  3.7000000E-01;2261;  0.0000000E+00;  0.0000000E+00;  0.0000000E+00;  1.0000000E+03;  1.0000000E-01;  0.0000000E+00;0;  0.0000000E+00;  0.0000000E+00;  0.0000000E+00;0;  1.4866872E-01;  4.0000000E+04;  0.0000000E+00;  0.0000000E+00;  4.0000000E+04;  0.0000000E+00;  4.0000000E+04;  1.1487281E-01;  0.0000000E+00;  3.3795912E-02;  4.0455945E+03;
  1.4000000E-01;  9.9999998E-03;  3.8000000E-01;2262;  0.0000000E+00;  0.0000000E+00;  0.0000000E+00;  1.0000000E+03;  1.0000000E-01;  0.0000000E+00;0;  0.0000000E+00;  0.0000000E+00;  0.0000000E+00;0;  1.0688174E-01;  4.0000000E+04;  0.0000000E+00;  0.0000000E+00;  4.0000000E+04;  0.0000000E+00;  4.0000000E+04;  7.8083262E-02;  0.0000000E+00;  2.8798472E-02;  2.6234207E+03;
  1.4000000E-01;  9.9999998E-03;  3.8999999E-01;2263;  0.0000000E+00;  0.0000000E+00;  0.0000000E+00;  1.0000000E+03;  1.0000000E-01;  0.0000000E+00;0;  0.0000000E+00;  0.0000000E+00;  0.0000000E+00;0;  7.3117554E-02;  4.0000000E+04;  0.0000000E+00;  0.0000000E+00;  4.0000000E+04;  0.0000000E+00;  4.0000000E+04;  4.9958717E-02;  0.0000000E+00;  2.3158839E-02;  1.8337692E+03;
  1.4000000E-01;  9.9999998E-03;  4.0000001E-01;2264;  0.0000000E+00;  0.0000000E+00;  0.0000000E+00;  1.0000000E+03;  1.0000000E-01;  0.0000000E+00;0;  0.0000000E+00;  0.0000000E+00;  0.0000000E+00;0;  4.7047734E-02;  4.0000000E+04;  0.0000000E+00;  0.0000000E+00;  4.0000000E+04;  0.0000000E+00;  4.0000000E+04;  2.9717835E-02;  0.0000000E+00;  1.7329900E-02;  1.2356176E+03;
  1.5000001E-01;  9.9999998E-03;  3.1000000E-01;2285;  0.0000000E+00;  0.0000000E+00;  0.0000000E+00;  1.0000000E+03;  1.0000000E-01;  0.0000000E+00;0;  0.0000000E+00;  0.0000000E+00;  0.0000000E+00;0;  4.2657423E-01;  4.0000000E+04;  0.0000000E+00;  0.0000000E+00;  4.0000000E+04;  0.0000000E+00;  4.0000000E+04;  4.3827194E-01;  0.0000000E+00; -1.1697707E-02;  5.6844754E+04;
  1.5000001E-01;  9.9999998E-03;  3.1999999E-01;2286;  0.0000000E+00;  0.0000000E+00;  0.0000000E+00;  1.0000000E+03;  1.0000000E-01;  0.0000000E+00;0;  0.0000000E+00;  0.0000000E+00;  0.0000000E+00;0;  3.9879063E-01;  4.0000000E+04;  0.0000000E+00;  0.0000000E+00;  4.0000000E+04;  0.0000000E+00;  4.0000000E+04;  3.9464694E-01;  0.0000000E+00;  4.1436832E-03;  4.8290426E+04;
  1.5000001E-01;  9.9999998E-03;  3.3000001E-01;2287;  0.0000000E+00;  0.0000000E+00;  0.0000000E+00;  1.0000000E+03;  1.0000000E-01;  0.0000000E+00;0;  0.0000000E+00;  0.0000000E+00;  0.0000000E+00;0;  3.5599470E-01;  4.0000000E+04;  0.0000000E+00;  0.0000000E+00;  4.0000000E+04;  0.0000000E+00;  4.0000000E+04;  3.4114540E-01;  0.0000000E+00;  1.4849313E-02;  3.7897363E+04;
  1.5000001E-01;  9.9999998E-03;  3.4000000E-01;2288;  0.0000000E+00;  0.0000000E+00;  0.0000000E+00;  1.0000000E+03;  1.0000000E-01;  0.0000000E+00;0;  0.0000000E+00;  0.0000000E+00;  0.0000000E+00;0;  3.0421859E-01;  4.0000000E+04;  0.0000000E+00;  0.0000000E+00;  4.0000000E+04;  0.0000000E+00;  4.0000000E+04;  2.8290716E-01;  0.0000000E+00;  2.1311438E-02;  2.7317936E+04;
  1.5000001E-01;  9.9999998E-03;  3.4999999E-01;2289;  0.0000000E+00;  0.0000000E+00;  0.0000000E+00;  1.0000000E+03;  1.0000000E-01;  0.0000000E+00;0;  0.0000000E+00;  0.0000000E+00;  0.0000000E+00;0;  2.4922593E-01;  4.0000000E+04;  0.0000000E+00;  0.0000000E+00;  4.0000000E+04;  0.0000000E+00;  4.0000000E+04;  2.2477037E-01;  0.0000000E+00;  2.4455560E-02;  1.7846717E+04;
  1.5000001E-01;  9.9999998E-03;  3.6000001E-01;2290;  0.0000000E+00;  0.0000000E+00;  0.0000000E+00;  1.0000000E+03;  1.0000000E-01;  0.0000000E+00;0;  0.0000000E+00;  0.0000000E+00;  0.0000000E+00;0;  1.9582456E-01;  4.0000000E+04;  0.0000000E+00;  0.0000000E+00;  4.0000000E+04;  0.0000000E+00;  4.0000000E+04;  1.7073867E-01;  0.0000000E+00;  2.5085894E-02;  1.0294689E+04;
  1.5000001E-01;  9.9999998E-03;  3.7000000E-01;2291;  0.0000000E+00;  0.0000000E+00;  0.0000000E+00;  1.0000000E+03;  1.0000000E-01;  0.0000000E+00;0;  0.0000000E+00;  0.0000000E+00;  0.0000000E+00;0;  1.4747334E-01;  4.0000000E+04;  0.0000000E+00;  0.0000000E+00;  4.0000000E+04;  0.0000000E+00;  4.0000000E+04;  1.2362324E-01;  0.0000000E+00;  2.3850096E-02;  5.0808535E+03;
  1.5000001E-01;  9.9999998E-03;  3.8000000E-01;2292;  0.0000000E+00;  0.0000000E+00;  0.0000000E+00;  1.0000000E+03;  1.0000000E-01;  0.0000000E+00;0;  0.0000000E+00;  0.0000000E+00;  0.0000000E+00;0;  1.0618821E-01;  4.0000000E+04;  0.0000000E+00;  0.0000000E+00;  4.0000000E+04;  0.0000000E+00;  4.0000000E+04;  8.4925808E-02;  0.0000000E+00;  2.1262404E-02;  2.5634497E+03;
  1.5000001E-01;  9.9999998E-03;  3.8999999E-01;2293;  0.0000000E+00;  0.0000000E+00;  0.0000000E+00;  1.0000000E+03;  1.0000000E-01;  0.0000000E+00;0;  0.0000000E+00;  0.0000000E+00;  0.0000000E+00;0;  7.2713390E-02;  4.0000000E+04;  0.0000000E+00;  0.0000000E+00;  4.0000000E+04;  0.0000000E+00;  4.0000000E+04;  5.4958988E-02;  0.0000000E+00;  1.7754400E-02;  2.3373262E+03;
  1.5000001E-01;  9.9999998E-03;  4.0000001E-01;2294;  0.0000000E+00;  0.0000000E+00;  0.0000000E+00;  1.0000000E+03;  1.0000000E-01;  0.0000000E+00;0;  0.0000000E+00;  0.0000000E+00;  0.0000000E+00;0;  4.6858877E-02;  4.0000000E+04;  0.0000000E+00;  0.0000000E+00;  4.0000000E+04;  0.0000000E+00;  4.0000000E+04;  3.3122648E-02;  0.0000000E+00;  1.3736228E-02;  2.2749697E+03;
  1.6000000E-01;  9.9999998E-03;  3.1000000E-01;2315;  0.0000000E+00;  0.0000000E+00;  0.0000000E+00;  1.0000000E+03;  1.0000000E-01;  0.0000000E+00;0;  0.0000000E+00;  0.0000000E+00;  0.0000000E+00;0;  3.9377266E-01;  4.0000000E+04;  0.0000000E+00;  0.0000000E+00;  4.0000000E+04;  0.0000000E+00;  4.0000000E+04;  4.3319368E-01;  0.0000000E+00; -3.9421033E-02;  8.9581031E+04;
  1.6000000E-01;  9.9999998E-03;  3.1999999E-01;2316;  0.0000000E+00;  0.0000000E+00;  0.0000000E+00;  1.0000000E+03;  1.0000000E-01;  0.0000000E+00;0;  0.0000000E+00;  0.0000000E+00;  0.0000000E+00;0;  3.7312084E-01;  4.0000000E+04;  0.0000000E+00;  0.0000000E+00;  4.0000000E+04;  0.0000000E+00;  4.0000000E+04;  3.9494249E-01;  0.0000000E+00; -2.1821650E-02;  7.8360898E+04;
  1.6000000E-01;  9.9999998E-03;  3.3000001E-01;2317;  0.0000000E+00;  0.0000000E+00;  0.0000000E+00;  1.0000000E+03;  1.0000000E-01;  0.0000000E+00;0;  0.0000000E+00;  0.0000000E+00;  0.0000000E+00;0;  3.3678639E-01;  4.0000000E+04;  0.0000000E+00;  0.0000000E+00;  4.0000000E+04;  0.0000000E+00;  4.0000000E+04;  3.4532550E-01;  0.0000000E+00; -8.5391132E-03;  6.3092371E+04;
  1.6000000E-01;  9.9999998E-03;  3.4000000E-01;2318;  0.0000000E+00;  0.0000000E+00;  0.0000000E+00;  1.0000000E+03;  1.0000000E-01;  0.0000000E+00;0;  0.0000000E+00;  0.0000000E+00;  0.0000000E+00;0;  2.9029804E-01;  4.0000000E+04;  0.0000000E+00;  0.0000000E+00;  4.0000000E+04;  0.0000000E+00;  4.0000000E+04;  2.8938845E-01;  0.0000000E+00;  9.0959336E-04;  4.6448266E+04;
  1.6000000E-01;  9.9999998E-03;  3.4999999E-01;2319;  0.0000000E+00;  0.0000000E+00;  0.0000000E+00;  1.0000000E+03;  1.0000000E-01;  0.0000000E+00;0;  0.0000000E+00;  0.0000000E+00;  0.0000000E+00;0;  2.3929375E-01;  4.0000000E+04;  0.0000000E+00;  0.0000000E+00;  4.0000000E+04;  0.0000000E+00;  4.0000000E+04;  2.3213944E-01;  0.0000000E+00;  7.1543129E-03;  3.0727256E+04;
  1.6000000E-01;  9.9999998E-03;  3.6000001E-01;2320;  0.0000000E+00;  0.0000000E+00;  0.0000000E+00;  1.0000000E+03;  1.0000000E-01;  0.0000000E+00;0;  0.0000000E+00;  0.0000000E+00;  0.0000000E+00;0;  1.8873231E-01;  4.0000000E+04;  0.0000000E+00;  0.0000000E+00;  4.0000000E+04;  0.0000000E+00;  4.0000000E+04;  1.7791896E-01;  0.0000000E+00;  1.0813349E-02;  1.7515682E+04;
  1.6000000E-01;  9.9999998E-03;  3.7000000E-01;2321;  0.0000000E+00;  0.0000000E+00;  0.0000000E+00;  1.0000000E+03;  1.0000000E-01;  0.0000000E+00;0;  0.0000000E+00;  0.0000000E+00;  0.0000000E+00;0;  1.4236462E-01;  4.0000000E+04;  0.0000000E+00;  0.0000000E+00;  4.0000000E+04;  0.0000000E+00;  4.0000000E+04;  1.2993571E-01;  0.0000000E+00;  1.2428917E-02;  7.7070073E+03;
  1.6000000E-01;  9.9999998E-03;  3.8000000E-01;2322;  0.0000000E+00;  0.0000000E+00;  0.0000000E+00;  1.0000000E+03;  1.0000000E-01;  0.0000000E+00;0;  0.0000000E+00;  0.0000000E+00;  0.0000000E+00;0;  1.0251030E-01;  4.0000000E+04;  0.0000000E+00;  0.0000000E+00;  4.0000000E+04;  0.0000000E+00;  4.0000000E+04;  9.0053767E-02;  0.0000000E+00;  1.2456536E-02;  2.5099504E+03;
  1.6000000E-01;  9.9999998E-03;  3.8999999E-01;2323;  0.0000000E+00;  0.0000000E+00;  0.0000000E+00;  1.0000000E+03;  1.0000000E-01;  0.0000000E+00;0;  0.0000000E+00;  0.0000000E+00;  0.0000000E+00;0;  7.0141539E-02;  4.0000000E+04;  0.0000000E+00;  0.0000000E+00;  4.0000000E+04;  0.0000000E+00;  4.0000000E+04;  5.8853541E-02;  0.0000000E+00;  1.1288001E-02;  3.7569802E+03;
  1.6000000E-01;  9.9999998E-03;  4.0000001E-01;2324;  0.0000000E+00;  0.0000000E+00;  0.0000000E+00;  1.0000000E+03;  1.0000000E-01;  0.0000000E+00;0;  0.0000000E+00;  0.0000000E+00;  0.0000000E+00;0;  4.5188203E-02;  4.0000000E+04;  0.0000000E+00;  0.0000000E+00;  4.0000000E+04;  0.0000000E+00;  4.0000000E+04;  3.5894778E-02;  0.0000000E+00;  9.2934249E-03;  4.6321187E+03;
  1.7000000E-01;  9.9999998E-03;  3.1000000E-01;2345;  0.0000000E+00;  0.0000000E+00;  0.0000000E+00;  1.0000000E+03;  1.0000000E-01;  0.0000000E+00;0;  0.0000000E+00;  0.0000000E+00;  0.0000000E+00;0;  3.5130012E-01;  4.0000000E+04;  0.0000000E+00;  0.0000000E+00;  4.0000000E+04;  0.0000000E+00;  4.0000000E+04;  4.2042238E-01;  0.0000000E+00; -6.9122262E-02;  1.3298330E+05;
  1.7000000E-01;  9.9999998E-03;  3.1999999E-01;2346;  0.0000000E+00;  0.0000000E+00;  0.0000000E+00;  1.0000000E+03;  1.0000000E-01;  0.0000000E+00;0;  0.0000000E+00;  0.0000000E+00;  0.0000000E+00;0;  3.3709401E-01;  4.0000000E+04;  0.0000000E+00;  0.0000000E+00;  4.0000000E+04;  0.0000000E+00;  4.0000000E+04;  3.8702452E-01;  0.0000000E+00; -4.9930502E-02;  1.1923732E+05;
  1.7000000E-01;  9.9999998E-03;  3.3000001E-01;2347;  0.0000000E+00;  0.0000000E+00;  0.0000000E+00;  1.0000000E+03;  1.0000000E-01;  0.0000000E+00;0;  0.0000000E+00;  0.0000000E+00;  0.0000000E+00;0;  3.0734921E-01;  4.0000000E+04;  0.0000000E+00;  0.0000000E+00;  4.0000000E+04;  0.0000000E+00;  4.0000000E+04;  3.4134898E-01;  0.0000000E+00; -3.3999771E-02;  9.8116438E+04;
  1.7000000E-01;  9.9999998E-03;  3.4000000E-01;2348;  0.0000000E+00;  0.0000000E+00;  0.0000000E+00;  1.0000000E+03;  1.0000000E-01;  0.0000000E+00;0;  0.0000000E+00;  0.0000000E+00;  0.0000000E+00;0;  2.6687664E-01;  4.0000000E+04;  0.0000000E+00;  0.0000000E+00;  4.0000000E+04;  0.0000000E+00;  4.0000000E+04;  2.8827402E-01;  0.0000000E+00; -2.1397389E-02;  7.3651453E+04;
  1.7000000E-01;  9.9999998E-03;  3.4999999E-01;2349;  0.0000000E+00;  0.0000000E+00;  0.0000000E+00;  1.0000000E+03;  1.0000000E-01;  0.0000000E+00;0;  0.0000000E+00;  0.0000000E+00;  0.0000000E+00;0;  2.2098073E-01;  4.0000000E+04;  0.0000000E+00;  0.0000000E+00;  4.0000000E+04;  0.0000000E+00;  4.0000000E+04;  2.3284668E-01;  0.0000000E+00; -1.1865936E-02;  4.9540863E+04;
  1.7000000E-01;  9.9999998E-03;  3.6000001E-01;2350;  0.0000000E+00;  0.0000000E+00;  0.0000000E+00;  1.0000000E+03;  1.0000000E-01;  0.0000000E+00;0;  0.0000000E+00;  0.0000000E+00;  0.0000000E+00;0;  1.7458719E-01;  4.0000000E+04;  0.0000000E+00;  0.0000000E+00;  4.0000000E+04;  0.0000000E+00;  4.0000000E+04;  1.7959002E-01;  0.0000000E+00; -5.0028288E-03;  2.8503436E+04;
  1.7000000E-01;  9.9999998E-03;  3.7000000E-01;2351;  0.0000000E+00;  0.0000000E+00;  0.0000000E+00;  1.0000000E+03;  1.0000000E-01;  0.0000000E+00;0;  0.0000000E+00;  0.0000000E+00;  0.0000000E+00;0;  1.3158207E-01;  4.0000000E+04;  0.0000000E+00;  0.0000000E+00;  4.0000000E+04;  0.0000000E+00;  4.0000000E+04;  1.3195729E-01;  0.0000000E+00; -3.7522655E-04;  1.2154448E+04;
  1.7000000E-01;  9.9999998E-03;  3.8000000E-01;2352;  0.0000000E+00;  0.0000000E+00;  0.0000000E+00;  1.0000000E+03;  1.0000000E-01;  0.0000000E+00;0;  0.0000000E+00;  0.0000000E+00;  0.0000000E+00;0;  9.4469525E-02;  4.0000000E+04;  0.0000000E+00;  0.0000000E+00;  4.0000000E+04;  0.0000000E+00;  4.0000000E+04;  9.2047349E-02;  0.0000000E+00;  2.4221777E-03;  2.4670273E+03;
  1.7000000E-01;  9.9999998E-03;  3.8999999E-01;2353;  0.0000000E+00;  0.0000000E+00;  0.0000000E+00;  1.0000000E+03;  1.0000000E-01;  0.0000000E+00;0;  0.0000000E+00;  0.0000000E+00;  0.0000000E+00;0;  6.4375408E-02;  4.0000000E+04;  0.0000000E+00;  0.0000000E+00;  4.0000000E+04;  0.0000000E+00;  4.0000000E+04;  6.0621604E-02;  0.0000000E+00;  3.7538051E-03;  6.4268296E+03;
  1.7000000E-01;  9.9999998E-03;  4.0000001E-01;2354;  0.0000000E+00;  0.0000000E+00;  0.0000000E+00;  1.0000000E+03;  1.0000000E-01;  0.0000000E+00;0;  0.0000000E+00;  0.0000000E+00;  0.0000000E+00;0;  4.1310277E-02;  4.0000000E+04;  0.0000000E+00;  0.0000000E+00;  4.0000000E+04;  0.0000000E+00;  4.0000000E+04;  3.7350342E-02;  0.0000000E+00;  3.9599347E-03;  8.6853828E+03;
  1.8000001E-01;  9.9999998E-03;  3.1000000E-01;2375;  0.0000000E+00;  0.0000000E+00;  0.0000000E+00;  1.0000000E+03;  1.0000000E-01;  0.0000000E+00;0;  0.0000000E+00;  0.0000000E+00;  0.0000000E+00;0;  2.9811087E-01;  4.0000000E+04;  0.0000000E+00;  0.0000000E+00;  4.0000000E+04;  0.0000000E+00;  4.0000000E+04;  3.9830804E-01;  0.0000000E+00; -1.0019717E-01;  1.8512570E+05;
  1.8000001E-01;  9.9999998E-03;  3.1999999E-01;2376;  0.0000000E+00;  0.0000000E+00;  0.0000000E+00;  1.0000000E+03;  1.0000000E-01;  0.0000000E+00;0;  0.0000000E+00;  0.0000000E+00;  0.0000000E+00;0;  2.8926155E-01;  4.0000000E+04;  0.0000000E+00;  0.0000000E+00;  4.0000000E+04;  0.0000000E+00;  4.0000000E+04;  3.6885700E-01;  0.0000000E+00; -7.9595454E-02;  1.6925269E+05;
  1.8000001E-01;  9.9999998E-03;  3.3000001E-01;2377;  0.0000000E+00;  0.0000000E+00;  0.0000000E+00;  1.0000000E+03;  1.0000000E-01;  0.0000000E+00;0;  0.0000000E+00;  0.0000000E+00;  0.0000000E+00;0;  2.6599345E-01;  4.0000000E+04;  0.0000000E+00;  0.0000000E+00;  4.0000000E+04;  0.0000000E+00;  4.0000000E+04;  3.2698092E-01;  0.0000000E+00; -6.0987476E-02;  1.4161609E+05;
  1.8000001E-01;  9.9999998E-03;  3.4000000E-01;2378;  0.0000000E+00;  0.0000000E+00;  0.0000000E+00;  1.0000000E+03;  1.0000000E-01;  0.0000000E+00;0;  0.0000000E+00;  0.0000000E+00;  0.0000000E+00;0;  2.3218748E-01;  4.0000000E+04;  0.0000000E+00;  0.0000000E+00;  4.0000000E+04;  0.0000000E+00;  4.0000000E+04;  2.7731925E-01;  0.0000000E+00; -4.5131780E-02;  1.0791900E+05;
  1.8000001E-01;  9.9999998E-03;  3.4999999E-01;2379;  0.0000000E+00;  0.0000000E+00;  0.0000000E+00;  1.0000000E+03;  1.0000000E-01;  0.0000000E+00;0;  0.0000000E+00;  0.0000000E+00;  0.0000000E+00;0;  1.9259124E-01;  4.0000000E+04;  0.0000000E+00;  0.0000000E+00;  4.0000000E+04;  0.0000000E+00;  4.0000000E+04;  2.2480142E-01;  0.0000000E+00; -3.2210190E-02;  7.3604539E+04;
  1.8000001E-01;  9.9999998E-03;  3.6000001E-01;2380;  0.0000000E+00;  0.0000000E+00;  0.0000000E+00;  1.0000000E+03;  1.0000000E-01;  0.0000000E+00;0;  0.0000000E+00;  0.0000000E+00;  0.0000000E+00;0;  1.5186930E-01;  4.0000000E+04;  0.0000000E+00;  0.0000000E+00;  4.0000000E+04;  0.0000000E+00;  4.0000000E+04;  1.7392568E-01;  0.0000000E+00; -2.2056378E-02;  4.2824238E+04;
  1.8000001E-01;  9.9999998E-03;  3.7000000E-01;2381;  0.0000000E+00;  0.0000000E+00;  0.0000000E+00;  1.0000000E+03;  1.0000000E-01;  0.0000000E+00;0;  0.0000000E+00;  0.0000000E+00;  0.0000000E+00;0;  1.1383727E-01;  4.0000000E+04;  0.0000000E+00;  0.0000000E+00;  4.0000000E+04;  0.0000000E+00;  4.0000000E+04;  1.2818167E-01;  0.0000000E+00; -1.4344397E-02;  1.8161787E+04;
  1.8000001E-01;  9.9999998E-03;  3.8000000E-01;2382;  0.0000000E+00;  0.0000000E+00;  0.0000000E+00;  1.0000000E+03;  1.0000000E-01;  0.0000000E+00;0;  0.0000000E+00;  0.0000000E+00;  0.0000000E+00;0;  8.1020609E-02;  4.0000000E+04;  0.0000000E+00;  0.0000000E+00;  4.0000000E+04;  0.0000000E+00;  4.0000000E+04;  8.9727171E-02;  0.0000000E+00; -8.7065632E-03;  2.4282588E+03;
  1.8000001E-01;  9.9999998E-03;  3.8999999E-01;2383;  0.0000000E+00;  0.0000000E+00;  0.0000000E+00;  1.0000000E+03;  1.0000000E-01;  0.0000000E+00;0;  0.0000000E+00;  0.0000000E+00;  0.0000000E+00;0;  5.4591790E-02;  4.0000000E+04;  0.0000000E+00;  0.0000000E+00;  4.0000000E+04;  0.0000000E+00;  4.0000000E+04;  5.9381645E-02;  0.0000000E+00; -4.7898535E-03;  1.0446818E+04;
  1.8000001E-01;  9.9999998E-03;  4.0000001E-01;2384;  0.0000000E+00;  0.0000000E+00;  0.0000000E+00;  1.0000000E+03;  1.0000000E-01;  0.0000000E+00;0;  0.0000000E+00;  0.0000000E+00;  0.0000000E+00;0;  3.4593247E-02;  4.0000000E+04;  0.0000000E+00;  0.0000000E+00;  4.0000000E+04;  0.0000000E+00;  4.0000000E+04;  3.6861777E-02;  0.0000000E+00; -2.2685297E-03;  1.4679221E+04;
  1.9000000E-01;  9.9999998E-03;  3.1000000E-01;2405;  0.0000000E+00;  0.0000000E+00;  0.0000000E+00;  1.0000000E+03;  1.0000000E-01;  0.0000000E+00;0;  0.0000000E+00;  0.0000000E+00;  0.0000000E+00;0;  2.3500906E-01;  4.0000000E+04;  0.0000000E+00;  0.0000000E+00;  4.0000000E+04;  0.0000000E+00;  4.0000000E+04;  3.6637717E-01;  0.0000000E+00; -1.3136812E-01;  2.4126477E+05;
  1.9000000E-01;  9.9999998E-03;  3.1999999E-01;2406;  0.0000000E+00;  0.0000000E+00;  0.0000000E+00;  1.0000000E+03;  1.0000000E-01;  0.0000000E+00;0;  0.0000000E+00;  0.0000000E+00;  0.0000000E+00;0;  2.3031613E-01;  4.0000000E+04;  0.0000000E+00;  0.0000000E+00;  4.0000000E+04;  0.0000000E+00;  4.0000000E+04;  3.3990401E-01;  0.0000000E+00; -1.0958789E-01;  2.2379692E+05;
  1.9000000E-01;  9.9999998E-03;  3.3000001E-01;2407;  0.0000000E+00;  0.0000000E+00;  0.0000000E+00;  1.0000000E+03;  1.0000000E-01;  0.0000000E+00;0;  0.0000000E+00;  0.0000000E+00;  0.0000000E+00;0;  2.1328914E-01;  4.0000000E+04;  0.0000000E+00;  0.0000000E+00;  4.0000000E+04;  0.0000000E+00;  4.0000000E+04;  3.0170614E-01;  0.0000000E+00; -8.8417001E-02;  1.8954016E+05;
  1.9000000E-01;  9.9999998E-03;  3.4000000E-01;2408;  0.0000000E+00;  0.0000000E+00;  0.0000000E+00;  1.0000000E+03;  1.0000000E-01;  0.0000000E+00;0;  0.0000000E+00;  0.0000000E+00;  0.0000000E+00;0;  1.8667662E-01;  4.0000000E+04;  0.0000000E+00;  0.0000000E+00;  4.0000000E+04;  0.0000000E+00;  4.0000000E+04;  2.5607207E-01;  0.0000000E+00; -6.9395460E-02;  1.4605703E+05;
  1.9000000E-01;  9.9999998E-03;  3.4999999E-01;2409;  0.0000000E+00;  0.0000000E+00;  0.0000000E+00;  1.0000000E+03;  1.0000000E-01;  0.0000000E+00;0;  0.0000000E+00;  0.0000000E+00;  0.0000000E+00;0;  1.5445268E-01;  4.0000000E+04;  0.0000000E+00;  0.0000000E+00;  4.0000000E+04;  0.0000000E+00;  4.0000000E+04;  2.0762415E-01;  0.0000000E+00; -5.3171463E-02;  1.0068814E+05;
  1.9000000E-01;  9.9999998E-03;  3.6000001E-01;2410;  0.0000000E+00;  0.0000000E+00;  0.0000000E+00;  1.0000000E+03;  1.0000000E-01;  0.0000000E+00;0;  0.0000000E+00;  0.0000000E+00;  0.0000000E+00;0;  1.2079712E-01;  4.0000000E+04;  0.0000000E+00;  0.0000000E+00;  4.0000000E+04;  0.0000000E+00;  4.0000000E+04;  1.6061281E-01;  0.0000000E+00; -3.9815687E-02;  5.9139852E+04;
  1.9000000E-01;  9.9999998E-03;  3.7000000E-01;2411;  0.0000000E+00;  0.0000000E+00;  0.0000000E+00;  1.0000000E+03;  1.0000000E-01;  0.0000000E+00;0;  0.0000000E+00;  0.0000000E+00;  0.0000000E+00;0;  8.9242257E-02;  4.0000000E+04;  0.0000000E+00;  0.0000000E+00;  4.0000000E+04;  0.0000000E+00;  4.0000000E+04;  1.1834247E-01;  0.0000000E+00; -2.9100208E-02;  2.5081672E+04;
  1.9000000E-01;  9.9999998E-03;  3.8000000E-01;2412;  0.0000000E+00;  0.0000000E+00;  0.0000000E+00;  1.0000000E+03;  1.0000000E-01;  0.0000000E+00;0;  0.0000000E+00;  0.0000000E+00;  0.0000000E+00;0;  6.2168896E-02;  4.0000000E+04;  0.0000000E+00;  0.0000000E+00;  4.0000000E+04;  0.0000000E+00;  4.0000000E+04;  8.2851604E-02;  0.0000000E+00; -2.0682706E-02;  2.4141997E+03;
  1.9000000E-01;  9.9999998E-03;  3.8999999E-01;2413;  0.0000000E+00;  0.0000000E+00;  0.0000000E+00;  1.0000000E+03;  1.0000000E-01;  0.0000000E+00;0;  0.0000000E+00;  0.0000000E+00;  0.0000000E+00;0;  4.0695187E-02;  4.0000000E+04;  0.0000000E+00;  0.0000000E+00;  4.0000000E+04;  0.0000000E+00;  4.0000000E+04;  5.4902520E-02;  0.0000000E+00; -1.4207333E-02;  1.5682985E+04;
  1.9000000E-01;  9.9999998E-03;  4.0000001E-01;2414;  0.0000000E+00;  0.0000000E+00;  0.0000000E+00;  1.0000000E+03;  1.0000000E-01;  0.0000000E+00;0;  0.0000000E+00;  0.0000000E+00;  0.0000000E+00;0;  2.4858370E-02;  4.0000000E+04;  0.0000000E+00;  0.0000000E+00;  4.0000000E+04;  0.0000000E+00;  4.0000000E+04;  3.4206253E-02;  0.0000000E+00; -9.3478812E-03;  2.2524799E+04;
  2.0000000E-01;  9.9999998E-03;  3.1000000E-01;2434;  0.0000000E+00;  0.0000000E+00;  0.0000000E+00;  1.0000000E+03;  1.0000000E-01;  0.0000000E+00;0;  0.0000000E+00;  0.0000000E+00;  0.0000000E+00;0;  1.6581130E-01;  4.0000000E+04;  0.0000000E+00;  0.0000000E+00;  4.0000000E+04;  0.0000000E+00;  4.0000000E+04;  3.2630864E-01;  0.0000000E+00; -1.6049734E-01;  2.9429738E+05;
  2.0000000E-01;  9.9999998E-03;  3.1999999E-01;2435;  0.0000000E+00;  0.0000000E+00;  0.0000000E+00;  1.0000000E+03;  1.0000000E-01;  0.0000000E+00;0;  0.0000000E+00;  0.0000000E+00;  0.0000000E+00;0;  1.6426829E-01;  4.0000000E+04;  0.0000000E+00;  0.0000000E+00;  4.0000000E+04;  0.0000000E+00;  4.0000000E+04;  3.0215046E-01;  0.0000000E+00; -1.3788217E-01;  2.7588066E+05;
  2.0000000E-01;  9.9999998E-03;  3.3000001E-01;2436;  0.0000000E+00;  0.0000000E+00;  0.0000000E+00;  1.0000000E+03;  1.0000000E-01;  0.0000000E+00;0;  0.0000000E+00;  0.0000000E+00;  0.0000000E+00;0;  1.5314730E-01;  4.0000000E+04;  0.0000000E+00;  0.0000000E+00;  4.0000000E+04;  0.0000000E+00;  4.0000000E+04;  2.6769310E-01;  0.0000000E+00; -1.1454581E-01;  2.3578512E+05;
  2.0000000E-01;  9.9999998E-03;  3.4000000E-01;2437;  0.0000000E+00;  0.0000000E+00;  0.0000000E+00;  1.0000000E+03;  1.0000000E-01;  0.0000000E+00;0;  0.0000000E+00;  0.0000000E+00;  0.0000000E+00;0;  1.3394371E-01;  4.0000000E+04;  0.0000000E+00;  0.0000000E+00;  4.0000000E+04;  0.0000000E+00;  4.0000000E+04;  2.2672133E-01;  0.0000000E+00; -9.2777617E-02;  1.8330209E+05;
  2.0000000E-01;  9.9999998E-03;  3.4999999E-01;2438;  0.0000000E+00;  0.0000000E+00;  0.0000000E+00;  1.0000000E+03;  1.0000000E-01;  0.0000000E+00;0;  0.0000000E+00;  0.0000000E+00;  0.0000000E+00;0;  1.0970897E-01;  4.0000000E+04;  0.0000000E+00;  0.0000000E+00;  4.0000000E+04;  0.0000000E+00;  4.0000000E+04;  1.8336442E-01;  0.0000000E+00; -7.3655449E-02;  1.2750009E+05;
  2.0000000E-01;  9.9999998E-03;  3.6000001E-01;2439;  0.0000000E+00;  0.0000000E+00;  0.0000000E+00;  1.0000000E+03;  1.0000000E-01;  0.0000000E+00;0;  0.0000000E+00;  0.0000000E+00;  0.0000000E+00;0;  8.3968222E-02;  4.0000000E+04;  0.0000000E+00;  0.0000000E+00;  4.0000000E+04;  0.0000000E+00;  4.0000000E+04;  1.4143029E-01;  0.0000000E+00; -5.7462070E-02;  7.5514383E+04;
  2.0000000E-01;  9.9999998E-03;  3.7000000E-01;2440;  0.0000000E+00;  0.0000000E+00;  0.0000000E+00;  1.0000000E+03;  1.0000000E-01;  0.0000000E+00;0;  0.0000000E+00;  0.0000000E+00;  0.0000000E+00;0;  5.9813958E-02;  4.0000000E+04;  0.0000000E+00;  0.0000000E+00;  4.0000000E+04;  0.0000000E+00;  4.0000000E+04;  1.0386758E-01;  0.0000000E+00; -4.4053618E-02;  3.2055125E+04;
  2.0000000E-01;  9.9999998E-03;  3.8000000E-01;2441;  0.0000000E+00;  0.0000000E+00;  0.0000000E+00;  1.0000000E+03;  1.0000000E-01;  0.0000000E+00;0;  0.0000000E+00;  0.0000000E+00;  0.0000000E+00;0;  3.9367810E-02;  4.0000000E+04;  0.0000000E+00;  0.0000000E+00;  4.0000000E+04;  0.0000000E+00;  4.0000000E+04;  7.2472766E-02;  0.0000000E+00; -3.3104956E-02;  2.5451489E+03;
  2.0000000E-01;  9.9999998E-03;  3.8999999E-01;2442;  0.0000000E+00;  0.0000000E+00;  0.0000000E+00;  1.0000000E+03;  1.0000000E-01;  0.0000000E+00;0;  0.0000000E+00;  0.0000000E+00;  0.0000000E+00;0;  2.3633184E-02;  4.0000000E+04;  0.0000000E+00;  0.0000000E+00;  4.0000000E+04;  0.0000000E+00;  4.0000000E+04;  4.7882847E-02;  0.0000000E+00; -2.4249664E-02;  2.1791791E+04;
  2.0000000E-01;  9.9999998E-03;  4.0000001E-01;2443;  0.0000000E+00;  0.0000000E+00;  0.0000000E+00;  1.0000000E+03;  1.0000000E-01;  0.0000000E+00;0;  0.0000000E+00;  0.0000000E+00;  0.0000000E+00;0;  1.2633907E-02;  4.0000000E+04;  0.0000000E+00;  0.0000000E+00;  4.0000000E+04;  0.0000000E+00;  4.0000000E+04;  2.9784802E-02;  0.0000000E+00; -1.7150896E-02;  3.1803818E+04;
 -1.9000000E-01;  9.9999998E-03;  4.1000000E-01;175;  0.0000000E+00;  0.0000000E+00;  0.0000000E+00;  1.0000000E+03;  1.0000000E-01;  0.0000000E+00;0;  0.0000000E+00;  0.0000000E+00;  0.0000000E+00;0;  0.0000000E+00;  4.0000000E+04;  0.0000000E+00;  0.0000000E+00;  4.0000000E+04;  0.0000000E+00;  4.0000000E+04;  0.0000000E+00;  0.0000000E+00;  0.0000000E+00;  0.0000000E+00;
 -1.9000000E-01;  9.9999998E-03;  4.1999999E-01;176;  0.0000000E+00;  0.0000000E+00;  0.0000000E+00;  1.0000000E+03;  1.0000000E-01;  0.0000000E+00;0;  0.0000000E+00;  0.0000000E+00;  0.0000000E+00;0;  0.0000000E+00;  4.0000000E+04;  0.0000000E+00;  0.0000000E+00;  4.0000000E+04;  0.0000000E+00;  4.0000000E+04;  0.0000000E+00;  0.0000000E+00;  0.0000000E+00;  0.0000000E+00;
 -1.9000000E-01;  9.9999998E-03;  4.3000001E-01;177;  0.0000000E+00;  0.0000000E+00;  0.0000000E+00;  1.0000000E+03;  1.0000000E-01;  0.0000000E+00;0;  0.0000000E+00;  0.0000000E+00;  0.0000000E+00;0;  0.0000000E+00;  4.0000000E+04;  0.0000000E+00;  0.0000000E+00;  4.0000000E+04;  0.0000000E+00;  4.0000000E+04;  0.0000000E+00;  0.0000000E+00;  0.0000000E+00;  0.0000000E+00;
 -1.9000000E-01;  9.9999998E-03;  4.4000000E-01;178;  0.0000000E+00;  0.0000000E+00;  0.0000000E+00;  1.0000000E+03;  1.0000000E-01;  0.0000000E+00;0;  0.0000000E+00;  0.0000000E+00;  0.0000000E+00;0;  0.0000000E+00;  4.0000000E+04;  0.0000000E+00;  0.0000000E+00;  4.0000000E+04;  0.0000000E+00;  4.0000000E+04;  0.0000000E+00;  0.0000000E+00;  0.0000000E+00;  0.0000000E+00;
 -1.9000000E-01;  9.9999998E-03;  4.4999999E-01;179;  0.0000000E+00;  0.0000000E+00;  0.0000000E+00;  1.0000000E+03;  1.0000000E-01;  0.0000000E+00;0;  0.0000000E+00;  0.0000000E+00;  0.0000000E+00;0;  0.0000000E+00;  4.0000000E+04;  0.0000000E+00;  0.0000000E+00;  4.0000000E+04;  0.0000000E+00;  4.0000000E+04;  0.0000000E+00;  0.0000000E+00;  0.0000000E+00;  0.0000000E+00;
 -1.8000001E-01;  9.9999998E-03;  4.1000000E-01;266;  0.0000000E+00;  0.0000000E+00;  0.0000000E+00;  1.0000000E+03;  1.0000000E-01;  0.0000000E+00;0;  0.0000000E+00;  0.0000000E+00;  0.0000000E+00;0;  0.0000000E+00;  4.0000000E+04;  0.0000000E+00;  0.0000000E+00;  4.0000000E+04;  0.0000000E+00;  4.0000000E+04;  0.0000000E+00;  0.0000000E+00;  0.0000000E+00;  0.0000000E+00;
 -1.8000001E-01;  9.9999998E-03;  4.1999999E-01;267;  0.0000000E+00;  0.0000000E+00;  0.0000000E+00;  1.0000000E+03;  1.0000000E-01;  0.0000000E+00;0;  0.0000000E+00;  0.0000000E+00;  0.0000000E+00;0;  0.0000000E+00;  4.0000000E+04;  0.0000000E+00;  0.0000000E+00;  4.0000000E+04;  0.0000000E+00;  4.0000000E+04;  0.0000000E+00;  0.0000000E+00;  0.0000000E+00;  0.0000000E+00;
 -1.8000001E-01;  9.9999998E-03;  4.3000001E-01;268;  0.0000000E+00;  0.0000000E+00;  0.0000000E+00;  1.0000000E+03;  1.0000000E-01;  0.0000000E+00;0;  0.0000000E+00;  0.0000000E+00;  0.0000000E+00;0;  0.0000000E+00;  4.0000000E+04;  0.0000000E+00;  0.0000000E+00;  4.0000000E+04;  0.0000000E+00;  4.0000000E+04;  0.0000000E+00;  0.0000000E+00;  0.0000000E+00;  0.0000000E+00;
 -1.8000001E-01;  9.9999998E-03;  4.4000000E-01;269;  0.0000000E+00;  0.0000000E+00;  0.0000000E+00;  1.0000000E+03;  1.0000000E-01;  0.0000000E+00;0;  0.0000000E+00;  0.0000000E+00;  0.0000000E+00;0;  0.0000000E+00;  4.0000000E+04;  0.0000000E+00;  0.0000000E+00;  4.0000000E+04;  0.0000000E+00;  4.0000000E+04;  0.0000000E+00;  0.0000000E+00;  0.0000000E+00;  0.0000000E+00;
 -1.8000001E-01;  9.9999998E-03;  4.4999999E-01;270;  0.0000000E+00;  0.0000000E+00;  0.0000000E+00;  1.0000000E+03;  1.0000000E-01;  0.0000000E+00;0;  0.0000000E+00;  0.0000000E+00;  0.0000000E+00;0;  0.0000000E+00;  4.0000000E+04;  0.0000000E+00;  0.0000000E+00;  4.0000000E+04;  0.0000000E+00;  4.0000000E+04;  0.0000000E+00;  0.0000000E+00;  0.0000000E+00;  0.0000000E+00;
 -1.7000000E-01;  9.9999998E-03;  4.1000000E-01;357;  0.0000000E+00;  0.0000000E+00;  0.0000000E+00;  1.0000000E+03;  1.0000000E-01;  0.0000000E+00;0;  0.0000000E+00;  0.0000000E+00;  0.0000000E+00;0;  0.0000000E+00;  4.0000000E+04;  0.0000000E+00;  0.0000000E+00;  4.0000000E+04;  0.0000000E+00;  4.0000000E+04;  0.0000000E+00;  0.0000000E+00;  0.0000000E+00;  0.0000000E+00;
 -1.7000000E-01;  9.9999998E-03;  4.1999999E-01;358;  0.0000000E+00;  0.0000000E+00;  0.0000000E+00;  1.0000000E+03;  1.0000000E-01;  0.0000000E+00;0;  0.0000000E+00;  0.0000000E+00;  0.0000000E+00;0;  0.0000000E+00;  4.0000000E+04;  0.0000000E+00;  0.0000000E+00;  4.0000000E+04;  0.0000000E+00;  4.0000000E+04;  0.0000000E+00;  0.0000000E+00;  0.0000000E+00;  0.0000000E+00;
 -1.7000000E-01;  9.9999998E-03;  4.3000001E-01;359;  0.0000000E+00;  0.0000000E+00;  0.0000000E+00;  1.0000000E+03;  1.0000000E-01;  0.0000000E+00;0;  0.0000000E+00;  0.0000000E+00;  0.0000000E+00;0;  0.0000000E+00;  4.0000000E+04;  0.0000000E+00;  0.0000000E+00;  4.0000000E+04;  0.0000000E+00;  4.0000000E+04;  0.0000000E+00;  0.0000000E+00;  0.0000000E+00;  0.0000000E+00;
 -1.7000000E-01;  9.9999998E-03;  4.4000000E-01;360;  0.0000000E+00;  0.0000000E+00;  0.0000000E+00;  1.0000000E+03;  1.0000000E-01;  0.0000000E+00;0;  0.0000000E+00;  0.0000000E+00;  0.0000000E+00;0;  0.0000000E+00;  4.0000000E+04;  0.0000000E+00;  0.0000000E+00;  4.0000000E+04;  0.0000000E+00;  4.0000000E+04;  0.0000000E+00;  0.0000000E+00;  0.0000000E+00;  0.0000000E+00;
 -1.7000000E-01;  9.9999998E-03;  4.4999999E-01;361;  0.0000000E+00;  0.0000000E+00;  0.0000000E+00;  1.0000000E+03;  1.0000000E-01;  0.0000000E+00;0;  0.0000000E+00;  0.0000000E+00;  0.0000000E+00;0;  0.0000000E+00;  4.0000000E+04;  0.0000000E+00;  0.0000000E+00;  4.0000000E+04;  0.0000000E+00;  4.0000000E+04;  0.0000000E+00;  0.0000000E+00;  0.0000000E+00;  0.0000000E+00;
 -1.6000000E-01;  9.9999998E-03;  4.1000000E-01;448;  0.0000000E+00;  0.0000000E+00;  0.0000000E+00;  1.0000000E+03;  1.0000000E-01;  0.0000000E+00;0;  0.0000000E+00;  0.0000000E+00;  0.0000000E+00;0;  0.0000000E+00;  4.0000000E+04;  0.0000000E+00;  0.0000000E+00;  4.0000000E+04;  0.0000000E+00;  4.0000000E+04;  0.0000000E+00;  0.0000000E+00;  0.0000000E+00;  0.0000000E+00;
 -1.6000000E-01;  9.9999998E-03;  4.1999999E-01;449;  0.0000000E+00;  0.0000000E+00;  0.0000000E+00;  1.0000000E+03;  1.0000000E-01;  0.0000000E+00;0;  0.0000000E+00;  0.0000000E+00;  0.0000000E+00;0;  0.0000000E+00;  4.0000000E+04;  0.0000000E+00;  0.0000000E+00;  4.0000000E+04;  0.0000000E+00;  4.0000000E+04;  0.0000000E+00;  0.0000000E+00;  0.0000000E+00;  0.0000000E+00;
 -1.6000000E-01;  9.9999998E-03;  4.3000001E-01;450;  0.0000000E+00;  0.0000000E+00;  0.0000000E+00;  1.0000000E+03;  1.0000000E-01;  0.0000000E+00;0;  0.0000000E+00;  0.0000000E+00;  0.0000000E+00;0;  0.0000000E+00;  4.0000000E+04;  0.0000000E+00;  0.0000000E+00;  4.0000000E+04;  0.0000000E+00;  4.0000000E+04;  0.0000000E+00;  0.0000000E+00;  0.0000000E+00;  0.0000000E+00;
 -1.6000000E-01;  9.9999998E-03;  4.4000000E-01;451;  0.0000000E+00;  0.0000000E+00;  0.0000000E+00;  1.0000000E+03;  1.0000000E-01;  0.0000000E+00;0;  0.0000000E+00;  0.0000000E+00;  0.0000000E+00;0;  0.0000000E+00;  4.0000000E+04;  0.0000000E+00;  0.0000000E+00;  4.0000000E+04;  0.0000000E+00;  4.0000000E+04;  0.0000000E+00;  0.0000000E+00;  0.0000000E+00;  0.0000000E+00;
 -1.6000000E-01;  9.9999998E-03;  4.4999999E-01;452;  0.0000000E+00;  0.0000000E+00;  0.0000000E+00;  1.0000000E+03;  1.0000000E-01;  0.0000000E+00;0;  0.0000000E+00;  0.0000000E+00;  0.0000000E+00;0;  0.0000000E+00;  4.0000000E+04;  0.0000000E+00;  0.0000000E+00;  4.0000000E+04;  0.0000000E+00;  4.0000000E+04;  0.0000000E+00;  0.0000000E+00;  0.0000000E+00;  0.0000000E+00;
 -1.5000001E-01;  9.9999998E-03;  4.1000000E-01;539;  0.0000000E+00;  0.0000000E+00;  0.0000000E+00;  1.0000000E+03;  1.0000000E-01;  0.0000000E+00;0;  0.0000000E+00;  0.0000000E+00;  0.0000000E+00;0;  0.0000000E+00;  4.0000000E+04;  0.0000000E+00;  0.0000000E+00;  4.0000000E+04;  0.0000000E+00;  4.0000000E+04;  0.0000000E+00;  0.0000000E+00;  0.0000000E+00;  0.0000000E+00;
 -1.5000001E-01;  9.9999998E-03;  4.1999999E-01;540;  0.0000000E+00;  0.0000000E+00;  0.0000000E+00;  1.0000000E+03;  1.0000000E-01;  0.0000000E+00;0;  0.0000000E+00;  0.0000000E+00;  0.0000000E+00;0;  0.0000000E+00;  4.0000000E+04;  0.0000000E+00;  0.0000000E+00;  4.0000000E+04;  0.0000000E+00;  4.0000000E+04;  0.0000000E+00;  0.0000000E+00;  0.0000000E+00;  0.0000000E+00;
 -1.5000001E-01;  9.9999998E-03;  4.3000001E-01;541;  0.0000000E+00;  0.0000000E+00;  0.0000000E+00;  1.0000000E+03;  1.0000000E-01;  0.0000000E+00;0;  0.0000000E+00;  0.0000000E+00;  0.0000000E+00;0;  0.0000000E+00;  4.0000000E+04;  0.0000000E+00;  0.0000000E+00;  4.0000000E+04;  0.0000000E+00;  4.0000000E+04;  0.0000000E+00;  0.0000000E+00;  0.0000000E+00;  0.0000000E+00;
 -1.5000001E-01;  9.9999998E-03;  4.4000000E-01;542;  0.0000000E+00;  0.0000000E+00;  0.0000000E+00;  1.0000000E+03;  1.0000000E-01;  0.0000000E+00;0;  0.0000000E+00;  0.0000000E+00;  0.0000000E+00;0;  0.0000000E+00;  4.0000000E+04;  0.0000000E+00;  0.0000000E+00;  4.0000000E+04;  0.0000000E+00;  4.0000000E+04;  0.0000000E+00;  0.0000000E+00;  0.0000000E+00;  0.0000000E+00;
 -1.5000001E-01;  9.9999998E-03;  4.4999999E-01;543;  0.0000000E+00;  0.0000000E+00;  0.0000000E+00;  1.0000000E+03;  1.0000000E-01;  0.0000000E+00;0;  0.0000000E+00;  0.0000000E+00;  0.0000000E+00;0;  0.0000000E+00;  4.0000000E+04;  0.0000000E+00;  0.0000000E+00;  4.0000000E+04;  0.0000000E+00;  4.0000000E+04;  0.0000000E+00;  0.0000000E+00;  0.0000000E+00;  0.0000000E+00;
 -1.4000000E-01;  9.9999998E-03;  4.1000000E-01;630;  0.0000000E+00;  0.0000000E+00;  0.0000000E+00;  1.0000000E+03;  1.0000000E-01;  0.0000000E+00;0;  0.0000000E+00;  0.0000000E+00;  0.0000000E+00;0;  0.0000000E+00;  4.0000000E+04;  0.0000000E+00;  0.0000000E+00;  4.0000000E+04;  0.0000000E+00;  4.0000000E+04;  0.0000000E+00;  0.0000000E+00;  0.0000000E+00;  0.0000000E+00;
 -1.4000000E-01;  9.9999998E-03;  4.1999999E-01;631;  0.0000000E+00;  0.0000000E+00;  0.0000000E+00;  1.0000000E+03;  1.0000000E-01;  0.0000000E+00;0;  0.0000000E+00;  0.0000000E+00;  0.0000000E+00;0;  0.0000000E+00;  4.0000000E+04;  0.0000000E+00;  0.0000000E+00;  4.0000000E+04;  0.0000000E+00;  4.0000000E+04;  0.0000000E+00;  0.0000000E+00;  0.0000000E+00;  0.0000000E+00;
 -1.4000000E-01;  9.9999998E-03;  4.3000001E-01;632;  0.0000000E+00;  0.0000000E+00;  0.0000000E+00;  1.0000000E+03;  1.0000000E-01;  0.0000000E+00;0;  0.0000000E+00;  0.0000000E+00;  0.0000000E+00;0;  0.0000000E+00;  4.0000000E+04;  0.0000000E+00;  0.0000000E+00;  4.0000000E+04;  0.0000000E+00;  4.0000000E+04;  0.0000000E+00;  0.0000000E+00;  0.0000000E+00;  0.0000000E+00;
 -1.4000000E-01;  9.9999998E-03;  4.4000000E-01;633;  0.0000000E+00;  0.0000000E+00;  0.0000000E+00;  1.0000000E+03;  1.0000000E-01;  0.0000000E+00;0;  0.0000000E+00;  0.0000000E+00;  0.0000000E+00;0;  0.0000000E+00;  4.0000000E+04;  0.0000000E+00;  0.0000000E+00;  4.0000000E+04;  0.0000000E+00;  4.0000000E+04;  0.0000000E+00;  0.0000000E+00;  0.0000000E+00;  0.0000000E+00;
 -1.4000000E-01;  9.9999998E-03;  4.4999999E-01;634;  0.0000000E+00;  0.0000000E+00;  0.0000000E+00;  1.0000000E+03;  1.0000000E-01;  0.0000000E+00;0;  0.0000000E+00;  0.0000000E+00;  0.0000000E+00;0;  0.0000000E+00;  4.0000000E+04;  0.0000000E+00;  0.0000000E+00;  4.0000000E+04;  0.0000000E+00;  4.0000000E+04;  0.0000000E+00;  0.0000000E+00;  0.0000000E+00;  0.0000000E+00;
 -1.3000000E-01;  9.9999998E-03;  4.1000000E-01;721;  0.0000000E+00;  0.0000000E+00;  0.0000000E+00;  1.0000000E+03;  1.0000000E-01;  0.0000000E+00;0;  0.0000000E+00;  0.0000000E+00;  0.0000000E+00;0;  0.0000000E+00;  4.0000000E+04;  0.0000000E+00;  0.0000000E+00;  4.0000000E+04;  0.0000000E+00;  4.0000000E+04;  0.0000000E+00;  0.0000000E+00;  0.0000000E+00;  0.0000000E+00;
 -1.3000000E-01;  9.9999998E-03;  4.1999999E-01;722;  0.0000000E+00;  0.0000000E+00;  0.0000000E+00;  1.0000000E+03;  1.0000000E-01;  0.0000000E+00;0;  0.0000000E+00;  0.0000000E+00;  0.0000000E+00;0;  0.0000000E+00;  4.0000000E+04;  0.0000000E+00;  0.0000000E+00;  4.0000000E+04;  0.0000000E+00;  4.0000000E+04;  0.0000000E+00;  0.0000000E+00;  0.0000000E+00;  0.0000000E+00;
 -1.3000000E-01;  9.9999998E-03;  4.3000001E-01;723;  0.0000000E+00;  0.0000000E+00;  0.0000000E+00;  1.0000000E+03;  1.0000000E-01;  0.0000000E+00;0;  0.0000000E+00;  0.0000000E+00;  0.0000000E+00;0;  0.0000000E+00;  4.0000000E+04;  0.0000000E+00;  0.0000000E+00;  4.0000000E+04;  0.0000000E+00;  4.0000000E+04;  0.0000000E+00;  0.0000000E+00;  0.0000000E+00;  0.0000000E+00;
 -1.3000000E-01;  9.9999998E-03;  4.4000000E-01;724;  0.0000000E+00;  0.0000000E+00;  0.0000000E+00;  1.0000000E+03;  1.0000000E-01;  0.0000000E+00;0;  0.0000000E+00;  0.0000000E+00;  0.0000000E+00;0;  0.0000000E+00;  4.0000000E+04;  0.0000000E+00;  0.0000000E+00;  4.0000000E+04;  0.0000000E+00;  4.0000000E+04;  0.0000000E+00;  0.0000000E+00;  0.0000000E+00;  0.0000000E+00;
 -1.3000000E-01;  9.9999998E-03;  4.4999999E-01;725;  0.0000000E+00;  0.0000000E+00;  0.0000000E+00;  1.0000000E+03;  1.0000000E-01;  0.0000000E+00;0;  0.0000000E+00;  0.0000000E+00;  0.0000000E+00;0;  0.0000000E+00;  4.0000000E+04;  0.0000000E+00;  0.0000000E+00;  4.0000000E+04;  0.0000000E+00;  4.0000000E+04;  0.0000000E+00;  0.0000000E+00;  0.0000000E+00;  0.0000000E+00;
 -1.2000000E-01;  9.9999998E-03;  4.1000000E-01;812;  0.0000000E+00;  0.0000000E+00;  0.0000000E+00;  1.0000000E+03;  1.0000000E-01;  0.0000000E+00;0;  0.0000000E+00;  0.0000000E+00;  0.0000000E+00;0;  1.0401680E-10;  4.0000000E+04;  0.0000000E+00;  0.0000000E+00;  4.0000000E+04;  0.0000000E+00;  4.0000000E+04;  3.3501948E-11;  0.0000000E+00;  7.0514851E-11;  1.5281436E-06;
 -1.2000000E-01;  9.9999998E-03;  4.1999999E-01;813;  0.0000000E+00;  0.0000000E+00;  0.0000000E+00;  1.0000000E+03;  1.0000000E-01;  0.0000000E+00;0;  0.0000000E+00;  0.0000000E+00;  0.0000000E+00;0;  0.0000000E+00;  4.0000000E+04;  0.0000000E+00;  0.0000000E+00;  4.0000000E+04;  0.0000000E+00;  4.0000000E+04;  0.0000000E+00;  0.0000000E+00;  0.0000000E+00;  0.0000000E+00;
 -1.2000000E-01;  9.9999998E-03;  4.3000001E-01;814;  0.0000000E+00;  0.0000000E+00;  0.0000000E+00;  1.0000000E+03;  1.0000000E-01;  0.0000000E+00;0;  0.0000000E+00;  0.0000000E+00;  0.0000000E+00;0;  0.0000000E+00;  4.0000000E+04;  0.0000000E+00;  0.0000000E+00;  4.0000000E+04;  0.0000000E+00;  4.0000000E+04;  0.0000000E+00;  0.0000000E+00;  0.0000000E+00;  0.0000000E+00;
 -1.2000000E-01;  9.9999998E-03;  4.4000000E-01;815;  0.0000000E+00;  0.0000000E+00;  0.0000000E+00;  1.0000000E+03;  1.0000000E-01;  0.0000000E+00;0;  0.0000000E+00;  0.0000000E+00;  0.0000000E+00;0;  0.0000000E+00;  4.0000000E+04;  0.0000000E+00;  0.0000000E+00;  4.0000000E+04;  0.0000000E+00;  4.0000000E+04;  0.0000000E+00;  0.0000000E+00;  0.0000000E+00;  0.0000000E+00;
 -1.2000000E-01;  9.9999998E-03;  4.4999999E-01;816;  0.0000000E+00;  0.0000000E+00;  0.0000000E+00;  1.0000000E+03;  1.0000000E-01;  0.0000000E+00;0;  0.0000000E+00;  0.0000000E+00;  0.0000000E+00;0;  0.0000000E+00;  4.0000000E+04;  0.0000000E+00;  0.0000000E+00;  4.0000000E+04;  0.0000000E+00;  4.0000000E+04;  0.0000000E+00;  0.0000000E+00;  0.0000000E+00;  0.0000000E+00;
 -1.1000000E-01;  9.9999998E-03;  4.1000000E-01;903;  0.0000000E+00;  0.0000000E+00;  0.0000000E+00;  1.0000000E+03;  1.0000000E-01;  0.0000000E+00;0;  0.0000000E+00;  0.0000000E+00;  0.0000000E+00;0;  3.6988581E-06;  4.0000000E+04;  0.0000000E+00;  0.0000000E+00;  4.0000000E+04;  0.0000000E+00;  4.0000000E+04;  1.1414918E-06;  0.0000000E+00;  2.5573663E-06;  2.0456170E-01;
 -1.1000000E-01;  9.9999998E-03;  4.1999999E-01;904;  0.0000000E+00;  0.0000000E+00;  0.0000000E+00;  1.0000000E+03;  1.0000000E-01;  0.0000000E+00;0;  0.0000000E+00;  0.0000000E+00;  0.0000000E+00;0;  1.2638819E-10;  4.0000000E+04;  0.0000000E+00;  0.0000000E+00;  4.0000000E+04;  0.0000000E+00;  4.0000000E+04;  3.7829694E-11;  0.0000000E+00;  8.8558501E-11;  6.8900829E-07;
 -1.1000000E-01;  9.9999998E-03;  4.3000001E-01;905;  0.0000000E+00;  0.0000000E+00;  0.0000000E+00;  1.0000000E+03;  1.0000000E-01;  0.0000000E+00;0;  0.0000000E+00;  0.0000000E+00;  0.0000000E+00;0;  0.0000000E+00;  4.0000000E+04;  0.0000000E+00;  0.0000000E+00;  4.0000000E+04;  0.0000000E+00;  4.0000000E+04;  0.0000000E+00;  0.0000000E+00;  0.0000000E+00;  0.0000000E+00;
 -1.1000000E-01;  9.9999998E-03;  4.4000000E-01;906;  0.0000000E+00;  0.0000000E+00;  0.0000000E+00;  1.0000000E+03;  1.0000000E-01;  0.0000000E+00;0;  0.0000000E+00;  0.0000000E+00;  0.0000000E+00;0;  0.0000000E+00;  4.0000000E+04;  0.0000000E+00;  0.0000000E+00;  4.0000000E+04;  0.0000000E+00;  4.0000000E+04;  0.0000000E+00;  0.0000000E+00;  0.0000000E+00;  0.0000000E+00;
 -1.1000000E-01;  9.9999998E-03;  4.4999999E-01;907;  0.0000000E+00;  0.0000000E+00;  0.0000000E+00;  1.0000000E+03;  1.0000000E-01;  0.0000000E+00;0;  0.0000000E+00;  0.0000000E+00;  0.0000000E+00;0;  0.0000000E+00;  4.0000000E+04;  0.0000000E+00;  0.0000000E+00;  4.0000000E+04;  0.0000000E+00;  4.0000000E+04;  0.0000000E+00;  0.0000000E+00;  0.0000000E+00;  0.0000000E+00;
 -1.0000000E-01;  9.9999998E-03;  4.1000000E-01;994;  0.0000000E+00;  0.0000000E+00;  0.0000000E+00;  1.0000000E+03;  1.0000000E-01;  0.0000000E+00;0;  0.0000000E+00;  0.0000000E+00;  0.0000000E+00;0;  3.3843582E-05;  4.0000000E+04;  0.0000000E+00;  0.0000000E+00;  4.0000000E+04;  0.0000000E+00;  4.0000000E+04;  9.8399287E-06;  0.0000000E+00;  2.4003653E-05;  1.6756560E+00;
 -1.0000000E-01;  9.9999998E-03;  4.1999999E-01;995;  0.0000000E+00;  0.0000000E+00;  0.0000000E+00;  1.0000000E+03;  1.0000000E-01;  0.0000000E+00;0;  0.0000000E+00;  0.0000000E+00;  0.0000000E+00;0;  3.3634803E-06;  4.0000000E+04;  0.0000000E+00;  0.0000000E+00;  4.0000000E+04;  0.0000000E+00;  4.0000000E+04;  8.9311749E-07;  0.0000000E+00;  2.4703629E-06;  1.7598808E-01;
 -1.0000000E-01;  9.9999998E-03;  4.3000001E-01;996;  0.0000000E+00;  0.0000000E+00;  0.0000000E+00;  1.0000000E+03;  1.0000000E-01;  0.0000000E+00;0;  0.0000000E+00;  0.0000000E+00;  0.0000000E+00;0;  0.0000000E+00;  4.0000000E+04;  0.0000000E+00;  0.0000000E+00;  4.0000000E+04;  0.0000000E+00;  4.0000000E+04;  0.0000000E+00;  0.0000000E+00;  0.0000000E+00;  0.0000000E+00;
 -1.0000000E-01;  9.9999998E-03;  4.4000000E-01;997;  0.0000000E+00;  0.0000000E+00;  0.0000000E+00;  1.0000000E+03;  1.0000000E-01;  0.0000000E+00;0;  0.0000000E+00;  0.0000000E+00;  0.0000000E+00;0;  0.0000000E+00;  4.0000000E+04;  0.0000000E+00;  0.0000000E+00;  4.0000000E+04;  0.0000000E+00;  4.0000000E+04;  0.0000000E+00;  0.0000000E+00;  0.0000000E+00;  0.0000000E+00;
 -1.0000000E-01;  9.9999998E-03;  4.4999999E-01;998;  0.0000000E+00;  0.0000000E+00;  0.0000000E+00;  1.0000000E+03;  1.0000000E-01;  0.0000000E+00;0;  0.0000000E+00;  0.0000000E+00;  0.0000000E+00;0;  0.0000000E+00;  4.0000000E+04;  0.0000000E+00;  0.0000000E+00;  4.0000000E+04;  0.0000000E+00;  4.0000000E+04;  0.0000000E+00;  0.0000000E+00;  0.0000000E+00;  0.0000000E+00;
 -9.0000004E-02;  9.9999998E-03;  4.1000000E-01;1085;  0.0000000E+00;  0.0000000E+00;  0.0000000E+00;  1.0000000E+03;  1.0000000E-01;  0.0000000E+00;0;  0.0000000E+00;  0.0000000E+00;  0.0000000E+00;0;  1.4179249E-04;  4.0000000E+04;  0.0000000E+00;  0.0000000E+00;  4.0000000E+04;  0.0000000E+00;  4.0000000E+04;  3.9254970E-05;  0.0000000E+00;  1.0253753E-04;  6.1561160E+00;
 -9.0000004E-02;  9.9999998E-03;  4.1999999E-01;1086;  0.0000000E+00;  0.0000000E+00;  0.0000000E+00;  1.0000000E+03;  1.0000000E-01;  0.0000000E+00;0;  0.0000000E+00;  0.0000000E+00;  0.0000000E+00;0;  2.8872419E-05;  4.0000000E+04;  0.0000000E+00;  0.0000000E+00;  4.0000000E+04;  0.0000000E+00;  4.0000000E+04;  7.1567019E-06;  0.0000000E+00;  2.1715718E-05;  1.4223121E+00;
 -9.0000004E-02;  9.9999998E-03;  4.3000001E-01;1087;  0.0000000E+00;  0.0000000E+00;  0.0000000E+00;  1.0000000E+03;  1.0000000E-01;  0.0000000E+00;0;  0.0000000E+00;  0.0000000E+00;  0.0000000E+00;0;  1.7393118E-06;  4.0000000E+04;  0.0000000E+00;  0.0000000E+00;  4.0000000E+04;  0.0000000E+00;  4.0000000E+04;  4.1008190E-07;  0.0000000E+00;  1.3292299E-06;  8.2246751E-02;
 -9.0000004E-02;  9.9999998E-03;  4.4000000E-01;1088;  0.0000000E+00;  0.0000000E+00;  0.0000000E+00;  1.0000000E+03;  1.0000000E-01;  0.0000000E+00;0;  0.0000000E+00;  0.0000000E+00;  0.0000000E+00;0;  0.0000000E+00;  4.0000000E+04;  0.0000000E+00;  0.0000000E+00;  4.0000000E+04;  0.0000000E+00;  4.0000000E+04;  0.0000000E+00;  0.0000000E+00;  0.0000000E+00;  0.0000000E+00;
 -9.0000004E-02;  9.9999998E-03;  4.4999999E-01;1089;  0.0000000E+00;  0.0000000E+00;  0.0000000E+00;  1.0000000E+03;  1.0000000E-01;  0.0000000E+00;0;  0.0000000E+00;  0.0000000E+00;  0.0000000E+00;0;  0.0000000E+00;  4.0000000E+04;  0.0000000E+00;  0.0000000E+00;  4.0000000E+04;  0.0000000E+00;  4.0000000E+04;  0.0000000E+00;  0.0000000E+00;  0.0000000E+00;  0.0000000E+00;
 -7.9999998E-02;  9.9999998E-03;  4.1000000E-01;1176;  0.0000000E+00;  0.0000000E+00;  0.0000000E+00;  1.0000000E+03;  1.0000000E-01;  0.0000000E+00;0;  0.0000000E+00;  0.0000000E+00;  0.0000000E+00;0;  4.0787863E-04;  4.0000000E+04;  0.0000000E+00;  0.0000000E+00;  4.0000000E+04;  0.0000000E+00;  4.0000000E+04;  1.0800423E-04;  0.0000000E+00;  2.9987440E-04;  1.5491591E+01;
 -7.9999998E-02;  9.9999998E-03;  4.1999999E-01;1177;  0.0000000E+00;  0.0000000E+00;  0.0000000E+00;  1.0000000E+03;  1.0000000E-01;  0.0000000E+00;0;  0.0000000E+00;  0.0000000E+00;  0.0000000E+00;0;  1.1633123E-04;  4.0000000E+04;  0.0000000E+00;  0.0000000E+00;  4.0000000E+04;  0.0000000E+00;  4.0000000E+04;  2.7325865E-05;  0.0000000E+00;  8.9005363E-05;  5.1246705E+00;
 -7.9999998E-02;  9.9999998E-03;  4.3000001E-01;1178;  0.0000000E+00;  0.0000000E+00;  0.0000000E+00;  1.0000000E+03;  1.0000000E-01;  0.0000000E+00;0;  0.0000000E+00;  0.0000000E+00;  0.0000000E+00;0;  1.7194392E-05;  4.0000000E+04;  0.0000000E+00;  0.0000000E+00;  4.0000000E+04;  0.0000000E+00;  4.0000000E+04;  3.7253731E-06;  0.0000000E+00;  1.3469019E-05;  8.3635730E-01;
 -7.9999998E-02;  9.9999998E-03;  4.4000000E-01;1179;  0.0000000E+00;  0.0000000E+00;  0.0000000E+00;  1.0000000E+03;  1.0000000E-01;  0.0000000E+00;0;  0.0000000E+00;  0.0000000E+00;  0.0000000E+00;0;  3.4263309E-07;  4.0000000E+04;  0.0000000E+00;  0.0000000E+00;  4.0000000E+04;  0.0000000E+00;  4.0000000E+04;  7.4385142E-08;  0.0000000E+00;  2.6824796E-07;  1.4482552E-02;
 -7.9999998E-02;  9.9999998E-03;  4.4999999E-01;1180;  0.0000000E+00;  0.0000000E+00;  0.0000000E+00;  1.0000000E+03;  1.0000000E-01;  0.0000000E+00;0;  0.0000000E+00;  0.0000000E+00;  0.0000000E+00;0;  0.0000000E+00;  4.0000000E+04;  0.0000000E+00;  0.0000000E+00;  4.0000000E+04;  0.0000000E+00;  4.0000000E+04;  0.0000000E+00;  0.0000000E+00;  0.0000000E+00;  0.0000000E+00;
 -7.0000000E-02;  9.9999998E-03;  4.1000000E-01;1267;  0.0000000E+00;  0.0000000E+00;  0.0000000E+00;  1.0000000E+03;  1.0000000E-01;  0.0000000E+00;0;  0.0000000E+00;  0.0000000E+00;  0.0000000E+00;0;  9.2983490E-04;  4.0000000E+04;  0.0000000E+00;  0.0000000E+00;  4.0000000E+04;  0.0000000E+00;  4.0000000E+04;  2.3634183E-04;  0.0000000E+00;  6.9349306E-04;  3.0840919E+01;
 -7.0000000E-02;  9.9999998E-03;  4.1999999E-01;1268;  0.0000000E+00;  0.0000000E+00;  0.0000000E+00;  1.0000000E+03;  1.0000000E-01;  0.0000000E+00;0;  0.0000000E+00;  0.0000000E+00;  0.0000000E+00;0;  3.2379848E-04;  4.0000000E+04;  0.0000000E+00;  0.0000000E+00;  4.0000000E+04;  0.0000000E+00;  4.0000000E+04;  7.2439667E-05;  0.0000000E+00;  2.5135881E-04;  1.2595806E+01;
 -7.0000000E-02;  9.9999998E-03;  4.3000001E-01;1269;  0.0000000E+00;  0.0000000E+00;  0.0000000E+00;  1.0000000E+03;  1.0000000E-01;  0.0000000E+00;0;  0.0000000E+00;  0.0000000E+00;  0.0000000E+00;0;  7.1739028E-05;  4.0000000E+04;  0.0000000E+00;  0.0000000E+00;  4.0000000E+04;  0.0000000E+00;  4.0000000E+04;  1.4631189E-05;  0.0000000E+00;  5.7107842E-05;  3.1827557E+00;
 -7.0000000E-02;  9.9999998E-03;  4.4000000E-01;1270;  0.0000000E+00;  0.0000000E+00;  0.0000000E+00;  1.0000000E+03;  1.0000000E-01;  0.0000000E+00;0;  0.0000000E+00;  0.0000000E+00;  0.0000000E+00;0;  5.9252948E-06;  4.0000000E+04;  0.0000000E+00;  0.0000000E+00;  4.0000000E+04;  0.0000000E+00;  4.0000000E+04;  1.1625021E-06;  0.0000000E+00;  4.7627927E-06;  2.7769130E-01;
 -7.0000000E-02;  9.9999998E-03;  4.4999999E-01;1271;  0.0000000E+00;  0.0000000E+00;  0.0000000E+00;  1.0000000E+03;  1.0000000E-01;  0.0000000E+00;0;  0.0000000E+00;  0.0000000E+00;  0.0000000E+00;0;  0.0000000E+00;  4.0000000E+04;  0.0000000E+00;  0.0000000E+00;  4.0000000E+04;  0.0000000E+00;  4.0000000E+04;  0.0000000E+00;  0.0000000E+00;  0.0000000E+00;  8.6631813E-12;
 -5.9999999E-02;  9.9999998E-03;  4.1000000E-01;1358;  0.0000000E+00;  0.0000000E+00;  0.0000000E+00;  1.0000104E+03;  1.0000000E-01;  8.5923500E+00;0;  0.0000000E+00;  0.0000000E+00;  0.0000000E+00;0;  1.8020524E-03;  4.0000000E+04;  0.0000000E+00;  0.0000000E+00;  4.0000000E+04;  0.0000000E+00;  4.0000000E+04;  4.4106561E-04;  0.0000000E+00;  1.3609867E-03;  5.2002254E+01;
 -5.9999999E-02;  9.9999998E-03;  4.1999999E-01;1359;  0.0000000E+00;  0.0000000E+00;  0.0000000E+00;  1.0000000E+03;  1.0000000E-01;  0.0000000E+00;0;  0.0000000E+00;  0.0000000E+00;  0.0000000E+00;0;  7.1617134E-04;  4.0000000E+04;  0.0000000E+00;  0.0000000E+00;  4.0000000E+04;  0.0000000E+00;  4.0000000E+04;  1.5300386E-04;  0.0000000E+00;  5.6316750E-04;  2.4479078E+01;
 -5.9999999E-02;  9.9999998E-03;  4.3000001E-01;1360;  0.0000000E+00;  0.0000000E+00;  0.0000000E+00;  1.0000000E+03;  1.0000000E-01;  0.0000000E+00;0;  0.0000000E+00;  0.0000000E+00;  0.0000000E+00;0;  2.0106396E-04;  4.0000000E+04;  0.0000000E+00;  0.0000000E+00;  4.0000000E+04;  0.0000000E+00;  4.0000000E+04;  3.8781945E-05;  0.0000000E+00;  1.6228201E-04;  7.9590597E+00;
 -5.9999999E-02;  9.9999998E-03;  4.4000000E-01;1361;  0.0000000E+00;  0.0000000E+00;  0.0000000E+00;  1.0000000E+03;  1.0000000E-01;  0.0000000E+00;0;  0.0000000E+00;  0.0000000E+00;  0.0000000E+00;0;  2.9222187E-05;  4.0000000E+04;  0.0000000E+00;  0.0000000E+00;  4.0000000E+04;  0.0000000E+00;  4.0000000E+04;  5.3248282E-06;  0.0000000E+00;  2.3897359E-05;  1.2971587E+00;
 -5.9999999E-02;  9.9999998E-03;  4.4999999E-01;1362;  0.0000000E+00;  0.0000000E+00;  0.0000000E+00;  1.0000000E+03;  1.0000000E-01;  0.0000000E+00;0;  0.0000000E+00;  0.0000000E+00;  0.0000000E+00;0;  6.9372732E-07;  4.0000000E+04;  0.0000000E+00;  0.0000000E+00;  4.0000000E+04;  0.0000000E+00;  4.0000000E+04;  1.2687801E-07;  0.0000000E+00;  5.6684934E-07;  3.1598348E-02;
 -5.0000001E-02;  9.9999998E-03;  4.1000000E-01;1449;  0.0000000E+00;  0.0000000E+00;  0.0000000E+00;  1.0000117E+03;  1.0000000E-01;  9.6787386E+00;0;  0.0000000E+00;  0.0000000E+00;  0.0000000E+00;0;  3.0902047E-03;  4.0000000E+04;  0.0000000E+00;  0.0000000E+00;  4.0000000E+04;  0.0000000E+00;  4.0000000E+04;  7.2988548E-04;  0.0000000E+00;  2.3603193E-03;  7.6993408E+01;
 -5.0000001E-02;  9.9999998E-03;  4.1999999E-01;1450;  0.0000000E+00;  0.0000000E+00;  0.0000000E+00;  1.0000071E+03;  1.0000000E-01;  5.8269958E+00;0;  0.0000000E+00;  0.0000000E+00;  0.0000000E+00;0;  1.3475474E-03;  4.0000000E+04;  0.0000000E+00;  0.0000000E+00;  4.0000000E+04;  0.0000000E+00;  4.0000000E+04;  2.7529450E-04;  0.0000000E+00;  1.0722529E-03;  4.0261395E+01;
 -5.0000001E-02;  9.9999998E-03;  4.3000001E-01;1451;  0.0000000E+00;  0.0000000E+00;  0.0000000E+00;  1.0000000E+03;  1.0000000E-01;  0.0000000E+00;0;  0.0000000E+00;  0.0000000E+00;  0.0000000E+00;0;  4.4177077E-04;  4.0000000E+04;  0.0000000E+00;  0.0000000E+00;  4.0000000E+04;  0.0000000E+00;  4.0000000E+04;  8.0636630E-05;  0.0000000E+00;  3.6113415E-04;  1.5459271E+01;
 -5.0000001E-02;  9.9999998E-03;  4.4000000E-01;1452;  0.0000000E+00;  0.0000000E+00;  0.0000000E+00;  1.0000000E+03;  1.0000000E-01;  0.0000000E+00;0;  0.0000000E+00;  0.0000000E+00;  0.0000000E+00;0;  8.7770488E-05;  4.0000000E+04;  0.0000000E+00;  0.0000000E+00;  4.0000000E+04;  0.0000000E+00;  4.0000000E+04;  1.4937153E-05;  0.0000000E+00;  7.2833333E-05;  3.5220678E+00;
 -5.0000001E-02;  9.9999998E-03;  4.4999999E-01;1453;  0.0000000E+00;  0.0000000E+00;  0.0000000E+00;  1.0000000E+03;  1.0000000E-01;  0.0000000E+00;0;  0.0000000E+00;  0.0000000E+00;  0.0000000E+00;0;  5.6986014E-06;  4.0000000E+04;  0.0000000E+00;  0.0000000E+00;  4.0000000E+04;  0.0000000E+00;  4.0000000E+04;  9.4915106E-07;  0.0000000E+00;  4.7494505E-06;  2.5256664E-01;
 -3.9999999E-02;  9.9999998E-03;  4.1000000E-01;1540;  0.0000000E+00;  0.0000000E+00;  0.0000000E+00;  1.0000238E+03;  1.0000000E-01;  1.9752527E+01;0;  0.0000000E+00;  0.0000000E+00;  0.0000000E+00;0;  4.8090853E-03;  4.0000000E+04;  0.0000000E+00;  0.0000000E+00;  4.0000000E+04;  0.0000000E+00;  4.0000000E+04;  1.0970675E-03;  0.0000000E+00;  3.7120180E-03;  1.0204284E+02;
 -3.9999999E-02;  9.9999998E-03;  4.1999999E-01;1541;  0.0000000E+00;  0.0000000E+00;  0.0000000E+00;  1.0000094E+03;  1.0000000E-01;  7.8022485E+00;0;  0.0000000E+00;  0.0000000E+00;  0.0000000E+00;0;  2.2433887E-03;  4.0000000E+04;  0.0000000E+00;  0.0000000E+00;  4.0000000E+04;  0.0000000E+00;  4.0000000E+04;  4.3823177E-04;  0.0000000E+00;  1.8051569E-03;  5.8102421E+01;
 -3.9999999E-02;  9.9999998E-03;  4.3000001E-01;1542;  0.0000000E+00;  0.0000000E+00;  0.0000000E+00;  1.0000000E+03;  1.0000000E-01;  0.0000000E+00;0;  0.0000000E+00;  0.0000000E+00;  0.0000000E+00;0;  8.1932265E-04;  4.0000000E+04;  0.0000000E+00;  0.0000000E+00;  4.0000000E+04;  0.0000000E+00;  4.0000000E+04;  1.4131675E-04;  0.0000000E+00;  6.7800592E-04;  2.5175945E+01;
 -3.9999999E-02;  9.9999998E-03;  4.4000000E-01;1543;  0.0000000E+00;  0.0000000E+00;  0.0000000E+00;  1.0000000E+03;  1.0000000E-01;  0.0000000E+00;0;  0.0000000E+00;  0.0000000E+00;  0.0000000E+00;0;  1.9855401E-04;  4.0000000E+04;  0.0000000E+00;  0.0000000E+00;  4.0000000E+04;  0.0000000E+00;  4.0000000E+04;  3.1484204E-05;  0.0000000E+00;  1.6706981E-04;  7.0931845E+00;
 -3.9999999E-02;  9.9999998E-03;  4.4999999E-01;1544;  0.0000000E+00;  0.0000000E+00;  0.0000000E+00;  1.0000000E+03;  1.0000000E-01;  0.0000000E+00;0;  0.0000000E+00;  0.0000000E+00;  0.0000000E+00;0;  2.1155352E-05;  4.0000000E+04;  0.0000000E+00;  0.0000000E+00;  4.0000000E+04;  0.0000000E+00;  4.0000000E+04;  3.2177388E-06;  0.0000000E+00;  1.7937613E-05;  8.6316496E-01;
 -2.9999999E-02;  9.9999998E-03;  4.1000000E-01;1631;  0.0000000E+00;  0.0000000E+00;  0.0000000E+00;  1.0000312E+03;  1.0000000E-01;  2.5875811E+01;0;  0.0000000E+00;  0.0000000E+00;  0.0000000E+00;0;  6.9104638E-03;  4.0000000E+04;  0.0000000E+00;  0.0000000E+00;  4.0000000E+04;  0.0000000E+00;  4.0000000E+04;  1.5225270E-03;  0.0000000E+00;  5.3879367E-03;  1.2197729E+02;
 -2.9999999E-02;  9.9999998E-03;  4.1999999E-01;1632;  0.0000000E+00;  0.0000000E+00;  0.0000000E+00;  1.0000123E+03;  1.0000000E-01;  1.0172552E+01;0;  0.0000000E+00;  0.0000000E+00;  0.0000000E+00;0;  3.3881483E-03;  4.0000000E+04;  0.0000000E+00;  0.0000000E+00;  4.0000000E+04;  0.0000000E+00;  4.0000000E+04;  6.3214597E-04;  0.0000000E+00;  2.7560024E-03;  7.4974014E+01;
 -2.9999999E-02;  9.9999998E-03;  4.3000001E-01;1633;  0.0000000E+00;  0.0000000E+00;  0.0000000E+00;  1.0000042E+03;  1.0000000E-01;  3.4566925E+00;0;  0.0000000E+00;  0.0000000E+00;  0.0000000E+00;0;  1.3374559E-03;  4.0000000E+04;  0.0000000E+00;  0.0000000E+00;  4.0000000E+04;  0.0000000E+00;  4.0000000E+04;  2.1735598E-04;  0.0000000E+00;  1.1200999E-03;  3.5753395E+01;
 -2.9999999E-02;  9.9999998E-03;  4.4000000E-01;1634;  0.0000000E+00;  0.0000000E+00;  0.0000000E+00;  1.0000000E+03;  1.0000000E-01;  0.0000000E+00;0;  0.0000000E+00;  0.0000000E+00;  0.0000000E+00;0;  3.7108976E-04;  4.0000000E+04;  0.0000000E+00;  0.0000000E+00;  4.0000000E+04;  0.0000000E+00;  4.0000000E+04;  5.4537028E-05;  0.0000000E+00;  3.1655273E-04;  1.1695663E+01;
 -2.9999999E-02;  9.9999998E-03;  4.4999999E-01;1635;  0.0000000E+00;  0.0000000E+00;  0.0000000E+00;  1.0000000E+03;  1.0000000E-01;  0.0000000E+00;0;  0.0000000E+00;  0.0000000E+00;  0.0000000E+00;0;  5.3152391E-05;  4.0000000E+04;  0.0000000E+00;  0.0000000E+00;  4.0000000E+04;  0.0000000E+00;  4.0000000E+04;  7.3328365E-06;  0.0000000E+00;  4.5819554E-05;  1.9522934E+00;
 -2.0000000E-02;  9.9999998E-03;  4.1000000E-01;1722;  0.0000000E+00;  0.0000000E+00;  0.0000000E+00;  1.0000359E+03;  1.0000000E-01;  2.9826317E+01;0;  0.0000000E+00;  0.0000000E+00;  0.0000000E+00;0;  9.2857620E-03;  4.0000000E+04;  0.0000000E+00;  0.0000000E+00;  4.0000000E+04;  0.0000000E+00;  4.0000000E+04;  1.9764521E-03;  0.0000000E+00;  7.3093101E-03;  1.3099974E+02;
 -2.0000000E-02;  9.9999998E-03;  4.1999999E-01;1723;  0.0000000E+00;  0.0000000E+00;  0.0000000E+00;  1.0000190E+03;  1.0000000E-01;  1.5802022E+01;0;  0.0000000E+00;  0.0000000E+00;  0.0000000E+00;0;  4.7226720E-03;  4.0000000E+04;  0.0000000E+00;  0.0000000E+00;  4.0000000E+04;  0.0000000E+00;  4.0000000E+04;  8.4071833E-04;  0.0000000E+00;  3.8819539E-03;  8.7108589E+01;
 -2.0000000E-02;  9.9999998E-03;  4.3000001E-01;1724;  0.0000000E+00;  0.0000000E+00;  0.0000000E+00;  1.0000065E+03;  1.0000000E-01;  5.4319453E+00;0;  0.0000000E+00;  0.0000000E+00;  0.0000000E+00;0;  1.9728951E-03;  4.0000000E+04;  0.0000000E+00;  0.0000000E+00;  4.0000000E+04;  0.0000000E+00;  4.0000000E+04;  3.0115072E-04;  0.0000000E+00;  1.6717444E-03;  4.5169064E+01;
 -2.0000000E-02;  9.9999998E-03;  4.4000000E-01;1725;  0.0000000E+00;  0.0000000E+00;  0.0000000E+00;  1.0000000E+03;  1.0000000E-01;  0.0000000E+00;0;  0.0000000E+00;  0.0000000E+00;  0.0000000E+00;0;  6.0218875E-04;  4.0000000E+04;  0.0000000E+00;  0.0000000E+00;  4.0000000E+04;  0.0000000E+00;  4.0000000E+04;  8.1508253E-05;  0.0000000E+00;  5.2068051E-04;  1.6555727E+01;
 -2.0000000E-02;  9.9999998E-03;  4.4999999E-01;1726;  0.0000000E+00;  0.0000000E+00;  0.0000000E+00;  1.0000000E+03;  1.0000000E-01;  0.0000000E+00;0;  0.0000000E+00;  0.0000000E+00;  0.0000000E+00;0;  1.0457142E-04;  4.0000000E+04;  0.0000000E+00;  0.0000000E+00;  4.0000000E+04;  0.0000000E+00;  4.0000000E+04;  1.2946778E-05;  0.0000000E+00;  9.1624643E-05;  3.4044003E+00;
 -9.9999998E-03;  9.9999998E-03;  4.1000000E-01;1813;  0.0000000E+00;  0.0000000E+00;  0.0000000E+00;  1.0000390E+03;  1.0000000E-01;  3.2295383E+01;0;  0.0000000E+00;  0.0000000E+00;  0.0000000E+00;0;  1.1782661E-02;  4.0000000E+04;  0.0000000E+00;  0.0000000E+00;  4.0000000E+04;  0.0000000E+00;  4.0000000E+04;  2.4279261E-03;  0.0000000E+00;  9.3547348E-03;  1.2373827E+02;
 -9.9999998E-03;  9.9999998E-03;  4.1999999E-01;1814;  0.0000000E+00;  0.0000000E+00;  0.0000000E+00;  1.0000221E+03;  1.0000000E-01;  1.8271088E+01;0;  0.0000000E+00;  0.0000000E+00;  0.0000000E+00;0;  6.1525116E-03;  4.0000000E+04;  0.0000000E+00;  0.0000000E+00;  4.0000000E+04;  0.0000000E+00;  4.0000000E+04;  1.0457584E-03;  0.0000000E+00;  5.1067532E-03;  9.0701042E+01;
 -9.9999998E-03;  9.9999998E-03;  4.3000001E-01;1815;  0.0000000E+00;  0.0000000E+00;  0.0000000E+00;  1.0000053E+03;  1.0000000E-01;  4.4443188E+00;0;  0.0000000E+00;  0.0000000E+00;  0.0000000E+00;0;  2.6772844E-03;  4.0000000E+04;  0.0000000E+00;  0.0000000E+00;  4.0000000E+04;  0.0000000E+00;  4.0000000E+04;  3.8314768E-04;  0.0000000E+00;  2.2941367E-03;  5.1126850E+01;
 -9.9999998E-03;  9.9999998E-03;  4.4000000E-01;1816;  0.0000000E+00;  0.0000000E+00;  0.0000000E+00;  1.0000000E+03;  1.0000000E-01;  0.0000000E+00;0;  0.0000000E+00;  0.0000000E+00;  0.0000000E+00;0;  8.7443693E-04;  4.0000000E+04;  0.0000000E+00;  0.0000000E+00;  4.0000000E+04;  0.0000000E+00;  4.0000000E+04;  1.0837294E-04;  0.0000000E+00;  7.6606398E-04;  2.0599165E+01;
 -9.9999998E-03;  9.9999998E-03;  4.4999999E-01;1817;  0.0000000E+00;  0.0000000E+00;  0.0000000E+00;  1.0000000E+03;  1.0000000E-01;  0.0000000E+00;0;  0.0000000E+00;  0.0000000E+00;  0.0000000E+00;0;  1.7294203E-04;  4.0000000E+04;  0.0000000E+00;  0.0000000E+00;  4.0000000E+04;  0.0000000E+00;  4.0000000E+04;  1.8984358E-05;  0.0000000E+00;  1.5395768E-04;  4.9120531E+00;
  0.0000000E+00;  9.9999998E-03;  4.1000000E-01;1845;  0.0000000E+00;  0.0000000E+00;  0.0000000E+00;  1.0000372E+03;  1.0000000E-01;  3.0813944E+01;0;  0.0000000E+00;  0.0000000E+00;  0.0000000E+00;0;  1.4229690E-02;  4.0000000E+04;  0.0000000E+00;  0.0000000E+00;  4.0000000E+04;  0.0000000E+00;  4.0000000E+04;  2.8526485E-03;  0.0000000E+00;  1.1377041E-02;  9.6402351E+01;
  0.0000000E+00;  9.9999998E-03;  4.1999999E-01;1846;  0.0000000E+00;  0.0000000E+00;  0.0000000E+00;  1.0000211E+03;  1.0000000E-01;  1.7480988E+01;0;  0.0000000E+00;  0.0000000E+00;  0.0000000E+00;0;  7.5639868E-03;  4.0000000E+04;  0.0000000E+00;  0.0000000E+00;  4.0000000E+04;  0.0000000E+00;  4.0000000E+04;  1.2322359E-03;  0.0000000E+00;  6.3317507E-03;  8.2731087E+01;
  0.0000000E+00;  9.9999998E-03;  4.3000001E-01;1847;  0.0000000E+00;  0.0000000E+00;  0.0000000E+00;  1.0000051E+03;  1.0000000E-01;  4.2467933E+00;0;  0.0000000E+00;  0.0000000E+00;  0.0000000E+00;0;  3.3856630E-03;  4.0000000E+04;  0.0000000E+00;  0.0000000E+00;  4.0000000E+04;  0.0000000E+00;  4.0000000E+04;  4.5473946E-04;  0.0000000E+00;  2.9309236E-03;  5.1575916E+01;
  0.0000000E+00;  9.9999998E-03;  4.4000000E-01;1848;  0.0000000E+00;  0.0000000E+00;  0.0000000E+00;  1.0000000E+03;  1.0000000E-01;  0.0000000E+00;0;  0.0000000E+00;  0.0000000E+00;  0.0000000E+00;0;  1.1589526E-03;  4.0000000E+04;  0.0000000E+00;  0.0000000E+00;  4.0000000E+04;  0.0000000E+00;  4.0000000E+04;  1.3100148E-04;  0.0000000E+00;  1.0279511E-03;  2.2717455E+01;
  0.0000000E+00;  9.9999998E-03;  4.4999999E-01;1849;  0.0000000E+00;  0.0000000E+00;  0.0000000E+00;  1.0000000E+03;  1.0000000E-01;  0.0000000E+00;0;  0.0000000E+00;  0.0000000E+00;  0.0000000E+00;0;  2.5025956E-04;  4.0000000E+04;  0.0000000E+00;  0.0000000E+00;  4.0000000E+04;  0.0000000E+00;  4.0000000E+04;  2.4054118E-05;  0.0000000E+00;  2.2620543E-04;  6.0667844E+00;
  9.9999998E-03;  9.9999998E-03;  4.1000000E-01;1875;  0.0000000E+00;  0.0000000E+00;  0.0000000E+00;  1.0000325E+03;  1.0000000E-01;  2.6962200E+01;0;  0.0000000E+00;  0.0000000E+00;  0.0000000E+00;0;  1.6465820E-02;  4.0000000E+04;  0.0000000E+00;  0.0000000E+00;  4.0000000E+04;  0.0000000E+00;  4.0000000E+04;  3.2395679E-03;  0.0000000E+00;  1.3226253E-02;  4.7808765E+01;
  9.9999998E-03;  9.9999998E-03;  4.1999999E-01;1876;  0.0000000E+00;  0.0000000E+00;  0.0000000E+00;  1.0000207E+03;  1.0000000E-01;  1.7184700E+01;0;  0.0000000E+00;  0.0000000E+00;  0.0000000E+00;0;  8.8451477E-03;  4.0000000E+04;  0.0000000E+00;  0.0000000E+00;  4.0000000E+04;  0.0000000E+00;  4.0000000E+04;  1.3927601E-03;  0.0000000E+00;  7.4523878E-03;  6.1749035E+01;
  9.9999998E-03;  9.9999998E-03;  4.3000001E-01;1877;  0.0000000E+00;  0.0000000E+00;  0.0000000E+00;  1.0000102E+03;  1.0000000E-01;  8.4935865E+00;0;  0.0000000E+00;  0.0000000E+00;  0.0000000E+00;0;  4.0294277E-03;  4.0000000E+04;  0.0000000E+00;  0.0000000E+00;  4.0000000E+04;  0.0000000E+00;  4.0000000E+04;  5.1106879E-04;  0.0000000E+00;  3.5183588E-03;  4.5235512E+01;
  9.9999998E-03;  9.9999998E-03;  4.4000000E-01;1878;  0.0000000E+00;  0.0000000E+00;  0.0000000E+00;  1.0000018E+03;  1.0000000E-01;  1.4814396E+00;0;  0.0000000E+00;  0.0000000E+00;  0.0000000E+00;0;  1.4217100E-03;  4.0000000E+04;  0.0000000E+00;  0.0000000E+00;  4.0000000E+04;  0.0000000E+00;  4.0000000E+04;  1.4665724E-04;  0.0000000E+00;  1.2750528E-03;  2.2068607E+01;
  9.9999998E-03;  9.9999998E-03;  4.4999999E-01;1879;  0.0000000E+00;  0.0000000E+00;  0.0000000E+00;  1.0000000E+03;  1.0000000E-01;  0.0000000E+00;0;  0.0000000E+00;  0.0000000E+00;  0.0000000E+00;0;  3.2487861E-04;  4.0000000E+04;  0.0000000E+00;  0.0000000E+00;  4.0000000E+04;  0.0000000E+00;  4.0000000E+04;  2.7051914E-05;  0.0000000E+00;  2.9782669E-04;  6.4891949E+00;
  2.0000000E-02;  9.9999998E-03;  4.1000000E-01;1905;  0.0000000E+00;  0.0000000E+00;  0.0000000E+00;  1.0000266E+03;  1.0000000E-01;  2.2024069E+01;0;  0.0000000E+00;  0.0000000E+00;  0.0000000E+00;0;  1.8369112E-02;  4.0000000E+04;  0.0000000E+00;  0.0000000E+00;  4.0000000E+04;  0.0000000E+00;  4.0000000E+04;  3.5945983E-03;  0.0000000E+00;  1.4774514E-02;  2.0154785E+01;
  2.0000000E-02;  9.9999998E-03;  4.1999999E-01;1906;  0.0000000E+00;  0.0000000E+00;  0.0000000E+00;  1.0000159E+03;  1.0000000E-01;  1.3234194E+01;0;  0.0000000E+00;  0.0000000E+00;  0.0000000E+00;0;  9.9070705E-03;  4.0000000E+04;  0.0000000E+00;  0.0000000E+00;  4.0000000E+04;  0.0000000E+00;  4.0000000E+04;  1.5302314E-03;  0.0000000E+00;  8.3768386E-03;  2.8441273E+01;
  2.0000000E-02;  9.9999998E-03;  4.3000001E-01;1907;  0.0000000E+00;  0.0000000E+00;  0.0000000E+00;  1.0000087E+03;  1.0000000E-01;  7.2096725E+00;0;  0.0000000E+00;  0.0000000E+00;  0.0000000E+00;0;  4.5505408E-03;  4.0000000E+04;  0.0000000E+00;  0.0000000E+00;  4.0000000E+04;  0.0000000E+00;  4.0000000E+04;  5.5284478E-04;  0.0000000E+00;  3.9976961E-03;  3.2015633E+01;
  2.0000000E-02;  9.9999998E-03;  4.4000000E-01;1908;  0.0000000E+00;  0.0000000E+00;  0.0000000E+00;  1.0000005E+03;  1.0000000E-01;  4.9381319E-01;0;  0.0000000E+00;  0.0000000E+00;  0.0000000E+00;0;  1.6315125E-03;  4.0000000E+04;  0.0000000E+00;  0.0000000E+00;  4.0000000E+04;  0.0000000E+00;  4.0000000E+04;  1.5509853E-04;  0.0000000E+00;  1.4764140E-03;  1.8338015E+01;
  2.0000000E-02;  9.9999998E-03;  4.4999999E-01;1909;  0.0000000E+00;  0.0000000E+00;  0.0000000E+00;  1.0000000E+03;  1.0000000E-01;  0.0000000E+00;0;  0.0000000E+00;  0.0000000E+00;  0.0000000E+00;0;  3.8476510E-04;  4.0000000E+04;  0.0000000E+00;  0.0000000E+00;  4.0000000E+04;  0.0000000E+00;  4.0000000E+04;  2.7670525E-05;  0.0000000E+00;  3.5709457E-04;  5.9561176E+00;
  2.9999999E-02;  9.9999998E-03;  4.1000000E-01;1935;  0.0000000E+00;  0.0000000E+00;  0.0000000E+00;  1.0000180E+03;  1.0000000E-01;  1.4913158E+01;0;  0.0000000E+00;  0.0000000E+00;  0.0000000E+00;0;  1.9877596E-02;  4.0000000E+04;  0.0000000E+00;  0.0000000E+00;  4.0000000E+04;  0.0000000E+00;  4.0000000E+04;  3.9400798E-03;  0.0000000E+00;  1.5937516E-02;  1.0177866E+02;
  2.9999999E-02;  9.9999998E-03;  4.1999999E-01;1936;  0.0000000E+00;  0.0000000E+00;  0.0000000E+00;  1.0000131E+03;  1.0000000E-01;  1.0863891E+01;0;  0.0000000E+00;  0.0000000E+00;  0.0000000E+00;0;  1.0700777E-02;  4.0000000E+04;  0.0000000E+00;  0.0000000E+00;  4.0000000E+04;  0.0000000E+00;  4.0000000E+04;  1.6578583E-03;  0.0000000E+00;  9.0429187E-03;  1.4319376E+01;
  2.9999999E-02;  9.9999998E-03;  4.3000001E-01;1937;  0.0000000E+00;  0.0000000E+00;  0.0000000E+00;  1.0000066E+03;  1.0000000E-01;  5.4319453E+00;0;  0.0000000E+00;  0.0000000E+00;  0.0000000E+00;0;  4.9136458E-03;  4.0000000E+04;  0.0000000E+00;  0.0000000E+00;  4.0000000E+04;  0.0000000E+00;  4.0000000E+04;  5.8657856E-04;  0.0000000E+00;  4.3270672E-03;  1.3220456E+01;
  2.9999999E-02;  9.9999998E-03;  4.4000000E-01;1938;  0.0000000E+00;  0.0000000E+00;  0.0000000E+00;  1.0000003E+03;  1.0000000E-01;  2.9628792E-01;0;  0.0000000E+00;  0.0000000E+00;  0.0000000E+00;0;  1.7673637E-03;  4.0000000E+04;  0.0000000E+00;  0.0000000E+00;  4.0000000E+04;  0.0000000E+00;  4.0000000E+04;  1.5885224E-04;  0.0000000E+00;  1.6085115E-03;  1.1894709E+01;
  2.9999999E-02;  9.9999998E-03;  4.4999999E-01;1939;  0.0000000E+00;  0.0000000E+00;  0.0000000E+00;  1.0000000E+03;  1.0000000E-01;  0.0000000E+00;0;  0.0000000E+00;  0.0000000E+00;  0.0000000E+00;0;  4.2096441E-04;  4.0000000E+04;  0.0000000E+00;  0.0000000E+00;  4.0000000E+04;  0.0000000E+00;  4.0000000E+04;  2.6588777E-05;  0.0000000E+00;  3.9437565E-04;  4.4888401E+00;
  3.9999999E-02;  9.9999998E-03;  4.1000000E-01;1965;  0.0000000E+00;  0.0000000E+00;  0.0000000E+00;  1.0000054E+03;  1.0000000E-01;  4.5430813E+00;0;  0.0000000E+00;  0.0000000E+00;  0.0000000E+00;0;  2.0997107E-02;  4.0000000E+04;  0.0000000E+00;  0.0000000E+00;  4.0000000E+04;  0.0000000E+00;  4.0000000E+04;  4.3096608E-03;  0.0000000E+00;  1.6687445E-02;  1.8931866E+02;
  3.9999999E-02;  9.9999998E-03;  4.1999999E-01;1966;  0.0000000E+00;  0.0000000E+00;  0.0000000E+00;  1.0000075E+03;  1.0000000E-01;  6.2220464E+00;0;  0.0000000E+00;  0.0000000E+00;  0.0000000E+00;0;  1.1226013E-02;  4.0000000E+04;  0.0000000E+00;  0.0000000E+00;  4.0000000E+04;  0.0000000E+00;  4.0000000E+04;  1.7964593E-03;  0.0000000E+00;  9.4295535E-03;  6.1351093E+01;
  3.9999999E-02;  9.9999998E-03;  4.3000001E-01;1967;  0.0000000E+00;  0.0000000E+00;  0.0000000E+00;  1.0000019E+03;  1.0000000E-01;  1.5802022E+00;0;  0.0000000E+00;  0.0000000E+00;  0.0000000E+00;0;  5.1134583E-03;  4.0000000E+04;  0.0000000E+00;  0.0000000E+00;  4.0000000E+04;  0.0000000E+00;  4.0000000E+04;  6.2319316E-04;  0.0000000E+00;  4.4902652E-03;  8.5951033E+00;
  3.9999999E-02;  9.9999998E-03;  4.4000000E-01;1968;  0.0000000E+00;  0.0000000E+00;  0.0000000E+00;  1.0000000E+03;  1.0000000E-01;  0.0000000E+00;0;  0.0000000E+00;  0.0000000E+00;  0.0000000E+00;0;  1.8234199E-03;  4.0000000E+04;  0.0000000E+00;  0.0000000E+00;  4.0000000E+04;  0.0000000E+00;  4.0000000E+04;  1.6257436E-04;  0.0000000E+00;  1.6608456E-03;  3.7974150E+00;
  3.9999999E-02;  9.9999998E-03;  4.4999999E-01;1969;  0.0000000E+00;  0.0000000E+00;  0.0000000E+00;  1.0000000E+03;  1.0000000E-01;  0.0000000E+00;0;  0.0000000E+00;  0.0000000E+00;  0.0000000E+00;0;  4.3016451E-04;  4.0000000E+04;  0.0000000E+00;  0.0000000E+00;  4.0000000E+04;  0.0000000E+00;  4.0000000E+04;  2.5246611E-05;  0.0000000E+00;  4.0491790E-04;  2.3751194E+00;
  5.0000001E-02;  9.9999998E-03;  4.1000000E-01;1995;  0.0000000E+00;  0.0000000E+00;  0.0000000E+00;  1.0000000E+03;  1.0000000E-01;  0.0000000E+00;0;  0.0000000E+00;  0.0000000E+00;  0.0000000E+00;0;  2.1793921E-02;  4.0000000E+04;  0.0000000E+00;  0.0000000E+00;  4.0000000E+04;  0.0000000E+00;  4.0000000E+04;  4.7403388E-03;  0.0000000E+00;  1.7053582E-02;  2.7345514E+02;
  5.0000001E-02;  9.9999998E-03;  4.1999999E-01;1996;  0.0000000E+00;  0.0000000E+00;  0.0000000E+00;  1.0000010E+03;  1.0000000E-01;  8.8886374E-01;0;  0.0000000E+00;  0.0000000E+00;  0.0000000E+00;0;  1.1529521E-02;  4.0000000E+04;  0.0000000E+00;  0.0000000E+00;  4.0000000E+04;  0.0000000E+00;  4.0000000E+04;  1.9699109E-03;  0.0000000E+00;  9.5596099E-03;  1.0663416E+02;
  5.0000001E-02;  9.9999998E-03;  4.3000001E-01;1997;  0.0000000E+00;  0.0000000E+00;  0.0000000E+00;  1.0000000E+03;  1.0000000E-01;  0.0000000E+00;0;  0.0000000E+00;  0.0000000E+00;  0.0000000E+00;0;  5.1758010E-03;  4.0000000E+04;  0.0000000E+00;  0.0000000E+00;  4.0000000E+04;  0.0000000E+00;  4.0000000E+04;  6.7553803E-04;  0.0000000E+00;  4.5002629E-03;  2.9843042E+01;
  5.0000001E-02;  9.9999998E-03;  4.4000000E-01;1998;  0.0000000E+00;  0.0000000E+00;  0.0000000E+00;  1.0000000E+03;  1.0000000E-01;  0.0000000E+00;0;  0.0000000E+00;  0.0000000E+00;  0.0000000E+00;0;  1.8103889E-03;  4.0000000E+04;  0.0000000E+00;  0.0000000E+00;  4.0000000E+04;  0.0000000E+00;  4.0000000E+04;  1.7176702E-04;  0.0000000E+00;  1.6386218E-03;  4.3917489E+00;
  5.0000001E-02;  9.9999998E-03;  4.4999999E-01;1999;  0.0000000E+00;  0.0000000E+00;  0.0000000E+00;  1.0000000E+03;  1.0000000E-01;  0.0000000E+00;0;  0.0000000E+00;  0.0000000E+00;  0.0000000E+00;0;  4.1557068E-04;  4.0000000E+04;  0.0000000E+00;  0.0000000E+00;  4.0000000E+04;  0.0000000E+00;  4.0000000E+04;  2.5304789E-05;  0.0000000E+00;  3.9026589E-04;  1.2059266E-01;
  5.9999999E-02;  9.9999998E-03;  4.1000000E-01;2025;  0.0000000E+00;  0.0000000E+00;  0.0000000E+00;  1.0000000E+03;  1.0000000E-01;  0.0000000E+00;0;  0.0000000E+00;  0.0000000E+00;  0.0000000E+00;0;  2.2377077E-02;  4.0000000E+04;  0.0000000E+00;  0.0000000E+00;  4.0000000E+04;  0.0000000E+00;  4.0000000E+04;  5.2671200E-03;  0.0000000E+00;  1.7109957E-02;  3.4581891E+02;
  5.9999999E-02;  9.9999998E-03;  4.1999999E-01;2026;  0.0000000E+00;  0.0000000E+00;  0.0000000E+00;  1.0000000E+03;  1.0000000E-01;  0.0000000E+00;0;  0.0000000E+00;  0.0000000E+00;  0.0000000E+00;0;  1.1693608E-02;  4.0000000E+04;  0.0000000E+00;  0.0000000E+00;  4.0000000E+04;  0.0000000E+00;  4.0000000E+04;  2.2008610E-03;  0.0000000E+00;  9.4927466E-03;  1.4408609E+02;
  5.9999999E-02;  9.9999998E-03;  4.3000001E-01;2027;  0.0000000E+00;  0.0000000E+00;  0.0000000E+00;  1.0000000E+03;  1.0000000E-01;  0.0000000E+00;0;  0.0000000E+00;  0.0000000E+00;  0.0000000E+00;0;  5.1519158E-03;  4.0000000E+04;  0.0000000E+00;  0.0000000E+00;  4.0000000E+04;  0.0000000E+00;  4.0000000E+04;  7.5578911E-04;  0.0000000E+00;  4.3961266E-03;  4.6880772E+01;
  5.9999999E-02;  9.9999998E-03;  4.4000000E-01;2028;  0.0000000E+00;  0.0000000E+00;  0.0000000E+00;  1.0000000E+03;  1.0000000E-01;  0.0000000E+00;0;  0.0000000E+00;  0.0000000E+00;  0.0000000E+00;0;  1.7530897E-03;  4.0000000E+04;  0.0000000E+00;  0.0000000E+00;  4.0000000E+04;  0.0000000E+00;  4.0000000E+04;  1.9140610E-04;  0.0000000E+00;  1.5616836E-03;  1.0882099E+01;
  5.9999999E-02;  9.9999998E-03;  4.4999999E-01;2029;  0.0000000E+00;  0.0000000E+00;  0.0000000E+00;  1.0000000E+03;  1.0000000E-01;  0.0000000E+00;0;  0.0000000E+00;  0.0000000E+00;  0.0000000E+00;0;  3.8585588E-04;  4.0000000E+04;  0.0000000E+00;  0.0000000E+00;  4.0000000E+04;  0.0000000E+00;  4.0000000E+04;  2.8069517E-05;  0.0000000E+00;  3.5778637E-04;  1.7233275E+00;
  7.0000000E-02;  9.9999998E-03;  4.1000000E-01;2055;  0.0000000E+00;  0.0000000E+00;  0.0000000E+00;  1.0000000E+03;  1.0000000E-01;  0.0000000E+00;0;  0.0000000E+00;  0.0000000E+00;  0.0000000E+00;0;  2.2870893E-02;  4.0000000E+04;  0.0000000E+00;  0.0000000E+00;  4.0000000E+04;  0.0000000E+00;  4.0000000E+04;  5.9183929E-03;  0.0000000E+00;  1.6952500E-02;  4.0120514E+02;
  7.0000000E-02;  9.9999998E-03;  4.1999999E-01;2056;  0.0000000E+00;  0.0000000E+00;  0.0000000E+00;  1.0000000E+03;  1.0000000E-01;  0.0000000E+00;0;  0.0000000E+00;  0.0000000E+00;  0.0000000E+00;0;  1.1815879E-02;  4.0000000E+04;  0.0000000E+00;  0.0000000E+00;  4.0000000E+04;  0.0000000E+00;  4.0000000E+04;  2.5064906E-03;  0.0000000E+00;  9.3093878E-03;  1.6943675E+02;
  7.0000000E-02;  9.9999998E-03;  4.3000001E-01;2057;  0.0000000E+00;  0.0000000E+00;  0.0000000E+00;  1.0000000E+03;  1.0000000E-01;  0.0000000E+00;0;  0.0000000E+00;  0.0000000E+00;  0.0000000E+00;0;  5.1066126E-03;  4.0000000E+04;  0.0000000E+00;  0.0000000E+00;  4.0000000E+04;  0.0000000E+00;  4.0000000E+04;  8.7298319E-04;  0.0000000E+00;  4.2336294E-03;  5.6738220E+01;
  7.0000000E-02;  9.9999998E-03;  4.4000000E-01;2058;  0.0000000E+00;  0.0000000E+00;  0.0000000E+00;  1.0000000E+03;  1.0000000E-01;  0.0000000E+00;0;  0.0000000E+00;  0.0000000E+00;  0.0000000E+00;0;  1.6847299E-03;  4.0000000E+04;  0.0000000E+00;  0.0000000E+00;  4.0000000E+04;  0.0000000E+00;  4.0000000E+04;  2.2489137E-04;  0.0000000E+00;  1.4598386E-03;  1.4184315E+01;
  7.0000000E-02;  9.9999998E-03;  4.4999999E-01;2059;  0.0000000E+00;  0.0000000E+00;  0.0000000E+00;  1.0000000E+03;  1.0000000E-01;  0.0000000E+00;0;  0.0000000E+00;  0.0000000E+00;  0.0000000E+00;0;  3.5271983E-04;  4.0000000E+04;  0.0000000E+00;  0.0000000E+00;  4.0000000E+04;  0.0000000E+00;  4.0000000E+04;  3.4158205E-05;  0.0000000E+00;  3.1856162E-04;  2.6442075E+00;
  7.9999998E-02;  9.9999998E-03;  4.1000000E-01;2085;  0.0000000E+00;  0.0000000E+00;  0.0000000E+00;  1.0000000E+03;  1.0000000E-01;  0.0000000E+00;0;  0.0000000E+00;  0.0000000E+00;  0.0000000E+00;0;  2.3388084E-02;  4.0000000E+04;  0.0000000E+00;  0.0000000E+00;  4.0000000E+04;  0.0000000E+00;  4.0000000E+04;  6.7178048E-03;  0.0000000E+00;  1.6670279E-02;  4.3880090E+02;
  7.9999998E-02;  9.9999998E-03;  4.1999999E-01;2086;  0.0000000E+00;  0.0000000E+00;  0.0000000E+00;  1.0000000E+03;  1.0000000E-01;  0.0000000E+00;0;  0.0000000E+00;  0.0000000E+00;  0.0000000E+00;0;  1.1985769E-02;  4.0000000E+04;  0.0000000E+00;  0.0000000E+00;  4.0000000E+04;  0.0000000E+00;  4.0000000E+04;  2.8967673E-03;  0.0000000E+00;  9.0890024E-03;  1.8191869E+02;
  7.9999998E-02;  9.9999998E-03;  4.3000001E-01;2087;  0.0000000E+00;  0.0000000E+00;  0.0000000E+00;  1.0000000E+03;  1.0000000E-01;  0.0000000E+00;0;  0.0000000E+00;  0.0000000E+00;  0.0000000E+00;0;  5.1027369E-03;  4.0000000E+04;  0.0000000E+00;  0.0000000E+00;  4.0000000E+04;  0.0000000E+00;  4.0000000E+04;  1.0315481E-03;  0.0000000E+00;  4.0711886E-03;  5.8680981E+01;
  7.9999998E-02;  9.9999998E-03;  4.4000000E-01;2088;  0.0000000E+00;  0.0000000E+00;  0.0000000E+00;  1.0000000E+03;  1.0000000E-01;  0.0000000E+00;0;  0.0000000E+00;  0.0000000E+00;  0.0000000E+00;0;  1.6391024E-03;  4.0000000E+04;  0.0000000E+00;  0.0000000E+00;  4.0000000E+04;  0.0000000E+00;  4.0000000E+04;  2.7357784E-04;  0.0000000E+00;  1.3655245E-03;  1.4063259E+01;
  7.9999998E-02;  9.9999998E-03;  4.4999999E-01;2089;  0.0000000E+00;  0.0000000E+00;  0.0000000E+00;  1.0000000E+03;  1.0000000E-01;  0.0000000E+00;0;  0.0000000E+00;  0.0000000E+00;  0.0000000E+00;0;  3.2797561E-04;  4.0000000E+04;  0.0000000E+00;  0.0000000E+00;  4.0000000E+04;  0.0000000E+00;  4.0000000E+04;  4.3487948E-05;  0.0000000E+00;  2.8448764E-04;  2.6583302E+00;
  9.0000004E-02;  9.9999998E-03;  4.1000000E-01;2115;  0.0000000E+00;  0.0000000E+00;  0.0000000E+00;  1.0000000E+03;  1.0000000E-01;  0.0000000E+00;0;  0.0000000E+00;  0.0000000E+00;  0.0000000E+00;0;  2.4009187E-02;  4.0000000E+04;  0.0000000E+00;  0.0000000E+00;  4.0000000E+04;  0.0000000E+00;  4.0000000E+04;  7.6939370E-03;  0.0000000E+00;  1.6315250E-02;  4.6195230E+02;
  9.0000004E-02;  9.9999998E-03;  4.1999999E-01;2116;  0.0000000E+00;  0.0000000E+00;  0.0000000E+00;  1.0000000E+03;  1.0000000E-01;  0.0000000E+00;0;  0.0000000E+00;  0.0000000E+00;  0.0000000E+00;0;  1.2265929E-02;  4.0000000E+04;  0.0000000E+00;  0.0000000E+00;  4.0000000E+04;  0.0000000E+00;  4.0000000E+04;  3.3791894E-03;  0.0000000E+00;  8.8867396E-03;  1.8616759E+02;
  9.0000004E-02;  9.9999998E-03;  4.3000001E-01;2117;  0.0000000E+00;  0.0000000E+00;  0.0000000E+00;  1.0000000E+03;  1.0000000E-01;  0.0000000E+00;0;  0.0000000E+00;  0.0000000E+00;  0.0000000E+00;0;  5.1857554E-03;  4.0000000E+04;  0.0000000E+00;  0.0000000E+00;  4.0000000E+04;  0.0000000E+00;  4.0000000E+04;  1.2319228E-03;  0.0000000E+00;  3.9538327E-03;  5.7862347E+01;
  9.0000004E-02;  9.9999998E-03;  4.4000000E-01;2118;  0.0000000E+00;  0.0000000E+00;  0.0000000E+00;  1.0000000E+03;  1.0000000E-01;  0.0000000E+00;0;  0.0000000E+00;  0.0000000E+00;  0.0000000E+00;0;  1.6421382E-03;  4.0000000E+04;  0.0000000E+00;  0.0000000E+00;  4.0000000E+04;  0.0000000E+00;  4.0000000E+04;  3.3700341E-04;  0.0000000E+00;  1.3051349E-03;  1.5580878E+01;
  9.0000004E-02;  9.9999998E-03;  4.4999999E-01;2119;  0.0000000E+00;  0.0000000E+00;  0.0000000E+00;  1.0000000E+03;  1.0000000E-01;  0.0000000E+00;0;  0.0000000E+00;  0.0000000E+00;  0.0000000E+00;0;  3.2038154E-04;  4.0000000E+04;  0.0000000E+00;  0.0000000E+00;  4.0000000E+04;  0.0000000E+00;  4.0000000E+04;  5.5616241E-05;  0.0000000E+00;  2.6476532E-04;  4.0572023E+00;
  1.0000000E-01;  9.9999998E-03;  4.1000000E-01;2145;  0.0000000E+00;  0.0000000E+00;  0.0000000E+00;  1.0000000E+03;  1.0000000E-01;  0.0000000E+00;0;  0.0000000E+00;  0.0000000E+00;  0.0000000E+00;0;  2.4767214E-02;  4.0000000E+04;  0.0000000E+00;  0.0000000E+00;  4.0000000E+04;  0.0000000E+00;  4.0000000E+04;  8.8833012E-03;  0.0000000E+00;  1.5883913E-02;  4.7762469E+02;
  1.0000000E-01;  9.9999998E-03;  4.1999999E-01;2146;  0.0000000E+00;  0.0000000E+00;  0.0000000E+00;  1.0000000E+03;  1.0000000E-01;  0.0000000E+00;0;  0.0000000E+00;  0.0000000E+00;  0.0000000E+00;0;  1.2680905E-02;  4.0000000E+04;  0.0000000E+00;  0.0000000E+00;  4.0000000E+04;  0.0000000E+00;  4.0000000E+04;  3.9673988E-03;  0.0000000E+00;  8.7135062E-03;  1.9406355E+02;
  1.0000000E-01;  9.9999998E-03;  4.3000001E-01;2147;  0.0000000E+00;  0.0000000E+00;  0.0000000E+00;  1.0000000E+03;  1.0000000E-01;  0.0000000E+00;0;  0.0000000E+00;  0.0000000E+00;  0.0000000E+00;0;  5.3741094E-03;  4.0000000E+04;  0.0000000E+00;  0.0000000E+00;  4.0000000E+04;  0.0000000E+00;  4.0000000E+04;  1.4747508E-03;  0.0000000E+00;  3.8993587E-03;  7.0442001E+01;
  1.0000000E-01;  9.9999998E-03;  4.4000000E-01;2148;  0.0000000E+00;  0.0000000E+00;  0.0000000E+00;  1.0000000E+03;  1.0000000E-01;  0.0000000E+00;0;  0.0000000E+00;  0.0000000E+00;  0.0000000E+00;0;  1.7055033E-03;  4.0000000E+04;  0.0000000E+00;  0.0000000E+00;  4.0000000E+04;  0.0000000E+00;  4.0000000E+04;  4.1365251E-04;  0.0000000E+00;  1.2918508E-03;  2.9175537E+01;
  1.0000000E-01;  9.9999998E-03;  4.4999999E-01;2149;  0.0000000E+00;  0.0000000E+00;  0.0000000E+00;  1.0000000E+03;  1.0000000E-01;  0.0000000E+00;0;  0.0000000E+00;  0.0000000E+00;  0.0000000E+00;0;  3.3324389E-04;  4.0000000E+04;  0.0000000E+00;  0.0000000E+00;  4.0000000E+04;  0.0000000E+00;  4.0000000E+04;  7.0275157E-05;  0.0000000E+00;  2.6296874E-04;  9.2734566E+00;
  1.1000000E-01;  9.9999998E-03;  4.1000000E-01;2175;  0.0000000E+00;  0.0000000E+00;  0.0000000E+00;  1.0000000E+03;  1.0000000E-01;  0.0000000E+00;0;  0.0000000E+00;  0.0000000E+00;  0.0000000E+00;0;  2.5639886E-02;  4.0000000E+04;  0.0000000E+00;  0.0000000E+00;  4.0000000E+04;  0.0000000E+00;  4.0000000E+04;  1.0320730E-02;  0.0000000E+00;  1.5319156E-02;  4.9221323E+02;
  1.1000000E-01;  9.9999998E-03;  4.1999999E-01;2176;  0.0000000E+00;  0.0000000E+00;  0.0000000E+00;  1.0000000E+03;  1.0000000E-01;  0.0000000E+00;0;  0.0000000E+00;  0.0000000E+00;  0.0000000E+00;0;  1.3212474E-02;  4.0000000E+04;  0.0000000E+00;  0.0000000E+00;  4.0000000E+04;  0.0000000E+00;  4.0000000E+04;  4.6826149E-03;  0.0000000E+00;  8.5298587E-03;  2.1822914E+02;
  1.1000000E-01;  9.9999998E-03;  4.3000001E-01;2177;  0.0000000E+00;  0.0000000E+00;  0.0000000E+00;  1.0000000E+03;  1.0000000E-01;  0.0000000E+00;0;  0.0000000E+00;  0.0000000E+00;  0.0000000E+00;0;  5.6568421E-03;  4.0000000E+04;  0.0000000E+00;  0.0000000E+00;  4.0000000E+04;  0.0000000E+00;  4.0000000E+04;  1.7670981E-03;  0.0000000E+00;  3.8897439E-03;  1.0714695E+02;
  1.1000000E-01;  9.9999998E-03;  4.4000000E-01;2178;  0.0000000E+00;  0.0000000E+00;  0.0000000E+00;  1.0000000E+03;  1.0000000E-01;  0.0000000E+00;0;  0.0000000E+00;  0.0000000E+00;  0.0000000E+00;0;  1.8237447E-03;  4.0000000E+04;  0.0000000E+00;  0.0000000E+00;  4.0000000E+04;  0.0000000E+00;  4.0000000E+04;  5.0323037E-04;  0.0000000E+00;  1.3205144E-03;  5.4614952E+01;
  1.1000000E-01;  9.9999998E-03;  4.4999999E-01;2179;  0.0000000E+00;  0.0000000E+00;  0.0000000E+00;  1.0000000E+03;  1.0000000E-01;  0.0000000E+00;0;  0.0000000E+00;  0.0000000E+00;  0.0000000E+00;0;  3.6474914E-04;  4.0000000E+04;  0.0000000E+00;  0.0000000E+00;  4.0000000E+04;  0.0000000E+00;  4.0000000E+04;  8.7324988E-05;  0.0000000E+00;  2.7742414E-04;  1.7952232E+01;
  1.2000000E-01;  9.9999998E-03;  4.1000000E-01;2205;  0.0000000E+00;  0.0000000E+00;  0.0000000E+00;  1.0000000E+03;  1.0000000E-01;  0.0000000E+00;0;  0.0000000E+00;  0.0000000E+00;  0.0000000E+00;0;  2.6550753E-02;  4.0000000E+04;  0.0000000E+00;  0.0000000E+00;  4.0000000E+04;  0.0000000E+00;  4.0000000E+04;  1.2025264E-02;  0.0000000E+00;  1.4525489E-02;  4.9683649E+02;
  1.2000000E-01;  9.9999998E-03;  4.1999999E-01;2206;  0.0000000E+00;  0.0000000E+00;  0.0000000E+00;  1.0000000E+03;  1.0000000E-01;  0.0000000E+00;0;  0.0000000E+00;  0.0000000E+00;  0.0000000E+00;0;  1.3802774E-02;  4.0000000E+04;  0.0000000E+00;  0.0000000E+00;  4.0000000E+04;  0.0000000E+00;  4.0000000E+04;  5.5449908E-03;  0.0000000E+00;  8.2577839E-03;  2.4366327E+02;
  1.2000000E-01;  9.9999998E-03;  4.3000001E-01;2207;  0.0000000E+00;  0.0000000E+00;  0.0000000E+00;  1.0000000E+03;  1.0000000E-01;  0.0000000E+00;0;  0.0000000E+00;  0.0000000E+00;  0.0000000E+00;0;  5.9965290E-03;  4.0000000E+04;  0.0000000E+00;  0.0000000E+00;  4.0000000E+04;  0.0000000E+00;  4.0000000E+04;  2.1229328E-03;  0.0000000E+00;  3.8735964E-03;  1.5050494E+02;
  1.2000000E-01;  9.9999998E-03;  4.4000000E-01;2208;  0.0000000E+00;  0.0000000E+00;  0.0000000E+00;  1.0000000E+03;  1.0000000E-01;  0.0000000E+00;0;  0.0000000E+00;  0.0000000E+00;  0.0000000E+00;0;  1.9775485E-03;  4.0000000E+04;  0.0000000E+00;  0.0000000E+00;  4.0000000E+04;  0.0000000E+00;  4.0000000E+04;  6.1028637E-04;  0.0000000E+00;  1.3672622E-03;  8.5243011E+01;
  1.2000000E-01;  9.9999998E-03;  4.4999999E-01;2209;  0.0000000E+00;  0.0000000E+00;  0.0000000E+00;  1.0000000E+03;  1.0000000E-01;  0.0000000E+00;0;  0.0000000E+00;  0.0000000E+00;  0.0000000E+00;0;  4.0903015E-04;  4.0000000E+04;  0.0000000E+00;  0.0000000E+00;  4.0000000E+04;  0.0000000E+00;  4.0000000E+04;  1.0674173E-04;  0.0000000E+00;  3.0228842E-04;  2.9296640E+01;
  1.3000000E-01;  9.9999998E-03;  4.1000000E-01;2235;  0.0000000E+00;  0.0000000E+00;  0.0000000E+00;  1.0000000E+03;  1.0000000E-01;  0.0000000E+00;0;  0.0000000E+00;  0.0000000E+00;  0.0000000E+00;0;  2.7370535E-02;  4.0000000E+04;  0.0000000E+00;  0.0000000E+00;  4.0000000E+04;  0.0000000E+00;  4.0000000E+04;  1.3981561E-02;  0.0000000E+00;  1.3388973E-02;  4.7863754E+02;
  1.3000000E-01;  9.9999998E-03;  4.1999999E-01;2236;  0.0000000E+00;  0.0000000E+00;  0.0000000E+00;  1.0000000E+03;  1.0000000E-01;  0.0000000E+00;0;  0.0000000E+00;  0.0000000E+00;  0.0000000E+00;0;  1.4361620E-02;  4.0000000E+04;  0.0000000E+00;  0.0000000E+00;  4.0000000E+04;  0.0000000E+00;  4.0000000E+04;  6.5606926E-03;  0.0000000E+00;  7.8009269E-03;  2.0963486E+02;
  1.3000000E-01;  9.9999998E-03;  4.3000001E-01;2237;  0.0000000E+00;  0.0000000E+00;  0.0000000E+00;  1.0000000E+03;  1.0000000E-01;  0.0000000E+00;0;  0.0000000E+00;  0.0000000E+00;  0.0000000E+00;0;  6.3361116E-03;  4.0000000E+04;  0.0000000E+00;  0.0000000E+00;  4.0000000E+04;  0.0000000E+00;  4.0000000E+04;  2.5560390E-03;  0.0000000E+00;  3.7800723E-03;  1.5393607E+02;
  1.3000000E-01;  9.9999998E-03;  4.4000000E-01;2238;  0.0000000E+00;  0.0000000E+00;  0.0000000E+00;  1.0000000E+03;  1.0000000E-01;  0.0000000E+00;0;  0.0000000E+00;  0.0000000E+00;  0.0000000E+00;0;  2.1397530E-03;  4.0000000E+04;  0.0000000E+00;  0.0000000E+00;  4.0000000E+04;  0.0000000E+00;  4.0000000E+04;  7.4378768E-04;  0.0000000E+00;  1.3959652E-03;  1.0447540E+02;
  1.3000000E-01;  9.9999998E-03;  4.4999999E-01;2239;  0.0000000E+00;  0.0000000E+00;  0.0000000E+00;  1.0000000E+03;  1.0000000E-01;  0.0000000E+00;0;  0.0000000E+00;  0.0000000E+00;  0.0000000E+00;0;  4.5804016E-04;  4.0000000E+04;  0.0000000E+00;  0.0000000E+00;  4.0000000E+04;  0.0000000E+00;  4.0000000E+04;  1.2959506E-04;  0.0000000E+00;  3.2844511E-04;  4.0022636E+01;
  1.4000000E-01;  9.9999998E-03;  4.1000000E-01;2265;  0.0000000E+00;  0.0000000E+00;  0.0000000E+00;  1.0000000E+03;  1.0000000E-01;  0.0000000E+00;0;  0.0000000E+00;  0.0000000E+00;  0.0000000E+00;0;  2.7909510E-02;  4.0000000E+04;  0.0000000E+00;  0.0000000E+00;  4.0000000E+04;  0.0000000E+00;  4.0000000E+04;  1.6113177E-02;  0.0000000E+00;  1.1796334E-02;  6.8796661E+02;
  1.4000000E-01;  9.9999998E-03;  4.1999999E-01;2266;  0.0000000E+00;  0.0000000E+00;  0.0000000E+00;  1.0000000E+03;  1.0000000E-01;  0.0000000E+00;0;  0.0000000E+00;  0.0000000E+00;  0.0000000E+00;0;  1.4768237E-02;  4.0000000E+04;  0.0000000E+00;  0.0000000E+00;  4.0000000E+04;  0.0000000E+00;  4.0000000E+04;  7.7056009E-03;  0.0000000E+00;  7.0626359E-03;  2.5138921E+02;
  1.4000000E-01;  9.9999998E-03;  4.3000001E-01;2267;  0.0000000E+00;  0.0000000E+00;  0.0000000E+00;  1.0000000E+03;  1.0000000E-01;  0.0000000E+00;0;  0.0000000E+00;  0.0000000E+00;  0.0000000E+00;0;  6.6071833E-03;  4.0000000E+04;  0.0000000E+00;  0.0000000E+00;  4.0000000E+04;  0.0000000E+00;  4.0000000E+04;  3.0681288E-03;  0.0000000E+00;  3.5390547E-03;  3.6510300E+01;
  1.4000000E-01;  9.9999998E-03;  4.4000000E-01;2268;  0.0000000E+00;  0.0000000E+00;  0.0000000E+00;  1.0000000E+03;  1.0000000E-01;  0.0000000E+00;0;  0.0000000E+00;  0.0000000E+00;  0.0000000E+00;0;  2.2795005E-03;  4.0000000E+04;  0.0000000E+00;  0.0000000E+00;  4.0000000E+04;  0.0000000E+00;  4.0000000E+04;  9.1172569E-04;  0.0000000E+00;  1.3677749E-03;  7.3757225E+01;
  1.4000000E-01;  9.9999998E-03;  4.4999999E-01;2269;  0.0000000E+00;  0.0000000E+00;  0.0000000E+00;  1.0000000E+03;  1.0000000E-01;  0.0000000E+00;0;  0.0000000E+00;  0.0000000E+00;  0.0000000E+00;0;  5.0295918E-04;  4.0000000E+04;  0.0000000E+00;  0.0000000E+00;  4.0000000E+04;  0.0000000E+00;  4.0000000E+04;  1.5924219E-04;  0.0000000E+00;  3.4371699E-04;  4.0627171E+01;
  1.5000001E-01;  9.9999998E-03;  4.1000000E-01;2295;  0.0000000E+00;  0.0000000E+00;  0.0000000E+00;  1.0000000E+03;  1.0000000E-01;  0.0000000E+00;0;  0.0000000E+00;  0.0000000E+00;  0.0000000E+00;0;  2.7894683E-02;  4.0000000E+04;  0.0000000E+00;  0.0000000E+00;  4.0000000E+04;  0.0000000E+00;  4.0000000E+04;  1.8246986E-02;  0.0000000E+00;  9.6476972E-03;  1.7484889E+03;
  1.5000001E-01;  9.9999998E-03;  4.1999999E-01;2296;  0.0000000E+00;  0.0000000E+00;  0.0000000E+00;  1.0000000E+03;  1.0000000E-01;  0.0000000E+00;0;  0.0000000E+00;  0.0000000E+00;  0.0000000E+00;0;  1.4863222E-02;  4.0000000E+04;  0.0000000E+00;  0.0000000E+00;  4.0000000E+04;  0.0000000E+00;  4.0000000E+04;  8.9022936E-03;  0.0000000E+00;  5.9609283E-03;  1.0195906E+03;
  1.5000001E-01;  9.9999998E-03;  4.3000001E-01;2297;  0.0000000E+00;  0.0000000E+00;  0.0000000E+00;  1.0000000E+03;  1.0000000E-01;  0.0000000E+00;0;  0.0000000E+00;  0.0000000E+00;  0.0000000E+00;0;  6.7280084E-03;  4.0000000E+04;  0.0000000E+00;  0.0000000E+00;  4.0000000E+04;  0.0000000E+00;  4.0000000E+04;  3.6354482E-03;  0.0000000E+00;  3.0925600E-03;  4.1110260E+02;
  1.5000001E-01;  9.9999998E-03;  4.4000000E-01;2298;  0.0000000E+00;  0.0000000E+00;  0.0000000E+00;  1.0000000E+03;  1.0000000E-01;  0.0000000E+00;0;  0.0000000E+00;  0.0000000E+00;  0.0000000E+00;0;  2.3624031E-03;  4.0000000E+04;  0.0000000E+00;  0.0000000E+00;  4.0000000E+04;  0.0000000E+00;  4.0000000E+04;  1.1136967E-03;  0.0000000E+00;  1.2487062E-03;  8.2938797E+01;
  1.5000001E-01;  9.9999998E-03;  4.4999999E-01;2299;  0.0000000E+00;  0.0000000E+00;  0.0000000E+00;  1.0000000E+03;  1.0000000E-01;  0.0000000E+00;0;  0.0000000E+00;  0.0000000E+00;  0.0000000E+00;0;  5.3392950E-04;  4.0000000E+04;  0.0000000E+00;  0.0000000E+00;  4.0000000E+04;  0.0000000E+00;  4.0000000E+04;  1.9940216E-04;  0.0000000E+00;  3.3452734E-04;  1.1452592E+01;
  1.6000000E-01;  9.9999998E-03;  4.1000000E-01;2325;  0.0000000E+00;  0.0000000E+00;  0.0000000E+00;  1.0000000E+03;  1.0000000E-01;  0.0000000E+00;0;  0.0000000E+00;  0.0000000E+00;  0.0000000E+00;0;  2.6944535E-02;  4.0000000E+04;  0.0000000E+00;  0.0000000E+00;  4.0000000E+04;  0.0000000E+00;  4.0000000E+04;  2.0079715E-02;  0.0000000E+00;  6.8648201E-03;  4.0603818E+03;
  1.6000000E-01;  9.9999998E-03;  4.1999999E-01;2326;  0.0000000E+00;  0.0000000E+00;  0.0000000E+00;  1.0000000E+03;  1.0000000E-01;  0.0000000E+00;0;  0.0000000E+00;  0.0000000E+00;  0.0000000E+00;0;  1.4428040E-02;  4.0000000E+04;  0.0000000E+00;  0.0000000E+00;  4.0000000E+04;  0.0000000E+00;  4.0000000E+04;  9.9981194E-03;  0.0000000E+00;  4.4299201E-03;  2.7397358E+03;
  1.6000000E-01;  9.9999998E-03;  4.3000001E-01;2327;  0.0000000E+00;  0.0000000E+00;  0.0000000E+00;  1.0000000E+03;  1.0000000E-01;  0.0000000E+00;0;  0.0000000E+00;  0.0000000E+00;  0.0000000E+00;0;  6.5900013E-03;  4.0000000E+04;  0.0000000E+00;  0.0000000E+00;  4.0000000E+04;  0.0000000E+00;  4.0000000E+04;  4.1961097E-03;  0.0000000E+00;  2.3938913E-03;  1.3951733E+03;
  1.6000000E-01;  9.9999998E-03;  4.4000000E-01;2328;  0.0000000E+00;  0.0000000E+00;  0.0000000E+00;  1.0000000E+03;  1.0000000E-01;  0.0000000E+00;0;  0.0000000E+00;  0.0000000E+00;  0.0000000E+00;0;  2.3443429E-03;  4.0000000E+04;  0.0000000E+00;  0.0000000E+00;  4.0000000E+04;  0.0000000E+00;  4.0000000E+04;  1.3336677E-03;  0.0000000E+00;  1.0106752E-03;  4.8708093E+02;
  1.6000000E-01;  9.9999998E-03;  4.4999999E-01;2329;  0.0000000E+00;  0.0000000E+00;  0.0000000E+00;  1.0000000E+03;  1.0000000E-01;  0.0000000E+00;0;  0.0000000E+00;  0.0000000E+00;  0.0000000E+00;0;  5.3843268E-04;  4.0000000E+04;  0.0000000E+00;  0.0000000E+00;  4.0000000E+04;  0.0000000E+00;  4.0000000E+04;  2.5046247E-04;  0.0000000E+00;  2.8797021E-04;  9.0517403E+01;
  1.7000000E-01;  9.9999998E-03;  4.1000000E-01;2355;  0.0000000E+00;  0.0000000E+00;  0.0000000E+00;  1.0000000E+03;  1.0000000E-01;  0.0000000E+00;0;  0.0000000E+00;  0.0000000E+00;  0.0000000E+00;0;  2.4578970E-02;  4.0000000E+04;  0.0000000E+00;  0.0000000E+00;  4.0000000E+04;  0.0000000E+00;  4.0000000E+04;  2.1191500E-02;  0.0000000E+00;  3.3874698E-03;  8.0805127E+03;
  1.7000000E-01;  9.9999998E-03;  4.1999999E-01;2356;  0.0000000E+00;  0.0000000E+00;  0.0000000E+00;  1.0000000E+03;  1.0000000E-01;  0.0000000E+00;0;  0.0000000E+00;  0.0000000E+00;  0.0000000E+00;0;  1.3173564E-02;  4.0000000E+04;  0.0000000E+00;  0.0000000E+00;  4.0000000E+04;  0.0000000E+00;  4.0000000E+04;  1.0763981E-02;  0.0000000E+00;  2.4095827E-03;  5.8448716E+03;
  1.7000000E-01;  9.9999998E-03;  4.3000001E-01;2357;  0.0000000E+00;  0.0000000E+00;  0.0000000E+00;  1.0000000E+03;  1.0000000E-01;  0.0000000E+00;0;  0.0000000E+00;  0.0000000E+00;  0.0000000E+00;0;  6.0417452E-03;  4.0000000E+04;  0.0000000E+00;  0.0000000E+00;  4.0000000E+04;  0.0000000E+00;  4.0000000E+04;  4.6448340E-03;  0.0000000E+00;  1.3969113E-03;  3.2703679E+03;
  1.7000000E-01;  9.9999998E-03;  4.4000000E-01;2358;  0.0000000E+00;  0.0000000E+00;  0.0000000E+00;  1.0000000E+03;  1.0000000E-01;  0.0000000E+00;0;  0.0000000E+00;  0.0000000E+00;  0.0000000E+00;0;  2.1609035E-03;  4.0000000E+04;  0.0000000E+00;  0.0000000E+00;  4.0000000E+04;  0.0000000E+00;  4.0000000E+04;  1.5351754E-03;  0.0000000E+00;  6.2572822E-04;  1.3167314E+03;
  1.7000000E-01;  9.9999998E-03;  4.4999999E-01;2359;  0.0000000E+00;  0.0000000E+00;  0.0000000E+00;  1.0000000E+03;  1.0000000E-01;  0.0000000E+00;0;  0.0000000E+00;  0.0000000E+00;  0.0000000E+00;0;  4.9732323E-04;  4.0000000E+04;  0.0000000E+00;  0.0000000E+00;  4.0000000E+04;  0.0000000E+00;  4.0000000E+04;  3.0611196E-04;  0.0000000E+00;  1.9121129E-04;  3.1789996E+02;
  1.8000001E-01;  9.9999998E-03;  4.1000000E-01;2385;  0.0000000E+00;  0.0000000E+00;  0.0000000E+00;  1.0000000E+03;  1.0000000E-01;  0.0000000E+00;0;  0.0000000E+00;  0.0000000E+00;  0.0000000E+00;0;  2.0331431E-02;  4.0000000E+04;  0.0000000E+00;  0.0000000E+00;  4.0000000E+04;  0.0000000E+00;  4.0000000E+04;  2.1162989E-02;  0.0000000E+00; -8.3155767E-04;  1.4185570E+04;
  1.8000001E-01;  9.9999998E-03;  4.1999999E-01;2386;  0.0000000E+00;  0.0000000E+00;  0.0000000E+00;  1.0000000E+03;  1.0000000E-01;  0.0000000E+00;0;  0.0000000E+00;  0.0000000E+00;  0.0000000E+00;0;  1.0780880E-02;  4.0000000E+04;  0.0000000E+00;  0.0000000E+00;  4.0000000E+04;  0.0000000E+00;  4.0000000E+04;  1.0945619E-02;  0.0000000E+00; -1.6473846E-04;  1.0754978E+04;
  1.8000001E-01;  9.9999998E-03;  4.3000001E-01;2387;  0.0000000E+00;  0.0000000E+00;  0.0000000E+00;  1.0000000E+03;  1.0000000E-01;  0.0000000E+00;0;  0.0000000E+00;  0.0000000E+00;  0.0000000E+00;0;  4.8934454E-03;  4.0000000E+04;  0.0000000E+00;  0.0000000E+00;  4.0000000E+04;  0.0000000E+00;  4.0000000E+04;  4.8490856E-03;  0.0000000E+00;  4.4359957E-05;  6.3884727E+03;
  1.8000001E-01;  9.9999998E-03;  4.4000000E-01;2388;  0.0000000E+00;  0.0000000E+00;  0.0000000E+00;  1.0000000E+03;  1.0000000E-01;  0.0000000E+00;0;  0.0000000E+00;  0.0000000E+00;  0.0000000E+00;0;  1.7216897E-03;  4.0000000E+04;  0.0000000E+00;  0.0000000E+00;  4.0000000E+04;  0.0000000E+00;  4.0000000E+04;  1.6637623E-03;  0.0000000E+00;  5.7927504E-05;  2.7810603E+03;
  1.8000001E-01;  9.9999998E-03;  4.4999999E-01;2389;  0.0000000E+00;  0.0000000E+00;  0.0000000E+00;  1.0000000E+03;  1.0000000E-01;  0.0000000E+00;0;  0.0000000E+00;  0.0000000E+00;  0.0000000E+00;0;  3.8095965E-04;  4.0000000E+04;  0.0000000E+00;  0.0000000E+00;  4.0000000E+04;  0.0000000E+00;  4.0000000E+04;  3.5201720E-04;  0.0000000E+00;  2.8942441E-05;  7.4957581E+02;
  1.9000000E-01;  9.9999998E-03;  4.1000000E-01;2415;  0.0000000E+00;  0.0000000E+00;  0.0000000E+00;  1.0000000E+03;  1.0000000E-01;  0.0000000E+00;0;  0.0000000E+00;  0.0000000E+00;  0.0000000E+00;0;  1.3974534E-02;  4.0000000E+04;  0.0000000E+00;  0.0000000E+00;  4.0000000E+04;  0.0000000E+00;  4.0000000E+04;  1.9790903E-02;  0.0000000E+00; -5.8163689E-03;  2.2432109E+04;
  1.9000000E-01;  9.9999998E-03;  4.1999999E-01;2416;  0.0000000E+00;  0.0000000E+00;  0.0000000E+00;  1.0000000E+03;  1.0000000E-01;  0.0000000E+00;0;  0.0000000E+00;  0.0000000E+00;  0.0000000E+00;0;  7.0232591E-03;  4.0000000E+04;  0.0000000E+00;  0.0000000E+00;  4.0000000E+04;  0.0000000E+00;  4.0000000E+04;  1.0378414E-02;  0.0000000E+00; -3.3551550E-03;  1.7673219E+04;
  1.9000000E-01;  9.9999998E-03;  4.3000001E-01;2417;  0.0000000E+00;  0.0000000E+00;  0.0000000E+00;  1.0000000E+03;  1.0000000E-01;  0.0000000E+00;0;  0.0000000E+00;  0.0000000E+00;  0.0000000E+00;0;  2.9685898E-03;  4.0000000E+04;  0.0000000E+00;  0.0000000E+00;  4.0000000E+04;  0.0000000E+00;  4.0000000E+04;  4.6984637E-03;  0.0000000E+00; -1.7298738E-03;  1.1006480E+04;
  1.9000000E-01;  9.9999998E-03;  4.4000000E-01;2418;  0.0000000E+00;  0.0000000E+00;  0.0000000E+00;  1.0000000E+03;  1.0000000E-01;  0.0000000E+00;0;  0.0000000E+00;  0.0000000E+00;  0.0000000E+00;0;  9.2533708E-04;  4.0000000E+04;  0.0000000E+00;  0.0000000E+00;  4.0000000E+04;  0.0000000E+00;  4.0000000E+04;  1.6628151E-03;  0.0000000E+00; -7.3747803E-04;  5.0727402E+03;
  1.9000000E-01;  9.9999998E-03;  4.4999999E-01;2419;  0.0000000E+00;  0.0000000E+00;  0.0000000E+00;  1.0000000E+03;  1.0000000E-01;  0.0000000E+00;0;  0.0000000E+00;  0.0000000E+00;  0.0000000E+00;0;  1.5164481E-04;  4.0000000E+04;  0.0000000E+00;  0.0000000E+00;  4.0000000E+04;  0.0000000E+00;  4.0000000E+04;  3.6886052E-04;  0.0000000E+00; -2.1721571E-04;  1.4662041E+03;
  2.0000000E-01;  9.9999998E-03;  4.1000000E-01;2444;  0.0000000E+00;  0.0000000E+00;  0.0000000E+00;  1.0000000E+03;  1.0000000E-01;  0.0000000E+00;0;  0.0000000E+00;  0.0000000E+00;  0.0000000E+00;0;  5.7217935E-03;  4.0000000E+04;  0.0000000E+00;  0.0000000E+00;  4.0000000E+04;  0.0000000E+00;  4.0000000E+04;  1.7253902E-02;  0.0000000E+00; -1.1532108E-02;  3.2528947E+04;
  2.0000000E-01;  9.9999998E-03;  4.1999999E-01;2445;  0.0000000E+00;  0.0000000E+00;  0.0000000E+00;  1.0000000E+03;  1.0000000E-01;  0.0000000E+00;0;  0.0000000E+00;  0.0000000E+00;  0.0000000E+00;0;  1.9146921E-03;  4.0000000E+04;  0.0000000E+00;  0.0000000E+00;  4.0000000E+04;  0.0000000E+00;  4.0000000E+04;  9.1013461E-03;  0.0000000E+00; -7.1866540E-03;  2.6521113E+04;
  2.0000000E-01;  9.9999998E-03;  4.3000001E-01;2446;  0.0000000E+00;  0.0000000E+00;  0.0000000E+00;  1.0000000E+03;  1.0000000E-01;  0.0000000E+00;0;  0.0000000E+00;  0.0000000E+00;  0.0000000E+00;0;  1.9579614E-04;  4.0000000E+04;  0.0000000E+00;  0.0000000E+00;  4.0000000E+04;  0.0000000E+00;  4.0000000E+04;  4.1693845E-03;  0.0000000E+00; -3.9735883E-03;  1.7212971E+04;
  2.0000000E-01;  9.9999998E-03;  4.4000000E-01;2447;  0.0000000E+00;  0.0000000E+00;  0.0000000E+00;  1.0000000E+03;  1.0000000E-01;  0.0000000E+00;0;  0.0000000E+00;  0.0000000E+00;  0.0000000E+00;0; -2.9673544E-04;  4.0000000E+04;  0.0000000E+00;  0.0000000E+00;  4.0000000E+04;  0.0000000E+00;  4.0000000E+04;  1.5015022E-03;  0.0000000E+00; -1.7982377E-03;  8.3181982E+03;
 -2.0000000E-01;  9.9999998E-03; -4.4000000E-01;0;  0.0000000E+00;  0.0000000E+00;  0.0000000E+00;  1.0000000E+03;  1.0000000E-01;  0.0000000E+00;0;  0.0000000E+00;  0.0000000E+00;  0.0000000E+00;0;  0.0000000E+00;  4.0000000E+04;  0.0000000E+00;  0.0000000E+00;  4.0000000E+04;  0.0000000E+00;  4.0000000E+04;  0.0000000E+00;  0.0000000E+00;  0.0000000E+00;  0.0000000E+00;
 -2.0000000E-01;  9.9999998E-03; -4.3000001E-01;1;  0.0000000E+00;  0.0000000E+00;  0.0000000E+00;  1.0000000E+03;  1.0000000E-01;  0.0000000E+00;0;  0.0000000E+00;  0.0000000E+00;  0.0000000E+00;0;  0.0000000E+00;  4.0000000E+04;  0.0000000E+00;  0.0000000E+00;  4.0000000E+04;  0.0000000E+00;  4.0000000E+04;  0.0000000E+00;  0.0000000E+00;  0.0000000E+00;  0.0000000E+00;
 -2.0000000E-01;  9.9999998E-03; -4.1999999E-01;2;  0.0000000E+00;  0.0000000E+00;  0.0000000E+00;  1.0000000E+03;  1.0000000E-01;  0.0000000E+00;0;  0.0000000E+00;  0.0000000E+00;  0.0000000E+00;0;  0.0000000E+00;  4.0000000E+04;  0.0000000E+00;  0.0000000E+00;  4.0000000E+04;  0.0000000E+00;  4.0000000E+04;  0.0000000E+00;  0.0000000E+00;  0.0000000E+00;  0.0000000E+00;
 -2.0000000E-01;  9.9999998E-03; -4.1000000E-01;3;  0.0000000E+00;  0.0000000E+00;  0.0000000E+00;  1.0000000E+03;  1.0000000E-01;  0.0000000E+00;0;  0.0000000E+00;  0.0000000E+00;  0.0000000E+00;0;  0.0000000E+00;  4.0000000E+04;  0.0000000E+00;  0.0000000E+00;  4.0000000E+04;  0.0000000E+00;  4.0000000E+04;  0.0000000E+00;  0.0000000E+00;  0.0000000E+00;  0.0000000E+00;
 -2.0000000E-01;  9.9999998E-03; -4.0000001E-01;4;  0.0000000E+00;  0.0000000E+00;  0.0000000E+00;  1.0000000E+03;  1.0000000E-01;  0.0000000E+00;0;  0.0000000E+00;  0.0000000E+00;  0.0000000E+00;0;  0.0000000E+00;  4.0000000E+04;  0.0000000E+00;  0.0000000E+00;  4.0000000E+04;  0.0000000E+00;  4.0000000E+04;  0.0000000E+00;  0.0000000E+00;  0.0000000E+00;  0.0000000E+00;
 -2.0000000E-01;  9.9999998E-03; -3.8999999E-01;5;  0.0000000E+00;  0.0000000E+00;  0.0000000E+00;  1.0000000E+03;  1.0000000E-01;  0.0000000E+00;0;  0.0000000E+00;  0.0000000E+00;  0.0000000E+00;0;  0.0000000E+00;  4.0000000E+04;  0.0000000E+00;  0.0000000E+00;  4.0000000E+04;  0.0000000E+00;  4.0000000E+04;  0.0000000E+00;  0.0000000E+00;  0.0000000E+00;  0.0000000E+00;
 -2.0000000E-01;  9.9999998E-03; -3.8000000E-01;6;  0.0000000E+00;  0.0000000E+00;  0.0000000E+00;  1.0000000E+03;  1.0000000E-01;  0.0000000E+00;0;  0.0000000E+00;  0.0000000E+00;  0.0000000E+00;0;  0.0000000E+00;  4.0000000E+04;  0.0000000E+00;  0.0000000E+00;  4.0000000E+04;  0.0000000E+00;  4.0000000E+04;  0.0000000E+00;  0.0000000E+00;  0.0000000E+00;  0.0000000E+00;
 -2.0000000E-01;  9.9999998E-03; -3.7000000E-01;7;  0.0000000E+00;  0.0000000E+00;  0.0000000E+00;  1.0000000E+03;  1.0000000E-01;  0.0000000E+00;0;  0.0000000E+00;  0.0000000E+00;  0.0000000E+00;0;  0.0000000E+00;  4.0000000E+04;  0.0000000E+00;  0.0000000E+00;  4.0000000E+04;  0.0000000E+00;  4.0000000E+04;  0.0000000E+00;  0.0000000E+00;  0.0000000E+00;  0.0000000E+00;
 -2.0000000E-01;  9.9999998E-03; -3.6000001E-01;8;  0.0000000E+00;  0.0000000E+00;  0.0000000E+00;  1.0000000E+03;  1.0000000E-01;  0.0000000E+00;0;  0.0000000E+00;  0.0000000E+00;  0.0000000E+00;0;  0.0000000E+00;  4.0000000E+04;  0.0000000E+00;  0.0000000E+00;  4.0000000E+04;  0.0000000E+00;  4.0000000E+04;  0.0000000E+00;  0.0000000E+00;  0.0000000E+00;  0.0000000E+00;
 -2.0000000E-01;  9.9999998E-03; -3.4999999E-01;9;  0.0000000E+00;  0.0000000E+00;  0.0000000E+00;  1.0000000E+03;  1.0000000E-01;  0.0000000E+00;0;  0.0000000E+00;  0.0000000E+00;  0.0000000E+00;0;  0.0000000E+00;  4.0000000E+04;  0.0000000E+00;  0.0000000E+00;  4.0000000E+04;  0.0000000E+00;  4.0000000E+04;  0.0000000E+00;  0.0000000E+00;  0.0000000E+00;  0.0000000E+00;
 -2.0000000E-01;  9.9999998E-03; -3.4000000E-01;10;  0.0000000E+00;  0.0000000E+00;  0.0000000E+00;  1.0000000E+03;  1.0000000E-01;  0.0000000E+00;0;  0.0000000E+00;  0.0000000E+00;  0.0000000E+00;0;  0.0000000E+00;  4.0000000E+04;  0.0000000E+00;  0.0000000E+00;  4.0000000E+04;  0.0000000E+00;  4.0000000E+04;  0.0000000E+00;  0.0000000E+00;  0.0000000E+00;  0.0000000E+00;
 -2.0000000E-01;  9.9999998E-03; -3.3000001E-01;11;  0.0000000E+00;  0.0000000E+00;  0.0000000E+00;  1.0000000E+03;  1.0000000E-01;  0.0000000E+00;0;  0.0000000E+00;  0.0000000E+00;  0.0000000E+00;0;  0.0000000E+00;  4.0000000E+04;  0.0000000E+00;  0.0000000E+00;  4.0000000E+04;  0.0000000E+00;  4.0000000E+04;  0.0000000E+00;  0.0000000E+00;  0.0000000E+00;  0.0000000E+00;
 -2.0000000E-01;  9.9999998E-03; -3.1999999E-01;12;  0.0000000E+00;  0.0000000E+00;  0.0000000E+00;  1.0000000E+03;  1.0000000E-01;  0.0000000E+00;0;  0.0000000E+00;  0.0000000E+00;  0.0000000E+00;0;  0.0000000E+00;  4.0000000E+04;  0.0000000E+00;  0.0000000E+00;  4.0000000E+04;  0.0000000E+00;  4.0000000E+04;  0.0000000E+00;  0.0000000E+00;  0.0000000E+00;  0.0000000E+00;
 -2.0000000E-01;  9.9999998E-03; -3.1000000E-01;13;  0.0000000E+00;  0.0000000E+00;  0.0000000E+00;  1.0000000E+03;  1.0000000E-01;  0.0000000E+00;0;  0.0000000E+00;  0.0000000E+00;  0.0000000E+00;0;  0.0000000E+00;  4.0000000E+04;  0.0000000E+00;  0.0000000E+00;  4.0000000E+04;  0.0000000E+00;  4.0000000E+04;  0.0000000E+00;  0.0000000E+00;  0.0000000E+00;  0.0000000E+00;
 -2.0000000E-01;  9.9999998E-03; -3.0000001E-01;14;  0.0000000E+00;  0.0000000E+00;  0.0000000E+00;  1.0000000E+03;  1.0000000E-01;  0.0000000E+00;0;  0.0000000E+00;  0.0000000E+00;  0.0000000E+00;0;  0.0000000E+00;  4.0000000E+04;  0.0000000E+00;  0.0000000E+00;  4.0000000E+04;  0.0000000E+00;  4.0000000E+04;  0.0000000E+00;  0.0000000E+00;  0.0000000E+00;  0.0000000E+00;
 -2.0000000E-01;  9.9999998E-03; -2.8999999E-01;15;  0.0000000E+00;  0.0000000E+00;  0.0000000E+00;  1.0000000E+03;  1.0000000E-01;  0.0000000E+00;0;  0.0000000E+00;  0.0000000E+00;  0.0000000E+00;0;  0.0000000E+00;  4.0000000E+04;  0.0000000E+00;  0.0000000E+00;  4.0000000E+04;  0.0000000E+00;  4.0000000E+04;  0.0000000E+00;  0.0000000E+00;  0.0000000E+00;  0.0000000E+00;
 -2.0000000E-01;  9.9999998E-03; -2.8000000E-01;16;  0.0000000E+00;  0.0000000E+00;  0.0000000E+00;  1.0000000E+03;  1.0000000E-01;  0.0000000E+00;0;  0.0000000E+00;  0.0000000E+00;  0.0000000E+00;0;  0.0000000E+00;  4.0000000E+04;  0.0000000E+00;  0.0000000E+00;  4.0000000E+04;  0.0000000E+00;  4.0000000E+04;  0.0000000E+00;  0.0000000E+00;  0.0000000E+00;  0.0000000E+00;
 -2.0000000E-01;  9.9999998E-03; -2.7000001E-01;17;  0.0000000E+00;  0.0000000E+00;  0.0000000E+00;  1.0000000E+03;  1.0000000E-01;  0.0000000E+00;0;  0.0000000E+00;  0.0000000E+00;  0.0000000E+00;0;  0.0000000E+00;  4.0000000E+04;  0.0000000E+00;  0.0000000E+00;  4.0000000E+04;  0.0000000E+00;  4.0000000E+04;  0.0000000E+00;  0.0000000E+00;  0.0000000E+00;  0.0000000E+00;
 -2.0000000E-01;  9.9999998E-03; -2.5999999E-01;18;  0.0000000E+00;  0.0000000E+00;  0.0000000E+00;  1.0000000E+03;  1.0000000E-01;  0.0000000E+00;0;  0.0000000E+00;  0.0000000E+00;  0.0000000E+00;0;  0.0000000E+00;  4.0000000E+04;  0.0000000E+00;  0.0000000E+00;  4.0000000E+04;  0.0000000E+00;  4.0000000E+04;  0.0000000E+00;  0.0000000E+00;  0.0000000E+00;  0.0000000E+00;
 -2.0000000E-01;  9.9999998E-03; -2.5000000E-01;19;  0.0000000E+00;  0.0000000E+00;  0.0000000E+00;  1.0000000E+03;  1.0000000E-01;  0.0000000E+00;0;  0.0000000E+00;  0.0000000E+00;  0.0000000E+00;0;  0.0000000E+00;  4.0000000E+04;  0.0000000E+00;  0.0000000E+00;  4.0000000E+04;  0.0000000E+00;  4.0000000E+04;  0.0000000E+00;  0.0000000E+00;  0.0000000E+00;  0.0000000E+00;
 -2.0000000E-01;  9.9999998E-03; -2.3999999E-01;20;  0.0000000E+00;  0.0000000E+00;  0.0000000E+00;  1.0000000E+03;  1.0000000E-01;  0.0000000E+00;0;  0.0000000E+00;  0.0000000E+00;  0.0000000E+00;0;  0.0000000E+00;  4.0000000E+04;  0.0000000E+00;  0.0000000E+00;  4.0000000E+04;  0.0000000E+00;  4.0000000E+04;  0.0000000E+00;  0.0000000E+00;  0.0000000E+00;  0.0000000E+00;
 -2.0000000E-01;  9.9999998E-03; -2.3000000E-01;21;  0.0000000E+00;  0.0000000E+00;  0.0000000E+00;  1.0000000E+03;  1.0000000E-01;  0.0000000E+00;0;  0.0000000E+00;  0.0000000E+00;  0.0000000E+00;0;  0.0000000E+00;  4.0000000E+04;  0.0000000E+00;  0.0000000E+00;  4.0000000E+04;  0.0000000E+00;  4.0000000E+04;  0.0000000E+00;  0.0000000E+00;  0.0000000E+00;  0.0000000E+00;
 -2.0000000E-01;  9.9999998E-03; -2.2000000E-01;22;  0.0000000E+00;  0.0000000E+00;  0.0000000E+00;  1.0000000E+03;  1.0000000E-01;  0.0000000E+00;0;  0.0000000E+00;  0.0000000E+00;  0.0000000E+00;0;  0.0000000E+00;  4.0000000E+04;  0.0000000E+00;  0.0000000E+00;  4.0000000E+04;  0.0000000E+00;  4.0000000E+04;  0.0000000E+00;  0.0000000E+00;  0.0000000E+00;  0.0000000E+00;
 -2.0000000E-01;  9.9999998E-03; -2.0999999E-01;23;  0.0000000E+00;  0.0000000E+00;  0.0000000E+00;  1.0000000E+03;  1.0000000E-01;  0.0000000E+00;0;  0.0000000E+00;  0.0000000E+00;  0.0000000E+00;0;  0.0000000E+00;  4.0000000E+04;  0.0000000E+00;  0.0000000E+00;  4.0000000E+04;  0.0000000E+00;  4.0000000E+04;  0.0000000E+00;  0.0000000E+00;  0.0000000E+00;  0.0000000E+00;
 -2.0000000E-01;  9.9999998E-03; -2.0000000E-01;24;  0.0000000E+00;  0.0000000E+00;  0.0000000E+00;  1.0000000E+03;  1.0000000E-01;  0.0000000E+00;0;  0.0000000E+00;  0.0000000E+00;  0.0000000E+00;0;  0.0000000E+00;  4.0000000E+04;  0.0000000E+00;  0.0000000E+00;  4.0000000E+04;  0.0000000E+00;  4.0000000E+04;  0.0000000E+00;  0.0000000E+00;  0.0000000E+00;  0.0000000E+00;
 -2.0000000E-01;  9.9999998E-03; -1.9000000E-01;25;  0.0000000E+00;  0.0000000E+00;  0.0000000E+00;  1.0000000E+03;  1.0000000E-01;  0.0000000E+00;0;  0.0000000E+00;  0.0000000E+00;  0.0000000E+00;0;  0.0000000E+00;  4.0000000E+04;  0.0000000E+00;  0.0000000E+00;  4.0000000E+04;  0.0000000E+00;  4.0000000E+04;  0.0000000E+00;  0.0000000E+00;  0.0000000E+00;  0.0000000E+00;
 -2.0000000E-01;  9.9999998E-03; -1.8000001E-01;26;  0.0000000E+00;  0.0000000E+00;  0.0000000E+00;  1.0000000E+03;  1.0000000E-01;  0.0000000E+00;0;  0.0000000E+00;  0.0000000E+00;  0.0000000E+00;0;  0.0000000E+00;  4.0000000E+04;  0.0000000E+00;  0.0000000E+00;  4.0000000E+04;  0.0000000E+00;  4.0000000E+04;  0.0000000E+00;  0.0000000E+00;  0.0000000E+00;  0.0000000E+00;
 -2.0000000E-01;  9.9999998E-03; -1.7000000E-01;27;  0.0000000E+00;  0.0000000E+00;  0.0000000E+00;  1.0000000E+03;  1.0000000E-01;  0.0000000E+00;0;  0.0000000E+00;  0.0000000E+00;  0.0000000E+00;0;  0.0000000E+00;  4.0000000E+04;  0.0000000E+00;  0.0000000E+00;  4.0000000E+04;  0.0000000E+00;  4.0000000E+04;  0.0000000E+00;  0.0000000E+00;  0.0000000E+00;  0.0000000E+00;
 -2.0000000E-01;  9.9999998E-03; -1.6000000E-01;28;  0.0000000E+00;  0.0000000E+00;  0.0000000E+00;  1.0000000E+03;  1.0000000E-01;  0.0000000E+00;0;  0.0000000E+00;  0.0000000E+00;  0.0000000E+00;0;  0.0000000E+00;  4.0000000E+04;  0.0000000E+00;  0.0000000E+00;  4.0000000E+04;  0.0000000E+00;  4.0000000E+04;  0.0000000E+00;  0.0000000E+00;  0.0000000E+00;  0.0000000E+00;
 -2.0000000E-01;  9.9999998E-03; -1.5000001E-01;29;  0.0000000E+00;  0.0000000E+00;  0.0000000E+00;  1.0000000E+03;  1.0000000E-01;  0.0000000E+00;0;  0.0000000E+00;  0.0000000E+00;  0.0000000E+00;0;  0.0000000E+00;  4.0000000E+04;  0.0000000E+00;  0.0000000E+00;  4.0000000E+04;  0.0000000E+00;  4.0000000E+04;  0.0000000E+00;  0.0000000E+00;  0.0000000E+00;  0.0000000E+00;
 -2.0000000E-01;  9.9999998E-03; -1.4000000E-01;30;  0.0000000E+00;  0.0000000E+00;  0.0000000E+00;  1.0000000E+03;  1.0000000E-01;  0.0000000E+00;0;  0.0000000E+00;  0.0000000E+00;  0.0000000E+00;0;  0.0000000E+00;  4.0000000E+04;  0.0000000E+00;  0.0000000E+00;  4.0000000E+04;  0.0000000E+00;  4.0000000E+04;  0.0000000E+00;  0.0000000E+00;  0.0000000E+00;  0.0000000E+00;
 -2.0000000E-01;  9.9999998E-03; -1.3000000E-01;31;  0.0000000E+00;  0.0000000E+00;  0.0000000E+00;  1.0000000E+03;  1.0000000E-01;  0.0000000E+00;0;  0.0000000E+00;  0.0000000E+00;  0.0000000E+00;0;  0.0000000E+00;  4.0000000E+04;  0.0000000E+00;  0.0000000E+00;  4.0000000E+04;  0.0000000E+00;  4.0000000E+04;  0.0000000E+00;  0.0000000E+00;  0.0000000E+00;  0.0000000E+00;
 -2.0000000E-01;  9.9999998E-03; -1.2000000E-01;32;  0.0000000E+00;  0.0000000E+00;  0.0000000E+00;  1.0000000E+03;  1.0000000E-01;  0.0000000E+00;0;  0.0000000E+00;  0.0000000E+00;  0.0000000E+00;0;  0.0000000E+00;  4.0000000E+04;  0.0000000E+00;  0.0000000E+00;  4.0000000E+04;  0.0000000E+00;  4.0000000E+04;  0.0000000E+00;  0.0000000E+00;  0.0000000E+00;  0.0000000E+00;
 -2.0000000E-01;  9.9999998E-03; -1.1000000E-01;33;  0.0000000E+00;  0.0000000E+00;  0.0000000E+00;  1.0000000E+03;  1.0000000E-01;  0.0000000E+00;0;  0.0000000E+00;  0.0000000E+00;  0.0000000E+00;0;  0.0000000E+00;  4.0000000E+04;  0.0000000E+00;  0.0000000E+00;  4.0000000E+04;  0.0000000E+00;  4.0000000E+04;  0.0000000E+00;  0.0000000E+00;  0.0000000E+00;  0.0000000E+00;
 -2.0000000E-01;  9.9999998E-03; -1.0000000E-01;34;  0.0000000E+00;  0.0000000E+00;  0.0000000E+00;  1.0000000E+03;  1.0000000E-01;  0.0000000E+00;0;  0.0000000E+00;  0.0000000E+00;  0.0000000E+00;0;  0.0000000E+00;  4.0000000E+04;  0.0000000E+00;  0.0000000E+00;  4.0000000E+04;  0.0000000E+00;  4.0000000E+04;  0.0000000E+00;  0.0000000E+00;  0.0000000E+00;  0.0000000E+00;
 -2.0000000E-01;  9.9999998E-03; -9.0000004E-02;35;  0.0000000E+00;  0.0000000E+00;  0.0000000E+00;  1.0000000E+03;  1.0000000E-01;  0.0000000E+00;0;  0.0000000E+00;  0.0000000E+00;  0.0000000E+00;0;  0.0000000E+00;  4.0000000E+04;  0.0000000E+00;  0.0000000E+00;  4.0000000E+04;  0.0000000E+00;  4.0000000E+04;  0.0000000E+00;  0.0000000E+00;  0.0000000E+00;  0.0000000E+00;
 -2.0000000E-01;  9.9999998E-03; -7.9999998E-02;36;  0.0000000E+00;  0.0000000E+00;  0.0000000E+00;  1.0000000E+03;  1.0000000E-01;  0.0000000E+00;0;  0.0000000E+00;  0.0000000E+00;  0.0000000E+00;0;  0.0000000E+00;  4.0000000E+04;  0.0000000E+00;  0.0000000E+00;  4.0000000E+04;  0.0000000E+00;  4.0000000E+04;  0.0000000E+00;  0.0000000E+00;  0.0000000E+00;  0.0000000E+00;
 -2.0000000E-01;  9.9999998E-03; -7.0000000E-02;37;  0.0000000E+00;  0.0000000E+00;  0.0000000E+00;  1.0000000E+03;  1.0000000E-01;  0.0000000E+00;0;  0.0000000E+00;  0.0000000E+00;  0.0000000E+00;0;  0.0000000E+00;  4.0000000E+04;  0.0000000E+00;  0.0000000E+00;  4.0000000E+04;  0.0000000E+00;  4.0000000E+04;  0.0000000E+00;  0.0000000E+00;  0.0000000E+00;  0.0000000E+00;
 -2.0000000E-01;  9.9999998E-03; -5.9999999E-02;38;  0.0000000E+00;  0.0000000E+00;  0.0000000E+00;  1.0000000E+03;  1.0000000E-01;  0.0000000E+00;0;  0.0000000E+00;  0.0000000E+00;  0.0000000E+00;0;  0.0000000E+00;  4.0000000E+04;  0.0000000E+00;  0.0000000E+00;  4.0000000E+04;  0.0000000E+00;  4.0000000E+04;  0.0000000E+00;  0.0000000E+00;  0.0000000E+00;  0.0000000E+00;
 -2.0000000E-01;  9.9999998E-03; -5.0000001E-02;39;  0.0000000E+00;  0.0000000E+00;  0.0000000E+00;  1.0000000E+03;  1.0000000E-01;  0.0000000E+00;0;  0.0000000E+00;  0.0000000E+00;  0.0000000E+00;0;  0.0000000E+00;  4.0000000E+04;  0.0000000E+00;  0.0000000E+00;  4.0000000E+04;  0.0000000E+00;  4.0000000E+04;  0.0000000E+00;  0.0000000E+00;  0.0000000E+00;  0.0000000E+00;
 -2.0000000E-01;  9.9999998E-03; -3.9999999E-02;40;  0.0000000E+00;  0.0000000E+00;  0.0000000E+00;  1.0000000E+03;  1.0000000E-01;  0.0000000E+00;0;  0.0000000E+00;  0.0000000E+00;  0.0000000E+00;0;  0.0000000E+00;  4.0000000E+04;  0.0000000E+00;  0.0000000E+00;  4.0000000E+04;  0.0000000E+00;  4.0000000E+04;  0.0000000E+00;  0.0000000E+00;  0.0000000E+00;  0.0000000E+00;
 -2.0000000E-01;  9.9999998E-03; -2.9999999E-02;41;  0.0000000E+00;  0.0000000E+00;  0.0000000E+00;  1.0000000E+03;  1.0000000E-01;  0.0000000E+00;0;  0.0000000E+00;  0.0000000E+00;  0.0000000E+00;0;  0.0000000E+00;  4.0000000E+04;  0.0000000E+00;  0.0000000E+00;  4.0000000E+04;  0.0000000E+00;  4.0000000E+04;  0.0000000E+00;  0.0000000E+00;  0.0000000E+00;  0.0000000E+00;
 -2.0000000E-01;  9.9999998E-03; -2.0000000E-02;42;  0.0000000E+00;  0.0000000E+00;  0.0000000E+00;  1.0000000E+03;  1.0000000E-01;  0.0000000E+00;0;  0.0000000E+00;  0.0000000E+00;  0.0000000E+00;0;  0.0000000E+00;  4.0000000E+04;  0.0000000E+00;  0.0000000E+00;  4.0000000E+04;  0.0000000E+00;  4.0000000E+04;  0.0000000E+00;  0.0000000E+00;  0.0000000E+00;  0.0000000E+00;
 -2.0000000E-01;  9.9999998E-03; -9.9999998E-03;43;  0.0000000E+00;  0.0000000E+00;  0.0000000E+00;  1.0000000E+03;  1.0000000E-01;  0.0000000E+00;0;  0.0000000E+00;  0.0000000E+00;  0.0000000E+00;0;  0.0000000E+00;  4.0000000E+04;  0.0000000E+00;  0.0000000E+00;  4.0000000E+04;  0.0000000E+00;  4.0000000E+04;  0.0000000E+00;  0.0000000E+00;  0.0000000E+00;  0.0000000E+00;
 -2.0000000E-01;  9.9999998E-03;  0.0000000E+00;44;  0.0000000E+00;  0.0000000E+00;  0.0000000E+00;  1.0000000E+03;  1.0000000E-01;  0.0000000E+00;0;  0.0000000E+00;  0.0000000E+00;  0.0000000E+00;0;  0.0000000E+00;  4.0000000E+04;  0.0000000E+00;  0.0000000E+00;  4.0000000E+04;  0.0000000E+00;  4.0000000E+04;  0.0000000E+00;  0.0000000E+00;  0.0000000E+00;  0.0000000E+00;
 -2.0000000E-01;  9.9999998E-03;  9.9999998E-03;45;  0.0000000E+00;  0.0000000E+00;  0.0000000E+00;  1.0000000E+03;  1.0000000E-01;  0.0000000E+00;0;  0.0000000E+00;  0.0000000E+00;  0.0000000E+00;0;  0.0000000E+00;  4.0000000E+04;  0.0000000E+00;  0.0000000E+00;  4.0000000E+04;  0.0000000E+00;  4.0000000E+04;  0.0000000E+00;  0.0000000E+00;  0.0000000E+00;  0.0000000E+00;
 -2.0000000E-01;  9.9999998E-03;  2.0000000E-02;46;  0.0000000E+00;  0.0000000E+00;  0.0000000E+00;  1.0000000E+03;  1.0000000E-01;  0.0000000E+00;0;  0.0000000E+00;  0.0000000E+00;  0.0000000E+00;0;  0.0000000E+00;  4.0000000E+04;  0.0000000E+00;  0.0000000E+00;  4.0000000E+04;  0.0000000E+00;  4.0000000E+04;  0.0000000E+00;  0.0000000E+00;  0.0000000E+00;  0.0000000E+00;
 -2.0000000E-01;  9.9999998E-03;  2.9999999E-02;47;  0.0000000E+00;  0.0000000E+00;  0.0000000E+00;  1.0000000E+03;  1.0000000E-01;  0.0000000E+00;0;  0.0000000E+00;  0.0000000E+00;  0.0000000E+00;0;  0.0000000E+00;  4.0000000E+04;  0.0000000E+00;  0.0000000E+00;  4.0000000E+04;  0.0000000E+00;  4.0000000E+04;  0.0000000E+00;  0.0000000E+00;  0.0000000E+00;  0.0000000E+00;
 -2.0000000E-01;  9.9999998E-03;  3.9999999E-02;48;  0.0000000E+00;  0.0000000E+00;  0.0000000E+00;  1.0000000E+03;  1.0000000E-01;  0.0000000E+00;0;  0.0000000E+00;  0.0000000E+00;  0.0000000E+00;0;  0.0000000E+00;  4.0000000E+04;  0.0000000E+00;  0.0000000E+00;  4.0000000E+04;  0.0000000E+00;  4.0000000E+04;  0.0000000E+00;  0.0000000E+00;  0.0000000E+00;  0.0000000E+00;
 -2.0000000E-01;  9.9999998E-03;  5.0000001E-02;49;  0.0000000E+00;  0.0000000E+00;  0.0000000E+00;  1.0000000E+03;  1.0000000E-01;  0.0000000E+00;0;  0.0000000E+00;  0.0000000E+00;  0.0000000E+00;0;  0.0000000E+00;  4.0000000E+04;  0.0000000E+00;  0.0000000E+00;  4.0000000E+04;  0.0000000E+00;  4.0000000E+04;  0.0000000E+00;  0.0000000E+00;  0.0000000E+00;  0.0000000E+00;
 -2.0000000E-01;  9.9999998E-03;  5.9999999E-02;50;  0.0000000E+00;  0.0000000E+00;  0.0000000E+00;  1.0000000E+03;  1.0000000E-01;  0.0000000E+00;0;  0.0000000E+00;  0.0000000E+00;  0.0000000E+00;0;  0.0000000E+00;  4.0000000E+04;  0.0000000E+00;  0.0000000E+00;  4.0000000E+04;  0.0000000E+00;  4.0000000E+04;  0.0000000E+00;  0.0000000E+00;  0.0000000E+00;  0.0000000E+00;
 -2.0000000E-01;  9.9999998E-03;  7.0000000E-02;51;  0.0000000E+00;  0.0000000E+00;  0.0000000E+00;  1.0000000E+03;  1.0000000E-01;  0.0000000E+00;0;  0.0000000E+00;  0.0000000E+00;  0.0000000E+00;0;  0.0000000E+00;  4.0000000E+04;  0.0000000E+00;  0.0000000E+00;  4.0000000E+04;  0.0000000E+00;  4.0000000E+04;  0.0000000E+00;  0.0000000E+00;  0.0000000E+00;  0.0000000E+00;
 -2.0000000E-01;  9.9999998E-03;  7.9999998E-02;52;  0.0000000E+00;  0.0000000E+00;  0.0000000E+00;  1.0000000E+03;  1.0000000E-01;  0.0000000E+00;0;  0.0000000E+00;  0.0000000E+00;  0.0000000E+00;0;  0.0000000E+00;  4.0000000E+04;  0.0000000E+00;  0.0000000E+00;  4.0000000E+04;  0.0000000E+00;  4.0000000E+04;  0.0000000E+00;  0.0000000E+00;  0.0000000E+00;  0.0000000E+00;
 -2.0000000E-01;  9.9999998E-03;  9.0000004E-02;53;  0.0000000E+00;  0.0000000E+00;  0.0000000E+00;  1.0000000E+03;  1.0000000E-01;  0.0000000E+00;0;  0.0000000E+00;  0.0000000E+00;  0.0000000E+00;0;  0.0000000E+00;  4.0000000E+04;  0.0000000E+00;  0.0000000E+00;  4.0000000E+04;  0.0000000E+00;  4.0000000E+04;  0.0000000E+00;  0.0000000E+00;  0.0000000E+00;  0.0000000E+00;
 -2.0000000E-01;  9.9999998E-03;  1.0000000E-01;54;  0.0000000E+00;  0.0000000E+00;  0.0000000E+00;  1.0000000E+03;  1.0000000E-01;  0.0000000E+00;0;  0.0000000E+00;  0.0000000E+00;  0.0000000E+00;0;  0.0000000E+00;  4.0000000E+04;  0.0000000E+00;  0.0000000E+00;  4.0000000E+04;  0.0000000E+00;  4.0000000E+04;  0.0000000E+00;  0.0000000E+00;  0.0000000E+00;  0.0000000E+00;
 -2.0000000E-01;  9.9999998E-03;  1.1000000E-01;55;  0.0000000E+00;  0.0000000E+00;  0.0000000E+00;  1.0000000E+03;  1.0000000E-01;  0.0000000E+00;0;  0.0000000E+00;  0.0000000E+00;  0.0000000E+00;0;  0.0000000E+00;  4.0000000E+04;  0.0000000E+00;  0.0000000E+00;  4.0000000E+04;  0.0000000E+00;  4.0000000E+04;  0.0000000E+00;  0.0000000E+00;  0.0000000E+00;  0.0000000E+00;
 -2.0000000E-01;  9.9999998E-03;  1.2000000E-01;56;  0.0000000E+00;  0.0000000E+00;  0.0000000E+00;  1.0000000E+03;  1.0000000E-01;  0.0000000E+00;0;  0.0000000E+00;  0.0000000E+00;  0.0000000E+00;0;  0.0000000E+00;  4.0000000E+04;  0.0000000E+00;  0.0000000E+00;  4.0000000E+04;  0.0000000E+00;  4.0000000E+04;  0.0000000E+00;  0.0000000E+00;  0.0000000E+00;  0.0000000E+00;
 -2.0000000E-01;  9.9999998E-03;  1.3000000E-01;57;  0.0000000E+00;  0.0000000E+00;  0.0000000E+00;  1.0000000E+03;  1.0000000E-01;  0.0000000E+00;0;  0.0000000E+00;  0.0000000E+00;  0.0000000E+00;0;  0.0000000E+00;  4.0000000E+04;  0.0000000E+00;  0.0000000E+00;  4.0000000E+04;  0.0000000E+00;  4.0000000E+04;  0.0000000E+00;  0.0000000E+00;  0.0000000E+00;  0.0000000E+00;
 -2.0000000E-01;  9.9999998E-03;  1.4000000E-01;58;  0.0000000E+00;  0.0000000E+00;  0.0000000E+00;  1.0000000E+03;  1.0000000E-01;  0.0000000E+00;0;  0.0000000E+00;  0.0000000E+00;  0.0000000E+00;0;  0.0000000E+00;  4.0000000E+04;  0.0000000E+00;  0.0000000E+00;  4.0000000E+04;  0.0000000E+00;  4.0000000E+04;  0.0000000E+00;  0.0000000E+00;  0.0000000E+00;  0.0000000E+00;
 -2.0000000E-01;  9.9999998E-03;  1.5000001E-01;59;  0.0000000E+00;  0.0000000E+00;  0.0000000E+00;  1.0000000E+03;  1.0000000E-01;  0.0000000E+00;0;  0.0000000E+00;  0.0000000E+00;  0.0000000E+00;0;  0.0000000E+00;  4.0000000E+04;  0.0000000E+00;  0.0000000E+00;  4.0000000E+04;  0.0000000E+00;  4.0000000E+04;  0.0000000E+00;  0.0000000E+00;  0.0000000E+00;  0.0000000E+00;
 -2.0000000E-01;  9.9999998E-03;  1.6000000E-01;60;  0.0000000E+00;  0.0000000E+00;  0.0000000E+00;  1.0000000E+03;  1.0000000E-01;  0.0000000E+00;0;  0.0000000E+00;  0.0000000E+00;  0.0000000E+00;0;  0.0000000E+00;  4.0000000E+04;  0.0000000E+00;  0.0000000E+00;  4.0000000E+04;  0.0000000E+00;  4.0000000E+04;  0.0000000E+00;  0.0000000E+00;  0.0000000E+00;  0.0000000E+00;
 -2.0000000E-01;  9.9999998E-03;  1.7000000E-01;61;  0.0000000E+00;  0.0000000E+00;  0.0000000E+00;  1.0000000E+03;  1.0000000E-01;  0.0000000E+00;0;  0.0000000E+00;  0.0000000E+00;  0.0000000E+00;0;  0.0000000E+00;  4.0000000E+04;  0.0000000E+00;  0.0000000E+00;  4.0000000E+04;  0.0000000E+00;  4.0000000E+04;  0.0000000E+00;  0.0000000E+00;  0.0000000E+00;  0.0000000E+00;
 -2.0000000E-01;  9.9999998E-03;  1.8000001E-01;62;  0.0000000E+00;  0.0000000E+00;  0.0000000E+00;  1.0000000E+03;  1.0000000E-01;  0.0000000E+00;0;  0.0000000E+00;  0.0000000E+00;  0.0000000E+00;0;  0.0000000E+00;  4.0000000E+04;  0.0000000E+00;  0.0000000E+00;  4.0000000E+04;  0.0000000E+00;  4.0000000E+04;  0.0000000E+00;  0.0000000E+00;  0.0000000E+00;  0.0000000E+00;
 -2.0000000E-01;  9.9999998E-03;  1.9000000E-01;63;  0.0000000E+00;  0.0000000E+00;  0.0000000E+00;  1.0000000E+03;  1.0000000E-01;  0.0000000E+00;0;  0.0000000E+00;  0.0000000E+00;  0.0000000E+00;0;  0.0000000E+00;  4.0000000E+04;  0.0000000E+00;  0.0000000E+00;  4.0000000E+04;  0.0000000E+00;  4.0000000E+04;  0.0000000E+00;  0.0000000E+00;  0.0000000E+00;  0.0000000E+00;
 -2.0000000E-01;  9.9999998E-03;  2.0000000E-01;64;  0.0000000E+00;  0.0000000E+00;  0.0000000E+00;  1.0000000E+03;  1.0000000E-01;  0.0000000E+00;0;  0.0000000E+00;  0.0000000E+00;  0.0000000E+00;0;  0.0000000E+00;  4.0000000E+04;  0.0000000E+00;  0.0000000E+00;  4.0000000E+04;  0.0000000E+00;  4.0000000E+04;  0.0000000E+00;  0.0000000E+00;  0.0000000E+00;  0.0000000E+00;
 -2.0000000E-01;  9.9999998E-03;  2.0999999E-01;65;  0.0000000E+00;  0.0000000E+00;  0.0000000E+00;  1.0000000E+03;  1.0000000E-01;  0.0000000E+00;0;  0.0000000E+00;  0.0000000E+00;  0.0000000E+00;0;  0.0000000E+00;  4.0000000E+04;  0.0000000E+00;  0.0000000E+00;  4.0000000E+04;  0.0000000E+00;  4.0000000E+04;  0.0000000E+00;  0.0000000E+00;  0.0000000E+00;  0.0000000E+00;
 -2.0000000E-01;  9.9999998E-03;  2.2000000E-01;66;  0.0000000E+00;  0.0000000E+00;  0.0000000E+00;  1.0000000E+03;  1.0000000E-01;  0.0000000E+00;0;  0.0000000E+00;  0.0000000E+00;  0.0000000E+00;0;  0.0000000E+00;  4.0000000E+04;  0.0000000E+00;  0.0000000E+00;  4.0000000E+04;  0.0000000E+00;  4.0000000E+04;  0.0000000E+00;  0.0000000E+00;  0.0000000E+00;  0.0000000E+00;
 -2.0000000E-01;  9.9999998E-03;  2.3000000E-01;67;  0.0000000E+00;  0.0000000E+00;  0.0000000E+00;  1.0000000E+03;  1.0000000E-01;  0.0000000E+00;0;  0.0000000E+00;  0.0000000E+00;  0.0000000E+00;0;  0.0000000E+00;  4.0000000E+04;  0.0000000E+00;  0.0000000E+00;  4.0000000E+04;  0.0000000E+00;  4.0000000E+04;  0.0000000E+00;  0.0000000E+00;  0.0000000E+00;  0.0000000E+00;
 -2.0000000E-01;  9.9999998E-03;  2.3999999E-01;68;  0.0000000E+00;  0.0000000E+00;  0.0000000E+00;  1.0000000E+03;  1.0000000E-01;  0.0000000E+00;0;  0.0000000E+00;  0.0000000E+00;  0.0000000E+00;0;  0.0000000E+00;  4.0000000E+04;  0.0000000E+00;  0.0000000E+00;  4.0000000E+04;  0.0000000E+00;  4.0000000E+04;  0.0000000E+00;  0.0000000E+00;  0.0000000E+00;  0.0000000E+00;
 -2.0000000E-01;  9.9999998E-03;  2.5000000E-01;69;  0.0000000E+00;  0.0000000E+00;  0.0000000E+00;  1.0000000E+03;  1.0000000E-01;  0.0000000E+00;0;  0.0000000E+00;  0.0000000E+00;  0.0000000E+00;0;  0.0000000E+00;  4.0000000E+04;  0.0000000E+00;  0.0000000E+00;  4.0000000E+04;  0.0000000E+00;  4.0000000E+04;  0.0000000E+00;  0.0000000E+00;  0.0000000E+00;  0.0000000E+00;
 -2.0000000E-01;  9.9999998E-03;  2.5999999E-01;70;  0.0000000E+00;  0.0000000E+00;  0.0000000E+00;  1.0000000E+03;  1.0000000E-01;  0.0000000E+00;0;  0.0000000E+00;  0.0000000E+00;  0.0000000E+00;0;  0.0000000E+00;  4.0000000E+04;  0.0000000E+00;  0.0000000E+00;  4.0000000E+04;  0.0000000E+00;  4.0000000E+04;  0.0000000E+00;  0.0000000E+00;  0.0000000E+00;  0.0000000E+00;
 -2.0000000E-01;  9.9999998E-03;  2.7000001E-01;71;  0.0000000E+00;  0.0000000E+00;  0.0000000E+00;  1.0000000E+03;  1.0000000E-01;  0.0000000E+00;0;  0.0000000E+00;  0.0000000E+00;  0.0000000E+00;0;  0.0000000E+00;  4.0000000E+04;  0.0000000E+00;  0.0000000E+00;  4.0000000E+04;  0.0000000E+00;  4.0000000E+04;  0.0000000E+00;  0.0000000E+00;  0.0000000E+00;  0.0000000E+00;
 -2.0000000E-01;  9.9999998E-03;  2.8000000E-01;72;  0.0000000E+00;  0.0000000E+00;  0.0000000E+00;  1.0000000E+03;  1.0000000E-01;  0.0000000E+00;0;  0.0000000E+00;  0.0000000E+00;  0.0000000E+00;0;  0.0000000E+00;  4.0000000E+04;  0.0000000E+00;  0.0000000E+00;  4.0000000E+04;  0.0000000E+00;  4.0000000E+04;  0.0000000E+00;  0.0000000E+00;  0.0000000E+00;  0.0000000E+00;
 -2.0000000E-01;  9.9999998E-03;  2.8999999E-01;73;  0.0000000E+00;  0.0000000E+00;  0.0000000E+00;  1.0000000E+03;  1.0000000E-01;  0.0000000E+00;0;  0.0000000E+00;  0.0000000E+00;  0.0000000E+00;0;  0.0000000E+00;  4.0000000E+04;  0.0000000E+00;  0.0000000E+00;  4.0000000E+04;  0.0000000E+00;  4.0000000E+04;  0.0000000E+00;  0.0000000E+00;  0.0000000E+00;  0.0000000E+00;
 -2.0000000E-01;  9.9999998E-03;  3.0000001E-01;74;  0.0000000E+00;  0.0000000E+00;  0.0000000E+00;  1.0000000E+03;  1.0000000E-01;  0.0000000E+00;0;  0.0000000E+00;  0.0000000E+00;  0.0000000E+00;0;  0.0000000E+00;  4.0000000E+04;  0.0000000E+00;  0.0000000E+00;  4.0000000E+04;  0.0000000E+00;  4.0000000E+04;  0.0000000E+00;  0.0000000E+00;  0.0000000E+00;  0.0000000E+00;
 -2.0000000E-01;  9.9999998E-03;  3.1000000E-01;75;  0.0000000E+00;  0.0000000E+00;  0.0000000E+00;  1.0000000E+03;  1.0000000E-01;  0.0000000E+00;0;  0.0000000E+00;  0.0000000E+00;  0.0000000E+00;0;  0.0000000E+00;  4.0000000E+04;  0.0000000E+00;  0.0000000E+00;  4.0000000E+04;  0.0000000E+00;  4.0000000E+04;  0.0000000E+00;  0.0000000E+00;  0.0000000E+00;  0.0000000E+00;
 -2.0000000E-01;  9.9999998E-03;  3.1999999E-01;76;  0.0000000E+00;  0.0000000E+00;  0.0000000E+00;  1.0000000E+03;  1.0000000E-01;  0.0000000E+00;0;  0.0000000E+00;  0.0000000E+00;  0.0000000E+00;0;  0.0000000E+00;  4.0000000E+04;  0.0000000E+00;  0.0000000E+00;  4.0000000E+04;  0.0000000E+00;  4.0000000E+04;  0.0000000E+00;  0.0000000E+00;  0.0000000E+00;  0.0000000E+00;
 -2.0000000E-01;  9.9999998E-03;  3.3000001E-01;77;  0.0000000E+00;  0.0000000E+00;  0.0000000E+00;  1.0000000E+03;  1.0000000E-01;  0.0000000E+00;0;  0.0000000E+00;  0.0000000E+00;  0.0000000E+00;0;  0.0000000E+00;  4.0000000E+04;  0.0000000E+00;  0.0000000E+00;  4.0000000E+04;  0.0000000E+00;  4.0000000E+04;  0.0000000E+00;  0.0000000E+00;  0.0000000E+00;  0.0000000E+00;
 -2.0000000E-01;  9.9999998E-03;  3.4000000E-01;78;  0.0000000E+00;  0.0000000E+00;  0.0000000E+00;  1.0000000E+03;  1.0000000E-01;  0.0000000E+00;0;  0.0000000E+00;  0.0000000E+00;  0.0000000E+00;0;  0.0000000E+00;  4.0000000E+04;  0.0000000E+00;  0.0000000E+00;  4.0000000E+04;  0.0000000E+00;  4.0000000E+04;  0.0000000E+00;  0.0000000E+00;  0.0000000E+00;  0.0000000E+00;
 -2.0000000E-01;  9.9999998E-03;  3.4999999E-01;79;  0.0000000E+00;  0.0000000E+00;  0.0000000E+00;  1.0000000E+03;  1.0000000E-01;  0.0000000E+00;0;  0.0000000E+00;  0.0000000E+00;  0.0000000E+00;0;  0.0000000E+00;  4.0000000E+04;  0.0000000E+00;  0.0000000E+00;  4.0000000E+04;  0.0000000E+00;  4.0000000E+04;  0.0000000E+00;  0.0000000E+00;  0.0000000E+00;  0.0000000E+00;
 -2.0000000E-01;  9.9999998E-03;  3.6000001E-01;80;  0.0000000E+00;  0.0000000E+00;  0.0000000E+00;  1.0000000E+03;  1.0000000E-01;  0.0000000E+00;0;  0.0000000E+00;  0.0000000E+00;  0.0000000E+00;0;  0.0000000E+00;  4.0000000E+04;  0.0000000E+00;  0.0000000E+00;  4.0000000E+04;  0.0000000E+00;  4.0000000E+04;  0.0000000E+00;  0.0000000E+00;  0.0000000E+00;  0.0000000E+00;
 -2.0000000E-01;  9.9999998E-03;  3.7000000E-01;81;  0.0000000E+00;  0.0000000E+00;  0.0000000E+00;  1.0000000E+03;  1.0000000E-01;  0.0000000E+00;0;  0.0000000E+00;  0.0000000E+00;  0.0000000E+00;0;  0.0000000E+00;  4.0000000E+04;  0.0000000E+00;  0.0000000E+00;  4.0000000E+04;  0.0000000E+00;  4.0000000E+04;  0.0000000E+00;  0.0000000E+00;  0.0000000E+00;  0.0000000E+00;
 -2.0000000E-01;  9.9999998E-03;  3.8000000E-01;82;  0.0000000E+00;  0.0000000E+00;  0.0000000E+00;  1.0000000E+03;  1.0000000E-01;  0.0000000E+00;0;  0.0000000E+00;  0.0000000E+00;  0.0000000E+00;0;  0.0000000E+00;  4.0000000E+04;  0.0000000E+00;  0.0000000E+00;  4.0000000E+04;  0.0000000E+00;  4.0000000E+04;  0.0000000E+00;  0.0000000E+00;  0.0000000E+00;  0.0000000E+00;
 -2.0000000E-01;  9.9999998E-03;  3.8999999E-01;83;  0.0000000E+00;  0.0000000E+00;  0.0000000E+00;  1.0000000E+03;  1.0000000E-01;  0.0000000E+00;0;  0.0000000E+00;  0.0000000E+00;  0.0000000E+00;0;  0.0000000E+00;  4.0000000E+04;  0.0000000E+00;  0.0000000E+00;  4.0000000E+04;  0.0000000E+00;  4.0000000E+04;  0.0000000E+00;  0.0000000E+00;  0.0000000E+00;  0.0000000E+00;
 -2.0000000E-01;  9.9999998E-03;  4.0000001E-01;84;  0.0000000E+00;  0.0000000E+00;  0.0000000E+00;  1.0000000E+03;  1.0000000E-01;  0.0000000E+00;0;  0.0000000E+00;  0.0000000E+00;  0.0000000E+00;0;  0.0000000E+00;  4.0000000E+04;  0.0000000E+00;  0.0000000E+00;  4.0000000E+04;  0.0000000E+00;  4.0000000E+04;  0.0000000E+00;  0.0000000E+00;  0.0000000E+00;  0.0000000E+00;
 -2.0000000E-01;  9.9999998E-03;  4.1000000E-01;85;  0.0000000E+00;  0.0000000E+00;  0.0000000E+00;  1.0000000E+03;  1.0000000E-01;  0.0000000E+00;0;  0.0000000E+00;  0.0000000E+00;  0.0000000E+00;0;  0.0000000E+00;  4.0000000E+04;  0.0000000E+00;  0.0000000E+00;  4.0000000E+04;  0.0000000E+00;  4.0000000E+04;  0.0000000E+00;  0.0000000E+00;  0.0000000E+00;  0.0000000E+00;
 -2.0000000E-01;  9.9999998E-03;  4.1999999E-01;86;  0.0000000E+00;  0.0000000E+00;  0.0000000E+00;  1.0000000E+03;  1.0000000E-01;  0.0000000E+00;0;  0.0000000E+00;  0.0000000E+00;  0.0000000E+00;0;  0.0000000E+00;  4.0000000E+04;  0.0000000E+00;  0.0000000E+00;  4.0000000E+04;  0.0000000E+00;  4.0000000E+04;  0.0000000E+00;  0.0000000E+00;  0.0000000E+00;  0.0000000E+00;
 -2.0000000E-01;  9.9999998E-03;  4.3000001E-01;87;  0.0000000E+00;  0.0000000E+00;  0.0000000E+00;  1.0000000E+03;  1.0000000E-01;  0.0000000E+00;0;  0.0000000E+00;  0.0000000E+00;  0.0000000E+00;0;  0.0000000E+00;  4.0000000E+04;  0.0000000E+00;  0.0000000E+00;  4.0000000E+04;  0.0000000E+00;  4.0000000E+04;  0.0000000E+00;  0.0000000E+00;  0.0000000E+00;  0.0000000E+00;
 -2.0000000E-01;  9.9999998E-03;  4.4000000E-01;88;  0.0000000E+00;  0.0000000E+00;  0.0000000E+00;  1.0000000E+03;  1.0000000E-01;  0.0000000E+00;0;  0.0000000E+00;  0.0000000E+00;  0.0000000E+00;0;  0.0000000E+00;  4.0000000E+04;  0.0000000E+00;  0.0000000E+00;  4.0000000E+04;  0.0000000E+00;  4.0000000E+04;  0.0000000E+00;  0.0000000E+00;  0.0000000E+00;  0.0000000E+00;
 -2.9071575E-04;  9.9999998E-03; -2.9012963E-01;2448;  6.2823961E-03;  0.0000000E+00;  1.1477034E-02;  9.9963562E+02;  1.0000000E-01; -3.0186801E+02;3; -2.5875917E+01;  0.0000000E+00;  5.8700539E+01;0;  6.3858241E-01;  4.0022027E+04;  0.0000000E+00; -1.1261803E-01;  4.0000000E+04;  0.0000000E+00;  3.9946824E+04;  5.2100974E-01;  0.0000000E+00;  1.1757267E-01;  6.5903701E+03;
 -3.3265448E-04;  9.9999998E-03; -2.8011039E-01;2449;  8.7040979E-03;  0.0000000E+00;  1.1910963E-02;  9.9924670E+02;  1.0000000E-01; -6.2408112E+02;3; -2.7848375E+01;  0.0000000E+00;  5.7800938E+01;0;  7.4983466E-01;  3.9996684E+04;  0.0000000E+00; -1.5755112E-01;  4.0000000E+04;  0.0000000E+00;  3.9940535E+04;  6.3951534E-01;  0.0000000E+00;  1.1031932E-01;  7.3507783E+03;
  9.7574880E-03;  9.9999998E-03; -3.0012488E-01;2507;  1.0578311E-02;  0.0000000E+00;  2.0331016E-02;  9.9954010E+02;  1.0000000E-01; -3.8102628E+02;3; -1.9263449E+01;  0.0000000E+00;  6.8057610E+01;0;  5.8026958E-01;  4.0019051E+04;  0.0000000E+00; -1.1688253E-01;  4.0000000E+04;  0.0000000E+00;  3.9942422E+04;  4.4669241E-01;  0.0000000E+00;  1.3357718E-01;  7.1372378E+03;
  9.7158430E-03;  9.9999998E-03; -2.9009601E-01;2508;  1.5560973E-02;  0.0000000E+00;  2.2205975E-02;  9.9916479E+02;  1.0000000E-01; -6.9193103E+02;3; -2.2019421E+01;  0.0000000E+00;  6.8893349E+01;0;  6.8782216E-01;  3.9997145E+04;  0.0000000E+00; -1.6860572E-01;  4.0000000E+04;  0.0000000E+00;  3.9933777E+04;  5.5778778E-01;  0.0000000E+00;  1.3003440E-01;  8.1906890E+03;
  9.6812677E-03;  9.9999998E-03; -2.8007007E-01;2509;  2.1603160E-02;  0.0000000E+00;  2.4196535E-02;  9.9868103E+02;  1.0000000E-01; -1.0927593E+03;3; -2.3494564E+01;  0.0000000E+00;  6.6622269E+01;0;  7.9927468E-01;  3.9964465E+04;  0.0000000E+00; -2.2471607E-01;  4.0000000E+04;  0.0000000E+00;  3.9927215E+04;  6.7872488E-01;  0.0000000E+00;  1.2054977E-01;  8.9785420E+03;
  1.9757207E-02;  9.9999998E-03; -3.0008397E-01;2568;  1.6874857E-02;  0.0000000E+00;  2.9308399E-02;  9.9908264E+02;  1.0000000E-01; -7.6002789E+02;3; -9.2022018E+00;  0.0000000E+00;  7.2023346E+01;0;  6.1413163E-01;  3.9995457E+04;  0.0000000E+00; -1.6164809E-01;  4.0000000E+04;  0.0000000E+00;  3.9929156E+04;  4.7006848E-01;  0.0000000E+00;  1.4406313E-01;  8.7575332E+03;
  1.9722711E-02;  9.9999998E-03; -2.9004720E-01;2569;  2.4040483E-02;  0.0000000E+00;  3.0946961E-02;  9.9861224E+02;  1.0000000E-01; -1.1497452E+03;3; -1.1138116E+01;  0.0000000E+00;  6.9641220E+01;0;  7.2016811E-01;  3.9966590E+04;  0.0000000E+00; -2.2330733E-01;  4.0000000E+04;  0.0000000E+00;  3.9919871E+04;  5.8148730E-01;  0.0000000E+00;  1.3868080E-01;  9.8831631E+03;
  1.9698728E-02;  9.9999998E-03; -2.8001526E-01;2570;  3.2317847E-02;  0.0000000E+00;  3.1665843E-02;  9.9803705E+02;  1.0000000E-01; -1.6262750E+03;3; -1.1088684E+01;  0.0000000E+00;  6.2205643E+01;0;  8.2734466E-01;  3.9926629E+04;  0.0000000E+00; -2.8578472E-01;  4.0000000E+04;  0.0000000E+00;  3.9913375E+04;  7.0060676E-01;  0.0000000E+00;  1.2673789E-01;  1.0648808E+04;
  2.9749895E-02;  9.9999998E-03; -3.0004245E-01;2629;  1.9952035E-02;  0.0000000E+00;  3.1457439E-02;  9.9856482E+02;  1.0000000E-01; -1.1890034E+03;3;  4.1941199E+00;  0.0000000E+00;  6.9943520E+01;0;  6.3449401E-01;  3.9967367E+04;  0.0000000E+00; -2.0651592E-01;  4.0000000E+04;  0.0000000E+00;  3.9915488E+04;  4.8439765E-01;  0.0000000E+00;  1.5009636E-01;  1.0422759E+04;
  2.9721452E-02;  9.9999998E-03; -2.8999960E-01;2630;  2.7980451E-02;  0.0000000E+00;  3.0999502E-02;  9.9800482E+02;  1.0000000E-01; -1.6529902E+03;3;  3.5444465E+00;  0.0000000E+00;  6.6108894E+01;0;  7.3566961E-01;  3.9931645E+04;  0.0000000E+00; -2.7249104E-01;  4.0000000E+04;  0.0000000E+00;  3.9905980E+04;  5.9298265E-01;  0.0000000E+00;  1.4268696E-01;  1.1577176E+04;
  2.9710682E-02;  9.9999998E-03; -2.7996385E-01;2631;  3.7880588E-02;  0.0000000E+00;  3.0009903E-02;  9.9734808E+02;  1.0000000E-01; -2.1970737E+03;3;  4.7709374E+00;  0.0000000E+00;  5.6940334E+01;0;  8.3486301E-01;  3.9884516E+04;  0.0000000E+00; -3.3300617E-01;  4.0000000E+04;  0.0000000E+00;  3.9900004E+04;  7.0662999E-01;  0.0000000E+00;  1.2823302E-01;  1.2269558E+04;
  3.9733879E-02;  9.9999998E-03; -3.0001000E-01;2690;  2.1017833E-02;  0.0000000E+00;  2.7824605E-02;  9.9799902E+02;  1.0000000E-01; -1.6577803E+03;3;  1.9592373E+01;  0.0000000E+00;  7.2087837E+01;0;  6.4262164E-01;  3.9934973E+04;  0.0000000E+00; -2.5372708E-01;  4.0000000E+04;  0.0000000E+00;  3.9902336E+04;  4.9126935E-01;  0.0000000E+00;  1.5135226E-01;  1.2031506E+04;
  3.9712869E-02;  9.9999998E-03; -2.8995913E-01;2691;  3.0199414E-02;  0.0000000E+00;  2.6220066E-02;  9.9735400E+02;  1.0000000E-01; -2.1921355E+03;3;  2.1111324E+01;  0.0000000E+00;  6.7667213E+01;0;  7.3656696E-01;  3.9892520E+04;  0.0000000E+00; -3.1614661E-01;  4.0000000E+04;  0.0000000E+00;  3.9892805E+04;  5.9467274E-01;  0.0000000E+00;  1.4189421E-01;  1.3171954E+04;
  3.9717294E-02;  9.9999998E-03; -2.7991769E-01;2692;  4.2104978E-02;  0.0000000E+00;  2.4598230E-02;  9.9662683E+02;  1.0000000E-01; -2.7945876E+03;3;  2.3680708E+01;  0.0000000E+00;  5.6164974E+01;0;  8.2524812E-01;  3.9838922E+04;  0.0000000E+00; -3.6319825E-01;  4.0000000E+04;  0.0000000E+00;  3.9887840E+04;  7.0017254E-01;  0.0000000E+00;  1.2507561E-01;  1.3745034E+04;
  4.9711209E-02;  9.9999998E-03; -2.9998571E-01;2751;  2.2544079E-02;  0.0000000E+00;  2.2442976E-02;  9.9738635E+02;  1.0000000E-01; -2.1653708E+03;3;  3.7557224E+01;  0.0000000E+00;  7.7982727E+01;0;  6.4084888E-01;  3.9897469E+04;  0.0000000E+00; -3.0834973E-01;  4.0000000E+04;  0.0000000E+00;  3.9890316E+04;  4.9276876E-01;  0.0000000E+00;  1.4808011E-01;  1.3479708E+04;
  4.9698211E-02;  9.9999998E-03; -2.8992599E-01;2752;  3.3039741E-02;  0.0000000E+00;  2.0500174E-02;  9.9666431E+02;  1.0000000E-01; -2.7635762E+03;3;  4.2753708E+01;  0.0000000E+00;  7.0151222E+01;0;  7.2600347E-01;  3.9848559E+04;  0.0000000E+00; -3.5787287E-01;  4.0000000E+04;  0.0000000E+00;  3.9881219E+04;  5.8937657E-01;  0.0000000E+00;  1.3662690E-01;  1.4567315E+04;
  4.9717300E-02;  9.9999998E-03; -2.7987784E-01;2753;  4.6946641E-02;  0.0000000E+00;  1.9159677E-02;  9.9587939E+02;  1.0000000E-01; -3.4138293E+03;3;  4.6770298E+01;  0.0000000E+00;  5.3601894E+01;0;  8.0259550E-01;  3.9789270E+04;  0.0000000E+00; -3.7790218E-01;  4.0000000E+04;  0.0000000E+00;  3.9877477E+04;  6.8494451E-01;  0.0000000E+00;  1.1765096E-01;  1.4983886E+04;
  5.9682801E-02;  9.9999998E-03; -2.9996976E-01;2812;  2.4595201E-02;  0.0000000E+00;  1.7234575E-02;  9.9672113E+02;  1.0000000E-01; -2.7164663E+03;3;  5.9529034E+01;  0.0000000E+00;  8.1731483E+01;0;  6.3184363E-01;  3.9853773E+04;  0.0000000E+00; -3.6935180E-01;  4.0000000E+04;  0.0000000E+00;  3.9880375E+04;  4.9101496E-01;  0.0000000E+00;  1.4082867E-01;  1.4673752E+04;
  5.9675768E-02;  9.9999998E-03; -2.8990224E-01;2813;  3.6953516E-02;  0.0000000E+00;  1.5804794E-02;  9.9593036E+02;  1.0000000E-01; -3.3716084E+03;3;  6.8487221E+01;  0.0000000E+00;  6.7992195E+01;0;  7.0726478E-01;  3.9798645E+04;  0.0000000E+00; -3.9360484E-01;  4.0000000E+04;  0.0000000E+00;  3.9871922E+04;  5.7983154E-01;  0.0000000E+00;  1.2743327E-01;  1.5673856E+04;
  5.9708528E-02;  9.9999998E-03; -2.7984771E-01;2814;  5.3521056E-02;  0.0000000E+00;  1.5269419E-02;  9.9509705E+02;  1.0000000E-01; -4.0620085E+03;3;  7.3122604E+01;  0.0000000E+00;  4.6413643E+01;0;  7.7092552E-01;  3.9734430E+04;  0.0000000E+00; -3.7181690E-01;  4.0000000E+04;  0.0000000E+00;  3.9869578E+04;  6.6445243E-01;  0.0000000E+00;  1.0647307E-01;  1.5906361E+04;
  6.9648311E-02;  9.9999998E-03; -2.9996324E-01;2873;  2.7475197E-02;  0.0000000E+00;  1.3019978E-02;  9.9599664E+02;  1.0000000E-01; -3.3166963E+03;3;  8.4866585E+01;  0.0000000E+00;  8.0474525E+01;0;  6.1831784E-01;  3.9802648E+04;  0.0000000E+00; -4.0789834E-01;  4.0000000E+04;  0.0000000E+00;  3.9873074E+04;  4.8810017E-01;  0.0000000E+00;  1.3021767E-01;  1.5538719E+04;
  6.9646567E-02;  9.9999998E-03; -2.8988916E-01;2874;  4.2270623E-02;  0.0000000E+00;  1.2748000E-02;  9.9513849E+02;  1.0000000E-01; -4.0276885E+03;3;  9.6531364E+01;  0.0000000E+00;  6.0550392E+01;0;  6.8355465E-01;  3.9741344E+04;  0.0000000E+00; -3.8411465E-01;  4.0000000E+04;  0.0000000E+00;  3.9865527E+04;  5.6866151E-01;  0.0000000E+00;  1.1489311E-01;  1.6419867E+04;
  6.9693148E-02;  9.9999998E-03; -2.7982867E-01;2875;  6.2061157E-02;  0.0000000E+00;  1.3404114E-02;  9.9426794E+02;  1.0000000E-01; -4.7489028E+03;3;  9.9917030E+01;  0.0000000E+00;  3.6107986E+01;0;  7.3400414E-01;  3.9672773E+04;  0.0000000E+00; -3.0095980E-01;  4.0000000E+04;  0.0000000E+00;  3.9864680E+04;  6.4194268E-01;  0.0000000E+00;  9.2061482E-02;  1.6449600E+04;
  7.9609223E-02;  9.9999998E-03; -2.9996660E-01;2934;  3.1410053E-02;  0.0000000E+00;  1.0305015E-02;  9.9520184E+02;  1.0000000E-01; -3.9751958E+03;3;  1.1179968E+02;  0.0000000E+00;  7.3772087E+01;0;  6.0279542E-01;  3.9743098E+04;  0.0000000E+00; -3.3877015E-01;  4.0000000E+04;  0.0000000E+00;  3.9868719E+04;  4.8599142E-01;  0.0000000E+00;  1.1680403E-01;  1.6024510E+04;
  7.9613023E-02;  9.9999998E-03; -2.8988615E-01;2935;  4.9541235E-02;  0.0000000E+00;  1.1633278E-02;  9.9427698E+02;  1.0000000E-01; -4.7413965E+03;3;  1.2478038E+02;  0.0000000E+00;  4.9652596E+01;0;  6.5787578E-01;  3.9675496E+04;  0.0000000E+00; -2.2418341E-01;  4.0000000E+04;  0.0000000E+00;  3.9862242E+04;  5.5835855E-01;  0.0000000E+00;  9.9517241E-02;  1.6757979E+04;
  7.9675600E-02;  9.9999998E-03; -2.7982050E-01;2936;  7.2794624E-02;  0.0000000E+00;  1.3532833E-02;  9.9337500E+02;  1.0000000E-01; -5.4886841E+03;3;  1.2529944E+02;  0.0000000E+00;  2.3981659E+01;0;  6.9529271E-01;  3.9602914E+04;  0.0000000E+00; -5.0618354E-02;  4.0000000E+04;  0.0000000E+00;  3.9863117E+04;  6.2041390E-01;  0.0000000E+00;  7.4878797E-02;  1.6575426E+04;
  8.9568377E-02;  9.9999998E-03; -2.9997957E-01;2995;  3.6814034E-02;  0.0000000E+00;  9.2030894E-03;  9.9433148E+02;  1.0000000E-01; -4.6962617E+03;3;  1.3891185E+02;  0.0000000E+00;  6.3236092E+01;0;  5.8761656E-01;  3.9674336E+04;  0.0000000E+00;  1.4158058E-02;  4.0000000E+04;  0.0000000E+00;  3.9867332E+04;  4.8662442E-01;  0.0000000E+00;  1.0099211E-01;  1.6120010E+04;
  8.9579128E-02;  9.9999998E-03; -2.8989205E-01;2996;  5.8356982E-02;  0.0000000E+00;  1.1952413E-02;  9.9333972E+02;  1.0000000E-01; -5.5179175E+03;3;  1.5127966E+02;  0.0000000E+00;  3.6402866E+01;0;  6.3296849E-01;  3.9600320E+04;  0.0000000E+00;  2.8777501E-01;  4.0000000E+04;  0.0000000E+00;  3.9862176E+04;  5.5129844E-01;  0.0000000E+00;  8.1670053E-02;  1.6686836E+04;
  8.9659534E-02;  9.9999998E-03; -2.7982271E-01;2997;  8.4770523E-02;  0.0000000E+00;  1.4778125E-02;  9.9240796E+02;  1.0000000E-01; -6.2898462E+03;3;  1.4758470E+02;  0.0000000E+00;  1.0197742E+01;0;  6.5790772E-01;  3.9524027E+04;  0.0000000E+00;  5.8849066E-01;  4.0000000E+04;  0.0000000E+00;  3.9864855E+04;  6.0261363E-01;  0.0000000E+00;  5.5294096E-02;  1.6299820E+04;
  9.9530108E-02;  9.9999998E-03; -3.0000162E-01;3056;  4.3519605E-02;  0.0000000E+00;  9.3377577E-03;  9.9338452E+02;  1.0000000E-01; -5.4807827E+03;3;  1.6471422E+02;  0.0000000E+00;  5.0262337E+01;0;  5.7500690E-01;  3.9596887E+04;  0.0000000E+00;  9.6095276E-01;  4.0000000E+04;  0.0000000E+00;  3.9868777E+04;  4.9202675E-01;  0.0000000E+00;  8.2980163E-02;  1.5920731E+04;
  9.9550217E-02;  9.9999998E-03; -2.8990617E-01;3057;  6.8634816E-02;  0.0000000E+00;  1.3418552E-02;  9.9232074E+02;  1.0000000E-01; -6.3621406E+03;3;  1.7507652E+02;  0.0000000E+00;  2.1219727E+01;0;  6.1149448E-01;  3.9515887E+04;  0.0000000E+00;  1.4817767E+00;  4.0000000E+04;  0.0000000E+00;  3.9865359E+04;  5.4995888E-01;  0.0000000E+00;  6.1535608E-02;  1.6346756E+04;
  9.9650890E-02;  9.9999998E-03; -2.7983314E-01;3058;  9.7828947E-02;  0.0000000E+00;  1.6771045E-02;  9.9136169E+02;  1.0000000E-01; -7.1566860E+03;3;  1.6594591E+02;  0.0000000E+00; -5.1269159E+00;0;  6.2477648E-01;  3.9435883E+04;  0.0000000E+00;  1.9368039E+00;  4.0000000E+04;  0.0000000E+00;  3.9869875E+04;  5.9122157E-01;  0.0000000E+00;  3.3554934E-02;  1.5811444E+04;
  1.0949978E-01;  9.9999998E-03; -3.0003172E-01;3117;  5.1651999E-02;  0.0000000E+00;  1.0577518E-02;  9.9236621E+02;  1.0000000E-01; -6.3244624E+03;3;  1.8882761E+02;  0.0000000E+00;  3.5683014E+01;0;  5.6737679E-01;  3.9511773E+04;  0.0000000E+00;  2.9965696E+00;  4.0000000E+04;  0.0000000E+00;  3.9872539E+04;  5.0466919E-01;  0.0000000E+00;  6.2707588E-02;  1.5898396E+04;
  1.0953435E-01;  9.9999998E-03; -2.8992566E-01;3118;  8.0329962E-02;  0.0000000E+00;  1.5772995E-02;  9.9122937E+02;  1.0000000E-01; -7.2663125E+03;3;  1.9533891E+02;  0.0000000E+00;  4.6347141E+00;0;  5.9618241E-01;  3.9423188E+04;  0.0000000E+00;  3.8507047E+00;  4.0000000E+04;  0.0000000E+00;  3.9871262E+04;  5.5713946E-01;  0.0000000E+00;  3.9042942E-02;  1.6346189E+04;
  1.0965995E-01;  9.9999998E-03; -2.7984679E-01;3119;  1.1168982E-01;  0.0000000E+00;  1.9079814E-02;  9.9024237E+02;  1.0000000E-01; -8.0840176E+03;3;  1.7923734E+02;  0.0000000E+00; -2.1737175E+01;0;  5.9860712E-01;  3.9339250E+04;  0.0000000E+00;  4.4366407E+00;  4.0000000E+04;  0.0000000E+00;  3.9877863E+04;  5.8887148E-01;  0.0000000E+00;  9.7356588E-03;  1.5817068E+04;
  1.1948659E-01;  9.9999998E-03; -3.0006570E-01;3178;  6.1477322E-02;  0.0000000E+00;  1.2889600E-02;  9.9128741E+02;  1.0000000E-01; -7.2182148E+03;3;  2.1098732E+02;  0.0000000E+00;  2.0354105E+01;0;  5.6763905E-01;  3.9420559E+04;  0.0000000E+00;  6.8517971E+00;  4.0000000E+04;  0.0000000E+00;  3.9877715E+04;  5.2789706E-01;  0.0000000E+00;  3.9742000E-02;  1.7577035E+04;
  1.1954370E-01;  9.9999998E-03; -2.8994620E-01;3179;  9.3557835E-02;  0.0000000E+00;  1.8756609E-02;  9.9007605E+02;  1.0000000E-01; -8.2217920E+03;3;  2.1117265E+02;  0.0000000E+00; -1.2940907E+01;0;  5.9002471E-01;  3.9323648E+04;  0.0000000E+00;  8.0788593E+00;  4.0000000E+04;  0.0000000E+00;  3.9879359E+04;  5.7621783E-01;  0.0000000E+00;  1.3806865E-02;  1.8415799E+04;
  1.1970076E-01;  9.9999998E-03; -2.7985936E-01;3180;  1.2607870E-01;  0.0000000E+00;  2.1174647E-02;  9.8906177E+02;  1.0000000E-01; -9.0621133E+03;3;  1.8663480E+02;  0.0000000E+00; -3.8682423E+01;0;  5.8190930E-01;  3.9235473E+04;  0.0000000E+00;  8.6496658E+00;  4.0000000E+04;  0.0000000E+00;  3.9888578E+04;  5.9812111E-01;  0.0000000E+00; -1.6211838E-02;  1.8056797E+04;
  1.2950134E-01;  9.9999998E-03; -3.0009821E-01;3239;  7.3329031E-02;  0.0000000E+00;  1.6125031E-02;  9.9015985E+02;  1.0000000E-01; -8.1523613E+03;3;  2.3101884E+02;  0.0000000E+00;  5.1799879E+00;0;  5.7953852E-01;  3.9325047E+04;  0.0000000E+00;  1.3515868E+01;  4.0000000E+04;  0.0000000E+00;  3.9883730E+04;  5.6634712E-01;  0.0000000E+00;  1.3191409E-02;  2.3835309E+04;
  1.2959167E-01;  9.9999998E-03; -2.8996438E-01;3240;  1.0813528E-01;  0.0000000E+00;  2.1759436E-02;  9.8887152E+02;  1.0000000E-01; -9.2197383E+03;3;  2.2188039E+02;  0.0000000E+00; -3.0298241E+01;0;  5.9619844E-01;  3.9218883E+04;  0.0000000E+00;  1.5029552E+01;  4.0000000E+04;  0.0000000E+00;  3.9889301E+04;  6.1095089E-01;  0.0000000E+00; -1.4752463E-02;  2.5287887E+04;
  1.2978452E-01;  9.9999998E-03; -2.7987248E-01;3241;  1.4023432E-01;  0.0000000E+00;  2.2312207E-02;  9.8784045E+02;  1.0000000E-01; -1.0073937E+04;3;  1.8753580E+02;  0.0000000E+00; -5.3985157E+01;0;  5.7667392E-01;  3.9126941E+04;  0.0000000E+00;  1.5206936E+01;  4.0000000E+04;  0.0000000E+00;  3.9901484E+04;  6.2087613E-01;  0.0000000E+00; -4.4202223E-02;  2.4776129E+04;
  1.3955498E-01;  9.9999998E-03; -3.0012271E-01;3300;  8.7402165E-02;  0.0000000E+00;  1.9695368E-02;  9.8898175E+02;  1.0000000E-01; -9.1284326E+03;3;  2.4894073E+02;  0.0000000E+00; -8.2270422E+00;0;  6.0777438E-01;  3.9226363E+04;  0.0000000E+00;  2.4175556E+01;  4.0000000E+04;  0.0000000E+00;  3.9889566E+04;  6.2589049E-01;  0.0000000E+00; -1.8116146E-02;  3.7243891E+04;
  1.3968922E-01;  9.9999998E-03; -2.8997669E-01;3301;  1.2350444E-01;  0.0000000E+00;  2.3795266E-02;  9.8762634E+02;  1.0000000E-01; -1.0251363E+04;3;  2.2717644E+02;  0.0000000E+00; -4.4929226E+01;0;  6.1763597E-01;  3.9110145E+04;  0.0000000E+00;  2.5628407E+01;  4.0000000E+04;  0.0000000E+00;  3.9900484E+04;  6.6456747E-01;  0.0000000E+00; -4.6931520E-02;  3.8873676E+04;
  1.3993780E-01;  9.9999998E-03; -2.7987897E-01;3302;  1.5327238E-01;  0.0000000E+00;  2.1693336E-02;  9.8658466E+02;  1.0000000E-01; -1.1114352E+04;3;  1.8180107E+02;  0.0000000E+00; -6.4609154E+01;0;  5.8393389E-01;  3.9014094E+04;  0.0000000E+00;  2.4668917E+01;  4.0000000E+04;  0.0000000E+00;  3.9916625E+04;  6.5759319E-01;  0.0000000E+00; -7.3659286E-02;  3.7058500E+04;
  1.4966245E-01;  9.9999998E-03; -3.0012679E-01;3361;  1.0362178E-01;  0.0000000E+00;  2.2415545E-02;  9.8773975E+02;  1.0000000E-01; -1.0157391E+04;3;  2.6528436E+02;  0.0000000E+00; -1.6662722E+01;0;  6.5766859E-01;  3.9122918E+04;  0.0000000E+00;  4.0008099E+01;  4.0000000E+04;  0.0000000E+00;  3.9895871E+04;  7.1247113E-01;  0.0000000E+00; -5.4802552E-02;  5.9164727E+04;
  1.4986353E-01;  9.9999998E-03; -2.8997025E-01;3362;  1.3859862E-01;  0.0000000E+00;  2.3647031E-02;  9.8631805E+02;  1.0000000E-01; -1.1335234E+04;3;  2.2760089E+02;  0.0000000E+00; -5.1995918E+01;0;  6.5579319E-01;  3.8995008E+04;  0.0000000E+00;  4.0572895E+01;  4.0000000E+04;  0.0000000E+00;  3.9914031E+04;  7.3765618E-01;  0.0000000E+00; -8.1862971E-02;  5.9748039E+04;
  1.5018694E-01;  9.9999998E-03; -2.7986890E-01;3363;  1.6449505E-01;  0.0000000E+00;  1.8758040E-02;  9.8528699E+02;  1.0000000E-01; -1.2189432E+04;3;  1.7144374E+02;  0.0000000E+00; -6.6372849E+01;0;  6.0343540E-01;  3.8895680E+04;  0.0000000E+00;  3.7185650E+01;  4.0000000E+04;  0.0000000E+00;  3.9934688E+04;  7.0634764E-01;  0.0000000E+00; -1.0291228E-01;  5.4669816E+04;
  1.5985227E-01;  9.9999998E-03; -3.0008748E-01;3422;  1.2157680E-01;  0.0000000E+00;  2.2537615E-02;  9.8638275E+02;  1.0000000E-01; -1.1281655E+04;3;  2.8068402E+02;  0.0000000E+00; -1.5535237E+01;0;  7.3427522E-01;  3.9006707E+04;  0.0000000E+00;  6.1725449E+01;  4.0000000E+04;  0.0000000E+00;  3.9906562E+04;  8.2931405E-01;  0.0000000E+00; -9.5038861E-02;  9.0151852E+04;
  1.6015784E-01;  9.9999998E-03; -2.8992698E-01;3423;  1.5274666E-01;  0.0000000E+00;  2.0229850E-02;  9.8486829E+02;  1.0000000E-01; -1.2536336E+04;3;  2.2498692E+02;  0.0000000E+00; -4.6731861E+01;0;  7.1088707E-01;  3.8863746E+04;  0.0000000E+00;  5.9635834E+01;  4.0000000E+04;  0.0000000E+00;  3.9933438E+04;  8.2710302E-01;  0.0000000E+00; -1.1621591E-01;  8.7176898E+04;
  1.6059287E-01;  9.9999998E-03; -2.7982667E-01;3424;  1.7357838E-01;  0.0000000E+00;  1.3162984E-02;  9.8386694E+02;  1.0000000E-01; -1.3365942E+04;3;  1.5951129E+02;  0.0000000E+00; -5.5266270E+01;0;  6.3372934E-01;  3.8762727E+04;  0.0000000E+00;  5.1756187E+01;  4.0000000E+04;  0.0000000E+00;  3.9958727E+04;  7.6231492E-01;  0.0000000E+00; -1.2858561E-01;  7.5820211E+04;
  1.7016597E-01;  9.9999998E-03; -2.9998410E-01;3483;  1.4103219E-01;  0.0000000E+00;  1.8103054E-02;  9.8479883E+02;  1.0000000E-01; -1.2593865E+04;3;  2.9582681E+02;  0.0000000E+00;  9.6104449E-01;0;  8.4302658E-01;  3.8859527E+04;  0.0000000E+00;  8.8375290E+01;  4.0000000E+04;  0.0000000E+00;  3.9931637E+04;  9.7440702E-01;  0.0000000E+00; -1.3138044E-01;  1.2866571E+05;
  1.7062409E-01;  9.9999998E-03; -2.8983971E-01;3484;  1.6576459E-01;  0.0000000E+00;  1.2769181E-02;  9.8312939E+02;  1.0000000E-01; -1.3976986E+04;3;  2.2309647E+02;  0.0000000E+00; -2.3324099E+01;0;  7.8256553E-01;  3.8698469E+04;  0.0000000E+00;  8.0132149E+01;  4.0000000E+04;  0.0000000E+00;  3.9965430E+04;  9.2501670E-01;  0.0000000E+00; -1.4245117E-01;  1.1718991E+05;
  1.7114989E-01;  9.9999998E-03; -2.7977520E-01;3485;  1.8079722E-01;  0.0000000E+00;  4.9498966E-03;  9.8228589E+02;  1.0000000E-01; -1.4675781E+04;3;  1.4897115E+02;  0.0000000E+00; -2.7108044E+01;0;  6.7350376E-01;  3.8611293E+04;  0.0000000E+00;  6.5139259E+01;  4.0000000E+04;  0.0000000E+00;  3.9989820E+04;  8.1821275E-01;  0.0000000E+00; -1.4470896E-01;  9.5720969E+04;
  1.8064635E-01;  9.9999998E-03; -2.9984820E-01;3544;  1.6278505E-01;  0.0000000E+00;  7.7950773E-03;  9.8275629E+02;  1.0000000E-01; -1.4286113E+04;3;  3.0616669E+02;  0.0000000E+00;  4.3386700E+01;0;  9.9372011E-01;  3.8657070E+04;  0.0000000E+00;  1.1406051E+02;  4.0000000E+04;  0.0000000E+00;  3.9977488E+04;  1.1415958E+00;  0.0000000E+00; -1.4787573E-01;  1.6636392E+05;
  1.8122806E-01;  9.9999998E-03; -2.8977174E-01;3545;  1.7798984E-01;  0.0000000E+00;  1.6365384E-03;  9.8104352E+02;  1.0000000E-01; -1.5705086E+04;3;  2.1799886E+02;  0.0000000E+00;  2.8073429E+01;0;  8.7073135E-01;  3.8499641E+04;  0.0000000E+00;  9.5104187E+01;  4.0000000E+04;  0.0000000E+00;  4.0005570E+04;  1.0196583E+00;  0.0000000E+00; -1.4892694E-01;  1.3975244E+05;
  1.8175055E-01;  9.9999998E-03; -2.7978176E-01;3546;  1.8653694E-01;  0.0000000E+00; -5.1368410E-03;  9.8064984E+02;  1.0000000E-01; -1.6031249E+04;3;  1.3753828E+02;  0.0000000E+00;  2.2871519E+01;0;  7.2131771E-01;  3.8460531E+04;  0.0000000E+00;  7.2042465E+01;  4.0000000E+04;  0.0000000E+00;  4.0015914E+04;  8.6505556E-01;  0.0000000E+00; -1.4373787E-01;  1.0653102E+05;
  1.9134422E-01;  9.9999998E-03; -2.9981670E-01;3605;  1.9478217E-01;  0.0000000E+00; -7.8809224E-03;  9.7951379E+02;  1.0000000E-01; -1.6972457E+04;3;  2.8481885E+02;  0.0000000E+00;  1.3417058E+02;0;  1.2323251E+00;  3.8373137E+04;  0.0000000E+00;  1.2211893E+02;  4.0000000E+04;  0.0000000E+00;  4.0012629E+04;  1.3543503E+00;  0.0000000E+00; -1.2202524E-01;  1.7918631E+05;
  1.9178420E-01;  9.9999998E-03; -2.8983277E-01;3606;  1.9308013E-01;  0.0000000E+00; -1.1154133E-02;  9.7891254E+02;  1.0000000E-01; -1.7470566E+04;3;  1.9610150E+02;  0.0000000E+00;  1.1308442E+02;0;  9.8445570E-01;  3.8323977E+04;  0.0000000E+00;  9.6872406E+01;  4.0000000E+04;  0.0000000E+00;  4.0017336E+04;  1.1098439E+00;  0.0000000E+00; -1.2538818E-01;  1.4318414E+05;
  1.9213766E-01;  9.9999998E-03; -2.7987260E-01;3607;  1.9165872E-01;  0.0000000E+00; -1.4797218E-02;  9.7957770E+02;  1.0000000E-01; -1.6919471E+04;3;  1.2119622E+02;  0.0000000E+00;  8.5052704E+01;0;  7.7160263E-01;  3.8375660E+04;  0.0000000E+00;  7.1269768E+01;  4.0000000E+04;  0.0000000E+00;  4.0018691E+04;  8.9493722E-01;  0.0000000E+00; -1.2333457E-01;  1.0594832E+05;
  2.0184568E-01;  9.9999998E-03; -3.0001152E-01;3666;  2.2919425E-01;  0.0000000E+00; -3.0325677E-02;  9.7637555E+02;  1.0000000E-01; -1.9572434E+04;3;  2.1719023E+02;  0.0000000E+00;  2.6368686E+02;0;  1.5407286E+00;  3.8182812E+04;  0.0000000E+00;  1.0863406E+02;  4.0000000E+04;  0.0000000E+00;  3.9958480E+04;  1.5532374E+00;  0.0000000E+00; -1.2508914E-02;  1.6026506E+05;
  2.0199826E-01;  9.9999998E-03; -2.8999177E-01;3667;  2.1288995E-01;  0.0000000E+00; -2.4644667E-02;  9.7792889E+02;  1.0000000E-01; -1.8285506E+04;3;  1.6452240E+02;  0.0000000E+00;  2.0098058E+02;0;  1.1279218E+00;  3.8283133E+04;  0.0000000E+00;  9.2012115E+01;  4.0000000E+04;  0.0000000E+00;  3.9980191E+04;  1.1900525E+00;  0.0000000E+00; -6.2130749E-02;  1.3618062E+05;
  2.0225394E-01;  9.9999998E-03; -2.7997333E-01;3668;  1.9740130E-01;  0.0000000E+00; -2.2544516E-02;  9.7956049E+02;  1.0000000E-01; -1.6933742E+04;3;  1.0315475E+02;  0.0000000E+00;  1.3623331E+02;0;  8.1749296E-01;  3.8388324E+04;  0.0000000E+00;  6.7251877E+01;  4.0000000E+04;  0.0000000E+00;  4.0003406E+04;  9.0405631E-01;  0.0000000E+00; -8.6563379E-02;  1.0008288E+05;
  2.1191466E-01;  9.9999998E-03; -3.0007848E-01;3727;  2.3678976E-01;  0.0000000E+00; -3.4394726E-02;  9.7654071E+02;  1.0000000E-01; -1.9435598E+04;3;  1.8616116E+02;  0.0000000E+00;  2.9889420E+02;0;  1.5865431E+00;  3.8220484E+04;  0.0000000E+00;  1.0578894E+02;  4.0000000E+04;  0.0000000E+00;  3.9931566E+04;  1.5458524E+00;  0.0000000E+00;  4.0690616E-02;  1.5554670E+05;
  2.1202148E-01;  9.9999998E-03; -2.9003236E-01;3728;  2.1797729E-01;  0.0000000E+00; -2.7820287E-02;  9.7868561E+02;  1.0000000E-01; -1.7658561E+04;3;  1.4518022E+02;  0.0000000E+00;  2.1556494E+02;0;  1.1442593E+00;  3.8349449E+04;  0.0000000E+00;  8.9640335E+01;  4.0000000E+04;  0.0000000E+00;  3.9971133E+04;  1.1683898E+00;  0.0000000E+00; -2.4130434E-02;  1.3215917E+05;
  2.1226659E-01;  9.9999998E-03; -2.7999744E-01;3729;  2.0148134E-01;  0.0000000E+00; -2.5971772E-02;  9.8057092E+02;  1.0000000E-01; -1.6096630E+04;3;  8.9349785E+01;  0.0000000E+00;  1.4076021E+02;0;  8.3156997E-01;  3.8464828E+04;  0.0000000E+00;  6.2232872E+01;  4.0000000E+04;  0.0000000E+00;  4.0004852E+04;  8.8210672E-01;  0.0000000E+00; -5.0536737E-02;  9.2421875E+04;
  2.2204268E-01;  9.9999998E-03; -3.0005732E-01;3788;  2.3292010E-01;  0.0000000E+00; -2.3604555E-02;  9.7756738E+02;  1.0000000E-01; -1.8585004E+04;3;  1.4960939E+02;  0.0000000E+00;  2.6064380E+02;0;  1.4063720E+00;  3.8287121E+04;  0.0000000E+00;  9.6462173E+01;  4.0000000E+04;  0.0000000E+00;  3.9945645E+04;  1.4181128E+00;  0.0000000E+00; -1.1740841E-02;  1.4113273E+05;
  2.2211991E-01;  9.9999998E-03; -2.9002976E-01;3789;  2.1743831E-01;  0.0000000E+00; -2.1992156E-02;  9.7984900E+02;  1.0000000E-01; -1.6694736E+04;3;  1.1359244E+02;  0.0000000E+00;  1.8705894E+02;0;  1.0459894E+00;  3.8432684E+04;  0.0000000E+00;  7.9596069E+01;  4.0000000E+04;  0.0000000E+00;  3.9978789E+04;  1.0867033E+00;  0.0000000E+00; -4.0713921E-02;  1.1689348E+05;
  2.2232392E-01;  9.9999998E-03; -2.8000572E-01;3790;  2.0332880E-01;  0.0000000E+00; -2.3802031E-02;  9.8186218E+02;  1.0000000E-01; -1.5026833E+04;3;  6.8812996E+01;  0.0000000E+00;  1.1966122E+02;0;  7.9361588E-01;  3.8560867E+04;  0.0000000E+00;  5.2284668E+01;  4.0000000E+04;  0.0000000E+00;  4.0009102E+04;  8.3209872E-01;  0.0000000E+00; -3.8482863E-02;  7.7504836E+04;
  2.3221305E-01;  9.9999998E-03; -3.0000758E-01;3849;  2.2703870E-01;  0.0000000E+00; -1.5181535E-02;  9.7918793E+02;  1.0000000E-01; -1.7242424E+04;3;  1.1276498E+02;  0.0000000E+00;  1.9546393E+02;0;  1.1855786E+00;  3.8377156E+04;  0.0000000E+00;  7.9314087E+01;  4.0000000E+04;  0.0000000E+00;  3.9984043E+04;  1.2491748E+00;  0.0000000E+00; -6.3596204E-02;  1.1562187E+05;
  2.3227917E-01;  9.9999998E-03; -2.9000077E-01;3850;  2.1556018E-01;  0.0000000E+00; -1.6351435E-02;  9.8136786E+02;  1.0000000E-01; -1.5436353E+04;3;  8.0637360E+01;  0.0000000E+00;  1.4097162E+02;0;  9.1497219E-01;  3.8527832E+04;  0.0000000E+00;  6.2241482E+01;  4.0000000E+04;  0.0000000E+00;  4.0003492E+04;  9.7790360E-01;  0.0000000E+00; -6.2931411E-02;  9.1254492E+04;
  2.3244184E-01;  9.9999998E-03; -2.7999610E-01;3851;  2.0460945E-01;  0.0000000E+00; -1.9781670E-02;  9.8333203E+02;  1.0000000E-01; -1.3809090E+04;3;  4.6367699E+01;  0.0000000E+00;  9.1612366E+01;0;  7.2820413E-01;  3.8664289E+04;  0.0000000E+00;  3.7606968E+01;  4.0000000E+04;  0.0000000E+00;  4.0021469E+04;  7.6737452E-01;  0.0000000E+00; -3.9170355E-02;  5.5918660E+04;
  2.4238913E-01;  9.9999998E-03; -2.9995778E-01;3910;  2.2133580E-01;  0.0000000E+00; -1.0063414E-02;  9.8122998E+02;  1.0000000E-01; -1.5550621E+04;3;  8.0347229E+01;  0.0000000E+00;  1.2896332E+02;0;  9.8314524E-01;  3.8490977E+04;  0.0000000E+00;  5.8071957E+01;  4.0000000E+04;  0.0000000E+00;  4.0031586E+04;  1.0753824E+00;  0.0000000E+00; -9.2237085E-02;  8.4769984E+04;
  2.4244899E-01;  9.9999998E-03; -2.8996509E-01;3911;  2.1327141E-01;  0.0000000E+00; -1.2268789E-02;  9.8320709E+02;  1.0000000E-01; -1.3912593E+04;3;  5.2720451E+01;  0.0000000E+00;  9.3893280E+01;0;  7.8784049E-01;  3.8639035E+04;  0.0000000E+00;  4.2143734E+01;  4.0000000E+04;  0.0000000E+00;  4.0037723E+04;  8.6242932E-01;  0.0000000E+00; -7.4588850E-02;  6.2148125E+04;
  2.4258348E-01;  9.9999998E-03; -2.7997741E-01;3912;  2.0517178E-01;  0.0000000E+00; -1.5793268E-02;  9.8496405E+02;  1.0000000E-01; -1.2456980E+04;3;  2.6572113E+01;  0.0000000E+00;  6.3293396E+01;0;  6.5603006E-01;  3.8774359E+04;  0.0000000E+00;  2.1509403E+01;  4.0000000E+04;  0.0000000E+00;  4.0040113E+04;  6.9760674E-01;  0.0000000E+00; -4.1576702E-02;  3.2793496E+04;
  2.5255528E-01;  9.9999998E-03; -2.9992503E-01;3971;  2.1657883E-01;  0.0000000E+00; -7.0351074E-03;  9.8337817E+02;  1.0000000E-01; -1.3770869E+04;3;  5.2792336E+01;  0.0000000E+00;  7.7595856E+01;0;  8.1802952E-01;  3.8621043E+04;  0.0000000E+00;  3.6845234E+01;  4.0000000E+04;  0.0000000E+00;  4.0070598E+04;  9.1625965E-01;  0.0000000E+00; -9.8230094E-02;  5.4751781E+04;
  2.5261223E-01;  9.9999998E-03; -2.8994003E-01;3972;  2.1113780E-01;  0.0000000E+00; -9.2439959E-03;  9.8511401E+02;  1.0000000E-01; -1.2332736E+04;3;  3.0506828E+01;  0.0000000E+00;  5.7691467E+01;0;  6.7975497E-01;  3.8760363E+04;  0.0000000E+00;  2.3128769E+01;  4.0000000E+04;  0.0000000E+00;  4.0067121E+04;  7.5486535E-01;  0.0000000E+00; -7.5110354E-02;  3.5519047E+04;
  2.5272897E-01;  9.9999998E-03; -2.7996144E-01;3973;  2.0571245E-01;  0.0000000E+00; -1.2066086E-02;  9.8661639E+02;  1.0000000E-01; -1.1088081E+04;3;  1.1204627E+01;  0.0000000E+00;  4.1064995E+01;0;  5.8997911E-01;  3.8887508E+04;  0.0000000E+00;  7.1178212E+00;  4.0000000E+04;  0.0000000E+00;  4.0057641E+04;  6.3310748E-01;  0.0000000E+00; -4.3128386E-02;  1.3957017E+04;
  2.6272780E-01;  9.9999998E-03; -2.9990947E-01;4032;  2.1282670E-01;  0.0000000E+00; -4.8548179E-03;  9.8538269E+02;  1.0000000E-01; -1.2110175E+04;3;  3.0018478E+01;  0.0000000E+00;  4.4042271E+01;0;  6.8943894E-01;  3.8755059E+04;  0.0000000E+00;  1.7659100E+01;  4.0000000E+04;  0.0000000E+00;  4.0094758E+04;  7.8049725E-01;  0.0000000E+00; -9.1058314E-02;  2.9148027E+04;
  2.6278746E-01;  9.9999998E-03; -2.8992718E-01;4033;  2.0932059E-01;  0.0000000E+00; -6.7778751E-03;  9.8688391E+02;  1.0000000E-01; -1.0866408E+04;3;  1.3206149E+01;  0.0000000E+00;  3.3918457E+01;0;  5.9594691E-01;  3.8881504E+04;  0.0000000E+00;  6.7351441E+00;  4.0000000E+04;  0.0000000E+00;  4.0085840E+04;  6.6347992E-01;  0.0000000E+00; -6.7532994E-02;  1.5768369E+04;
  2.6288858E-01;  9.9999998E-03; -2.7995083E-01;4034;  2.0634358E-01;  0.0000000E+00; -8.5575115E-03;  9.8815692E+02;  1.0000000E-01; -9.8117715E+03;3; -3.9469805E-01;  0.0000000E+00;  2.5768574E+01;0;  5.3625607E-01;  3.8996977E+04;  0.0000000E+00; -4.2287955E+00;  4.0000000E+04;  0.0000000E+00;  4.0070512E+04;  5.8001083E-01;  0.0000000E+00; -4.3754727E-02;  1.1182841E+04;
  2.7293211E-01;  9.9999998E-03; -2.9990545E-01;4093;  2.1002874E-01;  0.0000000E+00; -2.9178807E-03;  9.8715448E+02;  1.0000000E-01; -1.0642266E+04;3;  1.2027720E+01;  0.0000000E+00;  2.4617722E+01;0;  5.9445834E-01;  3.8884816E+04;  0.0000000E+00;  1.4659026E+00;  4.0000000E+04;  0.0000000E+00;  4.0105031E+04;  6.7229038E-01;  0.0000000E+00; -7.7832073E-02;  1.4453368E+04;
  2.7298108E-01;  9.9999998E-03; -2.8992325E-01;4094;  2.0828989E-01;  0.0000000E+00; -4.3101609E-03;  9.8845996E+02;  1.0000000E-01; -9.5607168E+03;3;  6.8450823E-02;  0.0000000E+00;  2.0028545E+01;0;  5.3472435E-01;  3.8998492E+04;  0.0000000E+00; -5.4652915E+00;  4.0000000E+04;  0.0000000E+00;  4.0093906E+04;  5.9374475E-01;  0.0000000E+00; -5.9020381E-02;  1.4632614E+04;
  2.7304006E-01;  9.9999998E-03; -2.7994537E-01;4095;  2.0721687E-01;  0.0000000E+00; -5.2493247E-03;  9.8956183E+02;  1.0000000E-01; -8.6478037E+03;3; -8.9434557E+00;  0.0000000E+00;  1.6402716E+01;0;  4.9873826E-01;  3.9101898E+04;  0.0000000E+00; -1.0733133E+01;  4.0000000E+04;  0.0000000E+00;  4.0077242E+04;  5.4232687E-01;  0.0000000E+00; -4.3588609E-02;  1.8212445E+04;
  2.8317937E-01;  9.9999998E-03; -2.9990798E-01;4154;  2.0849234E-01;  0.0000000E+00; -7.5403659E-04;  9.8872302E+02;  1.0000000E-01; -9.3427471E+03;3; -1.6427027E+00;  0.0000000E+00;  1.4474298E+01;0;  5.2755529E-01;  3.9010047E+04;  0.0000000E+00; -1.0304223E+01;  4.0000000E+04;  0.0000000E+00;  4.0104672E+04;  5.9439683E-01;  0.0000000E+00; -6.6841535E-02;  2.0012314E+04;
  2.8317136E-01;  9.9999998E-03; -2.8992435E-01;4155;  2.0827155E-01;  0.0000000E+00; -1.4699228E-03;  9.8988214E+02;  1.0000000E-01; -8.3824785E+03;3; -9.3907499E+00;  0.0000000E+00;  1.2741776E+01;0;  4.9138933E-01;  3.9111754E+04;  0.0000000E+00; -1.1837967E+01;  4.0000000E+04;  0.0000000E+00;  4.0093695E+04;  5.4781538E-01;  0.0000000E+00; -5.6426052E-02;  2.0763172E+04;
  2.8315482E-01;  9.9999998E-03; -2.7994317E-01;4156;  2.0839706E-01;  0.0000000E+00; -1.9184216E-03;  9.9082257E+02;  1.0000000E-01; -7.6033398E+03;3; -1.4915421E+01;  0.0000000E+00;  1.1144424E+01;0;  4.7573754E-01;  3.9200453E+04;  0.0000000E+00; -1.2080428E+01;  4.0000000E+04;  0.0000000E+00;  4.0078676E+04;  5.2167761E-01;  0.0000000E+00; -4.5940079E-02;  1.9984391E+04;
  2.9342294E-01;  9.9999998E-03; -2.9991278E-01;4215;  2.0862220E-01;  0.0000000E+00;  2.0390395E-03;  9.9020898E+02;  1.0000000E-01; -8.1116714E+03;3; -1.1319431E+01;  0.0000000E+00;  9.5000086E+00;0;  4.8037988E-01;  3.9134590E+04;  0.0000000E+00; -1.5111772E+01;  4.0000000E+04;  0.0000000E+00;  4.0098438E+04;  5.4749537E-01;  0.0000000E+00; -6.7115493E-02;  2.4984180E+04;
  2.9332817E-01;  9.9999998E-03; -2.8992712E-01;4216;  2.0900716E-01;  0.0000000E+00;  1.5739441E-03;  9.9117780E+02;  1.0000000E-01; -7.3090273E+03;3; -1.5875957E+01;  0.0000000E+00;  8.8778934E+00;0;  4.6572515E-01;  3.9219469E+04;  0.0000000E+00; -1.2557899E+01;  4.0000000E+04;  0.0000000E+00;  4.0088938E+04;  5.2503341E-01;  0.0000000E+00; -5.9308268E-02;  2.1284314E+04;
  2.9323682E-01;  9.9999998E-03; -2.7994207E-01;4217;  2.0983295E-01;  0.0000000E+00;  1.3737135E-03;  9.9191583E+02;  1.0000000E-01; -6.6975879E+03;3; -1.8639788E+01;  0.0000000E+00;  8.3167467E+00;0;  4.6673220E-01;  3.9288910E+04;  0.0000000E+00; -1.0233100E+01;  4.0000000E+04;  0.0000000E+00;  4.0076852E+04;  5.1751328E-01;  0.0000000E+00; -5.0781056E-02;  1.7706957E+04;
  3.0359903E-01;  9.9999998E-03; -2.9991823E-01;4276;  2.0933865E-01;  0.0000000E+00;  4.6921521E-03;  9.9161664E+02;  1.0000000E-01; -6.9454326E+03;3; -1.7803478E+01;  0.0000000E+00;  6.9874253E+00;0;  4.6016073E-01;  3.9255926E+04;  0.0000000E+00; -1.3407481E+01;  4.0000000E+04;  0.0000000E+00;  4.0088609E+04;  5.2827692E-01;  0.0000000E+00; -6.8116188E-02;  2.2289684E+04;
  3.0344152E-01;  9.9999998E-03; -2.8993011E-01;4277;  2.0995815E-01;  0.0000000E+00;  4.3499316E-03;  9.9232172E+02;  1.0000000E-01; -6.3613013E+03;3; -1.9922556E+01;  0.0000000E+00;  6.8644724E+00;0;  4.6139514E-01;  3.9317406E+04;  0.0000000E+00; -9.9099245E+00;  4.0000000E+04;  0.0000000E+00;  4.0081484E+04;  5.2280569E-01;  0.0000000E+00; -6.1410561E-02;  1.7680471E+04;
  3.0330297E-01;  9.9999998E-03; -2.7994147E-01;4278;  2.1135759E-01;  0.0000000E+00;  4.3112654E-03;  9.9282825E+02;  1.0000000E-01; -5.9416587E+03;3; -2.0835348E+01;  0.0000000E+00;  6.7671518E+00;0;  4.7323918E-01;  3.9365227E+04;  0.0000000E+00; -7.2892213E+00;  4.0000000E+04;  0.0000000E+00;  4.0072746E+04;  5.2759230E-01;  0.0000000E+00; -5.4353114E-02;  1.4128861E+04;
  3.1370753E-01;  9.9999998E-03; -2.9992384E-01;4337;  2.0994857E-01;  0.0000000E+00;  6.9888984E-03;  9.9284491E+02;  1.0000000E-01; -5.9278320E+03;3; -2.1578194E+01;  0.0000000E+00;  5.7932301E+00;0;  4.6536493E-01;  3.9364559E+04;  0.0000000E+00; -9.0977583E+00;  4.0000000E+04;  0.0000000E+00;  4.0076742E+04;  5.3227824E-01;  0.0000000E+00; -6.6913307E-02;  1.6396439E+04;
  3.1353214E-01;  9.9999998E-03; -2.8993309E-01;4338;  2.1096109E-01;  0.0000000E+00;  6.7233061E-03;  9.9327411E+02;  1.0000000E-01; -5.5722866E+03;3; -2.2048571E+01;  0.0000000E+00;  5.8616810E+00;0;  4.7606504E-01;  3.9401820E+04;  0.0000000E+00; -6.5152631E+00;  4.0000000E+04;  0.0000000E+00;  4.0072367E+04;  5.3714561E-01;  0.0000000E+00; -6.1080564E-02;  1.3289603E+04;
  3.1337580E-01;  9.9999998E-03; -2.7994144E-01;4339;  2.1301410E-01;  0.0000000E+00;  6.7082122E-03;  9.9356915E+02;  1.0000000E-01; -5.3278491E+03;3; -2.1652159E+01;  0.0000000E+00;  5.9924841E+00;0;  4.9400377E-01;  3.9429566E+04;  0.0000000E+00; -4.5774369E+00;  4.0000000E+04;  0.0000000E+00;  4.0066688E+04;  5.4828638E-01;  0.0000000E+00; -5.4282606E-02;  1.0966997E+04;
  3.2346347E-01;  9.9999998E-03; -2.7994198E-01;4400;  2.1516591E-01;  0.0000000E+00;  8.5815368E-03;  9.9417297E+02;  1.0000000E-01; -4.8275669E+03;3; -2.1461189E+01;  0.0000000E+00;  5.5264854E+00;0;  5.2348208E-01;  3.9484508E+04;  0.0000000E+00; -2.5300243E+00;  4.0000000E+04;  0.0000000E+00;  4.0059227E+04;  5.7465714E-01;  0.0000000E+00; -5.1175073E-02;  8.6417051E+03;
  3.2361668E-01;  9.9999998E-03; -2.8993592E-01;4399;  2.1226270E-01;  0.0000000E+00;  8.6566769E-03;  9.9404944E+02;  1.0000000E-01; -4.9299341E+03;3; -2.2697048E+01;  0.0000000E+00;  5.3423152E+00;0;  5.0422460E-01;  3.9472441E+04;  0.0000000E+00; -3.6871414E+00;  4.0000000E+04;  0.0000000E+00;  4.0062305E+04;  5.6239957E-01;  0.0000000E+00; -5.8174979E-02;  9.7786729E+03;
  3.2378146E-01;  9.9999998E-03; -2.9992896E-01;4398;  2.1056186E-01;  0.0000000E+00;  8.9005167E-03;  9.9384052E+02;  1.0000000E-01; -5.1030156E+03;3; -2.3337597E+01;  0.0000000E+00;  5.1758533E+00;0;  4.8976636E-01;  3.9454961E+04;  0.0000000E+00; -5.1443563E+00;  4.0000000E+04;  0.0000000E+00;  4.0064520E+04;  5.5330896E-01;  0.0000000E+00; -6.3542604E-02;  1.1224713E+04;
  3.3382720E-01;  9.9999998E-03; -2.9993331E-01;4459;  2.1161388E-01;  0.0000000E+00;  1.0461004E-02;  9.9461609E+02;  1.0000000E-01; -4.4604658E+03;3; -2.3741007E+01;  0.0000000E+00;  4.7282310E+00;0;  5.2404648E-01;  3.9526980E+04;  0.0000000E+00; -2.4509199E+00;  4.0000000E+04;  0.0000000E+00;  4.0052766E+04;  5.8312339E-01;  0.0000000E+00; -5.9076879E-02;  7.8341699E+03;
  3.3368576E-01;  9.9999998E-03; -2.8993851E-01;4460;  2.1428515E-01;  0.0000000E+00;  1.0191947E-02;  9.9467017E+02;  1.0000000E-01; -4.4156768E+03;3; -2.2363867E+01;  0.0000000E+00;  4.9230709E+00;0;  5.3766793E-01;  3.9530773E+04;  0.0000000E+00; -1.7640619E+00;  4.0000000E+04;  0.0000000E+00;  4.0052297E+04;  5.9150678E-01;  0.0000000E+00; -5.3838830E-02;  7.4098403E+03;
  3.3354768E-01;  9.9999998E-03; -2.7994293E-01;4461;  2.1825191E-01;  0.0000000E+00;  9.9824546E-03;  9.9467145E+02;  1.0000000E-01; -4.4145903E+03;3; -2.0413239E+01;  0.0000000E+00;  5.1165109E+00;0;  5.5472416E-01;  3.9531617E+04;  0.0000000E+00; -1.1754704E+00;  4.0000000E+04;  0.0000000E+00;  4.0050961E+04;  6.0083544E-01;  0.0000000E+00; -4.6111301E-02;  7.0017085E+03;
  3.4383765E-01;  9.9999998E-03; -2.9993686E-01;4520;  2.1369100E-01;  0.0000000E+00;  1.1765736E-02;  9.9520282E+02;  1.0000000E-01; -3.9743562E+03;3; -2.3071854E+01;  0.0000000E+00;  4.3706822E+00;0;  5.5728447E-01;  3.9582555E+04;  0.0000000E+00; -1.0146568E+00;  4.0000000E+04;  0.0000000E+00;  4.0042242E+04;  6.1268127E-01;  0.0000000E+00; -5.5396792E-02;  5.8442539E+03;
  3.4372219E-01;  9.9999998E-03; -2.8994092E-01;4521;  2.1764345E-01;  0.0000000E+00;  1.1445908E-02;  9.9516211E+02;  1.0000000E-01; -4.0080835E+03;3; -2.0948879E+01;  0.0000000E+00;  4.5790544E+00;0;  5.6697696E-01;  3.9578082E+04;  0.0000000E+00; -7.2491145E-01;  4.0000000E+04;  0.0000000E+00;  4.0042816E+04;  6.1711711E-01;  0.0000000E+00; -5.0140157E-02;  5.8388613E+03;
  3.4360567E-01;  9.9999998E-03; -2.7994433E-01;4522;  2.2302577E-01;  0.0000000E+00;  1.1060733E-02;  9.9508698E+02;  1.0000000E-01; -4.0703535E+03;3; -1.8310921E+01;  0.0000000E+00;  4.7863374E+00;0;  5.7963353E-01;  3.9571875E+04;  0.0000000E+00; -4.5474741E-01;  4.0000000E+04;  0.0000000E+00;  4.0042520E+04;  6.2095040E-01;  0.0000000E+00; -4.1316852E-02;  5.7582827E+03;
  3.5381371E-01;  9.9999998E-03; -2.9993948E-01;4581;  2.1760827E-01;  0.0000000E+00;  1.2989881E-02;  9.9563666E+02;  1.0000000E-01; -3.6149590E+03;3; -2.1440237E+01;  0.0000000E+00;  4.0043216E+00;0;  5.7832193E-01;  3.9624363E+04;  0.0000000E+00; -4.5422217E-01;  4.0000000E+04;  0.0000000E+00;  4.0033371E+04;  6.3389742E-01;  0.0000000E+00; -5.5575512E-02;  4.5658125E+03;
  3.5372129E-01;  9.9999998E-03; -2.8994301E-01;4582;  2.2322318E-01;  0.0000000E+00;  1.2614394E-02;  9.9554578E+02;  1.0000000E-01; -3.6902161E+03;3; -1.8508839E+01;  0.0000000E+00;  4.2579751E+00;0;  5.8261633E-01;  3.9615727E+04;  0.0000000E+00; -3.2420450E-01;  4.0000000E+04;  0.0000000E+00;  4.0034281E+04;  6.3282287E-01;  0.0000000E+00; -5.0206520E-02;  4.6667466E+03;
  3.5362691E-01;  9.9999998E-03; -2.7994600E-01;4583;  2.3042475E-01;  0.0000000E+00;  1.2134229E-02;  9.9542920E+02;  1.0000000E-01; -3.7868059E+03;3; -1.5160836E+01;  0.0000000E+00;  4.5707617E+00;0;  5.8882105E-01;  3.9605832E+04;  0.0000000E+00; -1.9015490E-01;  4.0000000E+04;  0.0000000E+00;  4.0034621E+04;  6.3001072E-01;  0.0000000E+00; -4.1189648E-02;  4.7054019E+03;
  3.6376816E-01;  9.9999998E-03; -2.9994091E-01;4642;  2.2434878E-01;  0.0000000E+00;  1.4296309E-02;  9.9595795E+02;  1.0000000E-01; -3.3487444E+03;3; -1.8811172E+01;  0.0000000E+00;  3.5575175E+00;0;  5.7844299E-01;  3.9655086E+04;  0.0000000E+00; -3.1329232E-01;  4.0000000E+04;  0.0000000E+00;  4.0026570E+04;  6.4073229E-01;  0.0000000E+00; -6.2289279E-02;  3.6682993E+03;
  3.6369461E-01;  9.9999998E-03; -2.8994432E-01;4643;  2.3187222E-01;  0.0000000E+00;  1.3898864E-02;  9.9584167E+02;  1.0000000E-01; -3.4450872E+03;3; -1.5303303E+01;  0.0000000E+00;  3.9305243E+00;0;  5.7683879E-01;  3.9644840E+04;  0.0000000E+00; -2.3507348E-01;  4.0000000E+04;  0.0000000E+00;  4.0027414E+04;  6.3390684E-01;  0.0000000E+00; -5.7068031E-02;  3.7683794E+03;
  3.6361852E-01;  9.9999998E-03; -2.7994740E-01;4644;  2.4061987E-01;  0.0000000E+00;  1.3344395E-02;  9.9570526E+02;  1.0000000E-01; -3.5581211E+03;3; -1.1706317E+01;  0.0000000E+00;  4.2636452E+00;0;  5.7697356E-01;  3.9633363E+04;  0.0000000E+00; -1.4696147E-01;  4.0000000E+04;  0.0000000E+00;  4.0027742E+04;  6.2445444E-01;  0.0000000E+00; -4.7480855E-02;  3.8226609E+03;
  3.7371704E-01;  9.9999998E-03; -2.9994076E-01;4703;  2.3462151E-01;  0.0000000E+00;  1.5687678E-02;  9.9619196E+02;  1.0000000E-01; -3.1548733E+03;3; -1.5609727E+01;  0.0000000E+00;  2.9923255E+00;0;  5.5422693E-01;  3.9676590E+04;  0.0000000E+00; -2.8763101E-01;  4.0000000E+04;  0.0000000E+00;  4.0022441E+04;  6.2956619E-01;  0.0000000E+00; -7.5339265E-02;  3.1267402E+03;
  3.7365827E-01;  9.9999998E-03; -2.8994435E-01;4704;  2.4366690E-01;  0.0000000E+00;  1.5340069E-02;  9.9606799E+02;  1.0000000E-01; -3.2575864E+03;3; -1.1955329E+01;  0.0000000E+00;  3.4393547E+00;0;  5.4651111E-01;  3.9665992E+04;  0.0000000E+00; -2.2716281E-01;  4.0000000E+04;  0.0000000E+00;  4.0022859E+04;  6.1760539E-01;  0.0000000E+00; -7.1094282E-02;  3.1781492E+03;
  3.7359676E-01;  9.9999998E-03; -2.7994794E-01;4705;  2.5319573E-01;  0.0000000E+00;  1.4774309E-02;  9.9592236E+02;  1.0000000E-01; -3.3782249E+03;3; -8.6299353E+00;  0.0000000E+00;  3.9041409E+00;0;  5.4145503E-01;  3.9654387E+04;  0.0000000E+00; -1.5693860E-01;  4.0000000E+04;  0.0000000E+00;  4.0022809E+04;  6.0235834E-01;  0.0000000E+00; -6.0903285E-02;  3.1825200E+03;
  3.8367680E-01;  9.9999998E-03; -2.9993877E-01;4764;  2.4834092E-01;  0.0000000E+00;  1.7118068E-02;  9.9636151E+02;  1.0000000E-01; -3.0144326E+03;3; -1.2533319E+01;  0.0000000E+00;  2.2741511E+00;0;  5.0547075E-01;  3.9690090E+04;  0.0000000E+00; -2.6419061E-01;  4.0000000E+04;  0.0000000E+00;  4.0021121E+04;  5.9917569E-01;  0.0000000E+00; -9.3704961E-02;  2.9480803E+03;
  3.8362825E-01;  9.9999998E-03; -2.8994262E-01;4765;  2.5795785E-01;  0.0000000E+00;  1.6890338E-02;  9.9623523E+02;  1.0000000E-01; -3.1190222E+03;3; -9.3109226E+00;  0.0000000E+00;  2.7668035E+00;0;  4.9199599E-01;  3.9680059E+04;  0.0000000E+00; -2.1502215E-01;  4.0000000E+04;  0.0000000E+00;  4.0021055E+04;  5.8315563E-01;  0.0000000E+00; -9.1159657E-02;  2.9458345E+03;
  3.8357678E-01;  9.9999998E-03; -2.7994698E-01;4766;  2.6734856E-01;  0.0000000E+00;  1.6399588E-02;  9.9608813E+02;  1.0000000E-01; -3.2408953E+03;3; -6.4522991E+00;  0.0000000E+00;  3.3176568E+00;0;  4.8276791E-01;  3.9669172E+04;  0.0000000E+00; -1.5930150E-01;  4.0000000E+04;  0.0000000E+00;  4.0020348E+04;  5.6348932E-01;  0.0000000E+00; -8.0721416E-02;  2.8543147E+03;
  3.9366320E-01;  9.9999998E-03; -2.9993480E-01;4825;  2.6417312E-01;  0.0000000E+00;  1.8499151E-02;  9.9648700E+02;  1.0000000E-01; -2.9104355E+03;3; -1.0470733E+01;  0.0000000E+00;  1.1798708E+00;0;  4.3457329E-01;  3.9697602E+04;  0.0000000E+00; -2.3625733E-01;  4.0000000E+04;  0.0000000E+00;  4.0022715E+04;  5.5036342E-01;  0.0000000E+00; -1.1579011E-01;  3.1235347E+03;
  3.9361876E-01;  9.9999998E-03; -2.8993902E-01;4826;  2.7352554E-01;  0.0000000E+00;  1.8398069E-02;  9.9636664E+02;  1.0000000E-01; -3.0101858E+03;3; -7.8178988E+00;  0.0000000E+00;  1.6501944E+00;0;  4.1698474E-01;  3.9688457E+04;  0.0000000E+00; -1.9643572E-01;  4.0000000E+04;  0.0000000E+00;  4.0022160E+04;  5.3159982E-01;  0.0000000E+00; -1.1461510E-01;  3.0585117E+03;
  3.9357266E-01;  9.9999998E-03; -2.7994418E-01;4827;  2.8217915E-01;  0.0000000E+00;  1.8030113E-02;  9.9622314E+02;  1.0000000E-01; -3.1290466E+03;3; -5.4812155E+00;  0.0000000E+00;  2.2072358E+00;0;  4.0526879E-01;  3.9678684E+04;  0.0000000E+00; -1.5462200E-01;  4.0000000E+04;  0.0000000E+00;  4.0020523E+04;  5.0918692E-01;  0.0000000E+00; -1.0391814E-01;  2.8537629E+03;
  4.0369096E-01;  9.9999998E-03; -2.9992914E-01;4886;  2.8036964E-01;  0.0000000E+00;  1.9447945E-02;  9.9659692E+02;  1.0000000E-01; -2.8193765E+03;3; -9.9607725E+00;  0.0000000E+00; -7.2214282E-01;0;  3.5078940E-01;  3.9701691E+04;  0.0000000E+00; -2.1640876E-01;  4.0000000E+04;  0.0000000E+00;  4.0026719E+04;  4.8580182E-01;  0.0000000E+00; -1.3501242E-01;  3.5916558E+03;
  4.0364525E-01;  9.9999998E-03; -2.8993377E-01;4887;  2.8892806E-01;  0.0000000E+00;  1.9430364E-02;  9.9648279E+02;  1.0000000E-01; -2.9139417E+03;3; -8.0538187E+00;  0.0000000E+00; -5.0964576E-01;0;  3.3131933E-01;  3.9693738E+04;  0.0000000E+00; -1.8532394E-01;  4.0000000E+04;  0.0000000E+00;  4.0025426E+04;  4.6574172E-01;  0.0000000E+00; -1.3442238E-01;  3.4473879E+03;
  4.0359858E-01;  9.9999998E-03; -2.7993980E-01;4888;  2.9639482E-01;  0.0000000E+00;  1.9125048E-02;  9.9634381E+02;  1.0000000E-01; -3.0290989E+03;3; -7.7140050E+00;  0.0000000E+00; -4.9557701E-01;0;  3.1954220E-01;  3.9685492E+04;  0.0000000E+00; -1.5387537E-01;  4.0000000E+04;  0.0000000E+00;  4.0022613E+04;  4.4239584E-01;  0.0000000E+00; -1.2285363E-01;  3.1096606E+03;
  4.1376516E-01;  9.9999998E-03; -2.9992241E-01;4947;  2.9426652E-01;  0.0000000E+00;  1.8698825E-02;  9.9671716E+02;  1.0000000E-01; -2.7197739E+03;3; -1.7077608E+01;  0.0000000E+00; -5.4029260E+00;0;  2.7981481E-01;  3.9705742E+04;  0.0000000E+00; -2.0841536E-01;  4.0000000E+04;  0.0000000E+00;  4.0031551E+04;  4.1001415E-01;  0.0000000E+00; -1.3019934E-01;  4.2038872E+03;
  4.1371796E-01;  9.9999998E-03; -2.8992766E-01;4948;  2.9773897E-01;  0.0000000E+00;  1.8140664E-02;  9.9660535E+02;  1.0000000E-01; -2.8124133E+03;3; -2.1408632E+01;  0.0000000E+00; -5.6581130E+00;0;  2.6921535E-01;  3.9698836E+04;  0.0000000E+00; -1.9123456E-01;  4.0000000E+04;  0.0000000E+00;  4.0029609E+04;  3.9006796E-01;  0.0000000E+00; -1.2085263E-01;  3.9569570E+03;
  4.1366583E-01;  9.9999998E-03; -2.7993473E-01;4949;  3.0037257E-01;  0.0000000E+00;  1.7739305E-02;  9.9646802E+02;  1.0000000E-01; -2.9261877E+03;3; -2.1773909E+01;  0.0000000E+00; -5.1585045E+00;0;  2.5843245E-01;  3.9692059E+04;  0.0000000E+00; -1.6710976E-01;  4.0000000E+04;  0.0000000E+00;  4.0025426E+04;  3.6751276E-01;  0.0000000E+00; -1.0908033E-01;  3.4502358E+03;
  4.2385715E-01;  9.9999998E-03; -2.9991660E-01;5008;  2.9559201E-01;  0.0000000E+00;  1.5639655E-02;  9.9684082E+02;  1.0000000E-01; -2.6173076E+03;3; -2.3121660E+01;  0.0000000E+00; -6.1384163E+00;0;  2.4235028E-01;  3.9712203E+04;  0.0000000E+00; -1.9093433E-01;  4.0000000E+04;  0.0000000E+00;  4.0034574E+04;  3.2894468E-01;  0.0000000E+00; -8.6594410E-02;  4.5817881E+03;
  4.2380857E-01;  9.9999998E-03; -2.8992212E-01;5009;  2.9786569E-01;  0.0000000E+00;  1.5586534E-02;  9.9673578E+02;  1.0000000E-01; -2.7043669E+03;3; -2.2518085E+01;  0.0000000E+00; -6.1115332E+00;0;  2.2314113E-01;  3.9706379E+04;  0.0000000E+00; -1.9476345E-01;  4.0000000E+04;  0.0000000E+00;  4.0032215E+04;  3.1049550E-01;  0.0000000E+00; -8.7354369E-02;  4.2861367E+03;
  4.2375594E-01;  9.9999998E-03; -2.7992958E-01;5010;  3.0028376E-01;  0.0000000E+00;  1.5507288E-02;  9.9660724E+02;  1.0000000E-01; -2.8108330E+03;3; -2.1860481E+01;  0.0000000E+00; -6.0442352E+00;0;  2.0640813E-01;  3.9700633E+04;  0.0000000E+00; -1.8385966E-01;  4.0000000E+04;  0.0000000E+00;  4.0027523E+04;  2.9009709E-01;  0.0000000E+00; -8.3688959E-02;  3.7219023E+03;
  4.3394455E-01;  9.9999998E-03; -2.9991141E-01;5069;  2.9550201E-01;  0.0000000E+00;  1.2988193E-02;  9.9698676E+02;  1.0000000E-01; -2.4964221E+03;3; -2.3125679E+01;  0.0000000E+00; -6.4819360E+00;0;  1.9536512E-01;  3.9722414E+04;  0.0000000E+00; -1.4440852E-01;  4.0000000E+04;  0.0000000E+00;  4.0035895E+04;  2.4863131E-01;  0.0000000E+00; -5.3266197E-02;  4.7392139E+03;
  4.3389547E-01;  9.9999998E-03; -2.8991649E-01;5070;  2.9762310E-01;  0.0000000E+00;  1.3089280E-02;  9.9690021E+02;  1.0000000E-01; -2.5681238E+03;3; -2.2408262E+01;  0.0000000E+00; -6.7009654E+00;0;  1.7499453E-01;  3.9717293E+04;  0.0000000E+00; -1.7465529E-01;  4.0000000E+04;  0.0000000E+00;  4.0033992E+04;  2.3256631E-01;  0.0000000E+00; -5.7571784E-02;  4.5098960E+03;
  4.3384334E-01;  9.9999998E-03; -2.7992362E-01;5071;  2.9996359E-01;  0.0000000E+00;  1.3266097E-02;  9.9678326E+02;  1.0000000E-01; -2.6650098E+03;3; -2.1785357E+01;  0.0000000E+00; -6.7768288E+00;0;  1.5497530E-01;  3.9712457E+04;  0.0000000E+00; -1.8346502E-01;  4.0000000E+04;  0.0000000E+00;  4.0029613E+04;  2.1507032E-01;  0.0000000E+00; -6.0095035E-02;  3.9749683E+03;
  4.4403133E-01;  9.9999998E-03; -2.9990673E-01;5130;  2.9514718E-01;  0.0000000E+00;  1.0432675E-02;  9.9715656E+02;  1.0000000E-01; -2.3557346E+03;3; -2.2930490E+01;  0.0000000E+00; -6.7765684E+00;0;  1.4895840E-01;  3.9736191E+04;  0.0000000E+00; -6.7598425E-02;  4.0000000E+04;  0.0000000E+00;  4.0035699E+04;  1.7327665E-01;  0.0000000E+00; -2.4318242E-02;  4.6914614E+03;
  4.4397935E-01;  9.9999998E-03; -2.8991053E-01;5131;  2.9716447E-01;  0.0000000E+00;  1.0468606E-02;  9.9709314E+02;  1.0000000E-01; -2.4082764E+03;3; -2.2250830E+01;  0.0000000E+00; -7.1042576E+00;0;  1.3208236E-01;  3.9731578E+04;  0.0000000E+00; -1.2662731E-01;  4.0000000E+04;  0.0000000E+00;  4.0035230E+04;  1.6006806E-01;  0.0000000E+00; -2.7985707E-02;  4.6474150E+03;
  4.4392586E-01;  9.9999998E-03; -2.7991626E-01;5132;  2.9944909E-01;  0.0000000E+00;  1.0822053E-02;  9.9700031E+02;  1.0000000E-01; -2.4852124E+03;3; -2.1713133E+01;  0.0000000E+00; -7.2941103E+00;0;  1.1060577E-01;  3.9727195E+04;  0.0000000E+00; -1.5982443E-01;  4.0000000E+04;  0.0000000E+00;  4.0032207E+04;  1.4579523E-01;  0.0000000E+00; -3.5189457E-02;  4.2799658E+03;
  4.5412654E-01;  9.9999998E-03; -2.9990312E-01;5191;  2.9467085E-01;  0.0000000E+00;  8.3470792E-03;  9.9731750E+02;  1.0000000E-01; -2.2224050E+03;3; -2.2642761E+01;  0.0000000E+00; -7.1853743E+00;0;  9.9733792E-02;  3.9751707E+04;  0.0000000E+00;  3.3037845E-02;  4.0000000E+04;  0.0000000E+00;  4.0032957E+04;  1.0556475E-01;  0.0000000E+00; -5.8309566E-03;  4.3542817E+03;
  4.5406938E-01;  9.9999998E-03; -2.8990558E-01;5192;  2.9659441E-01;  0.0000000E+00;  8.1285471E-03;  9.9727734E+02;  1.0000000E-01; -2.2556880E+03;3; -2.2021315E+01;  0.0000000E+00; -7.4115295E+00;0;  9.0422727E-02;  3.9747383E+04;  0.0000000E+00; -5.5251215E-02;  4.0000000E+04;  0.0000000E+00;  4.0034113E+04;  9.5326357E-02;  0.0000000E+00; -4.9036276E-03;  4.4985161E+03;
  4.5401186E-01;  9.9999998E-03; -2.7990916E-01;5193;  2.9879439E-01;  0.0000000E+00;  8.4198527E-03;  9.9721320E+02;  1.0000000E-01; -2.3088223E+03;3; -2.1515217E+01;  0.0000000E+00; -7.6690187E+00;0;  7.1938306E-02;  3.9743113E+04;  0.0000000E+00; -1.1533386E-01;  4.0000000E+04;  0.0000000E+00;  4.0033367E+04;  8.4273048E-02;  0.0000000E+00; -1.2334742E-02;  4.4028638E+03;
  4.6417534E-01;  9.9999998E-03; -2.9990038E-01;5252;  2.9412630E-01;  0.0000000E+00;  6.7555150E-03;  9.9744122E+02;  1.0000000E-01; -2.1198892E+03;3; -2.2433649E+01;  0.0000000E+00; -7.7337475E+00;0;  4.9591877E-02;  3.9765961E+04;  0.0000000E+00;  1.4724147E-01;  4.0000000E+04;  0.0000000E+00;  4.0028742E+04;  4.7272325E-02;  0.0000000E+00;  2.3195506E-03;  3.8157939E+03;
  4.6411824E-01;  9.9999998E-03; -2.8990239E-01;5253;  2.9601395E-01;  0.0000000E+00;  6.5723667E-03;  9.9740894E+02;  1.0000000E-01; -2.1466538E+03;3; -2.1864237E+01;  0.0000000E+00; -7.9231491E+00;0;  4.3486349E-02;  3.9762008E+04;  0.0000000E+00;  3.3426911E-02;  4.0000000E+04;  0.0000000E+00;  4.0030059E+04;  3.9788026E-02;  0.0000000E+00;  3.6983239E-03;  3.9802734E+03;
  4.6406308E-01;  9.9999998E-03; -2.7990517E-01;5254;  2.9815894E-01;  0.0000000E+00;  6.8166000E-03;  9.9735413E+02;  1.0000000E-01; -2.1920352E+03;3; -2.1452156E+01;  0.0000000E+00; -8.2077646E+00;0;  2.9310659E-02;  3.9757617E+04;  0.0000000E+00; -5.2742712E-02;  4.0000000E+04;  0.0000000E+00;  4.0029965E+04;  3.1663481E-02;  0.0000000E+00; -2.3528230E-03;  3.9764470E+03;
  4.7414055E-01;  9.9999998E-03; -2.9989773E-01;5313;  2.9346165E-01;  0.0000000E+00;  5.3878482E-03;  9.9750525E+02;  1.0000000E-01; -2.0668535E+03;3; -2.2180029E+01;  0.0000000E+00; -8.2500639E+00;0;  4.2530186E-03;  3.9775594E+04;  0.0000000E+00;  2.3085241E-01;  4.0000000E+04;  0.0000000E+00;  4.0024301E+04; -1.1429325E-03;  0.0000000E+00;  5.3959512E-03;  3.2730967E+03;
  4.7408745E-01;  9.9999998E-03; -2.8989941E-01;5314;  2.9535681E-01;  0.0000000E+00;  5.3362460E-03;  9.9747552E+02;  1.0000000E-01; -2.0914946E+03;3; -2.1758018E+01;  0.0000000E+00; -8.5014429E+00;0; -3.6382629E-04;  3.9771863E+04;  0.0000000E+00;  1.0816631E-01;  4.0000000E+04;  0.0000000E+00;  4.0025539E+04; -6.2476452E-03;  0.0000000E+00;  5.8838190E-03;  3.4142607E+03;
  4.7403914E-01;  9.9999998E-03; -2.7990225E-01;5315;  2.9748288E-01;  0.0000000E+00;  5.6805853E-03;  9.9741473E+02;  1.0000000E-01; -2.1418635E+03;3; -2.1423409E+01;  0.0000000E+00; -8.8189564E+00;0; -1.2009355E-02;  3.9767355E+04;  0.0000000E+00;  8.5657276E-03;  4.0000000E+04;  0.0000000E+00;  4.0025164E+04; -1.1855162E-02;  0.0000000E+00; -1.5419387E-04;  3.3681018E+03;
  4.8406750E-01;  9.9999998E-03; -2.9989439E-01;5374;  2.9261839E-01;  0.0000000E+00;  3.9442242E-03;  9.9751404E+02;  1.0000147E-01; -2.0595942E+03;3; -2.1947742E+01;  0.0000000E+00; -8.6387939E+00;0; -3.1540450E-02;  3.9778117E+04;  0.0000000E+00;  2.5522748E-01;  4.0000000E+04;  0.0000000E+00;  4.0021262E+04; -4.0418241E-02;  0.0000000E+00;  8.8777924E-03;  2.9039717E+03;
  4.8401892E-01;  9.9999998E-03; -2.8989559E-01;5375;  2.9453275E-01;  0.0000000E+00;  3.9948961E-03;  9.9748376E+02;  1.0000147E-01; -2.0846306E+03;3; -2.1626040E+01;  0.0000000E+00; -8.9535179E+00;0; -3.4661788E-02;  3.9774543E+04;  0.0000000E+00;  1.4312345E-01;  4.0000000E+04;  0.0000000E+00;  4.0022602E+04; -4.3564081E-02;  0.0000000E+00;  8.9022936E-03;  3.0433008E+03;
  4.8397470E-01;  9.9999998E-03; -2.7989769E-01;5376;  2.9663730E-01;  0.0000000E+00;  4.3161344E-03;  9.9742773E+02;  1.0000148E-01; -2.1310488E+03;3; -2.1355900E+01;  0.0000000E+00; -9.2508698E+00;0; -4.2530596E-02;  3.9770090E+04;  0.0000000E+00;  4.6391223E-02;  4.0000000E+04;  0.0000000E+00;  4.0022465E+04; -4.7078997E-02;  0.0000000E+00;  4.5483997E-03;  3.0322227E+03;
  4.9390754E-01;  9.9999998E-03; -2.7989182E-01;5437;  2.9565048E-01;  0.0000000E+00;  2.7485990E-03;  9.9736725E+02;  1.0000204E-01; -2.1811704E+03;3; -2.1238815E+01;  0.0000000E+00; -9.5310717E+00;0; -6.3653633E-02;  3.9765043E+04;  0.0000000E+00;  5.5151068E-02;  4.0000000E+04;  0.0000000E+00;  4.0022125E+04; -7.5106241E-02;  0.0000000E+00;  1.1452609E-02;  2.9965337E+03;
  4.9394751E-01;  9.9999998E-03; -2.8989106E-01;5436;  2.9355022E-01;  0.0000000E+00;  2.4823269E-03;  9.9741156E+02;  1.0000199E-01; -2.1444802E+03;3; -2.1433002E+01;  0.0000000E+00; -9.2304525E+00;0; -5.9279144E-02;  3.9769406E+04;  0.0000000E+00;  1.3741015E-01;  4.0000000E+04;  0.0000000E+00;  4.0021441E+04; -7.3252566E-02;  0.0000000E+00;  1.3973422E-02;  2.9069734E+03;
  4.9399209E-01;  9.9999998E-03; -2.9989052E-01;5435;  2.9160145E-01;  0.0000000E+00;  2.3548286E-03;  9.9743842E+02;  1.0000207E-01; -2.1222092E+03;3; -2.1650620E+01;  0.0000000E+00; -8.8369236E+00;0; -5.7498038E-02;  3.9772949E+04;  0.0000000E+00;  2.2600347E-01;  4.0000000E+04;  0.0000000E+00;  4.0019973E+04; -7.1645305E-02;  0.0000000E+00;  1.4147266E-02;  2.7452061E+03;
  5.0394183E-01;  9.9999998E-03; -2.9988700E-01;5496;  2.9043230E-01;  0.0000000E+00;  6.5305620E-04;  9.9731219E+02;  1.0000388E-01; -2.2267986E+03;3; -2.1360376E+01;  0.0000000E+00; -8.8962269E+00;0; -7.5462945E-02;  3.9761738E+04;  0.0000000E+00;  1.6729254E-01;  4.0000000E+04;  0.0000000E+00;  4.0019688E+04; -9.6150391E-02;  0.0000000E+00;  2.0687448E-02;  2.7120051E+03;
  5.0389862E-01;  9.9999998E-03; -2.8988671E-01;5497;  2.9241896E-01;  0.0000000E+00;  8.1401382E-04;  9.9729028E+02;  1.0000371E-01; -2.2449709E+03;3; -2.1230021E+01;  0.0000000E+00; -9.3304291E+00;0; -7.5671256E-02;  3.9758238E+04;  0.0000000E+00;  1.0350201E-01;  4.0000000E+04;  0.0000000E+00;  4.0021367E+04; -9.6594252E-02;  0.0000000E+00;  2.0922994E-02;  2.9258430E+03;
  5.0386131E-01;  9.9999998E-03; -2.7988598E-01;5498;  2.9453066E-01;  0.0000000E+00;  1.0607807E-03;  9.9725751E+02;  1.0000388E-01; -2.2720811E+03;3; -2.1118988E+01;  0.0000000E+00; -9.6683311E+00;0; -7.7759884E-02;  3.9754004E+04;  0.0000000E+00;  3.8675684E-02;  4.0000000E+04;  0.0000000E+00;  4.0023191E+04; -9.7169928E-02;  0.0000000E+00;  1.9410042E-02;  3.1377454E+03;
  5.1393604E-01;  9.9999998E-03; -2.9988468E-01;5557;  2.8913167E-01;  0.0000000E+00; -1.0755041E-03;  9.9717426E+02;  1.0000626E-01; -2.3410664E+03;3; -2.1045666E+01;  0.0000000E+00; -8.8633642E+00;0; -8.8362269E-02;  3.9748926E+04;  0.0000000E+00;  9.4402954E-02;  4.0000000E+04;  0.0000000E+00;  4.0019641E+04; -1.1538737E-01;  0.0000000E+00;  2.7025096E-02;  2.7151221E+03;
  5.1389092E-01;  9.9999998E-03; -2.8988352E-01;5558;  2.9115143E-01;  0.0000000E+00; -9.1502396E-04;  9.9715515E+02;  1.0000617E-01; -2.3569177E+03;3; -2.1002232E+01;  0.0000000E+00; -9.3314362E+00;0; -8.6790353E-02;  3.9745133E+04;  0.0000000E+00;  4.9726661E-02;  4.0000000E+04;  0.0000000E+00;  4.0021898E+04; -1.1497208E-01;  0.0000000E+00;  2.8181728E-02;  2.9942883E+03;
  5.1385343E-01;  9.9999998E-03; -2.7988142E-01;5559;  2.9327956E-01;  0.0000000E+00; -6.8487728E-04;  9.9713641E+02;  1.0000617E-01; -2.3724236E+03;3; -2.0984982E+01;  0.0000000E+00; -9.7106800E+00;0; -8.7073594E-02;  3.9740902E+04;  0.0000000E+00; -7.9355499E-04;  4.0000000E+04;  0.0000000E+00;  4.0024559E+04; -1.1458320E-01;  0.0000000E+00;  2.7509611E-02;  3.3258999E+03;
  5.2398247E-01;  9.9999998E-03; -2.9988450E-01;5618;  2.8771698E-01;  0.0000000E+00; -2.7876508E-03;  9.9709595E+02;  1.0001039E-01; -2.4059526E+03;3; -2.0713308E+01;  0.0000000E+00; -8.7188311E+00;0; -9.8386034E-02;  3.9739953E+04;  0.0000000E+00; -1.4543945E-02;  4.0000000E+04;  0.0000000E+00;  4.0018891E+04; -1.3081506E-01;  0.0000000E+00;  3.2429025E-02;  2.6290378E+03;
  5.2393126E-01;  9.9999998E-03; -2.8988257E-01;5619;  2.8976482E-01;  0.0000000E+00; -2.6239571E-03;  9.9707684E+02;  1.0001048E-01; -2.4217546E+03;3; -2.0760786E+01;  0.0000000E+00; -9.2163725E+00;0; -9.5327497E-02;  3.9735551E+04;  0.0000000E+00; -3.8105208E-02;  4.0000000E+04;  0.0000000E+00;  4.0021652E+04; -1.2975657E-01;  0.0000000E+00;  3.4429077E-02;  2.9802817E+03;
  5.2388966E-01;  9.9999998E-03; -2.7987933E-01;5620;  2.9190895E-01;  0.0000000E+00; -2.3996402E-03;  9.9706409E+02;  1.0001054E-01; -2.4323223E+03;3; -2.0824051E+01;  0.0000000E+00; -9.6604395E+00;0; -9.4182044E-02;  3.9731281E+04;  0.0000000E+00; -7.2359301E-02;  4.0000000E+04;  0.0000000E+00;  4.0025215E+04; -1.2863229E-01;  0.0000000E+00;  3.4450248E-02;  3.4234453E+03;
  5.3407764E-01;  9.9999998E-03; -2.9988715E-01;5679;  2.8620973E-01;  0.0000000E+00; -4.4324016E-03;  9.9714313E+02;  1.0001730E-01; -2.3668420E+03;3; -2.0367081E+01;  0.0000000E+00; -8.5345230E+00;0; -1.0783279E-01;  3.9740703E+04;  0.0000000E+00; -2.2990325E-01;  4.0000000E+04;  0.0000000E+00;  4.0016539E+04; -1.4377530E-01;  0.0000000E+00;  3.5942513E-02;  2.3646323E+03;
  5.3401655E-01;  9.9999998E-03; -2.8988460E-01;5680;  2.8827694E-01;  0.0000000E+00; -4.2752954E-03;  9.9711926E+02;  1.0001743E-01; -2.3866438E+03;3; -2.0500957E+01;  0.0000000E+00; -9.0602360E+00;0; -1.0322937E-01;  3.9735246E+04;  0.0000000E+00; -2.0447071E-01;  4.0000000E+04;  0.0000000E+00;  4.0020023E+04; -1.4219931E-01;  0.0000000E+00;  3.8969930E-02;  2.7874805E+03;
  5.3396904E-01;  9.9999998E-03; -2.7988061E-01;5681;  2.9043713E-01;  0.0000000E+00; -4.0307734E-03;  9.9710956E+02;  1.0001760E-01; -2.3946931E+03;3; -2.0652420E+01;  0.0000000E+00; -9.5224619E+00;0; -1.0107695E-01;  3.9730344E+04;  0.0000000E+00; -2.0280662E-01;  4.0000000E+04;  0.0000000E+00;  4.0024281E+04; -1.4048389E-01;  0.0000000E+00;  3.9406933E-02;  3.3191328E+03;
  5.4420906E-01;  9.9999998E-03; -2.9989311E-01;5740;  2.8461909E-01;  0.0000000E+00; -6.0251923E-03;  9.9738068E+02;  1.0002959E-01; -2.1700571E+03;3; -2.0018660E+01;  0.0000000E+00; -8.3268728E+00;0; -1.1762287E-01;  3.9754578E+04;  0.0000000E+00; -6.4734387E-01;  4.0000000E+04;  0.0000000E+00;  4.0012105E+04; -1.5537779E-01;  0.0000000E+00;  3.7754927E-02;  1.9933253E+03;
  5.4413849E-01;  9.9999998E-03; -2.8988999E-01;5741;  2.8670186E-01;  0.0000000E+00; -5.8532977E-03;  9.9734515E+02;  1.0002951E-01; -2.1994883E+03;3; -2.0232828E+01;  0.0000000E+00; -8.8605452E+00;0; -1.1187995E-01;  3.9747746E+04;  0.0000000E+00; -5.1558357E-01;  4.0000000E+04;  0.0000000E+00;  4.0016125E+04; -1.5333247E-01;  0.0000000E+00;  4.1452520E-02;  2.3985425E+03;
  5.4408431E-01;  9.9999998E-03; -2.7988565E-01;5742;  2.8887773E-01;  0.0000000E+00; -5.6000287E-03;  9.9733105E+02;  1.0002955E-01; -2.2111423E+03;3; -2.0465754E+01;  0.0000000E+00; -9.3045940E+00;0; -1.0849072E-01;  3.9741543E+04;  0.0000000E+00; -4.3327031E-01;  4.0000000E+04;  0.0000000E+00;  4.0021141E+04; -1.5109083E-01;  0.0000000E+00;  4.2600114E-02;  2.9696956E+03;
  5.5435449E-01;  9.9999998E-03; -2.9990217E-01;5801;  2.8294501E-01;  0.0000000E+00; -7.6147029E-03;  9.9780835E+02;  1.0004847E-01; -1.8157463E+03;3; -1.9663746E+01;  0.0000000E+00; -8.0719080E+00;0; -1.2780732E-01;  3.9780223E+04;  0.0000000E+00; -1.3104274E+00;  4.0000000E+04;  0.0000000E+00;  4.0005605E+04; -1.6641358E-01;  0.0000000E+00;  3.8606260E-02;  2.0717612E+03;
  5.5427802E-01;  9.9999998E-03; -2.8989860E-01;5802;  2.8504080E-01;  0.0000000E+00; -7.4088704E-03;  9.9775909E+02;  1.0004845E-01; -1.8565352E+03;3; -1.9960924E+01;  0.0000000E+00; -8.5911198E+00;0; -1.2127825E-01;  3.9771445E+04;  0.0000000E+00; -1.0091550E+00;  4.0000000E+04;  0.0000000E+00;  4.0010320E+04; -1.6388887E-01;  0.0000000E+00;  4.2610623E-02;  2.0915510E+03;
  5.5421942E-01;  9.9999998E-03; -2.7989405E-01;5803;  2.8723818E-01;  0.0000000E+00; -7.1335249E-03;  9.9773230E+02;  1.0004848E-01; -1.8787567E+03;3; -2.0277662E+01;  0.0000000E+00; -9.0259800E+00;0; -1.1684187E-01;  3.9763625E+04;  0.0000000E+00; -7.9066849E-01;  4.0000000E+04;  0.0000000E+00;  4.0015949E+04; -1.6112509E-01;  0.0000000E+00;  4.4283230E-02;  2.5036343E+03;
  5.6447786E-01;  9.9999998E-03; -2.9991367E-01;5862;  2.8117976E-01;  0.0000000E+00; -9.2322165E-03;  9.9836774E+02;  1.0007927E-01; -1.3523033E+03;3; -1.9296036E+01;  0.0000000E+00; -7.7575078E+00;0; -1.3839158E-01;  3.9808727E+04;  0.0000000E+00; -2.0846283E+00;  4.0000000E+04;  0.0000000E+00;  3.9997758E+04; -1.7732674E-01;  0.0000000E+00;  3.8935155E-02;  2.9401194E+03;
  5.6440616E-01;  9.9999998E-03; -2.8990960E-01;5863;  2.8328741E-01;  0.0000000E+00; -8.9940634E-03;  9.9830365E+02;  1.0007907E-01; -1.4053881E+03;3; -1.9683140E+01;  0.0000000E+00; -8.2421837E+00;0; -1.3110679E-01;  3.9797875E+04;  0.0000000E+00; -1.6133450E+00;  4.0000000E+04;  0.0000000E+00;  4.0003098E+04; -1.7428622E-01;  0.0000000E+00;  4.3179426E-02;  2.3541223E+03;
  5.6435037E-01;  9.9999998E-03; -2.7990487E-01;5864;  2.8552115E-01;  0.0000000E+00; -8.6580738E-03;  9.9826050E+02;  1.0007924E-01; -1.4411401E+03;3; -2.0087250E+01;  0.0000000E+00; -8.6755972E+00;0; -1.2623633E-01;  3.9788055E+04;  0.0000000E+00; -1.2383956E+00;  4.0000000E+04;  0.0000000E+00;  4.0009379E+04; -1.7097133E-01;  0.0000000E+00;  4.4734996E-02;  2.2416953E+03;
  5.7454044E-01;  9.9999998E-03; -2.9992652E-01;5923;  2.7930340E-01;  0.0000000E+00; -1.0913948E-02;  9.9894293E+02;  1.0012961E-01; -8.7577460E+02;3; -1.8918875E+01;  0.0000000E+00; -7.3249388E+00;0; -1.4896493E-01;  3.9822824E+04;  0.0000000E+00; -2.6320531E+00;  4.0000000E+04;  0.0000000E+00;  3.9989688E+04; -1.8824223E-01;  0.0000000E+00;  3.9277300E-02;  3.8657048E+03;
  5.7448888E-01;  9.9999998E-03; -2.8992176E-01;5924;  2.8142902E-01;  0.0000000E+00; -1.0644452E-02;  9.9886780E+02;  1.0012963E-01; -9.3799481E+02;3; -1.9399256E+01;  0.0000000E+00; -7.8101926E+00;0; -1.4103028E-01;  3.9810410E+04;  0.0000000E+00; -2.1057782E+00;  4.0000000E+04;  0.0000000E+00;  3.9995801E+04; -1.8464488E-01;  0.0000000E+00;  4.3614592E-02;  2.9830537E+03;
  5.7444799E-01;  9.9999998E-03; -2.7991676E-01;5925;  2.8371406E-01;  0.0000000E+00; -1.0213297E-02;  9.9881274E+02;  1.0012996E-01; -9.8362299E+02;3; -1.9895527E+01;  0.0000000E+00; -8.2423277E+00;0; -1.3631365E-01;  3.9798883E+04;  0.0000000E+00; -1.6403869E+00;  4.0000000E+04;  0.0000000E+00;  4.0002766E+04; -1.8073894E-01;  0.0000000E+00;  4.4425298E-02;  2.3797590E+03;
  5.8452183E-01;  9.9999998E-03; -2.9993945E-01;5984;  2.7728391E-01;  0.0000000E+00; -1.2694464E-02;  9.9937036E+02;  1.0021140E-01; -5.2166211E+02;3; -1.8540735E+01;  0.0000000E+00; -6.8048353E+00;0; -1.5898189E-01;  3.9798836E+04;  0.0000000E+00; -2.6255000E+00;  4.0000000E+04;  0.0000000E+00;  3.9983184E+04; -1.9902936E-01;  0.0000000E+00;  4.0047474E-02;  4.1441396E+03;
  5.8449930E-01;  9.9999998E-03; -2.8993371E-01;5985;  2.7944094E-01;  0.0000000E+00; -1.2385176E-02;  9.9929309E+02;  1.0021161E-01; -5.8566003E+02;3; -1.9108072E+01;  0.0000000E+00; -7.3038492E+00;0; -1.5065421E-01;  3.9785379E+04;  0.0000000E+00; -2.2083888E+00;  4.0000000E+04;  0.0000000E+00;  3.9990117E+04; -1.9483314E-01;  0.0000000E+00;  4.4178929E-02;  3.2663882E+03;
  5.8448100E-01;  9.9999998E-03; -2.7992803E-01;5986;  2.8179052E-01;  0.0000000E+00; -1.1840487E-02;  9.9922980E+02;  1.0021186E-01; -6.3810278E+02;3; -1.9704224E+01;  0.0000000E+00; -7.7117600E+00;0; -1.4643769E-01;  3.9772621E+04;  0.0000000E+00; -1.7850970E+00;  4.0000000E+04;  0.0000000E+00;  3.9997684E+04; -1.9029289E-01;  0.0000000E+00;  4.3855209E-02;  2.5171829E+03;
  5.9442973E-01;  9.9999998E-03; -2.9995152E-01;6045;  2.7506241E-01;  0.0000000E+00; -1.4597805E-02;  9.9949921E+02;  1.0034303E-01; -4.1489990E+02;3; -1.8139137E+01;  0.0000000E+00; -6.2184982E+00;0; -1.6797790E-01;  3.9708488E+04;  0.0000000E+00; -2.0082049E+00;  4.0000000E+04;  0.0000000E+00;  3.9979812E+04; -2.0934030E-01;  0.0000000E+00;  4.1362405E-02;  3.5799636E+03;
  5.9443402E-01;  9.9999998E-03; -2.8994438E-01;6046;  2.7728361E-01;  0.0000000E+00; -1.4231740E-02;  9.9942706E+02;  1.0034364E-01; -4.7465103E+02;3; -1.8809004E+01;  0.0000000E+00; -6.7115040E+00;0; -1.5959723E-01;  3.9694539E+04;  0.0000000E+00; -1.8059900E+00;  4.0000000E+04;  0.0000000E+00;  3.9987508E+04; -2.0450781E-01;  0.0000000E+00;  4.4910580E-02;  2.8228801E+03;
  5.9443659E-01;  9.9999998E-03; -2.7993733E-01;6047;  2.7971962E-01;  0.0000000E+00; -1.3591239E-02;  9.9936487E+02;  1.0034408E-01; -5.2620490E+02;3; -1.9507639E+01;  0.0000000E+00; -7.1083927E+00;0; -1.5568256E-01;  3.9681086E+04;  0.0000000E+00; -1.5406677E+00;  4.0000000E+04;  0.0000000E+00;  3.9995562E+04; -1.9929320E-01;  0.0000000E+00;  4.3610629E-02;  2.1857915E+03;
  6.0430712E-01;  9.9999998E-03; -2.9996258E-01;6106;  2.7256435E-01;  0.0000000E+00; -1.6641466E-02;  9.9922888E+02;  1.0055289E-01; -6.3884265E+02;3; -1.7707441E+01;  0.0000000E+00; -5.5131860E+00;0; -1.7538598E-01;  3.9522207E+04;  0.0000000E+00; -1.0689275E+00;  4.0000000E+04;  0.0000000E+00;  3.9980406E+04; -2.1851784E-01;  0.0000000E+00;  4.3131858E-02;  2.4377913E+03;
  6.0432744E-01;  9.9999998E-03; -2.8995362E-01;6107;  2.7490333E-01;  0.0000000E+00; -1.6210031E-02;  9.9917334E+02;  1.0055371E-01; -6.8486578E+02;3; -1.8492041E+01;  0.0000000E+00; -6.0197949E+00;0; -1.6713709E-01;  3.9508254E+04;  0.0000000E+00; -1.0829839E+00;  4.0000000E+04;  0.0000000E+00;  3.9988836E+04; -2.1301408E-01;  0.0000000E+00;  4.5876991E-02;  1.7509244E+03;
  6.0434222E-01;  9.9999998E-03; -2.7994439E-01;6108;  2.7746567E-01;  0.0000000E+00; -1.5482207E-02;  9.9912097E+02;  1.0055427E-01; -7.2827173E+02;3; -1.9303137E+01;  0.0000000E+00; -6.4226694E+00;0; -1.6343984E-01;  3.9494871E+04;  0.0000000E+00; -1.0073152E+00;  4.0000000E+04;  0.0000000E+00;  3.9997465E+04; -2.0709714E-01;  0.0000000E+00;  4.3657310E-02;  1.4476779E+03;
  6.1417341E-01;  9.9999998E-03; -2.9997337E-01;6167;  2.6972371E-01;  0.0000000E+00; -1.8840596E-02;  9.9856177E+02;  1.0088022E-01; -1.1915636E+03;3; -1.7227247E+01;  0.0000000E+00; -4.6526136E+00;0; -1.7992523E-01;  3.9210773E+04;  0.0000000E+00; -1.2045157E-01;  4.0000000E+04;  0.0000000E+00;  3.9984754E+04; -2.2514240E-01;  0.0000000E+00;  4.5217164E-02;  1.0558560E+03;
  6.1420524E-01;  9.9999998E-03; -2.8996229E-01;6168;  2.7225122E-01;  0.0000000E+00; -1.8344788E-02;  9.9853223E+02;  1.0088188E-01; -1.2160072E+03;3; -1.8151028E+01;  0.0000000E+00; -5.2187061E+00;0; -1.7186055E-01;  3.9197867E+04;  0.0000000E+00; -3.1236932E-01;  4.0000000E+04;  0.0000000E+00;  3.9993855E+04; -2.1894364E-01;  0.0000000E+00;  4.7083091E-02;  4.5441360E+02;
  6.1422908E-01;  9.9999998E-03; -2.7995017E-01;6169;  2.7498993E-01;  0.0000000E+00; -1.7535571E-02;  9.9850433E+02;  1.0088298E-01; -1.2391176E+03;3; -1.9086117E+01;  0.0000000E+00; -5.6368289E+00;0; -1.6836292E-01;  3.9185199E+04;  0.0000000E+00; -3.9739415E-01;  4.0000000E+04;  0.0000000E+00;  4.0002953E+04; -2.1233423E-01;  0.0000000E+00;  4.3971322E-02;  1.3770166E+03;
  6.2403560E-01;  9.9999998E-03; -2.9998586E-01;6228;  2.6648679E-01;  0.0000000E+00; -2.1202888E-02;  9.9761896E+02;  1.0137705E-01; -1.9726211E+03;3; -1.6698244E+01;  0.0000000E+00; -3.6404781E+00;0; -1.7918204E-01;  3.8749574E+04;  0.0000000E+00;  4.4906029E-01;  4.0000000E+04;  0.0000000E+00;  3.9991016E+04; -2.2651818E-01;  0.0000000E+00;  4.7336143E-02;  6.9721918E+02;
  6.2408030E-01;  9.9999998E-03; -2.8997248E-01;6229;  2.6929179E-01;  0.0000000E+00; -2.0643657E-02;  9.9763226E+02;  1.0137958E-01; -1.9616091E+03;3; -1.7785419E+01;  0.0000000E+00; -4.2994795E+00;0; -1.7138694E-01;  3.8738449E+04;  0.0000000E+00;  1.8930387E-01;  4.0000000E+04;  0.0000000E+00;  4.0000609E+04; -2.1961953E-01;  0.0000000E+00;  4.8232581E-02;  1.4775983E+03;
  6.2411261E-01;  9.9999998E-03; -2.7995721E-01;6230;  2.7226764E-01;  0.0000000E+00; -1.9735066E-02;  9.9763989E+02;  1.0138189E-01; -1.9552885E+03;3; -1.8858835E+01;  0.0000000E+00; -4.7436638E+00;0; -1.6844252E-01;  3.8727707E+04;  0.0000000E+00;  5.1024202E-02;  4.0000000E+04;  0.0000000E+00;  4.0010102E+04; -2.1238668E-01;  0.0000000E+00;  4.3944173E-02;  2.6392490E+03;
  6.3390219E-01;  9.9999998E-03; -3.0000287E-01;6289;  2.6284721E-01;  0.0000000E+00; -2.3697257E-02;  9.9663959E+02;  1.0210041E-01; -2.7839963E+03;3; -1.6158625E+01;  0.0000000E+00; -2.4879005E+00;0; -1.6963215E-01;  3.8123035E+04;  0.0000000E+00;  1.5991338E-01;  4.0000000E+04;  0.0000000E+00;  3.9996199E+04; -2.1809383E-01;  0.0000000E+00;  4.8461672E-02;  1.5956703E+03;
  6.3396084E-01;  9.9999998E-03; -2.8998730E-01;6290;  2.6602325E-01;  0.0000000E+00; -2.3085123E-02;  9.9670789E+02;  1.0210469E-01; -2.7274551E+03;3; -1.7411369E+01;  0.0000000E+00; -3.2520072E+00;0; -1.6203392E-01;  3.8114613E+04;  0.0000000E+00;  5.7103820E-02;  4.0000000E+04;  0.0000000E+00;  4.0006172E+04; -2.1055105E-01;  0.0000000E+00;  4.8517141E-02;  2.8322783E+03;
  6.3400233E-01;  9.9999998E-03; -2.7996925E-01;6291;  2.6930258E-01;  0.0000000E+00; -2.2036223E-02;  9.9675983E+02;  1.0210804E-01; -2.6843950E+03;3; -1.8630325E+01;  0.0000000E+00; -3.7536550E+00;0; -1.6035761E-01;  3.8106574E+04;  0.0000000E+00;  7.4159920E-02;  4.0000000E+04;  0.0000000E+00;  4.0015512E+04; -2.0287850E-01;  0.0000000E+00;  4.2520896E-02;  3.9965706E+03;
  6.4378917E-01;  9.9999998E-03; -3.0002749E-01;6350;  2.5886077E-01;  0.0000000E+00; -2.6287947E-02;  9.9588782E+02;  1.0309999E-01; -3.4068330E+03;3; -1.5564238E+01;  0.0000000E+00; -1.1632477E+00;0; -1.4542083E-01;  3.7328934E+04;  0.0000000E+00; -1.4302709E+00;  4.0000000E+04;  0.0000000E+00;  3.9997008E+04; -1.9289602E-01;  0.0000000E+00;  4.7475193E-02;  3.3763374E+03;
  6.4386076E-01;  9.9999998E-03; -2.9000992E-01;6351;  2.6248619E-01;  0.0000000E+00; -2.5664039E-02;  9.9602002E+02;  1.0310655E-01; -3.2973062E+03;3; -1.6999649E+01;  0.0000000E+00; -2.0510983E+00;0; -1.3754499E-01;  3.7323441E+04;  0.0000000E+00; -1.0513242E+00;  4.0000000E+04;  0.0000000E+00;  4.0007219E+04; -1.8490471E-01;  0.0000000E+00;  4.7359727E-02;  4.1731499E+03;
  6.4390928E-01;  9.9999998E-03; -2.7999005E-01;6352;  2.6613542E-01;  0.0000000E+00; -2.4403419E-02;  9.9611835E+02;  1.0311127E-01; -3.2158279E+03;3; -1.8384146E+01;  0.0000000E+00; -2.6481419E+00;0; -1.3843535E-01;  3.7318711E+04;  0.0000000E+00; -5.7982332E-01;  4.0000000E+04;  0.0000000E+00;  4.0015730E+04; -1.7718565E-01;  0.0000000E+00;  3.8750306E-02;  4.9852021E+03;
  6.5372229E-01;  9.9999998E-03; -3.0006164E-01;6411;  2.5465983E-01;  0.0000000E+00; -2.8961333E-02;  9.9553210E+02;  1.0439869E-01; -3.7015320E+03;3; -1.4888852E+01;  0.0000000E+00;  3.8632348E-01;0; -9.7356878E-02;  3.6380789E+04;  0.0000000E+00; -4.4950361E+00;  4.0000000E+04;  0.0000000E+00;  3.9991422E+04; -1.4098066E-01;  0.0000000E+00;  4.3623783E-02;  7.6046880E+03;
  6.5380168E-01;  9.9999998E-03; -2.9004246E-01;6412;  2.5876546E-01;  0.0000000E+00; -2.8409977E-02;  9.9572137E+02;  1.0440704E-01; -3.5446985E+03;3; -1.6501766E+01;  0.0000000E+00; -5.4817927E-01;0; -8.8285066E-02;  3.6378184E+04;  0.0000000E+00; -3.2954860E+00;  4.0000000E+04;  0.0000000E+00;  4.0001578E+04; -1.3307475E-01;  0.0000000E+00;  4.4789679E-02;  6.6748345E+03;
  6.5385240E-01;  9.9999998E-03; -2.8002185E-01;6413;  2.6283309E-01;  0.0000000E+00; -2.6905496E-02;  9.9586102E+02;  1.0441256E-01; -3.4290488E+03;3; -1.8103113E+01;  0.0000000E+00; -1.3927431E+00;0; -9.2912063E-02;  3.6376859E+04;  0.0000000E+00; -2.0489035E+00;  4.0000000E+04;  0.0000000E+00;  4.0008766E+04; -1.2608129E-01;  0.0000000E+00;  3.3169225E-02;  6.0546201E+03;
  6.6373223E-01;  9.9999998E-03; -3.0010551E-01;6472;  2.5043949E-01;  0.0000000E+00; -3.1715427E-02;  9.9558392E+02;  1.0598221E-01; -3.6585637E+03;3; -1.4157788E+01;  0.0000000E+00;  2.1857619E+00;0; -1.2936920E-02;  3.5309176E+04;  0.0000000E+00; -8.7449436E+00;  4.0000000E+04;  0.0000000E+00;  3.9979293E+04; -4.9342647E-02;  0.0000000E+00;  3.6405727E-02;  1.4252035E+04;
  6.6381532E-01;  9.9999998E-03; -2.9008526E-01;6473;  2.5500721E-01;  0.0000000E+00; -3.1338710E-02;  9.9581427E+02;  1.0599209E-01; -3.4677568E+03;3; -1.5972960E+01;  0.0000000E+00;  1.2336667E+00;0; -2.0821579E-03;  3.5308543E+04;  0.0000000E+00; -6.4729705E+00;  4.0000000E+04;  0.0000000E+00;  3.9989375E+04; -4.2616643E-02;  0.0000000E+00;  4.0534485E-02;  1.1134601E+04;
  6.6386527E-01;  9.9999998E-03; -2.8006455E-01;6474;  2.5950351E-01;  0.0000000E+00; -2.9673725E-02;  9.9598749E+02;  1.0599858E-01; -3.3242566E+03;3; -1.7760818E+01;  0.0000000E+00;  1.2765615E-01;0; -1.0460217E-02;  3.5310391E+04;  0.0000000E+00; -4.2091470E+00;  4.0000000E+04;  0.0000000E+00;  3.9995043E+04; -3.7678123E-02;  0.0000000E+00;  2.7217906E-02;  8.2689346E+03;
  6.7389441E-01;  9.9999998E-03; -3.0015856E-01;6533;  2.4638699E-01;  0.0000000E+00; -3.4602080E-02;  9.9601141E+02;  1.0781433E-01; -3.3043984E+03;3; -1.3383331E+01;  0.0000000E+00;  4.2237120E+00;0;  1.2442619E-01;  3.4156285E+04;  0.0000000E+00; -1.3019277E+01;  4.0000000E+04;  0.0000000E+00;  3.9961875E+04;  9.8238558E-02;  0.0000000E+00;  2.6187634E-02;  2.1541566E+04;
  6.7396790E-01;  9.9999998E-03; -2.9013762E-01;6534;  2.5136620E-01;  0.0000000E+00; -3.4499582E-02;  9.9625616E+02;  1.0782382E-01; -3.1016418E+03;3; -1.5350620E+01;  0.0000000E+00;  3.3272388E+00;0;  1.3660835E-01;  3.4157195E+04;  0.0000000E+00; -9.7913570E+00;  4.0000000E+04;  0.0000000E+00;  3.9971410E+04;  1.0170966E-01;  0.0000000E+00;  3.4898687E-02;  1.6518424E+04;
  6.7401117E-01;  9.9999998E-03; -2.8011671E-01;6535;  2.5625378E-01;  0.0000000E+00; -3.2967363E-02;  9.9644989E+02;  1.0782924E-01; -2.9411550E+03;3; -1.7348555E+01;  0.0000000E+00;  2.0084894E+00;0;  1.2658936E-01;  3.4161562E+04;  0.0000000E+00; -6.5355792E+00;  4.0000000E+04;  0.0000000E+00;  3.9976340E+04;  1.0244703E-01;  0.0000000E+00;  2.4142323E-02;  1.1549799E+04;
  6.8456018E-01;  9.9999998E-03; -3.0022189E-01;6594;  2.4247810E-01;  0.0000000E+00; -3.7827939E-02;  9.9686493E+02;  1.0988335E-01; -2.5973113E+03;3; -1.2561645E+01;  0.0000000E+00;  6.5449071E+00;0;  3.4209192E-01;  3.2953191E+04;  0.0000000E+00; -1.3905622E+01;  4.0000000E+04;  0.0000000E+00;  3.9938902E+04;  3.2746834E-01;  0.0000000E+00;  1.4623573E-02;  2.3753275E+04;
  6.8455869E-01;  9.9999998E-03; -2.9020035E-01;6595;  2.4792229E-01;  0.0000000E+00; -3.7973385E-02;  9.9709448E+02;  1.0988358E-01; -2.4070979E+03;3; -1.4656424E+01;  0.0000000E+00;  5.8188667E+00;0;  3.5049862E-01;  3.2959309E+04;  0.0000000E+00; -1.0874157E+01;  4.0000000E+04;  0.0000000E+00;  3.9947512E+04;  3.2295707E-01;  0.0000000E+00;  2.7541544E-02;  1.8759248E+04;
  6.8452299E-01;  9.9999998E-03; -2.8017846E-01;6596;  2.5315520E-01;  0.0000000E+00; -3.7056051E-02;  9.9730322E+02;  1.0987888E-01; -2.2341677E+03;3; -1.6815285E+01;  0.0000000E+00;  4.4107823E+00;0;  3.4127164E-01;  3.2970070E+04;  0.0000000E+00; -7.6206512E+00;  4.0000000E+04;  0.0000000E+00;  3.9952852E+04;  3.1460181E-01;  0.0000000E+00;  2.6669839E-02;  1.3432219E+04;
  6.9641507E-01;  9.9999998E-03; -3.0030176E-01;6655;  2.3853490E-01;  0.0000000E+00; -4.1867074E-02;  9.9857141E+02;  1.1225375E-01; -1.1835458E+03;3; -1.2091540E+01;  0.0000000E+00;  9.0192165E+00;0;  6.9370890E-01;  3.1712559E+04;  0.0000000E+00; -7.9338975E+00;  4.0000000E+04;  0.0000000E+00;  3.9905625E+04;  6.8748087E-01;  0.0000000E+00;  6.2280232E-03;  1.4540627E+04;
  6.9632745E-01;  9.9999998E-03; -2.9027951E-01;6656;  2.4464169E-01;  0.0000000E+00; -4.2152777E-02;  9.9872913E+02;  1.1223754E-01; -1.0528856E+03;3; -1.4079947E+01;  0.0000000E+00;  8.6018667E+00;0;  6.8909323E-01;  3.1723871E+04;  0.0000000E+00; -6.4598050E+00;  4.0000000E+04;  0.0000000E+00;  3.9913406E+04;  6.6837579E-01;  0.0000000E+00;  2.0717470E-02;  1.1903000E+04;
  6.9615060E-01;  9.9999998E-03; -2.8025639E-01;6657;  2.5024664E-01;  0.0000000E+00; -4.2126283E-02;  9.9888696E+02;  1.1220864E-01; -9.2212677E+02;3; -1.6169615E+01;  0.0000000E+00;  7.7043443E+00;0;  6.7623138E-01;  3.1743338E+04;  0.0000000E+00; -4.8411465E+00;  4.0000000E+04;  0.0000000E+00;  3.9919727E+04;  6.4258593E-01;  0.0000000E+00;  3.3645451E-02;  9.0340205E+03;
  7.0905328E-01;  9.9999998E-03; -3.0039889E-01;6716;  2.3513970E-01;  0.0000000E+00; -4.7074314E-02;  1.0014663E+03;  1.1480206E-01;  1.2147485E+03;3; -1.1516754E+01;  0.0000000E+00;  1.1985620E+01;0;  1.2185992E+00;  3.0537984E+04;  0.0000000E+00; -2.0829511E+00;  4.0000000E+04;  0.0000000E+00;  3.9858980E+04;  1.2052780E+00;  0.0000000E+00;  1.3321158E-02;  7.5182910E+03;
  7.0901138E-01;  9.9999998E-03; -2.9037771E-01;6717;  2.4187882E-01;  0.0000000E+00; -4.7362864E-02;  1.0015627E+03;  1.1478857E-01;  1.2946454E+03;3; -1.3514091E+01;  0.0000000E+00;  1.1749555E+01;0;  1.1938636E+00;  3.0545205E+04;  0.0000000E+00; -1.5553671E+00;  4.0000000E+04;  0.0000000E+00;  3.9864898E+04;  1.1698415E+00;  0.0000000E+00;  2.4022082E-02;  6.3925718E+03;
  7.0886070E-01;  9.9999998E-03; -2.8035530E-01;6718;  2.4781045E-01;  0.0000000E+00; -4.8024312E-02;  1.0016480E+03;  1.1475861E-01;  1.3653578E+03;3; -1.5739149E+01;  0.0000000E+00;  1.1458604E+01;0;  1.1693509E+00;  3.0559676E+04;  0.0000000E+00; -1.0213147E+00;  4.0000000E+04;  0.0000000E+00;  3.9871848E+04;  1.1249998E+00;  0.0000000E+00;  4.4351056E-02;  5.1457598E+03;
  7.2069657E-01;  9.9999998E-03; -3.0049282E-01;6777;  2.3342392E-01;  0.0000000E+00; -5.2267794E-02;  1.0043201E+03;  1.1706147E-01;  3.5790461E+03;3; -1.0436299E+01;  0.0000000E+00;  1.5374927E+01;0;  1.8367685E+00;  2.9578225E+04;  0.0000000E+00; -1.6506717E+00;  4.0000000E+04;  0.0000000E+00;  3.9813336E+04;  1.8041948E+00;  0.0000000E+00;  3.2573648E-02;  1.0873282E+04;
  7.2083706E-01;  9.9999998E-03; -2.9047465E-01;6778;  2.4042185E-01;  0.0000000E+00; -5.2653756E-02;  1.0044478E+03;  1.1707418E-01;  3.6848174E+03;3; -1.2775897E+01;  0.0000000E+00;  1.5024481E+01;0;  1.7970738E+00;  2.9576297E+04;  0.0000000E+00; -1.3829415E+00;  4.0000000E+04;  0.0000000E+00;  3.9816121E+04;  1.7586333E+00;  0.0000000E+00;  3.8440533E-02;  1.0421204E+04;
  7.2090375E-01;  9.9999998E-03; -2.8045574E-01;6779;  2.4643594E-01;  0.0000000E+00; -5.3908516E-02;  1.0045677E+03;  1.1707632E-01;  3.7841689E+03;3; -1.5115602E+01;  0.0000000E+00;  1.5138574E+01;0;  1.7640767E+00;  2.9577016E+04;  0.0000000E+00; -8.9943850E-01;  4.0000000E+04;  0.0000000E+00;  3.9822141E+04;  1.7030586E+00;  0.0000000E+00;  6.1018165E-02;  9.4864902E+03;
  7.3213995E-01;  9.9999998E-03; -3.0057779E-01;6838;  2.3422757E-01;  0.0000000E+00; -5.6562383E-02;  1.0062277E+03;  1.1896167E-01;  5.1593657E+03;3; -8.4170132E+00;  0.0000000E+00;  1.9872162E+01;0;  2.5396898E+00;  2.8781258E+04;  0.0000000E+00; -2.9247874E-01;  4.0000000E+04;  0.0000000E+00;  3.9777375E+04;  2.4905803E+00;  0.0000000E+00;  4.9109455E-02;  1.3651932E+04;
  7.3231840E-01;  9.9999998E-03; -2.9056144E-01;6839;  2.4087641E-01;  0.0000000E+00; -5.7321586E-02;  1.0063549E+03;  1.1897618E-01;  5.2647412E+03;3; -1.1105439E+01;  0.0000000E+00;  1.9442623E+01;0;  2.4826279E+00;  2.8780508E+04;  0.0000000E+00; -8.4724635E-01;  4.0000000E+04;  0.0000000E+00;  3.9777637E+04;  2.4277604E+00;  0.0000000E+00;  5.4867435E-02;  1.3679753E+04;
  7.3243761E-01;  9.9999998E-03; -2.8054497E-01;6840;  2.4656178E-01;  0.0000000E+00; -5.9260253E-02;  1.0064796E+03;  1.1898484E-01;  5.3680430E+03;3; -1.4078374E+01;  0.0000000E+00;  1.9363268E+01;0;  2.4343712E+00;  2.8779596E+04;  0.0000000E+00; -9.1217601E-01;  4.0000000E+04;  0.0000000E+00;  3.9782387E+04;  2.3540826E+00;  0.0000000E+00;  8.0288559E-02;  1.3110403E+04;
  7.4445271E-01;  9.9999998E-03; -3.0065417E-01;6899;  2.4013624E-01;  0.0000000E+00; -5.8668241E-02;  1.0068899E+03;  1.2052686E-01;  5.7079287E+03;3; -4.7894263E+00;  0.0000000E+00;  2.5527678E+01;0;  3.3405867E+00;  2.8095168E+04;  0.0000000E+00;  3.6482100E+00;  4.0000000E+04;  0.0000000E+00;  3.9753586E+04;  3.2981014E+00;  0.0000000E+00;  4.2485159E-02;  1.7553205E+04;
  7.4453771E-01;  9.9999998E-03; -2.9063907E-01;6900;  2.4544087E-01;  0.0000000E+00; -6.0172267E-02;  1.0069800E+03;  1.2052742E-01;  5.7825903E+03;3; -7.8202600E+00;  0.0000000E+00;  2.5270840E+01;0;  3.2643843E+00;  2.8101271E+04;  0.0000000E+00;  1.8530998E+00;  4.0000000E+04;  0.0000000E+00;  3.9751121E+04;  3.2093983E+00;  0.0000000E+00;  5.4986041E-02;  1.6502797E+04;
  7.4459314E-01;  9.9999998E-03; -2.8062505E-01;6901;  2.5022140E-01;  0.0000000E+00; -6.3134007E-02;  1.0070781E+03;  1.2052510E-01;  5.8638677E+03;3; -1.1540252E+01;  0.0000000E+00;  2.5688263E+01;0;  3.1994202E+00;  2.8105955E+04;  0.0000000E+00;  6.5122479E-01;  4.0000000E+04;  0.0000000E+00;  3.9753324E+04;  3.1100433E+00;  0.0000000E+00;  8.9376956E-02;  1.5736518E+04;
  7.5673556E-01;  9.9999998E-03; -3.0071539E-01;6960;  2.6548973E-01;  0.0000000E+00; -5.6129105E-02;  1.0063306E+03;  1.2159508E-01;  5.2445088E+03;3;  1.1485106E+01;  0.0000000E+00;  3.3651279E+01;0;  4.0875211E+00;  2.7578662E+04;  0.0000000E+00;  6.1754093E+00;  4.0000000E+04;  0.0000000E+00;  3.9743570E+04;  4.1053319E+00;  0.0000000E+00; -1.7810928E-02;  2.0954441E+04;
  7.5683153E-01;  9.9999998E-03; -2.9070267E-01;6961;  2.7037841E-01;  0.0000000E+00; -5.8709968E-02;  1.0063830E+03;  1.2159501E-01;  5.2878623E+03;3;  9.2539291E+00;  0.0000000E+00;  3.3674168E+01;0;  4.0109515E+00;  2.7585250E+04;  0.0000000E+00;  3.7593169E+00;  4.0000000E+04;  0.0000000E+00;  3.9737879E+04;  4.0017052E+00;  0.0000000E+00;  9.2463102E-03;  1.8825186E+04;
  7.5690961E-01;  9.9999998E-03; -2.8069177E-01;6962;  2.7564800E-01;  0.0000000E+00; -6.3298687E-02;  1.0064585E+03;  1.2159396E-01;  5.3504741E+03;3;  6.9445338E+00;  0.0000000E+00;  3.3902203E+01;0;  3.9507706E+00;  2.7590689E+04;  0.0000000E+00;  1.9434781E+00;  4.0000000E+04;  0.0000000E+00;  3.9736629E+04;  3.8854489E+00;  0.0000000E+00;  6.5321594E-02;  1.7563926E+04;
  7.6920545E-01;  9.9999998E-03; -3.0076620E-01;7021;  3.6418089E-01;  0.0000000E+00; -5.1122833E-02;  1.0052076E+03;  1.2227397E-01;  4.3141665E+03;3;  6.0546741E+01;  0.0000000E+00;  3.9431137E+01;0;  4.7210460E+00;  2.7208502E+04;  0.0000000E+00;  4.8970661E+00;  4.0000000E+04;  0.0000000E+00;  3.9740695E+04;  4.8123393E+00;  0.0000000E+00; -9.1293342E-02;  1.9289361E+04;
  7.6922280E-01;  9.9999998E-03; -2.9075488E-01;7022;  3.6426240E-01;  0.0000000E+00; -5.4701138E-02;  1.0052214E+03;  1.2227114E-01;  4.3256221E+03;3;  5.6929642E+01;  0.0000000E+00;  3.9781254E+01;0;  4.6483040E+00;  2.7215457E+04;  0.0000000E+00;  3.1791291E+00;  4.0000000E+04;  0.0000000E+00;  3.9733789E+04;  4.6982684E+00;  0.0000000E+00; -4.9964555E-02;  1.8298559E+04;
  7.6922798E-01;  9.9999998E-03; -2.8074539E-01;7023;  3.6437255E-01;  0.0000000E+00; -6.0207881E-02;  1.0052796E+03;  1.2226761E-01;  4.3738149E+03;3;  5.3320198E+01;  0.0000000E+00;  3.9380852E+01;0;  4.5885167E+00;  2.7221957E+04;  0.0000000E+00;  1.8024863E+00;  4.0000000E+04;  0.0000000E+00;  3.9731504E+04;  4.5696392E+00;  0.0000000E+00;  1.8877607E-02;  1.7561691E+04;
  7.8235316E-01;  9.9999998E-03; -3.0080554E-01;7082;  5.1007676E-01;  0.0000000E+00; -4.6159409E-02;  1.0040635E+03;  1.2268790E-01;  3.3662566E+03;3;  1.1304428E+02;  0.0000000E+00;  4.0999477E+01;0;  5.2146001E+00;  2.6951107E+04;  0.0000000E+00; -5.5514926E-01;  4.0000000E+04;  0.0000000E+00;  3.9746988E+04;  5.3439755E+00;  0.0000000E+00; -1.2937553E-01;  1.4569528E+04;
  7.8214353E-01;  9.9999998E-03; -2.9079500E-01;7083;  5.0005203E-01;  0.0000000E+00; -5.0714351E-02;  1.0040565E+03;  1.2268199E-01;  3.3604309E+03;3;  1.0705208E+02;  0.0000000E+00;  4.0664055E+01;0;  5.1525917E+00;  2.6957926E+04;  0.0000000E+00; -1.4259388E-01;  4.0000000E+04;  0.0000000E+00;  3.9740449E+04;  5.2291918E+00;  0.0000000E+00; -7.6599911E-02;  1.5404104E+04;
  7.8193665E-01;  9.9999998E-03; -2.8078717E-01;7084;  4.8814225E-01;  0.0000000E+00; -5.6697778E-02;  1.0040797E+03;  1.2267628E-01;  3.3796892E+03;3;  1.0116386E+02;  0.0000000E+00;  3.9757355E+01;0;  5.0945010E+00;  2.6964299E+04;  0.0000000E+00;  6.5733112E-02;  4.0000000E+04;  0.0000000E+00;  3.9737320E+04;  5.0999589E+00;  0.0000000E+00; -5.4579838E-03;  1.5800817E+04;
  7.9531258E-01;  9.9999998E-03; -3.0082628E-01;7143;  6.6931617E-01;  0.0000000E+00; -4.2443022E-02;  1.0027808E+03;  1.2291922E-01;  2.3036155E+03;3;  1.6064740E+02;  0.0000000E+00;  3.8713669E+01;0;  5.4886150E+00;  2.6760877E+04;  0.0000000E+00; -2.0817680E+00;  4.0000000E+04;  0.0000000E+00;  3.9767301E+04;  5.6023293E+00;  0.0000000E+00; -1.1371416E-01;  1.2166386E+04;
  7.9521912E-01;  9.9999998E-03; -2.9081815E-01;7144;  6.5015864E-01;  0.0000000E+00; -4.7084425E-02;  1.0028372E+03;  1.2291573E-01;  2.3503259E+03;3;  1.5429398E+02;  0.0000000E+00;  3.8080654E+01;0;  5.4476433E+00;  2.6769416E+04;  0.0000000E+00; -1.6363102E+00;  4.0000000E+04;  0.0000000E+00;  3.9760859E+04;  5.5115371E+00;  0.0000000E+00; -6.3893564E-02;  1.2732993E+04;
  7.9499900E-01;  9.9999998E-03; -2.8081289E-01;7145;  6.2770730E-01;  0.0000000E+00; -5.3556249E-02;  1.0028837E+03;  1.2291154E-01;  2.3888406E+03;3;  1.4783754E+02;  0.0000000E+00;  3.7725044E+01;0;  5.4136820E+00;  2.6776828E+04;  0.0000000E+00; -1.0079305E+00;  4.0000000E+04;  0.0000000E+00;  3.9756812E+04;  5.4066095E+00;  0.0000000E+00;  7.0723086E-03;  1.3043531E+04;
  8.0679995E-01;  9.9999998E-03; -3.0082864E-01;7204;  8.0340314E-01;  0.0000000E+00; -3.7196163E-02;  1.0011190E+03;  1.2304325E-01;  9.2688068E+02;3;  1.9566035E+02;  0.0000000E+00;  3.3465065E+01;0;  5.4940042E+00;  2.6595010E+04;  0.0000000E+00;  1.6971465E+00;  4.0000000E+04;  0.0000000E+00;  3.9797109E+04;  5.6050920E+00;  0.0000000E+00; -1.1108789E-01;  8.5295566E+03;
  8.0674970E-01;  9.9999998E-03; -2.9082268E-01;7205;  7.7626801E-01;  0.0000000E+00; -4.1249800E-02;  1.0012501E+03;  1.2304074E-01;  1.0355073E+03;3;  1.8848691E+02;  0.0000000E+00;  3.4039318E+01;0;  5.4666190E+00;  2.6607033E+04;  0.0000000E+00;  1.3055122E+00;  4.0000000E+04;  0.0000000E+00;  3.9790602E+04;  5.5382771E+00;  0.0000000E+00; -7.1658082E-02;  8.9810557E+03;
  8.0669945E-01;  9.9999998E-03; -2.8081897E-01;7206;  7.4830049E-01;  0.0000000E+00; -4.6680477E-02;  1.0013568E+03;  1.2303779E-01;  1.1239888E+03;3;  1.8147491E+02;  0.0000000E+00;  3.4670017E+01;0;  5.4463096E+00;  2.6616344E+04;  0.0000000E+00;  9.7558630E-01;  4.0000000E+04;  0.0000000E+00;  3.9786707E+04;  5.4631763E+00;  0.0000000E+00; -1.6866649E-02;  9.2421729E+03;
  8.1816626E-01;  9.9999998E-03; -3.0081362E-01;7265;  9.1153777E-01;  0.0000000E+00; -2.8173497E-02;  9.9898053E+02;  1.2312122E-01; -8.4450409E+02;3;  2.1474951E+02;  0.0000000E+00;  2.6769636E+01;0;  5.2524996E+00;  2.6421248E+04;  0.0000000E+00;  3.4888346E+00;  4.0000000E+04;  0.0000000E+00;  3.9839152E+04;  5.4117684E+00;  0.0000000E+00; -1.5926883E-01;  7.5445645E+03;
  8.1810707E-01;  9.9999998E-03; -2.9081169E-01;7266;  8.7768418E-01;  0.0000000E+00; -2.9868744E-02;  9.9917761E+02;  1.2311785E-01; -6.8122229E+02;3;  2.0705243E+02;  0.0000000E+00;  2.7995539E+01;0;  5.2169719E+00;  2.6438455E+04;  0.0000000E+00;  2.7813244E+00;  4.0000000E+04;  0.0000000E+00;  3.9829559E+04;  5.3726110E+00;  0.0000000E+00; -1.5563914E-01;  6.6766562E+03;
  8.1803608E-01;  9.9999998E-03; -2.8081471E-01;7267;  8.4172666E-01;  0.0000000E+00; -3.2144085E-02;  9.9929700E+02;  1.2311504E-01; -5.8232483E+02;3;  1.9919437E+02;  0.0000000E+00;  2.9316059E+01;0;  5.1926618E+00;  2.6452791E+04;  0.0000000E+00;  2.1484478E+00;  4.0000000E+04;  0.0000000E+00;  3.9818527E+04;  5.3309903E+00;  0.0000000E+00; -1.3832836E-01;  6.5059458E+03;
  8.2965100E-01;  9.9999998E-03; -3.0078351E-01;7326;  9.8992628E-01;  0.0000000E+00; -1.9226633E-02;  9.9621844E+02;  1.2317632E-01; -3.1324465E+03;3;  2.1495621E+02;  0.0000000E+00;  1.8825460E+01;0;  4.8437262E+00;  2.6224393E+04;  0.0000000E+00;  2.4791741E+00;  4.0000000E+04;  0.0000000E+00;  3.9890852E+04;  5.0394530E+00;  0.0000000E+00; -1.9572684E-01;  7.0975356E+03;
  8.2957226E-01;  9.9999998E-03; -2.9078615E-01;7327;  9.5394385E-01;  0.0000000E+00; -1.7618803E-02;  9.9648145E+02;  1.2317254E-01; -2.9146113E+03;3;  2.0718994E+02;  0.0000000E+00;  2.1021696E+01;0;  4.7902641E+00;  2.6247527E+04;  0.0000000E+00;  2.0341153E+00;  4.0000000E+04;  0.0000000E+00;  3.9876887E+04;  5.0330825E+00;  0.0000000E+00; -2.4281837E-01;  5.2158882E+03;
  8.2948691E-01;  9.9999998E-03; -2.8079745E-01;7328;  9.1597217E-01;  0.0000000E+00; -1.5928678E-02;  9.9661572E+02;  1.2316905E-01; -2.8033738E+03;3;  1.9917397E+02;  0.0000000E+00;  2.4532469E+01;0;  4.7573867E+00;  2.6268818E+04;  0.0000000E+00;  1.6973406E+00;  4.0000000E+04;  0.0000000E+00;  3.9855852E+04;  5.0297766E+00;  0.0000000E+00; -2.7238983E-01;  3.5596016E+03;
  8.4131867E-01;  9.9999998E-03; -2.8076476E-01;7389;  9.7350985E-01;  0.0000000E+00; -3.0548237E-03;  9.9343127E+02;  1.2321068E-01; -5.4410298E+03;3;  1.8001950E+02;  0.0000000E+00;  1.9823841E+01;0;  4.2323847E+00;  2.6064254E+04;  0.0000000E+00;  3.7927991E-01;  4.0000000E+04;  0.0000000E+00;  3.9901148E+04;  4.5830259E+00;  0.0000000E+00; -3.5064101E-01;  6.4082402E+03;
  8.4137619E-01;  9.9999998E-03; -2.9074842E-01;7388;  1.0052490E+00;  0.0000000E+00; -8.8162860E-03;  9.9325073E+02;  1.2321473E-01; -5.5905762E+03;3;  1.8894148E+02;  0.0000000E+00;  1.5176432E+01;0;  4.2779574E+00;  2.6036186E+04;  0.0000000E+00;  6.9151618E-02;  4.0000000E+04;  0.0000000E+00;  3.9929254E+04;  4.5440679E+00;  0.0000000E+00; -2.6611042E-01;  9.9142832E+03;
  8.4141386E-01;  9.9999998E-03; -3.0074364E-01;7387;  1.0353322E+00;  0.0000000E+00; -1.3520642E-02;  9.9291858E+02;  1.2321891E-01; -5.8657251E+03;3;  1.9493265E+02;  0.0000000E+00;  1.1562793E+01;0;  4.3440695E+00;  2.6008449E+04;  0.0000000E+00; -2.1663897E-01;  4.0000000E+04;  0.0000000E+00;  3.9945145E+04;  4.5141220E+00;  0.0000000E+00; -1.7005275E-01;  1.1942558E+04;
  8.5396475E-01;  9.9999998E-03; -2.8072128E-01;7450;  1.0254955E+00;  0.0000000E+00;  3.3816912E-03;  9.8993951E+02;  1.2323371E-01; -8.3330020E+03;3;  1.4082295E+02;  0.0000000E+00;  1.8191925E+01;0;  3.6959260E+00;  2.5855117E+04;  0.0000000E+00; -1.4939511E-01;  4.0000000E+04;  0.0000000E+00;  3.9947656E+04;  4.0259786E+00;  0.0000000E+00; -3.3005255E-01;  1.2584359E+04;
  8.5397881E-01;  9.9999998E-03; -2.9070508E-01;7449;  1.0464051E+00;  0.0000000E+00; -3.2237798E-03;  9.8965485E+02;  1.2323876E-01; -8.5687920E+03;3;  1.3383446E+02;  0.0000000E+00;  1.3869435E+01;0;  3.7133586E+00;  2.5820973E+04;  0.0000000E+00; -6.7888045E-01;  4.0000000E+04;  0.0000000E+00;  3.9977238E+04;  3.9442768E+00;  0.0000000E+00; -2.3091821E-01;  1.6359535E+04;
  8.5393697E-01;  9.9999998E-03; -3.0069992E-01;7448;  1.0604198E+00;  0.0000000E+00; -8.3460324E-03;  9.8926434E+02;  1.2324326E-01; -8.8922158E+03;3;  1.1711248E+02;  0.0000000E+00;  5.7549825E+00;0;  3.7425005E+00;  2.5790543E+04;  0.0000000E+00; -1.4117237E+00;  4.0000000E+04;  0.0000000E+00;  3.9992953E+04;  3.8753133E+00;  0.0000000E+00; -1.3281265E-01;  1.8520215E+04;
  8.6709118E-01;  9.9999998E-03; -3.0065483E-01;7509;  1.0638372E+00;  0.0000000E+00; -1.9888738E-03;  9.8604810E+02;  1.2322614E-01; -1.1555637E+04;3;  1.8855709E+01;  0.0000000E+00; -2.1892872E+00;0;  3.0961900E+00;  2.5620396E+04;  0.0000000E+00;  1.4839272E-01;  4.0000000E+04;  0.0000000E+00;  4.0030688E+04;  3.2209532E+00;  0.0000000E+00; -1.2476323E-01;  2.3436496E+04;
  8.6711383E-01;  9.9999998E-03; -2.9065961E-01;7510;  1.0580219E+00;  0.0000000E+00;  3.4888939E-03;  9.8652258E+02;  1.2322093E-01; -1.1162671E+04;3;  1.9245743E+01;  0.0000000E+00;  1.4471408E+01;0;  3.1020010E+00;  2.5654469E+04;  0.0000000E+00;  3.9016792E-01;  4.0000000E+04;  0.0000000E+00;  4.0015570E+04;  3.3237958E+00;  0.0000000E+00; -2.2179481E-01;  2.1497455E+04;
  8.6705309E-01;  9.9999998E-03; -2.8067306E-01;7511;  1.0491773E+00;  0.0000000E+00;  9.3000717E-03;  9.8694519E+02;  1.2321538E-01; -1.0812607E+04;3;  5.0952991E+01;  0.0000000E+00;  2.3392073E+01;0;  3.1389508E+00;  2.5694387E+04;  0.0000000E+00;  4.6637496E-01;  4.0000000E+04;  0.0000000E+00;  3.9987562E+04;  3.4438095E+00;  0.0000000E+00; -3.0485865E-01;  1.7950469E+04;
  8.8043201E-01;  9.9999998E-03; -3.0061442E-01;7570;  1.0541228E+00;  0.0000000E+00;  4.7102165E-03;  9.8419855E+02;  1.2313408E-01; -1.3086693E+04;3; -2.9221146E+01;  0.0000000E+00; -2.8242779E+00;0;  2.5454893E+00;  2.5559057E+04;  0.0000000E+00;  2.2013185E+00;  4.0000000E+04;  0.0000000E+00;  4.0051176E+04;  2.6833830E+00;  0.0000000E+00; -1.3789363E-01;  2.6602027E+04;
  8.8039154E-01;  9.9999998E-03; -2.9061759E-01;7571;  1.0520868E+00;  0.0000000E+00;  9.9944267E-03;  9.8472858E+02;  1.2312938E-01; -1.2647749E+04;3; -3.4822987E+01;  0.0000000E+00;  1.6665854E+01;0;  2.5788765E+00;  2.5594498E+04;  0.0000000E+00;  1.8055681E+00;  4.0000000E+04;  0.0000000E+00;  4.0037727E+04;  2.8047400E+00;  0.0000000E+00; -2.2586346E-01;  2.4744574E+04;
  8.8026625E-01;  9.9999998E-03; -2.8062657E-01;7572;  1.0491579E+00;  0.0000000E+00;  1.4805287E-02;  9.8523920E+02;  1.2312376E-01; -1.2224853E+04;3; -2.2249521E+01;  0.0000000E+00;  2.6436810E+01;0;  2.6534727E+00;  2.5636158E+04;  0.0000000E+00;  1.4003725E+00;  4.0000000E+04;  0.0000000E+00;  4.0013309E+04;  2.9442499E+00;  0.0000000E+00; -2.9077730E-01;  2.1545859E+04;
  8.9387590E-01;  9.9999998E-03; -3.0058393E-01;7631;  1.0432770E+00;  0.0000000E+00;  8.5056787E-03;  9.8421155E+02;  1.2293690E-01; -1.3074931E+04;3; -5.6584103E+01;  0.0000000E+00; -4.0941010E+00;0;  2.2232261E+00;  2.5645852E+04;  0.0000000E+00;  2.7968211E+00;  4.0000000E+04;  0.0000000E+00;  4.0049328E+04;  2.3484628E+00;  0.0000000E+00; -1.2523676E-01;  2.6567758E+04;
  8.9375418E-01;  9.9999998E-03; -2.9058480E-01;7632;  1.0436038E+00;  0.0000000E+00;  1.3754362E-02;  9.8471887E+02;  1.2293296E-01; -1.2654833E+04;3; -5.8630642E+01;  0.0000000E+00;  1.6741844E+01;0;  2.2618139E+00;  2.5678455E+04;  0.0000000E+00;  2.2680454E+00;  4.0000000E+04;  0.0000000E+00;  4.0037918E+04;  2.4701140E+00;  0.0000000E+00; -2.0830005E-01;  2.4913920E+04;
  8.9356226E-01;  9.9999998E-03; -2.8058949E-01;7633;  1.0440873E+00;  0.0000000E+00;  1.7846279E-02;  9.8521826E+02;  1.2292882E-01; -1.2241254E+04;3; -5.6526661E+01;  0.0000000E+00;  2.7781212E+01;0;  2.3492239E+00;  2.5716684E+04;  0.0000000E+00;  1.8197173E+00;  4.0000000E+04;  0.0000000E+00;  4.0017391E+04;  2.6083496E+00;  0.0000000E+00; -2.5912568E-01;  2.2194232E+04;
  9.0732402E-01;  9.9999998E-03; -3.0056378E-01;7692;  1.0335523E+00;  0.0000000E+00;  7.9026455E-03;  9.8614923E+02;  1.2259992E-01; -1.1469192E+04;3; -7.6890892E+01;  0.0000000E+00; -9.1271248E+00;0;  2.1902053E+00;  2.5898053E+04;  0.0000000E+00;  7.1789205E-01;  4.0000000E+04;  0.0000000E+00;  4.0027375E+04;  2.2528925E+00;  0.0000000E+00; -6.2687188E-02;  2.3095268E+04;
  9.0711528E-01;  9.9999998E-03; -2.9056141E-01;7693;  1.0358545E+00;  0.0000000E+00;  1.3118605E-02;  9.8655511E+02;  1.2259816E-01; -1.1133146E+04;3; -7.6291451E+01;  0.0000000E+00;  1.1018698E+01;0;  2.2126698E+00;  2.5923404E+04;  0.0000000E+00;  9.0187204E-01;  4.0000000E+04;  0.0000000E+00;  4.0018742E+04;  2.3569441E+00;  0.0000000E+00; -1.4427428E-01;  2.1990789E+04;
  9.0684539E-01;  9.9999998E-03; -2.8056175E-01;7694;  1.0381732E+00;  0.0000000E+00;  1.7034337E-02;  9.8694800E+02;  1.2259656E-01; -1.0807812E+04;3; -7.6379021E+01;  0.0000000E+00;  2.2480682E+01;0;  2.2816811E+00;  2.5952869E+04;  0.0000000E+00;  1.0740745E+00;  4.0000000E+04;  0.0000000E+00;  4.0002559E+04;  2.4753995E+00;  0.0000000E+00; -1.9371834E-01;  1.9977850E+04;
  9.2068368E-01;  9.9999998E-03; -3.0055431E-01;7753;  1.0244241E+00;  0.0000000E+00;  3.6506960E-03;  9.8982324E+02;  1.2213341E-01; -8.4259805E+03;3; -9.3245766E+01;  0.0000000E+00; -1.6280485E+01;0;  2.4292881E+00;  2.6306537E+04;  0.0000000E+00; -3.2628019E+00;  4.0000000E+04;  0.0000000E+00;  3.9987992E+04;  2.3882205E+00;  0.0000000E+00;  4.1067567E-02;  1.9201932E+04;
  9.2040849E-01;  9.9999998E-03; -2.9054770E-01;7754;  1.0291228E+00;  0.0000000E+00;  9.0201935E-03;  9.9009058E+02;  1.2213387E-01; -8.2046660E+03;3; -9.1465118E+01;  0.0000000E+00;  3.6118540E-01;0;  2.4143472E+00;  2.6321928E+04;  0.0000000E+00; -1.8597069E+00;  4.0000000E+04;  0.0000000E+00;  3.9982938E+04;  2.4599292E+00;  0.0000000E+00; -4.5581982E-02;  1.7624795E+04;
  9.2007780E-01;  9.9999998E-03; -2.8054318E-01;7755;  1.0338911E+00;  0.0000000E+00;  1.3219425E-02;  9.9031879E+02;  1.2213545E-01; -8.0157275E+03;3; -9.7170372E+01;  0.0000000E+00;  9.5862331E+00;0;  2.4379983E+00;  2.6338820E+04;  0.0000000E+00; -6.5049762E-01;  4.0000000E+04;  0.0000000E+00;  3.9972086E+04;  2.5432465E+00;  0.0000000E+00; -1.0524815E-01;  1.5805112E+04;
  9.3359423E-01;  9.9999998E-03; -3.0055463E-01;7814;  1.0159491E+00;  0.0000000E+00; -1.1984154E-03;  9.9438208E+02;  1.2155633E-01; -4.6507959E+03;3; -1.0052425E+02;  0.0000000E+00; -2.2528597E+01;0;  2.8360398E+00;  2.6826047E+04;  0.0000000E+00; -5.8579741E+00;  4.0000000E+04;  0.0000000E+00;  3.9935098E+04;  2.6952937E+00;  0.0000000E+00;  1.4074603E-01;  1.6200657E+04;
  9.3332762E-01;  9.9999998E-03; -2.9054379E-01;7815;  1.0238292E+00;  0.0000000E+00;  4.3360442E-03;  9.9454230E+02;  1.2155847E-01; -4.5181743E+03;3; -1.0423682E+02;  0.0000000E+00; -1.0736231E+01;0;  2.7759180E+00;  2.6832949E+04;  0.0000000E+00; -3.9069359E+00;  4.0000000E+04;  0.0000000E+00;  3.9933621E+04;  2.7283883E+00;  0.0000000E+00;  4.7529619E-02;  1.3254875E+04;
  9.3299389E-01;  9.9999998E-03; -2.8053600E-01;7816;  1.0317808E+00;  0.0000000E+00;  8.9491066E-03;  9.9460083E+02;  1.2156219E-01; -4.4697354E+03;3; -1.1927789E+02;  0.0000000E+00; -3.9193153E+00;0;  2.7443066E+00;  2.6837646E+04;  0.0000000E+00; -2.1149602E+00;  4.0000000E+04;  0.0000000E+00;  3.9926828E+04;  2.7685077E+00;  0.0000000E+00; -2.4201272E-02;  1.0554404E+04;
  9.4523728E-01;  9.9999998E-03; -3.0056059E-01;7875;  1.0111185E+00;  0.0000000E+00; -5.8678826E-03;  9.9847144E+02;  1.2089866E-01; -1.2652368E+03;3; -1.0319325E+02;  0.0000000E+00; -1.4878720E+01;0;  3.2922416E+00;  2.7373527E+04;  0.0000000E+00; -3.6979535E+00;  4.0000000E+04;  0.0000000E+00;  3.9877449E+04;  3.0559962E+00;  0.0000000E+00;  2.3624535E-01;  8.0805425E+03;
  9.4505304E-01;  9.9999998E-03; -2.9054612E-01;7876;  1.0200936E+00;  0.0000000E+00; -1.8477129E-03;  9.9858588E+02;  1.2090173E-01; -1.1705135E+03;3; -1.0623186E+02;  0.0000000E+00; -8.9615078E+00;0;  3.2187965E+00;  2.7376092E+04;  0.0000000E+00; -2.6988609E+00;  4.0000000E+04;  0.0000000E+00;  3.9878559E+04;  3.0563049E+00;  0.0000000E+00;  1.6249160E-01;  6.2783330E+03;
  9.4482380E-01;  9.9999998E-03; -2.8053507E-01;7877;  1.0295081E+00;  0.0000000E+00;  2.2837226E-03;  9.9858429E+02;  1.2090687E-01; -1.1718494E+03;3; -1.2146362E+02;  0.0000000E+00; -8.9248314E+00;0;  3.1437051E+00;  2.7374242E+04;  0.0000000E+00; -1.6849253E+00;  4.0000000E+04;  0.0000000E+00;  3.9875973E+04;  3.0582871E+00;  0.0000000E+00;  8.5417993E-02;  4.3485156E+03;
  9.5637470E-01;  9.9999998E-03; -3.0055529E-01;7936;  1.0228055E+00;  0.0000000E+00; -2.0783825E-03;  1.0019451E+03;  1.2017834E-01;  1.6097855E+03;3; -1.4281383E+02;  0.0000000E+00; -1.3427835E+01;0;  3.5766652E+00;  2.7917965E+04;  0.0000000E+00; -1.3909651E+00;  4.0000000E+04;  0.0000000E+00;  3.9837816E+04;  3.3979745E+00;  0.0000000E+00;  1.7869058E-01;  3.6797966E+03;
  9.5622432E-01;  9.9999998E-03; -2.9053813E-01;7937;  1.0383801E+00;  0.0000000E+00; -9.8423846E-04;  1.0019879E+03;  1.2018202E-01;  1.6451086E+03;3; -1.5975084E+02;  0.0000000E+00; -9.9301271E+00;0;  3.5244632E+00;  2.7915855E+04;  0.0000000E+00; -1.1929314E+00;  4.0000000E+04;  0.0000000E+00;  3.9839656E+04;  3.3674450E+00;  0.0000000E+00;  1.5701807E-01;  3.2022749E+03;
  9.5603985E-01;  9.9999998E-03; -2.8052256E-01;7938;  1.0569206E+00;  0.0000000E+00;  8.9503248E-04;  1.0019399E+03;  1.2018758E-01;  1.6054532E+03;3; -1.5915637E+02;  0.0000000E+00; -1.1517969E+01;0;  3.4479740E+00;  2.7908338E+04;  0.0000000E+00; -9.0656984E-01;  4.0000000E+04;  0.0000000E+00;  3.9841262E+04;  3.3326471E+00;  0.0000000E+00;  1.1532689E-01;  2.6338740E+03;
  9.6737528E-01;  9.9999998E-03; -3.0054894E-01;7997;  1.0973736E+00;  0.0000000E+00;  5.2546575E-03;  1.0042540E+03;  1.1940355E-01;  3.5198982E+03;3; -1.5102701E+02;  0.0000000E+00; -3.5725397E-01;0;  3.7317684E+00;  2.8435580E+04;  0.0000000E+00; -6.1793655E-01;  4.0000000E+04;  0.0000000E+00;  3.9801297E+04;  3.6630700E+00;  0.0000000E+00;  6.8698406E-02;  7.5041387E+03;
  9.6721977E-01;  9.9999998E-03; -2.9053074E-01;7998;  1.1109318E+00;  0.0000000E+00;  3.8981873E-03;  1.0042088E+03;  1.1940824E-01;  3.4825247E+03;3; -1.4535672E+02;  0.0000000E+00;  6.1988908E-01;0;  3.7024593E+00;  2.8428977E+04;  0.0000000E+00; -6.7971951E-01;  4.0000000E+04;  0.0000000E+00;  3.9802117E+04;  3.6095123E+00;  0.0000000E+00;  9.2947014E-02;  7.4121270E+03;
  9.6704674E-01;  9.9999998E-03; -2.8051138E-01;7999;  1.1254445E+00;  0.0000000E+00;  4.2578907E-04;  1.0041404E+03;  1.1941450E-01;  3.4259177E+03;3; -1.3940958E+02;  0.0000000E+00;  3.0063112E+00;0;  3.6873224E+00;  2.8417469E+04;  0.0000000E+00; -6.7603827E-01;  4.0000000E+04;  0.0000000E+00;  3.9807484E+04;  3.5470996E+00;  0.0000000E+00;  1.4022280E-01;  6.7355420E+03;
  9.7841048E-01;  9.9999998E-03; -3.0053353E-01;8058;  1.2051705E+00;  0.0000000E+00;  1.5820518E-02;  1.0053423E+03;  1.1858136E-01;  4.4193628E+03;3; -1.1533495E+02;  0.0000000E+00; -4.6014291E-01;0;  3.7248502E+00;  2.8911258E+04;  0.0000000E+00; -1.2152046E+00;  4.0000000E+04;  0.0000000E+00;  3.9779266E+04;  3.8236513E+00;  0.0000000E+00; -9.8801225E-02;  1.0706322E+04;
  9.7824520E-01;  9.9999998E-03; -2.9051489E-01;8059;  1.2127577E+00;  0.0000000E+00;  1.4226040E-02;  1.0052247E+03;  1.1858721E-01;  4.3221440E+03;3; -1.1134119E+02;  0.0000000E+00;  7.6931465E-01;0;  3.6936588E+00;  2.8901535E+04;  0.0000000E+00; -1.1450468E+00;  4.0000000E+04;  0.0000000E+00;  3.9778051E+04;  3.7537956E+00;  0.0000000E+00; -6.0136706E-02;  1.0821017E+04;
  9.7806859E-01;  9.9999998E-03; -2.8049725E-01;8060;  1.2209017E+00;  0.0000000E+00;  1.0569860E-02;  1.0050908E+03;  1.1859435E-01;  4.2114141E+03;3; -1.0685136E+02;  0.0000000E+00;  5.5401721E+00;0;  3.6820898E+00;  2.8888297E+04;  0.0000000E+00; -1.0439916E+00;  4.0000000E+04;  0.0000000E+00;  3.9779844E+04;  3.6713336E+00;  0.0000000E+00;  1.0756179E-02;  1.0529468E+04;
  9.8995286E-01;  9.9999998E-03; -3.0050325E-01;8119;  1.3247609E+00;  0.0000000E+00;  1.9469645E-02;  1.0053781E+03;  1.1769941E-01;  4.4477974E+03;3; -7.6065781E+01;  0.0000000E+00; -1.7567050E+00;0;  3.7098930E+00;  2.9351988E+04;  0.0000000E+00; -1.4120951E+00;  4.0000000E+04;  0.0000000E+00;  3.9779051E+04;  3.8464878E+00;  0.0000000E+00; -1.3659468E-01;  1.1030010E+04;
  9.8975366E-01;  9.9999998E-03; -2.9048291E-01;8120;  1.3257093E+00;  0.0000000E+00;  1.8068317E-02;  1.0052355E+03;  1.1770835E-01;  4.3298101E+03;3; -7.2967484E+01;  0.0000000E+00; -2.3850672E+00;0;  3.6692646E+00;  2.9340189E+04;  0.0000000E+00; -1.3627315E+00;  4.0000000E+04;  0.0000000E+00;  3.9776949E+04;  3.7678483E+00;  0.0000000E+00; -9.8583810E-02;  1.1244907E+04;
  9.8956829E-01;  9.9999998E-03; -2.8046387E-01;8121;  1.3258734E+00;  0.0000000E+00;  1.4727760E-02;  1.0050969E+03;  1.1771689E-01;  4.2152710E+03;3; -6.9433983E+01;  0.0000000E+00;  1.2074754E+00;0;  3.6484418E+00;  2.9327076E+04;  0.0000000E+00; -1.2320435E+00;  4.0000000E+04;  0.0000000E+00;  3.9777066E+04;  3.6746192E+00;  0.0000000E+00; -2.6177526E-02;  1.1152003E+04;
  1.0018038E+00;  9.9999998E-03; -2.8042158E-01;8182;  1.4235238E+00;  0.0000000E+00;  1.1691199E-02;  1.0042810E+03;  1.1678239E-01;  3.5392771E+03;3; -3.4654911E+01;  0.0000000E+00; -8.9201946E+00;0;  3.5722601E+00;  2.9747654E+04;  0.0000000E+00; -5.9820545E-01;  4.0000000E+04;  0.0000000E+00;  3.9788105E+04;  3.5214398E+00;  0.0000000E+00;  5.0820395E-02;  9.7855557E+03;
  1.0020148E+00;  9.9999998E-03; -2.9044345E-01;8181;  1.4293623E+00;  0.0000000E+00;  1.4418663E-02;  1.0043693E+03;  1.1677133E-01;  3.6121831E+03;3; -3.6249828E+01;  0.0000000E+00; -9.3752995E+00;0;  3.6104550E+00;  2.9759164E+04;  0.0000000E+00; -3.1670403E-01;  4.0000000E+04;  0.0000000E+00;  3.9788297E+04;  3.6129720E+00;  0.0000000E+00; -2.5168792E-03;  9.7573525E+03;
  1.0022240E+00;  9.9999998E-03; -3.0046543E-01;8180;  1.4344227E+00;  0.0000000E+00;  1.6083263E-02;  1.0044897E+03;  1.1675958E-01;  3.7117959E+03;3; -3.7263336E+01;  0.0000000E+00; -9.3081512E+00;0;  3.6488469E+00;  2.9770904E+04;  0.0000000E+00;  1.2690884E-01;  4.0000000E+04;  0.0000000E+00;  3.9791277E+04;  3.6909099E+00;  0.0000000E+00; -4.2062916E-02;  9.4283369E+03;
  1.0139519E+00;  9.9999998E-03; -2.8038198E-01;8243;  1.4957457E+00;  0.0000000E+00;  7.5494838E-03;  1.0030974E+03;  1.1582873E-01;  2.5596558E+03;3; -6.9158854E+00;  0.0000000E+00; -1.8677530E+01;0;  3.3811586E+00;  3.0160012E+04;  0.0000000E+00; -4.7121570E-01;  4.0000000E+04;  0.0000000E+00;  3.9804766E+04;  3.2260964E+00;  0.0000000E+00;  1.5506212E-01;  7.8133481E+03;
  1.0142169E+00;  9.9999998E-03; -2.9040551E-01;8242;  1.5054067E+00;  0.0000000E+00;  1.0340319E-02;  1.0031181E+03;  1.1581449E-01;  2.5767710E+03;3; -6.5330458E+00;  0.0000000E+00; -1.8592585E+01;0;  3.4147737E+00;  3.0168693E+04;  0.0000000E+00;  2.1161343E-01;  4.0000000E+04;  0.0000000E+00;  3.9805781E+04;  3.3031025E+00;  0.0000000E+00;  1.1167127E-01;  7.6872441E+03;
  1.0144867E+00;  9.9999998E-03; -3.0042794E-01;8241;  1.5142205E+00;  0.0000000E+00;  1.2255423E-02;  1.0031728E+03;  1.1579906E-01;  2.6218623E+03;3; -5.4171734E+00;  0.0000000E+00; -1.8502895E+01;0;  3.4410305E+00;  3.0177889E+04;  0.0000000E+00;  1.3444923E+00;  4.0000000E+04;  0.0000000E+00;  3.9809988E+04;  3.3693855E+00;  0.0000000E+00;  7.1645007E-02;  7.5630029E+03;
  1.0258685E+00;  9.9999998E-03; -2.8035089E-01;8304;  1.5387511E+00;  0.0000000E+00;  8.5459584E-03;  1.0019688E+03;  1.1487427E-01;  1.6262329E+03;3;  1.4138911E+01;  0.0000000E+00; -2.5128914E+01;0;  3.0358794E+00;  3.0583268E+04;  0.0000000E+00; -1.4609915E+00;  4.0000000E+04;  0.0000000E+00;  3.9820852E+04;  2.8397584E+00;  0.0000000E+00;  1.9612105E-01;  6.2945674E+03;
  1.0260323E+00;  9.9999998E-03; -2.9037452E-01;8303;  1.5480748E+00;  0.0000000E+00;  1.1509247E-02;  1.0019445E+03;  1.1486451E-01;  1.6060358E+03;3;  1.6003717E+01;  0.0000000E+00; -2.5043499E+01;0;  3.0505352E+00;  3.0586256E+04;  0.0000000E+00; -3.5849553E-01;  4.0000000E+04;  0.0000000E+00;  3.9823402E+04;  2.8998542E+00;  0.0000000E+00;  1.5068094E-01;  5.6019180E+03;
  1.0261848E+00;  9.9999998E-03; -3.0039632E-01;8302;  1.5552441E+00;  0.0000000E+00;  1.3489729E-02;  1.0019473E+03;  1.1485396E-01;  1.6083878E+03;3;  1.7933580E+01;  0.0000000E+00; -2.4824238E+01;0;  3.0613635E+00;  3.0588914E+04;  0.0000000E+00;  1.5688097E+00;  4.0000000E+04;  0.0000000E+00;  3.9829316E+04;  2.9540737E+00;  0.0000000E+00;  1.0728975E-01;  5.5743472E+03;
  1.0372756E+00;  9.9999998E-03; -2.8032729E-01;8365;  1.5548888E+00;  0.0000000E+00;  1.5783405E-02;  1.0012181E+03;  1.1394684E-01;  1.0055408E+03;3;  2.2852692E+01;  0.0000000E+00; -2.7769817E+01;0;  2.5805190E+00;  3.1022832E+04;  0.0000000E+00; -3.2940874E+00;  4.0000000E+04;  0.0000000E+00;  3.9837027E+04;  2.4263911E+00;  0.0000000E+00;  1.5412790E-01;  6.4769707E+03;
  1.0374458E+00;  9.9999998E-03; -2.9034954E-01;8364;  1.5595833E+00;  0.0000000E+00;  1.8423440E-02;  1.0011427E+03;  1.1393681E-01;  9.4333795E+02;3;  2.3423340E+01;  0.0000000E+00; -2.7836388E+01;0;  2.5665126E+00;  3.1021480E+04;  0.0000000E+00; -1.7731315E+00;  4.0000000E+04;  0.0000000E+00;  3.9841742E+04;  2.4628882E+00;  0.0000000E+00;  1.0362444E-01;  4.3717324E+03;
  1.0376291E+00;  9.9999998E-03; -3.0037150E-01;8363;  1.5636210E+00;  0.0000000E+00;  1.9681370E-02;  1.0010327E+03;  1.1392555E-01;  8.5249908E+02;3;  2.3659567E+01;  0.0000000E+00; -2.6724636E+01;0;  2.5625384E+00;  3.1018529E+04;  0.0000000E+00;  1.1393495E+00;  4.0000000E+04;  0.0000000E+00;  3.9847258E+04;  2.4964662E+00;  0.0000000E+00;  6.6072248E-02;  3.3986050E+03;
  1.0486671E+00;  9.9999998E-03; -2.8031215E-01;8426;  1.5579743E+00;  0.0000000E+00;  2.4517305E-02;  1.0008161E+03;  1.1303753E-01;  6.7325891E+02;3;  2.3604481E+01;  0.0000000E+00; -2.8057238E+01;0;  2.1056490E+00;  3.1484338E+04;  0.0000000E+00; -6.2610674E+00;  4.0000000E+04;  0.0000000E+00;  3.9851402E+04;  2.0096905E+00;  0.0000000E+00;  9.5958471E-02;  9.8915088E+03;
  1.0488994E+00;  9.9999998E-03; -2.9033422E-01;8425;  1.5612597E+00;  0.0000000E+00;  2.4969289E-02;  1.0006401E+03;  1.1302627E-01;  5.2799799E+02;3;  2.4355984E+01;  0.0000000E+00; -2.6513275E+01;0;  2.0894256E+00;  3.1478244E+04;  0.0000000E+00; -4.3021259E+00;  4.0000000E+04;  0.0000000E+00;  3.9855527E+04;  2.0195522E+00;  0.0000000E+00;  6.9873288E-02;  6.8658750E+03;
  1.0491706E+00;  9.9999998E-03; -3.0035648E-01;8424;  1.5646687E+00;  0.0000000E+00;  2.4478409E-02;  1.0003666E+03;  1.1301304E-01;  3.0239630E+02;3;  2.4701172E+01;  0.0000000E+00; -2.4040024E+01;0;  2.0859306E+00;  3.1468186E+04;  0.0000000E+00;  2.7747819E-02;  4.0000000E+04;  0.0000000E+00;  3.9859578E+04;  2.0287225E+00;  0.0000000E+00;  5.7208162E-02;  1.3931427E+03;
  1.0600845E+00;  9.9999998E-03; -2.8030741E-01;8487;  1.5580755E+00;  0.0000000E+00;  3.0122124E-02;  1.0006055E+03;  1.1215275E-01;  4.9909244E+02;3;  2.4050928E+01;  0.0000000E+00; -2.5475641E+01;0;  1.7013586E+00;  3.1958402E+04;  0.0000000E+00; -1.0502486E+01;  4.0000000E+04;  0.0000000E+00;  3.9861004E+04;  1.6160476E+00;  0.0000000E+00;  8.5310914E-02;  1.5940107E+04;
  1.0603638E+00;  9.9999998E-03; -2.9032931E-01;8486;  1.5605612E+00;  0.0000000E+00;  2.8543320E-02;  1.0002976E+03;  1.1214026E-01;  2.4536476E+02;3;  2.4806055E+01;  0.0000000E+00; -2.4629841E+01;0;  1.6870583E+00;  3.1946250E+04;  0.0000000E+00; -7.5680609E+00;  4.0000000E+04;  0.0000000E+00;  3.9863672E+04;  1.6007855E+00;  0.0000000E+00;  8.6272873E-02;  1.1550834E+04;
  1.0607089E+00;  9.9999998E-03; -3.0035013E-01;8485;  1.5639462E+00;  0.0000000E+00;  2.7043372E-02;  9.9984351E+02;  1.1212570E-01; -1.2901703E+02;3;  2.5225212E+01;  0.0000000E+00; -2.3114916E+01;0;  1.6739715E+00;  3.1925902E+04;  0.0000000E+00; -5.4837823E-01;  4.0000000E+04;  0.0000000E+00;  3.9867840E+04;  1.5868797E+00;  0.0000000E+00;  8.7091751E-02;  1.0147573E+03;
  1.0714966E+00;  9.9999998E-03; -3.0035326E-01;8546;  1.5628942E+00;  0.0000000E+00;  2.8573766E-02;  9.9966858E+02;  1.1128329E-01; -2.7292441E+02;3;  2.5137388E+01;  0.0000000E+00; -1.9911253E+01;0;  1.3447680E+00;  3.2397602E+04;  0.0000000E+00;  1.9173611E+00;  4.0000000E+04;  0.0000000E+00;  3.9868711E+04;  1.2169036E+00;  0.0000000E+00;  1.2786454E-01;  2.8650200E+03;
  1.0711433E+00;  9.9999998E-03; -2.9033333E-01;8547;  1.5595250E+00;  0.0000000E+00;  3.0767759E-02;  1.0002522E+03;  1.1129798E-01;  2.0774323E+02;3;  2.4968201E+01;  0.0000000E+00; -2.4179792E+01;0;  1.3643525E+00;  3.2424848E+04;  0.0000000E+00; -7.8035426E+00;  4.0000000E+04;  0.0000000E+00;  3.9865633E+04;  1.2480668E+00;  0.0000000E+00;  1.1628568E-01;  1.1459225E+04;
  1.0708460E+00;  9.9999998E-03; -2.8031218E-01;8548;  1.5570201E+00;  0.0000000E+00;  3.1651467E-02;  1.0006427E+03;  1.1131083E-01;  5.2928790E+02;3;  2.4275372E+01;  0.0000000E+00; -2.3819120E+01;0;  1.4099356E+00;  3.2440297E+04;  0.0000000E+00; -1.1980079E+01;  4.0000000E+04;  0.0000000E+00;  3.9864680E+04;  1.2836418E+00;  0.0000000E+00;  1.2629378E-01;  1.7523258E+04;
  1.0821797E+00;  9.9999998E-03; -3.0036122E-01;8607;  1.5612735E+00;  0.0000000E+00;  3.0003708E-02;  9.9957465E+02;  1.1047981E-01; -3.4992599E+02;3;  2.6043631E+01;  0.0000000E+00; -1.9313541E+01;0;  1.0652117E+00;  3.2863516E+04;  0.0000000E+00;  4.9236870E+00;  4.0000000E+04;  0.0000000E+00;  3.9868566E+04;  9.0346158E-01;  0.0000000E+00;  1.6175011E-01;  7.1173413E+03;
  1.0817996E+00;  9.9999998E-03; -2.9034331E-01;8608;  1.5583827E+00;  0.0000000E+00;  3.2519314E-02;  1.0002675E+03;  1.1049467E-01;  2.2008545E+02;3;  2.5363472E+01;  0.0000000E+00; -2.2049179E+01;0;  1.0967522E+00;  3.2897941E+04;  0.0000000E+00; -7.3117313E+00;  4.0000000E+04;  0.0000000E+00;  3.9864992E+04;  9.4962913E-01;  0.0000000E+00;  1.4712298E-01;  1.0305591E+04;
  1.0814629E+00;  9.9999998E-03; -2.8032148E-01;8609;  1.5559586E+00;  0.0000000E+00;  3.2074373E-02;  1.0007571E+03;  1.1050797E-01;  6.2291052E+02;3;  2.4147953E+01;  0.0000000E+00; -2.1754448E+01;0;  1.1789703E+00;  3.2916727E+04;  0.0000000E+00; -1.2332950E+01;  4.0000000E+04;  0.0000000E+00;  3.9867270E+04;  1.0026387E+00;  0.0000000E+00;  1.7633159E-01;  1.7299322E+04;
  1.0928547E+00;  9.9999998E-03; -3.0037275E-01;8668;  1.5595481E+00;  0.0000000E+00;  3.1076504E-02;  9.9937311E+02;  1.0971848E-01; -5.1514911E+02;3;  2.6523798E+01;  0.0000000E+00; -1.8025972E+01;0;  8.4242171E-01;  3.3307691E+04;  0.0000000E+00;  8.1104069E+00;  4.0000000E+04;  0.0000000E+00;  3.9868387E+04;  6.4986420E-01;  0.0000000E+00;  1.9255751E-01;  1.1270642E+04;
  1.0924546E+00;  9.9999998E-03; -2.9035589E-01;8669;  1.5570825E+00;  0.0000000E+00;  3.2149527E-02;  1.0001917E+03;  1.0973236E-01;  1.5752043E+02;3;  2.5546598E+01;  0.0000000E+00; -1.8428459E+01;0;  9.1139311E-01;  3.3350398E+04;  0.0000000E+00; -6.7672815E+00;  4.0000000E+04;  0.0000000E+00;  3.9865461E+04;  7.0732391E-01;  0.0000000E+00;  2.0406920E-01;  9.1463760E+03;
  1.0920664E+00;  9.9999998E-03; -2.8033242E-01;8670;  1.5547471E+00;  0.0000000E+00;  3.1358916E-02;  1.0008210E+03;  1.0974640E-01;  6.7468530E+02;3;  2.4831223E+01;  0.0000000E+00; -2.0500666E+01;0;  1.0073730E+00;  3.3374305E+04;  0.0000000E+00; -1.2178478E+01;  4.0000000E+04;  0.0000000E+00;  3.9871828E+04;  7.7392209E-01;  0.0000000E+00;  2.3345090E-01;  1.6316714E+04;
  1.1035599E+00;  9.9999998E-03; -3.0038467E-01;8729;  1.5577693E+00;  0.0000000E+00;  3.0341659E-02;  9.9892902E+02;  1.0900128E-01; -8.7879584E+02;3;  2.7227974E+01;  0.0000000E+00; -1.5129481E+01;0;  7.0138389E-01;  3.3715211E+04;  0.0000000E+00;  1.1929264E+01;  4.0000000E+04;  0.0000000E+00;  3.9871832E+04;  4.5735797E-01;  0.0000000E+00;  2.4402592E-01;  1.5919483E+04;
  1.1031765E+00;  9.9999998E-03; -2.9036847E-01;8730;  1.5557699E+00;  0.0000000E+00;  2.9830594E-02;  9.9985834E+02;  1.0901339E-01; -1.1626287E+02;3;  2.6079990E+01;  0.0000000E+00; -1.5648786E+01;0;  8.0311251E-01;  3.3765512E+04;  0.0000000E+00; -6.4532275E+00;  4.0000000E+04;  0.0000000E+00;  3.9869984E+04;  5.2217126E-01;  0.0000000E+00;  2.8094122E-01;  8.3992793E+03;
  1.1027198E+00;  9.9999998E-03; -2.8034317E-01;8731;  1.5530770E+00;  0.0000000E+00;  3.0709194E-02;  1.0007086E+03;  1.0902875E-01;  5.8149847E+02;3;  2.5823370E+01;  0.0000000E+00; -2.2255266E+01;0;  8.7402952E-01;  3.3800465E+04;  0.0000000E+00; -1.2090289E+01;  4.0000000E+04;  0.0000000E+00;  3.9879773E+04;  5.9761375E-01;  0.0000000E+00;  2.7641577E-01;  1.5507789E+04;
  1.1143070E+00;  9.9999998E-03; -3.0039495E-01;8790;  1.5553511E+00;  0.0000000E+00;  2.8335098E-02;  9.9814276E+02;  1.0833025E-01; -1.5214370E+03;3;  2.8397696E+01;  0.0000000E+00; -1.3430676E+01;0;  6.2582004E-01;  3.4073613E+04;  0.0000000E+00;  1.7671335E+01;  4.0000000E+04;  0.0000000E+00;  3.9881391E+04;  3.2209730E-01;  0.0000000E+00;  3.0372274E-01;  2.2772119E+04;
  1.1140587E+00;  9.9999998E-03; -2.9037625E-01;8791;  1.5537821E+00;  0.0000000E+00;  2.6768675E-02;  9.9900873E+02;  1.0833915E-01; -8.1209473E+02;3;  2.7427315E+01;  0.0000000E+00; -1.7349535E+01;0;  7.4516392E-01;  3.4118004E+04;  0.0000000E+00; -6.2994494E+00;  4.0000000E+04;  0.0000000E+00;  3.9884555E+04;  3.9082596E-01;  0.0000000E+00;  3.5433796E-01;  8.2263223E+03;
  1.1135167E+00;  9.9999998E-03; -2.8035170E-01;8792;  1.5503963E+00;  0.0000000E+00;  3.3821966E-02;  1.0002110E+03;  1.0835432E-01;  1.7287430E+02;3;  2.6920477E+01;  0.0000000E+00; -2.9441620E+01;0;  7.1618539E-01;  3.4176992E+04;  0.0000000E+00; -1.3427106E+01;  4.0000000E+04;  0.0000000E+00;  3.9893504E+04;  4.7040641E-01;  0.0000000E+00;  2.4577898E-01;  1.6858219E+04;
  1.1249934E+00;  9.9999998E-03; -3.0040368E-01;8851;  1.5518136E+00;  0.0000000E+00;  2.6315471E-02;  9.9724988E+02;  1.0770703E-01; -2.2485632E+03;3;  3.0013968E+01;  0.0000000E+00; -1.4432278E+01;0;  5.8430052E-01;  3.4396543E+04;  0.0000000E+00;  2.5753300E+01;  4.0000000E+04;  0.0000000E+00;  3.9896254E+04;  2.3624724E-01;  0.0000000E+00;  3.4805331E-01;  3.2089111E+04;
  1.1250839E+00;  9.9999998E-03; -2.9037943E-01;8852;  1.5504738E+00;  0.0000000E+00;  2.6369702E-02;  9.9742828E+02;  1.0770951E-01; -2.1026638E+03;3;  2.8859509E+01;  0.0000000E+00; -2.2334600E+01;0;  6.7331082E-01;  3.4391137E+04;  0.0000000E+00; -4.6677384E+00;  4.0000000E+04;  0.0000000E+00;  3.9908777E+04;  3.0746922E-01;  0.0000000E+00;  3.6584160E-01;  7.5943423E+03;
  1.1244787E+00;  9.9999998E-03; -2.8036124E-01;8853;  1.5472444E+00;  0.0000000E+00;  3.7342429E-02;  9.9907379E+02;  1.0772402E-01; -7.5736139E+02;3;  2.7272957E+01;  0.0000000E+00; -3.0387739E+01;0;  5.8364213E-01;  3.4487965E+04;  0.0000000E+00; -1.6985723E+01;  4.0000000E+04;  0.0000000E+00;  3.9909148E+04;  3.8959727E-01;  0.0000000E+00;  1.9404487E-01;  2.1193617E+04;
  1.1360213E+00;  9.9999998E-03; -2.9038492E-01;8912;  1.5456641E+00;  0.0000000E+00;  3.2988973E-02;  9.9553491E+02;  1.0712783E-01; -3.6423572E+03;3;  3.0076836E+01;  0.0000000E+00; -2.7093966E+01;0;  5.0644720E-01;  3.4617742E+04;  0.0000000E+00;  1.4081240E+00;  4.0000000E+04;  0.0000000E+00;  3.9933086E+04;  2.6381901E-01;  0.0000000E+00;  2.4262819E-01;  8.0981597E+03;
  1.1354589E+00;  9.9999998E-03; -2.8037483E-01;8913;  1.5432425E+00;  0.0000000E+00;  4.4055670E-02;  9.9744611E+02;  1.0713899E-01; -2.0835635E+03;3;  2.7084364E+01;  0.0000000E+00; -2.6811172E+01;0;  4.2537522E-01;  3.4744133E+04;  0.0000000E+00; -2.0430593E+01;  4.0000000E+04;  0.0000000E+00;  3.9922879E+04;  3.4943417E-01;  0.0000000E+00;  7.5941071E-02;  2.5103559E+04;
  1.1466477E+00;  9.9999998E-03; -2.9040653E-01;8971;  1.5402405E+00;  0.0000000E+00;  4.3462306E-02;  9.9411224E+02;  1.0659762E-01; -4.7903667E+03;3;  3.0641409E+01;  0.0000000E+00; -2.2312029E+01;0;  2.9529276E-01;  3.4863273E+04;  0.0000000E+00;  1.2401842E+01;  4.0000000E+04;  0.0000000E+00;  3.9938195E+04;  2.5128117E-01;  0.0000000E+00;  4.4011600E-02;  1.6926750E+04;
  1.1462994E+00;  9.9999998E-03; -2.8039864E-01;8972;  1.5390468E+00;  0.0000000E+00;  4.9761105E-02;  9.9571423E+02;  1.0660316E-01; -3.4872788E+03;3;  2.6545544E+01;  0.0000000E+00; -1.6423883E+01;0;  3.0282187E-01;  3.4974145E+04;  0.0000000E+00; -2.0280331E+01;  4.0000000E+04;  0.0000000E+00;  3.9926531E+04;  3.4357932E-01;  0.0000000E+00; -4.0757444E-02;  2.4353582E+04;
  1.1569431E+00;  9.9999998E-03; -2.9044846E-01;9030;  1.5350990E+00;  0.0000000E+00;  4.8971128E-02;  9.9371155E+02;  1.0611528E-01; -5.1014468E+03;3;  3.0103516E+01;  0.0000000E+00; -1.0773473E+01;0;  1.8393357E-01;  3.5171996E+04;  0.0000000E+00;  2.4665249E+01;  4.0000000E+04;  0.0000000E+00;  3.9917637E+04;  2.6183835E-01;  0.0000000E+00; -7.7904776E-02;  2.8108852E+04;
  1.1569327E+00;  9.9999998E-03; -2.8043318E-01;9031;  1.5356610E+00;  0.0000000E+00;  5.0320692E-02;  9.9429321E+02;  1.0611613E-01; -4.6295791E+03;3;  2.4985016E+01;  0.0000000E+00; -7.6795588E+00;0;  2.7790999E-01;  3.5205777E+04;  0.0000000E+00; -1.4630340E+01;  4.0000000E+04;  0.0000000E+00;  3.9918840E+04;  3.6647275E-01;  0.0000000E+00; -8.8562764E-02;  1.7493018E+04;
  1.1670327E+00;  9.9999998E-03; -2.9050258E-01;9089;  1.5312799E+00;  0.0000000E+00;  4.8347622E-02;  9.9446423E+02;  1.0567778E-01; -4.4759976E+03;3;  2.9179962E+01;  0.0000000E+00; -3.4016683E+00;0;  1.8615070E-01;  3.5547492E+04;  0.0000000E+00;  3.2869305E+01;  4.0000000E+04;  0.0000000E+00;  3.9882348E+04;  2.9160884E-01;  0.0000000E+00; -1.0545814E-01;  3.4070672E+04;
  1.1673880E+00;  9.9999998E-03; -2.8047678E-01;9090;  1.5329605E+00;  0.0000000E+00;  4.8423145E-02;  9.9337085E+02;  1.0567508E-01; -5.3593931E+03;3;  2.4242645E+01;  0.0000000E+00; -2.2838392E+00;0;  3.0256084E-01;  3.5452770E+04;  0.0000000E+00; -4.0004997E+00;  4.0000000E+04;  0.0000000E+00;  3.9901695E+04;  4.0873772E-01;  0.0000000E+00; -1.0617688E-01;  7.2868315E+03;
  1.1776550E+00;  9.9999998E-03; -2.8052884E-01;9148;  1.5305169E+00;  0.0000000E+00;  4.5394111E-02;  9.9331000E+02;  1.0527728E-01; -5.3875459E+03;3;  2.3542263E+01;  0.0000000E+00;  2.4109986E+00;0;  3.4830004E-01;  3.5741996E+04;  0.0000000E+00;  9.5355062E+00;  4.0000000E+04;  0.0000000E+00;  3.9874746E+04;  4.5832357E-01;  0.0000000E+00; -1.1002352E-01;  1.0362071E+04;
  1.1877698E+00;  9.9999998E-03; -2.8058639E-01;9205;  1.5284262E+00;  0.0000000E+00;  4.0935133E-02;  9.9431427E+02;  1.0491896E-01; -4.5586104E+03;3;  2.2831518E+01;  0.0000000E+00;  7.2193360E+00;0;  4.1179666E-01;  3.6087836E+04;  0.0000000E+00;  2.0846380E+01;  4.0000000E+04;  0.0000000E+00;  3.9841223E+04;  5.0409937E-01;  0.0000000E+00; -9.2302710E-02;  1.9051963E+04;
  1.1978111E+00;  9.9999998E-03; -2.8064287E-01;9262;  1.5268341E+00;  0.0000000E+00;  3.4265421E-02;  9.9628979E+02;  1.0459767E-01; -2.9597930E+03;3;  2.2394794E+01;  0.0000000E+00;  1.2729048E+01;0;  4.9541602E-01;  3.6479203E+04;  0.0000000E+00;  2.4246101E+01;  4.0000000E+04;  0.0000000E+00;  3.9809230E+04;  5.3399801E-01;  0.0000000E+00; -3.8582005E-02;  1.9753898E+04;
 -3.6709014E-04;  9.9999998E-03; -2.7009016E-01;2450;  1.3022707E-02;  0.0000000E+00;  1.3248494E-02;  9.9875409E+02;  1.0000000E-01; -1.0322178E+03;3; -2.6898527E+01;  0.0000000E+00;  5.5177376E+01;0;  8.6572230E-01;  3.9960691E+04;  0.0000000E+00; -2.0488858E-01;  4.0000000E+04;  0.0000000E+00;  3.9936629E+04;  7.6698768E-01;  0.0000000E+00;  9.8734647E-02;  7.8098369E+03;
 -3.8916897E-04;  9.9999998E-03; -2.6006791E-01;2451;  2.1030925E-02;  0.0000000E+00;  1.5799742E-02;  9.9816113E+02;  1.0000000E-01; -1.5234631E+03;3; -2.2041735E+01;  0.0000000E+00;  5.1091373E+01;0;  9.8442972E-01;  3.9913836E+04;  0.0000000E+00; -2.4973455E-01;  4.0000000E+04;  0.0000000E+00;  3.9935473E+04;  9.0066767E-01;  0.0000000E+00;  8.3762065E-02;  7.8987593E+03;
 -3.9294051E-04;  9.9999998E-03; -2.5004342E-01;2452;  3.4434970E-02;  0.0000000E+00;  1.9955156E-02;  9.9747980E+02;  1.0000000E-01; -2.0879409E+03;3; -1.3650763E+01;  0.0000000E+00;  4.6804146E+01;0;  1.1037157E+00;  3.9856992E+04;  0.0000000E+00; -2.8653899E-01;  4.0000000E+04;  0.0000000E+00;  3.9937637E+04;  1.0374423E+00;  0.0000000E+00;  6.6273309E-02;  7.5932739E+03;
 -3.7433262E-04;  9.9999998E-03; -2.4001652E-01;2453;  5.3670943E-02;  0.0000000E+00;  2.5597772E-02;  9.9672546E+02;  1.0000000E-01; -2.7129109E+03;3; -2.4392619E+00;  0.0000000E+00;  4.3514744E+01;0;  1.2210237E+00;  3.9791480E+04;  0.0000000E+00; -3.1014252E-01;  4.0000000E+04;  0.0000000E+00;  3.9942742E+04;  1.1739600E+00;  0.0000000E+00;  4.7063667E-02;  6.9076504E+03;
 -3.3118407E-04;  9.9999998E-03; -2.2998765E-01;2454;  7.8378893E-02;  0.0000000E+00;  3.2150164E-02;  9.9591791E+02;  1.0000000E-01; -3.3819290E+03;3;  1.0568731E+01;  0.0000000E+00;  4.2205513E+01;0;  1.3337206E+00;  3.9719406E+04;  0.0000000E+00; -3.1679192E-01;  4.0000000E+04;  0.0000000E+00;  3.9950434E+04;  1.3068149E+00;  0.0000000E+00;  2.6905658E-02;  5.8870083E+03;
 -2.6259068E-04;  9.9999998E-03; -2.1995734E-01;2455;  1.0780378E-01;  0.0000000E+00;  3.9158590E-02;  9.9508160E+02;  1.0000000E-01; -4.0747983E+03;3;  2.5067612E+01;  0.0000000E+00;  4.0852478E+01;0;  1.4394237E+00;  3.9643262E+04;  0.0000000E+00; -3.0514166E-01;  4.0000000E+04;  0.0000000E+00;  3.9959984E+04;  1.4327900E+00;  0.0000000E+00;  6.6336878E-03;  4.5997578E+03;
 -1.7194764E-04;  9.9999998E-03; -2.0992751E-01;2456;  1.3990606E-01;  0.0000000E+00;  4.5052864E-02;  9.9424219E+02;  1.0000000E-01; -4.7702354E+03;3;  3.9547192E+01;  0.0000000E+00;  3.6268974E+01;0;  1.5361918E+00;  3.9565598E+04;  0.0000000E+00; -2.7659497E-01;  4.0000000E+04;  0.0000000E+00;  3.9971344E+04;  1.5490725E+00;  0.0000000E+00; -1.2880726E-02;  3.1302607E+03;
 -6.5442531E-05;  9.9999998E-03; -1.9990143E-01;2457;  1.7148270E-01;  0.0000000E+00;  4.7885664E-02;  9.9342310E+02;  1.0000000E-01; -5.4488335E+03;3;  5.1122204E+01;  0.0000000E+00;  2.8523565E+01;0;  1.6228100E+00;  3.9489258E+04;  0.0000000E+00; -2.3506214E-01;  4.0000000E+04;  0.0000000E+00;  3.9983316E+04;  1.6535416E+00;  0.0000000E+00; -3.0731548E-02;  1.5754325E+03;
  4.9049053E-05;  9.9999998E-03; -1.8988234E-01;2458;  1.9889325E-01;  0.0000000E+00;  4.7038339E-02;  9.9264905E+02;  1.0000000E-01; -6.0901489E+03;3;  5.7873177E+01;  0.0000000E+00;  1.8353943E+01;0;  1.6989923E+00;  3.9416547E+04;  0.0000000E+00; -1.8603745E-01;  4.0000000E+04;  0.0000000E+00;  3.9995391E+04;  1.7450080E+00;  0.0000000E+00; -4.6015739E-02;  2.6725690E+02;
  1.6181522E-04;  9.9999998E-03; -1.7987229E-01;2459;  2.1830286E-01;  0.0000000E+00;  4.2924270E-02;  9.9194012E+02;  1.0000000E-01; -6.6774409E+03;3;  5.8425766E+01;  0.0000000E+00;  9.9401150E+00;0;  1.7652549E+00;  3.9349730E+04;  0.0000000E+00; -1.3543867E-01;  4.0000000E+04;  0.0000000E+00;  4.0006742E+04;  1.8233105E+00;  0.0000000E+00; -5.8055598E-02;  1.5219341E+03;
  2.6551570E-04;  9.9999998E-03; -1.6987056E-01;2460;  2.2929074E-01;  0.0000000E+00;  3.8068675E-02;  9.9130969E+02;  1.0000000E-01; -7.1997471E+03;3;  6.1844547E+01;  0.0000000E+00;  7.0434055E+00;0;  1.8227035E+00;  3.9290281E+04;  0.0000000E+00; -8.8480301E-02;  4.0000000E+04;  0.0000000E+00;  4.0017004E+04;  1.8892375E+00;  0.0000000E+00; -6.6534020E-02;  2.8407451E+03;
  3.5504354E-04;  9.9999998E-03; -1.5987466E-01;2461;  2.3593535E-01;  0.0000000E+00;  3.3967189E-02;  9.9076733E+02;  1.0000000E-01; -7.6490674E+03;3;  7.0160812E+01;  0.0000000E+00;  5.7979050E+00;0;  1.8725731E+00;  3.9239461E+04;  0.0000000E+00; -4.8867445E-02;  4.0000000E+04;  0.0000000E+00;  4.0025660E+04;  1.9442289E+00;  0.0000000E+00; -7.1655788E-02;  3.9641501E+03;
  4.2929492E-04;  9.9999998E-03; -1.4988187E-01;2462;  2.4106531E-01;  0.0000000E+00;  3.0429104E-02;  9.9031824E+02;  1.0000000E-01; -8.0211558E+03;3;  7.8170166E+01;  0.0000000E+00;  4.5547376E+00;0;  1.9158413E+00;  3.9197578E+04;  0.0000000E+00; -1.8490897E-02;  4.0000000E+04;  0.0000000E+00;  4.0032586E+04;  1.9898479E+00;  0.0000000E+00; -7.4006557E-02;  4.8615229E+03;
  4.8800613E-04;  9.9999998E-03; -1.3989075E-01;2463;  2.4524055E-01;  0.0000000E+00;  2.7311154E-02;  9.8996063E+02;  1.0000000E-01; -8.3174434E+03;3;  8.4467598E+01;  0.0000000E+00;  3.4741321E+00;0;  1.9533225E+00;  3.9164727E+04;  0.0000000E+00;  2.3981270E-03;  4.0000000E+04;  0.0000000E+00;  4.0037605E+04;  2.0275974E+00;  0.0000000E+00; -7.4274927E-02;  5.5289761E+03;
  5.3121051E-04;  9.9999998E-03; -1.2990038E-01;2464;  2.4865097E-01;  0.0000000E+00;  2.4523774E-02;  9.8969281E+02;  1.0000000E-01; -8.5393145E+03;3;  8.8965355E+01;  0.0000000E+00;  2.4093392E+00;0;  1.9857607E+00;  3.9140434E+04;  0.0000000E+00;  1.4728773E-02;  4.0000000E+04;  0.0000000E+00;  4.0041145E+04;  2.0588715E+00;  0.0000000E+00; -7.3110811E-02;  5.9815659E+03;
  5.5989833E-04;  9.9999998E-03; -1.1991020E-01;2465;  2.5143477E-01;  0.0000000E+00;  2.2008311E-02;  9.8950580E+02;  1.0000000E-01; -8.6942236E+03;3;  9.1835175E+01;  0.0000000E+00;  1.4136349E+00;0;  2.0138211E+00;  3.9123898E+04;  0.0000000E+00;  2.0047596E-02;  4.0000000E+04;  0.0000000E+00;  4.0043051E+04;  2.0848987E+00;  0.0000000E+00; -7.1077555E-02;  6.2474780E+03;
  5.7555729E-04;  9.9999998E-03; -1.0991994E-01;2466;  2.5370806E-01;  0.0000000E+00;  1.9712932E-02;  9.8939343E+02;  1.0000000E-01; -8.7873564E+03;3;  9.3290939E+01;  0.0000000E+00;  4.9461064E-01;0;  2.0380566E+00;  3.9114234E+04;  0.0000000E+00;  2.0316834E-02;  4.0000000E+04;  0.0000000E+00;  4.0043891E+04;  2.1067188E+00;  0.0000000E+00; -6.8662256E-02;  6.3613950E+03;
  9.6594421E-03;  9.9999998E-03; -2.7004355E-01;2510;  3.0356701E-02;  0.0000000E+00;  2.6710304E-02;  9.9809399E+02;  1.0000000E-01; -1.5790664E+03;3; -2.1169355E+01;  0.0000000E+00;  6.0070839E+01;0;  9.1300488E-01;  3.9920609E+04;  0.0000000E+00; -2.7978197E-01;  4.0000000E+04;  0.0000000E+00;  3.9923633E+04;  8.0667055E-01;  0.0000000E+00;  1.0633434E-01;  9.3798496E+03;
  9.6544968E-03;  9.9999998E-03; -2.6001588E-01;2511;  4.3006107E-02;  0.0000000E+00;  2.9769948E-02;  9.9741266E+02;  1.0000000E-01; -2.1435444E+03;3; -1.5536487E+01;  0.0000000E+00;  4.9998009E+01;0;  1.0268848E+00;  3.9865707E+04;  0.0000000E+00; -3.2762030E-01;  4.0000000E+04;  0.0000000E+00;  3.9923637E+04;  9.3834341E-01;  0.0000000E+00;  8.8541426E-02;  9.3282139E+03;
  9.6699810E-03;  9.9999998E-03; -2.4998805E-01;2512;  5.9895713E-02;  0.0000000E+00;  3.3099137E-02;  9.9665063E+02;  1.0000000E-01; -2.7748845E+03;3; -7.2269940E+00;  0.0000000E+00;  3.9038170E+01;0;  1.1383617E+00;  3.9800969E+04;  0.0000000E+00; -3.6221889E-01;  4.0000000E+04;  0.0000000E+00;  3.9927227E+04;  1.0701900E+00;  0.0000000E+00;  6.8171747E-02;  8.8098037E+03;
  9.7086402E-03;  9.9999998E-03; -2.3996079E-01;2513;  8.1053525E-02;  0.0000000E+00;  3.6553614E-02;  9.9582794E+02;  1.0000000E-01; -3.4564949E+03;3;  3.0862546E+00;  0.0000000E+00;  2.9083410E+01;0;  1.2447788E+00;  3.9728211E+04;  0.0000000E+00; -3.7878683E-01;  4.0000000E+04;  0.0000000E+00;  3.9934590E+04;  1.1986485E+00;  0.0000000E+00;  4.6130314E-02;  7.8548110E+03;
  9.7725401E-03;  9.9999998E-03; -2.2993419E-01;2514;  1.0605060E-01;  0.0000000E+00;  3.9753661E-02;  9.9496790E+02;  1.0000000E-01; -4.1690181E+03;3;  1.4848187E+01;  0.0000000E+00;  2.0953136E+01;0;  1.3436825E+00;  3.9649703E+04;  0.0000000E+00; -3.7475279E-01;  4.0000000E+04;  0.0000000E+00;  3.9944727E+04;  1.3203791E+00;  0.0000000E+00;  2.3303371E-02;  6.5274072E+03;
  9.8608751E-03;  9.9999998E-03; -2.1990915E-01;2515;  1.3386966E-01;  0.0000000E+00;  4.2201675E-02;  9.9409406E+02;  1.0000000E-01; -4.8929482E+03;3;  2.7440401E+01;  0.0000000E+00;  1.4791793E+01;0;  1.4331626E+00;  3.9568301E+04;  0.0000000E+00; -3.5045853E-01;  4.0000000E+04;  0.0000000E+00;  3.9956871E+04;  1.4325181E+00;  0.0000000E+00;  6.4450130E-04;  4.9160767E+03;
  9.9685369E-03;  9.9999998E-03; -2.0988742E-01;2516;  1.6272095E-01;  0.0000000E+00;  4.3320138E-02;  9.9323492E+02;  1.0000000E-01; -5.6047305E+03;3;  3.9760506E+01;  0.0000000E+00;  1.0378431E+01;0;  1.5121434E+00;  3.9486844E+04;  0.0000000E+00; -3.0909789E-01;  4.0000000E+04;  0.0000000E+00;  3.9970781E+04;  1.5329336E+00;  0.0000000E+00; -2.0790201E-02;  3.1261091E+03;
  1.0089252E-02;  9.9999998E-03; -1.9987085E-01;2517;  1.8992260E-01;  0.0000000E+00;  4.2507589E-02;  9.9241339E+02;  1.0000000E-01; -6.2853530E+03;3;  4.9482182E+01;  0.0000000E+00;  6.6130862E+00;0;  1.5805405E+00;  3.9408086E+04;  0.0000000E+00; -2.5608015E-01;  4.0000000E+04;  0.0000000E+00;  3.9985203E+04;  1.6204462E+00;  0.0000000E+00; -3.9905664E-02;  1.2815499E+03;
  1.0214361E-02;  9.9999998E-03; -1.8986112E-01;2518;  2.1116874E-01;  0.0000000E+00;  3.9245840E-02;  9.9165234E+02;  1.0000000E-01; -6.9158540E+03;3;  5.3142284E+01;  0.0000000E+00;  3.4878130E+00;0;  1.6391834E+00;  3.9334453E+04;  0.0000000E+00; -1.9781819E-01;  4.0000000E+04;  0.0000000E+00;  3.9999289E+04;  1.6949260E+00;  0.0000000E+00; -5.5742621E-02;  6.6533142E+02;
  1.0333329E-02;  9.9999998E-03; -1.7985882E-01;2519;  2.2367321E-01;  0.0000000E+00;  3.4709979E-02;  9.9096619E+02;  1.0000000E-01; -7.4843315E+03;3;  5.7794735E+01;  0.0000000E+00;  3.1706514E+00;0;  1.6895961E+00;  3.9267953E+04;  0.0000000E+00; -1.4054607E-01;  4.0000000E+04;  0.0000000E+00;  4.0012504E+04;  1.7572421E+00;  0.0000000E+00; -6.7646056E-02;  2.3086978E+03;
  1.0438989E-02;  9.9999998E-03; -1.6986218E-01;2520;  2.3088369E-01;  0.0000000E+00;  3.0723028E-02;  9.9036792E+02;  1.0000000E-01; -7.9799717E+03;3;  6.6815483E+01;  0.0000000E+00;  3.7830088E+00;0;  1.7334588E+00;  3.9209977E+04;  0.0000000E+00; -8.9311659E-02;  4.0000000E+04;  0.0000000E+00;  4.0023969E+04;  1.8089451E+00;  0.0000000E+00; -7.5486302E-02;  3.7928408E+03;
  1.0528470E-02;  9.9999998E-03; -1.5986900E-01;2521;  2.3649773E-01;  0.0000000E+00;  2.7620900E-02;  9.8986249E+02;  1.0000000E-01; -8.3987256E+03;3;  7.6836967E+01;  0.0000000E+00;  4.2183647E+00;0;  1.7720057E+00;  3.9161266E+04;  0.0000000E+00; -4.7403052E-02;  4.0000000E+04;  0.0000000E+00;  4.0033609E+04;  1.8517076E+00;  0.0000000E+00; -7.9701886E-02;  5.0267852E+03;
  1.0601762E-02;  9.9999998E-03; -1.4987764E-01;2522;  2.4111333E-01;  0.0000000E+00;  2.5041241E-02;  9.8945416E+02;  1.0000000E-01; -8.7370371E+03;3;  8.4706345E+01;  0.0000000E+00;  3.7733207E+00;0;  1.8060399E+00;  3.9122188E+04;  0.0000000E+00; -1.6214466E-02;  4.0000000E+04;  0.0000000E+00;  4.0040941E+04;  1.8870866E+00;  0.0000000E+00; -8.1046656E-02;  5.9872114E+03;
  1.0658663E-02;  9.9999998E-03; -1.3988718E-01;2523;  2.4488528E-01;  0.0000000E+00;  2.2763796E-02;  9.8913770E+02;  1.0000000E-01; -8.9992021E+03;3;  9.0653023E+01;  0.0000000E+00;  3.0399044E+00;0;  1.8361549E+00;  3.9092445E+04;  0.0000000E+00;  4.4943928E-03;  4.0000000E+04;  0.0000000E+00;  4.0046238E+04;  1.9165001E+00;  0.0000000E+00; -8.0345109E-02;  6.6784141E+03;
  1.0699474E-02;  9.9999998E-03; -1.2989710E-01;2524;  2.4796090E-01;  0.0000000E+00;  2.0694528E-02;  9.8890863E+02;  1.0000000E-01; -9.1889746E+03;3;  9.4740433E+01;  0.0000000E+00;  2.2201672E+00;0;  1.8628532E+00;  3.9071250E+04;  0.0000000E+00;  1.6081275E-02;  4.0000000E+04;  0.0000000E+00;  4.0049605E+04;  1.9411938E+00;  0.0000000E+00; -7.8340635E-02;  7.1246694E+03;
  1.0725598E-02;  9.9999998E-03; -1.1990711E-01;2525;  2.5047076E-01;  0.0000000E+00;  1.8791134E-02;  9.8875909E+02;  1.0000000E-01; -9.3128721E+03;3;  9.7178368E+01;  0.0000000E+00;  1.3439953E+00;0;  1.8865398E+00;  3.9057848E+04;  0.0000000E+00;  2.0430880E-02;  4.0000000E+04;  0.0000000E+00;  4.0051469E+04;  1.9621817E+00;  0.0000000E+00; -7.5641833E-02;  7.3632915E+03;
  1.0738679E-02;  9.9999998E-03; -1.0991699E-01;2526;  2.5252554E-01;  0.0000000E+00;  1.7010637E-02;  9.8867969E+02;  1.0000000E-01; -9.3786484E+03;3;  9.8226860E+01;  0.0000000E+00;  5.0735360E-01;0;  1.9075263E+00;  3.9051094E+04;  0.0000000E+00;  1.9778183E-02;  4.0000000E+04;  0.0000000E+00;  4.0051996E+04;  1.9802769E+00;  0.0000000E+00; -7.2750717E-02;  7.4372100E+03;
  1.9691043E-02;  9.9999998E-03; -2.6998582E-01;2571;  4.2956825E-02;  0.0000000E+00;  3.1989086E-02;  9.9736456E+02;  1.0000000E-01; -2.1833950E+03;3; -8.6581764E+00;  0.0000000E+00;  5.0569435E+01;0;  9.3370277E-01;  3.9875105E+04;  0.0000000E+00; -3.4233481E-01;  4.0000000E+04;  0.0000000E+00;  3.9910809E+04;  8.2399797E-01;  0.0000000E+00;  1.0970481E-01;  1.0934026E+04;
  1.9703038E-02;  9.9999998E-03; -2.5995862E-01;2572;  5.7098441E-02;  0.0000000E+00;  3.2427162E-02;  9.9661005E+02;  1.0000000E-01; -2.8085132E+03;3; -4.1598496E+00;  0.0000000E+00;  3.7157669E+01;0;  1.0368664E+00;  3.9812910E+04;  0.0000000E+00; -3.8627553E-01;  4.0000000E+04;  0.0000000E+00;  3.9912379E+04;  9.4790864E-01;  0.0000000E+00;  8.8957846E-02;  1.0681834E+04;
  1.9738046E-02;  9.9999998E-03; -2.4993394E-01;2573;  7.5259820E-02;  0.0000000E+00;  3.3152334E-02;  9.9578961E+02;  1.0000000E-01; -3.4882471E+03;3;  1.9365339E+00;  0.0000000E+00;  2.4909313E+01;0;  1.1342415E+00;  3.9741484E+04;  0.0000000E+00; -4.1219246E-01;  4.0000000E+04;  0.0000000E+00;  3.9918059E+04;  1.0685351E+00;  0.0000000E+00;  6.5706357E-02;  9.8945635E+03;
  1.9797966E-02;  9.9999998E-03; -2.3991121E-01;2574;  9.7348996E-02;  0.0000000E+00;  3.4131464E-02;  9.9492407E+02;  1.0000000E-01; -4.2053130E+03;3;  9.7423725E+00;  0.0000000E+00;  1.5615089E+01;0;  1.2233726E+00;  3.9663121E+04;  0.0000000E+00; -4.1688246E-01;  4.0000000E+04;  0.0000000E+00;  3.9927738E+04;  1.1823330E+00;  0.0000000E+00;  4.1039616E-02;  8.6228418E+03;
  1.9883292E-02;  9.9999998E-03; -2.2988993E-01;2575;  1.2289408E-01;  0.0000000E+00;  3.5290398E-02;  9.9404205E+02;  1.0000000E-01; -4.9360581E+03;3;  1.9116535E+01;  0.0000000E+00;  9.9190273E+00;0;  1.3023236E+00;  3.9580453E+04;  0.0000000E+00; -3.9995602E-01;  4.0000000E+04;  0.0000000E+00;  3.9940703E+04;  1.2862999E+00;  0.0000000E+00;  1.6023658E-02;  6.9533838E+03;
  1.9991981E-02;  9.9999998E-03; -2.1987034E-01;2576;  1.5075219E-01;  0.0000000E+00;  3.6347773E-02;  9.9316760E+02;  1.0000000E-01; -5.6605312E+03;3;  2.9516748E+01;  0.0000000E+00;  6.9442501E+00;0;  1.3699992E+00;  3.9496465E+04;  0.0000000E+00; -3.6396536E-01;  4.0000000E+04;  0.0000000E+00;  3.9955758E+04;  1.3782289E+00;  0.0000000E+00; -8.2297549E-03;  4.9979678E+03;
  2.0118045E-02;  9.9999998E-03; -2.0985372E-01;2577;  1.7855883E-01;  0.0000000E+00;  3.6611881E-02;  9.9232422E+02;  1.0000000E-01; -6.3592275E+03;3;  3.9107811E+01;  0.0000000E+00;  5.2194815E+00;0;  1.4263728E+00;  3.9414102E+04;  0.0000000E+00; -3.1372431E-01;  4.0000000E+04;  0.0000000E+00;  3.9972195E+04;  1.4569333E+00;  0.0000000E+00; -3.0560466E-02;  2.8848638E+03;
  2.0253537E-02;  9.9999998E-03; -1.9984183E-01;2578;  2.0225549E-01;  0.0000000E+00;  3.5001744E-02;  9.9153674E+02;  1.0000000E-01; -7.0116533E+03;3;  4.4645363E+01;  0.0000000E+00;  2.8108282E+00;0;  1.4725248E+00;  3.9335961E+04;  0.0000000E+00; -2.5533623E-01;  4.0000000E+04;  0.0000000E+00;  3.9988879E+04;  1.5223769E+00;  0.0000000E+00; -4.9852140E-02;  7.8498871E+02;
  2.0386759E-02;  9.9999998E-03; -1.8983656E-01;2579;  2.1720983E-01;  0.0000000E+00;  3.1265829E-02;  9.9082208E+02;  1.0000000E-01; -7.6037354E+03;3;  4.8144707E+01;  0.0000000E+00;  1.9480970E+00;0;  1.5104626E+00;  3.9264379E+04;  0.0000000E+00; -1.9496326E-01;  4.0000000E+04;  0.0000000E+00;  4.0004949E+04;  1.5756497E+00;  0.0000000E+00; -6.5187149E-02;  1.4021517E+03;
  2.0507559E-02;  9.9999998E-03; -1.7983787E-01;2580;  2.2544456E-01;  0.0000000E+00;  2.7485605E-02;  9.9019495E+02;  1.0000000E-01; -8.1233257E+03;3;  5.6401836E+01;  0.0000000E+00;  2.7367141E+00;0;  1.5425971E+00;  3.9201152E+04;  0.0000000E+00; -1.3792314E-01;  4.0000000E+04;  0.0000000E+00;  4.0019543E+04;  1.6186360E+00;  0.0000000E+00; -7.6038986E-02;  3.2587092E+03;
  2.0611504E-02;  9.9999998E-03; -1.6984381E-01;2581;  2.3128659E-01;  0.0000000E+00;  2.4446670E-02;  9.8965808E+02;  1.0000000E-01; -8.5681035E+03;3;  6.7086021E+01;  0.0000000E+00;  3.4101894E+00;0;  1.5707899E+00;  3.9147102E+04;  0.0000000E+00; -8.8149026E-02;  4.0000000E+04;  0.0000000E+00;  4.0032113E+04;  1.6533297E+00;  0.0000000E+00; -8.2539827E-02;  4.8669746E+03;
  2.0698309E-02;  9.9999998E-03; -1.5985256E-01;2582;  2.3620783E-01;  0.0000000E+00;  2.2076270E-02;  9.8921771E+02;  1.0000000E-01; -8.9329326E+03;3;  7.6241722E+01;  0.0000000E+00;  3.4552956E+00;0;  1.5961797E+00;  3.9102957E+04;  0.0000000E+00; -4.7991317E-02;  4.0000000E+04;  0.0000000E+00;  4.0042184E+04;  1.6815088E+00;  0.0000000E+00; -8.5329026E-02;  6.1687261E+03;
  2.0768235E-02;  9.9999998E-03; -1.4986284E-01;2583;  2.4043426E-01;  0.0000000E+00;  2.0192852E-02;  9.8887256E+02;  1.0000000E-01; -9.2188506E+03;3;  8.3321159E+01;  0.0000000E+00;  3.1800654E+00;0;  1.6194103E+00;  3.9068652E+04;  0.0000000E+00; -1.8292939E-02;  4.0000000E+04;  0.0000000E+00;  4.0049898E+04;  1.7047117E+00;  0.0000000E+00; -8.5301436E-02;  7.1503325E+03;
  2.0821298E-02;  9.9999998E-03; -1.3987391E-01;2584;  2.4392346E-01;  0.0000000E+00;  1.8578880E-02;  9.8861560E+02;  1.0000000E-01; -9.4317822E+03;3;  8.8346794E+01;  0.0000000E+00;  2.6273417E+00;0;  1.6408366E+00;  3.9043617E+04;  0.0000000E+00;  1.3858540E-03;  4.0000000E+04;  0.0000000E+00;  4.0055066E+04;  1.7242284E+00;  0.0000000E+00; -8.3391801E-02;  7.8267715E+03;
  2.0858116E-02;  9.9999998E-03; -1.2988523E-01;2585;  2.4677435E-01;  0.0000000E+00;  1.7109994E-02;  9.8843994E+02;  1.0000000E-01; -9.5773096E+03;3;  9.1571983E+01;  0.0000000E+00;  1.8795300E+00;0;  1.6606634E+00;  3.9027094E+04;  0.0000000E+00;  1.2376961E-02;  4.0000000E+04;  0.0000000E+00;  4.0058223E+04;  1.7410765E+00;  0.0000000E+00; -8.0413155E-02;  8.2333008E+03;
  2.0880198E-02;  9.9999998E-03; -1.1989649E-01;2586;  2.4910830E-01;  0.0000000E+00;  1.5734386E-02;  9.8833948E+02;  1.0000000E-01; -9.6605166E+03;3;  9.3280678E+01;  0.0000000E+00;  1.1544205E+00;0;  1.6790142E+00;  3.9017855E+04;  0.0000000E+00;  1.6495129E-02;  4.0000000E+04;  0.0000000E+00;  4.0059602E+04;  1.7560110E+00;  0.0000000E+00; -7.6996781E-02;  8.4174180E+03;
  2.0889681E-02;  9.9999998E-03; -1.0990749E-01;2587;  2.5102955E-01;  0.0000000E+00;  1.4411481E-02;  9.8830115E+02;  1.0000000E-01; -9.6922695E+03;3;  9.3734749E+01;  0.0000000E+00;  4.2399287E-01;0;  1.6959147E+00;  3.9014906E+04;  0.0000000E+00;  1.5917029E-02;  4.0000000E+04;  0.0000000E+00;  4.0059730E+04;  1.7695533E+00;  0.0000000E+00; -7.3638603E-02;  8.4305586E+03;
  2.9721618E-02;  9.9999998E-03; -2.6993066E-01;2632;  5.0618842E-02;  0.0000000E+00;  2.8979927E-02;  9.9660455E+02;  1.0000000E-01; -2.8130562E+03;3;  6.9235816E+00;  0.0000000E+00;  4.4157799E+01;0;  9.2986226E-01;  3.9826227E+04;  0.0000000E+00; -3.8078761E-01;  4.0000000E+04;  0.0000000E+00;  3.9898688E+04;  8.2141674E-01;  0.0000000E+00;  1.0844552E-01;  1.2384029E+04;
  2.9756116E-02;  9.9999998E-03; -2.5990224E-01;2633;  6.6821679E-02;  0.0000000E+00;  2.8237537E-02;  9.9579517E+02;  1.0000000E-01; -3.4836052E+03;3;  9.6306458E+00;  0.0000000E+00;  3.0388729E+01;0;  1.0181179E+00;  3.9757938E+04;  0.0000000E+00; -4.1009793E-01;  4.0000000E+04;  0.0000000E+00;  3.9902234E+04;  9.3318748E-01;  0.0000000E+00;  8.4930472E-02;  1.1878982E+04;
  2.9815994E-02;  9.9999998E-03; -2.4987911E-01;2634;  8.6841390E-02;  0.0000000E+00;  2.8009916E-02;  9.9493970E+02;  1.0000000E-01; -4.1923755E+03;3;  1.3153646E+01;  0.0000000E+00;  1.8348810E+01;0;  1.0971482E+00;  3.9681613E+04;  0.0000000E+00; -4.1787747E-01;  4.0000000E+04;  0.0000000E+00;  3.9910488E+04;  1.0380230E+00;  0.0000000E+00;  5.9125174E-02;  1.0778146E+04;
  2.9901270E-02;  9.9999998E-03; -2.3985894E-01;2635;  1.1069725E-01;  0.0000000E+00;  2.8457526E-02;  9.9406403E+02;  1.0000000E-01; -4.9178364E+03;3;  1.7931572E+01;  0.0000000E+00;  9.8319321E+00;0;  1.1649494E+00;  3.9599836E+04;  0.0000000E+00; -4.0420830E-01;  4.0000000E+04;  0.0000000E+00;  3.9923008E+04;  1.1326118E+00;  0.0000000E+00;  3.2337628E-02;  9.1563457E+03;
  3.0011071E-02;  9.9999998E-03; -2.2984031E-01;2636;  1.3760631E-01;  0.0000000E+00;  2.9512271E-02;  9.9319269E+02;  1.0000000E-01; -5.6397417E+03;3;  2.4040554E+01;  0.0000000E+00;  5.3102956E+00;0;  1.2203205E+00;  3.9515500E+04;  0.0000000E+00; -3.7209827E-01;  4.0000000E+04;  0.0000000E+00;  3.9938746E+04;  1.2145020E+00;  0.0000000E+00;  5.8184601E-03;  7.1256777E+03;
  3.0141434E-02;  9.9999998E-03; -2.1982354E-01;2637;  1.6556795E-01;  0.0000000E+00;  3.0595886E-02;  9.9235016E+02;  1.0000000E-01; -6.3377466E+03;3;  3.0631109E+01;  0.0000000E+00;  3.4098489E+00;0;  1.2631791E+00;  3.9431754E+04;  0.0000000E+00; -3.2667905E-01;  4.0000000E+04;  0.0000000E+00;  3.9956508E+04;  1.2823733E+00;  0.0000000E+00; -1.9194242E-02;  4.8224155E+03;
  3.0284639E-02;  9.9999998E-03; -2.0981042E-01;2638;  1.9114706E-01;  0.0000000E+00;  3.0558465E-02;  9.9156152E+02;  1.0000000E-01; -6.9911108E+03;3;  3.5714729E+01;  0.0000000E+00;  1.9842814E+00;0;  1.2947067E+00;  3.9351258E+04;  0.0000000E+00; -2.7383053E-01;  4.0000000E+04;  0.0000000E+00;  3.9975543E+04;  1.3361943E+00;  0.0000000E+00; -4.1487545E-02;  2.3979673E+03;
  3.0430190E-02;  9.9999998E-03; -1.9980310E-01;2639;  2.0945528E-01;  0.0000000E+00;  2.8123440E-02;  9.9084186E+02;  1.0000000E-01; -7.5873408E+03;3;  3.7510857E+01;  0.0000000E+00;  4.9475765E-01;0;  1.3172587E+00;  3.9276621E+04;  0.0000000E+00; -2.1905312E-01;  4.0000000E+04;  0.0000000E+00;  3.9994348E+04;  1.3772367E+00;  0.0000000E+00; -5.9978019E-02;  3.1831201E+02;
  3.0565882E-02;  9.9999998E-03; -1.8980300E-01;2640;  2.1964732E-01;  0.0000000E+00;  2.4570052E-02;  9.9020770E+02;  1.0000000E-01; -8.1127090E+03;3;  4.3187180E+01;  0.0000000E+00;  1.0297738E+00;0;  1.3339241E+00;  3.9209863E+04;  0.0000000E+00; -1.6660625E-01;  4.0000000E+04;  0.0000000E+00;  4.0012129E+04;  1.4077677E+00;  0.0000000E+00; -7.3843591E-02;  2.3332087E+03;
  3.0685201E-02;  9.9999998E-03; -1.7980888E-01;2641;  2.2586149E-01;  0.0000000E+00;  2.1440091E-02;  9.8966461E+02;  1.0000000E-01; -8.5626719E+03;3;  5.2247272E+01;  0.0000000E+00;  1.9949594E+00;0;  1.3474408E+00;  3.9152215E+04;  0.0000000E+00; -1.1932915E-01;  4.0000000E+04;  0.0000000E+00;  4.0027910E+04;  1.4302839E+00;  0.0000000E+00; -8.2843073E-02;  4.3378706E+03;
  3.0786224E-02;  9.9999998E-03; -1.6981876E-01;2642;  2.3095447E-01;  0.0000000E+00;  1.9060515E-02;  9.8921503E+02;  1.0000000E-01; -8.9351543E+03;3;  6.1337669E+01;  0.0000000E+00;  2.4234002E+00;0;  1.3596603E+00;  3.9104480E+04;  0.0000000E+00; -7.8900255E-02;  4.0000000E+04;  0.0000000E+00;  4.0041082E+04;  1.4470320E+00;  0.0000000E+00; -8.7371700E-02;  6.0201426E+03;
  3.0869342E-02;  9.9999998E-03; -1.5983096E-01;2643;  2.3539267E-01;  0.0000000E+00;  1.7269302E-02;  9.8885791E+02;  1.0000000E-01; -9.2309980E+03;3;  6.9074249E+01;  0.0000000E+00;  2.6094122E+00;0;  1.3716172E+00;  3.9066785E+04;  0.0000000E+00; -4.6172179E-02;  4.0000000E+04;  0.0000000E+00;  4.0051379E+04;  1.4598764E+00;  0.0000000E+00; -8.8259220E-02;  7.3394077E+03;
  3.0934444E-02;  9.9999998E-03; -1.4984435E-01;2644;  2.3925038E-01;  0.0000000E+00;  1.5900927E-02;  9.8858917E+02;  1.0000000E-01; -9.4536582E+03;3;  7.4748825E+01;  0.0000000E+00;  2.4031932E+00;0;  1.3837811E+00;  3.9038840E+04;  0.0000000E+00; -2.1419045E-02;  4.0000000E+04;  0.0000000E+00;  4.0058801E+04;  1.4703128E+00;  0.0000000E+00; -8.6531781E-02;  8.2945039E+03;
  3.0981867E-02;  9.9999998E-03; -1.3985811E-01;2645;  2.4249825E-01;  0.0000000E+00;  1.4792749E-02;  9.8840424E+02;  1.0000000E-01; -9.6068887E+03;3;  7.8574020E+01;  0.0000000E+00;  2.0229244E+00;0;  1.3962535E+00;  3.9019691E+04;  0.0000000E+00; -4.3925787E-03;  4.0000000E+04;  0.0000000E+00;  4.0063645E+04;  1.4794629E+00;  0.0000000E+00; -8.3209440E-02;  8.9136328E+03;
  3.1012828E-02;  9.9999998E-03; -1.2987171E-01;2646;  2.4518269E-01;  0.0000000E+00;  1.3798452E-02;  9.8829272E+02;  1.0000000E-01; -9.6992314E+03;3;  8.0765442E+01;  0.0000000E+00;  1.4932667E+00;0;  1.4089420E+00;  3.9008664E+04;  0.0000000E+00;  5.6345426E-03;  4.0000000E+04;  0.0000000E+00;  4.0066246E+04;  1.4880891E+00;  0.0000000E+00; -7.9147160E-02;  9.2448975E+03;
  3.1029338E-02;  9.9999998E-03; -1.1988485E-01;2647;  2.4740537E-01;  0.0000000E+00;  1.2858790E-02;  9.8824646E+02;  1.0000000E-01; -9.7376016E+03;3;  8.1631065E+01;  0.0000000E+00;  8.7468344E-01;0;  1.4216723E+00;  3.9004258E+04;  0.0000000E+00;  9.8827993E-03;  4.0000000E+04;  0.0000000E+00;  4.0067039E+04;  1.4966476E+00;  0.0000000E+00; -7.4975222E-02;  9.3468047E+03;
  3.1033773E-02;  9.9999998E-03; -1.0989737E-01;2648;  2.4925412E-01;  0.0000000E+00;  1.1927266E-02;  9.8825299E+02;  1.0000000E-01; -9.7321689E+03;3;  8.1467979E+01;  0.0000000E+00;  2.8855199E-01;0;  1.4341937E+00;  3.9005348E+04;  0.0000000E+00;  1.0072418E-02;  4.0000000E+04;  0.0000000E+00;  4.0066527E+04;  1.5053557E+00;  0.0000000E+00; -7.1161970E-02;  9.2792002E+03;
  3.9749201E-02;  9.9999998E-03; -2.6987901E-01;2693;  5.7296850E-02;  0.0000000E+00;  2.3437807E-02;  9.9583148E+02;  1.0000000E-01; -3.4535320E+03;3;  2.5506306E+01;  0.0000000E+00;  4.0328266E+01;0;  9.0621150E-01;  3.9774910E+04;  0.0000000E+00; -3.8819599E-01;  4.0000000E+04;  0.0000000E+00;  3.9888176E+04;  8.0342901E-01;  0.0000000E+00;  1.0278250E-01;  1.3644154E+04;
  3.9809838E-02;  9.9999998E-03; -2.5984848E-01;2694;  7.6179959E-02;  0.0000000E+00;  2.2893816E-02;  9.9499146E+02;  1.0000000E-01; -4.1494629E+03;3;  2.6224281E+01;  0.0000000E+00;  2.4260263E+01;0;  9.7687280E-01;  3.9702133E+04;  0.0000000E+00; -3.8837183E-01;  4.0000000E+04;  0.0000000E+00;  3.9893969E+04;  9.0002865E-01;  0.0000000E+00;  7.6844141E-02;  1.2847944E+04;
  3.9897464E-02;  9.9999998E-03; -2.4982499E-01;2695;  9.8730221E-02;  0.0000000E+00;  2.3007534E-02;  9.9412946E+02;  1.0000000E-01; -4.8636157E+03;3;  2.6428740E+01;  0.0000000E+00;  1.1693126E+01;0;  1.0350726E+00;  3.9622902E+04;  0.0000000E+00; -3.6543193E-01;  4.0000000E+04;  0.0000000E+00;  3.9905023E+04;  9.8613977E-01;  0.0000000E+00;  4.8932776E-02;  1.1404512E+04;
  4.0011037E-02;  9.9999998E-03; -2.3980513E-01;2696;  1.2446469E-01;  0.0000000E+00;  2.3832519E-02;  9.9327240E+02;  1.0000000E-01; -5.5736694E+03;3;  2.7010742E+01;  0.0000000E+00;  4.1610785E+00;0;  1.0794480E+00;  3.9540148E+04;  0.0000000E+00; -3.2488388E-01;  4.0000000E+04;  0.0000000E+00;  3.9920375E+04;  1.0588640E+00;  0.0000000E+00;  2.0583943E-02;  9.4158418E+03;
  4.0147010E-02;  9.9999998E-03; -2.2978792E-01;2697;  1.5200198E-01;  0.0000000E+00;  2.5120830E-02;  9.9244897E+02;  1.0000000E-01; -6.2558726E+03;3;  2.8386396E+01;  0.0000000E+00;  8.8179064E-01;0;  1.1097596E+00;  3.9456887E+04;  0.0000000E+00; -2.7455842E-01;  4.0000000E+04;  0.0000000E+00;  3.9938996E+04;  1.1165180E+00;  0.0000000E+00; -6.7583956E-03;  7.0214946E+03;
  4.0298652E-02;  9.9999998E-03; -2.1977410E-01;2698;  1.7851016E-01;  0.0000000E+00;  2.5974676E-02;  9.9167468E+02;  1.0000000E-01; -6.8973853E+03;3;  2.9828939E+01;  0.0000000E+00; -2.3034580E-01;0;  1.1271425E+00;  3.9376148E+04;  0.0000000E+00; -2.2233482E-01;  4.0000000E+04;  0.0000000E+00;  3.9959734E+04;  1.1588776E+00;  0.0000000E+00; -3.1735055E-02;  4.3824961E+03;
  4.0456541E-02;  9.9999998E-03; -2.0976545E-01;2699;  2.0000979E-01;  0.0000000E+00;  2.5073312E-02;  9.9097351E+02;  1.0000000E-01; -7.4782578E+03;3;  2.9709970E+01;  0.0000000E+00; -1.1463474E+00;0;  1.1340899E+00;  3.9300441E+04;  0.0000000E+00; -1.7426459E-01;  4.0000000E+04;  0.0000000E+00;  3.9980898E+04;  1.1871974E+00;  0.0000000E+00; -5.3107474E-02;  1.6709475E+03;
  4.0608950E-02;  9.9999998E-03; -1.9976404E-01;2700;  2.1303068E-01;  0.0000000E+00;  2.2040740E-02;  9.9035461E+02;  1.0000000E-01; -7.9910332E+03;3;  3.0654465E+01;  0.0000000E+00; -1.0950837E+00;0;  1.1341138E+00;  3.9232148E+04;  0.0000000E+00; -1.3361916E-01;  4.0000000E+04;  0.0000000E+00;  4.0001637E+04;  1.2039812E+00;  0.0000000E+00; -6.9867387E-02;  1.0047693E+03;
  4.0746260E-02;  9.9999998E-03; -1.8976985E-01;2701;  2.2048734E-01;  0.0000000E+00;  1.8856790E-02;  9.8982849E+02;  1.0000000E-01; -8.4269219E+03;3;  3.5974583E+01;  0.0000000E+00;  1.3755606E-01;0;  1.1308417E+00;  3.9172629E+04;  0.0000000E+00; -1.0083282E-01;  4.0000000E+04;  0.0000000E+00;  4.0020562E+04;  1.2122757E+00;  0.0000000E+00; -8.1434071E-02;  3.4082937E+03;
  4.0864397E-02;  9.9999998E-03; -1.7978097E-01;2702;  2.2572550E-01;  0.0000000E+00;  1.6305387E-02;  9.8939191E+02;  1.0000000E-01; -8.7885908E+03;3;  4.3912182E+01;  0.0000000E+00;  1.1676307E+00;0;  1.1270467E+00;  3.9122922E+04;  0.0000000E+00; -7.4558571E-02;  4.0000000E+04;  0.0000000E+00;  4.0037020E+04;  1.2149473E+00;  0.0000000E+00; -8.7900646E-02;  5.4984951E+03;
  4.0962581E-02;  9.9999998E-03; -1.6979542E-01;2703;  2.3025402E-01;  0.0000000E+00;  1.4434261E-02;  9.8904651E+02;  1.0000000E-01; -9.0747559E+03;3;  5.1104488E+01;  0.0000000E+00;  1.6596586E+00;0;  1.1244857E+00;  3.9083156E+04;  0.0000000E+00; -5.3000584E-02;  4.0000000E+04;  0.0000000E+00;  4.0050375E+04;  1.2144120E+00;  0.0000000E+00; -8.9926213E-02;  7.1968579E+03;
  4.1040726E-02;  9.9999998E-03; -1.5981169E-01;2704;  2.3427914E-01;  0.0000000E+00;  1.3093804E-02;  9.8878601E+02;  1.0000000E-01; -9.2906016E+03;3;  5.6889343E+01;  0.0000000E+00;  1.7620680E+00;0;  1.1240621E+00;  3.9053301E+04;  0.0000000E+00; -3.4901880E-02;  4.0000000E+04;  0.0000000E+00;  4.0060535E+04;  1.2125846E+00;  0.0000000E+00; -8.8522591E-02;  8.4781680E+03;
  4.1099265E-02;  9.9999998E-03; -1.4982857E-01;2705;  2.3780508E-01;  0.0000000E+00;  1.2132523E-02;  9.8860553E+02;  1.0000000E-01; -9.4400791E+03;3;  6.0975174E+01;  0.0000000E+00;  1.6848837E+00;0;  1.1260319E+00;  3.9032762E+04;  0.0000000E+00; -1.9918736E-02;  4.0000000E+04;  0.0000000E+00;  4.0067344E+04;  1.2108665E+00;  0.0000000E+00; -8.4834576E-02;  9.3562959E+03;
  4.1139316E-02;  9.9999998E-03; -1.3984519E-01;2706;  2.4081826E-01;  0.0000000E+00;  1.1396923E-02;  9.8849762E+02;  1.0000000E-01; -9.5295078E+03;3;  6.3469490E+01;  0.0000000E+00;  1.4364146E+00;0;  1.1302296E+00;  3.9020387E+04;  0.0000000E+00; -8.3702113E-03;  4.0000000E+04;  0.0000000E+00;  4.0071398E+04;  1.2101734E+00;  0.0000000E+00; -7.9943761E-02;  9.8748779E+03;
  4.1162841E-02;  9.9999998E-03; -1.2986112E-01;2707;  2.4336109E-01;  0.0000000E+00;  1.0773494E-02;  9.8845221E+02;  1.0000000E-01; -9.5671367E+03;3;  6.4646172E+01;  0.0000000E+00;  1.0516360E+00;0;  1.1362755E+00;  3.9015344E+04;  0.0000000E+00; -6.9671107E-04;  4.0000000E+04;  0.0000000E+00;  4.0073109E+04;  1.2109947E+00;  0.0000000E+00; -7.4719220E-02;  1.0096299E+04;
  4.1172285E-02;  9.9999998E-03; -1.1987601E-01;2708;  2.4549730E-01;  0.0000000E+00;  1.0181405E-02;  9.8846021E+02;  1.0000000E-01; -9.5605195E+03;3;  6.4749557E+01;  0.0000000E+00;  5.8762759E-01;0;  1.1437275E+00;  3.9016090E+04;  0.0000000E+00;  3.2022428E-03;  4.0000000E+04;  0.0000000E+00;  4.0073160E+04;  1.2134956E+00;  0.0000000E+00; -6.9768012E-02;  1.0090467E+04;
  4.1170433E-02;  9.9999998E-03; -1.0988986E-01;2709;  2.4730541E-01;  0.0000000E+00;  9.5794592E-03;  9.8851270E+02;  1.0000000E-01; -9.5170146E+03;3;  6.4088531E+01;  0.0000000E+00;  1.7194036E-01;0;  1.1520759E+00;  3.9021484E+04;  0.0000000E+00;  4.1635390E-03;  4.0000000E+04;  0.0000000E+00;  4.0071828E+04;  1.2175881E+00;  0.0000000E+00; -6.5512173E-02;  9.9251611E+03;
  4.9770731E-02;  9.9999998E-03; -2.6983476E-01;2754;  6.4854331E-02;  0.0000000E+00;  1.8583227E-02;  9.9505011E+02;  1.0000000E-01; -4.1008716E+03;3;  4.7543427E+01;  0.0000000E+00;  3.3745495E+01;0;  8.6796862E-01;  3.9720738E+04;  0.0000000E+00; -3.6370933E-01;  4.0000000E+04;  0.0000000E+00;  3.9879691E+04;  7.7481830E-01;  0.0000000E+00;  9.3150325E-02;  1.4636375E+04;
  4.9857963E-02;  9.9999998E-03; -2.5980258E-01;2755;  8.6709209E-02;  0.0000000E+00;  1.8728329E-02;  9.9420142E+02;  1.0000000E-01; -4.8040122E+03;3;  4.4960838E+01;  0.0000000E+00;  1.6381758E+01;0;  9.1968638E-01;  3.9645273E+04;  0.0000000E+00; -3.1776291E-01;  4.0000000E+04;  0.0000000E+00;  3.9888020E+04;  8.5452485E-01;  0.0000000E+00;  6.5161534E-02;  1.3526318E+04;
  4.9974967E-02;  9.9999998E-03; -2.4977750E-01;2756;  1.1169530E-01;  0.0000000E+00;  1.9458996E-02;  9.9336523E+02;  1.0000000E-01; -5.4967827E+03;3;  4.0462917E+01;  0.0000000E+00;  4.6109495E+00;0;  9.5611316E-01;  3.9565461E+04;  0.0000000E+00; -2.4934506E-01;  4.0000000E+04;  0.0000000E+00;  3.9901891E+04;  9.2051268E-01;  0.0000000E+00;  3.5600506E-02;  1.1728480E+04;
  5.0117366E-02;  9.9999998E-03; -2.3975766E-01;2757;  1.3870290E-01;  0.0000000E+00;  2.0689713E-02;  9.9256250E+02;  1.0000000E-01; -6.1618506E+03;3;  3.5686977E+01;  0.0000000E+00; -1.2612216E+00;0;  9.7675747E-01;  3.9484312E+04;  0.0000000E+00; -1.7205092E-01;  4.0000000E+04;  0.0000000E+00;  3.9920129E+04;  9.7049809E-01;  0.0000000E+00;  6.2593706E-03;  9.3749316E+03;
  5.0279122E-02;  9.9999998E-03; -2.2974208E-01;2758;  1.6560727E-01;  0.0000000E+00;  2.1885436E-02;  9.9181689E+02;  1.0000000E-01; -6.7795615E+03;3;  3.1083277E+01;  0.0000000E+00; -3.3169093E+00;0;  9.8254800E-01;  3.9404941E+04;  0.0000000E+00; -9.9850476E-02;  4.0000000E+04;  0.0000000E+00;  3.9941551E+04;  1.0037684E+00;  0.0000000E+00; -2.1220438E-02;  6.6339624E+03;
  5.0450809E-02;  9.9999998E-03; -2.1973194E-01;2759;  1.8904236E-01;  0.0000000E+00;  2.1943789E-02;  9.9114722E+02;  1.0000000E-01; -7.3343604E+03;3;  2.6415335E+01;  0.0000000E+00; -3.8377090E+00;0;  9.7592914E-01;  3.9330082E+04;  0.0000000E+00; -4.3357026E-02;  4.0000000E+04;  0.0000000E+00;  3.9964746E+04;  1.0213010E+00;  0.0000000E+00; -4.5371860E-02;  3.6911687E+03;
  5.0621856E-02;  9.9999998E-03; -2.0972863E-01;2760;  2.0530356E-01;  0.0000000E+00;  1.9890901E-02;  9.9056439E+02;  1.0000000E-01; -7.8172109E+03;3;  2.2115564E+01;  0.0000000E+00; -3.8504953E+00;0;  9.6059394E-01;  3.9262121E+04;  0.0000000E+00; -7.6242415E-03;  4.0000000E+04;  0.0000000E+00;  3.9988031E+04;  1.0255711E+00;  0.0000000E+00; -6.4977169E-02;  7.3251807E+02;
  5.0781082E-02;  9.9999998E-03; -1.9973320E-01;2761;  2.1481882E-01;  0.0000000E+00;  1.6756721E-02;  9.9007562E+02;  1.0000000E-01; -8.2221377E+03;3;  2.3152843E+01;  0.0000000E+00; -2.3038912E+00;0;  9.4079632E-01;  3.9202621E+04;  0.0000000E+00;  8.2125254E-03;  4.0000000E+04;  0.0000000E+00;  4.0010051E+04;  1.0199926E+00;  0.0000000E+00; -7.9196274E-02;  2.0709866E+03;
  5.0921366E-02;  9.9999998E-03; -1.8974443E-01;2762;  2.2065620E-01;  0.0000000E+00;  1.3951823E-02;  9.8967938E+02;  1.0000000E-01; -8.5504248E+03;3;  2.7170284E+01;  0.0000000E+00; -7.0226234E-01;0;  9.2027336E-01;  3.9152660E+04;  0.0000000E+00;  9.4481651E-03;  4.0000000E+04;  0.0000000E+00;  4.0029828E+04;  1.0080715E+00;  0.0000000E+00; -8.7798178E-02;  4.5769873E+03;
  5.1039565E-02;  9.9999998E-03; -1.7976040E-01;2763;  2.2525477E-01;  0.0000000E+00;  1.1868826E-02;  9.8936951E+02;  1.0000000E-01; -8.8071582E+03;3;  3.2872616E+01;  0.0000000E+00;  3.9135891E-01;0;  9.0169686E-01;  3.9112684E+04;  0.0000000E+00;  3.2243743E-03;  4.0000000E+04;  0.0000000E+00;  4.0046469E+04;  9.9290264E-01;  0.0000000E+00; -9.1205761E-02;  6.6833628E+03;
  5.1135037E-02;  9.9999998E-03; -1.6977918E-01;2764;  2.2933856E-01;  0.0000000E+00;  1.0411266E-02;  9.8914325E+02;  1.0000000E-01; -8.9946094E+03;3;  3.7895561E+01;  0.0000000E+00;  8.9803803E-01;0;  8.8666582E-01;  3.9082578E+04;  0.0000000E+00; -4.0467223E-03;  4.0000000E+04;  0.0000000E+00;  4.0059484E+04;  9.7699797E-01;  0.0000000E+00; -9.0332180E-02;  8.3342402E+03;
  5.1207896E-02;  9.9999998E-03; -1.5979917E-01;2765;  2.3300089E-01;  0.0000000E+00;  9.4432486E-03;  9.8898901E+02;  1.0000000E-01; -9.1224082E+03;3;  4.1779266E+01;  0.0000000E+00;  1.0946803E+00;0;  8.7587953E-01;  3.9061715E+04;  0.0000000E+00; -8.4199905E-03;  4.0000000E+04;  0.0000000E+00;  4.0068875E+04;  9.6224248E-01;  0.0000000E+00; -8.6362943E-02;  9.5199570E+03;
  5.1259425E-02;  9.9999998E-03; -1.4981909E-01;2766;  2.3623240E-01;  0.0000000E+00;  8.8036060E-03;  9.8890118E+02;  1.0000000E-01; -9.1951475E+03;3;  4.4364231E+01;  0.0000000E+00;  1.0874777E+00;0;  8.6934662E-01;  3.9049320E+04;  0.0000000E+00; -8.8707171E-03;  4.0000000E+04;  0.0000000E+00;  4.0074867E+04;  9.4988900E-01;  0.0000000E+00; -8.0542393E-02;  1.0271230E+04;
  5.1291496E-02;  9.9999998E-03; -1.3983807E-01;2767;  2.3902987E-01;  0.0000000E+00;  8.3614765E-03;  9.8887213E+02;  1.0000000E-01; -9.2192451E+03;3;  4.5636936E+01;  0.0000000E+00;  9.0290445E-01;0;  8.6663985E-01;  3.9044293E+04;  0.0000000E+00; -6.5792808E-03;  4.0000000E+04;  0.0000000E+00;  4.0077770E+04;  9.4063050E-01;  0.0000000E+00; -7.3990673E-02;  1.0648537E+04;
  5.1306762E-02;  9.9999998E-03; -1.2985569E-01;2768;  2.4143706E-01;  0.0000000E+00;  8.0262804E-03;  9.8889319E+02;  1.0000000E-01; -9.2017646E+03;3;  4.5990517E+01;  0.0000000E+00;  7.0024019E-01;0;  8.6712861E-01;  3.9045352E+04;  0.0000000E+00; -3.5793693E-03;  4.0000000E+04;  0.0000000E+00;  4.0078508E+04;  9.3469435E-01;  0.0000000E+00; -6.7565747E-02;  1.0729310E+04;
  5.1308237E-02;  9.9999998E-03; -1.1987177E-01;2769;  2.4350056E-01;  0.0000000E+00;  7.7139074E-03;  9.8895422E+02;  1.0000000E-01; -9.1511982E+03;3;  4.5521435E+01;  0.0000000E+00;  3.8220096E-01;0;  8.7013668E-01;  3.9051336E+04;  0.0000000E+00; -1.3061819E-03;  4.0000000E+04;  0.0000000E+00;  4.0077406E+04;  9.3196815E-01;  0.0000000E+00; -6.1831485E-02;  1.0594721E+04;
  5.1299110E-02;  9.9999998E-03; -1.0988633E-01;2770;  2.4527995E-01;  0.0000000E+00;  7.3801740E-03;  9.8904846E+02;  1.0000000E-01; -9.0731260E+03;3;  4.4519539E+01;  0.0000000E+00;  8.8126004E-02;0;  8.7494314E-01;  3.9060844E+04;  0.0000000E+00; -2.2357235E-04;  4.0000000E+04;  0.0000000E+00;  4.0075270E+04;  9.3209058E-01;  0.0000000E+00; -5.7147447E-02;  1.0319567E+04;
  5.9783854E-02;  9.9999998E-03; -2.6980254E-01;2815;  7.4506231E-02;  0.0000000E+00;  1.5577029E-02;  9.9425220E+02;  1.0000000E-01; -4.7619395E+03;3;  7.1182953E+01;  0.0000000E+00;  2.4554768E+01;0;  8.2005465E-01;  3.9662781E+04;  0.0000000E+00; -3.0338407E-01;  4.0000000E+04;  0.0000000E+00;  3.9873934E+04;  7.4001861E-01;  0.0000000E+00;  8.0036044E-02;  1.5294797E+04;
  5.9897915E-02;  9.9999998E-03; -2.5976849E-01;2816;  9.9151731E-02;  0.0000000E+00;  1.6535157E-02;  9.9342206E+02;  1.0000000E-01; -5.4497227E+03;3;  6.3726269E+01;  0.0000000E+00;  7.7529292E+00;0;  8.5258973E-01;  3.9586434E+04;  0.0000000E+00; -1.9764450E-01;  4.0000000E+04;  0.0000000E+00;  3.9884824E+04;  8.0223119E-01;  0.0000000E+00;  5.0358534E-02;  1.3864231E+04;
  6.0044304E-02;  9.9999998E-03; -2.4974176E-01;2817;  1.2606481E-01;  0.0000000E+00;  1.7874140E-02;  9.9263513E+02;  1.0000000E-01; -6.1016548E+03;3;  5.3151398E+01;  0.0000000E+00; -2.4093635E+00;0;  8.6764652E-01;  3.9508191E+04;  0.0000000E+00; -7.2536036E-02;  4.0000000E+04;  0.0000000E+00;  3.9901402E+04;  8.4802234E-01;  0.0000000E+00;  1.9624162E-02;  1.1719085E+04;
  6.0214657E-02;  9.9999998E-03; -2.3972210E-01;2818;  1.5306433E-01;  0.0000000E+00;  1.9031925E-02;  9.9191687E+02;  1.0000000E-01; -6.6966997E+03;3;  4.1780018E+01;  0.0000000E+00; -6.9061828E+00;0;  8.6581331E-01;  3.9431234E+04;  0.0000000E+00;  4.9288694E-02;  4.0000000E+04;  0.0000000E+00;  3.9922551E+04;  8.7592912E-01;  0.0000000E+00; -1.0115799E-02;  9.0233672E+03;
  6.0400385E-02;  9.9999998E-03; -2.2970890E-01;2819;  1.7756237E-01;  0.0000000E+00;  1.9348506E-02;  9.9128595E+02;  1.0000000E-01; -7.2194502E+03;3;  3.0676104E+01;  0.0000000E+00; -8.1439695E+00;0;  8.4929460E-01;  3.9358605E+04;  0.0000000E+00;  1.4627464E-01;  4.0000000E+04;  0.0000000E+00;  3.9946641E+04;  8.8632298E-01;  0.0000000E+00; -3.7028398E-02;  5.9760991E+03;
  6.0590487E-02;  9.9999998E-03; -2.1970302E-01;2820;  1.9644594E-01;  0.0000000E+00;  1.8032551E-02;  9.9075165E+02;  1.0000000E-01; -7.6621045E+03;3;  2.0882008E+01;  0.0000000E+00; -7.6974454E+00;0;  8.2176203E-01;  3.9292508E+04;  0.0000000E+00;  2.0427623E-01;  4.0000000E+04;  0.0000000E+00;  3.9971605E+04;  8.8134128E-01;  0.0000000E+00; -5.9579268E-02;  2.7924526E+03;
  6.0773637E-02;  9.9999998E-03; -2.0970507E-01;2821;  2.0844193E-01;  0.0000000E+00;  1.5201240E-02;  9.9031769E+02;  1.0000000E-01; -8.0216001E+03;3;  1.5627596E+01;  0.0000000E+00; -5.9524922E+00;0;  7.8779161E-01;  3.9234887E+04;  0.0000000E+00;  2.2049218E-01;  4.0000000E+04;  0.0000000E+00;  3.9996461E+04;  8.6443967E-01;  0.0000000E+00; -7.6648079E-02;  4.7927820E+02;
  6.0940482E-02;  9.9999998E-03; -1.9971471E-01;2822;  2.1573490E-01;  0.0000000E+00;  1.2204992E-02;  9.8998340E+02;  1.0000000E-01; -8.2985801E+03;3;  1.4920445E+01;  0.0000000E+00; -3.5241520E+00;0;  7.5189364E-01;  3.9186777E+04;  0.0000000E+00;  2.0187306E-01;  4.0000000E+04;  0.0000000E+00;  4.0019547E+04;  8.3958185E-01;  0.0000000E+00; -8.7688178E-02;  3.2719956E+03;
  6.1085045E-02;  9.9999998E-03; -1.8973047E-01;2823;  2.2054864E-01;  0.0000000E+00;  9.7441841E-03;  9.8973846E+02;  1.0000000E-01; -8.5014883E+03;3;  1.7266205E+01;  0.0000000E+00; -1.4552634E+00;0;  7.1770567E-01;  3.9148617E+04;  0.0000000E+00;  1.6117473E-01;  4.0000000E+04;  0.0000000E+00;  4.0039551E+04;  8.1054288E-01;  0.0000000E+00; -9.2837192E-02;  5.7849663E+03;
  6.1204538E-02;  9.9999998E-03; -1.7975040E-01;2824;  2.2462747E-01;  0.0000000E+00;  8.0159456E-03;  9.8957123E+02;  1.0000000E-01; -8.6400518E+03;3;  2.0708746E+01;  0.0000000E+00; -2.3714469E-01;0;  6.8768400E-01;  3.9120141E+04;  0.0000000E+00;  1.1262109E-01;  4.0000000E+04;  0.0000000E+00;  4.0055816E+04;  7.8051585E-01;  0.0000000E+00; -9.2831865E-02;  7.8323774E+03;
  6.1298471E-02;  9.9999998E-03; -1.6977264E-01;2825;  2.2832201E-01;  0.0000000E+00;  6.8971645E-03;  9.8947412E+02;  1.0000000E-01; -8.7204941E+03;3;  2.3842751E+01;  0.0000000E+00;  3.8976076E-01;0;  6.6318524E-01;  3.9100949E+04;  0.0000000E+00;  6.7970805E-02;  4.0000000E+04;  0.0000000E+00;  4.0068090E+04;  7.5200564E-01;  0.0000000E+00; -8.8820376E-02;  9.3693652E+03;
  6.1367314E-02;  9.9999998E-03; -1.5979540E-01;2826;  2.3164757E-01;  0.0000000E+00;  6.2125218E-03;  9.8943353E+02;  1.0000000E-01; -8.7541230E+03;3;  2.5960945E+01;  0.0000000E+00;  5.7849771E-01;0;  6.4464611E-01;  3.9090004E+04;  0.0000000E+00;  3.4200590E-02;  4.0000000E+04;  0.0000000E+00;  4.0076262E+04;  7.2678781E-01;  0.0000000E+00; -8.2141712E-02;  1.0402575E+04;
  6.1413005E-02;  9.9999998E-03; -1.4981736E-01;2827;  2.3461026E-01;  0.0000000E+00;  5.8361362E-03;  9.8944153E+02;  1.0000000E-01; -8.7475059E+03;3;  2.7331919E+01;  0.0000000E+00;  6.9242769E-01;0;  6.3181782E-01;  3.9086473E+04;  0.0000000E+00;  1.3046972E-02;  4.0000000E+04;  0.0000000E+00;  4.0080836E+04;  7.0593727E-01;  0.0000000E+00; -7.4119441E-02;  1.0980482E+04;
  6.1437856E-02;  9.9999998E-03; -1.3983773E-01;2828;  2.3721913E-01;  0.0000000E+00;  5.6395796E-03;  9.8949103E+02;  1.0000000E-01; -8.7064697E+03;3;  2.7670116E+01;  0.0000000E+00;  5.7445729E-01;0;  6.2403774E-01;  3.9088852E+04;  0.0000000E+00;  2.2937602E-03;  4.0000000E+04;  0.0000000E+00;  4.0082504E+04;  6.8992686E-01;  0.0000000E+00; -6.5889098E-02;  1.1180912E+04;
  6.1445158E-02;  9.9999998E-03; -1.2985615E-01;2829;  2.3949325E-01;  0.0000000E+00;  5.5231196E-03;  9.8957410E+02;  1.0000000E-01; -8.6376816E+03;3;  2.7345827E+01;  0.0000000E+00;  4.1342747E-01;0;  6.2046927E-01;  3.9096207E+04;  0.0000000E+00; -1.9174747E-03;  4.0000000E+04;  0.0000000E+00;  4.0081871E+04;  6.7874289E-01;  0.0000000E+00; -5.8273621E-02;  1.1096283E+04;
  6.1438553E-02;  9.9999998E-03; -1.1987255E-01;2830;  2.4149251E-01;  0.0000000E+00;  5.4394263E-03;  9.8968610E+02;  1.0000000E-01; -8.5448945E+03;3;  2.6584265E+01;  0.0000000E+00;  2.9535988E-01;0;  6.2023979E-01;  3.9107070E+04;  0.0000000E+00; -2.8139821E-03;  4.0000000E+04;  0.0000000E+00;  4.0079742E+04;  6.7201799E-01;  0.0000000E+00; -5.1778182E-02;  1.0818132E+04;
  6.1422534E-02;  9.9999998E-03; -1.0988650E-01;2831;  2.4325277E-01;  0.0000000E+00;  5.3281165E-03;  9.8981866E+02;  1.0000000E-01; -8.4350205E+03;3;  2.5426105E+01;  0.0000000E+00;  8.7439723E-02;0;  6.2245536E-01;  3.9120383E+04;  0.0000000E+00; -2.5083181E-03;  4.0000000E+04;  0.0000000E+00;  4.0076652E+04;  6.6913873E-01;  0.0000000E+00; -4.6683371E-02;  1.0426876E+04;
  6.9789782E-02;  9.9999998E-03; -2.6978317E-01;2876;  8.6252920E-02;  0.0000000E+00;  1.4771049E-02;  9.9341980E+02;  1.0000000E-01; -5.4515493E+03;3;  9.3736923E+01;  0.0000000E+00;  1.4171892E+01;0;  7.6694125E-01;  3.9599312E+04;  0.0000000E+00; -1.6662911E-01;  4.0000000E+04;  0.0000000E+00;  3.9871172E+04;  7.0301813E-01;  0.0000000E+00;  6.3923135E-02;  1.5569446E+04;
  6.9931298E-02;  9.9999998E-03; -2.5974715E-01;2877;  1.1327574E-01;  0.0000000E+00;  1.6367299E-02;  9.9262927E+02;  1.0000000E-01; -6.1064941E+03;3;  8.0317055E+01;  0.0000000E+00; -1.5443090E+00;0;  7.8089809E-01;  3.9523730E+04;  0.0000000E+00;  9.3706843E-04;  4.0000000E+04;  0.0000000E+00;  3.9884574E+04;  7.4797821E-01;  0.0000000E+00;  3.2919891E-02;  1.3828218E+04;
  7.0105776E-02;  9.9999998E-03; -2.4971938E-01;2878;  1.4082763E-01;  0.0000000E+00;  1.7588057E-02;  9.9192084E+02;  1.0000000E-01; -6.6934404E+03;3;  6.3011768E+01;  0.0000000E+00; -1.0336025E+01;0;  7.7598387E-01;  3.9449344E+04;  0.0000000E+00;  1.7691846E-01;  4.0000000E+04;  0.0000000E+00;  3.9903824E+04;  7.7446103E-01;  0.0000000E+00;  1.5228614E-03;  1.1362039E+04;
  7.0302509E-02;  9.9999998E-03; -2.3970060E-01;2879;  1.6619441E-01;  0.0000000E+00;  1.7829739E-02;  9.9131744E+02;  1.0000000E-01; -7.1933276E+03;3;  4.4987484E+01;  0.0000000E+00; -1.3705481E+01;0;  7.5405622E-01;  3.9379215E+04;  0.0000000E+00;  3.3390293E-01;  4.0000000E+04;  0.0000000E+00;  3.9927562E+04;  7.8201962E-01;  0.0000000E+00; -2.7963411E-02;  8.3690771E+03;
  7.0509881E-02;  9.9999998E-03; -2.2969046E-01;2880;  1.8696979E-01;  0.0000000E+00;  1.6727999E-02;  9.9082941E+02;  1.0000000E-01; -7.5976616E+03;3;  2.8214872E+01;  0.0000000E+00; -1.3642197E+01;0;  7.1859801E-01;  3.9315973E+04;  0.0000000E+00;  4.4689146E-01;  4.0000000E+04;  0.0000000E+00;  3.9953688E+04;  7.7215910E-01;  0.0000000E+00; -5.3561114E-02;  5.0845801E+03;
  7.0716031E-02;  9.9999998E-03; -2.1968910E-01;2881;  2.0136684E-01;  0.0000000E+00;  1.4179458E-02;  9.9045911E+02;  1.0000000E-01; -7.9044678E+03;3;  1.5758162E+01;  0.0000000E+00; -1.1428987E+01;0;  6.7424613E-01;  3.9261410E+04;  0.0000000E+00;  4.9961212E-01;  4.0000000E+04;  0.0000000E+00;  3.9980465E+04;  7.4800789E-01;  0.0000000E+00; -7.3761761E-02;  1.8071261E+03;
  7.0910200E-02;  9.9999998E-03; -2.0969592E-01;2882;  2.1040517E-01;  0.0000000E+00;  1.1046756E-02;  9.9020239E+02;  1.0000000E-01; -8.1171533E+03;3;  9.2000513E+00;  0.0000000E+00; -7.9587040E+00;0;  6.2598538E-01;  3.9216750E+04;  0.0000000E+00;  4.8959336E-01;  4.0000000E+04;  0.0000000E+00;  4.0006180E+04;  7.1364725E-01;  0.0000000E+00; -8.7661833E-02;  1.7325339E+03;
  7.1084514E-02;  9.9999998E-03; -1.9970982E-01;2883;  2.1615756E-01;  0.0000000E+00;  8.2003521E-03;  9.9004388E+02;  1.0000000E-01; -8.2484580E+03;3;  6.8294377E+00;  0.0000000E+00; -4.6778097E+00;0;  5.7826138E-01;  3.9182289E+04;  0.0000000E+00;  4.2893556E-01;  4.0000000E+04;  0.0000000E+00;  4.0029465E+04;  6.7332757E-01;  0.0000000E+00; -9.5066197E-02;  4.5426094E+03;
  7.1233653E-02;  9.9999998E-03; -1.8972917E-01;2884;  2.2027613E-01;  0.0000000E+00;  6.0615456E-03;  9.8996826E+02;  1.0000000E-01; -8.3111230E+03;3;  7.3601131E+00;  0.0000000E+00; -2.1535859E+00;0;  5.3446043E-01;  3.9157762E+04;  0.0000000E+00;  3.3908427E-01;  4.0000000E+04;  0.0000000E+00;  4.0049090E+04;  6.3092172E-01;  0.0000000E+00; -9.6461326E-02;  6.9763706E+03;
  7.1355373E-02;  9.9999998E-03; -1.7975199E-01;2885;  2.2391963E-01;  0.0000000E+00;  4.6305740E-03;  9.8995978E+02;  1.0000000E-01; -8.3181348E+03;3;  8.9573565E+00;  0.0000000E+00; -6.9085795E-01;0;  4.9672544E-01;  3.9142555E+04;  0.0000000E+00;  2.4199134E-01;  4.0000000E+04;  0.0000000E+00;  4.0064484E+04;  5.8959538E-01;  0.0000000E+00; -9.2869945E-02;  8.8879346E+03;
  7.1449608E-02;  9.9999998E-03; -1.6977641E-01;2886;  2.2724727E-01;  0.0000000E+00;  3.7624738E-03;  9.9000055E+02;  1.0000000E-01; -8.2843584E+03;3;  1.0396360E+01;  0.0000000E+00; -3.2651596E-02;0;  4.6609545E-01;  3.9135637E+04;  0.0000000E+00;  1.5486601E-01;  4.0000000E+04;  0.0000000E+00;  4.0075418E+04;  5.5174053E-01;  0.0000000E+00; -8.5645065E-02;  1.0245320E+04;
  7.1516857E-02;  9.9999998E-03; -1.5980069E-01;2887;  2.3027441E-01;  0.0000000E+00;  3.3124734E-03;  9.9007971E+02;  1.0000000E-01; -8.2187803E+03;3;  1.1323944E+01;  0.0000000E+00;  2.3281880E-01;0;  4.4272208E-01;  3.9135465E+04;  0.0000000E+00;  8.7563194E-02;  4.0000000E+04;  0.0000000E+00;  4.0082051E+04;  5.1897353E-01;  0.0000000E+00; -7.6251447E-02;  1.1072644E+04;
  7.1559042E-02;  9.9999998E-03; -1.4982349E-01;2888;  2.3298757E-01;  0.0000000E+00;  3.1282986E-03;  9.9018469E+02;  1.0000000E-01; -8.1318193E+03;3;  1.1698433E+01;  0.0000000E+00;  3.1498951E-01;0;  4.2610618E-01;  3.9141098E+04;  0.0000000E+00;  4.2414166E-02;  4.0000000E+04;  0.0000000E+00;  4.0085012E+04;  4.9217293E-01;  0.0000000E+00; -6.6066742E-02;  1.1436492E+04;
  7.1578935E-02;  9.9999998E-03; -1.3984413E-01;2889;  2.3542482E-01;  0.0000000E+00;  3.1387038E-03;  9.9031158E+02;  1.0000000E-01; -8.0266865E+03;3;  1.1496785E+01;  0.0000000E+00;  3.9432508E-01;0;  4.1537279E-01;  3.9151191E+04;  0.0000000E+00;  1.6105035E-02;  4.0000000E+04;  0.0000000E+00;  4.0085031E+04;  4.7159094E-01;  0.0000000E+00; -5.6218140E-02;  1.1431646E+04;
  7.1580097E-02;  9.9999998E-03; -1.2986235E-01;2890;  2.3759353E-01;  0.0000000E+00;  3.2343837E-03;  9.9045367E+02;  1.0000000E-01; -7.9089614E+03;3;  1.0814531E+01;  0.0000000E+00;  3.4430981E-01;0;  4.0951803E-01;  3.9164488E+04;  0.0000000E+00;  2.9860185E-03;  4.0000000E+04;  0.0000000E+00;  4.0082996E+04;  4.5699257E-01;  0.0000000E+00; -4.7474522E-02;  1.1164406E+04;
  7.1567237E-02;  9.9999998E-03; -1.1987764E-01;2891;  2.3952921E-01;  0.0000000E+00;  3.3387984E-03;  9.9060986E+02;  1.0000000E-01; -7.7795332E+03;3;  9.8735371E+00;  0.0000000E+00;  3.0201805E-01;0;  4.0751910E-01;  3.9179977E+04;  0.0000000E+00; -2.1367793E-03;  4.0000000E+04;  0.0000000E+00;  4.0079629E+04;  4.4778708E-01;  0.0000000E+00; -4.0267989E-02;  1.0735047E+04;
  7.1544901E-02;  9.9999998E-03; -1.0989039E-01;2892;  2.4127395E-01;  0.0000000E+00;  3.4216577E-03;  9.9077277E+02;  1.0000000E-01; -7.6445737E+03;3;  8.7482510E+00;  0.0000000E+00;  2.2470573E-01;0;  4.0838510E-01;  3.9196734E+04;  0.0000000E+00; -3.2073245E-03;  4.0000000E+04;  0.0000000E+00;  4.0075723E+04;  4.4317383E-01;  0.0000000E+00; -3.4788735E-02;  1.0227841E+04;
  7.9794295E-02;  9.9999998E-03; -2.6977447E-01;2937;  9.9621288E-02;  0.0000000E+00;  1.5519703E-02;  9.9253961E+02;  1.0000000E-01; -6.1808125E+03;3;  1.1372485E+02;  0.0000000E+00;  2.5519655E+00;0;  7.1259588E-01;  3.9528504E+04;  0.0000000E+00;  1.5664771E-01;  4.0000000E+04;  0.0000000E+00;  3.9871703E+04;  6.6733754E-01;  0.0000000E+00;  4.5258366E-02;  1.5435562E+04;
  7.9962835E-02;  9.9999998E-03; -2.5973728E-01;2938;  1.2790158E-01;  0.0000000E+00;  1.7075013E-02;  9.9180450E+02;  1.0000000E-01; -6.7898320E+03;3;  9.3448784E+01;  0.0000000E+00; -1.2069088E+01;0;  7.0917267E-01;  3.9455453E+04;  0.0000000E+00;  3.6918464E-01;  4.0000000E+04;  0.0000000E+00;  3.9887527E+04;  6.9582921E-01;  0.0000000E+00;  1.3343431E-02;  1.3410934E+04;
  8.0162585E-02;  9.9999998E-03; -2.4971025E-01;2939;  1.5459603E-01;  0.0000000E+00;  1.7433451E-02;  9.9119812E+02;  1.0000000E-01; -7.2921885E+03;3;  6.9410545E+01;  0.0000000E+00; -1.9537374E+01;0;  6.8638372E-01;  3.9387020E+04;  0.0000000E+00;  5.6060833E-01;  4.0000000E+04;  0.0000000E+00;  3.9909105E+04;  7.0448601E-01;  0.0000000E+00; -1.8102311E-02;  1.0670090E+04;
  8.0383614E-02;  9.9999998E-03; -2.3969309E-01;2940;  1.7711090E-01;  0.0000000E+00;  1.6333224E-02;  9.9073615E+02;  1.0000000E-01; -7.6749429E+03;3;  4.5452904E+01;  0.0000000E+00; -2.1247490E+01;0;  6.4742500E-01;  3.9326148E+04;  0.0000000E+00;  7.0944744E-01;  4.0000000E+04;  0.0000000E+00;  3.9934914E+04;  6.9401395E-01;  0.0000000E+00; -4.6588968E-02;  7.4483892E+03;
  8.0609731E-02;  9.9999998E-03; -2.2968660E-01;2941;  1.9374104E-01;  0.0000000E+00;  1.3833132E-02;  9.9041956E+02;  1.0000000E-01; -7.9372070E+03;3;  2.5317133E+01;  0.0000000E+00; -1.9121883E+01;0;  5.9694231E-01;  3.9274871E+04;  0.0000000E+00;  7.9878509E-01;  4.0000000E+04;  0.0000000E+00;  3.9962758E+04;  6.6703880E-01;  0.0000000E+00; -7.0096463E-02;  4.0382407E+03;
  8.0829233E-02;  9.9999998E-03; -2.1968977E-01;2942;  2.0470908E-01;  0.0000000E+00;  1.0535567E-02;  9.9024078E+02;  1.0000000E-01; -8.0853018E+03;3;  1.1342537E+01;  0.0000000E+00; -1.4740075E+01;0;  5.4018581E-01;  3.9234414E+04;  0.0000000E+00;  8.1833136E-01;  4.0000000E+04;  0.0000000E+00;  3.9990676E+04;  6.2746012E-01;  0.0000000E+00; -8.7274320E-02;  1.2332494E+03;
  8.1032880E-02;  9.9999998E-03; -2.0970085E-01;2943;  2.1164642E-01;  0.0000000E+00;  7.3032686E-03;  9.9018060E+02;  1.0000000E-01; -8.1351768E+03;3;  3.2597349E+00;  0.0000000E+00; -9.8486567E+00;0;  4.8216009E-01;  3.9205141E+04;  0.0000000E+00;  7.6778907E-01;  4.0000000E+04;  0.0000000E+00;  4.0016715E+04;  5.7968932E-01;  0.0000000E+00; -9.7529225E-02;  3.0951882E+03;
  8.1212655E-02;  9.9999998E-03; -1.9971853E-01;2944;  2.1632420E-01;  0.0000000E+00;  4.6491465E-03;  9.9021893E+02;  1.0000000E-01; -8.1034243E+03;3; -5.6207699E-01;  0.0000000E+00; -5.5944200E+00;0;  4.2702794E-01;  3.9186512E+04;  0.0000000E+00;  6.5960681E-01;  4.0000000E+04;  0.0000000E+00;  4.0039559E+04;  5.2804589E-01;  0.0000000E+00; -1.0101796E-01;  5.8216592E+03;
  8.1365779E-02;  9.9999998E-03; -1.8974055E-01;2945;  2.1991420E-01;  0.0000000E+00;  2.7810603E-03;  9.9032977E+02;  1.0000000E-01; -8.0115752E+03;3; -1.4856795E+00;  0.0000000E+00; -2.7094626E+00;0;  3.7774482E-01;  3.9177539E+04;  0.0000000E+00;  5.1802778E-01;  4.0000000E+04;  0.0000000E+00;  4.0058219E+04;  4.7628891E-01;  0.0000000E+00; -9.8544098E-02;  8.0955352E+03;
  8.1489965E-02;  9.9999998E-03; -1.7976515E-01;2946;  2.2316518E-01;  0.0000000E+00;  1.5677522E-03;  9.9048889E+02;  1.0000000E-01; -7.8797764E+03;3; -1.3574549E+00;  0.0000000E+00; -1.0800213E+00;0;  3.3608931E-01;  3.9176910E+04;  0.0000000E+00;  3.7146744E-01;  4.0000000E+04;  0.0000000E+00;  4.0071992E+04;  4.2746115E-01;  0.0000000E+00; -9.1371827E-02;  9.7981777E+03;
  8.1585079E-02;  9.9999998E-03; -1.6979043E-01;2947;  2.2615676E-01;  0.0000000E+00;  8.6124218E-04;  9.9067468E+02;  1.0000000E-01; -7.7258550E+03;3; -1.0281204E+00;  0.0000000E+00; -2.7580956E-01;0;  3.0275664E-01;  3.9183074E+04;  0.0000000E+00;  2.4188888E-01;  4.0000000E+04;  0.0000000E+00;  4.0081180E+04;  3.8377482E-01;  0.0000000E+00; -8.1018172E-02;  1.0915183E+04;
  8.1652693E-02;  9.9999998E-03; -1.5981494E-01;2948;  2.2889028E-01;  0.0000000E+00;  5.3090887E-04;  9.9087579E+02;  1.0000000E-01; -7.5592422E+03;3; -9.2775530E-01;  0.0000000E+00;  4.4228900E-02;0;  2.7757859E-01;  3.9194539E+04;  0.0000000E+00;  1.4129126E-01;  4.0000000E+04;  0.0000000E+00;  4.0085930E+04;  3.4661818E-01;  0.0000000E+00; -6.9039591E-02;  1.1489955E+04;
  8.1694581E-02;  9.9999998E-03; -1.4983739E-01;2949;  2.3139082E-01;  0.0000000E+00;  5.0490297E-04;  9.9107904E+02;  1.0000000E-01; -7.3908521E+03;3; -1.1303838E+00;  0.0000000E+00;  2.0231341E-01;0;  2.5980738E-01;  3.9209664E+04;  0.0000000E+00;  7.2197743E-02;  4.0000000E+04;  0.0000000E+00;  4.0086969E+04;  3.1664705E-01;  0.0000000E+00; -5.6839678E-02;  1.1607196E+04;
  8.1713535E-02;  9.9999998E-03; -1.3985725E-01;2950;  2.3366664E-01;  0.0000000E+00;  6.8393059E-04;  9.9128174E+02;  1.0000000E-01; -7.2229062E+03;3; -1.6918299E+00;  0.0000000E+00;  3.1489497E-01;0;  2.4838302E-01;  3.9227352E+04;  0.0000000E+00;  3.0235430E-02;  4.0000000E+04;  0.0000000E+00;  4.0085227E+04;  2.9389614E-01;  0.0000000E+00; -4.5513116E-02;  1.1377437E+04;
  8.1712954E-02;  9.9999998E-03; -1.2987407E-01;2951;  2.3573640E-01;  0.0000000E+00;  9.8197209E-04;  9.9148151E+02;  1.0000000E-01; -7.0574297E+03;3; -2.5017056E+00;  0.0000000E+00;  3.9786217E-01;0;  2.4216974E-01;  3.9246566E+04;  0.0000000E+00;  8.1926137E-03;  4.0000000E+04;  0.0000000E+00;  4.0081703E+04;  2.7792907E-01;  0.0000000E+00; -3.5759334E-02;  1.0918794E+04;
  8.1697546E-02;  9.9999998E-03; -1.1988756E-01;2952;  2.3762614E-01;  0.0000000E+00;  1.3225604E-03;  9.9167566E+02;  1.0000000E-01; -6.8965454E+03;3; -3.4570816E+00;  0.0000000E+00;  4.3978631E-01;0;  2.4005249E-01;  3.9266348E+04;  0.0000000E+00; -1.1076322E-03;  4.0000000E+04;  0.0000000E+00;  4.0077129E+04;  2.6797879E-01;  0.0000000E+00; -2.7926294E-02;  1.0338154E+04;
  8.1670925E-02;  9.9999998E-03; -1.0989872E-01;2953;  2.3936550E-01;  0.0000000E+00;  1.6473755E-03;  9.9186407E+02;  1.0000000E-01; -6.7404507E+03;3; -4.4408984E+00;  0.0000000E+00;  4.8804462E-01;0;  2.4100454E-01;  3.9285902E+04;  0.0000000E+00; -3.4522382E-03;  4.0000000E+04;  0.0000000E+00;  4.0072270E+04;  2.6310769E-01;  0.0000000E+00; -2.2103148E-02;  9.7215225E+03;
  8.9801066E-02;  9.9999998E-03; -2.6977551E-01;2998;  1.1357696E-01;  0.0000000E+00;  1.6941762E-02;  9.9159277E+02;  1.0000000E-01; -6.9652344E+03;3;  1.2966473E+02;  0.0000000E+00; -1.0567620E+01;0;  6.6051030E-01;  3.9449449E+04;  0.0000000E+00;  8.6313784E-01;  4.0000000E+04;  0.0000000E+00;  3.9875547E+04;  6.3603061E-01;  0.0000000E+00;  2.4479687E-02;  1.4930416E+04;
  8.9996338E-02;  9.9999998E-03; -2.5973776E-01;2999;  1.4196374E-01;  0.0000000E+00;  1.7800136E-02;  9.9093085E+02;  1.0000000E-01; -7.5136143E+03;3;  1.0269543E+02;  0.0000000E+00; -2.3825243E+01;0;  6.4126408E-01;  3.9380273E+04;  0.0000000E+00;  1.0733669E+00;  4.0000000E+04;  0.0000000E+00;  3.9893461E+04;  6.4907175E-01;  0.0000000E+00; -7.8076571E-03;  1.2671260E+04;
  9.0220153E-02;  9.9999998E-03; -2.4971238E-01;3000;  1.6658635E-01;  0.0000000E+00;  1.6841883E-02;  9.9044739E+02;  1.0000000E-01; -7.9141460E+03;3;  7.2570816E+01;  0.0000000E+00; -2.9390926E+01;0;  6.0300070E-01;  3.9319949E+04;  0.0000000E+00;  1.2021009E+00;  4.0000000E+04;  0.0000000E+00;  3.9917211E+04;  6.4155889E-01;  0.0000000E+00; -3.8558170E-02;  9.7247471E+03;
  9.0462215E-02;  9.9999998E-03; -2.3969811E-01;3001;  1.8555294E-01;  0.0000000E+00;  1.4282618E-02;  9.9014929E+02;  1.0000000E-01; -8.1611021E+03;3;  4.4334217E+01;  0.0000000E+00; -2.8899221E+01;0;  5.5029500E-01;  3.9270656E+04;  0.0000000E+00;  1.2522666E+00;  4.0000000E+04;  0.0000000E+00;  3.9944645E+04;  6.1551082E-01;  0.0000000E+00; -6.5215811E-02;  6.3740732E+03;
  9.0703808E-02;  9.9999998E-03; -2.2969583E-01;3002;  1.9859658E-01;  0.0000000E+00;  1.0752155E-02;  9.9002960E+02;  1.0000000E-01; -8.2603086E+03;3;  2.2306477E+01;  0.0000000E+00; -2.4273588E+01;0;  4.8872817E-01;  3.9233754E+04;  0.0000000E+00;  1.2339488E+00;  4.0000000E+04;  0.0000000E+00;  3.9973531E+04;  5.7460237E-01;  0.0000000E+00; -8.5874200E-02;  3.0577112E+03;
  9.0934642E-02;  9.9999998E-03; -2.1970335E-01;3003;  2.0699924E-01;  0.0000000E+00;  7.0852642E-03;  9.9006329E+02;  1.0000000E-01; -8.2323594E+03;3;  7.1473045E+00;  0.0000000E+00; -1.7877296E+01;0;  4.2380360E-01;  3.9209773E+04;  0.0000000E+00;  1.1570712E+00;  4.0000000E+04;  0.0000000E+00;  4.0001758E+04;  5.2326739E-01;  0.0000000E+00; -9.9463783E-02;  1.9592249E+03;
  9.1143668E-02;  9.9999998E-03; -2.0971882E-01;3004;  2.1245202E-01;  0.0000000E+00;  3.8596627E-03;  9.9022198E+02;  1.0000000E-01; -8.1009062E+03;3; -1.8488809E+00;  0.0000000E+00; -1.1615136E+01;0;  3.6032653E-01;  3.9197945E+04;  0.0000000E+00;  1.0293171E+00;  4.0000000E+04;  0.0000000E+00;  4.0027477E+04;  4.6606380E-01;  0.0000000E+00; -1.0573726E-01;  4.4862832E+03;
  9.1327786E-02;  9.9999998E-03; -1.9973962E-01;3005;  2.1636441E-01;  0.0000000E+00;  1.4869246E-03;  9.9047229E+02;  1.0000000E-01; -7.8935044E+03;3; -6.7628651E+00;  0.0000000E+00; -6.4637713E+00;0;  3.0193290E-01;  3.9196953E+04;  0.0000000E+00;  8.6076754E-01;  4.0000000E+04;  0.0000000E+00;  4.0049285E+04;  4.0712702E-01;  0.0000000E+00; -1.0519413E-01;  7.0473589E+03;
  9.1481775E-02;  9.9999998E-03; -1.8976380E-01;3006;  2.1950896E-01;  0.0000000E+00; -1.8653795E-04;  9.9077740E+02;  1.0000000E-01; -7.6407217E+03;3; -8.7280655E+00;  0.0000000E+00; -3.1210554E+00;0;  2.5111464E-01;  3.9204887E+04;  0.0000000E+00;  6.6888797E-01;  4.0000000E+04;  0.0000000E+00;  4.0066328E+04;  3.5001627E-01;  0.0000000E+00; -9.8901622E-02;  9.0887236E+03;
  9.1606230E-02;  9.9999998E-03; -1.7978920E-01;3007;  2.2240780E-01;  0.0000000E+00; -1.2483463E-03;  9.9111139E+02;  1.0000000E-01; -7.3640381E+03;3; -9.5142469E+00;  0.0000000E+00; -1.2384320E+00;0;  2.0916539E-01;  3.9220000E+04;  0.0000000E+00;  4.7821426E-01;  4.0000000E+04;  0.0000000E+00;  4.0078176E+04;  2.9747936E-01;  0.0000000E+00; -8.8313967E-02;  1.0518625E+04;
  9.1702022E-02;  9.9999998E-03; -1.6981432E-01;3008;  2.2509243E-01;  0.0000000E+00; -1.8398794E-03;  9.9144733E+02;  1.0000000E-01; -7.0857251E+03;3; -9.8637075E+00;  0.0000000E+00; -3.1058407E-01;0;  1.7640847E-01;  3.9239961E+04;  0.0000000E+00;  3.1213784E-01;  4.0000000E+04;  0.0000000E+00;  4.0085051E+04;  2.5147128E-01;  0.0000000E+00; -7.5062804E-02;  1.1344250E+04;
  9.1770746E-02;  9.9999998E-03; -1.5983784E-01;3009;  2.2757351E-01;  0.0000000E+00; -2.0563316E-03;  9.9177045E+02;  1.0000000E-01; -6.8180288E+03;3; -1.0268048E+01;  0.0000000E+00;  2.8719848E-02;0;  1.5237255E-01;  3.9263266E+04;  0.0000000E+00;  1.8354353E-01;  4.0000000E+04;  0.0000000E+00;  4.0087641E+04;  2.1312903E-01;  0.0000000E+00; -6.0756471E-02;  1.1629982E+04;
  9.1814883E-02;  9.9999998E-03; -1.4985894E-01;3010;  2.2986905E-01;  0.0000000E+00; -1.9704001E-03;  9.9207227E+02;  1.0000000E-01; -6.5679619E+03;3; -1.0733036E+01;  0.0000000E+00;  2.8121808E-01;0;  1.3606068E-01;  3.9288121E+04;  0.0000000E+00;  9.4491608E-02;  4.0000000E+04;  0.0000000E+00;  4.0086602E+04;  1.8285334E-01;  0.0000000E+00; -4.6792664E-02;  1.1478547E+04;
  9.1836534E-02;  9.9999998E-03; -1.3987704E-01;3011;  2.3199834E-01;  0.0000000E+00; -1.6601488E-03;  9.9234906E+02;  1.0000000E-01; -6.3386353E+03;3; -1.1404322E+01;  0.0000000E+00;  4.5237514E-01;0;  1.2625010E-01;  3.9313383E+04;  0.0000000E+00;  3.9734412E-02;  4.0000000E+04;  0.0000000E+00;  4.0083043E+04;  1.6046073E-01;  0.0000000E+00; -3.4210626E-02;  1.1014397E+04;
  9.1839589E-02;  9.9999998E-03; -1.2989172E-01;3012;  2.3397137E-01;  0.0000000E+00; -1.2110845E-03;  9.9259967E+02;  1.0000000E-01; -6.1310361E+03;3; -1.2206172E+01;  0.0000000E+00;  5.8886933E-01;0;  1.2168618E-01;  3.9338242E+04;  0.0000000E+00;  1.0732109E-02;  4.0000000E+04;  0.0000000E+00;  4.0077957E+04;  1.4531299E-01;  0.0000000E+00; -2.3626821E-02;  1.0364576E+04;
  9.1826737E-02;  9.9999998E-03; -1.1990315E-01;3013;  2.3581274E-01;  0.0000000E+00; -6.7384349E-04;  9.9282770E+02;  1.0000000E-01; -5.9421030E+03;3; -1.3038499E+01;  0.0000000E+00;  7.2261411E-01;0;  1.2120827E-01;  3.9361859E+04;  0.0000000E+00; -1.4462055E-03;  4.0000000E+04;  0.0000000E+00;  4.0072320E+04;  1.3650261E-01;  0.0000000E+00; -1.5294341E-02;  9.6402568E+03;
  9.1801368E-02;  9.9999998E-03; -1.0991228E-01;3014;  2.3754339E-01;  0.0000000E+00; -1.1622426E-04;  9.9303613E+02;  1.0000000E-01; -5.7694165E+03;3; -1.3867627E+01;  0.0000000E+00;  8.2670307E-01;0;  1.2377353E-01;  3.9383820E+04;  0.0000000E+00; -4.2157178E-03;  4.0000000E+04;  0.0000000E+00;  4.0066738E+04;  1.3296247E-01;  0.0000000E+00; -9.1889370E-03;  8.9265537E+03;
  9.9819414E-02;  9.9999998E-03; -2.6978227E-01;3059;  1.2772158E-01;  0.0000000E+00;  1.8491872E-02;  9.9057336E+02;  1.0000000E-01; -7.8098032E+03;3;  1.4110393E+02;  0.0000000E+00; -2.4908789E+01;0;  6.1369264E-01;  3.9361777E+04;  0.0000000E+00;  2.2378080E+00;  4.0000000E+04;  0.0000000E+00;  3.9882594E+04;  6.1171937E-01;  0.0000000E+00;  1.9732565E-03;  1.4281496E+04;
  1.0003723E-01;  9.9999998E-03; -2.5974637E-01;3060;  1.5486805E-01;  0.0000000E+00;  1.8067839E-02;  9.8999927E+02;  1.0000000E-01; -8.2853945E+03;3;  1.0749444E+02;  0.0000000E+00; -3.6226929E+01;0;  5.8021140E-01;  3.9297891E+04;  0.0000000E+00;  2.3445334E+00;  4.0000000E+04;  0.0000000E+00;  3.9902453E+04;  6.1014968E-01;  0.0000000E+00; -2.9938303E-02;  1.1865546E+04;
  1.0028598E-01;  9.9999998E-03; -2.4972272E-01;3061;  1.7655137E-01;  0.0000000E+00;  1.5584957E-02;  9.8965820E+02;  1.0000000E-01; -8.5680039E+03;3;  7.2541443E+01;  0.0000000E+00; -3.9221138E+01;0;  5.2880156E-01;  3.9247387E+04;  0.0000000E+00;  2.2723036E+00;  4.0000000E+04;  0.0000000E+00;  3.9927828E+04;  5.8790588E-01;  0.0000000E+00; -5.9104353E-02;  8.8053408E+03;
  1.0054509E-01;  9.9999998E-03; -2.3971286E-01;3062;  1.9196223E-01;  0.0000000E+00;  1.1783251E-02;  9.8954907E+02;  1.0000000E-01; -8.6583721E+03;3;  4.2131245E+01;  0.0000000E+00; -3.5924942E+01;0;  4.6545985E-01;  3.9211930E+04;  0.0000000E+00;  2.0747430E+00;  4.0000000E+04;  0.0000000E+00;  3.9956406E+04;  5.4850757E-01;  0.0000000E+00; -8.3047718E-02;  5.4837637E+03;
  1.0080002E-01;  9.9999998E-03; -2.2971514E-01;3063;  2.0212936E-01;  0.0000000E+00;  7.6106163E-03;  9.8964508E+02;  1.0000000E-01; -8.5788682E+03;3;  1.9171669E+01;  0.0000000E+00; -2.8823624E+01;0;  3.9639390E-01;  3.9191871E+04;  0.0000000E+00;  1.8145362E+00;  4.0000000E+04;  0.0000000E+00;  3.9985688E+04;  4.9654412E-01;  0.0000000E+00; -1.0015023E-01;  2.7773665E+03;
  1.0103584E-01;  9.9999998E-03; -2.1972793E-01;3064;  2.0858207E-01;  0.0000000E+00;  3.7657381E-03;  9.8991003E+02;  1.0000000E-01; -8.3593682E+03;3;  3.4553759E+00;  0.0000000E+00; -2.0646776E+01;0;  3.2713470E-01;  3.9186312E+04;  0.0000000E+00;  1.5385299E+00;  4.0000000E+04;  0.0000000E+00;  4.0013527E+04;  4.3682167E-01;  0.0000000E+00; -1.0968697E-01;  3.3523840E+03;
  1.0125009E-01;  9.9999998E-03; -2.0974718E-01;3065;  2.1302029E-01;  0.0000000E+00;  7.5323100E-04;  9.9030023E+02;  1.0000000E-01; -8.0360684E+03;3; -6.0450859E+00;  0.0000000E+00; -1.2951999E+01;0;  2.6196891E-01;  3.9193645E+04;  0.0000000E+00;  1.2694643E+00;  4.0000000E+04;  0.0000000E+00;  4.0038301E+04;  3.7375036E-01;  0.0000000E+00; -1.1178143E-01;  5.8535366E+03;
  1.0143247E-01;  9.9999998E-03; -1.9977114E-01;3066;  2.1629593E-01;  0.0000000E+00; -1.4228305E-03;  9.9077045E+02;  1.0000000E-01; -7.6464990E+03;3; -1.1545229E+01;  0.0000000E+00; -7.2306647E+00;0;  2.0403159E-01;  3.9211531E+04;  0.0000000E+00;  1.0121599E+00;  4.0000000E+04;  0.0000000E+00;  4.0058281E+04;  3.1125322E-01;  0.0000000E+00; -1.0722163E-01;  8.1631567E+03;
  1.0158401E-01;  9.9999998E-03; -1.8979684E-01;3067;  2.1908991E-01;  0.0000000E+00; -2.9138131E-03;  9.9127802E+02;  1.0000000E-01; -7.2260171E+03;3; -1.4053217E+01;  0.0000000E+00; -3.3701146E+00;0;  1.5516594E-01;  3.9237453E+04;  0.0000000E+00;  7.6756901E-01;  4.0000000E+04;  0.0000000E+00;  4.0073066E+04;  2.5246239E-01;  0.0000000E+00; -9.7296447E-02;  9.9072520E+03;
  1.0170657E-01;  9.9999998E-03; -1.7982249E-01;3068;  2.2167638E-01;  0.0000000E+00; -3.8474086E-03;  9.9178656E+02;  1.0000000E-01; -6.8046958E+03;3; -1.5372622E+01;  0.0000000E+00; -1.2188855E+00;0;  1.1616214E-01;  3.9268695E+04;  0.0000000E+00;  5.4296494E-01;  4.0000000E+04;  0.0000000E+00;  4.0082520E+04;  1.9975364E-01;  0.0000000E+00; -8.3591498E-02;  1.1013669E+04;
  1.0180067E-01;  9.9999998E-03; -1.6984668E-01;3069;  2.2408852E-01;  0.0000000E+00; -4.3362449E-03;  9.9227179E+02;  1.0000000E-01; -6.4026826E+03;3; -1.6109640E+01;  0.0000000E+00; -2.1544364E-01;0;  8.6948097E-02;  3.9302906E+04;  0.0000000E+00;  3.5190472E-01;  4.0000000E+04;  0.0000000E+00;  4.0086934E+04;  1.5474756E-01;  0.0000000E+00; -6.7799464E-02;  1.1510790E+04;
  1.0186844E-01;  9.9999998E-03; -1.5986843E-01;3070;  2.2634616E-01;  0.0000000E+00; -4.4506486E-03;  9.9271667E+02;  1.0000000E-01; -6.0341006E+03;3; -1.6642195E+01;  0.0000000E+00;  2.7594230E-01;0;  6.6754580E-02;  3.9337922E+04;  0.0000000E+00;  2.0514877E-01;  4.0000000E+04;  0.0000000E+00;  4.0087055E+04;  1.1828905E-01;  0.0000000E+00; -5.1534470E-02;  1.1484548E+04;
  1.0191242E-01;  9.9999998E-03; -1.4988728E-01;3071;  2.2846246E-01;  0.0000000E+00; -4.2686984E-03;  9.9310925E+02;  1.0000000E-01; -5.7088750E+03;3; -1.7242203E+01;  0.0000000E+00;  4.7157142E-01;0;  5.4361630E-02;  3.9372148E+04;  0.0000000E+00;  1.0367826E-01;  4.0000000E+04;  0.0000000E+00;  4.0083891E+04;  9.0515576E-02;  0.0000000E+00; -3.6153946E-02;  1.1055313E+04;
  1.0193519E-01;  9.9999998E-03; -1.3990295E-01;3072;  2.3045333E-01;  0.0000000E+00; -3.8691561E-03;  9.9345154E+02;  1.0000000E-01; -5.4252783E+03;3; -1.7882019E+01;  0.0000000E+00;  6.7499661E-01;0;  4.8379913E-02;  3.9404621E+04;  0.0000000E+00;  4.1539647E-02;  4.0000000E+04;  0.0000000E+00;  4.0078539E+04;  7.1002692E-02;  0.0000000E+00; -2.2622781E-02;  1.0359070E+04;
  1.0193925E-01;  9.9999998E-03; -1.2991501E-01;3073;  2.3233894E-01;  0.0000000E+00; -3.2913561E-03;  9.9374847E+02;  1.0000000E-01; -5.1792607E+03;3; -1.8549601E+01;  0.0000000E+00;  8.7701386E-01;0;  4.7461886E-02;  3.9434371E+04;  0.0000000E+00;  9.1222543E-03;  4.0000000E+04;  0.0000000E+00;  4.0072004E+04;  5.8925923E-02;  0.0000000E+00; -1.1464036E-02;  9.5289268E+03;
  1.0192668E-01;  9.9999998E-03; -1.1992390E-01;3074;  2.3413351E-01;  0.0000000E+00; -2.5739728E-03;  9.9400452E+02;  1.0000000E-01; -4.9671680E+03;3; -1.9233765E+01;  0.0000000E+00;  1.0808288E+00;0;  5.0404284E-02;  3.9461219E+04;  0.0000000E+00; -3.7593574E-03;  4.0000000E+04;  0.0000000E+00;  4.0065363E+04;  5.3223692E-02;  0.0000000E+00; -2.8194075E-03;  8.6773242E+03;
  1.0190053E-01;  9.9999998E-03; -1.0993035E-01;3075;  2.3585966E-01;  0.0000000E+00; -1.8287054E-03;  9.9422668E+02;  1.0000000E-01; -4.7830742E+03;3; -1.9882681E+01;  0.0000000E+00;  1.2170707E+00;0;  5.6174874E-02;  3.9484938E+04;  0.0000000E+00; -5.7020765E-03;  4.0000000E+04;  0.0000000E+00;  4.0059211E+04;  5.2715965E-02;  0.0000000E+00;  3.4589078E-03;  7.8858354E+03;
  1.0985660E-01;  9.9999998E-03; -2.6979244E-01;3120;  1.4151686E-01;  0.0000000E+00;  1.9675100E-02;  9.8948883E+02;  1.0000000E-01; -8.7082959E+03;3;  1.4720926E+02;  0.0000000E+00; -3.9828747E+01;0;  5.7461983E-01;  3.9266168E+04;  0.0000000E+00;  4.6404276E+00;  4.0000000E+04;  0.0000000E+00;  3.9892633E+04;  5.9652394E-01;  0.0000000E+00; -2.1904111E-02;  1.4239412E+04;
  1.1010014E-01;  9.9999998E-03; -2.5975731E-01;3121;  1.6628408E-01;  0.0000000E+00;  1.7548865E-02;  9.8901654E+02;  1.0000000E-01; -9.0995938E+03;3;  1.0788641E+02;  0.0000000E+00; -4.8224106E+01;0;  5.2812034E-01;  3.9208988E+04;  0.0000000E+00;  4.4500356E+00;  4.0000000E+04;  0.0000000E+00;  3.9914316E+04;  5.8057326E-01;  0.0000000E+00; -5.2452937E-02;  1.1738750E+04;
  1.1036970E-01;  9.9999998E-03; -2.4973750E-01;3122;  1.8454178E-01;  0.0000000E+00;  1.3597375E-02;  9.8883734E+02;  1.0000000E-01; -9.2480342E+03;3;  6.9945518E+01;  0.0000000E+00; -4.8012913E+01;0;  4.6558034E-01;  3.9170242E+04;  0.0000000E+00;  3.9525852E+00;  4.0000000E+04;  0.0000000E+00;  3.9940770E+04;  5.4455715E-01;  0.0000000E+00; -7.8976795E-02;  8.6435400E+03;
  1.1064404E-01;  9.9999998E-03; -2.3973297E-01;3123;  1.9678685E-01;  0.0000000E+00;  8.8892067E-03;  9.8893475E+02;  1.0000000E-01; -9.1673447E+03;3;  3.8720379E+01;  0.0000000E+00; -4.1681442E+01;0;  3.9427239E-01;  3.9150652E+04;  0.0000000E+00;  3.2903719E+00;  4.0000000E+04;  0.0000000E+00;  3.9969770E+04;  4.9357885E-01;  0.0000000E+00; -9.9306472E-02;  5.5521836E+03;
  1.1090300E-01;  9.9999998E-03; -2.2974221E-01;3124;  2.0461757E-01;  0.0000000E+00;  4.3620421E-03;  9.8926575E+02;  1.0000000E-01; -8.8931309E+03;3;  1.5554256E+01;  0.0000000E+00; -3.2505615E+01;0;  3.2082534E-01;  3.9149332E+04;  0.0000000E+00;  2.6051481E+00;  4.0000000E+04;  0.0000000E+00;  3.9998621E+04;  4.3302771E-01;  0.0000000E+00; -1.1220238E-01;  3.8256045E+03;
  1.1114433E-01;  9.9999998E-03; -2.1975991E-01;3125;  2.0972139E-01;  0.0000000E+00;  6.0796749E-04;  9.8977368E+02;  1.0000000E-01; -8.4723027E+03;3;  2.4740191E-01;  0.0000000E+00; -2.2602276E+01;0;  2.5039116E-01;  3.9163980E+04;  0.0000000E+00;  1.9951690E+00;  4.0000000E+04;  0.0000000E+00;  4.0025461E+04;  3.6773777E-01;  0.0000000E+00; -1.1734661E-01;  4.9396611E+03;
  1.1135443E-01;  9.9999998E-03; -2.0978384E-01;3126;  2.1339464E-01;  0.0000000E+00; -2.1378864E-03;  9.9040131E+02;  1.0000000E-01; -7.9523179E+03;3; -9.3922405E+00;  0.0000000E+00; -1.4118995E+01;0;  1.8676624E-01;  3.9191738E+04;  0.0000000E+00;  1.4997072E+00;  4.0000000E+04;  0.0000000E+00;  4.0048301E+04;  3.0194461E-01;  0.0000000E+00; -1.1517838E-01;  7.1497710E+03;
  1.1153050E-01;  9.9999998E-03; -1.9981043E-01;3127;  2.1619044E-01;  0.0000000E+00; -4.1191890E-03;  9.9109369E+02;  1.0000000E-01; -7.3787041E+03;3; -1.4858269E+01;  0.0000000E+00; -7.7499061E+00;0;  1.3235089E-01;  3.9229293E+04;  0.0000000E+00;  1.1121022E+00;  4.0000000E+04;  0.0000000E+00;  4.0065992E+04;  2.3908634E-01;  0.0000000E+00; -1.0673545E-01;  9.1212041E+03;
  1.1167683E-01;  9.9999998E-03; -1.8983705E-01;3128;  2.1867274E-01;  0.0000000E+00; -5.4512857E-03;  9.9179901E+02;  1.0000000E-01; -6.7943750E+03;3; -1.7689684E+01;  0.0000000E+00; -3.5497355E+00;0;  8.8343121E-02;  3.9273285E+04;  0.0000000E+00;  8.0519086E-01;  4.0000000E+04;  0.0000000E+00;  4.0078332E+04;  1.8181226E-01;  0.0000000E+00; -9.3469135E-02;  1.0511908E+04;
  1.1179283E-01;  9.9999998E-03; -1.7986235E-01;3129;  2.2098649E-01;  0.0000000E+00; -6.2659923E-03;  9.9247968E+02;  1.0000000E-01; -6.2304404E+03;3; -1.9202526E+01;  0.0000000E+00; -1.1284634E+00;0;  5.5017188E-02;  3.9320523E+04;  0.0000000E+00;  5.5569124E-01;  4.0000000E+04;  0.0000000E+00;  4.0084887E+04;  1.3206227E-01;  0.0000000E+00; -7.7045083E-02;  1.1258312E+04;
  1.1188094E-01;  9.9999998E-03; -1.6988495E-01;3130;  2.2316523E-01;  0.0000000E+00; -6.6555403E-03;  9.9310468E+02;  1.0000000E-01; -5.7126279E+03;3; -2.0025816E+01;  0.0000000E+00;  6.6118717E-02;0;  3.1862788E-02;  3.9368465E+04;  0.0000000E+00;  3.5458663E-01;  4.0000000E+04;  0.0000000E+00;  4.0086723E+04;  9.1027051E-02;  0.0000000E+00; -5.9164263E-02;  1.1406417E+04;
  1.1194316E-01;  9.9999998E-03; -1.5990423E-01;3131;  2.2521926E-01;  0.0000000E+00; -6.6881864E-03;  9.9365930E+02;  1.0000000E-01; -5.2531348E+03;3; -2.0607990E+01;  0.0000000E+00;  5.7319456E-01;0;  1.7808460E-02;  3.9414664E+04;  0.0000000E+00;  2.0245023E-01;  4.0000000E+04;  0.0000000E+00;  4.0084297E+04;  5.9205174E-02;  0.0000000E+00; -4.1396715E-02;  1.1061442E+04;
  1.1198215E-01;  9.9999998E-03; -1.4992015E-01;3132;  2.2717634E-01;  0.0000000E+00; -6.4278012E-03;  9.9413416E+02;  1.0000000E-01; -4.8597632E+03;3; -2.1138594E+01;  0.0000000E+00;  8.3494675E-01;0;  1.1428915E-02;  3.9457672E+04;  0.0000000E+00;  9.8388523E-02;  4.0000000E+04;  0.0000000E+00;  4.0078957E+04;  3.6453880E-02;  0.0000000E+00; -2.5024965E-02;  1.0359661E+04;
  1.1200102E-01;  9.9999998E-03; -1.3993290E-01;3133;  2.2905107E-01;  0.0000000E+00; -5.9355879E-03;  9.9453674E+02;  1.0000000E-01; -4.5261929E+03;3; -2.1690229E+01;  0.0000000E+00;  1.0281965E+00;0;  1.1175871E-02;  3.9496348E+04;  0.0000000E+00;  3.5607714E-02;  4.0000000E+04;  0.0000000E+00;  4.0071941E+04;  2.2098392E-02;  0.0000000E+00; -1.0922521E-02;  9.4460342E+03;
  1.1199982E-01;  9.9999998E-03; -1.2994163E-01;3134;  2.3085977E-01;  0.0000000E+00; -5.2145445E-03;  9.9486908E+02;  1.0000000E-01; -4.2508916E+03;3; -2.2244001E+01;  0.0000000E+00;  1.2728626E+00;0;  1.5612070E-02;  3.9530297E+04;  0.0000000E+00;  3.9363848E-03;  4.0000000E+04;  0.0000000E+00;  4.0064176E+04;  1.5118640E-02;  0.0000000E+00;  4.9342948E-04;  8.4568213E+03;
  1.1198197E-01;  9.9999998E-03; -1.1994734E-01;3135;  2.3261325E-01;  0.0000000E+00; -4.3283217E-03;  9.9514490E+02;  1.0000000E-01; -4.0223550E+03;3; -2.2771328E+01;  0.0000000E+00;  1.4863104E+00;0;  2.3508348E-02;  3.9559488E+04;  0.0000000E+00; -7.3448219E-03;  4.0000000E+04;  0.0000000E+00;  4.0056703E+04;  1.4299370E-02;  0.0000000E+00;  9.2089763E-03;  7.5025396E+03;
  1.1195071E-01;  9.9999998E-03; -1.0995072E-01;3136;  2.3435299E-01;  0.0000000E+00; -3.4349537E-03;  9.9537299E+02;  1.0000000E-01; -3.8333728E+03;3; -2.3262835E+01;  0.0000000E+00;  1.5883173E+00;0;  3.3866677E-02;  3.9584020E+04;  0.0000000E+00; -7.3617231E-03;  4.0000000E+04;  0.0000000E+00;  4.0050078E+04;  1.8363237E-02;  0.0000000E+00;  1.5503439E-02;  6.6584248E+03;
  1.1992627E-01;  9.9999998E-03; -2.6980174E-01;3181;  1.5434065E-01;  0.0000000E+00;  1.9961830E-02;  9.8835345E+02;  1.0000000E-01; -9.6489609E+03;3;  1.4713554E+02;  0.0000000E+00; -5.3781647E+01;0;  5.4508740E-01;  3.9164512E+04;  0.0000000E+00;  8.4749756E+00;  4.0000000E+04;  0.0000000E+00;  3.9905336E+04;  5.9185964E-01;  0.0000000E+00; -4.6772227E-02;  1.6392463E+04;
  1.2019888E-01;  9.9999998E-03; -2.5976679E-01;3182;  1.7589672E-01;  0.0000000E+00;  1.6044991E-02;  9.8799872E+02;  1.0000000E-01; -9.9428291E+03;3;  1.0362913E+02;  0.0000000E+00; -5.8282333E+01;0;  4.8623461E-01;  3.9115473E+04;  0.0000000E+00;  7.6454921E+00;  4.0000000E+04;  0.0000000E+00;  3.9928328E+04;  5.6090909E-01;  0.0000000E+00; -7.4674495E-02;  1.3638428E+04;
  1.2048597E-01;  9.9999998E-03; -2.4975282E-01;3183;  1.9068825E-01;  0.0000000E+00;  1.0856115E-02;  9.8800446E+02;  1.0000000E-01; -9.9380889E+03;3;  6.4543976E+01;  0.0000000E+00; -5.4640263E+01;0;  4.1410360E-01;  3.9090500E+04;  0.0000000E+00;  6.3826976E+00;  4.0000000E+04;  0.0000000E+00;  3.9955574E+04;  5.1148367E-01;  0.0000000E+00; -9.7380079E-02;  1.0311587E+04;
  1.2076622E-01;  9.9999998E-03; -2.3975654E-01;3184;  2.0028545E-01;  0.0000000E+00;  5.6160218E-03;  9.8832715E+02;  1.0000000E-01; -9.6707383E+03;3;  3.3691853E+01;  0.0000000E+00; -4.5776352E+01;0;  3.3704743E-01;  3.9088965E+04;  0.0000000E+00;  4.9652824E+00;  4.0000000E+04;  0.0000000E+00;  3.9984285E+04;  4.5025691E-01;  0.0000000E+00; -1.1320949E-01;  7.2576313E+03;
  1.2102915E-01;  9.9999998E-03; -2.2977304E-01;3185;  2.0634758E-01;  0.0000000E+00;  1.0135843E-03;  9.8890344E+02;  1.0000000E-01; -9.1932705E+03;3;  1.1688811E+01;  0.0000000E+00; -3.4639549E+01;0;  2.6166296E-01;  3.9107824E+04;  0.0000000E+00;  3.6349914E+00;  4.0000000E+04;  0.0000000E+00;  4.0012133E+04;  3.8302764E-01;  0.0000000E+00; -1.2136468E-01;  5.7884043E+03;
  1.2126125E-01;  9.9999998E-03; -2.1979792E-01;3186;  2.1055262E-01;  0.0000000E+00; -2.4007824E-03;  9.8966095E+02;  1.0000000E-01; -8.5656826E+03;3; -2.9511850E+00;  0.0000000E+00; -2.3786831E+01;0;  1.9267467E-01;  3.9143805E+04;  0.0000000E+00;  2.5415385E+00;  4.0000000E+04;  0.0000000E+00;  4.0037047E+04;  3.1457192E-01;  0.0000000E+00; -1.2189725E-01;  6.5857031E+03;
  1.2145948E-01;  9.9999998E-03; -2.0982628E-01;3187;  2.1358728E-01;  0.0000000E+00; -4.9300259E-03;  9.9052649E+02;  1.0000000E-01; -7.8486167E+03;3; -1.1929161E+01;  0.0000000E+00; -1.4799487E+01;0;  1.3310969E-01;  3.9192410E+04;  0.0000000E+00;  1.7307080E+00;  4.0000000E+04;  0.0000000E+00;  4.0057406E+04;  2.4860996E-01;  0.0000000E+00; -1.1550026E-01;  8.3246924E+03;
  1.2162635E-01;  9.9999998E-03; -1.9985488E-01;3188;  2.1604170E-01;  0.0000000E+00; -6.6789580E-03;  9.9143182E+02;  1.0000000E-01; -7.0985640E+03;3; -1.7142057E+01;  0.0000000E+00; -8.0639887E+00;0;  8.4608532E-02;  3.9249527E+04;  0.0000000E+00;  1.1693321E+00;  4.0000000E+04;  0.0000000E+00;  4.0072301E+04;  1.8802084E-01;  0.0000000E+00; -1.0341231E-01;  9.8801260E+03;
  1.2176056E-01;  9.9999998E-03; -1.8988176E-01;3189;  2.1826482E-01;  0.0000000E+00; -7.8530051E-03;  9.9232391E+02;  1.0000000E-01; -6.3594741E+03;3; -1.9882713E+01;  0.0000000E+00; -3.4950356E+00;0;  4.7747239E-02;  3.9311062E+04;  0.0000000E+00;  7.8772032E-01;  4.0000000E+04;  0.0000000E+00;  4.0081512E+04;  1.3493101E-01;  0.0000000E+00; -8.7183774E-02;  1.0874644E+04;
  1.2186486E-01;  9.9999998E-03; -1.7990574E-01;3190;  2.2034714E-01;  0.0000000E+00; -8.5504372E-03;  9.9315851E+02;  1.0000000E-01; -5.6680366E+03;3; -2.1371714E+01;  0.0000000E+00; -8.7517196E-01;0;  2.2225283E-02;  3.9373535E+04;  0.0000000E+00;  5.1930922E-01;  4.0000000E+04;  0.0000000E+00;  4.0085234E+04;  9.0734057E-02;  0.0000000E+00; -6.8508774E-02;  1.1240481E+04;
  1.2194210E-01;  9.9999998E-03; -1.6992593E-01;3191;  2.2232026E-01;  0.0000000E+00; -8.8419346E-03;  9.9391016E+02;  1.0000000E-01; -5.0453384E+03;3; -2.2203840E+01;  0.0000000E+00;  4.2652321E-01;0;  7.0948675E-03;  3.9433973E+04;  0.0000000E+00;  3.2186463E-01;  4.0000000E+04;  0.0000000E+00;  4.0084137E+04;  5.6145109E-02;  0.0000000E+00; -4.9050242E-02;  1.1036317E+04;
  1.2199488E-01;  9.9999998E-03; -1.5994205E-01;3192;  2.2420116E-01;  0.0000000E+00; -8.7959403E-03;  9.9456018E+02;  1.0000000E-01; -4.5067856E+03;3; -2.2740387E+01;  0.0000000E+00;  9.6197760E-01;0;  9.6998364E-04;  3.9490152E+04;  0.0000000E+00;  1.7793040E-01;  4.0000000E+04;  0.0000000E+00;  4.0079441E+04;  3.1260677E-02;  0.0000000E+00; -3.0290693E-02;  1.0382556E+04;
  1.2202591E-01;  9.9999998E-03; -1.4995481E-01;3193;  2.2601898E-01;  0.0000000E+00; -8.4674871E-03;  9.9510614E+02;  1.0000000E-01; -4.0544529E+03;3; -2.3206373E+01;  0.0000000E+00;  1.2110432E+00;0;  2.2175824E-03;  3.9540543E+04;  0.0000000E+00;  8.1248343E-02;  4.0000000E+04;  0.0000000E+00;  4.0072129E+04;  1.5623104E-02;  0.0000000E+00; -1.3405521E-02;  9.4274541E+03;
  1.2203690E-01;  9.9999998E-03; -1.3996388E-01;3194;  2.2778410E-01;  0.0000000E+00; -7.8665148E-03;  9.9555048E+02;  1.0000000E-01; -3.6863645E+03;3; -2.3662045E+01;  0.0000000E+00;  1.4235630E+00;0;  9.1492068E-03;  3.9584441E+04;  0.0000000E+00;  2.4310030E-02;  4.0000000E+04;  0.0000000E+00;  4.0063531E+04;  8.3072390E-03;  0.0000000E+00;  8.4196794E-04;  8.3224238E+03;
  1.2202846E-01;  9.9999998E-03; -1.2996913E-01;3195;  2.2951758E-01;  0.0000000E+00; -6.9857622E-03;  9.9591016E+02;  1.0000000E-01; -3.3883484E+03;3; -2.4094162E+01;  0.0000000E+00;  1.6515676E+00;0;  2.0240467E-02;  3.9621457E+04;  0.0000000E+00; -2.9410140E-03;  4.0000000E+04;  0.0000000E+00;  4.0054848E+04;  8.0836695E-03;  0.0000000E+00;  1.2156799E-02;  7.2036836E+03;
  1.2200250E-01;  9.9999998E-03; -1.1997132E-01;3196;  2.3126879E-01;  0.0000000E+00; -5.9720958E-03;  9.9619574E+02;  1.0000000E-01; -3.1517625E+03;3; -2.4504866E+01;  0.0000000E+00;  1.8575022E+00;0;  3.4261301E-02;  3.9651906E+04;  0.0000000E+00; -1.0912741E-02;  4.0000000E+04;  0.0000000E+00;  4.0046730E+04;  1.3598945E-02;  0.0000000E+00;  2.0662356E-02;  6.1772485E+03;
  1.2196405E-01;  9.9999998E-03; -1.0997137E-01;3197;  2.3305231E-01;  0.0000000E+00; -5.0114184E-03;  9.9641876E+02;  1.0000000E-01; -2.9669775E+03;3; -2.4877363E+01;  0.0000000E+00;  1.9821382E+00;0;  5.0276544E-02;  3.9676484E+04;  0.0000000E+00; -8.4891561E-03;  4.0000000E+04;  0.0000000E+00;  4.0039977E+04;  2.3502333E-02;  0.0000000E+00;  2.6774211E-02;  5.3094053E+03;
  1.3005005E-01;  9.9999998E-03; -2.6980814E-01;3242;  1.6560191E-01;  0.0000000E+00;  1.8866828E-02;  9.8719397E+02;  1.0000000E-01; -1.0609575E+04;3;  1.4128555E+02;  0.0000000E+00; -6.4927979E+01;0;  5.2611542E-01;  3.9058957E+04;  0.0000000E+00;  1.4124404E+01;  4.0000000E+04;  0.0000000E+00;  3.9920551E+04;  5.9815127E-01;  0.0000000E+00; -7.2035842E-02;  2.2345758E+04;
  1.3034689E-01;  9.9999998E-03; -2.5977492E-01;3243;  1.8350405E-01;  0.0000000E+00;  1.3350663E-02;  9.8698639E+02;  1.0000000E-01; -1.0781521E+04;3;  9.5319710E+01;  0.0000000E+00; -6.5209671E+01;0;  4.5503291E-01;  3.9020309E+04;  0.0000000E+00;  1.2099752E+01;  4.0000000E+04;  0.0000000E+00;  3.9944707E+04;  5.5076295E-01;  0.0000000E+00; -9.5730036E-02;  1.8526031E+04;
  1.3064958E-01;  9.9999998E-03; -2.4976735E-01;3244;  1.9527392E-01;  0.0000000E+00;  7.4003572E-03;  9.8719507E+02;  1.0000000E-01; -1.0608638E+04;3;  5.6653385E+01;  0.0000000E+00; -5.8163353E+01;0;  3.7443328E-01;  3.9011516E+04;  0.0000000E+00;  9.5957766E+00;  4.0000000E+04;  0.0000000E+00;  3.9971832E+04;  4.8787594E-01;  0.0000000E+00; -1.1344266E-01;  1.4160523E+04;
  1.3093005E-01;  9.9999998E-03; -2.3978122E-01;3245;  2.0268078E-01;  0.0000000E+00;  1.9112320E-03;  9.8775751E+02;  1.0000000E-01; -1.0142676E+04;3;  2.7494114E+01;  0.0000000E+00; -4.7362690E+01;0;  2.9332587E-01;  3.9029719E+04;  0.0000000E+00;  7.0678248E+00;  4.0000000E+04;  0.0000000E+00;  3.9999434E+04;  4.1730624E-01;  0.0000000E+00; -1.2398037E-01;  1.0305929E+04;
  1.3117662E-01;  9.9999998E-03; -2.2980818E-01;3246;  2.0763490E-01;  0.0000000E+00; -2.2924845E-03;  9.8858844E+02;  1.0000000E-01; -9.4542500E+03;3;  7.2049494E+00;  0.0000000E+00; -3.5029293E+01;0;  2.1798244E-01;  3.9070402E+04;  0.0000000E+00;  4.8600326E+00;  4.0000000E+04;  0.0000000E+00;  4.0025383E+04;  3.4501788E-01;  0.0000000E+00; -1.2703544E-01;  8.1530410E+03;
  1.3138942E-01;  9.9999998E-03; -2.1984011E-01;3247;  2.1105659E-01;  0.0000000E+00; -5.4304847E-03;  9.8959039E+02;  1.0000000E-01; -8.6241504E+03;3; -5.9849133E+00;  0.0000000E+00; -2.4130865E+01;0;  1.5237466E-01;  3.9127809E+04;  0.0000000E+00;  3.1483045E+00;  4.0000000E+04;  0.0000000E+00;  4.0047590E+04;  2.7524766E-01;  0.0000000E+00; -1.2287301E-01;  8.1857676E+03;
  1.3157061E-01;  9.9999998E-03; -2.0987228E-01;3248;  2.1368101E-01;  0.0000000E+00; -7.6325000E-03;  9.9067914E+02;  1.0000000E-01; -7.7221514E+03;3; -1.4029094E+01;  0.0000000E+00; -1.4866213E+01;0;  9.8710120E-02;  3.9196949E+04;  0.0000000E+00;  1.9534864E+00;  4.0000000E+04;  0.0000000E+00;  4.0064914E+04;  2.1112725E-01;  0.0000000E+00; -1.1241713E-01;  9.3186133E+03;
  1.3171765E-01;  9.9999998E-03; -1.9990216E-01;3249;  2.1585031E-01;  0.0000000E+00; -9.1780452E-03;  9.9178162E+02;  1.0000000E-01; -6.8087944E+03;3; -1.8593042E+01;  0.0000000E+00; -7.9470119E+00;0;  5.7895534E-02;  3.9272461E+04;  0.0000000E+00;  1.1898005E+00;  4.0000000E+04;  0.0000000E+00;  4.0076691E+04;  1.5491109E-01;  0.0000000E+00; -9.7015552E-02;  1.0402218E+04;
  1.3183166E-01;  9.9999998E-03; -1.8992816E-01;3250;  2.1785873E-01;  0.0000000E+00; -1.0180053E-02;  9.9283704E+02;  1.0000000E-01; -5.9343994E+03;3; -2.1121368E+01;  0.0000000E+00; -3.2812707E+00;0;  2.9811352E-02;  3.9350055E+04;  0.0000000E+00;  7.2743094E-01;  4.0000000E+04;  0.0000000E+00;  4.0082758E+04;  1.0808682E-01;  0.0000000E+00; -7.8275472E-02;  1.0978237E+04;
  1.3192043E-01;  9.9999998E-03; -1.7994989E-01;3251;  2.1975085E-01;  0.0000000E+00; -1.0746736E-02;  9.9380688E+02;  1.0000000E-01; -5.1308667E+03;3; -2.2482300E+01;  0.0000000E+00; -5.4728705E-01;0;  1.3596829E-02;  3.9425930E+04;  0.0000000E+00;  4.4567299E-01;  4.0000000E+04;  0.0000000E+00;  4.0083426E+04;  7.1458235E-02;  0.0000000E+00; -5.7861406E-02;  1.0961441E+04;
  1.3198489E-01;  9.9999998E-03; -1.6996695E-01;3252;  2.2154842E-01;  0.0000000E+00; -1.0943382E-02;  9.9465997E+02;  1.0000000E-01; -4.4241216E+03;3; -2.3252403E+01;  0.0000000E+00;  7.9640889E-01;0;  7.8755468E-03;  3.9497176E+04;  0.0000000E+00;  2.6269186E-01;  4.0000000E+04;  0.0000000E+00;  4.0079738E+04;  4.5234930E-02;  0.0000000E+00; -3.7359383E-02;  1.0418591E+04;
  1.3202567E-01;  9.9999998E-03; -1.5997970E-01;3253;  2.2328652E-01;  0.0000000E+00; -1.0812254E-02;  9.9538397E+02;  1.0000000E-01; -3.8242866E+03;3; -2.3724411E+01;  0.0000000E+00;  1.3735564E+00;0;  1.0933192E-02;  3.9561539E+04;  0.0000000E+00;  1.3815872E-01;  4.0000000E+04;  0.0000000E+00;  4.0072730E+04;  2.9074054E-02;  0.0000000E+00; -1.8140862E-02;  9.4811680E+03;
  1.3204825E-01;  9.9999998E-03; -1.4998889E-01;3254;  2.2497295E-01;  0.0000000E+00; -1.0369879E-02;  9.9598108E+02;  1.0000000E-01; -3.3295845E+03;3; -2.4127665E+01;  0.0000000E+00;  1.5898732E+00;0;  2.0925505E-02;  3.9617711E+04;  0.0000000E+00;  5.6983724E-02;  4.0000000E+04;  0.0000000E+00;  4.0063727E+04;  2.2169527E-02;  0.0000000E+00; -1.2440209E-03;  8.3044111E+03;
  1.3204935E-01;  9.9999998E-03; -1.3999364E-01;3255;  2.2663768E-01;  0.0000000E+00; -9.6186725E-03;  9.9645697E+02;  1.0000000E-01; -2.9353242E+03;3; -2.4505209E+01;  0.0000000E+00;  1.8087280E+00;0;  3.6027402E-02;  3.9665176E+04;  0.0000000E+00;  1.0788814E-02;  4.0000000E+04;  0.0000000E+00;  4.0053961E+04;  2.3329142E-02;  0.0000000E+00;  1.2698257E-02;  7.0435200E+03;
  1.3203265E-01;  9.9999998E-03; -1.2999518E-01;3256;  2.2833946E-01;  0.0000000E+00; -8.6513981E-03;  9.9682831E+02;  1.0000000E-01; -2.6276785E+03;3; -2.4857870E+01;  0.0000000E+00;  2.0526352E+00;0;  5.4656416E-02;  3.9703969E+04;  0.0000000E+00; -9.6199028E-03;  4.0000000E+04;  0.0000000E+00;  4.0044332E+04;  3.1127874E-02;  0.0000000E+00;  2.3528542E-02;  5.8316177E+03;
  1.3199997E-01;  9.9999998E-03; -1.1999408E-01;3257;  2.3011586E-01;  0.0000000E+00; -7.5939968E-03;  9.9711285E+02;  1.0000000E-01; -2.3919321E+03;3; -2.5188196E+01;  0.0000000E+00;  2.2359099E+00;0;  7.5601093E-02;  3.9734723E+04;  0.0000000E+00; -1.3517778E-02;  4.0000000E+04;  0.0000000E+00;  4.0036078E+04;  4.4085585E-02;  0.0000000E+00;  3.1515509E-02;  4.7674194E+03;
  1.3195588E-01;  9.9999998E-03; -1.0999095E-01;3258;  2.3196368E-01;  0.0000000E+00; -6.6080173E-03;  9.9732477E+02;  1.0000000E-01; -2.2163816E+03;3; -2.5484718E+01;  0.0000000E+00;  2.3112833E+00;0;  9.8004483E-02;  3.9758273E+04;  0.0000000E+00; -8.8185277E-03;  4.0000000E+04;  0.0000000E+00;  4.0029246E+04;  6.0795799E-02;  0.0000000E+00;  3.7208684E-02;  3.9067144E+03;
  1.4024737E-01;  9.9999998E-03; -2.6981324E-01;3303;  1.7487034E-01;  0.0000000E+00;  1.6141100E-02;  9.8603247E+02;  1.0000000E-01; -1.1571820E+04;3;  1.3016165E+02;  0.0000000E+00; -7.0513550E+01;0;  5.1792121E-01;  3.8951461E+04;  0.0000000E+00;  2.1801479E+01;  4.0000000E+04;  0.0000000E+00;  3.9938051E+04;  6.1456060E-01;  0.0000000E+00; -9.6639372E-02;  3.2438406E+04;
  1.4057954E-01;  9.9999998E-03; -2.5977793E-01;3304;  1.8923755E-01;  0.0000000E+00;  9.5219417E-03;  9.8600287E+02;  1.0000000E-01; -1.1596362E+04;3;  8.3652962E+01;  0.0000000E+00; -6.6729362E+01;0;  4.3431279E-01;  3.8926211E+04;  0.0000000E+00;  1.7784470E+01;  4.0000000E+04;  0.0000000E+00;  3.9963016E+04;  5.4885840E-01;  0.0000000E+00; -1.1454561E-01;  2.6164969E+04;
  1.4087969E-01;  9.9999998E-03; -2.4978136E-01;3305;  1.9839267E-01;  0.0000000E+00;  3.1699680E-03;  9.8645306E+02;  1.0000000E-01; -1.1223386E+04;3;  4.6934628E+01;  0.0000000E+00; -5.7440025E+01;0;  3.4616452E-01;  3.8937109E+04;  0.0000000E+00;  1.3436629E+01;  4.0000000E+04;  0.0000000E+00;  3.9989094E+04;  4.7230268E-01;  0.0000000E+00; -1.2613814E-01;  1.9594941E+04;
  1.4113572E-01;  9.9999998E-03; -2.3980935E-01;3306;  2.0441836E-01;  0.0000000E+00; -1.9616438E-03;  9.8727545E+02;  1.0000000E-01; -1.0542022E+04;3;  2.0461575E+01;  0.0000000E+00; -4.5282623E+01;0;  2.6240823E-01;  3.8977562E+04;  0.0000000E+00;  9.4237375E+00;  4.0000000E+04;  0.0000000E+00;  4.0014461E+04;  3.9329576E-01;  0.0000000E+00; -1.3088754E-01;  1.4023833E+04;
  1.4135295E-01;  9.9999998E-03; -2.2984631E-01;3307;  2.0842578E-01;  0.0000000E+00; -5.7514687E-03;  9.8835718E+02;  1.0000000E-01; -9.6458496E+03;3;  2.4289176E+00;  0.0000000E+00; -3.3717033E+01;0;  1.8852006E-01;  3.9040477E+04;  0.0000000E+00;  6.1409125E+00;  4.0000000E+04;  0.0000000E+00;  4.0037566E+04;  3.1718963E-01;  0.0000000E+00; -1.2866957E-01;  1.0569361E+04;
  1.4153621E-01;  9.9999998E-03; -2.1988443E-01;3308;  2.1135977E-01;  0.0000000E+00; -8.4572397E-03;  9.8958923E+02;  1.0000000E-01; -8.6251377E+03;3; -8.9215364E+00;  0.0000000E+00; -2.2905987E+01;0;  1.2767020E-01;  3.9118844E+04;  0.0000000E+00;  3.7287607E+00;  4.0000000E+04;  0.0000000E+00;  4.0056617E+04;  2.4760404E-01;  0.0000000E+00; -1.1993384E-01;  9.6043945E+03;
  1.4168240E-01;  9.9999998E-03; -2.0991957E-01;3309;  2.1362428E-01;  0.0000000E+00; -1.0361160E-02;  9.9087695E+02;  1.0000000E-01; -7.5582549E+03;3; -1.5761026E+01;  0.0000000E+00; -1.3975614E+01;0;  8.1208304E-02;  3.9206730E+04;  0.0000000E+00;  2.1286294E+00;  4.0000000E+04;  0.0000000E+00;  4.0070738E+04;  1.8692692E-01;  0.0000000E+00; -1.0571861E-01;  1.0060789E+04;
  1.4179845E-01;  9.9999998E-03; -1.9994926E-01;3310;  2.1560229E-01;  0.0000000E+00; -1.1660014E-02;  9.9214624E+02;  1.0000000E-01; -6.5066797E+03;3; -1.9662037E+01;  0.0000000E+00; -7.3077183E+00;0;  4.9224421E-02;  3.9298664E+04;  0.0000000E+00;  1.1664504E+00;  4.0000000E+04;  0.0000000E+00;  4.0079004E+04;  1.3666396E-01;  0.0000000E+00; -8.7439537E-02;  1.0654352E+04;
  1.4189100E-01;  9.9999998E-03; -1.8997359E-01;3311;  2.1744084E-01;  0.0000000E+00; -1.2485166E-02;  9.9333710E+02;  1.0000000E-01; -5.5200903E+03;3; -2.1835640E+01;  0.0000000E+00; -2.8054144E+00;0;  3.0940443E-02;  3.9389859E+04;  0.0000000E+00;  6.3346261E-01;  4.0000000E+04;  0.0000000E+00;  4.0081852E+04;  9.7626835E-02;  0.0000000E+00; -6.6686392E-02;  1.0815298E+04;
  1.4196147E-01;  9.9999998E-03; -1.7999266E-01;3312;  2.1917666E-01;  0.0000000E+00; -1.2913358E-02;  9.9440717E+02;  1.0000000E-01; -4.6335479E+03;3; -2.3004333E+01;  0.0000000E+00; -1.3113031E-01;0;  2.4965055E-02;  3.9476711E+04;  0.0000000E+00;  3.4847683E-01;  4.0000000E+04;  0.0000000E+00;  4.0079539E+04;  7.0030607E-02;  0.0000000E+00; -4.5065552E-02;  1.0433979E+04;
  1.4200856E-01;  9.9999998E-03; -1.7000581E-01;3313;  2.2083588E-01;  0.0000000E+00; -1.2990740E-02;  9.9533466E+02;  1.0000000E-01; -3.8651250E+03;3; -2.3673012E+01;  0.0000000E+00;  1.1757886E+00;0;  2.9477825E-02;  3.9556223E+04;  0.0000000E+00;  1.8880418E-01;  4.0000000E+04;  0.0000000E+00;  4.0073598E+04;  5.3537775E-02;  0.0000000E+00; -2.4059949E-02;  9.5825029E+03;
  1.4203905E-01;  9.9999998E-03; -1.6001524E-01;3314;  2.2244214E-01;  0.0000000E+00; -1.2706296E-02;  9.9610938E+02;  1.0000000E-01; -3.2233159E+03;3; -2.4084759E+01;  0.0000000E+00;  1.7662398E+00;0;  4.2451121E-02;  3.9626555E+04;  0.0000000E+00;  9.0833187E-02;  4.0000000E+04;  0.0000000E+00;  4.0064535E+04;  4.7354959E-02;  0.0000000E+00; -4.9038366E-03;  8.3987412E+03;
  1.4205126E-01;  9.9999998E-03; -1.5001996E-01;3315;  2.2401626E-01;  0.0000000E+00; -1.2113271E-02;  9.9673517E+02;  1.0000000E-01; -2.7048616E+03;3; -2.4441463E+01;  0.0000000E+00;  2.0288811E+00;0;  6.1806947E-02;  3.9686520E+04;  0.0000000E+00;  3.0173430E-02;  4.0000000E+04;  0.0000000E+00;  4.0054094E+04;  5.0297514E-02;  0.0000000E+00;  1.1509434E-02;  7.0425957E+03;
  1.4204462E-01;  9.9999998E-03; -1.4002073E-01;3316;  2.2563307E-01;  0.0000000E+00; -1.1262199E-02;  9.9722412E+02;  1.0000000E-01; -2.2997866E+03;3; -2.4780132E+01;  0.0000000E+00;  2.2206955E+00;0;  8.5605539E-02;  3.9735863E+04;  0.0000000E+00; -2.5912896E-03;  4.0000000E+04;  0.0000000E+00;  4.0043367E+04;  6.0903344E-02;  0.0000000E+00;  2.4702195E-02;  5.6682549E+03;
  1.4202110E-01;  9.9999998E-03; -1.3001871E-01;3317;  2.2734456E-01;  0.0000000E+00; -1.0245884E-02;  9.9759308E+02;  1.0000000E-01; -1.9940669E+03;3; -2.5080194E+01;  0.0000000E+00;  2.4290943E+00;0;  1.1222303E-01;  3.9774988E+04;  0.0000000E+00; -1.5150274E-02;  4.0000000E+04;  0.0000000E+00;  4.0033500E+04;  7.7560626E-02;  0.0000000E+00;  3.4662403E-02;  4.4039688E+03;
  1.4198346E-01;  9.9999998E-03; -1.2001460E-01;3318;  2.2916819E-01;  0.0000000E+00; -9.2085758E-03;  9.9786536E+02;  1.0000000E-01; -1.7684930E+03;3; -2.5341393E+01;  0.0000000E+00;  2.5991528E+00;0;  1.4048399E-01;  3.9804828E+04;  0.0000000E+00; -1.5031024E-02;  4.0000000E+04;  0.0000000E+00;  4.0025203E+04;  9.8678216E-02;  0.0000000E+00;  4.1805774E-02;  3.3389792E+03;
  1.4193578E-01;  9.9999998E-03; -1.1000847E-01;3319;  2.3108968E-01;  0.0000000E+00; -8.2644615E-03;  9.9805908E+02;  1.0000000E-01; -1.6080038E+03;3; -2.5597797E+01;  0.0000000E+00;  2.6521924E+00;0;  1.6961204E-01;  3.9826605E+04;  0.0000000E+00; -8.6492002E-03;  4.0000000E+04;  0.0000000E+00;  4.0018711E+04;  1.2280114E-01;  0.0000000E+00;  4.6810891E-02;  2.5170981E+03;
  1.5190740E-01;  9.9999998E-03; -1.1002322E-01;3380;  2.3043095E-01;  0.0000000E+00; -1.0011467E-02;  9.9860498E+02;  1.0000000E-01; -1.1557697E+03;3; -2.5535059E+01;  0.0000000E+00;  2.9200225E+00;0;  2.5822344E-01;  3.9879555E+04;  0.0000000E+00; -8.4929839E-03;  4.0000000E+04;  0.0000000E+00;  4.0008516E+04;  2.0261042E-01;  0.0000000E+00;  5.5613033E-02;  1.2012227E+03;
  1.5195705E-01;  9.9999998E-03; -1.2003185E-01;3379;  2.2842745E-01;  0.0000000E+00; -1.0853574E-02;  9.9843646E+02;  1.0000000E-01; -1.2953707E+03;3; -2.5311676E+01;  0.0000000E+00;  2.9040766E+00;0;  2.2251543E-01;  3.9860422E+04;  0.0000000E+00; -1.5959900E-02;  4.0000000E+04;  0.0000000E+00;  4.0014453E+04;  1.7092744E-01;  0.0000000E+00;  5.1588003E-02;  1.9531729E+03;
  1.5199782E-01;  9.9999998E-03; -1.3003851E-01;3378;  2.2653522E-01;  0.0000000E+00; -1.1829183E-02;  9.9818762E+02;  1.0000000E-01; -1.5015377E+03;3; -2.5056450E+01;  0.0000000E+00;  2.8021474E+00;0;  1.8700923E-01;  3.9832527E+04;  0.0000000E+00; -1.9666273E-02;  4.0000000E+04;  0.0000000E+00;  4.0022512E+04;  1.4139758E-01;  0.0000000E+00;  4.5611650E-02;  2.9813933E+03;
  1.5202586E-01;  9.9999998E-03; -1.4004377E-01;3377;  2.2478785E-01;  0.0000000E+00; -1.2829166E-02;  9.9783063E+02;  1.0000000E-01; -1.7972823E+03;3; -2.4793705E+01;  0.0000000E+00;  2.6492898E+00;0;  1.5240665E-01;  3.9794453E+04;  0.0000000E+00; -1.4923422E-02;  4.0000000E+04;  0.0000000E+00;  4.0032492E+04;  1.1552020E-01;  0.0000000E+00;  3.6886442E-02;  4.2550195E+03;
  1.5203927E-01;  9.9999998E-03; -1.5004654E-01;3376;  2.2317702E-01;  0.0000000E+00; -1.3737457E-02;  9.9734808E+02;  1.0000000E-01; -2.1970735E+03;3; -2.4519802E+01;  0.0000000E+00;  2.4448082E+00;0;  1.1985293E-01;  3.9744914E+04;  0.0000000E+00;  3.7702131E-03;  4.0000000E+04;  0.0000000E+00;  4.0043605E+04;  9.4995245E-02;  0.0000000E+00;  2.4857685E-02;  5.6956763E+03;
  1.5203744E-01;  9.9999998E-03; -1.6004556E-01;3375;  2.2164372E-01;  0.0000000E+00; -1.4465730E-02;  9.9671631E+02;  1.0000000E-01; -2.7204661E+03;3; -2.4215101E+01;  0.0000000E+00;  2.1673889E+00;0;  9.0995334E-02;  3.9683438E+04;  0.0000000E+00;  4.2224560E-02;  4.0000000E+04;  0.0000000E+00;  4.0055184E+04;  8.1610791E-02;  0.0000000E+00;  9.3845427E-03;  7.1823169E+03;
  1.5201965E-01;  9.9999998E-03; -1.7003997E-01;3374;  2.2013444E-01;  0.0000000E+00; -1.4937026E-02;  9.9592017E+02;  1.0000000E-01; -3.3800522E+03;3; -2.3832451E+01;  0.0000000E+00;  1.5990182E+00;0;  6.7874946E-02;  3.9609871E+04;  0.0000000E+00;  1.0999795E-01;  4.0000000E+04;  0.0000000E+00;  4.0065680E+04;  7.7093981E-02;  0.0000000E+00; -9.2190336E-03;  8.5647666E+03;
  1.5198615E-01;  9.9999998E-03; -1.8002973E-01;3373;  2.1860045E-01;  0.0000000E+00; -1.5062892E-02;  9.9495081E+02;  1.0000000E-01; -4.1831406E+03;3; -2.3264791E+01;  0.0000000E+00;  3.3711866E-01;0;  5.2790031E-02;  3.9524973E+04;  0.0000000E+00;  2.3804092E-01;  4.0000000E+04;  0.0000000E+00;  4.0073980E+04;  8.3003908E-02;  0.0000000E+00; -3.0213879E-02;  9.6824834E+03;
  1.5193652E-01;  9.9999998E-03; -1.9001473E-01;3372;  2.1699286E-01;  0.0000000E+00; -1.4809456E-02;  9.9381586E+02;  1.0000000E-01; -5.1234595E+03;3; -2.2314709E+01;  0.0000000E+00; -2.0406113E+00;0;  4.8106328E-02;  3.9430426E+04;  0.0000000E+00;  5.0798064E-01;  4.0000000E+04;  0.0000000E+00;  4.0078852E+04;  1.0061033E-01;  0.0000000E+00; -5.2504003E-02;  1.0390661E+04;
  1.5187129E-01;  9.9999998E-03; -1.9999324E-01;3371;  2.1527776E-01;  0.0000000E+00; -1.4181823E-02;  9.9253290E+02;  1.0000000E-01; -6.1863433E+03;3; -2.0593300E+01;  0.0000000E+00; -6.1410027E+00;0;  5.6062251E-02;  3.9328895E+04;  0.0000000E+00;  1.0781306E+00;  4.0000000E+04;  0.0000000E+00;  4.0079082E+04;  1.3078670E-01;  0.0000000E+00; -7.4724451E-02;  1.0612066E+04;
  1.5179174E-01;  9.9999998E-03; -2.0996453E-01;3370;  2.1344005E-01;  0.0000000E+00; -1.3143884E-02;  9.9113861E+02;  1.0000000E-01; -7.3414707E+03;3; -1.7461451E+01;  0.0000000E+00; -1.2142360E+01;0;  7.8571320E-02;  3.9223824E+04;  0.0000000E+00;  2.1904032E+00;  4.0000000E+04;  0.0000000E+00;  4.0074086E+04;  1.7392808E-01;  0.0000000E+00; -9.5356762E-02;  1.0477741E+04;
  1.5056975E-01;  9.9999998E-03; -2.6980278E-01;3364;  1.8193826E-01;  0.0000000E+00;  1.1647902E-02;  9.8485901E+02;  1.0000000E-01; -1.2544039E+04;3;  1.1619386E+02;  0.0000000E+00; -6.7474274E+01;0;  5.1971591E-01;  3.8840945E+04;  0.0000000E+00;  3.1246227E+01;  4.0000000E+04;  0.0000000E+00;  3.9958270E+04;  6.3859499E-01;  0.0000000E+00; -1.1887911E-01;  4.5844707E+04;
  1.5091226E-01;  9.9999998E-03; -2.5978246E-01;3365;  1.9322829E-01;  0.0000000E+00;  4.4702431E-03;  9.8508008E+02;  1.0000000E-01; -1.2360884E+04;3;  7.0520760E+01;  0.0000000E+00; -6.1195923E+01;0;  4.2369837E-01;  3.8835754E+04;  0.0000000E+00;  2.4257061E+01;  4.0000000E+04;  0.0000000E+00;  3.9982590E+04;  5.5317640E-01;  0.0000000E+00; -1.2947802E-01;  3.5509871E+04;
  1.5118596E-01;  9.9999998E-03; -2.4979976E-01;3366;  2.0060074E-01;  0.0000000E+00; -1.6177837E-03;  9.8581982E+02;  1.0000000E-01; -1.1748013E+04;3;  3.6681660E+01;  0.0000000E+00; -5.1006020E+01;0;  3.2889557E-01;  3.8871438E+04;  0.0000000E+00;  1.7473898E+01;  4.0000000E+04;  0.0000000E+00;  4.0006379E+04;  4.6323726E-01;  0.0000000E+00; -1.3434167E-01;  2.5645652E+04;
  1.5140252E-01;  9.9999998E-03; -2.3983923E-01;3367;  2.0547612E-01;  0.0000000E+00; -6.1099506E-03;  9.8692010E+02;  1.0000000E-01; -1.0836434E+04;3;  1.2925397E+01;  0.0000000E+00; -4.0327873E+01;0;  2.4345692E-01;  3.8936402E+04;  0.0000000E+00;  1.1688330E+01;  4.0000000E+04;  0.0000000E+00;  4.0028609E+04;  3.7663710E-01;  0.0000000E+00; -1.3318019E-01;  1.7709641E+04;
  1.5156718E-01;  9.9999998E-03; -2.2988530E-01;3368;  2.0884730E-01;  0.0000000E+00; -9.3463417E-03;  9.8824756E+02;  1.0000000E-01; -9.7366621E+03;3; -2.3586109E+00;  0.0000000E+00; -2.9714458E+01;0;  1.7214192E-01;  3.9021777E+04;  0.0000000E+00;  7.2437353E+00;  4.0000000E+04;  0.0000000E+00;  4.0048129E+04;  2.9796970E-01;  0.0000000E+00; -1.2582777E-01;  1.2668548E+04;
  1.5169159E-01;  9.9999998E-03; -2.1992834E-01;3369;  2.1137133E-01;  0.0000000E+00; -1.1604154E-02;  9.8968561E+02;  1.0000000E-01; -8.5452881E+03;3; -1.1916762E+01;  0.0000000E+00; -2.0113289E+01;0;  1.1704226E-01;  3.9119672E+04;  0.0000000E+00;  4.1458764E+00;  4.0000000E+04;  0.0000000E+00;  4.0063688E+04;  2.2990255E-01;  0.0000000E+00; -1.1286029E-01;  1.0668465E+04;
  1.6102567E-01;  9.9999998E-03; -2.6978165E-01;3425;  1.8705042E-01;  0.0000000E+00;  5.3601689E-03;  9.8367413E+02;  1.0000000E-01; -1.3525690E+04;3;  1.0189307E+02;  0.0000000E+00; -5.3305035E+01;0;  5.3067040E-01;  3.8726531E+04;  0.0000000E+00;  4.1180019E+01;  4.0000000E+04;  0.0000000E+00;  3.9982070E+04;  6.6643643E-01;  0.0000000E+00; -1.3576603E-01;  6.0427457E+04;
  1.6136518E-01;  9.9999998E-03; -2.5978857E-01;3426;  1.9592413E-01;  0.0000000E+00; -1.5999177E-03;  9.8422876E+02;  1.0000000E-01; -1.3066197E+04;3;  5.7631912E+01;  0.0000000E+00; -4.6819324E+01;0;  4.2270559E-01;  3.8750594E+04;  0.0000000E+00;  3.0392605E+01;  4.0000000E+04;  0.0000000E+00;  4.0003043E+04;  5.6117022E-01;  0.0000000E+00; -1.3846461E-01;  4.4679656E+04;
  1.6159783E-01;  9.9999998E-03; -2.4982306E-01;3427;  2.0197877E-01;  0.0000000E+00; -6.8161073E-03;  9.8531641E+02;  1.0000000E-01; -1.2165087E+04;3;  2.6261360E+01;  0.0000000E+00; -3.9501812E+01;0;  3.2206357E-01;  3.8817059E+04;  0.0000000E+00;  2.0891190E+01;  4.0000000E+04;  0.0000000E+00;  4.0022773E+04;  4.5888865E-01;  0.0000000E+00; -1.3682510E-01;  3.0954393E+04;
  1.6172642E-01;  9.9999998E-03; -2.3987330E-01;3428;  2.0594811E-01;  0.0000000E+00; -1.0549951E-02;  9.8672827E+02;  1.0000000E-01; -1.0995392E+04;3;  5.7533207E+00;  0.0000000E+00; -3.1600029E+01;0;  2.3601229E-01;  3.8910188E+04;  0.0000000E+00;  1.3351325E+01;  4.0000000E+04;  0.0000000E+00;  4.0040797E+04;  3.6610433E-01;  0.0000000E+00; -1.3009204E-01;  2.0545443E+04;
  1.6180198E-01;  9.9999998E-03; -2.2992541E-01;3429;  2.0886359E-01;  0.0000000E+00; -1.3111585E-02;  9.8829358E+02;  1.0000000E-01; -9.6985400E+03;3; -7.1023130E+00;  0.0000000E+00; -2.3419800E+01;0;  1.6817486E-01;  3.9017664E+04;  0.0000000E+00;  7.8745370E+00;  4.0000000E+04;  0.0000000E+00;  4.0056207E+04;  2.8635845E-01;  0.0000000E+00; -1.1818358E-01;  1.4032736E+04;
  1.6184847E-01;  9.9999998E-03; -2.1996926E-01;3430;  2.1115528E-01;  0.0000000E+00; -1.4854374E-02;  9.8990021E+02;  1.0000000E-01; -8.3674668E+03;3; -1.4708014E+01;  0.0000000E+00; -1.5788056E+01;0;  1.1949544E-01;  3.9132398E+04;  0.0000000E+00;  4.2440696E+00;  4.0000000E+04;  0.0000000E+00;  4.0068020E+04;  2.2111380E-01;  0.0000000E+00; -1.0161836E-01;  1.1201158E+04;
  1.6189100E-01;  9.9999998E-03; -2.1000357E-01;3431;  2.1309304E-01;  0.0000000E+00; -1.6026389E-02;  9.9147095E+02;  1.0000000E-01; -7.0661699E+03;3; -1.9020632E+01;  0.0000000E+00; -9.3236055E+00;0;  8.9483492E-02;  3.9248965E+04;  0.0000000E+00;  2.0661335E+00;  4.0000000E+04;  0.0000000E+00;  4.0074984E+04;  1.7094418E-01;  0.0000000E+00; -8.1460692E-02;  1.0513722E+04;
  1.6193259E-01;  9.9999998E-03; -2.0002906E-01;3432;  2.1484259E-01;  0.0000000E+00; -1.6784299E-02;  9.9294293E+02;  1.0000000E-01; -5.8466489E+03;3; -2.1453146E+01;  0.0000000E+00; -4.4902296E+00;0;  7.6738551E-02;  3.9363195E+04;  0.0000000E+00;  8.9902925E-01;  4.0000000E+04;  0.0000000E+00;  4.0076863E+04;  1.3582723E-01;  0.0000000E+00; -5.9088681E-02;  1.0272215E+04;
  1.6196914E-01;  9.9999998E-03; -1.9004706E-01;3433;  2.1646842E-01;  0.0000000E+00; -1.7151542E-02;  9.9427283E+02;  1.0000000E-01; -4.7448530E+03;3; -2.2760759E+01;  0.0000000E+00; -1.0860648E+00;0;  7.9244763E-02;  3.9471113E+04;  0.0000000E+00;  3.4796929E-01;  4.0000000E+04;  0.0000000E+00;  4.0073859E+04;  1.1522979E-01;  0.0000000E+00; -3.5985034E-02;  9.7243682E+03;
  1.6199787E-01;  9.9999998E-03; -1.8005870E-01;3434;  2.1797764E-01;  0.0000000E+00; -1.7145343E-02;  9.9543250E+02;  1.0000000E-01; -3.7840903E+03;3; -2.3483166E+01;  0.0000000E+00;  9.5847148E-01;0;  9.4596356E-02;  3.9569832E+04;  0.0000000E+00;  1.1951970E-01;  4.0000000E+04;  0.0000000E+00;  4.0066809E+04;  1.0815713E-01;  0.0000000E+00; -1.3560773E-02;  8.7404248E+03;
  1.6201831E-01;  9.9999998E-03; -1.7006631E-01;3435;  2.1944019E-01;  0.0000000E+00; -1.6763380E-02;  9.9640509E+02;  1.0000000E-01; -2.9783352E+03;3; -2.3940298E+01;  0.0000000E+00;  2.0480483E+00;0;  1.2015665E-01;  3.9656891E+04;  0.0000000E+00;  3.2042876E-02;  4.0000000E+04;  0.0000000E+00;  4.0056699E+04;  1.1321124E-01;  0.0000000E+00;  6.9454075E-03;  7.4088110E+03;
  1.6202551E-01;  9.9999998E-03; -1.6006905E-01;3436;  2.2090471E-01;  0.0000000E+00; -1.6124008E-02;  9.9719312E+02;  1.0000000E-01; -2.3254648E+03;3; -2.4270195E+01;  0.0000000E+00;  2.5553367E+00;0;  1.5322484E-01;  3.9731094E+04;  0.0000000E+00; -4.1579828E-03;  4.0000000E+04;  0.0000000E+00;  4.0045043E+04;  1.2865676E-01;  0.0000000E+00;  2.4568075E-02;  5.8806514E+03;
  1.6201784E-01;  9.9999998E-03; -1.5006755E-01;3437;  2.2245488E-01;  0.0000000E+00; -1.5273964E-02;  9.9780780E+02;  1.0000000E-01; -1.8161954E+03;3; -2.4538984E+01;  0.0000000E+00;  2.8028009E+00;0;  1.9127011E-01;  3.9791789E+04;  0.0000000E+00; -2.1058535E-02;  4.0000000E+04;  0.0000000E+00;  4.0032930E+04;  1.5256116E-01;  0.0000000E+00;  3.8708951E-02;  4.3154780E+03;
  1.6199774E-01;  9.9999998E-03; -1.4006203E-01;3438;  2.2411367E-01;  0.0000000E+00; -1.4329484E-02;  9.9826758E+02;  1.0000000E-01; -1.4352679E+03;3; -2.4758120E+01;  0.0000000E+00;  2.9716055E+00;0;  2.3216075E-01;  3.9839602E+04;  0.0000000E+00; -2.6394872E-02;  4.0000000E+04;  0.0000000E+00;  4.0021617E+04;  1.8294531E-01;  0.0000000E+00;  4.9215432E-02;  2.8571614E+03;
  1.6196620E-01;  9.9999998E-03; -1.3005416E-01;3439;  2.2592881E-01;  0.0000000E+00; -1.3382634E-02;  9.9859497E+02;  1.0000000E-01; -1.1640164E+03;3; -2.4985424E+01;  0.0000000E+00;  3.0788052E+00;0;  2.7424347E-01;  3.9875188E+04;  0.0000000E+00; -2.3780381E-02;  4.0000000E+04;  0.0000000E+00;  4.0011730E+04;  2.1786259E-01;  0.0000000E+00;  5.6380898E-02;  1.6172269E+03;
  1.6192366E-01;  9.9999998E-03; -1.2004526E-01;3440;  2.2790159E-01;  0.0000000E+00; -1.2525398E-02;  9.9881665E+02;  1.0000000E-01; -9.8036725E+02;3; -2.5198666E+01;  0.0000000E+00;  3.1479294E+00;0;  3.1639671E-01;  3.9900312E+04;  0.0000000E+00; -1.6792772E-02;  4.0000000E+04;  0.0000000E+00;  4.0004410E+04;  2.5550976E-01;  0.0000000E+00;  6.0886934E-02;  6.6210089E+02;
  1.6187358E-01;  9.9999998E-03; -1.1003511E-01;3441;  2.2998752E-01;  0.0000000E+00; -1.1849068E-02;  9.9895825E+02;  1.0000000E-01; -8.6308661E+02;3; -2.5422190E+01;  0.0000000E+00;  3.1298850E+00;0;  3.5797355E-01;  3.9916453E+04;  0.0000000E+00; -8.4744487E-03;  4.0000000E+04;  0.0000000E+00;  3.9999430E+04;  2.9433981E-01;  0.0000000E+00;  6.3633747E-02;  1.4589332E+01;
  1.7159501E-01;  9.9999998E-03; -2.6977569E-01;3486;  1.9062541E-01;  0.0000000E+00; -2.4790687E-03;  9.8247827E+02;  1.0000000E-01; -1.4516428E+04;3;  8.9051399E+01;  0.0000000E+00; -2.5653778E+01;0;  5.5011773E-01;  3.8610930E+04;  0.0000000E+00;  4.8846321E+01;  4.0000000E+04;  0.0000000E+00;  4.0006918E+04;  6.9320333E-01;  0.0000000E+00; -1.4308563E-01;  7.2045609E+04;
  1.7188661E-01;  9.9999998E-03; -2.5981578E-01;3487;  1.9773744E-01;  0.0000000E+00; -8.2302075E-03;  9.8349475E+02;  1.0000000E-01; -1.3674279E+04;3;  4.5969181E+01;  0.0000000E+00; -2.4532473E+01;0;  4.3084133E-01;  3.8676941E+04;  0.0000000E+00;  3.4331669E+01;  4.0000000E+04;  0.0000000E+00;  4.0021141E+04;  5.7005799E-01;  0.0000000E+00; -1.3921665E-01;  5.0828742E+04;
  1.7202637E-01;  9.9999998E-03; -2.4986944E-01;3488;  2.0243326E-01;  0.0000000E+00; -1.2366829E-02;  9.8500385E+02;  1.0000000E-01; -1.2424043E+04;3;  1.7253777E+01;  0.0000000E+00; -2.2896210E+01;0;  3.2539886E-01;  3.8781215E+04;  0.0000000E+00;  2.2632727E+01;  4.0000000E+04;  0.0000000E+00;  4.0035285E+04;  4.5754498E-01;  0.0000000E+00; -1.3214612E-01;  3.3868590E+04;
  1.7204817E-01;  9.9999998E-03; -2.3991977E-01;3489;  2.0586921E-01;  0.0000000E+00; -1.5176039E-02;  9.8674054E+02;  1.0000000E-01; -1.0985220E+04;3; -5.5393893E-01;  0.0000000E+00; -1.9650360E+01;0;  2.3989758E-01;  3.8903242E+04;  0.0000000E+00;  1.3865592E+01;  4.0000000E+04;  0.0000000E+00;  4.0049270E+04;  3.6092335E-01;  0.0000000E+00; -1.2102578E-01;  2.1685828E+04;
  1.7202154E-01;  9.9999998E-03; -2.2996637E-01;3490;  2.0848903E-01;  0.0000000E+00; -1.7025338E-02;  9.8851532E+02;  1.0000000E-01; -9.5148408E+03;3; -1.1051067E+01;  0.0000000E+00; -1.5040751E+01;0;  1.7637795E-01;  3.9030648E+04;  0.0000000E+00;  7.7673635E+00;  4.0000000E+04;  0.0000000E+00;  4.0061133E+04;  2.8197268E-01;  0.0000000E+00; -1.0559473E-01;  1.4301404E+04;
  1.7199194E-01;  9.9999998E-03; -2.2000507E-01;3491;  2.1064925E-01;  0.0000000E+00; -1.8250505E-02;  9.9024536E+02;  1.0000000E-01; -8.0815488E+03;3; -1.7081554E+01;  0.0000000E+00; -1.0272747E+01;0;  1.3469501E-01;  3.9157992E+04;  0.0000000E+00;  3.9014168E+00;  4.0000000E+04;  0.0000000E+00;  4.0069551E+04;  2.2103870E-01;  0.0000000E+00; -8.6343691E-02;  1.1091356E+04;
  1.7197713E-01;  9.9999998E-03; -2.1003464E-01;3492;  2.1255101E-01;  0.0000000E+00; -1.9028423E-02;  9.9187750E+02;  1.0000000E-01; -6.7293398E+03;3; -2.0427698E+01;  0.0000000E+00; -5.9378448E+00;0;  1.1343937E-01;  3.9282480E+04;  0.0000000E+00;  1.7066259E+00;  4.0000000E+04;  0.0000000E+00;  4.0073445E+04;  1.7779112E-01;  0.0000000E+00; -6.4351745E-02;  1.0159789E+04;
  1.7197976E-01;  9.9999998E-03; -2.0005648E-01;3493;  2.1425971E-01;  0.0000000E+00; -1.9439291E-02;  9.9337341E+02;  1.0000000E-01; -5.4900171E+03;3; -2.2219723E+01;  0.0000000E+00; -2.3812342E+00;0;  1.1051244E-01;  3.9401113E+04;  0.0000000E+00;  6.1374402E-01;  4.0000000E+04;  0.0000000E+00;  4.0072488E+04;  1.5147743E-01;  0.0000000E+00; -4.0964987E-02;  9.6567217E+03;
  1.7199035E-01;  9.9999998E-03; -1.9007118E-01;3494;  2.1582647E-01;  0.0000000E+00; -1.9450707E-02;  9.9470111E+02;  1.0000000E-01; -4.3900483E+03;3; -2.3180231E+01;  0.0000000E+00;  1.3076720E-01;0;  1.2333949E-01;  3.9511297E+04;  0.0000000E+00;  1.5189190E-01;  4.0000000E+04;  0.0000000E+00;  4.0067234E+04;  1.4093454E-01;  0.0000000E+00; -1.7595053E-02;  8.8502578E+03;
  1.7200093E-01;  9.9999998E-03; -1.8008043E-01;3495;  2.1730044E-01;  0.0000000E+00; -1.9100685E-02;  9.9583966E+02;  1.0000000E-01; -3.4467664E+03;3; -2.3692513E+01;  0.0000000E+00;  1.6793636E+00;0;  1.4904930E-01;  3.9610219E+04;  0.0000000E+00; -4.4055562E-03;  4.0000000E+04;  0.0000000E+00;  4.0058359E+04;  1.4459941E-01;  0.0000000E+00;  4.4498835E-03;  7.6488218E+03;
  1.7200664E-01;  9.9999998E-03; -1.7008501E-01;3496;  2.1874543E-01;  0.0000000E+00; -1.8462783E-02;  9.9678217E+02;  1.0000000E-01; -2.6658997E+03;3; -2.4027756E+01;  0.0000000E+00;  2.5305099E+00;0;  1.8460481E-01;  3.9696219E+04;  0.0000000E+00; -4.2338587E-02;  4.0000000E+04;  0.0000000E+00;  4.0046938E+04;  1.6056356E-01;  0.0000000E+00;  2.4041245E-02;  6.1610317E+03;
  1.7200346E-01;  9.9999998E-03; -1.6008534E-01;3497;  2.2024469E-01;  0.0000000E+00; -1.7629985E-02;  9.9753503E+02;  1.0000000E-01; -2.0421643E+03;3; -2.4294344E+01;  0.0000000E+00;  2.9539526E+00;0;  2.2699529E-01;  3.9768230E+04;  0.0000000E+00; -4.6844881E-02;  4.0000000E+04;  0.0000000E+00;  4.0034453E+04;  1.8667023E-01;  0.0000000E+00;  4.0325057E-02;  4.5424824E+03;
  1.7198892E-01;  9.9999998E-03; -1.5008157E-01;3498;  2.2184694E-01;  0.0000000E+00; -1.6701255E-02;  9.9811023E+02;  1.0000000E-01; -1.5656346E+03;3; -2.4508533E+01;  0.0000000E+00;  3.1605506E+00;0;  2.7347606E-01;  3.9826191E+04;  0.0000000E+00; -4.3979127E-02;  4.0000000E+04;  0.0000000E+00;  4.0022168E+04;  2.2064807E-01;  0.0000000E+00;  5.2828014E-02;  2.9502959E+03;
  1.7196329E-01;  9.9999998E-03; -1.4007460E-01;3499;  2.2360384E-01;  0.0000000E+00; -1.5751593E-02;  9.9853003E+02;  1.0000000E-01; -1.2178420E+03;3; -2.4685856E+01;  0.0000000E+00;  3.2687612E+00;0;  3.2179126E-01;  3.9870652E+04;  0.0000000E+00; -3.7193172E-02;  4.0000000E+04;  0.0000000E+00;  4.0011055E+04;  2.6025975E-01;  0.0000000E+00;  6.1531503E-02;  1.5211804E+03;
  1.7192860E-01;  9.9999998E-03; -1.3006511E-01;3500;  2.2552723E-01;  0.0000000E+00; -1.4892790E-02;  9.9882318E+02;  1.0000000E-01; -9.7498468E+02;3; -2.4890936E+01;  0.0000000E+00;  3.3160000E+00;0;  3.7029234E-01;  3.9902949E+04;  0.0000000E+00; -2.7614275E-02;  4.0000000E+04;  0.0000000E+00;  4.0001945E+04;  3.0342084E-01;  0.0000000E+00;  6.6871494E-02;  3.5654086E+02;
  1.7188583E-01;  9.9999998E-03; -1.2005456E-01;3501;  2.2760315E-01;  0.0000000E+00; -1.4207687E-02;  9.9901227E+02;  1.0000000E-01; -8.1829779E+02;3; -2.5087885E+01;  0.0000000E+00;  3.3100917E+00;0;  4.1789359E-01;  3.9924566E+04;  0.0000000E+00; -1.7282840E-02;  4.0000000E+04;  0.0000000E+00;  3.9995117E+04;  3.4825200E-01;  0.0000000E+00;  6.9641605E-02;  4.9548325E+02;
  1.7183726E-01;  9.9999998E-03; -1.1004429E-01;3502;  2.2978151E-01;  0.0000000E+00; -1.3746915E-02;  9.9912372E+02;  1.0000000E-01; -7.2600409E+02;3; -2.5315069E+01;  0.0000000E+00;  3.1215274E+00;0;  4.6397850E-01;  3.9937418E+04;  0.0000000E+00; -7.8999335E-03;  4.0000000E+04;  0.0000000E+00;  3.9991070E+04;  3.9315280E-01;  0.0000000E+00;  7.0825689E-02;  1.0241149E+03;
  1.8211254E-01;  9.9999998E-03; -2.6982734E-01;3547;  1.9315059E-01;  0.0000000E+00; -1.0725558E-02;  9.8147803E+02;  1.0000000E-01; -1.5345096E+04;3;  7.7254570E+01;  0.0000000E+00;  1.3501085E+01;0;  5.7610941E-01;  3.8519449E+04;  0.0000000E+00;  5.1348644E+01;  4.0000000E+04;  0.0000000E+00;  4.0022602E+04;  7.1353006E-01;  0.0000000E+00; -1.3742062E-01;  7.6257484E+04;
  1.8229784E-01;  9.9999998E-03; -2.5988111E-01;3548;  1.9819377E-01;  0.0000000E+00; -1.4970162E-02;  9.8307062E+02;  1.0000000E-01; -1.4025677E+04;3;  3.6047081E+01;  0.0000000E+00;  3.4930961E+00;0;  4.4609436E-01;  3.8635363E+04;  0.0000000E+00;  3.4745209E+01;  4.0000000E+04;  0.0000000E+00;  4.0031129E+04;  5.7577670E-01;  0.0000000E+00; -1.2968233E-01;  5.1829641E+04;
  1.8234079E-01;  9.9999998E-03; -2.4993379E-01;3549;  2.0220998E-01;  0.0000000E+00; -1.7968899E-02;  9.8499536E+02;  1.0000000E-01; -1.2431055E+04;3;  1.0196048E+01;  0.0000000E+00; -3.0609331E+00;0;  3.3810741E-01;  3.8774949E+04;  0.0000000E+00;  2.2081614E+01;  4.0000000E+04;  0.0000000E+00;  4.0041582E+04;  4.5748645E-01;  0.0000000E+00; -1.1937905E-01;  3.3379816E+04;
  1.8229078E-01;  9.9999998E-03; -2.3997276E-01;3550;  2.0520349E-01;  0.0000000E+00; -1.9929718E-02;  9.8699426E+02;  1.0000000E-01; -1.0775003E+04;3; -5.1894526E+00;  0.0000000E+00; -6.0185447E+00;0;  2.5469074E-01;  3.8919809E+04;  0.0000000E+00;  1.2926964E+01;  4.0000000E+04;  0.0000000E+00;  4.0053164E+04;  3.6027354E-01;  0.0000000E+00; -1.0558281E-01;  2.0661229E+04;
  1.8219508E-01;  9.9999998E-03; -2.3000559E-01;3551;  2.0768648E-01;  0.0000000E+00; -2.1108899E-02;  9.8891895E+02;  1.0000000E-01; -9.1804307E+03;3; -1.3968313E+01;  0.0000000E+00; -6.0330038E+00;0;  1.9654192E-01;  3.9061016E+04;  0.0000000E+00;  6.7948523E+00;  4.0000000E+04;  0.0000000E+00;  4.0062621E+04;  2.8463066E-01;  0.0000000E+00; -8.8088736E-02;  1.3339828E+04;
  1.8210375E-01;  9.9999998E-03; -2.2003521E-01;3552;  2.0986000E-01;  0.0000000E+00; -2.1818139E-02;  9.9070636E+02;  1.0000000E-01; -7.6995840E+03;3; -1.8895638E+01;  0.0000000E+00; -4.3691397E+00;0;  1.6243976E-01;  3.9195586E+04;  0.0000000E+00;  3.0830967E+00;  4.0000000E+04;  0.0000000E+00;  4.0068242E+04;  2.2981380E-01;  0.0000000E+00; -6.7374036E-02;  1.0366001E+04;
  1.8204142E-01;  9.9999998E-03; -2.1005921E-01;3553;  2.1177119E-01;  0.0000000E+00; -2.2111889E-02;  9.9234076E+02;  1.0000000E-01; -6.3455483E+03;3; -2.1565054E+01;  0.0000000E+00; -2.1836107E+00;0;  1.5009299E-01;  3.9322727E+04;  0.0000000E+00;  1.1120329E+00;  4.0000000E+04;  0.0000000E+00;  4.0069477E+04;  1.9467670E-01;  0.0000000E+00; -4.4583701E-02;  9.4702646E+03;
  1.8201081E-01;  9.9999998E-03; -2.0007606E-01;3554;  2.1348800E-01;  0.0000000E+00; -2.1988878E-02;  9.9380615E+02;  1.0000000E-01; -5.1315088E+03;3; -2.2892342E+01;  0.0000000E+00; -1.1219587E-01;0;  1.5681759E-01;  3.9441336E+04;  0.0000000E+00;  2.3042262E-01;  4.0000000E+04;  0.0000000E+00;  4.0066359E+04;  1.7784217E-01;  0.0000000E+00; -2.1024583E-02;  8.8175967E+03;
  1.8199925E-01;  9.9999998E-03; -1.9008668E-01;3555;  2.1505055E-01;  0.0000000E+00; -2.1533709E-02;  9.9508429E+02;  1.0000000E-01; -4.0725759E+03;3; -2.3533792E+01;  0.0000000E+00;  1.4505215E+00;0;  1.7957203E-01;  3.9549430E+04;  0.0000000E+00; -7.3203735E-02;  4.0000000E+04;  0.0000000E+00;  4.0059168E+04;  1.7759123E-01;  0.0000000E+00;  1.9807927E-03;  7.8178521E+03;
  1.8199538E-01;  9.9999998E-03; -1.8009314E-01;3556;  2.1655875E-01;  0.0000000E+00; -2.0822207E-02;  9.9616638E+02;  1.0000000E-01; -3.1760581E+03;3; -2.3856861E+01;  0.0000000E+00;  2.4487386E+00;0;  2.1502450E-01;  3.9645090E+04;  0.0000000E+00; -1.2940408E-01;  4.0000000E+04;  0.0000000E+00;  4.0048879E+04;  1.9184691E-01;  0.0000000E+00;  2.3177601E-02;  6.4567612E+03;
  1.8199049E-01;  9.9999998E-03; -1.7009565E-01;3557;  2.1805577E-01;  0.0000000E+00; -1.9935710E-02;  9.9704712E+02;  1.0000000E-01; -2.4463997E+03;3; -2.4082691E+01;  0.0000000E+00;  3.0119805E+00;0;  2.5973529E-01;  3.9727031E+04;  0.0000000E+00; -1.1083624E-01;  4.0000000E+04;  0.0000000E+00;  4.0036871E+04;  2.1823598E-01;  0.0000000E+00;  4.1499306E-02;  4.8687729E+03;
  1.8197738E-01;  9.9999998E-03; -1.6009413E-01;3558;  2.1964449E-01;  0.0000000E+00; -1.8946202E-02;  9.9773767E+02;  1.0000000E-01; -1.8743173E+03;3; -2.4267027E+01;  0.0000000E+00;  3.3162656E+00;0;  3.1036985E-01;  3.9794473E+04;  0.0000000E+00; -8.4571965E-02;  4.0000000E+04;  0.0000000E+00;  4.0023941E+04;  2.5420091E-01;  0.0000000E+00;  5.6168947E-02;  3.2134250E+03;
  1.8195561E-01;  9.9999998E-03; -1.5008910E-01;3559;  2.2138384E-01;  0.0000000E+00; -1.7943380E-02;  9.9825610E+02;  1.0000000E-01; -1.4447986E+03;3; -2.4450138E+01;  0.0000000E+00;  3.4355319E+00;0;  3.6399499E-01;  3.9847801E+04;  0.0000000E+00; -6.4079180E-02;  4.0000000E+04;  0.0000000E+00;  4.0011691E+04;  2.9718298E-01;  0.0000000E+00;  6.6812001E-02;  1.6432230E+03;
  1.8192527E-01;  9.9999998E-03; -1.4008094E-01;3560;  2.2328226E-01;  0.0000000E+00; -1.7042140E-02;  9.9862653E+02;  1.0000000E-01; -1.1378937E+03;3; -2.4603735E+01;  0.0000000E+00;  3.4852862E+00;0;  4.1825515E-01;  3.9887777E+04;  0.0000000E+00; -4.6401866E-02;  4.0000000E+04;  0.0000000E+00;  4.0001117E+04;  3.4473607E-01;  0.0000000E+00;  7.3519081E-02;  2.9058017E+02;
  1.8188824E-01;  9.9999998E-03; -1.3007072E-01;3561;  2.2535333E-01;  0.0000000E+00; -1.6317975E-02;  9.9887891E+02;  1.0000000E-01; -9.2881317E+02;3; -2.4778606E+01;  0.0000000E+00;  3.4409506E+00;0;  4.7149032E-01;  3.9915914E+04;  0.0000000E+00; -3.0093625E-02;  4.0000000E+04;  0.0000000E+00;  3.9992875E+04;  3.9465019E-01;  0.0000000E+00;  7.6840125E-02;  7.7395532E+02;
  1.8184626E-01;  9.9999998E-03; -1.2005992E-01;3562;  2.2756897E-01;  0.0000000E+00; -1.5837559E-02;  9.9903497E+02;  1.0000000E-01; -7.9948352E+02;3; -2.4985252E+01;  0.0000000E+00;  3.2228179E+00;0;  5.2265191E-01;  3.9933805E+04;  0.0000000E+00; -1.6144916E-02;  4.0000000E+04;  0.0000000E+00;  3.9987281E+04;  4.4499201E-01;  0.0000000E+00;  7.7659912E-02;  1.4884706E+03;
  1.8180057E-01;  9.9999998E-03; -1.1005038E-01;3563;  2.2987069E-01;  0.0000000E+00; -1.5647179E-02;  9.9911932E+02;  1.0000000E-01; -7.2960895E+02;3; -2.5182381E+01;  0.0000000E+00;  2.8819599E+00;0;  5.7115543E-01;  3.9943344E+04;  0.0000000E+00; -5.3075296E-03;  4.0000000E+04;  0.0000000E+00;  3.9984316E+04;  4.9412856E-01;  0.0000000E+00;  7.7026889E-02;  1.8734393E+03;
  1.9239745E-01;  9.9999998E-03; -2.6990727E-01;3608;  1.9389993E-01;  0.0000000E+00; -1.8428734E-02;  9.8112646E+02;  1.0000000E-01; -1.5636347E+04;3;  6.5587791E+01;  0.0000000E+00;  5.4431538E+01;0;  6.0251588E-01;  3.8489941E+04;  0.0000000E+00;  4.9077286E+01;  4.0000000E+04;  0.0000000E+00;  4.0025168E+04;  7.1977967E-01;  0.0000000E+00; -1.1726381E-01;  7.3307156E+04;
  1.9253030E-01;  9.9999998E-03; -2.5994557E-01;3609;  1.9772771E-01;  0.0000000E+00; -2.1510137E-02;  9.8315582E+02;  1.0000000E-01; -1.3955062E+04;3;  2.8534542E+01;  0.0000000E+00;  3.0880913E+01;0;  4.6664000E-01;  3.8639617E+04;  0.0000000E+00;  3.1794424E+01;  4.0000000E+04;  0.0000000E+00;  4.0033910E+04;  5.7518697E-01;  0.0000000E+00; -1.0854699E-01;  4.7794547E+04;
  1.9253041E-01;  9.9999998E-03; -2.4998680E-01;3610;  2.0117742E-01;  0.0000000E+00; -2.3672450E-02;  9.8535010E+02;  1.0000000E-01; -1.2137187E+04;3;  5.4374952E+00;  0.0000000E+00;  1.5377443E+01;0;  3.5921651E-01;  3.8801355E+04;  0.0000000E+00;  1.9263245E+01;  4.0000000E+04;  0.0000000E+00;  4.0043242E+04;  4.5668641E-01;  0.0000000E+00; -9.7469896E-02;  2.9517828E+04;
  1.9244321E-01;  9.9999998E-03; -2.4001567E-01;3611;  2.0394586E-01;  0.0000000E+00; -2.4883283E-02;  9.8749658E+02;  1.0000000E-01; -1.0358867E+04;3; -8.1201992E+00;  0.0000000E+00;  6.4704437E+00;0;  2.7987310E-01;  3.8959188E+04;  0.0000000E+00;  1.0589656E+01;  4.0000000E+04;  0.0000000E+00;  4.0053359E+04;  3.6324736E-01;  0.0000000E+00; -8.3374269E-02;  1.7609334E+04;
  1.9231027E-01;  9.9999998E-03; -2.3003638E-01;3612;  2.0648012E-01;  0.0000000E+00; -2.5371829E-02;  9.8948004E+02;  1.0000000E-01; -8.7156045E+03;3; -1.5905582E+01;  0.0000000E+00;  2.3373039E+00;0;  2.2813845E-01;  3.9106738E+04;  0.0000000E+00;  5.0347242E+00;  4.0000000E+04;  0.0000000E+00;  4.0061016E+04;  2.9399127E-01;  0.0000000E+00; -6.5852821E-02;  1.1384229E+04;
  1.9218174E-01;  9.9999998E-03; -2.2005689E-01;3613;  2.0873746E-01;  0.0000000E+00; -2.5312664E-02;  9.9125745E+02;  1.0000000E-01; -7.2430537E+03;3; -2.0148848E+01;  0.0000000E+00;  1.1199671E+00;0;  2.0187916E-01;  3.9242621E+04;  0.0000000E+00;  1.8644147E+00;  4.0000000E+04;  0.0000000E+00;  4.0064543E+04;  2.4728464E-01;  0.0000000E+00; -4.5405474E-02;  9.2461357E+03;
  1.9208919E-01;  9.9999998E-03; -2.1007350E-01;3614;  2.1072406E-01;  0.0000000E+00; -2.4853567E-02;  9.9283661E+02;  1.0000000E-01; -5.9347451E+03;3; -2.2290159E+01;  0.0000000E+00;  1.3660040E+00;0;  1.9836608E-01;  3.9367586E+04;  0.0000000E+00;  3.3933547E-01;  4.0000000E+04;  0.0000000E+00;  4.0063754E+04;  2.2143161E-01;  0.0000000E+00; -2.3065530E-02;  8.5851953E+03;
  1.9203240E-01;  9.9999998E-03; -2.0008503E-01;3615;  2.1250306E-01;  0.0000000E+00; -2.4114398E-02;  9.9422211E+02;  1.0000000E-01; -4.7868765E+03;3; -2.3303188E+01;  0.0000000E+00;  2.0324721E+00;0;  2.1439226E-01;  3.9481512E+04;  0.0000000E+00; -2.1456318E-01;  4.0000000E+04;  0.0000000E+00;  4.0058730E+04;  2.1456835E-01;  0.0000000E+00; -1.7608982E-04;  7.8400874E+03;
  1.9200033E-01;  9.9999998E-03; -1.9009292E-01;3616;  2.1414591E-01;  0.0000000E+00; -2.3227124E-02;  9.9541162E+02;  1.0000000E-01; -3.8013738E+03;3; -2.3768196E+01;  0.0000000E+00;  2.6698403E+00;0;  2.4638528E-01;  3.9583941E+04;  0.0000000E+00; -3.0784550E-01;  4.0000000E+04;  0.0000000E+00;  4.0050172E+04;  2.2450885E-01;  0.0000000E+00;  2.1876430E-02;  6.6887739E+03;
  1.9198138E-01;  9.9999998E-03; -1.8009765E-01;3617;  2.1575134E-01;  0.0000000E+00; -2.2171589E-02;  9.9640009E+02;  1.0000000E-01; -2.9824834E+03;3; -2.3958406E+01;  0.0000000E+00;  3.1832514E+00;0;  2.9054326E-01;  3.9673156E+04;  0.0000000E+00; -2.4639396E-01;  4.0000000E+04;  0.0000000E+00;  4.0039066E+04;  2.4873841E-01;  0.0000000E+00;  4.1804839E-02;  5.2174297E+03;
  1.9196670E-01;  9.9999998E-03; -1.7009893E-01;3618;  2.1739645E-01;  0.0000000E+00; -2.1064751E-02;  9.9719220E+02;  1.0000000E-01; -2.3262056E+03;3; -2.4095894E+01;  0.0000000E+00;  3.4676273E+00;0;  3.4307736E-01;  3.9748441E+04;  0.0000000E+00; -1.6913360E-01;  4.0000000E+04;  0.0000000E+00;  4.0026512E+04;  2.8450409E-01;  0.0000000E+00;  5.8573268E-02;  3.5809226E+03;
  1.9194719E-01;  9.9999998E-03; -1.6009684E-01;3619;  2.1916845E-01;  0.0000000E+00; -1.9963894E-02;  9.9780359E+02;  1.0000000E-01; -1.8197015E+03;3; -2.4234228E+01;  0.0000000E+00;  3.5939376E+00;0;  4.0036201E-01;  3.9809641E+04;  0.0000000E+00; -1.1459431E-01;  4.0000000E+04;  0.0000000E+00;  4.0013777E+04;  3.2891825E-01;  0.0000000E+00;  7.1443759E-02;  1.9375024E+03;
  1.9192058E-01;  9.9999998E-03; -1.5009081E-01;3620;  2.2109726E-01;  0.0000000E+00; -1.8963782E-02;  9.9825452E+02;  1.0000000E-01; -1.4460824E+03;3; -2.4344143E+01;  0.0000000E+00;  3.6588991E+00;0;  4.5927009E-01;  3.9856977E+04;  0.0000000E+00; -7.8928560E-02;  4.0000000E+04;  0.0000000E+00;  4.0002035E+04;  3.7917134E-01;  0.0000000E+00;  8.0098756E-02;  4.3957407E+02;
  1.9188729E-01;  9.9999998E-03; -1.4008173E-01;3621;  2.2319709E-01;  0.0000000E+00; -1.8147234E-02;  9.9856879E+02;  1.0000000E-01; -1.1857441E+03;3; -2.4500586E+01;  0.0000000E+00;  3.5006731E+00;0;  5.1735353E-01;  3.9891707E+04;  0.0000000E+00; -5.1655732E-02;  4.0000000E+04;  0.0000000E+00;  3.9992211E+04;  4.3265274E-01;  0.0000000E+00;  8.4700778E-02;  8.2723883E+02;
  1.9184937E-01;  9.9999998E-03; -1.3007091E-01;3622;  2.2545190E-01;  0.0000000E+00; -1.7709298E-02;  9.9877917E+02;  1.0000000E-01; -1.0114281E+03;3; -2.4711571E+01;  0.0000000E+00;  3.1593604E+00;0;  5.7294196E-01;  3.9915336E+04;  0.0000000E+00; -2.9048279E-02;  4.0000000E+04;  0.0000000E+00;  3.9985109E+04;  4.8706347E-01;  0.0000000E+00;  8.5878499E-02;  1.7412744E+03;
  1.9180846E-01;  9.9999998E-03; -1.2006042E-01;3623;  2.2784580E-01;  0.0000000E+00; -1.7526299E-02;  9.9890454E+02;  1.0000000E-01; -9.0757922E+02;3; -2.4906807E+01;  0.0000000E+00;  2.8814154E+00;0;  6.2502050E-01;  3.9929605E+04;  0.0000000E+00; -1.1491860E-02;  4.0000000E+04;  0.0000000E+00;  3.9980699E+04;  5.4043400E-01;  0.0000000E+00;  8.4586479E-02;  2.3006636E+03;
  1.9176601E-01;  9.9999998E-03; -1.1005202E-01;3624;  2.3032999E-01;  0.0000000E+00; -1.7493814E-02;  9.9896741E+02;  1.0000000E-01; -8.5548193E+02;3; -2.4908276E+01;  0.0000000E+00;  2.5819204E+00;0;  6.7307472E-01;  3.9936387E+04;  0.0000000E+00;  8.7741693E-04;  4.0000000E+04;  0.0000000E+00;  3.9978977E+04;  5.9114850E-01;  0.0000000E+00;  8.1926249E-02;  2.5272542E+03;
  2.0250849E-01;  9.9999998E-03; -2.6995879E-01;3669;  1.9317219E-01;  0.0000000E+00; -2.5310040E-02;  9.8155035E+02;  1.0000000E-01; -1.5285196E+04;3;  5.6636417E+01;  0.0000000E+00;  8.1971802E+01;0;  6.2630397E-01;  3.8522918E+04;  0.0000000E+00;  4.3728973E+01;  4.0000000E+04;  0.0000000E+00;  4.0025023E+04;  7.0829988E-01;  0.0000000E+00; -8.1995882E-02;  6.5613070E+04;
  2.0264485E-01;  9.9999998E-03; -2.5997794E-01;3670;  1.9612093E-01;  0.0000000E+00; -2.8021185E-02;  9.8377209E+02;  1.0000000E-01; -1.3444508E+04;3;  2.3645575E+01;  0.0000000E+00;  4.8205620E+01;0;  4.9209124E-01;  3.8685273E+04;  0.0000000E+00;  2.6245556E+01;  4.0000000E+04;  0.0000000E+00;  4.0036133E+04;  5.6599402E-01;  0.0000000E+00; -7.3902801E-02;  3.9895770E+04;
  2.0263560E-01;  9.9999998E-03; -2.5001034E-01;3671;  1.9927958E-01;  0.0000000E+00; -2.9480828E-02;  9.8605164E+02;  1.0000000E-01; -1.1555969E+04;3;  2.4517906E+00;  0.0000000E+00;  2.7625267E+01;0;  3.8853830E-01;  3.8855527E+04;  0.0000000E+00;  1.4663826E+01;  4.0000000E+04;  0.0000000E+00;  4.0044176E+04;  4.5408189E-01;  0.0000000E+00; -6.5543592E-02;  2.3119205E+04;
  2.0252842E-01;  9.9999998E-03; -2.4003372E-01;3672;  2.0219594E-01;  0.0000000E+00; -2.9491134E-02;  9.8821832E+02;  1.0000000E-01; -9.7609082E+03;3; -9.8738861E+00;  0.0000000E+00;  1.5342757E+01;0;  3.1406751E-01;  3.9016969E+04;  0.0000000E+00;  7.2231798E+00;  4.0000000E+04;  0.0000000E+00;  4.0052316E+04;  3.6931178E-01;  0.0000000E+00; -5.5244256E-02;  1.3311130E+04;
  2.0237747E-01;  9.9999998E-03; -2.3004842E-01;3673;  2.0491531E-01;  0.0000000E+00; -2.8872784E-02;  9.9016345E+02;  1.0000000E-01; -8.1493984E+03;3; -1.6928741E+01;  0.0000000E+00;  8.6469803E+00;0;  2.6910865E-01;  3.9163520E+04;  0.0000000E+00;  2.7476287E+00;  4.0000000E+04;  0.0000000E+00;  4.0058070E+04;  3.0961305E-01;  0.0000000E+00; -4.0504389E-02;  9.1420625E+03;
  2.0222917E-01;  9.9999998E-03; -2.2006255E-01;3674;  2.0732914E-01;  0.0000000E+00; -2.7905010E-02;  9.9186023E+02;  1.0000000E-01; -6.7436606E+03;3; -2.0753490E+01;  0.0000000E+00;  5.4344769E+00;0;  2.5097927E-01;  3.9294996E+04;  0.0000000E+00;  4.1974694E-01;  4.0000000E+04;  0.0000000E+00;  4.0059504E+04;  2.7295148E-01;  0.0000000E+00; -2.1972196E-02;  8.1626250E+03;
  2.0211615E-01;  9.9999998E-03; -2.1007463E-01;3675;  2.0945016E-01;  0.0000000E+00; -2.6792249E-02;  9.9333044E+02;  1.0000000E-01; -5.5256211E+03;3; -2.2676174E+01;  0.0000000E+00;  4.1206236E+00;0;  2.5627443E-01;  3.9413164E+04;  0.0000000E+00; -5.0153989E-01;  4.0000000E+04;  0.0000000E+00;  4.0056820E+04;  2.5734916E-01;  0.0000000E+00; -1.0747304E-03;  7.6958721E+03;
  2.0204009E-01;  9.9999998E-03; -2.0008415E-01;3676;  2.1137728E-01;  0.0000000E+00; -2.5576636E-02;  9.9459363E+02;  1.0000000E-01; -4.4790830E+03;3; -2.3503923E+01;  0.0000000E+00;  3.7516615E+00;0;  2.8107274E-01;  3.9519195E+04;  0.0000000E+00; -6.5979964E-01;  4.0000000E+04;  0.0000000E+00;  4.0050320E+04;  2.6061293E-01;  0.0000000E+00;  2.0459803E-02;  6.8190532E+03;
  2.0199299E-01;  9.9999998E-03; -1.9009119E-01;3677;  2.1319853E-01;  0.0000000E+00; -2.4279963E-02;  9.9566077E+02;  1.0000000E-01; -3.5949597E+03;3; -2.3854982E+01;  0.0000000E+00;  3.7005851E+00;0;  3.2127529E-01;  3.9612746E+04;  0.0000000E+00; -5.2182668E-01;  4.0000000E+04;  0.0000000E+00;  4.0040789E+04;  2.8021124E-01;  0.0000000E+00;  4.1064046E-02;  5.5283003E+03;
  2.0196405E-01;  9.9999998E-03; -1.8009503E-01;3678;  2.1500838E-01;  0.0000000E+00; -2.2972565E-02;  9.9653296E+02;  1.0000000E-01; -2.8723630E+03;3; -2.3956631E+01;  0.0000000E+00;  3.8030593E+00;0;  3.7270975E-01;  3.9693266E+04;  0.0000000E+00; -3.4168175E-01;  4.0000000E+04;  0.0000000E+00;  4.0029164E+04;  3.1329960E-01;  0.0000000E+00;  5.9410151E-02;  3.9842666E+03;
  2.0194125E-01;  9.9999998E-03; -1.7009573E-01;3679;  2.1687813E-01;  0.0000000E+00; -2.1738570E-02;  9.9722070E+02;  1.0000000E-01; -2.3026013E+03;3; -2.4040575E+01;  0.0000000E+00;  3.8256304E+00;0;  4.3122563E-01;  3.9760367E+04;  0.0000000E+00; -2.1052274E-01;  4.0000000E+04;  0.0000000E+00;  4.0016461E+04;  3.5679814E-01;  0.0000000E+00;  7.4427485E-02;  2.3440403E+03;
  2.0191693E-01;  9.9999998E-03; -1.6009276E-01;3680;  2.1888755E-01;  0.0000000E+00; -2.0614667E-02;  9.9774127E+02;  1.0000000E-01; -1.8713049E+03;3; -2.4142506E+01;  0.0000000E+00;  3.7820206E+00;0;  4.9297178E-01;  3.9813945E+04;  0.0000000E+00; -1.3246663E-01;  4.0000000E+04;  0.0000000E+00;  4.0004293E+04;  4.0758309E-01;  0.0000000E+00;  8.5388698E-02;  7.6193048E+02;
  2.0188741E-01;  9.9999998E-03; -1.5008610E-01;3681;  2.2106612E-01;  0.0000000E+00; -1.9804843E-02;  9.9812000E+02;  1.0000000E-01; -1.5575361E+03;3; -2.4255005E+01;  0.0000000E+00;  3.5182638E+00;0;  5.5464578E-01;  3.9854719E+04;  0.0000000E+00; -8.4792532E-02;  4.0000000E+04;  0.0000000E+00;  3.9993227E+04;  4.6265155E-01;  0.0000000E+00;  9.1994219E-02;  6.7599792E+02;
  2.0185260E-01;  9.9999998E-03; -1.4007659E-01;3682;  2.2341405E-01;  0.0000000E+00; -1.9320870E-02;  9.9838043E+02;  1.0000000E-01; -1.3417891E+03;3; -2.4426804E+01;  0.0000000E+00;  3.2755942E+00;0;  6.1372191E-01;  3.9884039E+04;  0.0000000E+00; -4.9802575E-02;  4.0000000E+04;  0.0000000E+00;  3.9984465E+04;  5.1928121E-01;  0.0000000E+00;  9.4440699E-02;  1.7781066E+03;
  2.0181483E-01;  9.9999998E-03; -1.3006549E-01;3683;  2.2598234E-01;  0.0000000E+00; -1.8999165E-02;  9.9855017E+02;  1.0000000E-01; -1.2011511E+03;3; -2.4568142E+01;  0.0000000E+00;  3.0668819E+00;0;  6.6854197E-01;  3.9903371E+04;  0.0000000E+00; -2.2113720E-02;  4.0000000E+04;  0.0000000E+00;  3.9978656E+04;  5.7513350E-01;  0.0000000E+00;  9.3408450E-02;  2.5320532E+03;
  2.0177601E-01;  9.9999998E-03; -1.2005495E-01;3684;  2.2878301E-01;  0.0000000E+00; -1.8803284E-02;  9.9865430E+02;  1.0000000E-01; -1.1148820E+03;3; -2.4414730E+01;  0.0000000E+00;  2.7096286E+00;0;  7.1815634E-01;  3.9914551E+04;  0.0000000E+00; -1.8335845E-03;  4.0000000E+04;  0.0000000E+00;  3.9975566E+04;  6.2825841E-01;  0.0000000E+00;  8.9897916E-02;  2.9211584E+03;
  2.0173810E-01;  9.9999998E-03; -1.1004704E-01;3685;  2.3207051E-01;  0.0000000E+00; -1.8716317E-02;  9.9871051E+02;  1.0000000E-01; -1.0683154E+03;3; -2.4001656E+01;  0.0000000E+00;  2.5249848E+00;0;  7.6218045E-01;  3.9919320E+04;  0.0000000E+00;  1.1350988E-02;  4.0000000E+04;  0.0000000E+00;  3.9975191E+04;  6.7712802E-01;  0.0000000E+00;  8.5052453E-02;  2.9815098E+03;
  2.1254274E-01;  9.9999998E-03; -2.6996455E-01;3730;  1.9180764E-01;  0.0000000E+00; -3.0011525E-02;  9.8265259E+02;  1.0000000E-01; -1.4371987E+04;3;  4.9183437E+01;  0.0000000E+00;  8.3100380E+01;0;  6.4265603E-01;  3.8599836E+04;  0.0000000E+00;  3.6494926E+01;  4.0000000E+04;  0.0000000E+00;  4.0033789E+04;  6.8101215E-01;  0.0000000E+00; -3.8356133E-02;  5.5068566E+04;
  2.1269934E-01;  9.9999998E-03; -2.5997433E-01;3731;  1.9410938E-01;  0.0000000E+00; -3.2839742E-02;  9.8483942E+02;  1.0000000E-01; -1.2560236E+04;3;  1.9112732E+01;  0.0000000E+00;  5.0825863E+01;0;  5.1855505E-01;  3.8760984E+04;  0.0000000E+00;  1.9084566E+01;  4.0000000E+04;  0.0000000E+00;  4.0044062E+04;  5.4983366E-01;  0.0000000E+00; -3.1278610E-02;  2.9791340E+04;
  2.1269318E-01;  9.9999998E-03; -2.5000307E-01;3732;  1.9719633E-01;  0.0000000E+00; -3.2722265E-02;  9.8703815E+02;  1.0000000E-01; -1.0738658E+04;3;  2.0620231E-01;  0.0000000E+00;  3.1436886E+01;0;  4.1920802E-01;  3.8928855E+04;  0.0000000E+00;  9.0565472E+00;  4.0000000E+04;  0.0000000E+00;  4.0048285E+04;  4.5065147E-01;  0.0000000E+00; -3.1443436E-02;  1.5694839E+04;
  2.1257609E-01;  9.9999998E-03; -2.4002537E-01;3733;  2.0036444E-01;  0.0000000E+00; -3.1824842E-02;  9.8910028E+02;  1.0000000E-01; -9.0302129E+03;3; -1.1134418E+01;  0.0000000E+00;  1.9019072E+01;0;  3.5237837E-01;  3.9085863E+04;  0.0000000E+00;  3.3703456E+00;  4.0000000E+04;  0.0000000E+00;  4.0052672E+04;  3.7868613E-01;  0.0000000E+00; -2.6307765E-02;  9.2442246E+03;
  2.1241394E-01;  9.9999998E-03; -2.3003902E-01;3734;  2.0327142E-01;  0.0000000E+00; -3.0587109E-02;  9.9091675E+02;  1.0000000E-01; -7.5253174E+03;3; -1.7601431E+01;  0.0000000E+00;  1.1649605E+01;0;  3.1619623E-01;  3.9225445E+04;  0.0000000E+00;  3.0322725E-01;  4.0000000E+04;  0.0000000E+00;  4.0055293E+04;  3.3117175E-01;  0.0000000E+00; -1.4975522E-02;  7.7198667E+03;
  2.1225533E-01;  9.9999998E-03; -2.2005175E-01;3735;  2.0587613E-01;  0.0000000E+00; -2.9136093E-02;  9.9246619E+02;  1.0000000E-01; -6.2416006E+03;3; -2.1130518E+01;  0.0000000E+00;  7.7204919E+00;0;  3.0712444E-01;  3.9348039E+04;  0.0000000E+00; -1.0204457E+00;  4.0000000E+04;  0.0000000E+00;  4.0054203E+04;  3.0605131E-01;  0.0000000E+00;  1.0731183E-03;  7.5325371E+03;
  2.1213111E-01;  9.9999998E-03; -2.1006382E-01;3736;  2.0817576E-01;  0.0000000E+00; -2.7631214E-02;  9.9378363E+02;  1.0000000E-01; -5.1501255E+03;3; -2.2886021E+01;  0.0000000E+00;  5.6937637E+00;0;  3.2117862E-01;  3.9456094E+04;  0.0000000E+00; -1.2786424E+00;  4.0000000E+04;  0.0000000E+00;  4.0049527E+04;  3.0122215E-01;  0.0000000E+00;  1.9956481E-02;  6.9460308E+03;
  2.1204394E-01;  9.9999998E-03; -2.0007408E-01;3737;  2.1032541E-01;  0.0000000E+00; -2.6047979E-02;  9.9489685E+02;  1.0000000E-01; -4.2278799E+03;3; -2.3562979E+01;  0.0000000E+00;  4.8726563E+00;0;  3.5395187E-01;  3.9551398E+04;  0.0000000E+00; -1.0363212E+00;  4.0000000E+04;  0.0000000E+00;  4.0041676E+04;  3.1429708E-01;  0.0000000E+00;  3.9654806E-02;  5.8325942E+03;
  2.1198756E-01;  9.9999998E-03; -1.9008178E-01;3738;  2.1237777E-01;  0.0000000E+00; -2.4548315E-02;  9.9581781E+02;  1.0000000E-01; -3.4648894E+03;3; -2.3831291E+01;  0.0000000E+00;  4.3734636E+00;0;  4.0100631E-01;  3.9634402E+04;  0.0000000E+00; -6.8225795E-01;  4.0000000E+04;  0.0000000E+00;  4.0031309E+04;  3.4250513E-01;  0.0000000E+00;  5.8501195E-02;  4.3958721E+03;
  2.1194999E-01;  9.9999998E-03; -1.8008624E-01;3739;  2.1445334E-01;  0.0000000E+00; -2.3148919E-02;  9.9655975E+02;  1.0000000E-01; -2.8501907E+03;3; -2.3898737E+01;  0.0000000E+00;  4.1998763E+00;0;  4.5778698E-01;  3.9704797E+04;  0.0000000E+00; -4.0034768E-01;  4.0000000E+04;  0.0000000E+00;  4.0019473E+04;  3.8274050E-01;  0.0000000E+00;  7.5046472E-02;  2.8082266E+03;
  2.1192057E-01;  9.9999998E-03; -1.7008711E-01;3740;  2.1662264E-01;  0.0000000E+00; -2.1953952E-02;  9.9713770E+02;  1.0000000E-01; -2.3713896E+03;3; -2.3936735E+01;  0.0000000E+00;  3.9468825E+00;0;  5.1989532E-01;  3.9762672E+04;  0.0000000E+00; -2.2757757E-01;  4.0000000E+04;  0.0000000E+00;  4.0007246E+04;  4.3171048E-01;  0.0000000E+00;  8.8184856E-02;  1.2077482E+03;
  2.1189153E-01;  9.9999998E-03; -1.6008414E-01;3741;  2.1893354E-01;  0.0000000E+00; -2.1117980E-02;  9.9756702E+02;  1.0000000E-01; -2.0156959E+03;3; -2.4036325E+01;  0.0000000E+00;  3.6187506E+00;0;  5.8328277E-01;  3.9808391E+04;  0.0000000E+00; -1.3340509E-01;  4.0000000E+04;  0.0000000E+00;  3.9995457E+04;  4.8611239E-01;  0.0000000E+00;  9.7170383E-02;  3.8038806E+02;
  2.1185963E-01;  9.9999998E-03; -1.5007730E-01;3742;  2.2145046E-01;  0.0000000E+00; -2.0516675E-02;  9.9787402E+02;  1.0000000E-01; -1.7613328E+03;3; -2.4156969E+01;  0.0000000E+00;  3.3690865E+00;0;  6.4453840E-01;  3.9842625E+04;  0.0000000E+00; -7.8102715E-02;  4.0000000E+04;  0.0000000E+00;  3.9985566E+04;  5.4283750E-01;  0.0000000E+00;  1.0170090E-01;  1.6069457E+03;
  2.1182518E-01;  9.9999998E-03; -1.4006665E-01;3743;  2.2430256E-01;  0.0000000E+00; -1.9983234E-02;  9.9808661E+02;  1.0000000E-01; -1.5851896E+03;3; -2.4234461E+01;  0.0000000E+00;  3.1044261E+00;0;  7.0111364E-01;  3.9866832E+04;  0.0000000E+00; -3.8421594E-02;  4.0000000E+04;  0.0000000E+00;  3.9978047E+04;  5.9913135E-01;  0.0000000E+00;  1.0198227E-01;  2.5544656E+03;
  2.1179067E-01;  9.9999998E-03; -1.3005316E-01;3744;  2.2777192E-01;  0.0000000E+00; -1.9420724E-02;  9.9823108E+02;  1.0000000E-01; -1.4655387E+03;3; -2.3844677E+01;  0.0000000E+00;  2.7861886E+00;0;  7.5140047E-01;  3.9882688E+04;  0.0000000E+00; -8.1554204E-03;  4.0000000E+04;  0.0000000E+00;  3.9973539E+04;  6.5269417E-01;  0.0000000E+00;  9.8706275E-02;  3.1324465E+03;
  2.1176083E-01;  9.9999998E-03; -1.2003939E-01;3745;  2.3305640E-01;  0.0000000E+00; -1.8450717E-02;  9.9832501E+02;  1.0000000E-01; -1.3877137E+03;3; -2.2545250E+01;  0.0000000E+00;  2.6343505E+00;0;  7.9463470E-01;  3.9891559E+04;  0.0000000E+00;  1.2766310E-02;  4.0000000E+04;  0.0000000E+00;  3.9971879E+04;  7.0172018E-01;  0.0000000E+00;  9.2914551E-02;  3.3440085E+03;
  2.1174213E-01;  9.9999998E-03; -1.1002561E-01;3746;  2.4323329E-01;  0.0000000E+00; -1.5921460E-02;  9.9838373E+02;  1.0000000E-01; -1.3390731E+03;3; -1.9917536E+01;  0.0000000E+00;  2.5974884E+00;0;  8.3076698E-01;  3.9895273E+04;  0.0000000E+00;  2.5100011E-02;  4.0000000E+04;  0.0000000E+00;  3.9972906E+04;  7.4495298E-01;  0.0000000E+00;  8.5813999E-02;  3.2380286E+03;
  2.2257420E-01;  9.9999998E-03; -2.6997602E-01;3791;  1.9326311E-01;  0.0000000E+00; -2.9194389E-02;  9.8396942E+02;  1.0000000E-01; -1.3281006E+04;3;  3.5119694E+01;  0.0000000E+00;  6.9715202E+01;0;  6.3777053E-01;  3.8698195E+04;  0.0000000E+00;  2.7092096E+01;  4.0000000E+04;  0.0000000E+00;  4.0038145E+04;  6.4966428E-01;  0.0000000E+00; -1.1893727E-02;  4.1287809E+04;
  2.2273728E-01;  9.9999998E-03; -2.5997394E-01;3792;  1.9366378E-01;  0.0000000E+00; -3.1859472E-02;  9.8608063E+02;  1.0000000E-01; -1.1531920E+04;3;  1.1639562E+01;  0.0000000E+00;  4.2172112E+01;0;  5.2816975E-01;  3.8852289E+04;  0.0000000E+00;  1.1022505E+01;  4.0000000E+04;  0.0000000E+00;  4.0050129E+04;  5.3240252E-01;  0.0000000E+00; -4.2327493E-03;  1.8718473E+04;
  2.2272950E-01;  9.9999998E-03; -2.4999650E-01;3793;  1.9630884E-01;  0.0000000E+00; -3.2082342E-02;  9.8813031E+02;  1.0000000E-01; -9.8337949E+03;3; -3.8929973E+00;  0.0000000E+00;  2.6414711E+01;0;  4.4450349E-01;  3.9011535E+04;  0.0000000E+00;  3.2347770E+00;  4.0000000E+04;  0.0000000E+00;  4.0051367E+04;  4.4923723E-01;  0.0000000E+00; -4.7337338E-03;  9.2393994E+03;
  2.2260553E-01;  9.9999998E-03; -2.4001472E-01;3794;  1.9924942E-01;  0.0000000E+00; -3.1417694E-02;  9.9001904E+02;  1.0000000E-01; -8.2690498E+03;3; -1.3319276E+01;  0.0000000E+00;  1.6520864E+01;0;  3.9102405E-01;  3.9158270E+04;  0.0000000E+00; -3.8239330E-01;  4.0000000E+04;  0.0000000E+00;  4.0052621E+04;  3.9226156E-01;  0.0000000E+00; -1.2375191E-03;  7.4180117E+03;
  2.2243419E-01;  9.9999998E-03; -2.3002601E-01;3795;  2.0212379E-01;  0.0000000E+00; -3.0174404E-02;  9.9165332E+02;  1.0000000E-01; -6.9150630E+03;3; -1.8684851E+01;  0.0000000E+00;  1.0749827E+01;0;  3.6619803E-01;  3.9286590E+04;  0.0000000E+00; -1.9153471E+00;  4.0000000E+04;  0.0000000E+00;  4.0052250E+04;  3.5842067E-01;  0.0000000E+00;  7.7773705E-03;  7.6513286E+03;
  2.2226964E-01;  9.9999998E-03; -2.2003740E-01;3796;  2.0478094E-01;  0.0000000E+00; -2.8640136E-02;  9.9301898E+02;  1.0000000E-01; -5.7836387E+03;3; -2.1622107E+01;  0.0000000E+00;  7.6183329E+00;0;  3.6710253E-01;  3.9397113E+04;  0.0000000E+00; -2.2287807E+00;  4.0000000E+04;  0.0000000E+00;  4.0048633E+04;  3.4549195E-01;  0.0000000E+00;  2.1610593E-02;  7.3410049E+03;
  2.2214156E-01;  9.9999998E-03; -2.1004967E-01;3797;  2.0723483E-01;  0.0000000E+00; -2.7063712E-02;  9.9415601E+02;  1.0000000E-01; -4.8416406E+03;3; -2.3030666E+01;  0.0000000E+00;  5.9287710E+00;0;  3.8976279E-01;  3.9492871E+04;  0.0000000E+00; -1.8701222E+00;  4.0000000E+04;  0.0000000E+00;  4.0042094E+04;  3.5128495E-01;  0.0000000E+00;  3.8477845E-02;  6.3216880E+03;
  2.2204961E-01;  9.9999998E-03; -2.0006102E-01;3798;  2.0959099E-01;  0.0000000E+00; -2.5476519E-02;  9.9510168E+02;  1.0000000E-01; -4.0581565E+03;3; -2.3590214E+01;  0.0000000E+00;  5.1063681E+00;0;  4.2950210E-01;  3.9576176E+04;  0.0000000E+00; -1.2844191E+00;  4.0000000E+04;  0.0000000E+00;  4.0033023E+04;  3.7324426E-01;  0.0000000E+00;  5.6257833E-02;  4.9028071E+03;
  2.2198723E-01;  9.9999998E-03; -1.9006963E-01;3799;  2.1191780E-01;  0.0000000E+00; -2.4016097E-02;  9.9587262E+02;  1.0000000E-01; -3.4194585E+03;3; -2.3729134E+01;  0.0000000E+00;  4.5983796E+00;0;  4.8161158E-01;  3.9647613E+04;  0.0000000E+00; -7.6247704E-01;  4.0000000E+04;  0.0000000E+00;  4.0022305E+04;  4.0841636E-01;  0.0000000E+00;  7.3195212E-02;  3.3311692E+03;
  2.2194318E-01;  9.9999998E-03; -1.8007492E-01;3800;  2.1429457E-01;  0.0000000E+00; -2.2850066E-02;  9.9648480E+02;  1.0000000E-01; -2.9122632E+03;3; -2.3820658E+01;  0.0000000E+00;  4.1365786E+00;0;  5.4133773E-01;  3.9707625E+04;  0.0000000E+00; -4.1122469E-01;  4.0000000E+04;  0.0000000E+00;  4.0010527E+04;  4.5351785E-01;  0.0000000E+00;  8.7819844E-02;  1.7367352E+03;
  2.2190830E-01;  9.9999998E-03; -1.7007637E-01;3801;  2.1679841E-01;  0.0000000E+00; -2.1910693E-02;  9.9695264E+02;  1.0000000E-01; -2.5246692E+03;3; -2.3836117E+01;  0.0000000E+00;  3.8366392E+00;0;  6.0409707E-01;  3.9756297E+04;  0.0000000E+00; -2.1525580E-01;  4.0000000E+04;  0.0000000E+00;  3.9998738E+04;  5.0511330E-01;  0.0000000E+00;  9.8983757E-02;  3.2979645E+02;
  2.2187579E-01;  9.9999998E-03; -1.6007334E-01;3802;  2.1958408E-01;  0.0000000E+00; -2.1101464E-02;  9.9729938E+02;  1.0000000E-01; -2.2374180E+03;3; -2.3840759E+01;  0.0000000E+00;  3.5745969E+00;0;  6.6575801E-01;  3.9794363E+04;  0.0000000E+00; -1.1468162E-01;  4.0000000E+04;  0.0000000E+00;  3.9988031E+04;  5.5981475E-01;  0.0000000E+00;  1.0594327E-01;  1.2555883E+03;
  2.2184356E-01;  9.9999998E-03; -1.5006483E-01;3803;  2.2293104E-01;  0.0000000E+00; -2.0207586E-02;  9.9754803E+02;  1.0000000E-01; -2.0313992E+03;3; -2.3770018E+01;  0.0000000E+00;  3.3136699E+00;0;  7.2288579E-01;  3.9822770E+04;  0.0000000E+00; -5.7499390E-02;  4.0000000E+04;  0.0000000E+00;  3.9979234E+04;  6.1450022E-01;  0.0000000E+00;  1.0838554E-01;  2.3643325E+03;
  2.2181492E-01;  9.9999998E-03; -1.4004859E-01;3804;  2.2804439E-01;  0.0000000E+00; -1.8683951E-02;  9.9772729E+02;  1.0000000E-01; -1.8829095E+03;3; -2.2743301E+01;  0.0000000E+00;  3.0816352E+00;0;  7.7302212E-01;  3.9842820E+04;  0.0000000E+00; -1.7500637E-02;  4.0000000E+04;  0.0000000E+00;  3.9973176E+04;  6.6652268E-01;  0.0000000E+00;  1.0649943E-01;  3.1373950E+03;
  2.2180247E-01;  9.9999998E-03; -1.3002430E-01;3805;  2.4011166E-01;  0.0000000E+00; -1.4618265E-02;  9.9785583E+02;  1.0000000E-01; -1.7763940E+03;3; -1.9813580E+01;  0.0000000E+00;  3.0971966E+00;0;  8.1490242E-01;  3.9856027E+04;  0.0000000E+00;  1.1575795E-02;  4.0000000E+04;  0.0000000E+00;  3.9970141E+04;  7.1390098E-01;  0.0000000E+00;  1.0100144E-01;  3.5323611E+03;
  2.2180225E-01;  9.9999998E-03; -1.2000120E-01;3806;  2.5743833E-01;  0.0000000E+00; -9.1875987E-03;  9.9795306E+02;  1.0000000E-01; -1.6958531E+03;3; -1.6716228E+01;  0.0000000E+00;  3.1250312E+00;0;  8.4777892E-01;  3.9863805E+04;  0.0000000E+00;  3.0031238E-02;  4.0000000E+04;  0.0000000E+00;  3.9969906E+04;  7.5484318E-01;  0.0000000E+00;  9.2935711E-02;  3.5670427E+03;
  2.2180150E-01;  9.9999998E-03; -1.0998437E-01;3807;  2.7391922E-01;  0.0000000E+00; -5.0337799E-03;  9.9802820E+02;  1.0000000E-01; -1.6335833E+03;3; -1.3556959E+01;  0.0000000E+00;  3.0655808E+00;0;  8.7162328E-01;  3.9867641E+04;  0.0000000E+00;  3.9184351E-02;  4.0000000E+04;  0.0000000E+00;  3.9972094E+04;  7.8808558E-01;  0.0000000E+00;  8.3537713E-02;  3.3015273E+03;
  2.3264247E-01;  9.9999998E-03; -2.6998612E-01;3852;  1.9628410E-01;  0.0000000E+00; -2.5017047E-02;  9.8532990E+02;  1.0000000E-01; -1.2153927E+04;3;  2.0239616E+01;  0.0000000E+00;  5.5183647E+01;0;  6.1118996E-01;  3.8802973E+04;  0.0000000E+00;  1.5934275E+01;  4.0000000E+04;  0.0000000E+00;  4.0040023E+04;  6.1559999E-01;  0.0000000E+00; -4.4100508E-03;  2.5147764E+04;
  2.3277995E-01;  9.9999998E-03; -2.5998595E-01;3853;  1.9495998E-01;  0.0000000E+00; -2.8258311E-02;  9.8730566E+02;  1.0000000E-01; -1.0517035E+04;3;  2.8558576E+00;  0.0000000E+00;  3.3732121E+01;0;  5.2764434E-01;  3.8948922E+04;  0.0000000E+00;  3.0238693E+00;  4.0000000E+04;  0.0000000E+00;  4.0049617E+04;  5.1669759E-01;  0.0000000E+00;  1.0946743E-02;  9.0799072E+03;
  2.3275301E-01;  9.9999998E-03; -2.5000134E-01;3854;  1.9664322E-01;  0.0000000E+00; -2.9218841E-02;  9.8918530E+02;  1.0000000E-01; -8.9597949E+03;3; -8.6898260E+00;  0.0000000E+00;  2.1450722E+01;0;  4.6541607E-01;  3.9095766E+04;  0.0000000E+00; -1.9110103E+00;  4.0000000E+04;  0.0000000E+00;  4.0050230E+04;  4.5118576E-01;  0.0000000E+00;  1.4230300E-02;  7.4905630E+03;
  2.3262052E-01;  9.9999998E-03; -2.4001247E-01;3855;  1.9908856E-01;  0.0000000E+00; -2.9030807E-02;  9.9087714E+02;  1.0000000E-01; -7.5581064E+03;3; -1.5839955E+01;  0.0000000E+00;  1.3813568E+01;0;  4.2849556E-01;  3.9228285E+04;  0.0000000E+00; -3.4527519E+00;  4.0000000E+04;  0.0000000E+00;  4.0050039E+04;  4.1033316E-01;  0.0000000E+00;  1.8162403E-02;  8.3768652E+03;
  2.3244272E-01;  9.9999998E-03; -2.3001860E-01;3856;  2.0169917E-01;  0.0000000E+00; -2.8126068E-02;  9.9230682E+02;  1.0000000E-01; -6.3736465E+03;3; -2.0032665E+01;  0.0000000E+00;  9.3566570E+00;0;  4.1681147E-01;  3.9342215E+04;  0.0000000E+00; -3.5799701E+00;  4.0000000E+04;  0.0000000E+00;  4.0048016E+04;  3.9061385E-01;  0.0000000E+00;  2.6197612E-02;  8.2665430E+03;
  2.3227958E-01;  9.9999998E-03; -2.2002712E-01;3857;  2.0428735E-01;  0.0000000E+00; -2.6846616E-02;  9.9347223E+02;  1.0000000E-01; -5.4081431E+03;3; -2.2201962E+01;  0.0000000E+00;  6.9891229E+00;0;  4.2816260E-01;  3.9438820E+04;  0.0000000E+00; -3.0380416E+00;  4.0000000E+04;  0.0000000E+00;  4.0042602E+04;  3.8968182E-01;  0.0000000E+00;  3.8480796E-02;  7.2438086E+03;
  2.3215213E-01;  9.9999998E-03; -2.1003862E-01;3858;  2.0686881E-01;  0.0000000E+00; -2.5427230E-02;  9.9442371E+02;  1.0000000E-01; -4.6198691E+03;3; -2.3154375E+01;  0.0000000E+00;  5.7644877E+00;0;  4.5870399E-01;  3.9521309E+04;  0.0000000E+00; -2.1950693E+00;  4.0000000E+04;  0.0000000E+00;  4.0034621E+04;  4.0520135E-01;  0.0000000E+00;  5.3502664E-02;  5.7038755E+03;
  2.3205954E-01;  9.9999998E-03; -2.0004991E-01;3859;  2.0942341E-01;  0.0000000E+00; -2.4107667E-02;  9.9520032E+02;  1.0000000E-01; -3.9764304E+03;3; -2.3546019E+01;  0.0000000E+00;  5.0080123E+00;0;  5.0386119E-01;  3.9592023E+04;  0.0000000E+00; -1.3700272E+00;  4.0000000E+04;  0.0000000E+00;  4.0024734E+04;  4.3446076E-01;  0.0000000E+00;  6.9400430E-02;  4.0138892E+03;
  2.3199432E-01;  9.9999998E-03; -1.9005884E-01;3860;  2.1203226E-01;  0.0000000E+00; -2.2924067E-02;  9.9582544E+02;  1.0000000E-01; -3.4585686E+03;3; -2.3600891E+01;  0.0000000E+00;  4.5106664E+00;0;  5.5872881E-01;  3.9652152E+04;  0.0000000E+00; -7.5076741E-01;  4.0000000E+04;  0.0000000E+00;  4.0013895E+04;  4.7437429E-01;  0.0000000E+00;  8.4354497E-02;  2.3600991E+03;
  2.3194590E-01;  9.9999998E-03; -1.8006441E-01;3861;  2.1481574E-01;  0.0000000E+00; -2.1860307E-02;  9.9631616E+02;  1.0000000E-01; -3.0520122E+03;3; -2.3542450E+01;  0.0000000E+00;  4.1375275E+00;0;  6.1847252E-01;  3.9702016E+04;  0.0000000E+00; -3.7158108E-01;  4.0000000E+04;  0.0000000E+00;  4.0002477E+04;  5.2154404E-01;  0.0000000E+00;  9.6928485E-02;  8.3631030E+02;
  2.3190746E-01;  9.9999998E-03; -1.7006521E-01;3862;  2.1798633E-01;  0.0000000E+00; -2.0790508E-02;  9.9668933E+02;  1.0000000E-01; -2.7428357E+03;3; -2.3468538E+01;  0.0000000E+00;  3.8459132E+00;0;  6.7851710E-01;  3.9742379E+04;  0.0000000E+00; -1.7390840E-01;  4.0000000E+04;  0.0000000E+00;  3.9991562E+04;  5.7248276E-01;  0.0000000E+00;  1.0603436E-01;  7.8818939E+02;
  2.3187457E-01;  9.9999998E-03; -1.6005976E-01;3863;  2.2221529E-01;  0.0000000E+00; -1.9316612E-02;  9.9696545E+02;  1.0000000E-01; -2.5140522E+03;3; -2.3086006E+01;  0.0000000E+00;  3.6107347E+00;0;  7.3475003E-01;  3.9773781E+04;  0.0000000E+00; -7.7831358E-02;  4.0000000E+04;  0.0000000E+00;  3.9981934E+04;  6.2382233E-01;  0.0000000E+00;  1.1092772E-01;  1.9794252E+03;
  2.3185092E-01;  9.9999998E-03; -1.5004316E-01;3864;  2.2996466E-01;  0.0000000E+00; -1.6468911E-02;  9.9717303E+02;  1.0000000E-01; -2.3421064E+03;3; -2.1056248E+01;  0.0000000E+00;  3.5931613E+00;0;  7.8389704E-01;  3.9797371E+04;  0.0000000E+00; -2.5403490E-02;  4.0000000E+04;  0.0000000E+00;  3.9974531E+04;  6.7262268E-01;  0.0000000E+00;  1.1127436E-01;  2.9229150E+03;
  2.3184900E-01;  9.9999998E-03; -1.4001350E-01;3865;  2.4645156E-01;  0.0000000E+00; -1.0553303E-02;  9.9733154E+02;  1.0000000E-01; -2.2107522E+03;3; -1.7479147E+01;  0.0000000E+00;  3.5237894E+00;0;  8.2376856E-01;  3.9814504E+04;  0.0000000E+00;  9.7057670E-03;  4.0000000E+04;  0.0000000E+00;  3.9969887E+04;  7.1653104E-01;  0.0000000E+00;  1.0723754E-01;  3.5124016E+03;
  2.3185617E-01;  9.9999998E-03; -1.2998579E-01;3866;  2.6615629E-01;  0.0000000E+00; -4.5219553E-03;  9.9746320E+02;  1.0000000E-01; -2.1017183E+03;3; -1.4280286E+01;  0.0000000E+00;  3.2370775E+00;0;  8.5280740E-01;  3.9826422E+04;  0.0000000E+00;  3.3171218E-02;  4.0000000E+04;  0.0000000E+00;  3.9968246E+04;  7.5333261E-01;  0.0000000E+00;  9.9474773E-02;  3.7232251E+03;
  2.3185897E-01;  9.9999998E-03; -1.1996695E-01;3867;  2.8407237E-01;  0.0000000E+00; -2.6196655E-04;  9.9757733E+02;  1.0000000E-01; -2.0071530E+03;3; -1.1300859E+01;  0.0000000E+00;  3.1653891E+00;0;  8.7091476E-01;  3.9834406E+04;  0.0000000E+00;  4.5821737E-02;  4.0000000E+04;  0.0000000E+00;  3.9969414E+04;  7.8175247E-01;  0.0000000E+00;  8.9162312E-02;  3.5896455E+03;
  2.3185730E-01;  9.9999998E-03; -1.0995509E-01;3868;  3.0011886E-01;  0.0000000E+00;  2.6503168E-03;  9.9768427E+02;  1.0000000E-01; -1.9185629E+03;3; -8.4417086E+00;  0.0000000E+00;  3.0228386E+00;0;  8.7921578E-01;  3.9839508E+04;  0.0000000E+00;  4.9700703E-02;  4.0000000E+04;  0.0000000E+00;  3.9972883E+04;  8.0153078E-01;  0.0000000E+00;  7.7685013E-02;  3.1826865E+03;
  2.4274114E-01;  9.9999998E-03; -2.6998937E-01;3913;  1.9934672E-01;  0.0000000E+00; -2.0090442E-02;  9.8670020E+02;  1.0000000E-01; -1.1018650E+04;3;  7.1800098E+00;  0.0000000E+00;  4.1032539E+01;0;  5.7512724E-01;  3.8908434E+04;  0.0000000E+00;  4.7787328E+00;  4.0000000E+04;  0.0000000E+00;  4.0042750E+04;  5.8074039E-01;  0.0000000E+00; -5.6131482E-03;  1.0272825E+04;
  2.4283481E-01;  9.9999998E-03; -2.6000220E-01;3914;  1.9785148E-01;  0.0000000E+00; -2.3128293E-02;  9.8843988E+02;  1.0000000E-01; -9.5773584E+03;3; -5.4329023E+00;  0.0000000E+00;  2.6605867E+01;0;  5.1927781E-01;  3.9043766E+04;  0.0000000E+00; -3.8158963E+00;  4.0000000E+04;  0.0000000E+00;  4.0044195E+04;  5.0486755E-01;  0.0000000E+00;  1.4410231E-02;  8.0146094E+03;
  2.4277936E-01;  9.9999998E-03; -2.5001454E-01;3915;  1.9849455E-01;  0.0000000E+00; -2.4729080E-02;  9.9012085E+02;  1.0000000E-01; -8.1847061E+03;3; -1.3429873E+01;  0.0000000E+00;  1.7381094E+01;0;  4.8157293E-01;  3.9175199E+04;  0.0000000E+00; -5.7942281E+00;  4.0000000E+04;  0.0000000E+00;  4.0044438E+04;  4.5774591E-01;  0.0000000E+00;  2.3827028E-02;  1.0072103E+04;
  2.4262990E-01;  9.9999998E-03; -2.4001917E-01;3916;  2.0005266E-01;  0.0000000E+00; -2.5276458E-02;  9.9160876E+02;  1.0000000E-01; -6.9520005E+03;3; -1.8353590E+01;  0.0000000E+00;  1.1537986E+01;0;  4.6378556E-01;  3.9291301E+04;  0.0000000E+00; -5.4769106E+00;  4.0000000E+04;  0.0000000E+00;  4.0044645E+04;  4.3281829E-01;  0.0000000E+00;  3.0967275E-02;  9.8129707E+03;
  2.4245077E-01;  9.9999998E-03; -2.3001979E-01;3917;  2.0221181E-01;  0.0000000E+00; -2.4930863E-02;  9.9282831E+02;  1.0000000E-01; -5.9416094E+03;3; -2.1134880E+01;  0.0000000E+00;  8.3143969E+00;0;  4.6616444E-01;  3.9389215E+04;  0.0000000E+00; -4.5243626E+00;  4.0000000E+04;  0.0000000E+00;  4.0042137E+04;  4.2664704E-01;  0.0000000E+00;  3.9517403E-02;  8.6150107E+03;
  2.4229231E-01;  9.9999998E-03; -2.2002403E-01;3918;  2.0467561E-01;  0.0000000E+00; -2.4053847E-02;  9.9379822E+02;  1.0000000E-01; -5.1380767E+03;3; -2.2574072E+01;  0.0000000E+00;  6.5554514E+00;0;  4.8750532E-01;  3.9471152E+04;  0.0000000E+00; -3.3748140E+00;  4.0000000E+04;  0.0000000E+00;  4.0035965E+04;  4.3662226E-01;  0.0000000E+00;  5.0883058E-02;  6.8995327E+03;
  2.4216792E-01;  9.9999998E-03; -2.1003307E-01;3919;  2.0733842E-01;  0.0000000E+00; -2.2935724E-02;  9.9457092E+02;  1.0000000E-01; -4.4978970E+03;3; -2.3147112E+01;  0.0000000E+00;  5.6178689E+00;0;  5.2452075E-01;  3.9540258E+04;  0.0000000E+00; -2.2312057E+00;  4.0000000E+04;  0.0000000E+00;  4.0027215E+04;  4.6019727E-01;  0.0000000E+00;  6.4323485E-02;  4.9821284E+03;
  2.4207710E-01;  9.9999998E-03; -2.0004278E-01;3920;  2.1018468E-01;  0.0000000E+00; -2.1749681E-02;  9.9519165E+02;  1.0000000E-01; -3.9836401E+03;3; -2.3251751E+01;  0.0000000E+00;  5.0080075E+00;0;  5.7283545E-01;  3.9598941E+04;  0.0000000E+00; -1.2931739E+00;  4.0000000E+04;  0.0000000E+00;  4.0017156E+04;  4.9454638E-01;  0.0000000E+00;  7.8289062E-02;  3.1483220E+03;
  2.4201131E-01;  9.9999998E-03; -1.9005030E-01;3921;  2.1333601E-01;  0.0000000E+00; -2.0524608E-02;  9.9568652E+02;  1.0000000E-01; -3.5736270E+03;3; -2.3175755E+01;  0.0000000E+00;  4.6078734E+00;0;  6.2767243E-01;  3.9648348E+04;  0.0000000E+00; -6.5422881E-01;  4.0000000E+04;  0.0000000E+00;  4.0006457E+04;  5.3648317E-01;  0.0000000E+00;  9.1189258E-02;  1.5107039E+03;
  2.4196135E-01;  9.9999998E-03; -1.8005428E-01;3922;  2.1712081E-01;  0.0000000E+00; -1.9138223E-02;  9.9607257E+02;  1.0000000E-01; -3.2537842E+03;3; -2.2897451E+01;  0.0000000E+00;  4.2878242E+00;0;  6.8424791E-01;  3.9689363E+04;  0.0000000E+00; -2.8927505E-01;  4.0000000E+04;  0.0000000E+00;  3.9995742E+04;  5.8256996E-01;  0.0000000E+00;  1.0167796E-01;  4.4233908E+02;
  2.4192356E-01;  9.9999998E-03; -1.7005166E-01;3923;  2.2240995E-01;  0.0000000E+00; -1.7252626E-02;  9.9636841E+02;  1.0000000E-01; -3.0087048E+03;3; -2.2132826E+01;  0.0000000E+00;  3.9814625E+00;0;  7.3808038E-01;  3.9722508E+04;  0.0000000E+00; -1.1060651E-01;  4.0000000E+04;  0.0000000E+00;  3.9985809E+04;  6.2937802E-01;  0.0000000E+00;  1.0870234E-01;  1.4451807E+03;
  2.4190028E-01;  9.9999998E-03; -1.6003783E-01;3924;  2.3225561E-01;  0.0000000E+00; -1.3712480E-02;  9.9659583E+02;  1.0000000E-01; -2.8203152E+03;3; -1.9513424E+01;  0.0000000E+00;  3.9668798E+00;0;  7.8526342E-01;  3.9748762E+04;  0.0000000E+00; -2.9346248E-02;  4.0000000E+04;  0.0000000E+00;  3.9977492E+04;  6.7374963E-01;  0.0000000E+00;  1.1151376E-01;  2.5010239E+03;
  2.4189809E-01;  9.9999998E-03; -1.5001072E-01;3925;  2.4964382E-01;  0.0000000E+00; -7.8151906E-03;  9.9678015E+02;  1.0000000E-01; -2.6675786E+03;3; -1.5815478E+01;  0.0000000E+00;  3.8071861E+00;0;  8.2267761E-01;  3.9769105E+04;  0.0000000E+00;  1.1947392E-02;  4.0000000E+04;  0.0000000E+00;  3.9971551E+04;  7.1294022E-01;  0.0000000E+00;  1.0973737E-01;  3.2655015E+03;
  2.4190706E-01;  9.9999998E-03; -1.3998170E-01;3926;  2.7002284E-01;  0.0000000E+00; -2.0238610E-03;  9.9693762E+02;  1.0000000E-01; -2.5371133E+03;3; -1.2822207E+01;  0.0000000E+00;  3.3436270E+00;0;  8.4805644E-01;  3.9784695E+04;  0.0000000E+00;  3.7216678E-02;  4.0000000E+04;  0.0000000E+00;  3.9968410E+04;  7.4456710E-01;  0.0000000E+00;  1.0348932E-01;  3.6684932E+03;
  2.4191186E-01;  9.9999998E-03; -1.2996073E-01;3927;  2.8885302E-01;  0.0000000E+00;  2.1785202E-03;  9.9708466E+02;  1.0000000E-01; -2.4152896E+03;3; -9.7929125E+00;  0.0000000E+00;  3.1488533E+00;0;  8.6090988E-01;  3.9796516E+04;  0.0000000E+00;  5.1364228E-02;  4.0000000E+04;  0.0000000E+00;  3.9968121E+04;  7.6728350E-01;  0.0000000E+00;  9.3626380E-02;  3.7059900E+03;
  2.4191020E-01;  9.9999998E-03; -1.1994779E-01;3928;  3.0540755E-01;  0.0000000E+00;  4.8343218E-03;  9.9722815E+02;  1.0000000E-01; -2.2964287E+03;3; -7.2197609E+00;  0.0000000E+00;  2.8324714E+00;0;  8.6231709E-01;  3.9805699E+04;  0.0000000E+00;  5.5988654E-02;  4.0000000E+04;  0.0000000E+00;  3.9970508E+04;  7.8085095E-01;  0.0000000E+00;  8.1466131E-02;  3.4266987E+03;
  2.4190137E-01;  9.9999998E-03; -1.0994246E-01;3929;  3.1881052E-01;  0.0000000E+00;  5.9218733E-03;  9.9736847E+02;  1.0000000E-01; -2.1801851E+03;3; -5.2141685E+00;  0.0000000E+00;  2.5147791E+00;0;  8.5416204E-01;  3.9812676E+04;  0.0000000E+00;  5.3703673E-02;  4.0000000E+04;  0.0000000E+00;  3.9974934E+04;  7.8573728E-01;  0.0000000E+00;  6.8424739E-02;  2.9075798E+03;
  2.5285691E-01;  9.9999998E-03; -2.6998755E-01;3974;  2.0241147E-01;  0.0000000E+00; -1.4976317E-02;  9.8803723E+02;  1.0000000E-01; -9.9109287E+03;3; -2.8010178E+00;  0.0000000E+00;  2.9106249E+01;0;  5.3713256E-01;  3.9010629E+04;  0.0000000E+00; -4.4684930E+00;  4.0000000E+04;  0.0000000E+00;  4.0046336E+04;  5.4994571E-01;  0.0000000E+00; -1.2813148E-02;  8.8245742E+03;
  2.5289324E-01;  9.9999998E-03; -2.6001260E-01;3975;  2.0135650E-01;  0.0000000E+00; -1.7464558E-02;  9.8949646E+02;  1.0000000E-01; -8.7019756E+03;3; -1.1619304E+01;  0.0000000E+00;  2.0616528E+01;0;  5.0738961E-01;  3.9133043E+04;  0.0000000E+00; -8.4554892E+00;  4.0000000E+04;  0.0000000E+00;  4.0038469E+04;  4.9783251E-01;  0.0000000E+00;  9.5571075E-03;  1.2858790E+04;
  2.5280482E-01;  9.9999998E-03; -2.5002712E-01;3976;  2.0158769E-01;  0.0000000E+00; -1.9286603E-02;  9.9093024E+02;  1.0000000E-01; -7.5141079E+03;3; -1.6903948E+01;  0.0000000E+00;  1.4257942E+01;0;  4.9391237E-01;  3.9246695E+04;  0.0000000E+00; -7.9633403E+00;  4.0000000E+04;  0.0000000E+00;  4.0036922E+04;  4.6920985E-01;  0.0000000E+00;  2.4702527E-02;  1.2256745E+04;
  2.5264221E-01;  9.9999998E-03; -2.4002999E-01;3977;  2.0256278E-01;  0.0000000E+00; -2.0265266E-02;  9.9218933E+02;  1.0000000E-01; -6.4709771E+03;3; -2.0112686E+01;  0.0000000E+00;  1.0012132E+01;0;  4.9511266E-01;  3.9344590E+04;  0.0000000E+00; -6.3559384E+00;  4.0000000E+04;  0.0000000E+00;  4.0037184E+04;  4.5932701E-01;  0.0000000E+00;  3.5785630E-02;  1.0330756E+04;
  2.5246495E-01;  9.9999998E-03; -2.3002681E-01;3978;  2.0426041E-01;  0.0000000E+00; -2.0399019E-02;  9.9320575E+02;  1.0000000E-01; -5.6289268E+03;3; -2.1869057E+01;  0.0000000E+00;  7.5353904E+00;0;  5.1123357E-01;  3.9426004E+04;  0.0000000E+00; -4.7354088E+00;  4.0000000E+04;  0.0000000E+00;  4.0035117E+04;  4.6514273E-01;  0.0000000E+00;  4.6090826E-02;  8.2890156E+03;
  2.5231335E-01;  9.9999998E-03; -2.2002657E-01;3979;  2.0657678E-01;  0.0000000E+00; -1.9908085E-02;  9.9399170E+02;  1.0000000E-01; -4.9777847E+03;3; -2.2647650E+01;  0.0000000E+00;  6.2564569E+00;0;  5.4150593E-01;  3.9493379E+04;  0.0000000E+00; -3.2644200E+00;  4.0000000E+04;  0.0000000E+00;  4.0028938E+04;  4.8403189E-01;  0.0000000E+00;  5.7474047E-02;  6.1827925E+03;
  2.5219363E-01;  9.9999998E-03; -2.1003196E-01;3980;  2.0944507E-01;  0.0000000E+00; -1.8972982E-02;  9.9460352E+02;  1.0000000E-01; -4.4708857E+03;3; -2.2825966E+01;  0.0000000E+00;  5.5769868E+00;0;  5.8309889E-01;  3.9549844E+04;  0.0000000E+00; -2.0144229E+00;  4.0000000E+04;  0.0000000E+00;  4.0020199E+04;  5.1328504E-01;  0.0000000E+00;  6.9813870E-02;  4.1304272E+03;
  2.5210604E-01;  9.9999998E-03; -2.0003827E-01;3981;  2.1291026E-01;  0.0000000E+00; -1.7740276E-02;  9.9508899E+02;  1.0000000E-01; -4.0686748E+03;3; -2.2667561E+01;  0.0000000E+00;  5.0387974E+00;0;  6.3210970E-01;  3.9597551E+04;  0.0000000E+00; -1.0859077E+00;  4.0000000E+04;  0.0000000E+00;  4.0010336E+04;  5.4997534E-01;  0.0000000E+00;  8.2134381E-02;  2.3180725E+03;
  2.5204167E-01;  9.9999998E-03; -1.9004259E-01;3982;  2.1721745E-01;  0.0000000E+00; -1.6271137E-02;  9.9547455E+02;  1.0000000E-01; -3.7492271E+03;3; -2.2220352E+01;  0.0000000E+00;  4.5995975E+00;0;  6.8403518E-01;  3.9637699E+04;  0.0000000E+00; -4.9692059E-01;  4.0000000E+04;  0.0000000E+00;  4.0000320E+04;  5.9086651E-01;  0.0000000E+00;  9.3168676E-02;  8.3279749E+02;
  2.5199440E-01;  9.9999998E-03; -1.8004239E-01;3983;  2.2347102E-01;  0.0000000E+00; -1.4236091E-02;  9.9577887E+02;  1.0000000E-01; -3.4971355E+03;3; -2.1140474E+01;  0.0000000E+00;  4.3003783E+00;0;  7.3425937E-01;  3.9671238E+04;  0.0000000E+00; -1.8137930E-01;  4.0000000E+04;  0.0000000E+00;  3.9990562E+04;  6.3259810E-01;  0.0000000E+00;  1.0166124E-01;  8.3728082E+02;
  2.5196436E-01;  9.9999998E-03; -1.7003340E-01;3984;  2.3394133E-01;  0.0000000E+00; -1.1063975E-02;  9.9602106E+02;  1.0000000E-01; -3.2964990E+03;3; -1.8243847E+01;  0.0000000E+00;  4.2517562E+00;0;  7.7854908E-01;  3.9698855E+04;  0.0000000E+00; -3.7946384E-02;  4.0000000E+04;  0.0000000E+00;  3.9981781E+04;  6.7191893E-01;  0.0000000E+00;  1.0663015E-01;  1.9128046E+03;
  2.5195557E-01;  9.9999998E-03; -1.6001287E-01;3985;  2.5098094E-01;  0.0000000E+00; -5.9785256E-03;  9.9622003E+02;  1.0000000E-01; -3.1316150E+03;3; -1.4620353E+01;  0.0000000E+00;  3.8976283E+00;0;  8.1324279E-01;  3.9721512E+04;  0.0000000E+00;  2.0724511E-02;  4.0000000E+04;  0.0000000E+00;  3.9974844E+04;  7.0589650E-01;  0.0000000E+00;  1.0734630E-01;  2.8025547E+03;
  2.5196108E-01;  9.9999998E-03; -1.4998633E-01;3986;  2.7117610E-01;  0.0000000E+00; -6.4818910E-04;  9.9639789E+02;  1.0000000E-01; -2.9842610E+03;3; -1.1584672E+01;  0.0000000E+00;  3.5833349E+00;0;  8.3546180E-01;  3.9740023E+04;  0.0000000E+00;  4.6276648E-02;  4.0000000E+04;  0.0000000E+00;  3.9970273E+04;  7.3202389E-01;  0.0000000E+00;  1.0343791E-01;  3.3837822E+03;
  2.5196677E-01;  9.9999998E-03; -1.3996366E-01;3987;  2.9054388E-01;  0.0000000E+00;  3.5531386E-03;  9.9656952E+02;  1.0000000E-01; -2.8420923E+03;3; -8.6595650E+00;  0.0000000E+00;  3.2978973E+00;0;  8.4404695E-01;  3.9755316E+04;  0.0000000E+00;  5.8641762E-02;  4.0000000E+04;  0.0000000E+00;  3.9968676E+04;  7.4882787E-01;  0.0000000E+00;  9.5219091E-02;  3.6110781E+03;
  2.5196531E-01;  9.9999998E-03; -1.2994888E-01;3988;  3.0741236E-01;  0.0000000E+00;  6.0957004E-03;  9.9674359E+02;  1.0000000E-01; -2.6978494E+03;3; -6.3846817E+00;  0.0000000E+00;  2.8390064E+00;0;  8.3976078E-01;  3.9768164E+04;  0.0000000E+00;  6.1816264E-02;  4.0000000E+04;  0.0000000E+00;  3.9969734E+04;  7.5603908E-01;  0.0000000E+00;  8.3721727E-02;  3.4990383E+03;
  2.5195432E-01;  9.9999998E-03; -1.1994229E-01;3989;  3.2080010E-01;  0.0000000E+00;  7.0377020E-03;  9.9692010E+02;  1.0000000E-01; -2.5516313E+03;3; -4.7161784E+00;  0.0000000E+00;  2.5120800E+00;0;  8.2455164E-01;  3.9779047E+04;  0.0000000E+00;  5.8092806E-02;  4.0000000E+04;  0.0000000E+00;  3.9973000E+04;  7.5423759E-01;  0.0000000E+00;  7.0314065E-02;  3.1057959E+03;
  2.5193670E-01;  9.9999998E-03; -1.0994108E-01;3990;  3.3096045E-01;  0.0000000E+00;  6.9970051E-03;  9.9709680E+02;  1.0000000E-01; -2.4052651E+03;3; -3.8530171E+00;  0.0000000E+00;  2.1940796E+00;0;  8.0092901E-01;  3.9788297E+04;  0.0000000E+00;  5.0279532E-02;  4.0000000E+04;  0.0000000E+00;  3.9977895E+04;  7.4455512E-01;  0.0000000E+00;  5.6373868E-02;  2.5102856E+03;
  2.6296207E-01;  9.9999998E-03; -2.6998216E-01;4035;  2.0515901E-01;  0.0000000E+00; -1.0114035E-02;  9.8932477E+02;  1.0000000E-01; -8.8442432E+03;3; -1.0107883E+01;  0.0000000E+00;  2.0045233E+01;0;  5.0460279E-01;  3.9108328E+04;  0.0000000E+00; -1.0040357E+01;  4.0000000E+04;  0.0000000E+00;  4.0050910E+04;  5.2681208E-01;  0.0000000E+00; -2.2209303E-02;  1.5595560E+04;
  2.6294377E-01;  9.9999998E-03; -2.6001456E-01;4036;  2.0503885E-01;  0.0000000E+00; -1.1777899E-02;  9.9047827E+02;  1.0000000E-01; -7.8885664E+03;3; -1.6173273E+01;  0.0000000E+00;  1.5452630E+01;0;  4.9624175E-01;  3.9214020E+04;  0.0000000E+00; -1.0439948E+01;  4.0000000E+04;  0.0000000E+00;  4.0035348E+04;  4.9698222E-01;  0.0000000E+00; -7.4047875E-04;  1.5433994E+04;
  2.6282454E-01;  9.9999998E-03; -2.5003448E-01;4037;  2.0512353E-01;  0.0000000E+00; -1.3544027E-02;  9.9161938E+02;  1.0000000E-01; -6.9431611E+03;3; -1.9508684E+01;  0.0000000E+00;  1.1488699E+01;0;  5.0441402E-01;  3.9308266E+04;  0.0000000E+00; -8.3943558E+00;  4.0000000E+04;  0.0000000E+00;  4.0029930E+04;  4.8524898E-01;  0.0000000E+00;  1.9165054E-02;  1.2547806E+04;
  2.6265436E-01;  9.9999998E-03; -2.4003935E-01;4038;  2.0580697E-01;  0.0000000E+00; -1.4760120E-02;  9.9263226E+02;  1.0000000E-01; -6.1040244E+03;3; -2.1312382E+01;  0.0000000E+00;  8.6473694E+00;0;  5.2290583E-01;  3.9387555E+04;  0.0000000E+00; -6.1784110E+00;  4.0000000E+04;  0.0000000E+00;  4.0029539E+04;  4.8851016E-01;  0.0000000E+00;  3.4395684E-02;  9.6782900E+03;
  2.6248783E-01;  9.9999998E-03; -2.3003395E-01;4039;  2.0744006E-01;  0.0000000E+00; -1.5150085E-02;  9.9345142E+02;  1.0000000E-01; -5.4253770E+03;3; -2.2151781E+01;  0.0000000E+00;  6.9321628E+00;0;  5.5082071E-01;  3.9452633E+04;  0.0000000E+00; -4.3335452E+00;  4.0000000E+04;  0.0000000E+00;  4.0027996E+04;  5.0409085E-01;  0.0000000E+00;  4.6729840E-02;  7.3263516E+03;
  2.6234478E-01;  9.9999998E-03; -2.2003008E-01;4040;  2.0993623E-01;  0.0000000E+00; -1.4833297E-02;  9.9407245E+02;  1.0000000E-01; -4.9108730E+03;3; -2.2369450E+01;  0.0000000E+00;  5.9824419E+00;0;  5.8772868E-01;  3.9506414E+04;  0.0000000E+00; -2.8095462E+00;  4.0000000E+04;  0.0000000E+00;  4.0022492E+04;  5.2928483E-01;  0.0000000E+00;  5.8443829E-02;  5.1712031E+03;
  2.6223153E-01;  9.9999998E-03; -2.1003178E-01;4041;  2.1332176E-01;  0.0000000E+00; -1.4036213E-02;  9.9454596E+02;  1.0000000E-01; -4.5185879E+03;3; -2.2169422E+01;  0.0000000E+00;  5.3637118E+00;0;  6.3147604E-01;  3.9551387E+04;  0.0000000E+00; -1.6228255E+00;  4.0000000E+04;  0.0000000E+00;  4.0014219E+04;  5.6133026E-01;  0.0000000E+00;  7.0145778E-02;  3.2128147E+03;
  2.6214850E-01;  9.9999998E-03; -2.0003437E-01;4042;  2.1793875E-01;  0.0000000E+00; -1.2817489E-02;  9.9491925E+02;  1.0000000E-01; -4.2093125E+03;3; -2.1654922E+01;  0.0000000E+00;  4.8517094E+00;0;  6.7844242E-01;  3.9589527E+04;  0.0000000E+00; -8.0162215E-01;  4.0000000E+04;  0.0000000E+00;  4.0004988E+04;  5.9728914E-01;  0.0000000E+00;  8.1153281E-02;  1.5613459E+03;
  2.6208729E-01;  9.9999998E-03; -1.9003457E-01;4043;  2.2459869E-01;  0.0000000E+00; -1.1052217E-02;  9.9521759E+02;  1.0000000E-01; -3.9621592E+03;3; -2.0268785E+01;  0.0000000E+00;  4.4962468E+00;0;  7.2441387E-01;  3.9622043E+04;  0.0000000E+00; -3.1305268E-01;  4.0000000E+04;  0.0000000E+00;  3.9995691E+04;  6.3397986E-01;  0.0000000E+00;  9.0434030E-02;  4.5440372E+02;
  2.6204550E-01;  9.9999998E-03; -1.8002997E-01;4044;  2.3532337E-01;  0.0000000E+00; -8.3124042E-03;  9.9546246E+02;  1.0000000E-01; -3.7592515E+03;3; -1.7117180E+01;  0.0000000E+00;  4.4923048E+00;0;  7.6519603E-01;  3.9649906E+04;  0.0000000E+00; -6.9662698E-02;  4.0000000E+04;  0.0000000E+00;  3.9987047E+04;  6.6823101E-01;  0.0000000E+00;  9.6965030E-02;  1.2171818E+03;
  2.6202556E-01;  9.9999998E-03; -1.7001659E-01;4045;  2.5142020E-01;  0.0000000E+00; -4.3403073E-03;  9.9567200E+02;  1.0000000E-01; -3.5856760E+03;3; -1.3474628E+01;  0.0000000E+00;  4.2609463E+00;0;  7.9695481E-01;  3.9673684E+04;  0.0000000E+00;  2.9457256E-02;  4.0000000E+04;  0.0000000E+00;  3.9979441E+04;  6.9705504E-01;  0.0000000E+00;  9.9899769E-02;  2.1665503E+03;
  2.6202342E-01;  9.9999998E-03; -1.5999532E-01;4046;  2.7099824E-01;  0.0000000E+00;  3.1754386E-04;  9.9586304E+02;  1.0000000E-01; -3.4274089E+03;3; -1.0444640E+01;  0.0000000E+00;  3.9586380E+00;0;  8.1647438E-01;  3.9694207E+04;  0.0000000E+00;  6.2025126E-02;  4.0000000E+04;  0.0000000E+00;  3.9973945E+04;  7.1790671E-01;  0.0000000E+00;  9.8567665E-02;  2.8816770E+03;
  2.6202700E-01;  9.9999998E-03; -1.4997302E-01;4047;  2.9057965E-01;  0.0000000E+00;  4.4831485E-03;  9.9605078E+02;  1.0000000E-01; -3.2718579E+03;3; -7.6310434E+00;  0.0000000E+00;  3.6162589E+00;0;  8.2192498E-01;  3.9712105E+04;  0.0000000E+00;  7.0446759E-02;  4.0000000E+04;  0.0000000E+00;  3.9970777E+04;  7.2916543E-01;  0.0000000E+00;  9.2759572E-02;  3.2878811E+03;
  2.6202556E-01;  9.9999998E-03; -1.3995636E-01;4048;  3.0776036E-01;  0.0000000E+00;  7.0929760E-03;  9.9624493E+02;  1.0000000E-01; -3.1110229E+03;3; -5.5777698E+00;  0.0000000E+00;  3.1091213E+00;0;  8.1346691E-01;  3.9728051E+04;  0.0000000E+00;  6.9621757E-02;  4.0000000E+04;  0.0000000E+00;  3.9970367E+04;  7.3044407E-01;  0.0000000E+00;  8.3022811E-02;  3.3616477E+03;
  2.6201433E-01;  9.9999998E-03; -1.2994750E-01;4049;  3.2124880E-01;  0.0000000E+00;  8.0188895E-03;  9.9644928E+02;  1.0000000E-01; -2.9416943E+03;3; -4.3568592E+00;  0.0000000E+00;  2.6376538E+00;0;  7.9288030E-01;  3.9742324E+04;  0.0000000E+00;  6.2609099E-02;  4.0000000E+04;  0.0000000E+00;  3.9972379E+04;  7.2238469E-01;  0.0000000E+00;  7.0495598E-02;  3.1313879E+03;
  2.6199341E-01;  9.9999998E-03; -1.1994504E-01;4050;  3.3112597E-01;  0.0000000E+00;  7.8814309E-03;  9.9665930E+02;  1.0000000E-01; -2.7677239E+03;3; -4.0234618E+00;  0.0000000E+00;  2.2432511E+00;0;  7.6278234E-01;  3.9755320E+04;  0.0000000E+00;  5.2104793E-02;  4.0000000E+04;  0.0000000E+00;  3.9976449E+04;  7.0626312E-01;  0.0000000E+00;  5.6519207E-02;  2.6604094E+03;
  2.6196685E-01;  9.9999998E-03; -1.0994621E-01;4051;  3.3778694E-01;  0.0000000E+00;  7.1232873E-03;  9.9686987E+02;  1.0000000E-01; -2.5932598E+03;3; -4.3826442E+00;  0.0000000E+00;  1.8720112E+00;0;  7.2602785E-01;  3.9766848E+04;  0.0000000E+00;  4.0653393E-02;  4.0000000E+04;  0.0000000E+00;  3.9981664E+04;  6.8365890E-01;  0.0000000E+00;  4.2368978E-02;  2.0258044E+03;
  2.7304295E-01;  9.9999998E-03; -2.6997569E-01;4096;  2.0742795E-01;  0.0000000E+00; -5.7820156E-03;  9.9050958E+02;  1.0000000E-01; -7.8626411E+03;3; -1.5350324E+01;  0.0000000E+00;  1.3751619E+01;0;  4.8362064E-01;  3.9198398E+04;  0.0000000E+00; -1.1722196E+01;  4.0000000E+04;  0.0000000E+00;  4.0054926E+04;  5.1387346E-01;  0.0000000E+00; -3.0252816E-02;  1.8076549E+04;
  2.7297220E-01;  9.9999998E-03; -2.6001009E-01;4097;  2.0807353E-01;  0.0000000E+00; -6.6692564E-03;  9.9136554E+02;  1.0000000E-01; -7.1534761E+03;3; -1.9059910E+01;  0.0000000E+00;  1.1525851E+01;0;  4.9155337E-01;  3.9284949E+04;  0.0000000E+00; -9.9808922E+00;  4.0000000E+04;  0.0000000E+00;  4.0034734E+04;  5.0283617E-01;  0.0000000E+00; -1.1282802E-02;  1.4879898E+04;
  2.7283761E-01;  9.9999998E-03; -2.5003466E-01;4098;  2.0870778E-01;  0.0000000E+00; -8.0645364E-03;  9.9220111E+02;  1.0000000E-01; -6.4612490E+03;3; -2.0839851E+01;  0.0000000E+00;  9.3936033E+00;0;  5.1601905E-01;  3.9358973E+04;  0.0000000E+00; -7.4834676E+00;  4.0000000E+04;  0.0000000E+00;  4.0025293E+04;  5.0544715E-01;  0.0000000E+00;  1.0571887E-02;  1.1181466E+04;
  2.7267984E-01;  9.9999998E-03; -2.4004225E-01;4099;  2.0960881E-01;  0.0000000E+00; -9.2995502E-03;  9.9296777E+02;  1.0000000E-01; -5.8260571E+03;3; -2.1681999E+01;  0.0000000E+00;  7.5543184E+00;0;  5.4803818E-01;  3.9420262E+04;  0.0000000E+00; -5.2983046E+00;  4.0000000E+04;  0.0000000E+00;  4.0023473E+04;  5.1909626E-01;  0.0000000E+00;  2.8941922E-02;  8.2488379E+03;
  2.7252781E-01;  9.9999998E-03; -2.3003784E-01;4100;  2.1147332E-01;  0.0000000E+00; -9.8366132E-03;  9.9359637E+02;  1.0000000E-01; -5.3052817E+03;3; -2.1854755E+01;  0.0000000E+00;  6.4299183E+00;0;  5.8453918E-01;  3.9470328E+04;  0.0000000E+00; -3.5414531E+00;  4.0000000E+04;  0.0000000E+00;  4.0022004E+04;  5.4141039E-01;  0.0000000E+00;  4.3128796E-02;  5.9800718E+03;
  2.7239135E-01;  9.9999998E-03; -2.2003400E-01;4101;  2.1457341E-01;  0.0000000E+00; -9.6677709E-03;  9.9406689E+02;  1.0000000E-01; -4.9154653E+03;3; -2.1571703E+01;  0.0000000E+00;  5.7343569E+00;0;  6.2499636E-01;  3.9511871E+04;  0.0000000E+00; -2.1601994E+00;  4.0000000E+04;  0.0000000E+00;  4.0016746E+04;  5.6975633E-01;  0.0000000E+00;  5.5240043E-02;  4.0131204E+03;
  2.7228549E-01;  9.9999998E-03; -2.1003261E-01;4102;  2.1901886E-01;  0.0000000E+00; -9.0075461E-03;  9.9442487E+02;  1.0000000E-01; -4.6188813E+03;3; -2.0886395E+01;  0.0000000E+00;  5.1705294E+00;0;  6.6776168E-01;  3.9547012E+04;  0.0000000E+00; -1.1541381E+00;  4.0000000E+04;  0.0000000E+00;  4.0009297E+04;  6.0141474E-01;  0.0000000E+00;  6.6346921E-02;  2.3174912E+03;
  2.7220589E-01;  9.9999998E-03; -2.0003149E-01;4103;  2.2568810E-01;  0.0000000E+00; -7.7811405E-03;  9.9470996E+02;  1.0000000E-01; -4.3826904E+03;3; -1.9292809E+01;  0.0000000E+00;  4.7752795E+00;0;  7.0951438E-01;  3.9577203E+04;  0.0000000E+00; -5.0019670E-01;  4.0000000E+04;  0.0000000E+00;  4.0000953E+04;  6.3349968E-01;  0.0000000E+00;  7.6014705E-02;  9.1895911E+02;
  2.7214834E-01;  9.9999998E-03; -1.9002800E-01;4104;  2.3625273E-01;  0.0000000E+00; -5.6538926E-03;  9.9494684E+02;  1.0000000E-01; -4.1864492E+03;3; -1.6137312E+01;  0.0000000E+00;  4.6221719E+00;0;  7.4652648E-01;  3.9603734E+04;  0.0000000E+00; -1.3773103E-01;  4.0000000E+04;  0.0000000E+00;  3.9992699E+04;  6.6303456E-01;  0.0000000E+00;  8.3491944E-02;  5.0059058E+02;
  2.7211255E-01;  9.9999998E-03; -1.8001954E-01;4105;  2.5172579E-01;  0.0000000E+00; -2.4113294E-03;  9.9515521E+02;  1.0000000E-01; -4.0138120E+03;3; -1.2435554E+01;  0.0000000E+00;  4.5903597E+00;0;  7.7520907E-01;  3.9627395E+04;  0.0000000E+00;  2.5498891E-02;  4.0000000E+04;  0.0000000E+00;  3.9985180E+04;  6.8712866E-01;  0.0000000E+00;  8.8080429E-02;  1.4186091E+03;
  2.7209777E-01;  9.9999998E-03; -1.7000403E-01;4106;  2.7032903E-01;  0.0000000E+00;  1.5041709E-03;  9.9534924E+02;  1.0000000E-01; -3.8530759E+03;3; -9.0889349E+00;  0.0000000E+00;  4.5668955E+00;0;  7.9231477E-01;  3.9648801E+04;  0.0000000E+00;  7.9540983E-02;  4.0000000E+04;  0.0000000E+00;  3.9979023E+04;  7.0325041E-01;  0.0000000E+00;  8.9064330E-02;  2.2085771E+03;
  2.7209464E-01;  9.9999998E-03; -1.5998453E-01;4107;  2.8958276E-01;  0.0000000E+00;  5.2962746E-03;  9.9554614E+02;  1.0000000E-01; -3.6899202E+03;3; -6.5250945E+00;  0.0000000E+00;  4.1944847E+00;0;  7.9556704E-01;  3.9668418E+04;  0.0000000E+00;  8.7507747E-02;  4.0000000E+04;  0.0000000E+00;  3.9974754E+04;  7.0968688E-01;  0.0000000E+00;  8.5880190E-02;  2.7532341E+03;
  2.7209154E-01;  9.9999998E-03; -1.4996724E-01;4108;  3.0700406E-01;  0.0000000E+00;  7.9596965E-03;  9.9575244E+02;  1.0000000E-01; -3.5190112E+03;3; -4.7570453E+00;  0.0000000E+00;  3.4926636E+00;0;  7.8445041E-01;  3.9686676E+04;  0.0000000E+00;  8.0871731E-02;  4.0000000E+04;  0.0000000E+00;  3.9972941E+04;  7.0588320E-01;  0.0000000E+00;  7.8567214E-02;  3.0028342E+03;
  2.7208030E-01;  9.9999998E-03; -1.3995647E-01;4109;  3.2069951E-01;  0.0000000E+00;  8.9692483E-03;  9.9597394E+02;  1.0000000E-01; -3.3355103E+03;3; -3.9582598E+00;  0.0000000E+00;  2.9088929E+00;0;  7.6029837E-01;  3.9703840E+04;  0.0000000E+00;  6.9075763E-02;  4.0000000E+04;  0.0000000E+00;  3.9973520E+04;  6.9242853E-01;  0.0000000E+00;  6.7869864E-02;  2.9516292E+03;
  2.7205864E-01;  9.9999998E-03; -1.2995242E-01;4110;  3.3047688E-01;  0.0000000E+00;  8.8000614E-03;  9.9620715E+02;  1.0000000E-01; -3.1422812E+03;3; -4.2058802E+00;  0.0000000E+00;  2.3852119E+00;0;  7.2564977E-01;  3.9719754E+04;  0.0000000E+00;  5.4607190E-02;  4.0000000E+04;  0.0000000E+00;  3.9976191E+04;  6.7069757E-01;  0.0000000E+00;  5.4952223E-02;  2.6374270E+03;
  2.7202871E-01;  9.9999998E-03; -1.1995258E-01;4111;  3.3686921E-01;  0.0000000E+00;  7.9428293E-03;  9.9644611E+02;  1.0000000E-01; -2.9443115E+03;3; -4.7998686E+00;  0.0000000E+00;  1.9550003E+00;0;  6.8346769E-01;  3.9734559E+04;  0.0000000E+00;  4.0109813E-02;  4.0000000E+04;  0.0000000E+00;  3.9980566E+04;  6.4240843E-01;  0.0000000E+00;  4.1059282E-02;  2.1247466E+03;
  2.7199459E-01;  9.9999998E-03; -1.0995496E-01;4112;  3.4101069E-01;  0.0000000E+00;  6.8496694E-03;  9.9668201E+02;  1.0000000E-01; -2.7489097E+03;3; -5.1651850E+00;  0.0000000E+00;  1.6947384E+00;0;  6.3670486E-01;  3.9748094E+04;  0.0000000E+00;  2.7467448E-02;  4.0000000E+04;  0.0000000E+00;  3.9985855E+04;  6.0937881E-01;  0.0000000E+00;  2.7326075E-02;  1.4861779E+03;
  2.8309754E-01;  9.9999998E-03; -2.6996884E-01;4157;  2.0958424E-01;  0.0000000E+00; -1.7537974E-03;  9.9155322E+02;  1.0000000E-01; -6.9979746E+03;3; -1.8436480E+01;  0.0000000E+00;  1.0056162E+01;0;  4.7400376E-01;  3.9278133E+04;  0.0000000E+00; -1.0529656E+01;  4.0000000E+04;  0.0000000E+00;  4.0057844E+04;  5.1246709E-01;  0.0000000E+00; -3.8463321E-02;  1.6790494E+04;
  2.8299576E-01;  9.9999998E-03; -2.6000160E-01;4158;  2.1137261E-01;  0.0000000E+00; -1.7104617E-03;  9.9212921E+02;  1.0000000E-01; -6.5208027E+03;3; -2.0107613E+01;  0.0000000E+00;  9.2509413E+00;0;  4.9145374E-01;  3.9344324E+04;  0.0000000E+00; -8.1872225E+00;  4.0000000E+04;  0.0000000E+00;  4.0035973E+04;  5.1603603E-01;  0.0000000E+00; -2.4582287E-02;  1.2616745E+04;
  2.8286192E-01;  9.9999998E-03; -2.5002843E-01;4159;  2.1256433E-01;  0.0000000E+00; -2.7910920E-03;  9.9267981E+02;  1.0000000E-01; -6.0646182E+03;3; -2.1004679E+01;  0.0000000E+00;  8.0873661E+00;0;  5.2822930E-01;  3.9399281E+04;  0.0000000E+00; -5.9198699E+00;  4.0000000E+04;  0.0000000E+00;  4.0023184E+04;  5.2904379E-01;  0.0000000E+00; -8.1451988E-04;  9.0489033E+03;
  2.8271809E-01;  9.9999998E-03; -2.4003784E-01;4160;  2.1386093E-01;  0.0000000E+00; -4.1269851E-03;  9.9322467E+02;  1.0000000E-01; -5.6132236E+03;3; -2.1038153E+01;  0.0000000E+00;  7.0154591E+00;0;  5.7030439E-01;  3.9444250E+04;  0.0000000E+00; -4.0502539E+00;  4.0000000E+04;  0.0000000E+00;  4.0019988E+04;  5.4942000E-01;  0.0000000E+00;  2.0884413E-02;  6.4822529E+03;
  2.8257492E-01;  9.9999998E-03; -2.3003769E-01;4161;  2.1647410E-01;  0.0000000E+00; -4.7400333E-03;  9.9367175E+02;  1.0000000E-01; -5.2428145E+03;3; -2.0611849E+01;  0.0000000E+00;  6.3279443E+00;0;  6.1139607E-01;  3.9481398E+04;  0.0000000E+00; -2.5707839E+00;  4.0000000E+04;  0.0000000E+00;  4.0017266E+04;  5.7493150E-01;  0.0000000E+00;  3.6464568E-02;  4.5237422E+03;
  2.8244907E-01;  9.9999998E-03; -2.2003503E-01;4162;  2.2069648E-01;  0.0000000E+00; -4.7182124E-03;  9.9401215E+02;  1.0000000E-01; -4.9608472E+03;3; -1.9834394E+01;  0.0000000E+00;  5.6939960E+00;0;  6.5186024E-01;  3.9512340E+04;  0.0000000E+00; -1.4628539E+00;  4.0000000E+04;  0.0000000E+00;  4.0012328E+04;  6.0302860E-01;  0.0000000E+00;  4.8831634E-02;  2.9185137E+03;
  2.8235167E-01;  9.9999998E-03; -2.1003214E-01;4163;  2.2711107E-01;  0.0000000E+00; -4.1879974E-03;  9.9427655E+02;  1.0000000E-01; -4.7417915E+03;3; -1.8134565E+01;  0.0000000E+00;  5.1223059E+00;0;  6.9030631E-01;  3.9539172E+04;  0.0000000E+00; -6.9830877E-01;  4.0000000E+04;  0.0000000E+00;  4.0005668E+04;  6.3109577E-01;  0.0000000E+00;  5.9210539E-02;  1.5622897E+03;
  2.8227550E-01;  9.9999998E-03; -2.0002854E-01;4164;  2.3708622E-01;  0.0000000E+00; -2.9043350E-03;  9.9449377E+02;  1.0000000E-01; -4.5617964E+03;3; -1.5240336E+01;  0.0000000E+00;  4.8102632E+00;0;  7.2382575E-01;  3.9563117E+04;  0.0000000E+00; -2.3316181E-01;  4.0000000E+04;  0.0000000E+00;  3.9998371E+04;  6.5640968E-01;  0.0000000E+00;  6.7416094E-02;  4.3334045E+02;
  2.8222111E-01;  9.9999998E-03; -1.9002199E-01;4165;  2.5165728E-01;  0.0000000E+00; -4.4885935E-04;  9.9468896E+02;  1.0000000E-01; -4.4000728E+03;3; -1.1547309E+01;  0.0000000E+00;  4.8588028E+00;0;  7.4937439E-01;  3.9585160E+04;  0.0000000E+00;  1.7411269E-03;  4.0000000E+04;  0.0000000E+00;  3.9991250E+04;  6.7630136E-01;  0.0000000E+00;  7.3073030E-02;  6.2340479E+02;
  2.8218907E-01;  9.9999998E-03; -1.8001053E-01;4166;  2.6953718E-01;  0.0000000E+00;  2.9572672E-03;  9.9487671E+02;  1.0000000E-01; -4.2445708E+03;3; -8.0823774E+00;  0.0000000E+00;  4.9760990E+00;0;  7.6416659E-01;  3.9605945E+04;  0.0000000E+00;  9.0623215E-02;  4.0000000E+04;  0.0000000E+00;  3.9984988E+04;  6.8835241E-01;  0.0000000E+00;  7.5814158E-02;  1.4305559E+03;
  2.8217298E-01;  9.9999998E-03; -1.6999462E-01;4167;  2.8816739E-01;  0.0000000E+00;  6.3326950E-03;  9.9507104E+02;  1.0000000E-01; -4.0835386E+03;3; -5.3803630E+00;  0.0000000E+00;  4.7301111E+00;0;  7.6584464E-01;  3.9626062E+04;  0.0000000E+00;  1.0636089E-01;  4.0000000E+04;  0.0000000E+00;  3.9980102E+04;  6.9081181E-01;  0.0000000E+00;  7.5032845E-02;  2.0575740E+03;
  2.8216323E-01;  9.9999998E-03; -1.5997846E-01;4168;  3.0544949E-01;  0.0000000E+00;  8.8537438E-03;  9.9528076E+02;  1.0000000E-01; -3.9098149E+03;3; -3.7598529E+00;  0.0000000E+00;  4.1020770E+00;0;  7.5329888E-01;  3.9645469E+04;  0.0000000E+00;  9.5419191E-02;  4.0000000E+04;  0.0000000E+00;  3.9977133E+04;  6.8296683E-01;  0.0000000E+00;  7.0332073E-02;  2.4460139E+03;
  2.8215024E-01;  9.9999998E-03; -1.4996669E-01;4169;  3.1933478E-01;  0.0000000E+00;  9.9331560E-03;  9.9550946E+02;  1.0000000E-01; -3.7203389E+03;3; -3.4481363E+00;  0.0000000E+00;  3.3251317E+00;0;  7.2725368E-01;  3.9664520E+04;  0.0000000E+00;  7.8061312E-02;  4.0000000E+04;  0.0000000E+00;  3.9976391E+04;  6.6525120E-01;  0.0000000E+00;  6.2002510E-02;  2.5635266E+03;
  2.8212827E-01;  9.9999998E-03; -1.3996115E-01;4170;  3.2912317E-01;  0.0000000E+00;  9.7642299E-03;  9.9575732E+02;  1.0000000E-01; -3.5149622E+03;3; -4.2194791E+00;  0.0000000E+00;  2.6173894E+00;0;  6.8993855E-01;  3.9682848E+04;  0.0000000E+00;  5.9059151E-02;  4.0000000E+04;  0.0000000E+00;  3.9977746E+04;  6.3902211E-01;  0.0000000E+00;  5.0916437E-02;  2.4180559E+03;
  2.8209794E-01;  9.9999998E-03; -1.2996046E-01;4171;  3.3549497E-01;  0.0000000E+00;  8.8631222E-03;  9.9601495E+02;  1.0000000E-01; -3.3015359E+03;3; -5.1888003E+00;  0.0000000E+00;  2.0923681E+00;0;  6.4429343E-01;  3.9700301E+04;  0.0000000E+00;  4.0772054E-02;  4.0000000E+04;  0.0000000E+00;  3.9980816E+04;  6.0610282E-01;  0.0000000E+00;  3.8190596E-02;  2.0528943E+03;
  2.8206143E-01;  9.9999998E-03; -1.1996226E-01;4172;  3.3963189E-01;  0.0000000E+00;  7.7108080E-03;  9.9627515E+02;  1.0000000E-01; -3.0859866E+03;3; -5.6442733E+00;  0.0000000E+00;  1.7961996E+00;0;  5.9336334E-01;  3.9716645E+04;  0.0000000E+00;  2.5320031E-02;  4.0000000E+04;  0.0000000E+00;  3.9985270E+04;  5.6842762E-01;  0.0000000E+00;  2.4935737E-02;  1.5309829E+03;
  2.8202271E-01;  9.9999998E-03; -1.0996506E-01;4173;  3.4248707E-01;  0.0000000E+00;  6.5317024E-03;  9.9652820E+02;  1.0000000E-01; -2.8763135E+03;3; -5.7090735E+00;  0.0000000E+00;  1.5656134E+00;0;  5.3999186E-01;  3.9731730E+04;  0.0000000E+00;  1.3733599E-02;  4.0000000E+04;  0.0000000E+00;  3.9990246E+04;  5.2786601E-01;  0.0000000E+00;  1.2125822E-02;  9.1864777E+02;
  2.9313162E-01;  9.9999998E-03; -2.6996142E-01;4218;  2.1190244E-01;  0.0000000E+00;  2.0123399E-03;  9.9244116E+02;  1.0000000E-01; -6.2623408E+03;3; -2.0022064E+01;  0.0000000E+00;  7.9879375E+00;0;  4.7473174E-01;  3.9346176E+04;  0.0000000E+00; -7.9272218E+00;  4.0000000E+04;  0.0000000E+00;  4.0060156E+04;  5.2200055E-01;  0.0000000E+00; -4.7268804E-02;  1.3821618E+04;
  2.9302242E-01;  9.9999998E-03; -2.5998935E-01;4219;  2.1500625E-01;  0.0000000E+00;  2.9122494E-03;  9.9278259E+02;  1.0000000E-01; -5.9794849E+03;3; -2.0333315E+01;  0.0000000E+00;  7.7977204E+00;0;  4.9645317E-01;  3.9392859E+04;  0.0000000E+00; -5.9258246E+00;  4.0000000E+04;  0.0000000E+00;  4.0039156E+04;  5.3529954E-01;  0.0000000E+00; -3.8846381E-02;  9.9966943E+03;
  2.9290566E-01;  9.9999998E-03; -2.5001669E-01;4220;  2.1731618E-01;  0.0000000E+00;  2.2547618E-03;  9.9308551E+02;  1.0000000E-01; -5.7285288E+03;3; -2.0056713E+01;  0.0000000E+00;  7.4259319E+00;0;  5.4005557E-01;  3.9431012E+04;  0.0000000E+00; -4.2008624E+00;  4.0000000E+04;  0.0000000E+00;  4.0023848E+04;  5.5447650E-01;  0.0000000E+00; -1.4420912E-02;  6.9113994E+03;
  2.9277080E-01;  9.9999998E-03; -2.4003094E-01;4221;  2.1960923E-01;  0.0000000E+00;  9.9438522E-04;  9.9341632E+02;  1.0000000E-01; -5.4544624E+03;3; -1.9633444E+01;  0.0000000E+00;  6.7026358E+00;0;  5.8720571E-01;  3.9462262E+04;  0.0000000E+00; -2.7497966E+00;  4.0000000E+04;  0.0000000E+00;  4.0017566E+04;  5.7759142E-01;  0.0000000E+00;  9.6143149E-03;  4.7571509E+03;
  2.9263723E-01;  9.9999998E-03; -2.3003455E-01;4222;  2.2325630E-01;  0.0000000E+00;  1.2221867E-04;  9.9370959E+02;  1.0000000E-01; -5.2114570E+03;3; -1.8674749E+01;  0.0000000E+00;  6.0473809E+00;0;  6.2982780E-01;  3.9488219E+04;  0.0000000E+00; -1.6370819E+00;  4.0000000E+04;  0.0000000E+00;  4.0013941E+04;  6.0256845E-01;  0.0000000E+00;  2.7259376E-02;  3.2419766E+03;
  2.9252350E-01;  9.9999998E-03; -2.2003226E-01;4223;  2.2915646E-01;  0.0000000E+00; -1.7480701E-04;  9.9394635E+02;  1.0000000E-01; -5.0153145E+03;3; -1.7005157E+01;  0.0000000E+00;  5.5443163E+00;0;  6.6718978E-01;  3.9510523E+04;  0.0000000E+00; -8.4090436E-01;  4.0000000E+04;  0.0000000E+00;  4.0009395E+04;  6.2705988E-01;  0.0000000E+00;  4.0129881E-02;  2.0719692E+03;
  2.9242826E-01;  9.9999998E-03; -2.1002920E-01;4224;  2.3829556E-01;  0.0000000E+00;  2.3558387E-04;  9.9413507E+02;  1.0000000E-01; -4.8589731E+03;3; -1.4214274E+01;  0.0000000E+00;  5.2244086E+00;0;  6.9818360E-01;  3.9530555E+04;  0.0000000E+00; -3.2228673E-01;  4.0000000E+04;  0.0000000E+00;  4.0003504E+04;  6.4859051E-01;  0.0000000E+00;  4.9593110E-02;  1.0523912E+03;
  2.9235327E-01;  9.9999998E-03; -2.0002422E-01;4225;  2.5152126E-01;  0.0000000E+00;  1.6689925E-03;  9.9430389E+02;  1.0000000E-01; -4.7191255E+03;3; -1.0707479E+01;  0.0000000E+00;  5.1787405E+00;0;  7.2092551E-01;  3.9549609E+04;  0.0000000E+00; -3.3456247E-02;  4.0000000E+04;  0.0000000E+00;  3.9997227E+04;  6.6473752E-01;  0.0000000E+00;  5.6187984E-02;  1.5699089E+02;
  2.9230249E-01;  9.9999998E-03; -1.9001508E-01;4226;  2.6834264E-01;  0.0000000E+00;  4.3690451E-03;  9.9447211E+02;  1.0000000E-01; -4.5797715E+03;3; -7.3548088E+00;  0.0000000E+00;  5.2134461E+00;0;  7.3336780E-01;  3.9568316E+04;  0.0000000E+00;  9.1931306E-02;  4.0000000E+04;  0.0000000E+00;  3.9991270E+04;  6.7328221E-01;  0.0000000E+00;  6.0085569E-02;  6.2198950E+02;
  2.9226908E-01;  9.9999998E-03; -1.8000241E-01;4227;  2.8632748E-01;  0.0000000E+00;  7.3635513E-03;  9.9465051E+02;  1.0000000E-01; -4.4319731E+03;3; -4.6609960E+00;  0.0000000E+00;  5.0577145E+00;0;  7.3371506E-01;  3.9587355E+04;  0.0000000E+00;  1.2250833E-01;  4.0000000E+04;  0.0000000E+00;  3.9986172E+04;  6.7251062E-01;  0.0000000E+00;  6.1204415E-02;  1.2718672E+03;
  2.9224631E-01;  9.9999998E-03; -1.6998799E-01;4228;  3.0330494E-01;  0.0000000E+00;  9.7139664E-03;  9.9485101E+02;  1.0000000E-01; -4.2658545E+03;3; -3.0380106E+00;  0.0000000E+00;  4.4714723E+00;0;  7.2053921E-01;  3.9606621E+04;  0.0000000E+00;  1.1156183E-01;  4.0000000E+04;  0.0000000E+00;  3.9982457E+04;  6.6159761E-01;  0.0000000E+00;  5.8941610E-02;  1.7460083E+03;
  2.9222599E-01;  9.9999998E-03; -1.5997596E-01;4229;  3.1732604E-01;  0.0000000E+00;  1.0841575E-02;  9.9507672E+02;  1.0000000E-01; -4.0788474E+03;3; -2.9415760E+00;  0.0000000E+00;  3.6493270E+00;0;  6.9392288E-01;  3.9626359E+04;  0.0000000E+00;  8.9204192E-02;  4.0000000E+04;  0.0000000E+00;  3.9980680E+04;  6.4078754E-01;  0.0000000E+00;  5.3135328E-02;  1.9983004E+03;
  2.9220122E-01;  9.9999998E-03; -1.4996915E-01;4230;  3.2723001E-01;  0.0000000E+00;  1.0720286E-02;  9.9532538E+02;  1.0000000E-01; -3.8728284E+03;3; -4.2305679E+00;  0.0000000E+00;  2.8198717E+00;0;  6.5559119E-01;  3.9645988E+04;  0.0000000E+00;  6.5769054E-02;  4.0000000E+04;  0.0000000E+00;  3.9980676E+04;  6.1129975E-01;  0.0000000E+00;  4.4291452E-02;  2.0101406E+03;
  2.9216942E-01;  9.9999998E-03; -1.3996747E-01;4231;  3.3364758E-01;  0.0000000E+00;  9.8141609E-03;  9.9559271E+02;  1.0000000E-01; -3.6513533E+03;3; -5.7037730E+00;  0.0000000E+00;  2.1649325E+00;0;  6.0828674E-01;  3.9665383E+04;  0.0000000E+00;  4.3597832E-02;  4.0000000E+04;  0.0000000E+00;  3.9982637E+04;  5.7495880E-01;  0.0000000E+00;  3.3327959E-02;  1.7995271E+03;
  2.9213229E-01;  9.9999998E-03; -1.2996902E-01;4232;  3.3795065E-01;  0.0000000E+00;  8.6233206E-03;  9.9586810E+02;  1.0000000E-01; -3.4232117E+03;3; -6.1215487E+00;  0.0000000E+00;  1.8553339E+00;0;  5.5504584E-01;  3.9683930E+04;  0.0000000E+00;  2.4866607E-02;  4.0000000E+04;  0.0000000E+00;  3.9985902E+04;  5.3377825E-01;  0.0000000E+00;  2.1267589E-02;  1.4123372E+03;
  2.9209235E-01;  9.9999998E-03; -1.1997189E-01;4233;  3.4099498E-01;  0.0000000E+00;  7.4021677E-03;  9.9613885E+02;  1.0000000E-01; -3.1988723E+03;3; -6.2559195E+00;  0.0000000E+00;  1.6169349E+00;0;  4.9879044E-01;  3.9701371E+04;  0.0000000E+00;  1.0925413E-02;  4.0000000E+04;  0.0000000E+00;  3.9990109E+04;  4.8972192E-01;  0.0000000E+00;  9.0685105E-03;  9.0804047E+02;
  2.9205203E-01;  9.9999998E-03; -1.0997486E-01;4234;  3.4322286E-01;  0.0000000E+00;  6.2589110E-03;  9.9639868E+02;  1.0000000E-01; -2.9836191E+03;3; -6.0868087E+00;  0.0000000E+00;  1.4957775E+00;0;  4.4212538E-01;  3.9717379E+04;  0.0000000E+00;  1.9149809E-03;  4.0000000E+04;  0.0000000E+00;  3.9994789E+04;  4.4458228E-01;  0.0000000E+00; -2.4569035E-03;  3.4566876E+02;
  3.0317566E-01;  9.9999998E-03; -2.6995501E-01;4279;  2.1416308E-01;  0.0000000E+00;  5.0583039E-03;  9.9316193E+02;  1.0000000E-01; -5.6652222E+03;3; -2.0725939E+01;  0.0000000E+00;  6.8410282E+00;0;  4.8876613E-01;  3.9402848E+04;  0.0000000E+00; -5.3179197E+00;  4.0000000E+04;  0.0000000E+00;  4.0060438E+04;  5.4021609E-01;  0.0000000E+00; -5.1449947E-02;  1.1053483E+04;
  3.0306423E-01;  9.9999998E-03; -2.5997603E-01;4280;  2.1845132E-01;  0.0000000E+00;  6.3167377E-03;  9.9333240E+02;  1.0000000E-01; -5.5239917E+03;3; -1.9946707E+01;  0.0000000E+00;  6.8904753E+00;0;  5.1234096E-01;  3.9432852E+04;  0.0000000E+00; -3.8314924E+00;  4.0000000E+04;  0.0000000E+00;  4.0042773E+04;  5.5824780E-01;  0.0000000E+00; -4.5906827E-02;  7.9966465E+03;
  3.0295685E-01;  9.9999998E-03; -2.5000259E-01;4281;  2.2248204E-01;  0.0000000E+00;  6.3312710E-03;  9.9343591E+02;  1.0000000E-01; -5.4382163E+03;3; -1.8926386E+01;  0.0000000E+00;  6.7122917E+00;0;  5.5402219E-01;  3.9456980E+04;  0.0000000E+00; -2.6162524E+00;  4.0000000E+04;  0.0000000E+00;  4.0025691E+04;  5.7922935E-01;  0.0000000E+00; -2.5207143E-02;  5.2679849E+03;
  3.0283722E-01;  9.9999998E-03; -2.4002148E-01;4282;  2.2621422E-01;  0.0000000E+00;  5.0677988E-03;  9.9358044E+02;  1.0000000E-01; -5.3184663E+03;3; -1.7694658E+01;  0.0000000E+00;  6.2519507E+00;0;  6.0117841E-01;  3.9476773E+04;  0.0000000E+00; -1.6199921E+00;  4.0000000E+04;  0.0000000E+00;  4.0016398E+04;  6.0118961E-01;  0.0000000E+00; -1.1222102E-05;  3.4531414E+03;
  3.0271688E-01;  9.9999998E-03; -2.3002747E-01;4283;  2.3161910E-01;  0.0000000E+00;  4.0340214E-03;  9.9375037E+02;  1.0000000E-01; -5.1776802E+03;3; -1.5966701E+01;  0.0000000E+00;  5.7957945E+00;0;  6.4042324E-01;  3.9493613E+04;  0.0000000E+00; -8.7381130E-01;  4.0000000E+04;  0.0000000E+00;  4.0012016E+04;  6.2223005E-01;  0.0000000E+00;  1.8193200E-02;  2.3763662E+03;
  3.0260557E-01;  9.9999998E-03; -2.2002697E-01;4284;  2.3994735E-01;  0.0000000E+00;  3.6646319E-03;  9.9389832E+02;  1.0000000E-01; -5.0551157E+03;3; -1.3238574E+01;  0.0000000E+00;  5.5064235E+00;0;  6.7051691E-01;  3.9508840E+04;  0.0000000E+00; -3.6434618E-01;  4.0000000E+04;  0.0000000E+00;  4.0007602E+04;  6.4018267E-01;  0.0000000E+00;  3.0334253E-02;  1.5708641E+03;
  3.0251122E-01;  9.9999998E-03; -2.1002391E-01;4285;  2.5184846E-01;  0.0000000E+00;  4.1846898E-03;  9.9402985E+02;  1.0000000E-01; -4.9461807E+03;3; -9.9060469E+00;  0.0000000E+00;  5.4388494E+00;0;  6.9117439E-01;  3.9523574E+04;  0.0000000E+00; -5.9110820E-02;  4.0000000E+04;  0.0000000E+00;  4.0002617E+04;  6.5286332E-01;  0.0000000E+00;  3.8311064E-02;  8.4281860E+02;
  3.0243859E-01;  9.9999998E-03; -2.0001726E-01;4286;  2.6695678E-01;  0.0000000E+00;  5.7838908E-03;  9.9416394E+02;  1.0000000E-01; -4.8350728E+03;3; -6.7883615E+00;  0.0000000E+00;  5.4122119E+00;0;  7.0151645E-01;  3.9538789E+04;  0.0000000E+00;  8.9034848E-02;  4.0000000E+04;  0.0000000E+00;  3.9997324E+04;  6.5826017E-01;  0.0000000E+00;  4.3256294E-02;  2.1442531E+02;
  3.0238634E-01;  9.9999998E-03; -1.9000681E-01;4287;  2.8403816E-01;  0.0000000E+00;  8.2553001E-03;  9.9431390E+02;  1.0000000E-01; -4.7108296E+03;3; -4.2104707E+00;  0.0000000E+00;  5.2046294E+00;0;  7.0042920E-01;  3.9555082E+04;  0.0000000E+00;  1.3468026E-01;  4.0000000E+04;  0.0000000E+00;  3.9992488E+04;  6.5477377E-01;  0.0000000E+00;  4.5655414E-02;  4.8524792E+02;
  3.0234605E-01;  9.9999998E-03; -1.7999491E-01;4288;  3.0059922E-01;  0.0000000E+00;  1.0415002E-02;  9.9448932E+02;  1.0000000E-01; -4.5655000E+03;3; -2.6094234E+00;  0.0000000E+00;  4.7120695E+00;0;  6.8692279E-01;  3.9572668E+04;  0.0000000E+00;  1.2770733E-01;  4.0000000E+04;  0.0000000E+00;  3.9988523E+04;  6.4152873E-01;  0.0000000E+00;  4.5394041E-02;  9.7730310E+02;
  3.0231351E-01;  9.9999998E-03; -1.6998352E-01;4289;  3.1467858E-01;  0.0000000E+00;  1.1589997E-02;  9.9469568E+02;  1.0000000E-01; -4.3945420E+03;3; -2.5942850E+00;  0.0000000E+00;  3.9166629E+00;0;  6.6056168E-01;  3.9591516E+04;  0.0000000E+00;  1.0252670E-01;  4.0000000E+04;  0.0000000E+00;  3.9985914E+04;  6.1858732E-01;  0.0000000E+00;  4.1974392E-02;  1.3148699E+03;
  3.0228138E-01;  9.9999998E-03; -1.5997578E-01;4290;  3.2479855E-01;  0.0000000E+00;  1.1575548E-02;  9.9493414E+02;  1.0000000E-01; -4.1969673E+03;3; -4.2951808E+00;  0.0000000E+00;  2.9924357E+00;0;  6.2246060E-01;  3.9611145E+04;  0.0000000E+00;  7.5108588E-02;  4.0000000E+04;  0.0000000E+00;  3.9984953E+04;  5.8697218E-01;  0.0000000E+00;  3.5488419E-02;  1.4527163E+03;
  3.0224526E-01;  9.9999998E-03; -1.4997287E-01;4291;  3.3144829E-01;  0.0000000E+00;  1.0718550E-02;  9.9519720E+02;  1.0000000E-01; -3.9790476E+03;3; -6.0352106E+00;  0.0000000E+00;  2.2139668E+00;0;  5.7498556E-01;  3.9631242E+04;  0.0000000E+00;  4.9322769E-02;  4.0000000E+04;  0.0000000E+00;  3.9985625E+04;  5.4840201E-01;  0.0000000E+00;  2.6583558E-02;  1.3837706E+03;
  3.0220532E-01;  9.9999998E-03; -1.3997371E-01;4292;  3.3596236E-01;  0.0000000E+00;  9.5326221E-03;  9.9547418E+02;  1.0000000E-01; -3.7495728E+03;3; -6.7826395E+00;  0.0000000E+00;  1.8825338E+00;0;  5.2103901E-01;  3.9651055E+04;  0.0000000E+00;  2.7168613E-02;  4.0000000E+04;  0.0000000E+00;  3.9987836E+04;  5.0488639E-01;  0.0000000E+00;  1.6152600E-02;  1.1332328E+03;
  3.0216333E-01;  9.9999998E-03; -1.2997654E-01;4293;  3.3919162E-01;  0.0000000E+00;  8.3016735E-03;  9.9575610E+02;  1.0000000E-01; -3.5159990E+03;3; -6.8750978E+00;  0.0000000E+00;  1.6668234E+00;0;  4.6354732E-01;  3.9670297E+04;  0.0000000E+00;  1.0323963E-02;  4.0000000E+04;  0.0000000E+00;  3.9991145E+04;  4.5844778E-01;  0.0000000E+00;  5.0995285E-03;  7.4749567E+02;
  3.0212140E-01;  9.9999998E-03; -1.1997999E-01;4294;  3.4167507E-01;  0.0000000E+00;  7.1358201E-03;  9.9603149E+02;  1.0000000E-01; -3.2878081E+03;3; -6.6584425E+00;  0.0000000E+00;  1.5242910E+00;0;  4.0518191E-01;  3.9688254E+04;  0.0000000E+00; -7.0865249E-04;  4.0000000E+04;  0.0000000E+00;  3.9995113E+04;  4.1095203E-01;  0.0000000E+00; -5.7701170E-03;  2.8131244E+02;
  3.0208099E-01;  9.9999998E-03; -1.0998311E-01;4295;  3.4355271E-01;  0.0000000E+00;  6.0654460E-03;  9.9628687E+02;  1.0000000E-01; -3.0762585E+03;3; -6.3742094E+00;  0.0000000E+00;  1.4387021E+00;0;  3.4823102E-01;  3.9704477E+04;  0.0000000E+00; -6.5520024E-03;  4.0000000E+04;  0.0000000E+00;  3.9999203E+04;  3.6402893E-01;  0.0000000E+00; -1.5797928E-02;  2.1429552E+02;
  3.1324056E-01;  9.9999998E-03; -2.6995027E-01;4340;  2.1650197E-01;  0.0000000E+00;  7.2459630E-03;  9.9374420E+02;  1.0000000E-01; -5.1828159E+03;3; -2.0662792E+01;  0.0000000E+00;  6.1585736E+00;0;  5.1444954E-01;  3.9450906E+04;  0.0000000E+00; -3.1958621E+00;  4.0000000E+04;  0.0000000E+00;  4.0058383E+04;  5.6384957E-01;  0.0000000E+00; -4.9400028E-02;  9.0169854E+03;
  3.1312650E-01;  9.9999998E-03; -2.5996503E-01;4341;  2.2194448E-01;  0.0000000E+00;  8.5332319E-03;  9.9378534E+02;  1.0000000E-01; -5.1487427E+03;3; -1.9100525E+01;  0.0000000E+00;  6.1890550E+00;0;  5.3626591E-01;  3.9467094E+04;  0.0000000E+00; -2.1846662E+00;  4.0000000E+04;  0.0000000E+00;  4.0044453E+04;  5.8198714E-01;  0.0000000E+00; -4.5721252E-02;  6.8005815E+03;
  3.1302512E-01;  9.9999998E-03; -2.4998841E-01;4342;  2.2810780E-01;  0.0000000E+00;  9.0217795E-03;  9.9374878E+02;  1.0000000E-01; -5.1790137E+03;3; -1.7205175E+01;  0.0000000E+00;  6.1272535E+00;0;  5.7070893E-01;  3.9479918E+04;  0.0000000E+00; -1.3966776E+00;  4.0000000E+04;  0.0000000E+00;  4.0027680E+04;  6.0068268E-01;  0.0000000E+00; -2.9973729E-02;  4.4363066E+03;
  3.1291834E-01;  9.9999998E-03; -2.4000911E-01;4343;  2.3397547E-01;  0.0000000E+00;  8.0418959E-03;  9.9375391E+02;  1.0000000E-01; -5.1747666E+03;3; -1.5212763E+01;  0.0000000E+00;  5.8501387E+00;0;  6.1076760E-01;  3.9490508E+04;  0.0000000E+00; -7.7913648E-01;  4.0000000E+04;  0.0000000E+00;  4.0016551E+04;  6.1802447E-01;  0.0000000E+00; -7.2568492E-03;  2.8134504E+03;
  3.1280398E-01;  9.9999998E-03; -2.3001851E-01;4344;  2.4169554E-01;  0.0000000E+00;  7.0296368E-03;  9.9381622E+02;  1.0000000E-01; -5.1231636E+03;3; -1.2492397E+01;  0.0000000E+00;  5.5722561E+00;0;  6.4192700E-01;  3.9500152E+04;  0.0000000E+00; -3.3579612E-01;  4.0000000E+04;  0.0000000E+00;  4.0011094E+04;  6.3223284E-01;  0.0000000E+00;  9.6941441E-03;  1.9653303E+03;
  3.1269398E-01;  9.9999998E-03; -2.2001950E-01;4345;  2.5248384E-01;  0.0000000E+00;  6.8099890E-03;  9.9389563E+02;  1.0000000E-01; -5.0573379E+03;3; -9.3213167E+00;  0.0000000E+00;  5.4931493E+00;0;  6.6146642E-01;  3.9509602E+04;  0.0000000E+00; -5.5379853E-02;  4.0000000E+04;  0.0000000E+00;  4.0007059E+04;  6.4142066E-01;  0.0000000E+00;  2.0045770E-02;  1.3989058E+03;
  3.1260070E-01;  9.9999998E-03; -2.1001549E-01;4346;  2.6600966E-01;  0.0000000E+00;  7.4823881E-03;  9.9398334E+02;  1.0000000E-01; -4.9846982E+03;3; -6.3961892E+00;  0.0000000E+00;  5.4655585E+00;0;  6.7005754E-01;  3.9520109E+04;  0.0000000E+00;  9.2360273E-02;  4.0000000E+04;  0.0000000E+00;  4.0002828E+04;  6.4377141E-01;  0.0000000E+00;  2.6286120E-02;  8.7426605E+02;
  3.1252608E-01;  9.9999998E-03; -2.0000766E-01;4347;  2.8157282E-01;  0.0000000E+00;  9.0622939E-03;  9.9409027E+02;  1.0000000E-01; -4.8961079E+03;3; -3.9757202E+00;  0.0000000E+00;  5.2733154E+00;0;  6.6752034E-01;  3.9532234E+04;  0.0000000E+00;  1.4575367E-01;  4.0000000E+04;  0.0000000E+00;  3.9998527E+04;  6.3781434E-01;  0.0000000E+00;  2.9705999E-02;  3.8222787E+02;
  3.1246608E-01;  9.9999998E-03; -1.8999769E-01;4348;  2.9750699E-01;  0.0000000E+00;  1.0940313E-02;  9.9422516E+02;  1.0000000E-01; -4.7843579E+03;3; -2.4146614E+00;  0.0000000E+00;  4.8027420E+00;0;  6.5350693E-01;  3.9546348E+04;  0.0000000E+00;  1.4400336E-01;  4.0000000E+04;  0.0000000E+00;  3.9994613E+04;  6.2266409E-01;  0.0000000E+00;  3.0842831E-02;  2.6924878E+02;
  3.1241670E-01;  9.9999998E-03; -1.7998779E-01;4349;  3.1157586E-01;  0.0000000E+00;  1.2149244E-02;  9.9439612E+02;  1.0000000E-01; -4.6427324E+03;3; -2.4178927E+00;  0.0000000E+00;  4.1407504E+00;0;  6.2768316E-01;  3.9562586E+04;  0.0000000E+00;  1.1885239E-01;  4.0000000E+04;  0.0000000E+00;  3.9991660E+04;  5.9824288E-01;  0.0000000E+00;  2.9440254E-02;  5.9114545E+02;
  3.1237286E-01;  9.9999998E-03; -1.6997989E-01;4350;  3.2203749E-01;  0.0000000E+00;  1.2287574E-02;  9.9460455E+02;  1.0000000E-01; -4.4700459E+03;3; -4.3118854E+00;  0.0000000E+00;  3.2068343E+00;0;  5.9056795E-01;  3.9580645E+04;  0.0000000E+00;  8.8665128E-02;  4.0000000E+04;  0.0000000E+00;  3.9989957E+04;  5.6536114E-01;  0.0000000E+00;  2.5206778E-02;  8.0771637E+02;
  3.1232890E-01;  9.9999998E-03; -1.5997601E-01;4351;  3.2893762E-01;  0.0000000E+00;  1.1521016E-02;  9.9484851E+02;  1.0000000E-01; -4.2679282E+03;3; -6.3529267E+00;  0.0000000E+00;  2.3312078E+00;0;  5.4399872E-01;  3.9600059E+04;  0.0000000E+00;  5.9587169E-02;  4.0000000E+04;  0.0000000E+00;  3.9989680E+04;  5.2555913E-01;  0.0000000E+00;  1.8439561E-02;  8.5130585E+02;
  3.1228313E-01;  9.9999998E-03; -1.4997602E-01;4352;  3.3360094E-01;  0.0000000E+00;  1.0367007E-02;  9.9511548E+02;  1.0000000E-01; -4.0467495E+03;3; -7.3603487E+00;  0.0000000E+00;  1.9013734E+00;0;  4.9060553E-01;  3.9619922E+04;  0.0000000E+00;  3.3879735E-02;  4.0000000E+04;  0.0000000E+00;  3.9990883E+04;  4.8075971E-01;  0.0000000E+00;  9.8458221E-03;  7.2321771E+02;
  3.1223711E-01;  9.9999998E-03; -1.3997851E-01;4353;  3.3709958E-01;  0.0000000E+00;  9.1620795E-03;  9.9539465E+02;  1.0000000E-01; -3.8154473E+03;3; -7.4176917E+00;  0.0000000E+00;  1.6939701E+00;0;  4.3321443E-01;  3.9639758E+04;  0.0000000E+00;  1.3509910E-02;  4.0000000E+04;  0.0000000E+00;  3.9993324E+04;  4.3296993E-01;  0.0000000E+00;  2.4450681E-04;  4.5330475E+02;
  3.1219193E-01;  9.9999998E-03; -1.2998211E-01;4354;  3.3982694E-01;  0.0000000E+00;  8.0108559E-03;  9.9567554E+02;  1.0000000E-01; -3.5827131E+03;3; -7.3663516E+00;  0.0000000E+00;  1.5634791E+00;0;  3.7451205E-01;  3.9659035E+04;  0.0000000E+00; -4.7915804E-04;  4.0000000E+04;  0.0000000E+00;  3.9996414E+04;  3.8410136E-01;  0.0000000E+00; -9.5893098E-03;  8.6862572E+01;
  3.1214884E-01;  9.9999998E-03; -1.1998584E-01;4355;  3.4194893E-01;  0.0000000E+00;  6.9329990E-03;  9.9594299E+02;  1.0000000E-01; -3.3611392E+03;3; -7.0230718E+00;  0.0000000E+00;  1.4920995E+00;0;  3.1684661E-01;  3.9676770E+04;  0.0000000E+00; -8.3558057E-03;  4.0000000E+04;  0.0000000E+00;  3.9999891E+04;  3.3584014E-01;  0.0000000E+00; -1.8993519E-02;  3.2712119E+02;
  3.1210873E-01;  9.9999998E-03; -1.0998901E-01;4356;  3.4364665E-01;  0.0000000E+00;  5.9914361E-03;  9.9618811E+02;  1.0000000E-01; -3.1580833E+03;3; -6.6765242E+00;  0.0000000E+00;  1.4027730E+00;0;  2.6213598E-01;  3.9692879E+04;  0.0000000E+00; -1.1324597E-02;  4.0000000E+04;  0.0000000E+00;  4.0003438E+04;  2.8958482E-01;  0.0000000E+00; -2.7448818E-02;  7.4519849E+02;
  3.2213518E-01;  9.9999998E-03; -1.0999217E-01;4417;  3.4356499E-01;  0.0000000E+00;  5.9689204E-03;  9.9609900E+02;  1.0000000E-01; -3.2319084E+03;3; -6.9892726E+00;  0.0000000E+00;  1.3140199E+00;0;  1.8635555E-01;  3.9682273E+04;  0.0000000E+00; -1.2871460E-02;  4.0000000E+04;  0.0000000E+00;  4.0007340E+04;  2.2349051E-01;  0.0000000E+00; -3.7134964E-02;  1.2331687E+03;
  3.2217512E-01;  9.9999998E-03; -1.1998889E-01;4416;  3.4200421E-01;  0.0000000E+00;  6.8354830E-03;  9.9587018E+02;  1.0000000E-01; -3.4214832E+03;3; -7.3862996E+00;  0.0000000E+00;  1.4160247E+00;0;  2.3687035E-01;  3.9666918E+04;  0.0000000E+00; -1.1851511E-02;  4.0000000E+04;  0.0000000E+00;  4.0004473E+04;  2.6708305E-01;  0.0000000E+00; -3.0212704E-02;  8.9740387E+02;
  3.2221901E-01;  9.9999998E-03; -1.2998493E-01;4415;  3.4006613E-01;  0.0000000E+00;  7.7836076E-03;  9.9561816E+02;  1.0000000E-01; -3.6302673E+03;3; -7.7955770E+00;  0.0000000E+00;  1.4691327E+00;0;  2.9155442E-01;  3.9649762E+04;  0.0000000E+00; -6.4280163E-03;  4.0000000E+04;  0.0000000E+00;  4.0001492E+04;  3.1384692E-01;  0.0000000E+00; -2.2292504E-02;  5.4472943E+02;
  3.2226637E-01;  9.9999998E-03; -1.3998072E-01;4414;  3.3767655E-01;  0.0000000E+00;  8.8474480E-03;  9.9534918E+02;  1.0000000E-01; -3.8531252E+03;3; -7.9890423E+00;  0.0000000E+00;  1.6071690E+00;0;  3.4887478E-01;  3.9631133E+04;  0.0000000E+00;  4.9702348E-03;  4.0000000E+04;  0.0000000E+00;  3.9998602E+04;  3.6265063E-01;  0.0000000E+00; -1.3775868E-02;  2.1096982E+02;
  3.2231665E-01;  9.9999998E-03; -1.4997704E-01;4413;  3.3470431E-01;  0.0000000E+00;  9.9500027E-03;  9.9507593E+02;  1.0000000E-01; -4.0794893E+03;3; -8.0416632E+00;  0.0000000E+00;  1.7531891E+00;0;  4.0685806E-01;  3.9611918E+04;  0.0000000E+00;  2.3201834E-02;  4.0000000E+04;  0.0000000E+00;  3.9996199E+04;  4.1205171E-01;  0.0000000E+00; -5.1936610E-03;  6.9173508E+01;
  3.2236949E-01;  9.9999998E-03; -1.5997496E-01;4412;  3.3095172E-01;  0.0000000E+00;  1.1090141E-02;  9.9481372E+02;  1.0000000E-01; -4.2967178E+03;3; -7.8702726E+00;  0.0000000E+00;  1.9210147E+00;0;  4.6314290E-01;  3.9592656E+04;  0.0000000E+00;  4.7838680E-02;  4.0000000E+04;  0.0000000E+00;  3.9994730E+04;  4.6033341E-01;  0.0000000E+00;  2.8095061E-03;  2.3605615E+02;
  3.2242414E-01;  9.9999998E-03; -1.6997577E-01;4411;  3.2606813E-01;  0.0000000E+00;  1.2163877E-02;  9.9457556E+02;  1.0000000E-01; -4.4940454E+03;3; -6.7138281E+00;  0.0000000E+00;  2.4162939E+00;0;  5.1512170E-01;  3.9574215E+04;  0.0000000E+00;  7.7100679E-02;  4.0000000E+04;  0.0000000E+00;  3.9994340E+04;  5.0560349E-01;  0.0000000E+00;  9.5182098E-03;  2.7313501E+02;
  3.2248077E-01;  9.9999998E-03; -1.7998029E-01;4410;  3.1892744E-01;  0.0000000E+00;  1.2782291E-02;  9.9437054E+02;  1.0000000E-01; -4.6639170E+03;3; -4.1828361E+00;  0.0000000E+00;  3.4101002E+00;0;  5.6015992E-01;  3.9557348E+04;  0.0000000E+00;  1.0836700E-01;  4.0000000E+04;  0.0000000E+00;  3.9995254E+04;  5.4592758E-01;  0.0000000E+00;  1.4232357E-02;  1.9260196E+02;
  3.2254100E-01;  9.9999998E-03; -1.8998764E-01;4409;  3.0822012E-01;  0.0000000E+00;  1.2481281E-02;  9.9420825E+02;  1.0000000E-01; -4.7983330E+03;3; -2.1690729E+00;  0.0000000E+00;  4.3356633E+00;0;  5.9605336E-01;  3.9542594E+04;  0.0000000E+00;  1.3868871E-01;  4.0000000E+04;  0.0000000E+00;  3.9997406E+04;  5.7953835E-01;  0.0000000E+00;  1.6515004E-02;  2.5670755E+02;
  3.2260981E-01;  9.9999998E-03; -1.9999647E-01;4408;  2.9436073E-01;  0.0000000E+00;  1.1327838E-02;  9.9408734E+02;  1.0000000E-01; -4.8985278E+03;3; -2.3455567E+00;  0.0000000E+00;  4.9248705E+00;0;  6.2156129E-01;  3.9530523E+04;  0.0000000E+00;  1.6085725E-01;  4.0000000E+04;  0.0000000E+00;  4.0000496E+04;  6.0511047E-01;  0.0000000E+00;  1.6450796E-02;  6.0088843E+02;
  3.2269266E-01;  9.9999998E-03; -2.1000436E-01;4407;  2.7944988E-01;  0.0000000E+00;  9.9956412E-03;  9.9400684E+02;  1.0000000E-01; -4.9652417E+03;3; -3.9080808E+00;  0.0000000E+00;  5.2599850E+00;0;  6.3638514E-01;  3.9521113E+04;  0.0000000E+00;  1.5847731E-01;  4.0000000E+04;  0.0000000E+00;  4.0003871E+04;  6.2203300E-01;  0.0000000E+00;  1.4352128E-02;  1.0207496E+03;
  3.2279131E-01;  9.9999998E-03; -2.2000872E-01;4406;  2.6543573E-01;  0.0000000E+00;  9.2535773E-03;  9.9395648E+02;  1.0000000E-01; -5.0069199E+03;3; -6.2006078E+00;  0.0000000E+00;  5.3448000E+00;0;  6.4033872E-01;  3.9514297E+04;  0.0000000E+00;  1.0749051E-01;  4.0000000E+04;  0.0000000E+00;  4.0007379E+04;  6.3050777E-01;  0.0000000E+00;  9.8309806E-03;  1.4467333E+03;
  3.2290134E-01;  9.9999998E-03; -2.3000740E-01;4405;  2.5319269E-01;  0.0000000E+00;  9.2894807E-03;  9.9393158E+02;  1.0000000E-01; -5.0275610E+03;3; -8.9718342E+00;  0.0000000E+00;  5.3891182E+00;0;  6.3307542E-01;  3.9509457E+04;  0.0000000E+00; -1.8902890E-02;  4.0000000E+04;  0.0000000E+00;  4.0011152E+04;  6.3141382E-01;  0.0000000E+00;  1.6615909E-03;  1.9021774E+03;
  3.2301450E-01;  9.9999998E-03; -2.3999642E-01;4404;  2.4315906E-01;  0.0000000E+00;  1.0021063E-02;  9.9395135E+02;  1.0000000E-01; -5.0111665E+03;3; -1.2006477E+01;  0.0000000E+00;  5.4257073E+00;0;  6.1380893E-01;  3.9505734E+04;  0.0000000E+00; -2.4546717E-01;  4.0000000E+04;  0.0000000E+00;  4.0017129E+04;  6.2609565E-01;  0.0000000E+00; -1.2286713E-02;  2.6668591E+03;
  3.2311854E-01;  9.9999998E-03; -2.4997602E-01;4403;  2.3461366E-01;  0.0000000E+00;  1.0597272E-02;  9.9404468E+02;  1.0000000E-01; -4.9338848E+03;3; -1.4966532E+01;  0.0000000E+00;  5.5419731E+00;0;  5.8581936E-01;  3.9502355E+04;  0.0000000E+00; -5.8917934E-01;  4.0000000E+04;  0.0000000E+00;  4.0028809E+04;  6.1611760E-01;  0.0000000E+00; -3.0298255E-02;  4.1746460E+03;
  3.2321396E-01;  9.9999998E-03; -2.5995699E-01;4402;  2.2616591E-01;  0.0000000E+00;  9.7778989E-03;  9.9417242E+02;  1.0000000E-01; -4.8280112E+03;3; -1.7624968E+01;  0.0000000E+00;  5.6640849E+00;0;  5.6289834E-01;  3.9498316E+04;  0.0000000E+00; -1.0547906E+00;  4.0000000E+04;  0.0000000E+00;  4.0043848E+04;  6.0307676E-01;  0.0000000E+00; -4.0178426E-02;  6.1388491E+03;
  3.2332665E-01;  9.9999998E-03; -2.6994756E-01;4401;  2.1943277E-01;  0.0000000E+00;  8.7356158E-03;  9.9422095E+02;  1.0000000E-01; -4.7878149E+03;3; -1.9847881E+01;  0.0000000E+00;  5.6670127E+00;0;  5.4552233E-01;  3.9492734E+04;  0.0000000E+00; -1.6752747E+00;  4.0000000E+04;  0.0000000E+00;  4.0054008E+04;  5.8869582E-01;  0.0000000E+00; -4.3173511E-02;  7.5958467E+03;
  3.3341953E-01;  9.9999998E-03; -2.6994637E-01;4462;  2.2355473E-01;  0.0000000E+00;  9.7083393E-03;  9.9462909E+02;  1.0000000E-01; -4.4497007E+03;3; -1.8044392E+01;  0.0000000E+00;  5.2443185E+00;0;  5.7488966E-01;  3.9530387E+04;  0.0000000E+00; -7.1779901E-01;  4.0000000E+04;  0.0000000E+00;  4.0048102E+04;  6.1001348E-01;  0.0000000E+00; -3.5123836E-02;  6.5301836E+03;
  3.3331600E-01;  9.9999998E-03; -2.5995195E-01;4463;  2.3173717E-01;  0.0000000E+00;  1.0288129E-02;  9.9452130E+02;  1.0000000E-01; -4.5389819E+03;3; -1.5152872E+01;  0.0000000E+00;  5.1605020E+00;0;  5.8630544E-01;  3.9528223E+04;  0.0000000E+00; -3.8081700E-01;  4.0000000E+04;  0.0000000E+00;  4.0041180E+04;  6.1783904E-01;  0.0000000E+00; -3.1533603E-02;  5.6228569E+03;
  3.3322683E-01;  9.9999998E-03; -2.4996634E-01;4464;  2.4266239E-01;  0.0000000E+00;  1.1378628E-02;  9.9434131E+02;  1.0000000E-01; -4.6881138E+03;3; -1.1853152E+01;  0.0000000E+00;  5.1296616E+00;0;  5.9474695E-01;  3.9525660E+04;  0.0000000E+00; -1.3494179E-01;  4.0000000E+04;  0.0000000E+00;  4.0028770E+04;  6.2291044E-01;  0.0000000E+00; -2.8163493E-02;  4.0696619E+03;
  3.3312610E-01;  9.9999998E-03; -2.3998468E-01;4465;  2.5361082E-01;  0.0000000E+00;  1.1325311E-02;  9.9418347E+02;  1.0000000E-01; -4.8188755E+03;3; -8.7743731E+00;  0.0000000E+00;  5.1610680E+00;0;  6.0750443E-01;  3.9523492E+04;  0.0000000E+00;  3.1528667E-02;  4.0000000E+04;  0.0000000E+00;  4.0017672E+04;  6.2379068E-01;  0.0000000E+00; -1.6286271E-02;  2.6984436E+03;
  3.3301219E-01;  9.9999998E-03; -2.2999516E-01;4466;  2.6508626E-01;  0.0000000E+00;  1.0910104E-02;  9.9410559E+02;  1.0000000E-01; -4.8834165E+03;3; -6.1135440E+00;  0.0000000E+00;  5.1697950E+00;0;  6.1333925E-01;  3.9522508E+04;  0.0000000E+00;  1.2809476E-01;  4.0000000E+04;  0.0000000E+00;  4.0011930E+04;  6.1916286E-01;  0.0000000E+00; -5.8236122E-03;  1.9878311E+03;
  3.3289519E-01;  9.9999998E-03; -2.1999611E-01;4467;  2.7781615E-01;  0.0000000E+00;  1.1004295E-02;  9.9408490E+02;  1.0000000E-01; -4.9005522E+03;3; -3.9209633E+00;  0.0000000E+00;  5.1165881E+00;0;  6.0803485E-01;  3.9523414E+04;  0.0000000E+00;  1.7056006E-01;  4.0000000E+04;  0.0000000E+00;  4.0008574E+04;  6.0785890E-01;  0.0000000E+00;  1.7596295E-04;  1.5877355E+03;
  3.3278671E-01;  9.9999998E-03; -2.0999117E-01;4468;  2.9144055E-01;  0.0000000E+00;  1.1679237E-02;  9.9410175E+02;  1.0000000E-01; -4.8865771E+03;3; -2.2827942E+00;  0.0000000E+00;  4.9418864E+00;0;  5.9219992E-01;  3.9527098E+04;  0.0000000E+00;  1.7613217E-01;  4.0000000E+04;  0.0000000E+00;  4.0005680E+04;  5.8903241E-01;  0.0000000E+00;  3.1675231E-03;  1.2303517E+03;
  3.3269319E-01;  9.9999998E-03; -1.9998346E-01;4469;  3.0475944E-01;  0.0000000E+00;  1.2623591E-02;  9.9415704E+02;  1.0000000E-01; -4.8408008E+03;3; -1.9416728E+00;  0.0000000E+00;  4.5171285E+00;0;  5.6652290E-01;  3.9533781E+04;  0.0000000E+00;  1.6015503E-01;  4.0000000E+04;  0.0000000E+00;  4.0002922E+04;  5.6237811E-01;  0.0000000E+00;  4.1447855E-03;  8.8036334E+02;
  3.3261174E-01;  9.9999998E-03; -1.8997627E-01;4470;  3.1557527E-01;  0.0000000E+00;  1.3066302E-02;  9.9425647E+02;  1.0000000E-01; -4.7583833E+03;3; -4.0247426E+00;  0.0000000E+00;  3.6300807E+00;0;  5.3163385E-01;  3.9543668E+04;  0.0000000E+00;  1.3389920E-01;  4.0000000E+04;  0.0000000E+00;  4.0000512E+04;  5.2830005E-01;  0.0000000E+00;  3.3337807E-03;  5.8199683E+02;
  3.3253810E-01;  9.9999998E-03; -1.7997155E-01;4471;  3.2295460E-01;  0.0000000E+00;  1.2633644E-02;  9.9440314E+02;  1.0000000E-01; -4.6369053E+03;3; -7.0118718E+00;  0.0000000E+00;  2.5131850E+00;0;  4.8832420E-01;  3.9556418E+04;  0.0000000E+00;  1.0335494E-01;  4.0000000E+04;  0.0000000E+00;  3.9999094E+04;  4.8788381E-01;  0.0000000E+00;  4.4040201E-04;  3.8746353E+02;
  3.3247018E-01;  9.9999998E-03; -1.6996987E-01;4472;  3.2805824E-01;  0.0000000E+00;  1.1680884E-02;  9.9459711E+02;  1.0000000E-01; -4.4762183E+03;3; -8.4248438E+00;  0.0000000E+00;  1.9754077E+00;0;  4.3823531E-01;  3.9571773E+04;  0.0000000E+00;  7.1868345E-02;  4.0000000E+04;  0.0000000E+00;  3.9998805E+04;  4.4269460E-01;  0.0000000E+00; -4.4593047E-03;  3.2083252E+02;
  3.3240694E-01;  9.9999998E-03; -1.5997131E-01;4473;  3.3199644E-01;  0.0000000E+00;  1.0632386E-02;  9.9482391E+02;  1.0000000E-01; -4.2882729E+03;3; -8.6593552E+00;  0.0000000E+00;  1.7944393E+00;0;  3.8370422E-01;  3.9588863E+04;  0.0000000E+00;  4.2854112E-02;  4.0000000E+04;  0.0000000E+00;  3.9999621E+04;  3.9454105E-01;  0.0000000E+00; -1.0836830E-02;  3.8850391E+02;
  3.3234829E-01;  9.9999998E-03; -1.4997499E-01;4474;  3.3524811E-01;  0.0000000E+00;  9.5987599E-03;  9.9507227E+02;  1.0000000E-01; -4.0825505E+03;3; -8.6749945E+00;  0.0000000E+00;  1.6033028E+00;0;  3.2720128E-01;  3.9606895E+04;  0.0000000E+00;  1.9177631E-02;  4.0000000E+04;  0.0000000E+00;  4.0001289E+04;  3.4525841E-01;  0.0000000E+00; -1.8057151E-02;  5.7310468E+02;
  3.3229470E-01;  9.9999998E-03; -1.3997966E-01;4475;  3.3787814E-01;  0.0000000E+00;  8.5787810E-03;  9.9533020E+02;  1.0000000E-01; -3.8688284E+03;3; -8.5673828E+00;  0.0000000E+00;  1.4224120E+00;0;  2.7101964E-01;  3.9625062E+04;  0.0000000E+00;  2.3914457E-03;  4.0000000E+04;  0.0000000E+00;  4.0003543E+04;  2.9654491E-01;  0.0000000E+00; -2.5525264E-02;  8.3352112E+02;
  3.3224580E-01;  9.9999998E-03; -1.2998445E-01;4476;  3.4007576E-01;  0.0000000E+00;  7.6363087E-03;  9.9558142E+02;  1.0000000E-01; -3.6606860E+03;3; -8.1656857E+00;  0.0000000E+00;  1.3944679E+00;0;  2.1714100E-01;  3.9642559E+04;  0.0000000E+00; -7.5167846E-03;  4.0000000E+04;  0.0000000E+00;  4.0006074E+04;  2.4986210E-01;  0.0000000E+00; -3.2721106E-02;  1.1260634E+03;
  3.3220154E-01;  9.9999998E-03; -1.1998869E-01;4477;  3.4188849E-01;  0.0000000E+00;  6.7812107E-03;  9.9581561E+02;  1.0000000E-01; -3.4666667E+03;3; -7.7609849E+00;  0.0000000E+00;  1.3042464E+00;0;  1.6714382E-01;  3.9658738E+04;  0.0000000E+00; -1.1763654E-02;  4.0000000E+04;  0.0000000E+00;  4.0008523E+04;  2.0637214E-01;  0.0000000E+00; -3.9228324E-02;  1.4127751E+03;
  3.3216166E-01;  9.9999998E-03; -1.0999224E-01;4478;  3.4336269E-01;  0.0000000E+00;  5.9813070E-03;  9.9602368E+02;  1.0000000E-01; -3.2943262E+03;3; -7.3227434E+00;  0.0000000E+00;  1.2243881E+00;0;  1.2218072E-01;  3.9673047E+04;  0.0000000E+00; -1.2060286E-02;  4.0000000E+04;  0.0000000E+00;  4.0010734E+04;  1.6692494E-01;  0.0000000E+00; -4.4744227E-02;  1.6656050E+03;
  3.4349394E-01;  9.9999998E-03; -2.6994643E-01;4523;  2.2982365E-01;  0.0000000E+00;  1.0446033E-02;  9.9498779E+02;  1.0000000E-01; -4.1525239E+03;3; -1.5144912E+01;  0.0000000E+00;  4.9791965E+00;0;  5.9465045E-01;  3.9564656E+04;  0.0000000E+00; -2.3178603E-01;  4.0000000E+04;  0.0000000E+00;  4.0041508E+04;  6.2323076E-01;  0.0000000E+00; -2.8580330E-02;  5.6058086E+03;
  3.4340370E-01;  9.9999998E-03; -2.5994897E-01;4524;  2.3943476E-01;  0.0000000E+00;  1.0540857E-02;  9.9484833E+02;  1.0000000E-01; -4.2680762E+03;3; -1.1857158E+01;  0.0000000E+00;  4.9584918E+00;0;  5.9891677E-01;  3.9557113E+04;  0.0000000E+00; -6.2326819E-02;  4.0000000E+04;  0.0000000E+00;  4.0037523E+04;  6.2291849E-01;  0.0000000E+00; -2.4001731E-02;  5.1180195E+03;
  3.4332532E-01;  9.9999998E-03; -2.4995862E-01;4525;  2.5203225E-01;  0.0000000E+00;  1.1685439E-02;  9.9464655E+02;  1.0000000E-01; -4.4352319E+03;3; -8.7377901E+00;  0.0000000E+00;  4.9190583E+00;0;  5.9337509E-01;  3.9549938E+04;  0.0000000E+00;  5.8546901E-02;  4.0000000E+04;  0.0000000E+00;  4.0028281E+04;  6.1888957E-01;  0.0000000E+00; -2.5514496E-02;  3.9740381E+03;
  3.4323341E-01;  9.9999998E-03; -2.3997362E-01;4526;  2.6443219E-01;  0.0000000E+00;  1.2062604E-02;  9.9445258E+02;  1.0000000E-01; -4.5959189E+03;3; -6.0691414E+00;  0.0000000E+00;  4.9298577E+00;0;  5.9058201E-01;  3.9543723E+04;  0.0000000E+00;  1.3390040E-01;  4.0000000E+04;  0.0000000E+00;  4.0018594E+04;  6.1007100E-01;  0.0000000E+00; -1.9489016E-02;  2.7873257E+03;
  3.4312144E-01;  9.9999998E-03; -2.2998248E-01;4527;  2.7652296E-01;  0.0000000E+00;  1.1934133E-02;  9.9433368E+02;  1.0000000E-01; -4.6944346E+03;3; -3.9245844E+00;  0.0000000E+00;  4.9225287E+00;0;  5.8299279E-01;  3.9539074E+04;  0.0000000E+00;  1.7168157E-01;  4.0000000E+04;  0.0000000E+00;  4.0013254E+04;  5.9551144E-01;  0.0000000E+00; -1.2518636E-02;  2.1395657E+03;
  3.4300125E-01;  9.9999998E-03; -2.1998255E-01;4528;  2.8902414E-01;  0.0000000E+00;  1.2112957E-02;  9.9427502E+02;  1.0000000E-01; -4.7430254E+03;3; -2.3530898E+00;  0.0000000E+00;  4.8210106E+00;0;  5.6590366E-01;  3.9536793E+04;  0.0000000E+00;  1.8304342E-01;  4.0000000E+04;  0.0000000E+00;  4.0010316E+04;  5.7447159E-01;  0.0000000E+00; -8.5679507E-03;  1.7860278E+03;
  3.4288442E-01;  9.9999998E-03; -2.0997673E-01;4529;  3.0154914E-01;  0.0000000E+00;  1.2701611E-02;  9.9426001E+02;  1.0000000E-01; -4.7554697E+03;3; -1.8523006E+00;  0.0000000E+00;  4.6118755E+00;0;  5.3965247E-01;  3.9537508E+04;  0.0000000E+00;  1.7718126E-01;  4.0000000E+04;  0.0000000E+00;  4.0007859E+04;  5.4660118E-01;  0.0000000E+00; -6.9487253E-03;  1.4902397E+03;
  3.4277743E-01;  9.9999998E-03; -1.9996925E-01;4530;  3.1219804E-01;  0.0000000E+00;  1.3182548E-02;  9.9428711E+02;  1.0000000E-01; -4.7330015E+03;3; -3.9095657E+00;  0.0000000E+00;  3.8821368E+00;0;  5.0529224E-01;  3.9541543E+04;  0.0000000E+00;  1.6022579E-01;  4.0000000E+04;  0.0000000E+00;  4.0005660E+04;  5.1211268E-01;  0.0000000E+00; -6.8204203E-03;  1.2044979E+03;
  3.4268156E-01;  9.9999998E-03; -1.8996356E-01;4531;  3.1975979E-01;  0.0000000E+00;  1.2947135E-02;  9.9436401E+02;  1.0000000E-01; -4.6692993E+03;3; -7.2082968E+00;  0.0000000E+00;  2.6780453E+00;0;  4.6358263E-01;  3.9548984E+04;  0.0000000E+00;  1.3536306E-01;  4.0000000E+04;  0.0000000E+00;  4.0003891E+04;  4.7183052E-01;  0.0000000E+00; -8.2478924E-03;  9.7405396E+02;
  3.4259510E-01;  9.9999998E-03; -1.7996106E-01;4532;  3.2496396E-01;  0.0000000E+00;  1.2129016E-02;  9.9449084E+02;  1.0000000E-01; -4.5642158E+03;3; -8.9538813E+00;  0.0000000E+00;  2.0661335E+00;0;  4.1556519E-01;  3.9559629E+04;  0.0000000E+00;  1.0541508E-01;  4.0000000E+04;  0.0000000E+00;  4.0002996E+04;  4.2707345E-01;  0.0000000E+00; -1.1508247E-02;  8.4877637E+02;
  3.4251657E-01;  9.9999998E-03; -1.6996160E-01;4533;  3.2907459E-01;  0.0000000E+00;  1.1186179E-02;  9.9466345E+02;  1.0000000E-01; -4.4212075E+03;3; -9.3241520E+00;  0.0000000E+00;  1.7597295E+00;0;  3.6314192E-01;  3.9572906E+04;  0.0000000E+00;  7.4095406E-02;  4.0000000E+04;  0.0000000E+00;  4.0003207E+04;  3.7947315E-01;  0.0000000E+00; -1.6331235E-02;  8.4768671E+02;
  3.4244549E-01;  9.9999998E-03; -1.5996477E-01;4534;  3.3253250E-01;  0.0000000E+00;  1.0234333E-02;  9.9487061E+02;  1.0000000E-01; -4.2496074E+03;3; -9.3654013E+00;  0.0000000E+00;  1.5846840E+00;0;  3.0858737E-01;  3.9588262E+04;  0.0000000E+00;  4.5239490E-02;  4.0000000E+04;  0.0000000E+00;  4.0004277E+04;  3.3075789E-01;  0.0000000E+00; -2.2170512E-02;  9.6020172E+02;
  3.4238148E-01;  9.9999998E-03; -1.4996968E-01;4535;  3.3541963E-01;  0.0000000E+00;  9.2808949E-03;  9.9510040E+02;  1.0000000E-01; -4.0592427E+03;3; -9.3272533E+00;  0.0000000E+00;  1.3579887E+00;0;  2.5409317E-01;  3.9604727E+04;  0.0000000E+00;  2.1836106E-02;  4.0000000E+04;  0.0000000E+00;  4.0006031E+04;  2.8259179E-01;  0.0000000E+00; -2.8498620E-02;  1.1557260E+03;
  3.4232494E-01;  9.9999998E-03; -1.3997531E-01;4536;  3.3784422E-01;  0.0000000E+00;  8.3650304E-03;  9.9533813E+02;  1.0000000E-01; -3.8622605E+03;3; -8.9882298E+00;  0.0000000E+00;  1.3120074E+00;0;  2.0158611E-01;  3.9621426E+04;  0.0000000E+00;  5.3110924E-03;  4.0000000E+04;  0.0000000E+00;  4.0008098E+04;  2.3642512E-01;  0.0000000E+00; -3.4839001E-02;  1.3951665E+03;
  3.4227502E-01;  9.9999998E-03; -1.2998077E-01;4537;  3.3993056E-01;  0.0000000E+00;  7.5425836E-03;  9.9556873E+02;  1.0000000E-01; -3.6712043E+03;3; -8.5720596E+00;  0.0000000E+00;  1.2661572E+00;0;  1.5265030E-01;  3.9637574E+04;  0.0000000E+00; -4.5364732E-03;  4.0000000E+04;  0.0000000E+00;  4.0010219E+04;  1.9343352E-01;  0.0000000E+00; -4.0783230E-02;  1.6401335E+03;
  3.4223065E-01;  9.9999998E-03; -1.1998543E-01;4538;  3.4166133E-01;  0.0000000E+00;  6.7666541E-03;  9.9578076E+02;  1.0000000E-01; -3.4955549E+03;3; -8.1472855E+00;  0.0000000E+00;  1.1845068E+00;0;  1.0847473E-01;  3.9652551E+04;  0.0000000E+00; -9.0124067E-03;  4.0000000E+04;  0.0000000E+00;  4.0012117E+04;  1.5448706E-01;  0.0000000E+00; -4.6012327E-02;  1.8593160E+03;
  3.4219074E-01;  9.9999998E-03; -1.0998929E-01;4539;  3.4308612E-01;  0.0000000E+00;  6.0362006E-03;  9.9596509E+02;  1.0000000E-01; -3.3428679E+03;3; -7.6875987E+00;  0.0000000E+00;  1.1422157E+00;0;  6.9844857E-02;  3.9665793E+04;  0.0000000E+00; -9.7901477E-03;  4.0000000E+04;  0.0000000E+00;  4.0013637E+04;  1.2015048E-01;  0.0000000E+00; -5.0305620E-02;  2.0317622E+03;
  3.5353357E-01;  9.9999998E-03; -2.6994726E-01;4584;  2.3867130E-01;  0.0000000E+00;  1.1254778E-02;  9.9530225E+02;  1.0000000E-01; -3.8919880E+03;3; -1.1652517E+01;  0.0000000E+00;  4.8376565E+00;0;  5.9766895E-01;  3.9595145E+04;  0.0000000E+00; -7.0617817E-02;  4.0000000E+04;  0.0000000E+00;  4.0034859E+04;  6.2461609E-01;  0.0000000E+00; -2.6947116E-02;  4.7486621E+03;
  3.5345781E-01;  9.9999998E-03; -2.5994730E-01;4585;  2.4903896E-01;  0.0000000E+00;  1.0864042E-02;  9.9515503E+02;  1.0000000E-01; -4.0139600E+03;3; -8.5475092E+00;  0.0000000E+00;  4.9125471E+00;0;  5.9545267E-01;  3.9584453E+04;  0.0000000E+00;  2.5749300E-02;  4.0000000E+04;  0.0000000E+00;  4.0033766E+04;  6.1578339E-01;  0.0000000E+00; -2.0330757E-02;  4.6196084E+03;
  3.5339242E-01;  9.9999998E-03; -2.4995241E-01;4586;  2.6205707E-01;  0.0000000E+00;  1.1741324E-02;  9.9495514E+02;  1.0000000E-01; -4.1795850E+03;3; -6.0112720E+00;  0.0000000E+00;  4.8109236E+00;0;  5.7915962E-01;  3.9574305E+04;  0.0000000E+00;  9.7174503E-02;  4.0000000E+04;  0.0000000E+00;  4.0027680E+04;  6.0269201E-01;  0.0000000E+00; -2.3532411E-02;  3.8768806E+03;
  3.5331315E-01;  9.9999998E-03; -2.3996250E-01;4587;  2.7499431E-01;  0.0000000E+00;  1.2388945E-02;  9.9475085E+02;  1.0000000E-01; -4.3488145E+03;3; -3.9602160E+00;  0.0000000E+00;  4.7298265E+00;0;  5.6240064E-01;  3.9565328E+04;  0.0000000E+00;  1.4363495E-01;  4.0000000E+04;  0.0000000E+00;  4.0020129E+04;  5.8465910E-01;  0.0000000E+00; -2.2258433E-02;  2.9529128E+03;
  3.5321125E-01;  9.9999998E-03; -2.2996889E-01;4588;  2.8705561E-01;  0.0000000E+00;  1.2525352E-02;  9.9460419E+02;  1.0000000E-01; -4.4703418E+03;3; -2.4413939E+00;  0.0000000E+00;  4.6595955E+00;0;  5.4261780E-01;  3.9558098E+04;  0.0000000E+00;  1.6920055E-01;  4.0000000E+04;  0.0000000E+00;  4.0015320E+04;  5.6115091E-01;  0.0000000E+00; -1.8533112E-02;  2.3765198E+03;
  3.5309651E-01;  9.9999998E-03; -2.1996808E-01;4589;  2.9872325E-01;  0.0000000E+00;  1.2799835E-02;  9.9451233E+02;  1.0000000E-01; -4.5464385E+03;3; -1.8611213E+00;  0.0000000E+00;  4.5583816E+00;0;  5.1545107E-01;  3.9553219E+04;  0.0000000E+00;  1.7934774E-01;  4.0000000E+04;  0.0000000E+00;  4.0012609E+04;  5.3185594E-01;  0.0000000E+00; -1.6404862E-02;  2.0489766E+03;
  3.5297775E-01;  9.9999998E-03; -2.0996204E-01;4590;  3.0906877E-01;  0.0000000E+00;  1.3226550E-02;  9.9446857E+02;  1.0000000E-01; -4.5826846E+03;3; -3.8009090E+00;  0.0000000E+00;  4.0967798E+00;0;  4.8110428E-01;  3.9551344E+04;  0.0000000E+00;  1.7721766E-01;  4.0000000E+04;  0.0000000E+00;  4.0010523E+04;  4.9687976E-01;  0.0000000E+00; -1.5775483E-02;  1.7898287E+03;
  3.5286227E-01;  9.9999998E-03; -1.9995512E-01;4591;  3.1658122E-01;  0.0000000E+00;  1.3132527E-02;  9.9446790E+02;  1.0000000E-01; -4.5832275E+03;3; -7.3888855E+00;  0.0000000E+00;  2.8767762E+00;0;  4.4068339E-01;  3.9552910E+04;  0.0000000E+00;  1.6405514E-01;  4.0000000E+04;  0.0000000E+00;  4.0008547E+04;  4.5681611E-01;  0.0000000E+00; -1.6132714E-02;  1.5518258E+03;
  3.5275462E-01;  9.9999998E-03; -1.8995063E-01;4592;  3.2180950E-01;  0.0000000E+00;  1.2457559E-02;  9.9451776E+02;  1.0000000E-01; -4.5419448E+03;3; -9.4227715E+00;  0.0000000E+00;  2.0493734E+00;0;  3.9474022E-01;  3.9557910E+04;  0.0000000E+00;  1.4168485E-01;  4.0000000E+04;  0.0000000E+00;  4.0007293E+04;  4.1271970E-01;  0.0000000E+00; -1.7979462E-02;  1.3763257E+03;
  3.5265657E-01;  9.9999998E-03; -1.7994966E-01;4593;  3.2598943E-01;  0.0000000E+00;  1.1611770E-02;  9.9461981E+02;  1.0000000E-01; -4.4574043E+03;3; -1.0041684E+01;  0.0000000E+00;  1.6899180E+00;0;  3.4459940E-01;  3.9566301E+04;  0.0000000E+00;  1.1312845E-01;  4.0000000E+04;  0.0000000E+00;  4.0006797E+04;  3.6597911E-01;  0.0000000E+00; -2.1379698E-02;  1.3053805E+03;
  3.5256860E-01;  9.9999998E-03; -1.6995177E-01;4594;  3.2959810E-01;  0.0000000E+00;  1.0751686E-02;  9.9477081E+02;  1.0000000E-01; -4.3322720E+03;3; -1.0029235E+01;  0.0000000E+00;  1.5148051E+00;0;  2.9226640E-01;  3.9577469E+04;  0.0000000E+00;  8.2395084E-02;  4.0000000E+04;  0.0000000E+00;  4.0007258E+04;  3.1816414E-01;  0.0000000E+00; -2.5897739E-02;  1.3471602E+03;
  3.5249069E-01;  9.9999998E-03; -1.5995626E-01;4595;  3.3271435E-01;  0.0000000E+00;  9.8903179E-03;  9.9495374E+02;  1.0000000E-01; -4.1807207E+03;3; -1.0071468E+01;  0.0000000E+00;  1.2860928E+00;0;  2.3978928E-01;  3.9590742E+04;  0.0000000E+00;  5.3558033E-02;  4.0000000E+04;  0.0000000E+00;  4.0008527E+04;  2.7085662E-01;  0.0000000E+00; -3.1067347E-02;  1.4811333E+03;
  3.5242203E-01;  9.9999998E-03; -1.4996225E-01;4596;  3.3537447E-01;  0.0000000E+00;  9.0290643E-03;  9.9516199E+02;  1.0000000E-01; -4.0081824E+03;3; -9.8510571E+00;  0.0000000E+00;  1.1312766E+00;0;  1.8903005E-01;  3.9605453E+04;  0.0000000E+00;  2.9717121E-02;  4.0000000E+04;  0.0000000E+00;  4.0010203E+04;  2.2549939E-01;  0.0000000E+00; -3.6469344E-02;  1.6720433E+03;
  3.5236230E-01;  9.9999998E-03; -1.3996871E-01;4597;  3.3768630E-01;  0.0000000E+00;  8.2344161E-03;  9.9537439E+02;  1.0000000E-01; -3.8322368E+03;3; -9.4058914E+00;  0.0000000E+00;  1.1322920E+00;0;  1.4154188E-01;  3.9620590E+04;  0.0000000E+00;  1.2343848E-02;  4.0000000E+04;  0.0000000E+00;  4.0012055E+04;  1.8327536E-01;  0.0000000E+00; -4.1733477E-02;  1.8812898E+03;
  3.5231075E-01;  9.9999998E-03; -1.2997484E-01;4598;  3.3968720E-01;  0.0000000E+00;  7.5007207E-03;  9.9558264E+02;  1.0000000E-01; -3.6596985E+03;3; -8.9783525E+00;  0.0000000E+00;  1.0948689E+00;0;  9.8514587E-02;  3.9635355E+04;  0.0000000E+00;  1.3022126E-03;  4.0000000E+04;  0.0000000E+00;  4.0013719E+04;  1.4506266E-01;  0.0000000E+00; -4.6548072E-02;  2.0746921E+03;
  3.5226604E-01;  9.9999998E-03; -1.1998009E-01;4599;  3.4136456E-01;  0.0000000E+00;  6.7941798E-03;  9.9577051E+02;  1.0000000E-01; -3.5040486E+03;3; -8.5423326E+00;  0.0000000E+00;  1.0479941E+00;0;  6.0762744E-02;  3.9649070E+04;  0.0000000E+00; -4.5745550E-03;  4.0000000E+04;  0.0000000E+00;  4.0015031E+04;  1.1143897E-01;  0.0000000E+00; -5.0676230E-02;  2.2270269E+03;
  3.5222629E-01;  9.9999998E-03; -1.0998432E-01;4600;  3.4276038E-01;  0.0000000E+00;  6.1258599E-03;  9.9593335E+02;  1.0000000E-01; -3.3691387E+03;3; -8.0948753E+00;  0.0000000E+00;  1.0291517E+00;0;  2.8735258E-02;  3.9661176E+04;  0.0000000E+00; -6.7704078E-03;  4.0000000E+04;  0.0000000E+00;  4.0016004E+04;  8.2698412E-02;  0.0000000E+00; -5.3963155E-02;  2.3239109E+03;
  3.6354259E-01;  9.9999998E-03; -2.6994836E-01;4645;  2.4977839E-01;  0.0000000E+00;  1.2325148E-02;  9.9556964E+02;  1.0000000E-01; -3.6704636E+03;3; -8.3560009E+00;  0.0000000E+00;  4.6588326E+00;0;  5.7958889E-01;  3.9621172E+04;  0.0000000E+00; -6.1566252E-02;  4.0000000E+04;  0.0000000E+00;  4.0028961E+04;  6.1169016E-01;  0.0000000E+00; -3.2101251E-02;  3.9927952E+03;
  3.6347911E-01;  9.9999998E-03; -2.5994661E-01;4646;  2.6000813E-01;  0.0000000E+00;  1.1452214E-02;  9.9543207E+02;  1.0000000E-01; -3.7844355E+03;3; -5.7575083E+00;  0.0000000E+00;  4.8319187E+00;0;  5.7311124E-01;  3.9608953E+04;  0.0000000E+00;  1.3452686E-02;  4.0000000E+04;  0.0000000E+00;  4.0030215E+04;  5.9499699E-01;  0.0000000E+00; -2.1885747E-02;  4.1539663E+03;
  3.6342525E-01;  9.9999998E-03; -2.4994741E-01;4647;  2.7247742E-01;  0.0000000E+00;  1.1887874E-02;  9.9525134E+02;  1.0000000E-01; -3.9341597E+03;3; -3.8144634E+00;  0.0000000E+00;  4.6963787E+00;0;  5.4982495E-01;  3.9597449E+04;  0.0000000E+00;  7.5176090E-02;  4.0000000E+04;  0.0000000E+00;  4.0027328E+04;  5.7387888E-01;  0.0000000E+00; -2.4053911E-02;  3.8104497E+03;
  3.6335900E-01;  9.9999998E-03; -2.3995258E-01;4648;  2.8499717E-01;  0.0000000E+00;  1.2549090E-02;  9.9505188E+02;  1.0000000E-01; -4.0994390E+03;3; -2.4540250E+00;  0.0000000E+00;  4.5410662E+00;0;  5.2273989E-01;  3.9586758E+04;  0.0000000E+00;  1.2192103E-01;  4.0000000E+04;  0.0000000E+00;  4.0021961E+04;  5.4804027E-01;  0.0000000E+00; -2.5300365E-02;  3.1587000E+03;
  3.6327142E-01;  9.9999998E-03; -2.2995596E-01;4649;  2.9643446E-01;  0.0000000E+00;  1.2905636E-02;  9.9489246E+02;  1.0000000E-01; -4.2314849E+03;3; -1.8703215E+00;  0.0000000E+00;  4.4716444E+00;0;  4.9320483E-01;  3.9577875E+04;  0.0000000E+00;  1.5372418E-01;  4.0000000E+04;  0.0000000E+00;  4.0017863E+04;  5.1734418E-01;  0.0000000E+00; -2.4139347E-02;  2.6694653E+03;
  3.6316890E-01;  9.9999998E-03; -2.1995428E-01;4650;  3.0631310E-01;  0.0000000E+00;  1.3278591E-02;  9.9477734E+02;  1.0000000E-01; -4.3268892E+03;3; -3.7667217E+00;  0.0000000E+00;  4.2317705E+00;0;  4.5848230E-01;  3.9571176E+04;  0.0000000E+00;  1.7148907E-01;  4.0000000E+04;  0.0000000E+00;  4.0015270E+04;  4.8187217E-01;  0.0000000E+00; -2.3389883E-02;  2.3556951E+03;
  3.6305600E-01;  9.9999998E-03; -2.0994878E-01;4651;  3.1360903E-01;  0.0000000E+00;  1.3288182E-02;  9.9470789E+02;  1.0000000E-01; -4.3844185E+03;3; -7.6032948E+00;  0.0000000E+00;  3.0299764E+00;0;  4.1904640E-01;  3.9567457E+04;  0.0000000E+00;  1.7584188E-01;  4.0000000E+04;  0.0000000E+00;  4.0013242E+04;  4.4208384E-01;  0.0000000E+00; -2.3037421E-02;  2.1098350E+03;
  3.6294067E-01;  9.9999998E-03; -1.9994293E-01;4652;  3.1872621E-01;  0.0000000E+00;  1.2723176E-02;  9.9468182E+02;  1.0000000E-01; -4.4059980E+03;3; -9.9798698E+00;  0.0000000E+00;  2.0088730E+00;0;  3.7513945E-01;  3.9566938E+04;  0.0000000E+00;  1.6778304E-01;  4.0000000E+04;  0.0000000E+00;  4.0011590E+04;  3.9880487E-01;  0.0000000E+00; -2.3665436E-02;  1.9026045E+03;
  3.6282900E-01;  9.9999998E-03; -1.8993951E-01;4653;  3.2286698E-01;  0.0000000E+00;  1.1965240E-02;  9.9470917E+02;  1.0000000E-01; -4.3833320E+03;3; -1.0794185E+01;  0.0000000E+00;  1.5480703E+00;0;  3.2739487E-01;  3.9569836E+04;  0.0000000E+00;  1.4916131E-01;  4.0000000E+04;  0.0000000E+00;  4.0010555E+04;  3.5317358E-01;  0.0000000E+00; -2.5778718E-02;  1.7673820E+03;
  3.6272418E-01;  9.9999998E-03; -1.7993943E-01;4654;  3.2653916E-01;  0.0000000E+00;  1.1185050E-02;  9.9478821E+02;  1.0000000E-01; -4.3178525E+03;3; -1.0767505E+01;  0.0000000E+00;  1.3538587E+00;0;  2.7748293E-01;  3.9576094E+04;  0.0000000E+00;  1.2307441E-01;  4.0000000E+04;  0.0000000E+00;  4.0010352E+04;  3.0655465E-01;  0.0000000E+00; -2.9071709E-02;  1.7335558E+03;
  3.6262903E-01;  9.9999998E-03; -1.6994248E-01;4655;  3.2981956E-01;  0.0000000E+00;  1.0413721E-02;  9.9491272E+02;  1.0000000E-01; -4.2146948E+03;3; -1.0731897E+01;  0.0000000E+00;  1.1648170E+00;0;  2.2726640E-01;  3.9585172E+04;  0.0000000E+00;  9.3629211E-02;  4.0000000E+04;  0.0000000E+00;  4.0010988E+04;  2.6039004E-01;  0.0000000E+00; -3.3123642E-02;  1.7991962E+03;
  3.6254555E-01;  9.9999998E-03; -1.5994784E-01;4656;  3.3270115E-01;  0.0000000E+00;  9.6381279E-03;  9.9507312E+02;  1.0000000E-01; -4.0818098E+03;3; -1.0686552E+01;  0.0000000E+00;  9.3825543E-01;0;  1.7849946E-01;  3.9596641E+04;  0.0000000E+00;  6.5007843E-02;  4.0000000E+04;  0.0000000E+00;  4.0012270E+04;  2.1606271E-01;  0.0000000E+00; -3.7563253E-02;  1.9377040E+03;
  3.6247301E-01;  9.9999998E-03; -1.4995456E-01;4657;  3.3522454E-01;  0.0000000E+00;  8.8777095E-03;  9.9525635E+02;  1.0000000E-01; -3.9300117E+03;3; -1.0328853E+01;  0.0000000E+00;  8.8889384E-01;0;  1.3270277E-01;  3.9609531E+04;  0.0000000E+00;  4.0453564E-02;  4.0000000E+04;  0.0000000E+00;  4.0013707E+04;  1.7477043E-01;  0.0000000E+00; -4.2067654E-02;  2.1115481E+03;
  3.6241001E-01;  9.9999998E-03; -1.3996167E-01;4658;  3.3745229E-01;  0.0000000E+00;  8.1737349E-03;  9.9544659E+02;  1.0000000E-01; -3.7723865E+03;3; -9.8832016E+00;  0.0000000E+00;  8.6140221E-01;0;  9.1068879E-02;  3.9623066E+04;  0.0000000E+00;  2.1628629E-02;  4.0000000E+04;  0.0000000E+00;  4.0015312E+04;  1.3742599E-01;  0.0000000E+00; -4.6357106E-02;  2.2833423E+03;
  3.6235657E-01;  9.9999998E-03; -1.2996840E-01;4659;  3.3938742E-01;  0.0000000E+00;  7.5083668E-03;  9.9562964E+02;  1.0000000E-01; -3.6207366E+03;3; -9.4587440E+00;  0.0000000E+00;  8.4208637E-01;0;  5.4416157E-02;  3.9636480E+04;  0.0000000E+00;  8.6625461E-03;  4.0000000E+04;  0.0000000E+00;  4.0016461E+04;  1.0461802E-01;  0.0000000E+00; -5.0201863E-02;  2.4229832E+03;
  3.6231115E-01;  9.9999998E-03; -1.1997426E-01;4660;  3.4102580E-01;  0.0000000E+00;  6.8586161E-03;  9.9579791E+02;  1.0000000E-01; -3.4813330E+03;3; -8.9994011E+00;  0.0000000E+00;  8.3033890E-01;0;  2.3220602E-02;  3.9649047E+04;  0.0000000E+00;  7.1296783E-04;  4.0000000E+04;  0.0000000E+00;  4.0017391E+04;  7.6652139E-02;  0.0000000E+00; -5.3431537E-02;  2.5109683E+03;
  3.6227179E-01;  9.9999998E-03; -1.0997904E-01;4661;  3.4240183E-01;  0.0000000E+00;  6.2347110E-03;  9.9594446E+02;  1.0000000E-01; -3.3599539E+03;3; -8.4920216E+00;  0.0000000E+00;  8.4901285E-01;0; -2.3649260E-03;  3.9660258E+04;  0.0000000E+00; -3.4191366E-03;  4.0000000E+04;  0.0000000E+00;  4.0017727E+04;  5.3577479E-02;  0.0000000E+00; -5.5942405E-02;  2.5386230E+03;
  3.7353480E-01;  9.9999998E-03; -2.6994929E-01;4706;  2.6239389E-01;  0.0000000E+00;  1.3620132E-02;  9.9578772E+02;  1.0000000E-01; -3.4897773E+03;3; -5.8280473E+00;  0.0000000E+00;  4.3081293E+00;0;  5.4024488E-01;  3.9642008E+04;  0.0000000E+00; -8.4803768E-02;  4.0000000E+04;  0.0000000E+00;  4.0024320E+04;  5.8336133E-01;  0.0000000E+00; -4.3116439E-02;  3.3836660E+03;
  3.7348062E-01;  9.9999998E-03; -2.5994661E-01;4707;  2.7190202E-01;  0.0000000E+00;  1.2429549E-02;  9.9566486E+02;  1.0000000E-01; -3.5916016E+03;3; -3.6915734E+00;  0.0000000E+00;  4.5844951E+00;0;  5.3099138E-01;  3.9629605E+04;  0.0000000E+00; -1.6569685E-02;  4.0000000E+04;  0.0000000E+00;  4.0027227E+04;  5.6028050E-01;  0.0000000E+00; -2.9289147E-02;  3.7552842E+03;
  3.7343591E-01;  9.9999998E-03; -2.4994412E-01;4708;  2.8302336E-01;  0.0000000E+00;  1.2362360E-02;  9.9551343E+02;  1.0000000E-01; -3.7170300E+03;3; -2.3962867E+00;  0.0000000E+00;  4.4951673E+00;0;  5.0477183E-01;  3.9617688E+04;  0.0000000E+00;  4.4178769E-02;  4.0000000E+04;  0.0000000E+00;  4.0027055E+04;  5.3292102E-01;  0.0000000E+00; -2.8149210E-02;  3.7540491E+03;
  3.7338117E-01;  9.9999998E-03; -2.3994525E-01;4709;  2.9442972E-01;  0.0000000E+00;  1.2898393E-02;  9.9533295E+02;  1.0000000E-01; -3.8665566E+03;3; -1.8566006E+00;  0.0000000E+00;  4.3687477E+00;0;  4.7155017E-01;  3.9606531E+04;  0.0000000E+00;  9.4729833E-02;  4.0000000E+04;  0.0000000E+00;  4.0023727E+04;  5.0133395E-01;  0.0000000E+00; -2.9783800E-02;  3.3503779E+03;
  3.7330714E-01;  9.9999998E-03; -2.2994606E-01;4710;  3.0409399E-01;  0.0000000E+00;  1.3398876E-02;  9.9517218E+02;  1.0000000E-01; -3.9997380E+03;3; -3.9063048E+00;  0.0000000E+00;  4.3027544E+00;0;  4.3577623E-01;  3.9596910E+04;  0.0000000E+00;  1.3292049E-01;  4.0000000E+04;  0.0000000E+00;  4.0020348E+04;  4.6572092E-01;  0.0000000E+00; -2.9944677E-02;  2.9539214E+03;
  3.7321672E-01;  9.9999998E-03; -2.1994393E-01;4711;  3.1096402E-01;  0.0000000E+00;  1.3475981E-02;  9.9504749E+02;  1.0000000E-01; -4.1030439E+03;3; -7.9693251E+00;  0.0000000E+00;  3.0579422E+00;0;  3.9736825E-01;  3.9589430E+04;  0.0000000E+00;  1.5780234E-01;  4.0000000E+04;  0.0000000E+00;  4.0017879E+04;  4.2648265E-01;  0.0000000E+00; -2.9114403E-02;  2.6566436E+03;
  3.7311459E-01;  9.9999998E-03; -2.0993948E-01;4712;  3.1585222E-01;  0.0000000E+00;  1.3007503E-02;  9.9496320E+02;  1.0000000E-01; -4.1729185E+03;3; -1.0639223E+01;  0.0000000E+00;  1.8312098E+00;0;  3.5567272E-01;  3.9584531E+04;  0.0000000E+00;  1.6901974E-01;  4.0000000E+04;  0.0000000E+00;  4.0015961E+04;  3.8428915E-01;  0.0000000E+00; -2.8616443E-02;  2.4202104E+03;
  3.7300578E-01;  9.9999998E-03; -1.9993503E-01;4713;  3.1984353E-01;  0.0000000E+00;  1.2313139E-02;  9.9492023E+02;  1.0000000E-01; -4.2084731E+03;3; -1.1571386E+01;  0.0000000E+00;  1.3346289E+00;0;  3.1059325E-01;  3.9582605E+04;  0.0000000E+00;  1.6699807E-01;  4.0000000E+04;  0.0000000E+00;  4.0014422E+04;  3.4007365E-01;  0.0000000E+00; -2.9480413E-02;  2.2371726E+03;
  3.7289762E-01;  9.9999998E-03; -1.8993270E-01;4714;  3.2348210E-01;  0.0000000E+00;  1.1600180E-02;  9.9492877E+02;  1.0000000E-01; -4.2014116E+03;3; -1.1576469E+01;  0.0000000E+00;  1.0897954E+00;0;  2.6335490E-01;  3.9583977E+04;  0.0000000E+00;  1.5335821E-01;  4.0000000E+04;  0.0000000E+00;  4.0013594E+04;  2.9496801E-01;  0.0000000E+00; -3.1613097E-02;  2.1321008E+03;
  3.7279400E-01;  9.9999998E-03; -1.7993325E-01;4715;  3.2683757E-01;  0.0000000E+00;  1.0896930E-02;  9.9498688E+02;  1.0000000E-01; -4.1532646E+03;3; -1.1508142E+01;  0.0000000E+00;  8.7075865E-01;0;  2.1564829E-01;  3.9588535E+04;  0.0000000E+00;  1.3100529E-01;  4.0000000E+04;  0.0000000E+00;  4.0013621E+04;  2.5025126E-01;  0.0000000E+00; -3.4602970E-02;  2.1214336E+03;
  3.7269685E-01;  9.9999998E-03; -1.6993663E-01;4716;  3.2987696E-01;  0.0000000E+00;  1.0193107E-02;  9.9508917E+02;  1.0000000E-01; -4.0685264E+03;3; -1.1477176E+01;  0.0000000E+00;  6.6562247E-01;0;  1.6911946E-01;  3.9595949E+04;  0.0000000E+00;  1.0390979E-01;  4.0000000E+04;  0.0000000E+00;  4.0014328E+04;  2.0721707E-01;  0.0000000E+00; -3.8097609E-02;  2.1954099E+03;
  3.7260914E-01;  9.9999998E-03; -1.5994225E-01;4717;  3.3259296E-01;  0.0000000E+00;  9.4883628E-03;  9.9522760E+02;  1.0000000E-01; -3.9538628E+03;3; -1.1288383E+01;  0.0000000E+00;  5.0052130E-01;0;  1.2522469E-01;  3.9605625E+04;  0.0000000E+00;  7.6239280E-02;  4.0000000E+04;  0.0000000E+00;  4.0015438E+04;  1.6703445E-01;  0.0000000E+00; -4.1809753E-02;  2.3243340E+03;
  3.7253359E-01;  9.9999998E-03; -1.4994925E-01;4718;  3.3502287E-01;  0.0000000E+00;  8.8156443E-03;  9.9538879E+02;  1.0000000E-01; -3.8202864E+03;3; -1.0860953E+01;  0.0000000E+00;  5.1351917E-01;0;  8.5144609E-02;  3.9617125E+04;  0.0000000E+00;  5.1363122E-02;  4.0000000E+04;  0.0000000E+00;  4.0016734E+04;  1.3063997E-01;  0.0000000E+00; -4.5495365E-02;  2.4707012E+03;
  3.7246868E-01;  9.9999998E-03; -1.3995673E-01;4719;  3.3718061E-01;  0.0000000E+00;  8.1790546E-03;  9.9555597E+02;  1.0000000E-01; -3.6817720E+03;3; -1.0465002E+01;  0.0000000E+00;  4.9454808E-01;0;  4.9735386E-02;  3.9629340E+04;  0.0000000E+00;  3.1212777E-02;  4.0000000E+04;  0.0000000E+00;  4.0017891E+04;  9.8684095E-02;  0.0000000E+00; -4.8948709E-02;  2.5995027E+03;
  3.7241289E-01;  9.9999998E-03; -1.2996383E-01;4720;  3.3906129E-01;  0.0000000E+00;  7.5604157E-03;  9.9572174E+02;  1.0000000E-01; -3.5444424E+03;3; -1.0046829E+01;  0.0000000E+00;  4.8250014E-01;0;  1.9495957E-02;  3.9641609E+04;  0.0000000E+00;  1.6304336E-02;  4.0000000E+04;  0.0000000E+00;  4.0018691E+04;  7.1501873E-02;  0.0000000E+00; -5.2005917E-02;  2.6849011E+03;
  3.7236625E-01;  9.9999998E-03; -1.1997008E-01;4721;  3.4067133E-01;  0.0000000E+00;  6.9531957E-03;  9.9587317E+02;  1.0000000E-01; -3.4190139E+03;3; -9.5775156E+00;  0.0000000E+00;  5.1287174E-01;0; -5.3963549E-03;  3.9653297E+04;  0.0000000E+00;  6.2059811E-03;  4.0000000E+04;  0.0000000E+00;  4.0019012E+04;  4.9152963E-02;  0.0000000E+00; -5.4549318E-02;  2.7124871E+03;
  3.7232631E-01;  9.9999998E-03; -1.0997523E-01;4722;  3.4203595E-01;  0.0000000E+00;  6.3623157E-03;  9.9600299E+02;  1.0000000E-01; -3.3114614E+03;3; -9.0870571E+00;  0.0000000E+00;  5.6500459E-01;0; -2.5030274E-02;  3.9663863E+04;  0.0000000E+00;  8.2931954E-05;  4.0000000E+04;  0.0000000E+00;  4.0018879E+04;  3.1482771E-02;  0.0000000E+00; -5.6513045E-02;  2.6785134E+03;
  3.8352403E-01;  9.9999998E-03; -2.6994953E-01;4767;  2.7582219E-01;  0.0000000E+00;  1.5175543E-02;  9.9595398E+02;  1.0000000E-01; -3.3520525E+03;3; -4.1460180E+00;  0.0000000E+00;  3.8208454E+00;0;  4.8007169E-01;  3.9657562E+04;  0.0000000E+00; -1.0039618E-01;  4.0000000E+04;  0.0000000E+00;  4.0021234E+04;  5.3995335E-01;  0.0000000E+00; -5.9881669E-02;  2.9734844E+03;
  3.8347757E-01;  9.9999998E-03; -2.5994703E-01;4768;  2.8413612E-01;  0.0000000E+00;  1.3787538E-02;  9.9585248E+02;  1.0000000E-01; -3.4361489E+03;3; -2.6210976E+00;  0.0000000E+00;  4.0667667E+00;0;  4.7052395E-01;  3.9645949E+04;  0.0000000E+00; -4.1486751E-02;  4.0000000E+04;  0.0000000E+00;  4.0024875E+04;  5.1247030E-01;  0.0000000E+00; -4.1946359E-02;  3.4418574E+03;
  3.8343883E-01;  9.9999998E-03; -2.4994303E-01;4769;  2.9353708E-01;  0.0000000E+00;  1.3305944E-02;  9.9573022E+02;  1.0000000E-01; -3.5374299E+03;3; -1.9956843E+00;  0.0000000E+00;  4.1575680E+00;0;  4.4486851E-01;  3.9634527E+04;  0.0000000E+00;  1.4472358E-02;  4.0000000E+04;  0.0000000E+00;  4.0026512E+04;  4.8111176E-01;  0.0000000E+00; -3.6243252E-02;  3.6668118E+03;
  3.8339254E-01;  9.9999998E-03; -2.3994184E-01;4770;  3.0264387E-01;  0.0000000E+00;  1.3708444E-02;  9.9557526E+02;  1.0000000E-01; -3.6658215E+03;3; -4.3344631E+00;  0.0000000E+00;  4.2374196E+00;0;  4.0968415E-01;  3.9624023E+04;  0.0000000E+00;  6.4819947E-02;  4.0000000E+04;  0.0000000E+00;  4.0024848E+04;  4.4618994E-01;  0.0000000E+00; -3.6505781E-02;  3.4633718E+03;
  3.8332877E-01;  9.9999998E-03; -2.2994120E-01;4771;  3.0890387E-01;  0.0000000E+00;  1.3849058E-02;  9.9542694E+02;  1.0000000E-01; -3.7886821E+03;3; -9.0186453E+00;  0.0000000E+00;  2.7551577E+00;0;  3.7291971E-01;  3.9614703E+04;  0.0000000E+00;  1.0637025E-01;  4.0000000E+04;  0.0000000E+00;  4.0022309E+04;  4.0816572E-01;  0.0000000E+00; -3.5246011E-02;  3.1660444E+03;
  3.8324878E-01;  9.9999998E-03; -2.1993931E-01;4772;  3.1332004E-01;  0.0000000E+00;  1.3388769E-02;  9.9530463E+02;  1.0000000E-01; -3.8900125E+03;3; -1.1601982E+01;  0.0000000E+00;  1.5214920E+00;0;  3.3435249E-01;  3.9607094E+04;  0.0000000E+00;  1.3659579E-01;  4.0000000E+04;  0.0000000E+00;  4.0020062E+04;  3.6762866E-01;  0.0000000E+00; -3.3276178E-02;  2.9038789E+03;
  3.8315710E-01;  9.9999998E-03; -2.0993632E-01;4773;  3.1705132E-01;  0.0000000E+00;  1.2726147E-02;  9.9521613E+02;  1.0000000E-01; -3.9633438E+03;3; -1.2457556E+01;  0.0000000E+00;  9.0789855E-01;0;  2.9262596E-01;  3.9601945E+04;  0.0000000E+00;  1.5400286E-01;  4.0000000E+04;  0.0000000E+00;  4.0018281E+04;  3.2533962E-01;  0.0000000E+00; -3.2713652E-02;  2.6908682E+03;
  3.8305849E-01;  9.9999998E-03; -1.9993350E-01;4774;  3.2055002E-01;  0.0000000E+00;  1.2042645E-02;  9.9516925E+02;  1.0000000E-01; -4.0022068E+03;3; -1.2512478E+01;  0.0000000E+00;  5.9500360E-01;0;  2.4863659E-01;  3.9599438E+04;  0.0000000E+00;  1.5828443E-01;  4.0000000E+04;  0.0000000E+00;  4.0016988E+04;  2.8224051E-01;  0.0000000E+00; -3.3603925E-02;  2.5373665E+03;
  3.8295749E-01;  9.9999998E-03; -1.8993221E-01;4775;  3.2388145E-01;  0.0000000E+00;  1.1378628E-02;  9.9516693E+02;  1.0000000E-01; -4.0040835E+03;3; -1.2427559E+01;  0.0000000E+00;  3.6018324E-01;0;  2.0390418E-01;  3.9599836E+04;  0.0000000E+00;  1.5049006E-01;  4.0000000E+04;  0.0000000E+00;  4.0016418E+04;  2.3942387E-01;  0.0000000E+00; -3.5519697E-02;  2.4596011E+03;
  3.8285890E-01;  9.9999998E-03; -1.7993322E-01;4776;  3.2699606E-01;  0.0000000E+00;  1.0725670E-02;  9.9521265E+02;  1.0000000E-01; -3.9662080E+03;3; -1.2380650E+01;  0.0000000E+00;  1.4706984E-01;0;  1.5996780E-01;  3.9603328E+04;  0.0000000E+00;  1.3307859E-01;  4.0000000E+04;  0.0000000E+00;  4.0016488E+04;  1.9804677E-01;  0.0000000E+00; -3.8078982E-02;  2.4631077E+03;
  3.8276562E-01;  9.9999998E-03; -1.6993660E-01;4777;  3.2984743E-01;  0.0000000E+00;  1.0068617E-02;  9.9530029E+02;  1.0000000E-01; -3.8936174E+03;3; -1.2289966E+01;  0.0000000E+00; -4.4028010E-02;0;  1.1823893E-01;  3.9609613E+04;  0.0000000E+00;  1.0964157E-01;  4.0000000E+04;  0.0000000E+00;  4.0017117E+04;  1.5923232E-01;  0.0000000E+00; -4.0993396E-02;  2.5337803E+03;
  3.8267845E-01;  9.9999998E-03; -1.5994199E-01;4778;  3.3243954E-01;  0.0000000E+00;  9.4229551E-03;  9.9541907E+02;  1.0000000E-01; -3.7952004E+03;3; -1.1963116E+01;  0.0000000E+00; -8.1809185E-02;0;  7.9913959E-02;  3.9618078E+04;  0.0000000E+00;  8.4149852E-02;  4.0000000E+04;  0.0000000E+00;  4.0018129E+04;  1.2394960E-01;  0.0000000E+00; -4.4035647E-02;  2.6421082E+03;
  3.8260058E-01;  9.9999998E-03; -1.4994875E-01;4779;  3.3479178E-01;  0.0000000E+00;  8.8124881E-03;  9.9556073E+02;  1.0000000E-01; -3.6778704E+03;3; -1.1551099E+01;  0.0000000E+00; -5.7800505E-02;0;  4.5879297E-02;  3.9628316E+04;  0.0000000E+00;  6.0001686E-02;  4.0000000E+04;  0.0000000E+00;  4.0019074E+04;  9.2899330E-02;  0.0000000E+00; -4.7020033E-02;  2.7530972E+03;
  3.8253418E-01;  9.9999998E-03; -1.3995609E-01;4780;  3.3689299E-01;  0.0000000E+00;  8.2263490E-03;  9.9571149E+02;  1.0000000E-01; -3.5529358E+03;3; -1.1165213E+01;  0.0000000E+00; -4.3890428E-02;0;  1.6681597E-02;  3.9639566E+04;  0.0000000E+00;  3.9373338E-02;  4.0000000E+04;  0.0000000E+00;  4.0019906E+04;  6.6480570E-02;  0.0000000E+00; -4.9798973E-02;  2.8355173E+03;
  3.8247719E-01;  9.9999998E-03; -1.2996319E-01;4781;  3.3873600E-01;  0.0000000E+00;  7.6470068E-03;  9.9586121E+02;  1.0000000E-01; -3.4288899E+03;3; -1.0762015E+01;  0.0000000E+00; -1.3715285E-02;0; -7.4544698E-03;  3.9651055E+04;  0.0000000E+00;  2.3179675E-02;  4.0000000E+04;  0.0000000E+00;  4.0020266E+04;  4.4805836E-02;  0.0000000E+00; -5.2260306E-02;  2.8679111E+03;
  3.8242817E-01;  9.9999998E-03; -1.1996950E-01;4782;  3.4032807E-01;  0.0000000E+00;  7.0723267E-03;  9.9599988E+02;  1.0000000E-01; -3.3140291E+03;3; -1.0300073E+01;  0.0000000E+00;  5.9579276E-02;0; -2.6582273E-02;  3.9662242E+04;  0.0000000E+00;  1.1436901E-02;  4.0000000E+04;  0.0000000E+00;  4.0020148E+04;  2.7743420E-02;  0.0000000E+00; -5.4325692E-02;  2.8403823E+03;
  3.8238692E-01;  9.9999998E-03; -1.0997469E-01;4783;  3.4169796E-01;  0.0000000E+00;  6.5080328E-03;  9.9612115E+02;  1.0000000E-01; -3.2135381E+03;3; -9.7523928E+00;  0.0000000E+00;  1.7901647E-01;0; -4.0981919E-02;  3.9672613E+04;  0.0000000E+00;  3.6641285E-03;  4.0000000E+04;  0.0000000E+00;  4.0019574E+04;  1.4973723E-02;  0.0000000E+00; -5.5955641E-02;  2.7533093E+03;
  3.9352435E-01;  9.9999998E-03; -2.6994854E-01;4828;  2.8949776E-01;  0.0000000E+00;  1.6923122E-02;  9.9608789E+02;  1.0000000E-01; -3.2410928E+03;3; -3.6027508E+00;  0.0000000E+00;  2.8222079E+00;0;  4.0187189E-01;  3.9668582E+04;  0.0000000E+00; -1.0975119E-01;  4.0000000E+04;  0.0000000E+00;  4.0019793E+04;  4.8311806E-01;  0.0000000E+00; -8.1246175E-02;  2.7927856E+03;
  3.9348185E-01;  9.9999998E-03; -2.5994772E-01;4829;  2.9612744E-01;  0.0000000E+00;  1.5378669E-02;  9.9599841E+02;  1.0000000E-01; -3.3152141E+03;3; -2.8312128E+00;  0.0000000E+00;  3.2545595E+00;0;  3.9547127E-01;  3.9658410E+04;  0.0000000E+00; -6.2461488E-02;  4.0000000E+04;  0.0000000E+00;  4.0023020E+04;  4.5349133E-01;  0.0000000E+00; -5.8020052E-02;  3.1993406E+03;
  3.9344662E-01;  9.9999998E-03; -2.4994411E-01;4830;  3.0280429E-01;  0.0000000E+00;  1.4802226E-02;  9.9590271E+02;  1.0000000E-01; -3.3945205E+03;3; -6.2327542E+00;  0.0000000E+00;  3.5259182E+00;0;  3.7209007E-01;  3.9648500E+04;  0.0000000E+00; -1.4425378E-02;  4.0000000E+04;  0.0000000E+00;  4.0025598E+04;  4.2055950E-01;  0.0000000E+00; -4.8469421E-02;  3.5288486E+03;
  3.9340502E-01;  9.9999998E-03; -2.3994276E-01;4831;  3.0763537E-01;  0.0000000E+00;  1.4562118E-02;  9.9577582E+02;  1.0000000E-01; -3.4996533E+03;3; -1.1092182E+01;  0.0000000E+00;  1.8163884E+00;0;  3.4133014E-01;  3.9639160E+04;  0.0000000E+00;  3.2398667E-02;  4.0000000E+04;  0.0000000E+00;  4.0024875E+04;  3.8480347E-01;  0.0000000E+00; -4.3473326E-02;  3.4593145E+03;
  3.9334673E-01;  9.9999998E-03; -2.2994258E-01;4832;  3.1126770E-01;  0.0000000E+00;  1.3951293E-02;  9.9564911E+02;  1.0000000E-01; -3.6046379E+03;3; -1.3260030E+01;  0.0000000E+00;  6.1593735E-01;0;  3.0810797E-01;  3.9630891E+04;  0.0000000E+00;  7.4243747E-02;  4.0000000E+04;  0.0000000E+00;  4.0023160E+04;  3.4682187E-01;  0.0000000E+00; -3.8713913E-02;  3.2527605E+03;
  3.9327407E-01;  9.9999998E-03; -2.1994171E-01;4833;  3.1457806E-01;  0.0000000E+00;  1.3218998E-02;  9.9554254E+02;  1.0000000E-01; -3.6929316E+03;3; -1.3727965E+01;  0.0000000E+00;  2.2104615E-03;0;  2.7123344E-01;  3.9624121E+04;  0.0000000E+00;  1.0746540E-01;  4.0000000E+04;  0.0000000E+00;  4.0021504E+04;  3.0725554E-01;  0.0000000E+00; -3.6022086E-02;  3.0580330E+03;
  3.9319104E-01;  9.9999998E-03; -2.0994027E-01;4834;  3.1782717E-01;  0.0000000E+00;  1.2510064E-02;  9.9546375E+02;  1.0000000E-01; -3.7582139E+03;3; -1.3746389E+01;  0.0000000E+00; -3.2683179E-01;0;  2.3155203E-01;  3.9619227E+04;  0.0000000E+00;  1.2968470E-01;  4.0000000E+04;  0.0000000E+00;  4.0020137E+04;  2.6688004E-01;  0.0000000E+00; -3.5328008E-02;  2.8996487E+03;
  3.9310142E-01;  9.9999998E-03; -1.9993900E-01;4835;  3.2102713E-01;  0.0000000E+00;  1.1844086E-02;  9.9542041E+02;  1.0000000E-01; -3.7941140E+03;3; -1.3643432E+01;  0.0000000E+00; -5.5403066E-01;0;  1.9059882E-01;  3.9616754E+04;  0.0000000E+00;  1.3984691E-01;  4.0000000E+04;  0.0000000E+00;  4.0019258E+04;  2.2661196E-01;  0.0000000E+00; -3.6013141E-02;  2.7911064E+03;
  3.9300933E-01;  9.9999998E-03; -1.8993877E-01;4836;  3.2411849E-01;  0.0000000E+00;  1.1208443E-02;  9.9541821E+02;  1.0000000E-01; -3.7959412E+03;3; -1.3545648E+01;  0.0000000E+00; -7.4382228E-01;0;  1.4989093E-01;  3.9617086E+04;  0.0000000E+00;  1.3829285E-01;  4.0000000E+04;  0.0000000E+00;  4.0018871E+04;  1.8746638E-01;  0.0000000E+00; -3.7575454E-02;  2.7434673E+03;
  3.9291725E-01;  9.9999998E-03; -1.7994012E-01;4837;  3.2703814E-01;  0.0000000E+00;  1.0588109E-02;  9.9545721E+02;  1.0000000E-01; -3.7635964E+03;3; -1.3425831E+01;  0.0000000E+00; -8.8415319E-01;0;  1.1081709E-01;  3.9620055E+04;  0.0000000E+00;  1.2678625E-01;  4.0000000E+04;  0.0000000E+00;  4.0019008E+04;  1.5048447E-01;  0.0000000E+00; -3.9667383E-02;  2.7572114E+03;
  3.9282843E-01;  9.9999998E-03; -1.6994329E-01;4838;  3.2975054E-01;  0.0000000E+00;  9.9812821E-03;  9.9553473E+02;  1.0000000E-01; -3.6994006E+03;3; -1.3194408E+01;  0.0000000E+00; -9.3581057E-01;0;  7.4574530E-02;  3.9625613E+04;  0.0000000E+00;  1.0833391E-01;  4.0000000E+04;  0.0000000E+00;  4.0019629E+04;  1.1661741E-01;  0.0000000E+00; -4.2042878E-02;  2.8174834E+03;
  3.9274579E-01;  9.9999998E-03; -1.5994819E-01;4839;  3.3225647E-01;  0.0000000E+00;  9.3983123E-03;  9.9564392E+02;  1.0000000E-01; -3.6089341E+03;3; -1.2767435E+01;  0.0000000E+00; -8.6833340E-01;0;  4.2112764E-02;  3.9633539E+04;  0.0000000E+00;  8.6499237E-02;  4.0000000E+04;  0.0000000E+00;  4.0020289E+04;  8.6627923E-02;  0.0000000E+00; -4.4515159E-02;  2.8981565E+03;
  3.9266917E-01;  9.9999998E-03; -1.4995427E-01;4840;  3.3454493E-01;  0.0000000E+00;  8.8385465E-03;  9.9577161E+02;  1.0000000E-01; -3.5031594E+03;3; -1.2397816E+01;  0.0000000E+00; -8.1684291E-01;0;  1.4078416E-02;  3.9642969E+04;  0.0000000E+00;  6.4550057E-02;  4.0000000E+04;  0.0000000E+00;  4.0021008E+04;  6.1020348E-02;  0.0000000E+00; -4.6941932E-02;  2.9691768E+03;
  3.9260134E-01;  9.9999998E-03; -1.3996099E-01;4841;  3.3660263E-01;  0.0000000E+00;  8.2915267E-03;  9.9590997E+02;  1.0000000E-01; -3.3884961E+03;3; -1.2031939E+01;  0.0000000E+00; -7.7240688E-01;0; -9.2311017E-03;  3.9653812E+04;  0.0000000E+00;  4.4797767E-02;  4.0000000E+04;  0.0000000E+00;  4.0021398E+04;  3.9987568E-02;  0.0000000E+00; -4.9218670E-02;  3.0043887E+03;
  3.9254335E-01;  9.9999998E-03; -1.2996750E-01;4842;  3.3842552E-01;  0.0000000E+00;  7.7503556E-03;  9.9604944E+02;  1.0000000E-01; -3.2729438E+03;3; -1.1639778E+01;  0.0000000E+00; -7.0051736E-01;0; -2.7818915E-02;  3.9664895E+04;  0.0000000E+00;  2.8483583E-02;  4.0000000E+04;  0.0000000E+00;  4.0021285E+04;  2.3452338E-02;  0.0000000E+00; -5.1271252E-02;  2.9869568E+03;
  3.9249316E-01;  9.9999998E-03; -1.1997326E-01;4843;  3.4001482E-01;  0.0000000E+00;  7.2052809E-03;  9.9618146E+02;  1.0000000E-01; -3.1636135E+03;3; -1.1190992E+01;  0.0000000E+00; -5.5785757E-01;0; -4.1910466E-02;  3.9675977E+04;  0.0000000E+00;  1.6007142E-02;  4.0000000E+04;  0.0000000E+00;  4.0020770E+04;  1.1139035E-02;  0.0000000E+00; -5.3049501E-02;  2.9109458E+03;
  3.9244968E-01;  9.9999998E-03; -1.0997795E-01;4844;  3.4140462E-01;  0.0000000E+00;  6.6644666E-03;  9.9630133E+02;  1.0000000E-01; -3.0642583E+03;3; -1.0578769E+01;  0.0000000E+00; -3.6699942E-01;0; -5.1908426E-02;  3.9686391E+04;  0.0000000E+00;  7.2346241E-03;  4.0000000E+04;  0.0000000E+00;  4.0019941E+04;  2.6223641E-03;  0.0000000E+00; -5.4530792E-02;  2.7799868E+03;
  4.0354934E-01;  9.9999998E-03; -2.6994586E-01;4889;  3.0132854E-01;  0.0000000E+00;  1.8194355E-02;  9.9620996E+02;  1.0000000E-01; -3.1399600E+03;3; -1.1254271E+01;  0.0000000E+00; -2.6944766E-02;0;  3.1650060E-01;  3.9677047E+04;  0.0000000E+00; -1.1992782E-01;  4.0000000E+04;  0.0000000E+00;  4.0020387E+04;  4.1587767E-01;  0.0000000E+00; -9.9377066E-02;  2.8512236E+03;
  4.0350503E-01;  9.9999998E-03; -2.5994825E-01;4890;  3.0428675E-01;  0.0000000E+00;  1.6872186E-02;  9.9611786E+02;  1.0000000E-01; -3.2163035E+03;3; -1.4451374E+01;  0.0000000E+00; -2.4622773E-01;0;  3.1157339E-01;  3.9668672E+04;  0.0000000E+00; -8.3031729E-02;  4.0000000E+04;  0.0000000E+00;  4.0021664E+04;  3.8637146E-01;  0.0000000E+00; -7.4798092E-02;  3.0183713E+03;
  4.0346825E-01;  9.9999998E-03; -2.4994761E-01;4891;  3.0690777E-01;  0.0000000E+00;  1.5608233E-02;  9.9604071E+02;  1.0000000E-01; -3.2802029E+03;3; -1.5729338E+01;  0.0000000E+00; -9.6370649E-01;0;  2.9730043E-01;  3.9660488E+04;  0.0000000E+00; -4.3518908E-02;  4.0000000E+04;  0.0000000E+00;  4.0023703E+04;  3.5419467E-01;  0.0000000E+00; -5.6894254E-02;  3.2835034E+03;
  4.0342608E-01;  9.9999998E-03; -2.3994850E-01;4892;  3.0958566E-01;  0.0000000E+00;  1.4587891E-02;  9.9593951E+02;  1.0000000E-01; -3.3640522E+03;3; -1.6064587E+01;  0.0000000E+00; -1.4378538E+00;0;  2.7375022E-01;  3.9652793E+04;  0.0000000E+00; -2.2125987E-03;  4.0000000E+04;  0.0000000E+00;  4.0023637E+04;  3.1988102E-01;  0.0000000E+00; -4.6130817E-02;  3.2811213E+03;
  4.0337047E-01;  9.9999998E-03; -2.2995009E-01;4893;  3.1237105E-01;  0.0000000E+00;  1.3678920E-02;  9.9584167E+02;  1.0000000E-01; -3.4450869E+03;3; -1.5826576E+01;  0.0000000E+00; -1.7063141E+00;0;  2.4402878E-01;  3.9645902E+04;  0.0000000E+00;  3.7326060E-02;  4.0000000E+04;  0.0000000E+00;  4.0022758E+04;  2.8402331E-01;  0.0000000E+00; -3.9994534E-02;  3.1862881E+03;
  4.0330246E-01;  9.9999998E-03; -2.1995080E-01;4894;  3.1527141E-01;  0.0000000E+00;  1.2878114E-02;  9.9576038E+02;  1.0000000E-01; -3.5124431E+03;3; -1.5542087E+01;  0.0000000E+00; -1.8671056E+00;0;  2.1018872E-01;  3.9640289E+04;  0.0000000E+00;  7.1200453E-02;  4.0000000E+04;  0.0000000E+00;  4.0022035E+04;  2.4726669E-01;  0.0000000E+00; -3.7077986E-02;  3.1025615E+03;
  4.0322497E-01;  9.9999998E-03; -2.0995073E-01;4895;  3.1825867E-01;  0.0000000E+00;  1.2184581E-02;  9.9570178E+02;  1.0000000E-01; -3.5609849E+03;3; -1.5244294E+01;  0.0000000E+00; -1.9286034E+00;0;  1.7412503E-01;  3.9636445E+04;  0.0000000E+00;  9.6552186E-02;  4.0000000E+04;  0.0000000E+00;  4.0021441E+04;  2.1037500E-01;  0.0000000E+00; -3.6249965E-02;  3.0359111E+03;
  4.0314147E-01;  9.9999998E-03; -1.9995068E-01;4896;  3.2125667E-01;  0.0000000E+00;  1.1567015E-02;  9.9567279E+02;  1.0000000E-01; -3.5850337E+03;3; -1.4991858E+01;  0.0000000E+00; -1.9873896E+00;0;  1.3752076E-01;  3.9634609E+04;  0.0000000E+00;  1.1171042E-01;  4.0000000E+04;  0.0000000E+00;  4.0021051E+04;  1.7421645E-01;  0.0000000E+00; -3.6695693E-02;  2.9924614E+03;
  4.0305501E-01;  9.9999998E-03; -1.8995124E-01;4897;  3.2417995E-01;  0.0000000E+00;  1.0986613E-02;  9.9567834E+02;  1.0000000E-01; -3.5803918E+03;3; -1.4760856E+01;  0.0000000E+00; -1.9855922E+00;0;  1.0181288E-01;  3.9635145E+04;  0.0000000E+00;  1.1629988E-01;  4.0000000E+04;  0.0000000E+00;  4.0020965E+04;  1.3972078E-01;  0.0000000E+00; -3.7907902E-02;  2.9821846E+03;
  4.0296823E-01;  9.9999998E-03; -1.7995284E-01;4898;  3.2697368E-01;  0.0000000E+00;  1.0434761E-02;  9.9571771E+02;  1.0000000E-01; -3.5478000E+03;3; -1.4488559E+01;  0.0000000E+00; -1.9822564E+00;0;  6.8212867E-02;  3.9638238E+04;  0.0000000E+00;  1.1129647E-01;  4.0000000E+04;  0.0000000E+00;  4.0021148E+04;  1.0779759E-01;  0.0000000E+00; -3.9584715E-02;  3.0061765E+03;
  4.0288401E-01;  9.9999998E-03; -1.6995580E-01;4899;  3.2959813E-01;  0.0000000E+00;  9.8939305E-03;  9.9579272E+02;  1.0000000E-01; -3.4856289E+03;3; -1.4162102E+01;  0.0000000E+00; -1.9851743E+00;0;  3.7724886E-02;  3.9643707E+04;  0.0000000E+00;  9.8931395E-02;  4.0000000E+04;  0.0000000E+00;  4.0021590E+04;  7.9238057E-02;  0.0000000E+00; -4.1513171E-02;  3.0534233E+03;
  4.0280420E-01;  9.9999998E-03; -1.5996008E-01;4900;  3.3204019E-01;  0.0000000E+00;  9.3659386E-03;  9.9589264E+02;  1.0000000E-01; -3.4028660E+03;3; -1.3791675E+01;  0.0000000E+00; -1.9348640E+00;0;  1.1085071E-02;  3.9651273E+04;  0.0000000E+00;  8.2175002E-02;  4.0000000E+04;  0.0000000E+00;  4.0022102E+04;  5.4629270E-02;  0.0000000E+00; -4.3544199E-02;  3.1039211E+03;
  4.0273124E-01;  9.9999998E-03; -1.4996536E-01;4901;  3.3428103E-01;  0.0000000E+00;  8.8491943E-03;  9.9601532E+02;  1.0000000E-01; -3.3012393E+03;3; -1.3448773E+01;  0.0000000E+00; -1.8621850E+00;0; -1.1281479E-02;  3.9660621E+04;  0.0000000E+00;  6.3983202E-02;  4.0000000E+04;  0.0000000E+00;  4.0022469E+04;  3.4287259E-02;  0.0000000E+00; -4.5568738E-02;  3.1344097E+03;
  4.0266404E-01;  9.9999998E-03; -1.3997100E-01;4902;  3.3631301E-01;  0.0000000E+00;  8.3439918E-03;  9.9614630E+02;  1.0000000E-01; -3.1926992E+03;3; -1.3118049E+01;  0.0000000E+00; -1.7658983E+00;0; -2.9260024E-02;  3.9671180E+04;  0.0000000E+00;  4.6655864E-02;  4.0000000E+04;  0.0000000E+00;  4.0022496E+04;  1.8252648E-02;  0.0000000E+00; -4.7512673E-02;  3.1248542E+03;
  4.0260428E-01;  9.9999998E-03; -1.2997642E-01;4903;  3.3812952E-01;  0.0000000E+00;  7.8416141E-03;  9.9628131E+02;  1.0000000E-01; -3.0808503E+03;3; -1.2749320E+01;  0.0000000E+00; -1.6263065E+00;0; -4.3013286E-02;  3.9682332E+04;  0.0000000E+00;  3.1605799E-02;  4.0000000E+04;  0.0000000E+00;  4.0022094E+04;  6.3140234E-03;  0.0000000E+00; -4.9327310E-02;  3.0632346E+03;
  4.0255299E-01;  9.9999998E-03; -1.1998111E-01;4904;  3.3974084E-01;  0.0000000E+00;  7.3351725E-03;  9.9641168E+02;  1.0000000E-01; -2.9728535E+03;3; -1.2263027E+01;  0.0000000E+00; -1.4203093E+00;0; -5.2884869E-02;  3.9693605E+04;  0.0000000E+00;  1.9522382E-02;  4.0000000E+04;  0.0000000E+00;  4.0021234E+04; -1.9046083E-03;  0.0000000E+00; -5.0980262E-02;  2.9467900E+03;
  4.0250808E-01;  9.9999998E-03; -1.0998476E-01;4905;  3.4116089E-01;  0.0000000E+00;  6.8184687E-03;  9.9653333E+02;  1.0000000E-01; -2.8720662E+03;3; -1.1663124E+01;  0.0000000E+00; -1.1479555E+00;0; -5.9339710E-02;  3.9704531E+04;  0.0000000E+00;  1.0566202E-02;  4.0000000E+04;  0.0000000E+00;  4.0020070E+04; -6.8818689E-03;  0.0000000E+00; -5.2457839E-02;  2.7818203E+03;
  4.1361022E-01;  9.9999998E-03; -2.6994243E-01;4950;  3.0291009E-01;  0.0000000E+00;  1.7054049E-02;  9.9633356E+02;  1.0000000E-01; -3.0375920E+03;3; -2.0997766E+01;  0.0000000E+00; -4.9748759E+00;0;  2.5145864E-01;  3.9685324E+04;  0.0000000E+00; -1.3858184E-01;  4.0000000E+04;  0.0000000E+00;  4.0021594E+04;  3.4245005E-01;  0.0000000E+00; -9.0991400E-02;  2.9937842E+03;
  4.1356006E-01;  9.9999998E-03; -2.5994840E-01;4951;  3.0532932E-01;  0.0000000E+00;  1.6009288E-02;  9.9623590E+02;  1.0000000E-01; -3.1184785E+03;3; -2.0107723E+01;  0.0000000E+00; -4.4800925E+00;0;  2.4437517E-01;  3.9678602E+04;  0.0000000E+00; -1.0792404E-01;  4.0000000E+04;  0.0000000E+00;  4.0020582E+04;  3.1500679E-01;  0.0000000E+00; -7.0631616E-02;  2.8735869E+03;
  4.1351527E-01;  9.9999998E-03; -2.4995302E-01;4952;  3.0767283E-01;  0.0000000E+00;  1.4866398E-02;  9.9615662E+02;  1.0000000E-01; -3.1841558E+03;3; -1.9116903E+01;  0.0000000E+00; -4.0623746E+00;0;  2.3101166E-01;  3.9672098E+04;  0.0000000E+00; -7.4630730E-02;  4.0000000E+04;  0.0000000E+00;  4.0020789E+04;  2.8547436E-01;  0.0000000E+00; -5.4462709E-02;  2.9128162E+03;
  4.1346669E-01;  9.9999998E-03; -2.3995826E-01;4953;  3.1014967E-01;  0.0000000E+00;  1.3898710E-02;  9.9607660E+02;  1.0000000E-01; -3.2504749E+03;3; -1.8055481E+01;  0.0000000E+00; -3.5641332E+00;0;  2.0978951E-01;  3.9666137E+04;  0.0000000E+00; -3.8879894E-02;  4.0000000E+04;  0.0000000E+00;  4.0020766E+04;  2.5432447E-01;  0.0000000E+00; -4.4534959E-02;  2.9176958E+03;
  4.1340834E-01;  9.9999998E-03; -2.2996248E-01;4954;  3.1278566E-01;  0.0000000E+00;  1.3075183E-02;  9.9601385E+02;  1.0000000E-01; -3.3024238E+03;3; -1.7322536E+01;  0.0000000E+00; -3.3933666E+00;0;  1.8307719E-01;  3.9660785E+04;  0.0000000E+00; -3.0871620E-03;  4.0000000E+04;  0.0000000E+00;  4.0021117E+04;  2.2210991E-01;  0.0000000E+00; -3.9032727E-02;  2.9660095E+03;
  4.1334033E-01;  9.9999998E-03; -2.1996470E-01;4955;  3.1555584E-01;  0.0000000E+00;  1.2365030E-02;  9.9596613E+02;  1.0000000E-01; -3.3419783E+03;3; -1.6891167E+01;  0.0000000E+00; -3.3577871E+00;0;  1.5307587E-01;  3.9656441E+04;  0.0000000E+00;  2.9571768E-02;  4.0000000E+04;  0.0000000E+00;  4.0021645E+04;  1.8946116E-01;  0.0000000E+00; -3.6385283E-02;  3.0414680E+03;
  4.1326460E-01;  9.9999998E-03; -2.0996559E-01;4956;  3.1841266E-01;  0.0000000E+00;  1.1750723E-02;  9.9593396E+02;  1.0000000E-01; -3.3686443E+03;3; -1.6534187E+01;  0.0000000E+00; -3.4007530E+00;0;  1.2157144E-01;  3.9653648E+04;  0.0000000E+00;  5.6379713E-02;  4.0000000E+04;  0.0000000E+00;  4.0022168E+04;  1.5710992E-01;  0.0000000E+00; -3.5538480E-02;  3.1015408E+03;
  4.1318336E-01;  9.9999998E-03; -1.9996618E-01;4957;  3.2128167E-01;  0.0000000E+00;  1.1200050E-02;  9.9592267E+02;  1.0000000E-01; -3.3779773E+03;3; -1.6211868E+01;  0.0000000E+00; -3.4216208E+00;0;  9.0078421E-02;  3.9652672E+04;  0.0000000E+00;  7.5385801E-02;  4.0000000E+04;  0.0000000E+00;  4.0022410E+04;  1.2586780E-01;  0.0000000E+00; -3.5789378E-02;  3.1422429E+03;
  4.1309920E-01;  9.9999998E-03; -1.8996717E-01;4958;  3.2409284E-01;  0.0000000E+00;  1.0684723E-02;  9.9593964E+02;  1.0000000E-01; -3.3639529E+03;3; -1.5962756E+01;  0.0000000E+00; -3.4445539E+00;0;  5.9846781E-02;  3.9653766E+04;  0.0000000E+00;  8.5623145E-02;  4.0000000E+04;  0.0000000E+00;  4.0022680E+04;  9.6568316E-02;  0.0000000E+00; -3.6721535E-02;  3.1771321E+03;
  4.1301480E-01;  9.9999998E-03; -1.7996895E-01;4959;  3.2679582E-01;  0.0000000E+00;  1.0191451E-02;  9.9598505E+02;  1.0000000E-01; -3.3263245E+03;3; -1.5693132E+01;  0.0000000E+00; -3.4492366E+00;0;  3.1912658E-02;  3.9657152E+04;  0.0000000E+00;  8.7268583E-02;  4.0000000E+04;  0.0000000E+00;  4.0023035E+04;  6.9990665E-02;  0.0000000E+00; -3.8078006E-02;  3.2141108E+03;
  4.1293222E-01;  9.9999998E-03; -1.6997167E-01;4960;  3.2935765E-01;  0.0000000E+00;  9.7122025E-03;  9.9605780E+02;  1.0000000E-01; -3.2660298E+03;3; -1.5356425E+01;  0.0000000E+00; -3.3874712E+00;0;  7.0925169E-03;  3.9662797E+04;  0.0000000E+00;  8.1692696E-02;  4.0000000E+04;  0.0000000E+00;  4.0023363E+04;  4.6777386E-02;  0.0000000E+00; -3.9684869E-02;  3.2499924E+03;
  4.1285396E-01;  9.9999998E-03; -1.5997535E-01;4961;  3.3175778E-01;  0.0000000E+00;  9.2470236E-03;  9.9615643E+02;  1.0000000E-01; -3.1843037E+03;3; -1.5037169E+01;  0.0000000E+00; -3.2824860E+00;0; -1.4065633E-02;  3.9670578E+04;  0.0000000E+00;  7.1121261E-02;  4.0000000E+04;  0.0000000E+00;  4.0023668E+04;  2.7354395E-02;  0.0000000E+00; -4.1420028E-02;  3.2726765E+03;
  4.1278115E-01;  9.9999998E-03; -1.4997970E-01;4962;  3.3397868E-01;  0.0000000E+00;  8.7942379E-03;  9.9627643E+02;  1.0000000E-01; -3.0848992E+03;3; -1.4752410E+01;  0.0000000E+00; -3.1670625E+00;0; -3.1304248E-02;  3.9680023E+04;  0.0000000E+00;  5.8033604E-02;  4.0000000E+04;  0.0000000E+00;  4.0023648E+04;  1.1893795E-02;  0.0000000E+00; -4.3198042E-02;  3.2666877E+03;
  4.1271511E-01;  9.9999998E-03; -1.3998422E-01;4963;  3.3600798E-01;  0.0000000E+00;  8.3465828E-03;  9.9640558E+02;  1.0000000E-01; -2.9778899E+03;3; -1.4470379E+01;  0.0000000E+00; -3.0169530E+00;0; -4.4653874E-02;  3.9690664E+04;  0.0000000E+00;  4.4542793E-02;  4.0000000E+04;  0.0000000E+00;  4.0023355E+04;  3.0974142E-04;  0.0000000E+00; -4.4963617E-02;  3.2185432E+03;
  4.1265517E-01;  9.9999998E-03; -1.2998837E-01;4964;  3.3784503E-01;  0.0000000E+00;  7.8989174E-03;  9.9653967E+02;  1.0000000E-01; -2.8668313E+03;3; -1.4136906E+01;  0.0000000E+00; -2.8449636E+00;0; -5.4371309E-02;  3.9702121E+04;  0.0000000E+00;  3.2099769E-02;  4.0000000E+04;  0.0000000E+00;  4.0022742E+04; -7.6875938E-03;  0.0000000E+00; -4.6683714E-02;  3.1208372E+03;
  4.1260141E-01;  9.9999998E-03; -1.1999177E-01;4965;  3.3949837E-01;  0.0000000E+00;  7.4401279E-03;  9.9667383E+02;  1.0000000E-01; -2.7556741E+03;3; -1.3668254E+01;  0.0000000E+00; -2.6244271E+00;0; -6.0854193E-02;  3.9713777E+04;  0.0000000E+00;  2.1538736E-02;  4.0000000E+04;  0.0000000E+00;  4.0021602E+04; -1.2517919E-02;  0.0000000E+00; -4.8336275E-02;  2.9738589E+03;
  4.1255510E-01;  9.9999998E-03; -1.0999414E-01;4966;  3.4096730E-01;  0.0000000E+00;  6.9599384E-03;  9.9680103E+02;  1.0000000E-01; -2.6502944E+03;3; -1.3123868E+01;  0.0000000E+00; -2.3095551E+00;0; -6.4582102E-02;  3.9725395E+04;  0.0000000E+00;  1.3266967E-02;  4.0000000E+04;  0.0000000E+00;  4.0020246E+04; -1.4672586E-02;  0.0000000E+00; -4.9909513E-02;  2.7855303E+03;
  4.2370075E-01;  9.9999998E-03; -2.6993874E-01;5011;  3.0275163E-01;  0.0000000E+00;  1.5200904E-02;  9.9647211E+02;  1.0000000E-01; -2.9227805E+03;3; -2.1196060E+01;  0.0000000E+00; -5.8934956E+00;0;  1.9374752E-01;  3.9695137E+04;  0.0000000E+00; -1.6342208E-01;  4.0000000E+04;  0.0000000E+00;  4.0022453E+04;  2.6775876E-01;  0.0000000E+00; -7.4011229E-02;  3.0916697E+03;
  4.2364702E-01;  9.9999998E-03; -2.5994834E-01;5012;  3.0523863E-01;  0.0000000E+00;  1.4551887E-02;  9.9636298E+02;  1.0000000E-01; -3.0131975E+03;3; -2.0580097E+01;  0.0000000E+00; -5.6941113E+00;0;  1.8295974E-01;  3.9689828E+04;  0.0000000E+00; -1.3769580E-01;  4.0000000E+04;  0.0000000E+00;  4.0019027E+04;  2.4358203E-01;  0.0000000E+00; -6.0622297E-02;  2.6804512E+03;
  4.2359275E-01;  9.9999998E-03; -2.4995852E-01;5013;  3.0770057E-01;  0.0000000E+00;  1.3762306E-02;  9.9627740E+02;  1.0000000E-01; -3.0841091E+03;3; -1.9880917E+01;  0.0000000E+00; -5.5097775E+00;0;  1.6883337E-01;  3.9684773E+04;  0.0000000E+00; -1.0849233E-01;  4.0000000E+04;  0.0000000E+00;  4.0017391E+04;  2.1782275E-01;  0.0000000E+00; -4.8989367E-02;  2.4777397E+03;
  4.2353305E-01;  9.9999998E-03; -2.3996806E-01;5014;  3.1018361E-01;  0.0000000E+00;  1.2929233E-02;  9.9621814E+02;  1.0000000E-01; -3.1331941E+03;3; -1.9187243E+01;  0.0000000E+00; -5.3468690E+00;0;  1.5009168E-01;  3.9680082E+04;  0.0000000E+00; -7.7093586E-02;  4.0000000E+04;  0.0000000E+00;  4.0017445E+04;  1.9086637E-01;  0.0000000E+00; -4.0774681E-02;  2.4980562E+03;
  4.2346588E-01;  9.9999998E-03; -2.2997482E-01;5015;  3.1275633E-01;  0.0000000E+00;  1.2170762E-02;  9.9618512E+02;  1.0000000E-01; -3.1605515E+03;3; -1.8610203E+01;  0.0000000E+00; -5.1803799E+00;0;  1.2716457E-01;  3.9675977E+04;  0.0000000E+00; -4.5279648E-02;  4.0000000E+04;  0.0000000E+00;  4.0019125E+04;  1.6319491E-01;  0.0000000E+00; -3.6030337E-02;  2.6974055E+03;
  4.2339194E-01;  9.9999998E-03; -2.1997850E-01;5016;  3.1545797E-01;  0.0000000E+00;  1.1551441E-02;  9.9616663E+02;  1.0000000E-01; -3.1758596E+03;3; -1.8043482E+01;  0.0000000E+00; -4.9794326E+00;0;  1.0155641E-01;  3.9672828E+04;  0.0000000E+00; -1.5000518E-02;  4.0000000E+04;  0.0000000E+00;  4.0020961E+04;  1.3539277E-01;  0.0000000E+00; -3.3836361E-02;  2.9353108E+03;
  4.2331260E-01;  9.9999998E-03; -2.0998035E-01;5017;  3.1824076E-01;  0.0000000E+00;  1.1036848E-02;  9.9616083E+02;  1.0000000E-01; -3.1806990E+03;3; -1.7638491E+01;  0.0000000E+00; -4.8801951E+00;0;  7.4969500E-02;  3.9670973E+04;  0.0000000E+00;  1.1817746E-02;  4.0000000E+04;  0.0000000E+00;  4.0022438E+04;  1.0813940E-01;  0.0000000E+00; -3.3169895E-02;  3.1230559E+03;
  4.2322922E-01;  9.9999998E-03; -1.9998156E-01;5018;  3.2104632E-01;  0.0000000E+00;  1.0593291E-02;  9.9616913E+02;  1.0000000E-01; -3.1737856E+03;3; -1.7294703E+01;  0.0000000E+00; -4.8486137E+00;0;  4.8754517E-02;  3.9670770E+04;  0.0000000E+00;  3.3395961E-02;  4.0000000E+04;  0.0000000E+00;  4.0023430E+04;  8.2170419E-02;  0.0000000E+00; -3.3415902E-02;  3.2500054E+03;
  4.2314377E-01;  9.9999998E-03; -1.8998285E-01;5019;  3.2380340E-01;  0.0000000E+00;  1.0181080E-02;  9.9619775E+02;  1.0000000E-01; -3.1500825E+03;3; -1.7047209E+01;  0.0000000E+00; -4.8399091E+00;0;  2.3989201E-02;  3.9672488E+04;  0.0000000E+00;  4.8430432E-02;  4.0000000E+04;  0.0000000E+00;  4.0024184E+04;  5.8216322E-02;  0.0000000E+00; -3.4227122E-02;  3.3326936E+03;
  4.2305815E-01;  9.9999998E-03; -1.7998466E-01;5020;  3.2646927E-01;  0.0000000E+00;  9.7876843E-03;  9.9624890E+02;  1.0000000E-01; -3.1077134E+03;3; -1.6808447E+01;  0.0000000E+00; -4.8186021E+00;0;  1.5184656E-03;  3.9676293E+04;  0.0000000E+00;  5.6399729E-02;  4.0000000E+04;  0.0000000E+00;  4.0024613E+04;  3.6931425E-02;  0.0000000E+00; -3.5412960E-02;  3.3861892E+03;
  4.2297477E-01;  9.9999998E-03; -1.6998719E-01;5021;  3.2900879E-01;  0.0000000E+00;  9.4045149E-03;  9.9632562E+02;  1.0000000E-01; -3.0441597E+03;3; -1.6561903E+01;  0.0000000E+00; -4.7708721E+00;0; -1.8027881E-02;  3.9682203E+04;  0.0000000E+00;  5.7801109E-02;  4.0000000E+04;  0.0000000E+00;  4.0024883E+04;  1.8817035E-02;  0.0000000E+00; -3.6844917E-02;  3.4154985E+03;
  4.2289534E-01;  9.9999998E-03; -1.5999039E-01;5022;  3.3139887E-01;  0.0000000E+00;  9.0271188E-03;  9.9642438E+02;  1.0000000E-01; -2.9623350E+03;3; -1.6366968E+01;  0.0000000E+00; -4.7124085E+00;0; -3.4264464E-02;  3.9690117E+04;  0.0000000E+00;  5.4035395E-02;  4.0000000E+04;  0.0000000E+00;  4.0025000E+04;  4.1663419E-03;  0.0000000E+00; -3.8430806E-02;  3.4170139E+03;
  4.2282110E-01;  9.9999998E-03; -1.4999397E-01;5023;  3.3362287E-01;  0.0000000E+00;  8.6522698E-03;  9.9654211E+02;  1.0000000E-01; -2.8648069E+03;3; -1.6212009E+01;  0.0000000E+00; -4.6554503E+00;0; -4.7069531E-02;  3.9699672E+04;  0.0000000E+00;  4.6970755E-02;  4.0000000E+04;  0.0000000E+00;  4.0024793E+04; -6.9646426E-03;  0.0000000E+00; -4.0104888E-02;  3.3829653E+03;
  4.2275295E-01;  9.9999998E-03; -1.3999750E-01;5024;  3.3567604E-01;  0.0000000E+00;  8.2775103E-03;  9.9667151E+02;  1.0000000E-01; -2.7576001E+03;3; -1.6052864E+01;  0.0000000E+00; -4.5663714E+00;0; -5.6565974E-02;  3.9710582E+04;  0.0000000E+00;  3.8392369E-02;  4.0000000E+04;  0.0000000E+00;  4.0024254E+04; -1.4742577E-02;  0.0000000E+00; -4.1823398E-02;  3.3062385E+03;
  4.2269158E-01;  9.9999998E-03; -1.3000064E-01;5025;  3.3755514E-01;  0.0000000E+00;  7.8927698E-03;  9.9680585E+02;  1.0000000E-01; -2.6462944E+03;3; -1.5835724E+01;  0.0000000E+00; -4.4557495E+00;0; -6.3058041E-02;  3.9722305E+04;  0.0000000E+00;  2.9637860E-02;  4.0000000E+04;  0.0000000E+00;  4.0023379E+04; -1.9498903E-02;  0.0000000E+00; -4.3559138E-02;  3.1835701E+03;
  4.2263636E-01;  9.9999998E-03; -1.2000296E-01;5026;  3.3926621E-01;  0.0000000E+00;  7.4892431E-03;  9.9694440E+02;  1.0000000E-01; -2.5315325E+03;3; -1.5511705E+01;  0.0000000E+00; -4.2703862E+00;0; -6.6947073E-02;  3.9734609E+04;  0.0000000E+00;  2.1587461E-02;  4.0000000E+04;  0.0000000E+00;  4.0022160E+04; -2.1653002E-02;  0.0000000E+00; -4.5294072E-02;  3.0175693E+03;
  4.2258689E-01;  9.9999998E-03; -1.1000416E-01;5027;  3.4080505E-01;  0.0000000E+00;  7.0569869E-03;  9.9708008E+02;  1.0000000E-01; -2.4190911E+03;3; -1.5160478E+01;  0.0000000E+00; -4.0280094E+00;0; -6.8681255E-02;  3.9746930E+04;  0.0000000E+00;  1.4799734E-02;  4.0000000E+04;  0.0000000E+00;  4.0020680E+04; -2.1665325E-02;  0.0000000E+00; -4.7015931E-02;  2.8176108E+03;
  4.3378818E-01;  9.9999998E-03; -2.6993355E-01;5072;  3.0239627E-01;  0.0000000E+00;  1.3239898E-02;  9.9664880E+02;  1.0000000E-01; -2.7764141E+03;3; -2.1287760E+01;  0.0000000E+00; -6.6916175E+00;0;  1.3932616E-01;  3.9707777E+04;  0.0000000E+00; -1.7652433E-01;  4.0000000E+04;  0.0000000E+00;  4.0023664E+04;  1.9612026E-01;  0.0000000E+00; -5.6794100E-02;  3.2353184E+03;
  4.3373147E-01;  9.9999998E-03; -2.5994584E-01;5073;  3.0487502E-01;  0.0000000E+00;  1.2886437E-02;  9.9652667E+02;  1.0000000E-01; -2.8775964E+03;3; -2.0699751E+01;  0.0000000E+00; -6.5841489E+00;0;  1.2682723E-01;  3.9703277E+04;  0.0000000E+00; -1.5999526E-01;  4.0000000E+04;  0.0000000E+00;  4.0018441E+04;  1.7578262E-01;  0.0000000E+00; -4.8955392E-02;  2.5873655E+03;
  4.3367121E-01;  9.9999998E-03; -2.4995923E-01;5074;  3.0734777E-01;  0.0000000E+00;  1.2314253E-02;  9.9643665E+02;  1.0000000E-01; -2.9521621E+03;3; -2.0144217E+01;  0.0000000E+00; -6.4351277E+00;0;  1.1343181E-01;  3.9699074E+04;  0.0000000E+00; -1.3792232E-01;  4.0000000E+04;  0.0000000E+00;  4.0015578E+04;  1.5426031E-01;  0.0000000E+00; -4.0828492E-02;  2.2454575E+03;
  4.3360505E-01;  9.9999998E-03; -2.3997129E-01;5075;  3.0985564E-01;  0.0000000E+00;  1.1658054E-02;  9.9639001E+02;  1.0000000E-01; -2.9908276E+03;3; -1.9610279E+01;  0.0000000E+00; -6.3676772E+00;0;  9.7065046E-02;  3.9695184E+04;  0.0000000E+00; -1.1279865E-01;  4.0000000E+04;  0.0000000E+00;  4.0015801E+04;  1.3187258E-01;  0.0000000E+00; -3.4807537E-02;  2.2773586E+03;
  4.3353185E-01;  9.9999998E-03; -2.2998013E-01;5076;  3.1243441E-01;  0.0000000E+00;  1.1049963E-02;  9.9637463E+02;  1.0000000E-01; -3.0035681E+03;3; -1.9116032E+01;  0.0000000E+00; -6.2639384E+00;0;  7.7693023E-02;  3.9691859E+04;  0.0000000E+00; -8.6239941E-02;  4.0000000E+04;  0.0000000E+00;  4.0017902E+04;  1.0904352E-01;  0.0000000E+00; -3.1350493E-02;  2.5513835E+03;
  4.3345192E-01;  9.9999998E-03; -2.1998568E-01;5077;  3.1511119E-01;  0.0000000E+00;  1.0551704E-02;  9.9637482E+02;  1.0000000E-01; -3.0033706E+03;3; -1.8754137E+01;  0.0000000E+00; -6.2346478E+00;0;  5.6458429E-02;  3.9689414E+04;  0.0000000E+00; -5.9541639E-02;  4.0000000E+04;  0.0000000E+00;  4.0020602E+04;  8.6298823E-02;  0.0000000E+00; -2.9840397E-02;  2.8770569E+03;
  4.3336684E-01;  9.9999998E-03; -2.0998901E-01;5078;  3.1786281E-01;  0.0000000E+00;  1.0154220E-02;  9.9638538E+02;  1.0000000E-01; -2.9946299E+03;3; -1.8429216E+01;  0.0000000E+00; -6.1979189E+00;0;  3.4726091E-02;  3.9688211E+04;  0.0000000E+00; -3.4045897E-02;  4.0000000E+04;  0.0000000E+00;  4.0022707E+04;  6.4239368E-02;  0.0000000E+00; -2.9513279E-02;  3.1465596E+03;
  4.3327844E-01;  9.9999998E-03; -1.9999127E-01;5079;  3.2063168E-01;  0.0000000E+00;  9.8198736E-03;  9.9640613E+02;  1.0000000E-01; -2.9774453E+03;3; -1.8181089E+01;  0.0000000E+00; -6.2020178E+00;0;  1.3613809E-02;  3.9688512E+04;  0.0000000E+00; -1.1240192E-02;  4.0000000E+04;  0.0000000E+00;  4.0024301E+04;  4.3503366E-02;  0.0000000E+00; -2.9889558E-02;  3.3359497E+03;
  4.3318880E-01;  9.9999998E-03; -1.8999325E-01;5080;  3.2336167E-01;  0.0000000E+00;  9.5195947E-03;  9.9644220E+02;  1.0000000E-01; -2.9475696E+03;3; -1.7999428E+01;  0.0000000E+00; -6.1820154E+00;0; -6.0152486E-03;  3.9690539E+04;  0.0000000E+00;  7.4513368E-03;  4.0000000E+04;  0.0000000E+00;  4.0025316E+04;  2.4707360E-02;  0.0000000E+00; -3.0722609E-02;  3.4574092E+03;
  4.3309957E-01;  9.9999998E-03; -1.7999543E-01;5081;  3.2601249E-01;  0.0000000E+00;  9.2372019E-03;  9.9649817E+02;  1.0000000E-01; -2.9012007E+03;3; -1.7858652E+01;  0.0000000E+00; -6.2073894E+00;0; -2.3500722E-02;  3.9694590E+04;  0.0000000E+00;  2.0967457E-02;  4.0000000E+04;  0.0000000E+00;  4.0025914E+04;  8.3809681E-03;  0.0000000E+00; -3.1881690E-02;  3.5275613E+03;
  4.3301260E-01;  9.9999998E-03; -1.6999801E-01;5082;  3.2854778E-01;  0.0000000E+00;  8.9574195E-03;  9.9657587E+02;  1.0000000E-01; -2.8368074E+03;3; -1.7772936E+01;  0.0000000E+00; -6.2459869E+00;0; -3.8377371E-02;  3.9700512E+04;  0.0000000E+00;  2.8997794E-02;  4.0000000E+04;  0.0000000E+00;  4.0026176E+04; -5.0988127E-03;  0.0000000E+00; -3.3278558E-02;  3.5564888E+03;
  4.3292969E-01;  9.9999998E-03; -1.6000099E-01;5083;  3.3094662E-01;  0.0000000E+00;  8.6777862E-03;  9.9667358E+02;  1.0000000E-01; -2.7558713E+03;3; -1.7737795E+01;  0.0000000E+00; -6.2758641E+00;0; -5.0400302E-02;  3.9708340E+04;  0.0000000E+00;  3.2093596E-02;  4.0000000E+04;  0.0000000E+00;  4.0026191E+04; -1.5551922E-02;  0.0000000E+00; -3.4848381E-02;  3.5467546E+03;
  4.3285209E-01;  9.9999998E-03; -1.5000421E-01;5084;  3.3319435E-01;  0.0000000E+00;  8.3913403E-03;  9.9678894E+02;  1.0000000E-01; -2.6603186E+03;3; -1.7755875E+01;  0.0000000E+00; -6.3345499E+00;0; -5.9545569E-02;  3.9718004E+04;  0.0000000E+00;  3.1434763E-02;  4.0000000E+04;  0.0000000E+00;  4.0025859E+04; -2.3006877E-02;  0.0000000E+00; -3.6538690E-02;  3.4967852E+03;
  4.3278080E-01;  9.9999998E-03; -1.4000730E-01;5085;  3.3528575E-01;  0.0000000E+00;  8.0933711E-03;  9.9691760E+02;  1.0000000E-01; -2.5537043E+03;3; -1.7796757E+01;  0.0000000E+00; -6.3819380E+00;0; -6.5985292E-02;  3.9728965E+04;  0.0000000E+00;  2.8369529E-02;  4.0000000E+04;  0.0000000E+00;  4.0025176E+04; -2.7675502E-02;  0.0000000E+00; -3.8309794E-02;  3.4046113E+03;
  4.3271574E-01;  9.9999998E-03; -1.3000984E-01;5086;  3.3722216E-01;  0.0000000E+00;  7.7779475E-03;  9.9705560E+02;  1.0000000E-01; -2.4393867E+03;3; -1.7763199E+01;  0.0000000E+00; -6.3956323E+00;0; -7.0025451E-02;  3.9741047E+04;  0.0000000E+00;  2.4024444E-02;  4.0000000E+04;  0.0000000E+00;  4.0024262E+04; -2.9890856E-02;  0.0000000E+00; -4.0134598E-02;  3.2705117E+03;
  4.3265721E-01;  9.9999998E-03; -1.2001149E-01;5087;  3.3900085E-01;  0.0000000E+00;  7.4341660E-03;  9.9719788E+02;  1.0000000E-01; -2.3215134E+03;3; -1.7759352E+01;  0.0000000E+00; -6.3860250E+00;0; -7.2035365E-02;  3.9753652E+04;  0.0000000E+00;  1.9212352E-02;  4.0000000E+04;  0.0000000E+00;  4.0022980E+04; -3.0041127E-02;  0.0000000E+00; -4.1994236E-02;  3.0988923E+03;
  4.3260524E-01;  9.9999998E-03; -1.1001197E-01;5088;  3.4062374E-01;  0.0000000E+00;  7.0564128E-03;  9.9733990E+02;  1.0000000E-01; -2.2038379E+03;3; -1.7766663E+01;  0.0000000E+00; -6.2975454E+00;0; -7.2404169E-02;  3.9766559E+04;  0.0000000E+00;  1.4582438E-02;  4.0000000E+04;  0.0000000E+00;  4.0021461E+04; -2.8530931E-02;  0.0000000E+00; -4.3873239E-02;  2.8998418E+03;
  4.4386831E-01;  9.9999998E-03; -2.6992530E-01;5133;  3.0187613E-01;  0.0000000E+00;  1.1129362E-02;  9.9687500E+02;  1.0000000E-01; -2.5890117E+03;3; -2.1249628E+01;  0.0000000E+00; -7.3280258E+00;0;  9.1650337E-02;  3.9722781E+04;  0.0000000E+00; -1.7176543E-01;  4.0000000E+04;  0.0000000E+00;  4.0026562E+04;  1.3044523E-01;  0.0000000E+00; -3.8794890E-02;  3.5790105E+03;
  4.4380701E-01;  9.9999998E-03; -2.5993809E-01;5134;  3.0433920E-01;  0.0000000E+00;  1.1068841E-02;  9.9674359E+02;  1.0000000E-01; -2.6978481E+03;3; -2.0764565E+01;  0.0000000E+00; -7.3108220E+00;0;  7.7817783E-02;  3.9718680E+04;  0.0000000E+00; -1.6931356E-01;  4.0000000E+04;  0.0000000E+00;  4.0020230E+04;  1.1406695E-01;  0.0000000E+00; -3.6249172E-02;  2.8098027E+03;
  4.4374141E-01;  9.9999998E-03; -2.4995241E-01;5135;  3.0680478E-01;  0.0000000E+00;  1.0685458E-02;  9.9664752E+02;  1.0000000E-01; -2.7774509E+03;3; -2.0285900E+01;  0.0000000E+00; -7.2185183E+00;0;  6.5509424E-02;  3.9714625E+04;  0.0000000E+00; -1.5816154E-01;  4.0000000E+04;  0.0000000E+00;  4.0016637E+04;  9.6816927E-02;  0.0000000E+00; -3.1307507E-02;  2.3618889E+03;
  4.4367018E-01;  9.9999998E-03; -2.3996529E-01;5136;  3.0931059E-01;  0.0000000E+00;  1.0197288E-02;  9.9659827E+02;  1.0000000E-01; -2.8182891E+03;3; -1.9781786E+01;  0.0000000E+00; -7.1121631E+00;0;  5.1521301E-02;  3.9711059E+04;  0.0000000E+00; -1.4187479E-01;  4.0000000E+04;  0.0000000E+00;  4.0016453E+04;  7.8962207E-02;  0.0000000E+00; -2.7440906E-02;  2.3468057E+03;
  4.4359273E-01;  9.9999998E-03; -2.2997509E-01;5137;  3.1189075E-01;  0.0000000E+00;  9.7401673E-03;  9.9658496E+02;  1.0000000E-01; -2.8293013E+03;3; -1.9429745E+01;  0.0000000E+00; -7.0940852E+00;0;  3.5497256E-02;  3.9707969E+04;  0.0000000E+00; -1.2235089E-01;  4.0000000E+04;  0.0000000E+00;  4.0018469E+04;  6.0871139E-02;  0.0000000E+00; -2.5373885E-02;  2.6032581E+03;
  4.4350916E-01;  9.9999998E-03; -2.1998195E-01;5138;  3.1456339E-01;  0.0000000E+00;  9.3858903E-03;  9.9658887E+02;  1.0000000E-01; -2.8260420E+03;3; -1.9176744E+01;  0.0000000E+00; -7.1171136E+00;0;  1.8287266E-02;  3.9705773E+04;  0.0000000E+00; -1.0070207E-01;  4.0000000E+04;  0.0000000E+00;  4.0021094E+04;  4.3001615E-02;  0.0000000E+00; -2.4714349E-02;  2.9281873E+03;
  4.4342020E-01;  9.9999998E-03; -2.0998685E-01;5139;  3.1730393E-01;  0.0000000E+00;  9.1213491E-03;  9.9660095E+02;  1.0000000E-01; -2.8160669E+03;3; -1.8981802E+01;  0.0000000E+00; -7.1718612E+00;0;  9.9297613E-04;  3.9704625E+04;  0.0000000E+00; -7.7932253E-02;  4.0000000E+04;  0.0000000E+00;  4.0023371E+04;  2.5870981E-02;  0.0000000E+00; -2.4878005E-02;  3.2102373E+03;
  4.4332734E-01;  9.9999998E-03; -1.9999063E-01;5140;  3.2006201E-01;  0.0000000E+00;  8.9148674E-03;  9.9662543E+02;  1.0000000E-01; -2.7957712E+03;3; -1.8872417E+01;  0.0000000E+00; -7.2529373E+00;0; -1.5515532E-02;  3.9704934E+04;  0.0000000E+00; -5.5319563E-02;  4.0000000E+04;  0.0000000E+00;  4.0025078E+04;  1.0013927E-02;  0.0000000E+00; -2.5529459E-02;  3.4193384E+03;
  4.4323263E-01;  9.9999998E-03; -1.8999390E-01;5141;  3.2278630E-01;  0.0000000E+00;  8.7360097E-03;  9.9666272E+02;  1.0000000E-01; -2.7648586E+03;3; -1.8837320E+01;  0.0000000E+00; -7.3646770E+00;0; -3.0589007E-02;  3.9706988E+04;  0.0000000E+00; -3.4337010E-02;  4.0000000E+04;  0.0000000E+00;  4.0026238E+04; -4.0704850E-03;  0.0000000E+00; -2.6518522E-02;  3.5594497E+03;
  4.4313830E-01;  9.9999998E-03; -1.7999703E-01;5142;  3.2543576E-01;  0.0000000E+00;  8.5649239E-03;  9.9671759E+02;  1.0000000E-01; -2.7194277E+03;3; -1.8874321E+01;  0.0000000E+00; -7.5092425E+00;0; -4.3752700E-02;  3.9710703E+04;  0.0000000E+00; -1.6444035E-02;  4.0000000E+04;  0.0000000E+00;  4.0026887E+04; -1.5975505E-02;  0.0000000E+00; -2.7777193E-02;  3.6423623E+03;
  4.4304660E-01;  9.9999998E-03; -1.7000024E-01;5143;  3.2797959E-01;  0.0000000E+00;  8.3907330E-03;  9.9679199E+02;  1.0000000E-01; -2.6577505E+03;3; -1.8972364E+01;  0.0000000E+00; -7.6661320E+00;0; -5.4696690E-02;  3.9716410E+04;  0.0000000E+00; -2.6477415E-03;  4.0000000E+04;  0.0000000E+00;  4.0027305E+04; -2.5436876E-02;  0.0000000E+00; -2.9259814E-02;  3.6768979E+03;
  4.4295910E-01;  9.9999998E-03; -1.6000362E-01;5144;  3.3039713E-01;  0.0000000E+00;  8.2042916E-03;  9.9688586E+02;  1.0000000E-01; -2.5800244E+03;3; -1.9107630E+01;  0.0000000E+00; -7.8556800E+00;0; -6.3286327E-02;  3.9723980E+04;  0.0000000E+00;  6.7994911E-03;  4.0000000E+04;  0.0000000E+00;  4.0027297E+04; -3.2364175E-02;  0.0000000E+00; -3.0922152E-02;  3.6675681E+03;
  4.4287702E-01;  9.9999998E-03; -1.5000705E-01;5145;  3.3267650E-01;  0.0000000E+00;  7.9993317E-03;  9.9699884E+02;  1.0000000E-01; -2.4863975E+03;3; -1.9310856E+01;  0.0000000E+00; -8.0543928E+00;0; -6.9560684E-02;  3.9733336E+04;  0.0000000E+00;  1.2369759E-02;  4.0000000E+04;  0.0000000E+00;  4.0026945E+04; -3.6841840E-02;  0.0000000E+00; -3.2718845E-02;  3.6160974E+03;
  4.4280082E-01;  9.9999998E-03; -1.4001015E-01;5146;  3.3481464E-01;  0.0000000E+00;  7.7707362E-03;  9.9712433E+02;  1.0000000E-01; -2.3824500E+03;3; -1.9535784E+01;  0.0000000E+00; -8.2611370E+00;0; -7.3703349E-02;  3.9744176E+04;  0.0000000E+00;  1.4919553E-02;  4.0000000E+04;  0.0000000E+00;  4.0026340E+04; -3.9095163E-02;  0.0000000E+00; -3.4608189E-02;  3.5238140E+03;
  4.4273114E-01;  9.9999998E-03; -1.3001248E-01;5147;  3.3680689E-01;  0.0000000E+00;  7.5104404E-03;  9.9726025E+02;  1.0000000E-01; -2.2698110E+03;3; -1.9815243E+01;  0.0000000E+00; -8.4851389E+00;0; -7.5988956E-02;  3.9756141E+04;  0.0000000E+00;  1.5277170E-02;  4.0000000E+04;  0.0000000E+00;  4.0025379E+04; -3.9431442E-02;  0.0000000E+00; -3.6557514E-02;  3.3933865E+03;
  4.4266883E-01;  9.9999998E-03; -1.2001390E-01;5148;  3.3865130E-01;  0.0000000E+00;  7.2122160E-03;  9.9740637E+02;  1.0000000E-01; -2.1487776E+03;3; -2.0157906E+01;  0.0000000E+00; -8.6673508E+00;0; -7.6729730E-02;  3.9768852E+04;  0.0000000E+00;  1.4126631E-02;  4.0000000E+04;  0.0000000E+00;  4.0024160E+04; -3.8185135E-02;  0.0000000E+00; -3.8544599E-02;  3.2305171E+03;
  4.4261289E-01;  9.9999998E-03; -1.1001422E-01;5149;  3.4035212E-01;  0.0000000E+00;  6.8729315E-03;  9.9755310E+02;  1.0000000E-01; -2.0272008E+03;3; -2.0600344E+01;  0.0000000E+00; -8.8374977E+00;0; -7.6240525E-02;  3.9781914E+04;  0.0000000E+00;  1.2137804E-02;  4.0000000E+04;  0.0000000E+00;  4.0022754E+04; -3.5689723E-02;  0.0000000E+00; -4.0550798E-02;  3.0456707E+03;
  4.5395008E-01;  9.9999998E-03; -2.6991561E-01;5194;  3.0119622E-01;  0.0000000E+00;  8.9027733E-03;  9.9711243E+02;  1.0000000E-01; -2.3922766E+03;3; -2.1200571E+01;  0.0000000E+00; -7.8221393E+00;0;  5.2054379E-02;  3.9738785E+04;  0.0000000E+00; -1.5004618E-01;  4.0000000E+04;  0.0000000E+00;  4.0029527E+04;  7.2416335E-02;  0.0000000E+00; -2.0361956E-02;  3.9398418E+03;
  4.5388409E-01;  9.9999998E-03; -2.5992578E-01;5195;  3.0367640E-01;  0.0000000E+00;  9.1435900E-03;  9.9699011E+02;  1.0000000E-01; -2.4936565E+03;3; -2.0745079E+01;  0.0000000E+00; -7.8790631E+00;0;  3.6795124E-02;  3.9734387E+04;  0.0000000E+00; -1.6555987E-01;  4.0000000E+04;  0.0000000E+00;  4.0024184E+04;  5.9802823E-02;  0.0000000E+00; -2.3007696E-02;  3.2868477E+03;
  4.5381424E-01;  9.9999998E-03; -2.4993795E-01;5196;  3.0614895E-01;  0.0000000E+00;  8.9935437E-03;  9.9689001E+02;  1.0000000E-01; -2.5765676E+03;3; -2.0310385E+01;  0.0000000E+00; -7.8444638E+00;0;  2.5151230E-02;  3.9730121E+04;  0.0000000E+00; -1.6825654E-01;  4.0000000E+04;  0.0000000E+00;  4.0020488E+04;  4.6563391E-02;  0.0000000E+00; -2.1412160E-02;  2.8301038E+03;
  4.5373896E-01;  9.9999998E-03; -2.3994941E-01;5197;  3.0864686E-01;  0.0000000E+00;  8.6665871E-03;  9.9682990E+02;  1.0000000E-01; -2.6263936E+03;3; -1.9926779E+01;  0.0000000E+00; -7.7760653E+00;0;  1.3412416E-02;  3.9726336E+04;  0.0000000E+00; -1.6263291E-01;  4.0000000E+04;  0.0000000E+00;  4.0019656E+04;  3.2928813E-02;  0.0000000E+00; -1.9516397E-02;  2.7291953E+03;
  4.5365661E-01;  9.9999998E-03; -2.2995882E-01;5198;  3.1120864E-01;  0.0000000E+00;  8.3560580E-03;  9.9680371E+02;  1.0000000E-01; -2.6480718E+03;3; -1.9656761E+01;  0.0000000E+00; -7.7956786E+00;0;  4.6080165E-04;  3.9723023E+04;  0.0000000E+00; -1.5123972E-01;  4.0000000E+04;  0.0000000E+00;  4.0020840E+04;  1.9216765E-02;  0.0000000E+00; -1.8755963E-02;  2.8734138E+03;
  4.5356753E-01;  9.9999998E-03; -2.1996617E-01;5199;  3.1387267E-01;  0.0000000E+00;  8.1416201E-03;  9.9679352E+02;  1.0000000E-01; -2.6565161E+03;3; -1.9531782E+01;  0.0000000E+00; -7.9223676E+00;0; -1.3146374E-02;  3.9720473E+04;  0.0000000E+00; -1.3558096E-01;  4.0000000E+04;  0.0000000E+00;  4.0022684E+04;  5.8086547E-03;  0.0000000E+00; -1.8955030E-02;  3.1053984E+03;
  4.5347291E-01;  9.9999998E-03; -2.0997220E-01;5200;  3.1661221E-01;  0.0000000E+00;  8.0130128E-03;  9.9679700E+02;  1.0000000E-01; -2.6536025E+03;3; -1.9503443E+01;  0.0000000E+00; -8.0761595E+00;0; -2.6544364E-02;  3.9719098E+04;  0.0000000E+00; -1.1666840E-01;  4.0000000E+04;  0.0000000E+00;  4.0024469E+04; -6.8719243E-03;  0.0000000E+00; -1.9672440E-02;  3.3285742E+03;
  4.5337456E-01;  9.9999998E-03; -1.9997750E-01;5201;  3.1937099E-01;  0.0000000E+00;  7.9320949E-03;  9.9681256E+02;  1.0000000E-01; -2.6407141E+03;3; -1.9537161E+01;  0.0000000E+00; -8.2536831E+00;0; -3.9078485E-02;  3.9719000E+04;  0.0000000E+00; -9.5618069E-02;  4.0000000E+04;  0.0000000E+00;  4.0025973E+04; -1.8397057E-02;  0.0000000E+00; -2.0681428E-02;  3.5100916E+03;
  4.5327473E-01;  9.9999998E-03; -1.8998232E-01;5202;  3.2209921E-01;  0.0000000E+00;  7.8704236E-03;  9.9684406E+02;  1.0000000E-01; -2.6146406E+03;3; -1.9646673E+01;  0.0000000E+00; -8.4729881E+00;0; -5.0301615E-02;  3.9720461E+04;  0.0000000E+00; -7.3850386E-02;  4.0000000E+04;  0.0000000E+00;  4.0026973E+04; -2.8380748E-02;  0.0000000E+00; -2.1920867E-02;  3.6444377E+03;
  4.5317531E-01;  9.9999998E-03; -1.7998689E-01;5203;  3.2475728E-01;  0.0000000E+00;  7.8066844E-03;  9.9689276E+02;  1.0000000E-01; -2.5742961E+03;3; -1.9824047E+01;  0.0000000E+00; -8.7179289E+00;0; -5.9903249E-02;  3.9723660E+04;  0.0000000E+00; -5.3059928E-02;  4.0000000E+04;  0.0000000E+00;  4.0027805E+04; -3.6525417E-02;  0.0000000E+00; -2.3377830E-02;  3.7328840E+03;
  4.5307836E-01;  9.9999998E-03; -1.6999133E-01;5204;  3.2731524E-01;  0.0000000E+00;  7.7249981E-03;  9.9696063E+02;  1.0000000E-01; -2.5180510E+03;3; -2.0088646E+01;  0.0000000E+00; -9.0031214E+00;0; -6.7700163E-02;  3.9728684E+04;  0.0000000E+00; -3.4794711E-02;  4.0000000E+04;  0.0000000E+00;  4.0028133E+04; -4.2661868E-02;  0.0000000E+00; -2.5038293E-02;  3.7778191E+03;
  4.5298555E-01;  9.9999998E-03; -1.5999554E-01;5205;  3.2975665E-01;  0.0000000E+00;  7.6152044E-03;  9.9704425E+02;  1.0000000E-01; -2.4487690E+03;3; -2.0361588E+01;  0.0000000E+00; -9.2991638E+00;0; -7.3639236E-02;  3.9735602E+04;  0.0000000E+00; -2.0008370E-02;  4.0000000E+04;  0.0000000E+00;  4.0028262E+04; -4.6767902E-02;  0.0000000E+00; -2.6871335E-02;  3.7806216E+03;
  4.5289844E-01;  9.9999998E-03; -1.4999953E-01;5206;  3.3207104E-01;  0.0000000E+00;  7.4706688E-03;  9.9715100E+02;  1.0000000E-01; -2.3603271E+03;3; -2.0624508E+01;  0.0000000E+00; -9.5757256E+00;0; -7.7789791E-02;  3.9744180E+04;  0.0000000E+00; -8.9060394E-03;  4.0000000E+04;  0.0000000E+00;  4.0028098E+04; -4.8958544E-02;  0.0000000E+00; -2.8831247E-02;  3.7425847E+03;
  4.5281768E-01;  9.9999998E-03; -1.4000309E-01;5207;  3.3424658E-01;  0.0000000E+00;  7.2848680E-03;  9.9727112E+02;  1.0000000E-01; -2.2608237E+03;3; -2.1027033E+01;  0.0000000E+00; -9.8572474E+00;0; -8.0315977E-02;  3.9754316E+04;  0.0000000E+00; -1.1421525E-03;  4.0000000E+04;  0.0000000E+00;  4.0027547E+04; -4.9447943E-02;  0.0000000E+00; -3.0868037E-02;  3.6659578E+03;
  4.5274350E-01;  9.9999998E-03; -1.3000593E-01;5208;  3.3627892E-01;  0.0000000E+00;  7.0506474E-03;  9.9740204E+02;  1.0000000E-01; -2.1523823E+03;3; -2.1543568E+01;  0.0000000E+00; -1.0145809E+01;0; -8.1437752E-02;  3.9765715E+04;  0.0000000E+00;  3.7860037E-03;  4.0000000E+04;  0.0000000E+00;  4.0026746E+04; -4.8496895E-02;  0.0000000E+00; -3.2940853E-02;  3.5546025E+03;
  4.5267630E-01;  9.9999998E-03; -1.2000774E-01;5209;  3.3817253E-01;  0.0000000E+00;  6.7680972E-03;  9.9754468E+02;  1.0000000E-01; -2.0341636E+03;3; -2.2118093E+01;  0.0000000E+00; -1.0378638E+01;0; -8.1398025E-02;  3.9778113E+04;  0.0000000E+00;  6.3767019E-03;  4.0000000E+04;  0.0000000E+00;  4.0025742E+04; -4.6374567E-02;  0.0000000E+00; -3.5023458E-02;  3.4149724E+03;
  4.5261657E-01;  9.9999998E-03; -1.1000838E-01;5210;  3.3993644E-01;  0.0000000E+00;  6.4418400E-03;  9.9769263E+02;  1.0000000E-01; -1.9115992E+03;3; -2.2794220E+01;  0.0000000E+00; -1.0493710E+01;0; -8.0436595E-02;  3.9791098E+04;  0.0000000E+00;  7.2538801E-03;  4.0000000E+04;  0.0000000E+00;  4.0024508E+04; -4.3342836E-02;  0.0000000E+00; -3.7093759E-02;  3.2573459E+03;
  4.6400610E-01;  9.9999998E-03; -2.6990983E-01;5255;  3.0050716E-01;  0.0000000E+00;  7.2521679E-03;  9.9726886E+02;  1.0000000E-01; -2.2626997E+03;3; -2.1142160E+01;  0.0000000E+00; -8.4400110E+00;0;  1.3193603E-02;  3.9752965E+04;  0.0000000E+00; -1.1208813E-01;  4.0000000E+04;  0.0000000E+00;  4.0027922E+04;  2.2930814E-02;  0.0000000E+00; -9.7372113E-03;  3.7263708E+03;
  4.6394560E-01;  9.9999998E-03; -2.5991642E-01;5256;  3.0295330E-01;  0.0000000E+00;  7.4809729E-03;  9.9717346E+02;  1.0000000E-01; -2.3417097E+03;3; -2.0826185E+01;  0.0000000E+00; -8.5221128E+00;0;  8.9890044E-04;  3.9748211E+04;  0.0000000E+00; -1.4843833E-01;  4.0000000E+04;  0.0000000E+00;  4.0025059E+04;  1.3652345E-02;  0.0000000E+00; -1.2753445E-02;  3.3765415E+03;
  4.6387908E-01;  9.9999998E-03; -2.4992388E-01;5257;  3.0543169E-01;  0.0000000E+00;  7.4457950E-03;  9.9708990E+02;  1.0000000E-01; -2.4109424E+03;3; -2.0450069E+01;  0.0000000E+00; -8.5402689E+00;0; -8.7817702E-03;  3.9743484E+04;  0.0000000E+00; -1.6723992E-01;  4.0000000E+04;  0.0000000E+00;  4.0023160E+04;  3.9581084E-03;  0.0000000E+00; -1.2739878E-02;  3.1516072E+03;
  4.6380463E-01;  9.9999998E-03; -2.3993121E-01;5258;  3.0793703E-01;  0.0000000E+00;  7.2777024E-03;  9.9703046E+02;  1.0000000E-01; -2.4602249E+03;3; -2.0168400E+01;  0.0000000E+00; -8.5321236E+00;0; -1.8233914E-02;  3.9739156E+04;  0.0000000E+00; -1.7351042E-01;  4.0000000E+04;  0.0000000E+00;  4.0022730E+04; -5.9546656E-03;  0.0000000E+00; -1.2279249E-02;  3.1037156E+03;
  4.6372151E-01;  9.9999998E-03; -2.2993776E-01;5259;  3.1049407E-01;  0.0000000E+00;  7.0997444E-03;  9.9698956E+02;  1.0000000E-01; -2.4941003E+03;3; -1.9914263E+01;  0.0000000E+00; -8.5737829E+00;0; -2.8243341E-02;  3.9735309E+04;  0.0000000E+00; -1.7092618E-01;  4.0000000E+04;  0.0000000E+00;  4.0023344E+04; -1.5828583E-02;  0.0000000E+00; -1.2414757E-02;  3.1849595E+03;
  4.6362981E-01;  9.9999998E-03; -2.1994348E-01;5260;  3.1315020E-01;  0.0000000E+00;  7.0066177E-03;  9.9696375E+02;  1.0000000E-01; -2.5154824E+03;3; -1.9965782E+01;  0.0000000E+00; -8.8193121E+00;0; -3.8586400E-02;  3.9732285E+04;  0.0000000E+00; -1.6177446E-01;  4.0000000E+04;  0.0000000E+00;  4.0024492E+04; -2.5356762E-02;  0.0000000E+00; -1.3229638E-02;  3.3234663E+03;
  4.6353111E-01;  9.9999998E-03; -2.0994878E-01;5261;  3.1588984E-01;  0.0000000E+00;  6.9947043E-03;  9.9695154E+02;  1.0000000E-01; -2.5256057E+03;3; -2.0000168E+01;  0.0000000E+00; -9.0000448E+00;0; -4.8590679E-02;  3.9730227E+04;  0.0000000E+00; -1.4745128E-01;  4.0000000E+04;  0.0000000E+00;  4.0025688E+04; -3.4208648E-02;  0.0000000E+00; -1.4382032E-02;  3.4684954E+03;
  4.6342716E-01;  9.9999998E-03; -1.9995405E-01;5262;  3.1864578E-01;  0.0000000E+00;  7.0151254E-03;  9.9695386E+02;  1.0000000E-01; -2.5236797E+03;3; -2.0117983E+01;  0.0000000E+00; -9.2515745E+00;0; -5.7776328E-02;  3.9729359E+04;  0.0000000E+00; -1.2907849E-01;  4.0000000E+04;  0.0000000E+00;  4.0026734E+04; -4.2058386E-02;  0.0000000E+00; -1.5717942E-02;  3.6003872E+03;
  4.6332118E-01;  9.9999998E-03; -1.8995947E-01;5263;  3.2137349E-01;  0.0000000E+00;  7.0396173E-03;  9.9697211E+02;  1.0000000E-01; -2.5085691E+03;3; -2.0325939E+01;  0.0000000E+00; -9.5463943E+00;0; -6.5857485E-02;  3.9729977E+04;  0.0000000E+00; -1.0799746E-01;  4.0000000E+04;  0.0000000E+00;  4.0027609E+04; -4.8627190E-02;  0.0000000E+00; -1.7230293E-02;  3.7123420E+03;
  4.6321556E-01;  9.9999998E-03; -1.7996497E-01;5264;  3.2403171E-01;  0.0000000E+00;  7.0421277E-03;  9.9700775E+02;  1.0000000E-01; -2.4790391E+03;3; -2.0623796E+01;  0.0000000E+00; -9.8587332E+00;0; -7.2649695E-02;  3.9732191E+04;  0.0000000E+00; -8.5957810E-02;  4.0000000E+04;  0.0000000E+00;  4.0028344E+04; -5.3715382E-02;  0.0000000E+00; -1.8934315E-02;  3.8000544E+03;
  4.6311256E-01;  9.9999998E-03; -1.6997062E-01;5265;  3.2659519E-01;  0.0000000E+00;  7.0092063E-03;  9.9706403E+02;  1.0000000E-01; -2.4323738E+03;3; -2.0930740E+01;  0.0000000E+00; -1.0125253E+01;0; -7.8058407E-02;  3.9736223E+04;  0.0000000E+00; -6.4836562E-02;  4.0000000E+04;  0.0000000E+00;  4.0028938E+04; -5.7230987E-02;  0.0000000E+00; -2.0827420E-02;  3.8584351E+03;
  4.6301427E-01;  9.9999998E-03; -1.5997615E-01;5266;  3.2904795E-01;  0.0000000E+00;  6.9336533E-03;  9.9713831E+02;  1.0000000E-01; -2.3708452E+03;3; -2.1258623E+01;  0.0000000E+00; -1.0351001E+01;0; -8.2073428E-02;  3.9741914E+04;  0.0000000E+00; -4.6131067E-02;  4.0000000E+04;  0.0000000E+00;  4.0029094E+04; -5.9197865E-02;  0.0000000E+00; -2.2875560E-02;  3.8831804E+03;
  4.6292186E-01;  9.9999998E-03; -1.4998132E-01;5267;  3.3137545E-01;  0.0000000E+00;  6.8076770E-03;  9.9722870E+02;  1.0000000E-01; -2.2959832E+03;3; -2.1681719E+01;  0.0000000E+00; -1.0576116E+01;0; -8.4759988E-02;  3.9749332E+04;  0.0000000E+00; -3.0643102E-02;  4.0000000E+04;  0.0000000E+00;  4.0029195E+04; -5.9738483E-02;  0.0000000E+00; -2.5021506E-02;  3.8718687E+03;
  4.6283627E-01;  9.9999998E-03; -1.3998590E-01;5268;  3.3357233E-01;  0.0000000E+00;  6.6286270E-03;  9.9733850E+02;  1.0000000E-01; -2.2050227E+03;3; -2.2116796E+01;  0.0000000E+00; -1.0733031E+01;0; -8.6239055E-02;  3.9758297E+04;  0.0000000E+00; -1.8518208E-02;  4.0000000E+04;  0.0000000E+00;  4.0028887E+04; -5.9037551E-02;  0.0000000E+00; -2.7201500E-02;  3.8252488E+03;
  4.6275786E-01;  9.9999998E-03; -1.2998953E-01;5269;  3.3563781E-01;  0.0000000E+00;  6.3964184E-03;  9.9746252E+02;  1.0000000E-01; -2.1022603E+03;3; -2.2616320E+01;  0.0000000E+00; -1.0827589E+01;0; -8.6665526E-02;  3.9768715E+04;  0.0000000E+00; -9.5808245E-03;  4.0000000E+04;  0.0000000E+00;  4.0028273E+04; -5.7300638E-02;  0.0000000E+00; -2.9364889E-02;  3.7469927E+03;
  4.6268719E-01;  9.9999998E-03; -1.1999216E-01;5270;  3.3757517E-01;  0.0000000E+00;  6.1152829E-03;  9.9759729E+02;  1.0000000E-01; -1.9906091E+03;3; -2.3209061E+01;  0.0000000E+00; -1.0839672E+01;0; -8.6212516E-02;  3.9780250E+04;  0.0000000E+00; -3.5283384E-03;  4.0000000E+04;  0.0000000E+00;  4.0027609E+04; -5.4731123E-02;  0.0000000E+00; -3.1481393E-02;  3.6437839E+03;
  4.6262497E-01;  9.9999998E-03; -1.0999378E-01;5271;  3.3938682E-01;  0.0000000E+00;  5.7903673E-03;  9.9774109E+02;  1.0000000E-01; -1.8714521E+03;3; -2.3930763E+01;  0.0000000E+00; -1.0760159E+01;0; -8.5050598E-02;  3.9792504E+04;  0.0000000E+00;  1.6269177E-04;  4.0000000E+04;  0.0000000E+00;  4.0026703E+04; -5.1523581E-02;  0.0000000E+00; -3.3527013E-02;  3.5251919E+03;
  4.7399151E-01;  9.9999998E-03; -2.6990637E-01;5316;  2.9979372E-01;  0.0000000E+00;  6.0560615E-03;  9.9733331E+02;  1.0000000E-01; -2.2093184E+03;3; -2.1134897E+01;  0.0000000E+00; -9.0112724E+00;0; -2.3209345E-02;  3.9762406E+04;  0.0000000E+00; -6.7482740E-02;  4.0000000E+04;  0.0000000E+00;  4.0023684E+04; -1.7913962E-02;  0.0000000E+00; -5.2953837E-03;  3.1863267E+03;
  4.7393936E-01;  9.9999998E-03; -2.5991017E-01;5317;  3.0219352E-01;  0.0000000E+00;  6.1293063E-03;  9.9726208E+02;  1.0000000E-01; -2.2683291E+03;3; -2.0857874E+01;  0.0000000E+00; -9.0761633E+00;0; -3.0242179E-02;  3.9757277E+04;  0.0000000E+00; -1.2066008E-01;  4.0000000E+04;  0.0000000E+00;  4.0023090E+04; -2.4343686E-02;  0.0000000E+00; -5.8984929E-03;  3.1270461E+03;
  4.7388175E-01;  9.9999998E-03; -2.4991298E-01;5318;  3.0465394E-01;  0.0000000E+00;  6.0686436E-03;  9.9720380E+02;  1.0000000E-01; -2.3166240E+03;3; -2.0588039E+01;  0.0000000E+00; -9.0840406E+00;0; -3.6587734E-02;  3.9752168E+04;  0.0000000E+00; -1.5425704E-01;  4.0000000E+04;  0.0000000E+00;  4.0023648E+04; -3.1033210E-02;  0.0000000E+00; -5.5545243E-03;  3.2002739E+03;
  4.7381753E-01;  9.9999998E-03; -2.3991574E-01;5319;  3.0716535E-01;  0.0000000E+00;  5.9967902E-03;  9.9714984E+02;  1.0000000E-01; -2.3613140E+03;3; -2.0332710E+01;  0.0000000E+00; -9.0706186E+00;0; -4.3557756E-02;  3.9747375E+04;  0.0000000E+00; -1.7252915E-01;  4.0000000E+04;  0.0000000E+00;  4.0024293E+04; -3.7819162E-02;  0.0000000E+00; -5.7385932E-03;  3.2863721E+03;
  4.7374514E-01;  9.9999998E-03; -2.2991857E-01;5320;  3.0972636E-01;  0.0000000E+00;  5.9309634E-03;  9.9710352E+02;  1.0000000E-01; -2.3996831E+03;3; -2.0171629E+01;  0.0000000E+00; -9.1006746E+00;0; -5.0944660E-02;  3.9743012E+04;  0.0000000E+00; -1.7922695E-01;  4.0000000E+04;  0.0000000E+00;  4.0024941E+04; -4.4493075E-02;  0.0000000E+00; -6.4515835E-03;  3.3756794E+03;
  4.7366217E-01;  9.9999998E-03; -2.1992141E-01;5321;  3.1236750E-01;  0.0000000E+00;  5.9284428E-03;  9.9706598E+02;  1.0000000E-01; -2.4307935E+03;3; -2.0267296E+01;  0.0000000E+00; -9.3811455E+00;0; -5.8490396E-02;  3.9739340E+04;  0.0000000E+00; -1.7701052E-01;  4.0000000E+04;  0.0000000E+00;  4.0025688E+04; -5.0811872E-02;  0.0000000E+00; -7.6785237E-03;  3.4686274E+03;
  4.7356921E-01;  9.9999998E-03; -2.0992459E-01;5322;  3.1509531E-01;  0.0000000E+00;  6.0033812E-03;  9.9704053E+02;  1.0000000E-01; -2.4518792E+03;3; -2.0439447E+01;  0.0000000E+00; -9.6614323E+00;0; -6.5719813E-02;  3.9736590E+04;  0.0000000E+00; -1.6778815E-01;  4.0000000E+04;  0.0000000E+00;  4.0026340E+04; -5.6528762E-02;  0.0000000E+00; -9.1910521E-03;  3.5612131E+03;
  4.7346827E-01;  9.9999998E-03; -1.9992828E-01;5323;  3.1784609E-01;  0.0000000E+00;  6.1018425E-03;  9.9702826E+02;  1.0000000E-01; -2.4620518E+03;3; -2.0670542E+01;  0.0000000E+00; -9.9808884E+00;0; -7.2259292E-02;  3.9734867E+04;  0.0000000E+00; -1.5293713E-01;  4.0000000E+04;  0.0000000E+00;  4.0027188E+04; -6.1413031E-02;  0.0000000E+00; -1.0846259E-02;  3.6552856E+03;
  4.7336236E-01;  9.9999998E-03; -1.8993266E-01;5324;  3.2056686E-01;  0.0000000E+00;  6.1816364E-03;  9.9703204E+02;  1.0000000E-01; -2.4588914E+03;3; -2.0968355E+01;  0.0000000E+00; -1.0314876E+01;0; -7.7930972E-02;  3.9734430E+04;  0.0000000E+00; -1.3382035E-01;  4.0000000E+04;  0.0000000E+00;  4.0027977E+04; -6.5278932E-02;  0.0000000E+00; -1.2652042E-02;  3.7496321E+03;
  4.7325468E-01;  9.9999998E-03; -1.7993777E-01;5325;  3.2322162E-01;  0.0000000E+00;  6.2184804E-03;  9.9705414E+02;  1.0000000E-01; -2.4405710E+03;3; -2.1299868E+01;  0.0000000E+00; -1.0576789E+01;0; -8.2646333E-02;  3.9735477E+04;  0.0000000E+00; -1.1216485E-01;  4.0000000E+04;  0.0000000E+00;  4.0028691E+04; -6.8009540E-02;  0.0000000E+00; -1.4636793E-02;  3.8392117E+03;
  4.7314861E-01;  9.9999998E-03; -1.6994350E-01;5326;  3.2578415E-01;  0.0000000E+00;  6.2007103E-03;  9.9709387E+02;  1.0000000E-01; -2.4076831E+03;3; -2.1691553E+01;  0.0000000E+00; -1.0783250E+01;0; -8.6366162E-02;  3.9738082E+04;  0.0000000E+00; -8.9966953E-02;  4.0000000E+04;  0.0000000E+00;  4.0029316E+04; -6.9573171E-02;  0.0000000E+00; -1.6792988E-02;  3.9156729E+03;
  4.7304639E-01;  9.9999998E-03; -1.5994960E-01;5327;  3.2823917E-01;  0.0000000E+00;  6.1265063E-03;  9.9715283E+02;  1.0000000E-01; -2.3588450E+03;3; -2.2097109E+01;  0.0000000E+00; -1.0889154E+01;0; -8.9091204E-02;  3.9742305E+04;  0.0000000E+00; -6.9057666E-02;  4.0000000E+04;  0.0000000E+00;  4.0029863E+04; -7.0020311E-02;  0.0000000E+00; -1.9070894E-02;  3.9698765E+03;
  4.7294980E-01;  9.9999998E-03; -1.4995570E-01;5328;  3.3058098E-01;  0.0000000E+00;  6.0009258E-03;  9.9722870E+02;  1.0000000E-01; -2.2959824E+03;3; -2.2517717E+01;  0.0000000E+00; -1.0896081E+01;0; -9.0859666E-02;  3.9748230E+04;  0.0000000E+00; -5.0700881E-02;  4.0000000E+04;  0.0000000E+00;  4.0030074E+04; -6.9464952E-02;  0.0000000E+00; -2.1394715E-02;  3.9951274E+03;
  4.7285998E-01;  9.9999998E-03; -1.3996141E-01;5329;  3.3280376E-01;  0.0000000E+00;  5.8222953E-03;  9.9732300E+02;  1.0000000E-01; -2.2178613E+03;3; -2.2955713E+01;  0.0000000E+00; -1.0850525E+01;0; -9.1737404E-02;  3.9755660E+04;  0.0000000E+00; -3.5460424E-02;  4.0000000E+04;  0.0000000E+00;  4.0030129E+04; -6.8052985E-02;  0.0000000E+00; -2.3684418E-02;  3.9892800E+03;
  4.7277752E-01;  9.9999998E-03; -1.2996636E-01;5330;  3.3490691E-01;  0.0000000E+00;  5.5916184E-03;  9.9743201E+02;  1.0000000E-01; -2.1275430E+03;3; -2.3411661E+01;  0.0000000E+00; -1.0724014E+01;0; -9.1813847E-02;  3.9764488E+04;  0.0000000E+00; -2.3449095E-02;  4.0000000E+04;  0.0000000E+00;  4.0029895E+04; -6.5934055E-02;  0.0000000E+00; -2.5879793E-02;  3.9549841E+03;
  4.7270334E-01;  9.9999998E-03; -1.1997037E-01;5331;  3.3689117E-01;  0.0000000E+00;  5.3165788E-03;  9.9755505E+02;  1.0000000E-01; -2.0255707E+03;3; -2.3983797E+01;  0.0000000E+00; -1.0516471E+01;0; -9.1200165E-02;  3.9774738E+04;  0.0000000E+00; -1.4569817E-02;  4.0000000E+04;  0.0000000E+00;  4.0029594E+04; -6.3252769E-02;  0.0000000E+00; -2.7947396E-02;  3.8984395E+03;
  4.7263798E-01;  9.9999998E-03; -1.0997347E-01;5332;  3.3875746E-01;  0.0000000E+00;  5.0045066E-03;  9.9768915E+02;  1.0000000E-01; -1.9145122E+03;3; -2.4614418E+01;  0.0000000E+00; -1.0198095E+01;0; -9.0009689E-02;  3.9785891E+04;  0.0000000E+00; -8.4254695E-03;  4.0000000E+04;  0.0000000E+00;  4.0029074E+04; -6.0146123E-02;  0.0000000E+00; -2.9863562E-02;  3.8281814E+03;
  4.8393250E-01;  9.9999998E-03; -2.6989996E-01;5377;  2.9890504E-01;  0.0000000E+00;  4.5559276E-03;  9.9736212E+02;  1.0000148E-01; -2.1854177E+03;3; -2.1101530E+01;  0.0000000E+00; -9.4038391E+00;0; -4.8837021E-02;  3.9764984E+04;  0.0000000E+00; -3.3165522E-02;  4.0000000E+04;  0.0000000E+00;  4.0022273E+04; -5.0910406E-02;  0.0000000E+00;  2.0733865E-03;  3.0191304E+03;
  4.8388743E-01;  9.9999998E-03; -2.5990018E-01;5378;  3.0127326E-01;  0.0000000E+00;  4.5521152E-03;  9.9731250E+02;  1.0000148E-01; -2.2265522E+03;3; -2.0894140E+01;  0.0000000E+00; -9.4495869E+00;0; -5.2522689E-02;  3.9759625E+04;  0.0000000E+00; -9.3829319E-02;  4.0000000E+04;  0.0000000E+00;  4.0023910E+04; -5.4980524E-02;  0.0000000E+00;  2.4578362E-03;  3.2206580E+03;
  4.8383847E-01;  9.9999998E-03; -2.4989918E-01;5379;  3.0373821E-01;  0.0000000E+00;  4.5711775E-03;  9.9726752E+02;  1.0000146E-01; -2.2637859E+03;3; -2.0660427E+01;  0.0000000E+00; -9.4735394E+00;0; -5.7206865E-02;  3.9754332E+04;  0.0000000E+00; -1.3617715E-01;  4.0000000E+04;  0.0000000E+00;  4.0025574E+04; -5.9190918E-02;  0.0000000E+00;  1.9840528E-03;  3.4361870E+03;
  4.8378325E-01;  9.9999998E-03; -2.3989883E-01;5380;  3.0627215E-01;  0.0000000E+00;  4.6560909E-03;  9.9721014E+02;  1.0000148E-01; -2.3113398E+03;3; -2.0496365E+01;  0.0000000E+00; -9.5093021E+00;0; -6.2700801E-02;  3.9749242E+04;  0.0000000E+00; -1.6274615E-01;  4.0000000E+04;  0.0000000E+00;  4.0026184E+04; -6.3407801E-02;  0.0000000E+00;  7.0700131E-04;  3.5245361E+03;
  4.8371977E-01;  9.9999998E-03; -2.2989947E-01;5381;  3.0884662E-01;  0.0000000E+00;  4.7330116E-03;  9.9715308E+02;  1.0000141E-01; -2.3585979E+03;3; -2.0414808E+01;  0.0000000E+00; -9.5753775E+00;0; -6.8191811E-02;  3.9744602E+04;  0.0000000E+00; -1.7656715E-01;  4.0000000E+04;  0.0000000E+00;  4.0026328E+04; -6.7472257E-02;  0.0000000E+00; -7.1955478E-04;  3.5463616E+03;
  4.8364821E-01;  9.9999998E-03; -2.1990073E-01;5382;  3.1148186E-01;  0.0000000E+00;  4.8293611E-03;  9.9710303E+02;  1.0000146E-01; -2.4000781E+03;3; -2.0502876E+01;  0.0000000E+00; -9.8304100E+00;0; -7.3590875E-02;  3.9740527E+04;  0.0000000E+00; -1.8035977E-01;  4.0000000E+04;  0.0000000E+00;  4.0026414E+04; -7.1212985E-02;  0.0000000E+00; -2.3778887E-03;  3.5658125E+03;
  4.8356870E-01;  9.9999998E-03; -2.0990245E-01;5383;  3.1419471E-01;  0.0000000E+00;  4.9784845E-03;  9.9706598E+02;  1.0000147E-01; -2.4307932E+03;3; -2.0816671E+01;  0.0000000E+00; -1.0178718E+01;0; -7.8702308E-02;  3.9737164E+04;  0.0000000E+00; -1.7603041E-01;  4.0000000E+04;  0.0000000E+00;  4.0026707E+04; -7.4457020E-02;  0.0000000E+00; -4.2452887E-03;  3.6057678E+03;
  4.8347974E-01;  9.9999998E-03; -1.9990452E-01;5384;  3.1693617E-01;  0.0000000E+00;  5.1293010E-03;  9.9704114E+02;  1.0000140E-01; -2.4513359E+03;3; -2.1098619E+01;  0.0000000E+00; -1.0447175E+01;0; -8.3271049E-02;  3.9734754E+04;  0.0000000E+00; -1.6501617E-01;  4.0000000E+04;  0.0000000E+00;  4.0027281E+04; -7.7047832E-02;  0.0000000E+00; -6.2232190E-03;  3.6705718E+03;
  4.8338172E-01;  9.9999998E-03; -1.8990742E-01;5385;  3.1965199E-01;  0.0000000E+00;  5.2410262E-03;  9.9703156E+02;  1.0000148E-01; -2.4592861E+03;3; -2.1450354E+01;  0.0000000E+00; -1.0676946E+01;0; -8.7216876E-02;  3.9733328E+04;  0.0000000E+00; -1.4874244E-01;  4.0000000E+04;  0.0000000E+00;  4.0027938E+04; -7.8873239E-02;  0.0000000E+00; -8.3436342E-03;  3.7540984E+03;
  4.8327887E-01;  9.9999998E-03; -1.7991158E-01;5386;  3.2230383E-01;  0.0000000E+00;  5.2915365E-03;  9.9703802E+02;  1.0000140E-01; -2.4539531E+03;3; -2.1877920E+01;  0.0000000E+00; -1.0869661E+01;0; -9.0511635E-02;  3.9733137E+04;  0.0000000E+00; -1.2888534E-01;  4.0000000E+04;  0.0000000E+00;  4.0028723E+04; -7.9881899E-02;  0.0000000E+00; -1.0629734E-02;  3.8497126E+03;
  4.8317483E-01;  9.9999998E-03; -1.6991688E-01;5387;  3.2487047E-01;  0.0000000E+00;  5.2775959E-03;  9.9706256E+02;  1.0000145E-01; -2.4336079E+03;3; -2.2278318E+01;  0.0000000E+00; -1.0939518E+01;0; -9.3138650E-02;  3.9734238E+04;  0.0000000E+00; -1.0737572E-01;  4.0000000E+04;  0.0000000E+00;  4.0029543E+04; -8.0082305E-02;  0.0000000E+00; -1.3056346E-02;  3.9475486E+03;
  4.8307258E-01;  9.9999998E-03; -1.5992302E-01;5388;  3.2734194E-01;  0.0000000E+00;  5.2063684E-03;  9.9710400E+02;  1.0000144E-01; -2.3992881E+03;3; -2.2653471E+01;  0.0000000E+00; -1.0880255E+01;0; -9.5087923E-02;  3.9736840E+04;  0.0000000E+00; -8.6141258E-02;  4.0000000E+04;  0.0000000E+00;  4.0030316E+04; -7.9535939E-02;  0.0000000E+00; -1.5551984E-02;  4.0349319E+03;
  4.8297465E-01;  9.9999998E-03; -1.4992949E-01;5389;  3.2970846E-01;  0.0000000E+00;  5.0815903E-03;  9.9716321E+02;  1.0000141E-01; -2.3502031E+03;3; -2.3085649E+01;  0.0000000E+00; -1.0746237E+01;0; -9.6356831E-02;  3.9740984E+04;  0.0000000E+00; -6.6698186E-02;  4.0000000E+04;  0.0000000E+00;  4.0030871E+04; -7.8337640E-02;  0.0000000E+00; -1.8019190E-02;  4.1013286E+03;
  4.8288229E-01;  9.9999998E-03; -1.3993597E-01;5390;  3.3196270E-01;  0.0000000E+00;  4.9052765E-03;  9.9723718E+02;  1.0000150E-01; -2.2889209E+03;3; -2.3577726E+01;  0.0000000E+00; -1.0542742E+01;0; -9.6953779E-02;  3.9746578E+04;  0.0000000E+00; -4.9904183E-02;  4.0000000E+04;  0.0000000E+00;  4.0031215E+04; -7.6591730E-02;  0.0000000E+00; -2.0362047E-02;  4.1417686E+03;
  4.8279676E-01;  9.9999998E-03; -1.2994204E-01;5391;  3.3410299E-01;  0.0000000E+00;  4.6824194E-03;  9.9732806E+02;  1.0000146E-01; -2.2136638E+03;3; -2.4109461E+01;  0.0000000E+00; -1.0264250E+01;0; -9.6911788E-02;  3.9753531E+04;  0.0000000E+00; -3.6096647E-02;  4.0000000E+04;  0.0000000E+00;  4.0031488E+04; -7.4399605E-02;  0.0000000E+00; -2.2512183E-02;  4.1573496E+03;
  4.8271900E-01;  9.9999998E-03; -1.1994743E-01;5392;  3.3613238E-01;  0.0000000E+00;  4.4216686E-03;  9.9743378E+02;  1.0000150E-01; -2.1260615E+03;3; -2.4716082E+01;  0.0000000E+00; -9.9074440E+00;0; -9.6291646E-02;  3.9761895E+04;  0.0000000E+00; -2.5339982E-02;  4.0000000E+04;  0.0000000E+00;  4.0031473E+04; -7.1857274E-02;  0.0000000E+00; -2.4434369E-02;  4.1534263E+03;
  4.8264965E-01;  9.9999998E-03; -1.0995208E-01;5393;  3.3805257E-01;  0.0000000E+00;  4.1342117E-03;  9.9755096E+02;  1.0000146E-01; -2.0289778E+03;3; -2.5398565E+01;  0.0000000E+00; -9.4794941E+00;0; -9.5163554E-02;  3.9771316E+04;  0.0000000E+00; -1.7382214E-02;  4.0000000E+04;  0.0000000E+00;  4.0031418E+04; -6.9056176E-02;  0.0000000E+00; -2.6107375E-02;  4.1370562E+03;
  4.9266130E-01;  9.9999998E-03; -1.0993268E-01;5454;  3.3726013E-01;  0.0000000E+00;  3.2004456E-03;  9.9732440E+02;  1.0000202E-01; -2.2166758E+03;3; -2.6399614E+01;  0.0000000E+00; -8.7819405E+00;0; -1.0033515E-01;  3.9750629E+04;  0.0000000E+00; -2.5368694E-02;  4.0000000E+04;  0.0000000E+00;  4.0033570E+04; -7.8083485E-02;  0.0000000E+00; -2.2251666E-02;  4.4191846E+03;
  4.9273428E-01;  9.9999998E-03; -1.1992671E-01;5453;  3.3529419E-01;  0.0000000E+00;  3.4591565E-03;  9.9722583E+02;  1.0000196E-01; -2.2983525E+03;3; -2.5623055E+01;  0.0000000E+00; -9.2585611E+00;0; -1.0137028E-01;  3.9743234E+04;  0.0000000E+00; -3.4246229E-02;  4.0000000E+04;  0.0000000E+00;  4.0033168E+04; -8.0431901E-02;  0.0000000E+00; -2.0938378E-02;  4.3807046E+03;
  4.9281472E-01;  9.9999998E-03; -1.2992033E-01;5452;  3.3322328E-01;  0.0000000E+00;  3.7001788E-03;  9.9714270E+02;  1.0000198E-01; -2.3672393E+03;3; -2.4963671E+01;  0.0000000E+00; -9.7145872E+00;0; -1.0192175E-01;  3.9736984E+04;  0.0000000E+00; -4.5663353E-02;  4.0000000E+04;  0.0000000E+00;  4.0032695E+04; -8.2656629E-02;  0.0000000E+00; -1.9265119E-02;  4.3313867E+03;
  4.9290171E-01;  9.9999998E-03; -1.3991357E-01;5451;  3.3104581E-01;  0.0000000E+00;  3.9110770E-03;  9.9707397E+02;  1.0000201E-01; -2.4241760E+03;3; -2.4392563E+01;  0.0000000E+00; -1.0106482E+01;0; -1.0194840E-01;  3.9732098E+04;  0.0000000E+00; -5.9736975E-02;  4.0000000E+04;  0.0000000E+00;  4.0032117E+04; -8.4699593E-02;  0.0000000E+00; -1.7248798E-02;  4.2659238E+03;
  4.9299410E-01;  9.9999998E-03; -1.4990674E-01;5450;  3.2876185E-01;  0.0000000E+00;  4.0822406E-03;  9.9701947E+02;  1.0000207E-01; -2.4693105E+03;3; -2.3831581E+01;  0.0000000E+00; -1.0408775E+01;0; -1.0142685E-01;  3.9728559E+04;  0.0000000E+00; -7.6294638E-02;  4.0000000E+04;  0.0000000E+00;  4.0031352E+04; -8.6501822E-02;  0.0000000E+00; -1.4925034E-02;  4.1801514E+03;
  4.9309066E-01;  9.9999998E-03; -1.5990019E-01;5449;  3.2637382E-01;  0.0000000E+00;  4.2067561E-03;  9.9698041E+02;  1.0000201E-01; -2.5016553E+03;3; -2.3303547E+01;  0.0000000E+00; -1.0620975E+01;0; -1.0036959E-01;  3.9726316E+04;  0.0000000E+00; -9.4883941E-02;  4.0000000E+04;  0.0000000E+00;  4.0030453E+04; -8.8000908E-02;  0.0000000E+00; -1.2368676E-02;  4.0743083E+03;
  4.9318942E-01;  9.9999998E-03; -1.6989446E-01;5448;  3.2388508E-01;  0.0000000E+00;  4.2777890E-03;  9.9695734E+02;  1.0000210E-01; -2.5207656E+03;3; -2.2813734E+01;  0.0000000E+00; -1.0755934E+01;0; -9.8819353E-02;  3.9725457E+04;  0.0000000E+00; -1.1453295E-01;  4.0000000E+04;  0.0000000E+00;  4.0029508E+04; -8.9128859E-02;  0.0000000E+00; -9.6904915E-03;  3.9556250E+03;
  4.9328816E-01;  9.9999998E-03; -1.7988989E-01;5447;  3.2130560E-01;  0.0000000E+00;  4.2894878E-03;  9.9694879E+02;  1.0000210E-01; -2.5278767E+03;3; -2.2350414E+01;  0.0000000E+00; -1.0804758E+01;0; -9.6824959E-02;  3.9725602E+04;  0.0000000E+00; -1.3373050E-01;  4.0000000E+04;  0.0000000E+00;  4.0028559E+04; -8.9815363E-02;  0.0000000E+00; -7.0095994E-03;  3.8371179E+03;
  4.9338278E-01;  9.9999998E-03; -1.8988667E-01;5446;  3.1864864E-01;  0.0000000E+00;  4.2354339E-03;  9.9695374E+02;  1.0000215E-01; -2.5237781E+03;3; -2.1909445E+01;  0.0000000E+00; -1.0754278E+01;0; -9.4425336E-02;  3.9726832E+04;  0.0000000E+00; -1.5073349E-01;  4.0000000E+04;  0.0000000E+00;  4.0027715E+04; -9.0000525E-02;  0.0000000E+00; -4.4248099E-03;  3.7337180E+03;
  4.9346972E-01;  9.9999998E-03; -1.9988424E-01;5445;  3.1593508E-01;  0.0000000E+00;  4.1113095E-03;  9.9697400E+02;  1.0000205E-01; -2.5069880E+03;3; -2.1482502E+01;  0.0000000E+00; -1.0608559E+01;0; -9.1639608E-02;  3.9729047E+04;  0.0000000E+00; -1.6387099E-01;  4.0000000E+04;  0.0000000E+00;  4.0027141E+04; -8.9652531E-02;  0.0000000E+00; -1.9870736E-03;  3.6610754E+03;
  4.9355009E-01;  9.9999998E-03; -2.0988236E-01;5444;  3.1320024E-01;  0.0000000E+00;  3.9308001E-03;  9.9700928E+02;  1.0000203E-01; -2.4777544E+03;3; -2.1087046E+01;  0.0000000E+00; -1.0379885E+01;0; -8.8472173E-02;  3.9732039E+04;  0.0000000E+00; -1.7171848E-01;  4.0000000E+04;  0.0000000E+00;  4.0026957E+04; -8.8783771E-02;  0.0000000E+00;  3.1160165E-04;  3.6334604E+03;
  4.9362293E-01;  9.9999998E-03; -2.1988106E-01;5443;  3.1050172E-01;  0.0000000E+00;  3.7415421E-03;  9.9705713E+02;  1.0000205E-01; -2.4381011E+03;3; -2.0776844E+01;  0.0000000E+00; -1.0096180E+01;0; -8.4971219E-02;  3.9735633E+04;  0.0000000E+00; -1.7301452E-01;  4.0000000E+04;  0.0000000E+00;  4.0027160E+04; -8.7445937E-02;  0.0000000E+00;  2.4747157E-03;  3.6611677E+03;
  4.9368790E-01;  9.9999998E-03; -2.2988039E-01;5442;  3.0785969E-01;  0.0000000E+00;  3.5521325E-03;  9.9711865E+02;  1.0000207E-01; -2.3871396E+03;3; -2.0647217E+01;  0.0000000E+00; -9.9583492E+00;0; -8.1212528E-02;  3.9739836E+04;  0.0000000E+00; -1.6631757E-01;  4.0000000E+04;  0.0000000E+00;  4.0027871E+04; -8.5724548E-02;  0.0000000E+00;  4.5120190E-03;  3.7463728E+03;
  4.9374464E-01;  9.9999998E-03; -2.3988096E-01;5441;  3.0525884E-01;  0.0000000E+00;  3.3110280E-03;  9.9719043E+02;  1.0000210E-01; -2.3276846E+03;3; -2.0671116E+01;  0.0000000E+00; -9.8889742E+00;0; -7.7040218E-02;  3.9744504E+04;  0.0000000E+00; -1.4971739E-01;  4.0000000E+04;  0.0000000E+00;  4.0028750E+04; -8.3725445E-02;  0.0000000E+00;  6.6852304E-03;  3.8514465E+03;
  4.9379286E-01;  9.9999998E-03; -2.4988344E-01;5440;  3.0269665E-01;  0.0000000E+00;  3.0180353E-03;  9.9725555E+02;  1.0000207E-01; -2.2737109E+03;3; -2.0772057E+01;  0.0000000E+00; -9.8198214E+00;0; -7.2221093E-02;  3.9749605E+04;  0.0000000E+00; -1.2072414E-01;  4.0000000E+04;  0.0000000E+00;  4.0028914E+04; -8.1559867E-02;  0.0000000E+00;  9.3387719E-03;  3.8626201E+03;
  4.9383363E-01;  9.9999998E-03; -2.5988773E-01;5439;  3.0022365E-01;  0.0000000E+00;  2.8244732E-03;  9.9729858E+02;  1.0000200E-01; -2.2380576E+03;3; -2.0899977E+01;  0.0000000E+00; -9.7543440E+00;0; -6.7769699E-02;  3.9754848E+04;  0.0000000E+00; -7.6967090E-02;  4.0000000E+04;  0.0000000E+00;  4.0027043E+04; -7.9336151E-02;  0.0000000E+00;  1.1566455E-02;  3.6205630E+03;
  4.9387079E-01;  9.9999998E-03; -2.6989132E-01;5438;  2.9787803E-01;  0.0000000E+00;  2.8325964E-03;  9.9732513E+02;  1.0000207E-01; -2.2160830E+03;3; -2.1069410E+01;  0.0000000E+00; -9.6819344E+00;0; -6.5749958E-02;  3.9760082E+04;  0.0000000E+00; -1.7682413E-02;  4.0000000E+04;  0.0000000E+00;  4.0023812E+04; -7.7156544E-02;  0.0000000E+00;  1.1406585E-02;  3.2118782E+03;
  5.0382960E-01;  9.9999998E-03; -2.6988277E-01;5499;  2.9674837E-01;  0.0000000E+00;  1.0850308E-03;  9.9724036E+02;  1.0000364E-01; -2.2863030E+03;3; -2.1000051E+01;  0.0000000E+00; -9.8130741E+00;0; -7.7465609E-02;  3.9749297E+04;  0.0000000E+00; -2.2843741E-02;  4.0000000E+04;  0.0000000E+00;  4.0026496E+04; -9.7836465E-02;  0.0000000E+00;  2.0370852E-02;  3.5556741E+03;
  5.0380206E-01;  9.9999998E-03; -2.5987601E-01;5500;  2.9907727E-01;  0.0000000E+00;  1.1361481E-03;  9.9723169E+02;  1.0000370E-01; -2.2935127E+03;3; -2.0899303E+01;  0.0000000E+00; -9.9158945E+00;0; -7.8851268E-02;  3.9744402E+04;  0.0000000E+00; -7.4987113E-02;  4.0000000E+04;  0.0000000E+00;  4.0030746E+04; -9.8543420E-02;  0.0000000E+00;  1.9692149E-02;  4.0932021E+03;
  5.0376797E-01;  9.9999998E-03; -2.4986933E-01;5501;  3.0155101E-01;  0.0000000E+00;  1.5115443E-03;  9.9718915E+02;  1.0000373E-01; -2.3287214E+03;3; -2.0858160E+01;  0.0000000E+00; -1.0059258E+01;0; -8.3432458E-02;  3.9739523E+04;  0.0000000E+00; -1.1308229E-01;  4.0000000E+04;  0.0000000E+00;  4.0032355E+04; -9.9215142E-02;  0.0000000E+00;  1.5782686E-02;  4.2996294E+03;
  5.0372386E-01;  9.9999998E-03; -2.3986560E-01;5502;  3.0413687E-01;  0.0000000E+00;  1.9979267E-03;  9.9711438E+02;  1.0000383E-01; -2.3906948E+03;3; -2.0856628E+01;  0.0000000E+00; -1.0135470E+01;0; -8.7839529E-02;  3.9734801E+04;  0.0000000E+00; -1.3757776E-01;  4.0000000E+04;  0.0000000E+00;  4.0031148E+04; -9.9785529E-02;  0.0000000E+00;  1.1945997E-02;  4.1580215E+03;
  5.0367111E-01;  9.9999998E-03; -2.2986494E-01;5503;  3.0676666E-01;  0.0000000E+00;  2.3874438E-03;  9.9703210E+02;  1.0000373E-01; -2.4588411E+03;3; -2.0902493E+01;  0.0000000E+00; -1.0176974E+01;0; -9.1043323E-02;  3.9730305E+04;  0.0000000E+00; -1.5115377E-01;  4.0000000E+04;  0.0000000E+00;  4.0029152E+04; -1.0019454E-01;  0.0000000E+00;  9.1512203E-03;  3.9091780E+03;
  5.0361013E-01;  9.9999998E-03; -2.1986586E-01;5504;  3.0942532E-01;  0.0000000E+00;  2.6615702E-03;  9.9696100E+02;  1.0000384E-01; -2.5177529E+03;3; -2.1067820E+01;  0.0000000E+00; -1.0236712E+01;0; -9.3596049E-02;  3.9726289E+04;  0.0000000E+00; -1.5634748E-01;  4.0000000E+04;  0.0000000E+00;  4.0027625E+04; -1.0038274E-01;  0.0000000E+00;  6.7866920E-03;  3.7233157E+03;
  5.0354099E-01;  9.9999998E-03; -2.0986737E-01;5505;  3.1212428E-01;  0.0000000E+00;  2.8769474E-03;  9.9690582E+02;  1.0000365E-01; -2.5634800E+03;3; -2.1382673E+01;  0.0000000E+00; -1.0376999E+01;0; -9.5931813E-02;  3.9722582E+04;  0.0000000E+00; -1.5511963E-01;  4.0000000E+04;  0.0000000E+00;  4.0026891E+04; -1.0030095E-01;  0.0000000E+00;  4.3691355E-03;  3.6372222E+03;
  5.0346446E-01;  9.9999998E-03; -1.9986926E-01;5506;  3.1485271E-01;  0.0000000E+00;  3.0565290E-03;  9.9686481E+02;  1.0000372E-01; -2.5974543E+03;3; -2.1836535E+01;  0.0000000E+00; -1.0533568E+01;0; -9.8134883E-02;  3.9719293E+04;  0.0000000E+00; -1.4883772E-01;  4.0000000E+04;  0.0000000E+00;  4.0026828E+04; -9.9919066E-02;  0.0000000E+00;  1.7841811E-03;  3.6367493E+03;
  5.0338173E-01;  9.9999998E-03; -1.8987156E-01;5507;  3.1756854E-01;  0.0000000E+00;  3.1783034E-03;  9.9683746E+02;  1.0000368E-01; -2.6201204E+03;3; -2.2319096E+01;  0.0000000E+00; -1.0591705E+01;0; -1.0018968E-01;  3.9716582E+04;  0.0000000E+00; -1.3847318E-01;  4.0000000E+04;  0.0000000E+00;  4.0027379E+04; -9.9232011E-02;  0.0000000E+00; -9.5766585E-04;  3.7006833E+03;
  5.0329363E-01;  9.9999998E-03; -1.7987451E-01;5508;  3.2023555E-01;  0.0000000E+00;  3.2305077E-03;  9.9682159E+02;  1.0000376E-01; -2.6332556E+03;3; -2.2819956E+01;  0.0000000E+00; -1.0548251E+01;0; -1.0208022E-01;  3.9714449E+04;  0.0000000E+00; -1.2498549E-01;  4.0000000E+04;  0.0000000E+00;  4.0028191E+04; -9.8259270E-02;  0.0000000E+00; -3.8209509E-03;  3.8089336E+03;
  5.0320095E-01;  9.9999998E-03; -1.6987838E-01;5509;  3.2283044E-01;  0.0000000E+00;  3.2166950E-03;  9.9681665E+02;  1.0000373E-01; -2.6373542E+03;3; -2.3360767E+01;  0.0000000E+00; -1.0428254E+01;0; -1.0376140E-01;  3.9713020E+04;  0.0000000E+00; -1.0949945E-01;  4.0000000E+04;  0.0000000E+00;  4.0029363E+04; -9.7040832E-02;  0.0000000E+00; -6.7205718E-03;  3.9430012E+03;
  5.0310659E-01;  9.9999998E-03; -1.5988347E-01;5510;  3.2533774E-01;  0.0000000E+00;  3.1440929E-03;  9.9682422E+02;  1.0000366E-01; -2.6310830E+03;3; -2.3934677E+01;  0.0000000E+00; -1.0239532E+01;0; -1.0515705E-01;  3.9712434E+04;  0.0000000E+00; -9.3274087E-02;  4.0000000E+04;  0.0000000E+00;  4.0030496E+04; -9.5627114E-02;  0.0000000E+00; -9.5299417E-03;  4.0857437E+03;
  5.0301319E-01;  9.9999998E-03; -1.4988965E-01;5511;  3.2774901E-01;  0.0000000E+00;  3.0213813E-03;  9.9684442E+02;  1.0000379E-01; -2.6143428E+03;3; -2.4523233E+01;  0.0000000E+00; -9.9574156E+00;0; -1.0617328E-01;  3.9712875E+04;  0.0000000E+00; -7.7514552E-02;  4.0000000E+04;  0.0000000E+00;  4.0031609E+04; -9.4064966E-02;  0.0000000E+00; -1.2108314E-02;  4.2231670E+03;
  5.0292253E-01;  9.9999998E-03; -1.3989647E-01;5512;  3.3005926E-01;  0.0000000E+00;  2.8573209E-03;  9.9687646E+02;  1.0000389E-01; -2.5877756E+03;3; -2.5165348E+01;  0.0000000E+00; -9.5930691E+00;0; -1.0672632E-01;  3.9714355E+04;  0.0000000E+00; -6.3089930E-02;  4.0000000E+04;  0.0000000E+00;  4.0032652E+04; -9.2394546E-02;  0.0000000E+00; -1.4331775E-02;  4.3470908E+03;
  5.0283581E-01;  9.9999998E-03; -1.2990351E-01;5513;  3.3226633E-01;  0.0000000E+00;  2.6604510E-03;  9.9692096E+02;  1.0000376E-01; -2.5509370E+03;3; -2.5852646E+01;  0.0000000E+00; -9.1526623E+00;0; -1.0677086E-01;  3.9717141E+04;  0.0000000E+00; -5.0437991E-02;  4.0000000E+04;  0.0000000E+00;  4.0033516E+04; -9.0650268E-02;  0.0000000E+00; -1.6120592E-02;  4.4562310E+03;
  5.0275415E-01;  9.9999998E-03; -1.1991048E-01;5514;  3.3436981E-01;  0.0000000E+00;  2.4419604E-03;  9.9698083E+02;  1.0000389E-01; -2.5013088E+03;3; -2.6598278E+01;  0.0000000E+00; -8.6451063E+00;0; -1.0630526E-01;  3.9720965E+04;  0.0000000E+00; -3.9775047E-02;  4.0000000E+04;  0.0000000E+00;  4.0034359E+04; -8.8865183E-02;  0.0000000E+00; -1.7440073E-02;  4.5537603E+03;
  5.0267845E-01;  9.9999998E-03; -1.0991732E-01;5515;  3.3636913E-01;  0.0000000E+00;  2.2144462E-03;  9.9705316E+02;  1.0000384E-01; -2.4414094E+03;3; -2.7425060E+01;  0.0000000E+00; -8.1398172E+00;0; -1.0535263E-01;  3.9725953E+04;  0.0000000E+00; -3.1074652E-02;  4.0000000E+04;  0.0000000E+00;  4.0035129E+04; -8.7073036E-02;  0.0000000E+00; -1.8279588E-02;  4.6430044E+03;
  5.1382506E-01;  9.9999998E-03; -2.6987609E-01;5560;  2.9550013E-01;  0.0000000E+00; -6.5051613E-04;  9.9713647E+02;  1.0000632E-01; -2.3723740E+03;3; -2.0947155E+01;  0.0000000E+00; -9.8954067E+00;0; -8.5703671E-02;  3.9736605E+04;  0.0000000E+00; -5.0550509E-02;  4.0000000E+04;  0.0000000E+00;  4.0029043E+04; -1.1419227E-01;  0.0000000E+00;  2.8488597E-02;  3.8917856E+03;
  5.1380575E-01;  9.9999998E-03; -2.5986731E-01;5561;  2.9783508E-01;  0.0000000E+00; -4.6225573E-04;  9.9713660E+02;  1.0000619E-01; -2.3722754E+03;3; -2.0924341E+01;  0.0000000E+00; -1.0028177E+01;0; -8.7460056E-02;  3.9732098E+04;  0.0000000E+00; -9.1562919E-02;  4.0000000E+04;  0.0000000E+00;  4.0033711E+04; -1.1376618E-01;  0.0000000E+00;  2.6306119E-02;  4.4821235E+03;
  5.1377541E-01;  9.9999998E-03; -2.4985950E-01;5562;  3.0031833E-01;  0.0000000E+00;  1.0678368E-04;  9.9709344E+02;  1.0000618E-01; -2.4080273E+03;3; -2.0934492E+01;  0.0000000E+00; -1.0161263E+01;0; -9.2347458E-02;  3.9727727E+04;  0.0000000E+00; -1.1689943E-01;  4.0000000E+04;  0.0000000E+00;  4.0034730E+04; -1.1324407E-01;  0.0000000E+00;  2.0896610E-02;  4.6125630E+03;
  5.1373267E-01;  9.9999998E-03; -2.3985562E-01;5563;  3.0291858E-01;  0.0000000E+00;  7.4037572E-04;  9.9701123E+02;  1.0000615E-01; -2.4761240E+03;3; -2.1019382E+01;  0.0000000E+00; -1.0236238E+01;0; -9.6284032E-02;  3.9723289E+04;  0.0000000E+00; -1.2940949E-01;  4.0000000E+04;  0.0000000E+00;  4.0032617E+04; -1.1259671E-01;  0.0000000E+00;  1.6312670E-02;  4.3478989E+03;
  5.1368040E-01;  9.9999998E-03; -2.2985542E-01;5564;  3.0557474E-01;  0.0000000E+00;  1.2323403E-03;  9.9692377E+02;  1.0000625E-01; -2.5486157E+03;3; -2.1138351E+01;  0.0000000E+00; -1.0222495E+01;0; -9.8656058E-02;  3.9719219E+04;  0.0000000E+00; -1.3325514E-01;  4.0000000E+04;  0.0000000E+00;  4.0029711E+04; -1.1180279E-01;  0.0000000E+00;  1.3146734E-02;  3.9931663E+03;
  5.1362002E-01;  9.9999998E-03; -2.1985713E-01;5565;  3.0825746E-01;  0.0000000E+00;  1.5613553E-03;  9.9684906E+02;  1.0000622E-01; -2.6104905E+03;3; -2.1360489E+01;  0.0000000E+00; -1.0217985E+01;0; -1.0029951E-01;  3.9715359E+04;  0.0000000E+00; -1.3169993E-01;  4.0000000E+04;  0.0000000E+00;  4.0027676E+04; -1.1084842E-01;  0.0000000E+00;  1.0548909E-02;  3.7371216E+03;
  5.1355171E-01;  9.9999998E-03; -2.0985928E-01;5566;  3.1096771E-01;  0.0000000E+00;  1.7876989E-03;  9.9679187E+02;  1.0000617E-01; -2.6578472E+03;3; -2.1735781E+01;  0.0000000E+00; -1.0256800E+01;0; -1.0182230E-01;  3.9711695E+04;  0.0000000E+00; -1.2689228E-01;  4.0000000E+04;  0.0000000E+00;  4.0026621E+04; -1.0973042E-01;  0.0000000E+00;  7.9081235E-03;  3.6156843E+03;
  5.1347631E-01;  9.9999998E-03; -1.9986138E-01;5567;  3.1370014E-01;  0.0000000E+00;  1.9589802E-03;  9.9674536E+02;  1.0000618E-01; -2.6964138E+03;3; -2.2211168E+01;  0.0000000E+00; -1.0305428E+01;0; -1.0340241E-01;  3.9708199E+04;  0.0000000E+00; -1.2004463E-01;  4.0000000E+04;  0.0000000E+00;  4.0026500E+04; -1.0846201E-01;  0.0000000E+00;  5.0595966E-03;  3.6014907E+03;
  5.1339495E-01;  9.9999998E-03; -1.8986367E-01;5568;  3.1642509E-01;  0.0000000E+00;  2.0731995E-03;  9.9671191E+02;  1.0000610E-01; -2.7241167E+03;3; -2.2748873E+01;  0.0000000E+00; -1.0280266E+01;0; -1.0503136E-01;  3.9705027E+04;  0.0000000E+00; -1.1166298E-01;  4.0000000E+04;  0.0000000E+00;  4.0026969E+04; -1.0707172E-01;  0.0000000E+00;  2.0403620E-03;  3.6614287E+03;
  5.1330930E-01;  9.9999998E-03; -1.7986642E-01;5569;  3.1910521E-01;  0.0000000E+00;  2.1197305E-03;  9.9668799E+02;  1.0000620E-01; -2.7439187E+03;3; -2.3338034E+01;  0.0000000E+00; -1.0190183E+01;0; -1.0666452E-01;  3.9702207E+04;  0.0000000E+00; -1.0199951E-01;  4.0000000E+04;  0.0000000E+00;  4.0027844E+04; -1.0559987E-01;  0.0000000E+00; -1.0646500E-03;  3.7717446E+03;
  5.1322055E-01;  9.9999998E-03; -1.6986993E-01;5570;  3.2171476E-01;  0.0000000E+00;  2.1009352E-03;  9.9667218E+02;  1.0000616E-01; -2.7570542E+03;3; -2.3971022E+01;  0.0000000E+00; -1.0040320E+01;0; -1.0822318E-01;  3.9699738E+04;  0.0000000E+00; -9.1351792E-02;  4.0000000E+04;  0.0000000E+00;  4.0028977E+04; -1.0409015E-01;  0.0000000E+00; -4.1330280E-03;  3.9130093E+03;
  5.1312983E-01;  9.9999998E-03; -1.5987439E-01;5571;  3.2423967E-01;  0.0000000E+00;  2.0264040E-03;  9.9666351E+02;  1.0000635E-01; -2.7642144E+03;3; -2.4611206E+01;  0.0000000E+00; -9.8044329E+00;0; -1.0959304E-01;  3.9697812E+04;  0.0000000E+00; -8.0188811E-02;  4.0000000E+04;  0.0000000E+00;  4.0030254E+04; -1.0258257E-01;  0.0000000E+00; -7.0104734E-03;  4.0685469E+03;
  5.1303947E-01;  9.9999998E-03; -1.4987989E-01;5572;  3.2667056E-01;  0.0000000E+00;  1.9062010E-03;  9.9666345E+02;  1.0000607E-01; -2.7642637E+03;3; -2.5276423E+01;  0.0000000E+00; -9.4861841E+00;0; -1.1064300E-01;  3.9696621E+04;  0.0000000E+00; -6.9121011E-02;  4.0000000E+04;  0.0000000E+00;  4.0031496E+04; -1.0110706E-01;  0.0000000E+00; -9.5359376E-03;  4.2249546E+03;
  5.1295090E-01;  9.9999998E-03; -1.3988619E-01;5573;  3.2900220E-01;  0.0000000E+00;  1.7501365E-03;  9.9667438E+02;  1.0000619E-01; -2.7552271E+03;3; -2.5982962E+01;  0.0000000E+00; -9.0986633E+00;0; -1.1125935E-01;  3.9696234E+04;  0.0000000E+00; -5.8684692E-02;  4.0000000E+04;  0.0000000E+00;  4.0032660E+04; -9.9685319E-02;  0.0000000E+00; -1.1574031E-02;  4.3744888E+03;
  5.1286536E-01;  9.9999998E-03; -1.2989300E-01;5574;  3.3123279E-01;  0.0000000E+00;  1.5695285E-03;  9.9669543E+02;  1.0000630E-01; -2.7377461E+03;3; -2.6727516E+01;  0.0000000E+00; -8.6215315E+00;0; -1.1137530E-01;  3.9696715E+04;  0.0000000E+00; -4.9173675E-02;  4.0000000E+04;  0.0000000E+00;  4.0033848E+04; -9.8334052E-02;  0.0000000E+00; -1.3041253E-02;  4.5158403E+03;
  5.1278371E-01;  9.9999998E-03; -1.1990004E-01;5575;  3.3336008E-01;  0.0000000E+00;  1.3747240E-03;  9.9672876E+02;  1.0000610E-01; -2.7101418E+03;3; -2.7541431E+01;  0.0000000E+00; -8.1075258E+00;0; -1.1097419E-01;  3.9698246E+04;  0.0000000E+00; -4.0752202E-02;  4.0000000E+04;  0.0000000E+00;  4.0034984E+04; -9.7068772E-02;  0.0000000E+00; -1.3905414E-02;  4.6513218E+03;
  5.1270658E-01;  9.9999998E-03; -1.0990725E-01;5576;  3.3538148E-01;  0.0000000E+00;  1.1781794E-03;  9.9677484E+02;  1.0000629E-01; -2.6719702E+03;3; -2.8436424E+01;  0.0000000E+00; -7.6046114E+00;0; -1.1006904E-01;  3.9700809E+04;  0.0000000E+00; -3.3451606E-02;  4.0000000E+04;  0.0000000E+00;  4.0035949E+04; -9.5905267E-02;  0.0000000E+00; -1.4163766E-02;  4.7824482E+03;
  5.2386445E-01;  9.9999998E-03; -2.6987278E-01;5621;  2.9414317E-01;  0.0000000E+00; -2.2966221E-03;  9.9707465E+02;  1.0001041E-01; -2.4235818E+03;3; -2.0878878E+01;  0.0000000E+00; -9.8865728E+00;0; -9.2613846E-02;  3.9726988E+04;  0.0000000E+00; -1.0824861E-01;  4.0000000E+04;  0.0000000E+00;  4.0030410E+04; -1.2743008E-01;  0.0000000E+00;  3.4816239E-02;  4.0760354E+03;
  5.2384979E-01;  9.9999998E-03; -2.5986338E-01;5622;  2.9649606E-01;  0.0000000E+00; -1.9468884E-03;  9.9707794E+02;  1.0001060E-01; -2.4208657E+03;3; -2.0945494E+01;  0.0000000E+00; -1.0067061E+01;0; -9.4979152E-02;  3.9722715E+04;  0.0000000E+00; -1.3186026E-01;  4.0000000E+04;  0.0000000E+00;  4.0035020E+04; -1.2612684E-01;  0.0000000E+00;  3.1147690E-02;  4.6509551E+03;
  5.2382004E-01;  9.9999998E-03; -2.4985595E-01;5623;  2.9900232E-01;  0.0000000E+00; -1.2003235E-03;  9.9702905E+02;  1.0001060E-01; -2.4613584E+03;3; -2.1039614E+01;  0.0000000E+00; -1.0184579E+01;0; -1.0004731E-01;  3.9718582E+04;  0.0000000E+00; -1.3577613E-01;  4.0000000E+04;  0.0000000E+00;  4.0035340E+04; -1.2468464E-01;  0.0000000E+00;  2.4637325E-02;  4.6881719E+03;
  5.2377504E-01;  9.9999998E-03; -2.3985299E-01;5624;  3.0161795E-01;  0.0000000E+00; -4.7612496E-04;  9.9694269E+02;  1.0001048E-01; -2.5329119E+03;3; -2.1184046E+01;  0.0000000E+00; -1.0187832E+01;0; -1.0330567E-01;  3.9714438E+04;  0.0000000E+00; -1.2779966E-01;  4.0000000E+04;  0.0000000E+00;  4.0032559E+04; -1.2310325E-01;  0.0000000E+00;  1.9797586E-02;  4.3437856E+03;
  5.2371961E-01;  9.9999998E-03; -2.2985366E-01;5625;  3.0429608E-01;  0.0000000E+00;  5.9565638E-05;  9.9685327E+02;  1.0001051E-01; -2.6069836E+03;3; -2.1389309E+01;  0.0000000E+00; -1.0140791E+01;0; -1.0486285E-01;  3.9710484E+04;  0.0000000E+00; -1.1477283E-01;  4.0000000E+04;  0.0000000E+00;  4.0029277E+04; -1.2139636E-01;  0.0000000E+00;  1.6533503E-02;  3.9536023E+03;
  5.2365613E-01;  9.9999998E-03; -2.1985620E-01;5626;  3.0700731E-01;  0.0000000E+00;  4.1553011E-04;  9.9677881E+02;  1.0001040E-01; -2.6687102E+03;3; -2.1690611E+01;  0.0000000E+00; -1.0086102E+01;0; -1.0580754E-01;  3.9706688E+04;  0.0000000E+00; -1.0095789E-01;  4.0000000E+04;  0.0000000E+00;  4.0027145E+04; -1.1958578E-01;  0.0000000E+00;  1.3778239E-02;  3.6859932E+03;
  5.2358574E-01;  9.9999998E-03; -2.0985895E-01;5627;  3.0974230E-01;  0.0000000E+00;  6.5055623E-04;  9.9671790E+02;  1.0001054E-01; -2.7191777E+03;3; -2.2091457E+01;  0.0000000E+00; -1.0028646E+01;0; -1.0677591E-01;  3.9702844E+04;  0.0000000E+00; -8.8725828E-02;  4.0000000E+04;  0.0000000E+00;  4.0026188E+04; -1.1770675E-01;  0.0000000E+00;  1.0930843E-02;  3.5665601E+03;
  5.2350926E-01;  9.9999998E-03; -1.9986141E-01;5628;  3.1249070E-01;  0.0000000E+00;  8.1456901E-04;  9.9667139E+02;  1.0001054E-01; -2.7576953E+03;3; -2.2601295E+01;  0.0000000E+00; -9.9648533E+00;0; -1.0795991E-01;  3.9699180E+04;  0.0000000E+00; -7.8977190E-02;  4.0000000E+04;  0.0000000E+00;  4.0026016E+04; -1.1580477E-01;  0.0000000E+00;  7.8448560E-03;  3.5569663E+03;
  5.2342790E-01;  9.9999998E-03; -1.8986383E-01;5629;  3.1522793E-01;  0.0000000E+00;  9.1727398E-04;  9.9663403E+02;  1.0001057E-01; -2.7886572E+03;3; -2.3216539E+01;  0.0000000E+00; -9.9060993E+00;0; -1.0934386E-01;  3.9695551E+04;  0.0000000E+00; -7.1542092E-02;  4.0000000E+04;  0.0000000E+00;  4.0026512E+04; -1.1393352E-01;  0.0000000E+00;  4.5896578E-03;  3.6192539E+03;
  5.2334309E-01;  9.9999998E-03; -1.7986646E-01;5630;  3.1792325E-01;  0.0000000E+00;  9.5690787E-04;  9.9660083E+02;  1.0001040E-01; -2.8161626E+03;3; -2.3867609E+01;  0.0000000E+00; -9.7773371E+00;0; -1.1085226E-01;  3.9692164E+04;  0.0000000E+00; -6.5717429E-02;  4.0000000E+04;  0.0000000E+00;  4.0027406E+04; -1.1214656E-01;  0.0000000E+00;  1.2943029E-03;  3.7290115E+03;
  5.2325612E-01;  9.9999998E-03; -1.6986968E-01;5631;  3.2054937E-01;  0.0000000E+00;  9.3415199E-04;  9.9657385E+02;  1.0001042E-01; -2.8384829E+03;3; -2.4570175E+01;  0.0000000E+00; -9.5992975E+00;0; -1.1237177E-01;  3.9688797E+04;  0.0000000E+00; -6.0700506E-02;  4.0000000E+04;  0.0000000E+00;  4.0028477E+04; -1.1049049E-01;  0.0000000E+00; -1.8812739E-03;  3.8683804E+03;
  5.2316821E-01;  9.9999998E-03; -1.5987363E-01;5632;  3.2309011E-01;  0.0000000E+00;  8.5835595E-04;  9.9655194E+02;  1.0001034E-01; -2.8566553E+03;3; -2.5298840E+01;  0.0000000E+00; -9.3584204E+00;0; -1.1375470E-01;  3.9685758E+04;  0.0000000E+00; -5.5902198E-02;  4.0000000E+04;  0.0000000E+00;  4.0029770E+04; -1.0899942E-01;  0.0000000E+00; -4.7552795E-03;  4.0233616E+03;
  5.2308023E-01;  9.9999998E-03; -1.4987835E-01;5633;  3.2553616E-01;  0.0000000E+00;  7.4040890E-04;  9.9653558E+02;  1.0001054E-01; -2.8701855E+03;3; -2.6040749E+01;  0.0000000E+00; -9.0327120E+00;0; -1.1484349E-01;  3.9683094E+04;  0.0000000E+00; -5.1078271E-02;  4.0000000E+04;  0.0000000E+00;  4.0031043E+04; -1.0769512E-01;  0.0000000E+00; -7.1483720E-03;  4.1833843E+03;
  5.2299356E-01;  9.9999998E-03; -1.3988374E-01;5634;  3.2788420E-01;  0.0000000E+00;  5.9322233E-04;  9.9652277E+02;  1.0001052E-01; -2.8808027E+03;3; -2.6812086E+01;  0.0000000E+00; -8.6331024E+00;0; -1.1550470E-01;  3.9681031E+04;  0.0000000E+00; -4.6224419E-02;  4.0000000E+04;  0.0000000E+00;  4.0032293E+04; -1.0658959E-01;  0.0000000E+00; -8.9151179E-03;  4.3426772E+03;
  5.2290922E-01;  9.9999998E-03; -1.2988974E-01;5635;  3.3013010E-01;  0.0000000E+00;  4.2867521E-04;  9.9652112E+02;  1.0001041E-01; -2.8821853E+03;3; -2.7617077E+01;  0.0000000E+00; -8.1556396E+00;0; -1.1565874E-01;  3.9679441E+04;  0.0000000E+00; -4.1393235E-02;  4.0000000E+04;  0.0000000E+00;  4.0033555E+04; -1.0568903E-01;  0.0000000E+00; -9.9697020E-03;  4.5008892E+03;
  5.2282804E-01;  9.9999998E-03; -1.1989623E-01;5636;  3.3227029E-01;  0.0000000E+00;  2.5639869E-04;  9.9652942E+02;  1.0001054E-01; -2.8753213E+03;3; -2.8477600E+01;  0.0000000E+00; -7.6478591E+00;0; -1.1528014E-01;  3.9678793E+04;  0.0000000E+00; -3.6621660E-02;  4.0000000E+04;  0.0000000E+00;  4.0034855E+04; -1.0499655E-01;  0.0000000E+00; -1.0283584E-02;  4.6600820E+03;
  5.2275050E-01;  9.9999998E-03; -1.0990318E-01;5637;  3.3430237E-01;  0.0000000E+00;  8.9323039E-05;  9.9654895E+02;  1.0001040E-01; -2.8591243E+03;3; -2.9405399E+01;  0.0000000E+00; -7.1580086E+00;0; -1.1437532E-01;  3.9678980E+04;  0.0000000E+00; -3.1937964E-02;  4.0000000E+04;  0.0000000E+00;  4.0036109E+04; -1.0451240E-01;  0.0000000E+00; -9.8629249E-03;  4.8203115E+03;
  5.3394520E-01;  9.9999998E-03; -2.6987368E-01;5682;  2.9269055E-01;  0.0000000E+00; -3.8416719E-03;  9.9712103E+02;  1.0001741E-01; -2.3851624E+03;3; -2.0794680E+01;  0.0000000E+00; -9.7842999E+00;0; -9.9475257E-02;  3.9725676E+04;  0.0000000E+00; -2.1170749E-01;  4.0000000E+04;  0.0000000E+00;  4.0029840E+04; -1.3862948E-01;  0.0000000E+00;  3.9154224E-02;  4.0144639E+03;
  5.3393167E-01;  9.9999998E-03; -2.5986490E-01;5683;  2.9507387E-01;  0.0000000E+00; -3.3217627E-03;  9.9711566E+02;  1.0001738E-01; -2.3896067E+03;3; -2.0951584E+01;  0.0000000E+00; -1.0003619E+01;0; -1.0242584E-01;  3.9721457E+04;  0.0000000E+00; -2.0469299E-01;  4.0000000E+04;  0.0000000E+00;  4.0033977E+04; -1.3662136E-01;  0.0000000E+00;  3.4195520E-02;  4.5322988E+03;
  5.3389931E-01;  9.9999998E-03; -2.4985939E-01;5684;  2.9761425E-01;  0.0000000E+00; -2.4287421E-03;  9.9705658E+02;  1.0001735E-01; -2.4385435E+03;3; -2.1137531E+01;  0.0000000E+00; -1.0089440E+01;0; -1.0735776E-01;  3.9717098E+04;  0.0000000E+00; -1.7479075E-01;  4.0000000E+04;  0.0000000E+00;  4.0033590E+04; -1.3444391E-01;  0.0000000E+00;  2.7086144E-02;  4.4743784E+03;
  5.3384900E-01;  9.9999998E-03; -2.3985834E-01;5685;  3.0025002E-01;  0.0000000E+00; -1.6786091E-03;  9.9696698E+02;  1.0001748E-01; -2.5128130E+03;3; -2.1362402E+01;  0.0000000E+00; -1.0040217E+01;0; -1.0963742E-01;  3.9712773E+04;  0.0000000E+00; -1.3645063E-01;  4.0000000E+04;  0.0000000E+00;  4.0030625E+04; -1.3212039E-01;  0.0000000E+00;  2.2482961E-02;  4.1106030E+03;
  5.3378695E-01;  9.9999998E-03; -2.2986028E-01;5686;  3.0294961E-01;  0.0000000E+00; -1.1474413E-03;  9.9687836E+02;  1.0001731E-01; -2.5861934E+03;3; -2.1640175E+01;  0.0000000E+00; -9.9450588E+00;0; -1.1034706E-01;  3.9708500E+04;  0.0000000E+00; -9.9176899E-02;  4.0000000E+04;  0.0000000E+00;  4.0027812E+04; -1.2969223E-01;  0.0000000E+00;  1.9345168E-02;  3.7642361E+03;
  5.3371739E-01;  9.9999998E-03; -2.1986355E-01;5687;  3.0569455E-01;  0.0000000E+00; -7.8450103E-04;  9.9680444E+02;  1.0001730E-01; -2.6474756E+03;3; -2.2011162E+01;  0.0000000E+00; -9.8341150E+00;0; -1.1071676E-01;  3.9704141E+04;  0.0000000E+00; -6.7782722E-02;  4.0000000E+04;  0.0000000E+00;  4.0026043E+04; -1.2721282E-01;  0.0000000E+00;  1.6496064E-02;  3.5546428E+03;
  5.3364205E-01;  9.9999998E-03; -2.0986673E-01;5688;  3.0846357E-01;  0.0000000E+00; -5.4175570E-04;  9.9674420E+02;  1.0001735E-01; -2.6973506E+03;3; -2.2453672E+01;  0.0000000E+00; -9.6922722E+00;0; -1.1127830E-01;  3.9699957E+04;  0.0000000E+00; -4.4411812E-02;  4.0000000E+04;  0.0000000E+00;  4.0025418E+04; -1.2474553E-01;  0.0000000E+00;  1.3467230E-02;  3.4814536E+03;
  5.3356254E-01;  9.9999998E-03; -1.9986938E-01;5689;  3.1123650E-01;  0.0000000E+00; -3.8226892E-04;  9.9669366E+02;  1.0001750E-01; -2.7392258E+03;3; -2.3011292E+01;  0.0000000E+00; -9.5667715E+00;0; -1.1218039E-01;  3.9695797E+04;  0.0000000E+00; -2.9378263E-02;  4.0000000E+04;  0.0000000E+00;  4.0025586E+04; -1.2236226E-01;  0.0000000E+00;  1.0181872E-02;  3.5004863E+03;
  5.3347999E-01;  9.9999998E-03; -1.8987185E-01;5690;  3.1399259E-01;  0.0000000E+00; -2.8721546E-04;  9.9664899E+02;  1.0001754E-01; -2.7762617E+03;3; -2.3676981E+01;  0.0000000E+00; -9.4604425E+00;0; -1.1339246E-01;  3.9691602E+04;  0.0000000E+00; -2.1618063E-02;  4.0000000E+04;  0.0000000E+00;  4.0026129E+04; -1.2013617E-01;  0.0000000E+00;  6.7437077E-03;  3.5740852E+03;
  5.3339547E-01;  9.9999998E-03; -1.7987435E-01;5691;  3.1670430E-01;  0.0000000E+00; -2.5459946E-04;  9.9660913E+02;  1.0001744E-01; -2.8092483E+03;3; -2.4405315E+01;  0.0000000E+00; -9.3234720E+00;0; -1.1481055E-01;  3.9687348E+04;  0.0000000E+00; -1.9262621E-02;  4.0000000E+04;  0.0000000E+00;  4.0026945E+04; -1.1813252E-01;  0.0000000E+00;  3.3219722E-03;  3.6818296E+03;
  5.3330982E-01;  9.9999998E-03; -1.6987723E-01;5692;  3.1934485E-01;  0.0000000E+00; -2.8261016E-04;  9.9656995E+02;  1.0001736E-01; -2.8417415E+03;3; -2.5176849E+01;  0.0000000E+00; -9.1445227E+00;0; -1.1629223E-01;  3.9683250E+04;  0.0000000E+00; -2.0180978E-02;  4.0000000E+04;  0.0000000E+00;  4.0028047E+04; -1.1640313E-01;  0.0000000E+00;  1.1089182E-04;  3.8107480E+03;
  5.3322387E-01;  9.9999998E-03; -1.5988059E-01;5693;  3.2189903E-01;  0.0000000E+00; -3.6015248E-04;  9.9653497E+02;  1.0001750E-01; -2.8707283E+03;3; -2.5956676E+01;  0.0000000E+00; -8.8887091E+00;0; -1.1766601E-01;  3.9679238E+04;  0.0000000E+00; -2.2493964E-02;  4.0000000E+04;  0.0000000E+00;  4.0029113E+04; -1.1498364E-01;  0.0000000E+00; -2.6823739E-03;  3.9520063E+03;
  5.3313839E-01;  9.9999998E-03; -1.4988449E-01;5694;  3.2435799E-01;  0.0000000E+00; -4.7443685E-04;  9.9650085E+02;  1.0001726E-01; -2.8989744E+03;3; -2.6772209E+01;  0.0000000E+00; -8.5730801E+00;0; -1.1875634E-01;  3.9675379E+04;  0.0000000E+00; -2.4898939E-02;  4.0000000E+04;  0.0000000E+00;  4.0030301E+04; -1.1389507E-01;  0.0000000E+00; -4.8612650E-03;  4.0997617E+03;
  5.3305399E-01;  9.9999998E-03; -1.3988891E-01;5695;  3.2671595E-01;  0.0000000E+00; -6.1286375E-04;  9.9647144E+02;  1.0001726E-01; -2.9233193E+03;3; -2.7600126E+01;  0.0000000E+00; -8.1765594E+00;0; -1.1941725E-01;  3.9671809E+04;  0.0000000E+00; -2.6718482E-02;  4.0000000E+04;  0.0000000E+00;  4.0031445E+04; -1.1314531E-01;  0.0000000E+00; -6.2719346E-03;  4.2518535E+03;
  5.3297126E-01;  9.9999998E-03; -1.2989381E-01;5696;  3.2896933E-01;  0.0000000E+00; -7.6277426E-04;  9.9644788E+02;  1.0001732E-01; -2.9428743E+03;3; -2.8465157E+01;  0.0000000E+00; -7.7303467E+00;0; -1.1956126E-01;  3.9668582E+04;  0.0000000E+00; -2.7676696E-02;  4.0000000E+04;  0.0000000E+00;  4.0032742E+04; -1.1273354E-01;  0.0000000E+00; -6.8277265E-03;  4.4099214E+03;
  5.3289092E-01;  9.9999998E-03; -1.1989918E-01;5697;  3.3111346E-01;  0.0000000E+00; -9.1447210E-04;  9.9643152E+02;  1.0001743E-01; -2.9564045E+03;3; -2.9371027E+01;  0.0000000E+00; -7.2578621E+00;0; -1.1915632E-01;  3.9666086E+04;  0.0000000E+00; -2.7663426E-02;  4.0000000E+04;  0.0000000E+00;  4.0034035E+04; -1.1265154E-01;  0.0000000E+00; -6.5047746E-03;  4.5763970E+03;
  5.3281391E-01;  9.9999998E-03; -1.0990522E-01;5698;  3.3314484E-01;  0.0000000E+00; -1.0552483E-03;  9.9642560E+02;  1.0001746E-01; -2.9613428E+03;3; -3.0321024E+01;  0.0000000E+00; -6.7968340E+00;0; -1.1820240E-01;  3.9664168E+04;  0.0000000E+00; -2.6633732E-02;  4.0000000E+04;  0.0000000E+00;  4.0035402E+04; -1.1288384E-01;  0.0000000E+00; -5.3185564E-03;  4.7503901E+03;
  5.4405975E-01;  9.9999998E-03; -2.6987898E-01;5743;  2.9115552E-01;  0.0000000E+00; -5.3089219E-03;  9.9733295E+02;  1.0002949E-01; -2.2096116E+03;3; -2.0699652E+01;  0.0000000E+00; -9.5914917E+00;0; -1.0696968E-01;  3.9736211E+04;  0.0000000E+00; -3.8413200E-01;  4.0000000E+04;  0.0000000E+00;  4.0026902E+04; -1.4866281E-01;  0.0000000E+00;  4.1693125E-02;  3.6710513E+03;
  5.4404396E-01;  9.9999998E-03; -2.5987208E-01;5744;  2.9358140E-01;  0.0000000E+00; -4.6171453E-03;  9.9731177E+02;  1.0002950E-01; -2.2271418E+03;3; -2.0958426E+01;  0.0000000E+00; -9.8280382E+00;0; -1.1037506E-01;  3.9731125E+04;  0.0000000E+00; -3.2282004E-01;  4.0000000E+04;  0.0000000E+00;  4.0030379E+04; -1.4604318E-01;  0.0000000E+00;  3.5668120E-02;  4.0930144E+03;
  5.4400647E-01;  9.9999998E-03; -2.4986975E-01;5745;  2.9616082E-01;  0.0000000E+00; -3.6318074E-03;  9.9723663E+02;  1.0002951E-01; -2.2894116E+03;3; -2.1228880E+01;  0.0000000E+00; -9.8624582E+00;0; -1.1467418E-01;  3.9726113E+04;  0.0000000E+00; -2.4201885E-01;  4.0000000E+04;  0.0000000E+00;  4.0029312E+04; -1.4323373E-01;  0.0000000E+00;  2.8559549E-02;  3.9486067E+03;
  5.4394811E-01;  9.9999998E-03; -2.3987128E-01;5746;  2.9882646E-01;  0.0000000E+00; -2.8984863E-03;  9.9714221E+02;  1.0002956E-01; -2.3676313E+03;3; -2.1530296E+01;  0.0000000E+00; -9.7652254E+00;0; -1.1577012E-01;  3.9720902E+04;  0.0000000E+00; -1.6194886E-01;  4.0000000E+04;  0.0000000E+00;  4.0026793E+04; -1.4027485E-01;  0.0000000E+00;  2.4504738E-02;  3.6380574E+03;
  5.4387677E-01;  9.9999998E-03; -2.2987467E-01;5747;  3.0155531E-01;  0.0000000E+00; -2.4002206E-03;  9.9705640E+02;  1.0002951E-01; -2.4386909E+03;3; -2.1881109E+01;  0.0000000E+00; -9.6239157E+00;0; -1.1560172E-01;  3.9715645E+04;  0.0000000E+00; -9.3130916E-02;  4.0000000E+04;  0.0000000E+00;  4.0025035E+04; -1.3723208E-01;  0.0000000E+00;  2.1630360E-02;  3.4178767E+03;
  5.4379845E-01;  9.9999998E-03; -2.1987851E-01;5748;  3.0433643E-01;  0.0000000E+00; -2.0451199E-03;  9.9698315E+02;  1.0002942E-01; -2.4993804E+03;3; -2.2316450E+01;  0.0000000E+00; -9.4724970E+00;0; -1.1543544E-01;  3.9710422E+04;  0.0000000E+00; -3.9262868E-02;  4.0000000E+04;  0.0000000E+00;  4.0024352E+04; -1.3418432E-01;  0.0000000E+00;  1.8748870E-02;  3.3344624E+03;
  5.4371601E-01;  9.9999998E-03; -2.0988195E-01;5749;  3.0714399E-01;  0.0000000E+00; -1.7966806E-03;  9.9692242E+02;  1.0002949E-01; -2.5497000E+03;3; -2.2829102E+01;  0.0000000E+00; -9.3007784E+00;0; -1.1563975E-01;  3.9705242E+04;  0.0000000E+00; -1.1926809E-03;  4.0000000E+04;  0.0000000E+00;  4.0024484E+04; -1.3121839E-01;  0.0000000E+00;  1.5578646E-02;  3.3520259E+03;
  5.4363173E-01;  9.9999998E-03; -1.9988458E-01;5750;  3.0994892E-01;  0.0000000E+00; -1.6354256E-03;  9.9686420E+02;  1.0002949E-01; -2.5979453E+03;3; -2.3440556E+01;  0.0000000E+00; -9.1429653E+00;0; -1.1628318E-01;  3.9700020E+04;  0.0000000E+00;  2.1718025E-02;  4.0000000E+04;  0.0000000E+00;  4.0025008E+04; -1.2842695E-01;  0.0000000E+00;  1.2143773E-02;  3.4251062E+03;
  5.4354692E-01;  9.9999998E-03; -1.8988681E-01;5751;  3.1272802E-01;  0.0000000E+00; -1.5455948E-03;  9.9681030E+02;  1.0002939E-01; -2.6425859E+03;3; -2.4155483E+01;  0.0000000E+00; -9.0035810E+00;0; -1.1731270E-01;  3.9694984E+04;  0.0000000E+00;  3.1612769E-02;  4.0000000E+04;  0.0000000E+00;  4.0025734E+04; -1.2590143E-01;  0.0000000E+00;  8.5887294E-03;  3.5214829E+03;
  5.4346222E-01;  9.9999998E-03; -1.7988895E-01;5752;  3.1545648E-01;  0.0000000E+00; -1.5205049E-03;  9.9676062E+02;  1.0002954E-01; -2.6837698E+03;3; -2.4948290E+01;  0.0000000E+00; -8.8692970E+00;0; -1.1860596E-01;  3.9689895E+04;  0.0000000E+00;  3.1639889E-02;  4.0000000E+04;  0.0000000E+00;  4.0026555E+04; -1.2372095E-01;  0.0000000E+00;  5.1149842E-03;  3.6282065E+03;
  5.4337788E-01;  9.9999998E-03; -1.6989125E-01;5753;  3.1811249E-01;  0.0000000E+00; -1.5527386E-03;  9.9670880E+02;  1.0002955E-01; -2.7266821E+03;3; -2.5767078E+01;  0.0000000E+00; -8.6833735E+00;0; -1.2000152E-01;  3.9684934E+04;  0.0000000E+00;  2.5370862E-02;  4.0000000E+04;  0.0000000E+00;  4.0027445E+04; -1.2194870E-01;  0.0000000E+00;  1.9471877E-03;  3.7405178E+03;
  5.4329425E-01;  9.9999998E-03; -1.5989386E-01;5754;  3.2067955E-01;  0.0000000E+00; -1.6304447E-03;  9.9665967E+02;  1.0002933E-01; -2.7673723E+03;3; -2.6609829E+01;  0.0000000E+00; -8.4292488E+00;0; -1.2131084E-01;  3.9680102E+04;  0.0000000E+00;  1.6111765E-02;  4.0000000E+04;  0.0000000E+00;  4.0028305E+04; -1.2062711E-01;  0.0000000E+00; -6.8373099E-04;  3.8571262E+03;
  5.4321158E-01;  9.9999998E-03; -1.4989682E-01;5755;  3.2314774E-01;  0.0000000E+00; -1.7416334E-03;  9.9661151E+02;  1.0002962E-01; -2.8072722E+03;3; -2.7460287E+01;  0.0000000E+00; -8.1101933E+00;0; -1.2234593E-01;  3.9675324E+04;  0.0000000E+00;  6.3490542E-03;  4.0000000E+04;  0.0000000E+00;  4.0029293E+04; -1.1978005E-01;  0.0000000E+00; -2.5658850E-03;  3.9786833E+03;
  5.4313016E-01;  9.9999998E-03; -1.3990015E-01;5756;  3.2551125E-01;  0.0000000E+00; -1.8716900E-03;  9.9656671E+02;  1.0002943E-01; -2.8444070E+03;3; -2.8341713E+01;  0.0000000E+00; -7.7362080E+00;0; -1.2295244E-01;  3.9670637E+04;  0.0000000E+00; -2.4529442E-03;  4.0000000E+04;  0.0000000E+00;  4.0030215E+04; -1.1941382E-01;  0.0000000E+00; -3.5386167E-03;  4.1079614E+03;
  5.4305041E-01;  9.9999998E-03; -1.2990388E-01;5757;  3.2776493E-01;  0.0000000E+00; -2.0087841E-03;  9.9652612E+02;  1.0002955E-01; -2.8780356E+03;3; -2.9248980E+01;  0.0000000E+00; -7.3284326E+00;0; -1.2303603E-01;  3.9666191E+04;  0.0000000E+00; -9.6595762E-03;  4.0000000E+04;  0.0000000E+00;  4.0031441E+04; -1.1952026E-01;  0.0000000E+00; -3.5157742E-03;  4.2493721E+03;
  5.4297262E-01;  9.9999998E-03; -1.1990815E-01;5758;  3.2990357E-01;  0.0000000E+00; -2.1427800E-03;  9.9649066E+02;  1.0002952E-01; -2.9074175E+03;3; -3.0191528E+01;  0.0000000E+00; -6.9057126E+00;0; -1.2255794E-01;  3.9662199E+04;  0.0000000E+00; -1.4992340E-02;  4.0000000E+04;  0.0000000E+00;  4.0032613E+04; -1.2007888E-01;  0.0000000E+00; -2.4790512E-03;  4.4064482E+03;
  5.4289764E-01;  9.9999998E-03; -1.0991307E-01;5759;  3.3192578E-01;  0.0000000E+00; -2.2580128E-03;  9.9646320E+02;  1.0002936E-01; -2.9301821E+03;3; -3.1156578E+01;  0.0000000E+00; -6.4665971E+00;0; -1.2151185E-01;  3.9658695E+04;  0.0000000E+00; -1.8306591E-02;  4.0000000E+04;  0.0000000E+00;  4.0033969E+04; -1.2105808E-01;  0.0000000E+00; -4.5377130E-04;  4.5781411E+03;
  5.5419379E-01;  9.9999998E-03; -2.6988819E-01;5804;  2.8955090E-01;  0.0000000E+00; -6.7251525E-03;  9.9771869E+02;  1.0004872E-01; -1.8900156E+03;3; -2.0604548E+01;  0.0000000E+00; -9.3178310E+00;0; -1.1548476E-01;  3.9756738E+04;  0.0000000E+00; -6.4141256E-01;  4.0000000E+04;  0.0000000E+00;  4.0021738E+04; -1.5814002E-01;  0.0000000E+00;  4.2655259E-02;  3.1082688E+03;
  5.5417395E-01;  9.9999998E-03; -2.5988406E-01;5805;  2.9203001E-01;  0.0000000E+00; -5.8580227E-03;  9.9767218E+02;  1.0004855E-01; -1.9285330E+03;3; -2.0952400E+01;  0.0000000E+00; -9.5445137E+00;0; -1.1921079E-01;  3.9750500E+04;  0.0000000E+00; -4.9542296E-01;  4.0000000E+04;  0.0000000E+00;  4.0024473E+04; -1.5493701E-01;  0.0000000E+00;  3.5726216E-02;  3.3816631E+03;
  5.5412990E-01;  9.9999998E-03; -2.4988554E-01;5806;  2.9465702E-01;  0.0000000E+00; -4.8366697E-03;  9.9757550E+02;  1.0004877E-01; -2.0086293E+03;3; -2.1306561E+01;  0.0000000E+00; -9.4914913E+00;0; -1.2231714E-01;  3.9744062E+04;  0.0000000E+00; -3.4458458E-01;  4.0000000E+04;  0.0000000E+00;  4.0023000E+04; -1.5153132E-01;  0.0000000E+00;  2.9214179E-02;  3.1730603E+03;
  5.5406189E-01;  9.9999998E-03; -2.3988974E-01;5807;  2.9735875E-01;  0.0000000E+00; -4.1606687E-03;  9.9747736E+02;  1.0004855E-01; -2.0899600E+03;3; -2.1692486E+01;  0.0000000E+00; -9.3935928E+00;0; -1.2199581E-01;  3.9737410E+04;  0.0000000E+00; -2.1192849E-01;  4.0000000E+04;  0.0000000E+00;  4.0021633E+04; -1.4797595E-01;  0.0000000E+00;  2.5980135E-02;  2.9806257E+03;
  5.5397940E-01;  9.9999998E-03; -2.2989453E-01;5808;  3.0012575E-01;  0.0000000E+00; -3.7086522E-03;  9.9739166E+02;  1.0004845E-01; -2.1609702E+03;3; -2.2118216E+01;  0.0000000E+00; -9.2194538E+00;0; -1.2090512E-01;  3.9730684E+04;  0.0000000E+00; -1.0578629E-01;  4.0000000E+04;  0.0000000E+00;  4.0021379E+04; -1.4435847E-01;  0.0000000E+00;  2.3453346E-02;  2.9484053E+03;
  5.5389106E-01;  9.9999998E-03; -2.1989907E-01;5809;  3.0294612E-01;  0.0000000E+00; -3.3690869E-03;  9.9731964E+02;  1.0004871E-01; -2.2206228E+03;3; -2.2621937E+01;  0.0000000E+00; -9.0378923E+00;0; -1.2017827E-01;  3.9723969E+04;  0.0000000E+00; -2.5809985E-02;  4.0000000E+04;  0.0000000E+00;  4.0022047E+04; -1.4077938E-01;  0.0000000E+00;  2.0601105E-02;  3.0334976E+03;
  5.5380028E-01;  9.9999998E-03; -2.0990282E-01;5810;  3.0579492E-01;  0.0000000E+00; -3.1160726E-03;  9.9725055E+02;  1.0004860E-01; -2.2778555E+03;3; -2.3204500E+01;  0.0000000E+00; -8.8558054E+00;0; -1.1999735E-01;  3.9717379E+04;  0.0000000E+00;  3.0149626E-02;  4.0000000E+04;  0.0000000E+00;  4.0023094E+04; -1.3734613E-01;  0.0000000E+00;  1.7348783E-02;  3.1733499E+03;
  5.5370951E-01;  9.9999998E-03; -1.9990538E-01;5811;  3.0863571E-01;  0.0000000E+00; -2.9504369E-03;  9.9718549E+02;  1.0004871E-01; -2.3317798E+03;3; -2.3871965E+01;  0.0000000E+00; -8.6863937E+00;0; -1.2033752E-01;  3.9710836E+04;  0.0000000E+00;  6.3931897E-02;  4.0000000E+04;  0.0000000E+00;  4.0024250E+04; -1.3416962E-01;  0.0000000E+00;  1.3832107E-02;  3.3220642E+03;
  5.5362093E-01;  9.9999998E-03; -1.8990713E-01;5812;  3.1144220E-01;  0.0000000E+00; -2.8628467E-03;  9.9712085E+02;  1.0004846E-01; -2.3853088E+03;3; -2.4633989E+01;  0.0000000E+00; -8.5378160E+00;0; -1.2112286E-01;  3.9704570E+04;  0.0000000E+00;  7.8712896E-02;  4.0000000E+04;  0.0000000E+00;  4.0025238E+04; -1.3136035E-01;  0.0000000E+00;  1.0237494E-02;  3.4534631E+03;
  5.5353504E-01;  9.9999998E-03; -1.7990857E-01;5813;  3.1419131E-01;  0.0000000E+00; -2.8429402E-03;  9.9705664E+02;  1.0004858E-01; -2.4384924E+03;3; -2.5463671E+01;  0.0000000E+00; -8.3817482E+00;0; -1.2222148E-01;  3.9698504E+04;  0.0000000E+00;  7.8807458E-02;  4.0000000E+04;  0.0000000E+00;  4.0026180E+04; -1.2901637E-01;  0.0000000E+00;  6.7948825E-03;  3.5631553E+03;
  5.5345190E-01;  9.9999998E-03; -1.6991003E-01;5814;  3.1686246E-01;  0.0000000E+00; -2.8798787E-03;  9.9699280E+02;  1.0004850E-01; -2.4913801E+03;3; -2.6339199E+01;  0.0000000E+00; -8.2021303E+00;0; -1.2345945E-01;  3.9692746E+04;  0.0000000E+00;  6.9187686E-02;  4.0000000E+04;  0.0000000E+00;  4.0026781E+04; -1.2721522E-01;  0.0000000E+00;  3.7557720E-03;  3.6566836E+03;
  5.5337125E-01;  9.9999998E-03; -1.5991160E-01;5815;  3.1944102E-01;  0.0000000E+00; -2.9593653E-03;  9.9693195E+02;  1.0004857E-01; -2.5417983E+03;3; -2.7215836E+01;  0.0000000E+00; -7.9522290E+00;0; -1.2463731E-01;  3.9687070E+04;  0.0000000E+00;  5.4566979E-02;  4.0000000E+04;  0.0000000E+00;  4.0027434E+04; -1.2600972E-01;  0.0000000E+00;  1.3724121E-03;  3.7420830E+03;
  5.5329239E-01;  9.9999998E-03; -1.4991340E-01;5816;  3.2191610E-01;  0.0000000E+00; -3.0674641E-03;  9.9687170E+02;  1.0004828E-01; -2.5917227E+03;3; -2.8119160E+01;  0.0000000E+00; -7.6515083E+00;0; -1.2555702E-01;  3.9681602E+04;  0.0000000E+00;  3.8623020E-02;  4.0000000E+04;  0.0000000E+00;  4.0028066E+04; -1.2542666E-01;  0.0000000E+00; -1.3035187E-04;  3.8277542E+03;
  5.5321527E-01;  9.9999998E-03; -1.3991554E-01;5817;  3.2428122E-01;  0.0000000E+00; -3.1899486E-03;  9.9681470E+02;  1.0004857E-01; -2.6389805E+03;3; -2.9030464E+01;  0.0000000E+00; -7.3082356E+00;0; -1.2605584E-01;  3.9676230E+04;  0.0000000E+00;  2.3632558E-02;  4.0000000E+04;  0.0000000E+00;  4.0028855E+04; -1.2546873E-01;  0.0000000E+00; -5.8710674E-04;  3.9221230E+03;
  5.5313993E-01;  9.9999998E-03; -1.2991813E-01;5818;  3.2652912E-01;  0.0000000E+00; -3.3156115E-03;  9.9676050E+02;  1.0004845E-01; -2.6838679E+03;3; -2.9975298E+01;  0.0000000E+00; -6.9430790E+00;0; -1.2603384E-01;  3.9671094E+04;  0.0000000E+00;  1.0640303E-02;  4.0000000E+04;  0.0000000E+00;  4.0029695E+04; -1.2612008E-01;  0.0000000E+00;  8.6233274E-05;  4.0332439E+03;
  5.5306655E-01;  9.9999998E-03; -1.1992130E-01;5819;  3.2865635E-01;  0.0000000E+00; -3.4315691E-03;  9.9671252E+02;  1.0004851E-01; -2.7236199E+03;3; -3.0934496E+01;  0.0000000E+00; -6.5513930E+00;0; -1.2544546E-01;  3.9666199E+04;  0.0000000E+00;  9.5401752E-05;  4.0000000E+04;  0.0000000E+00;  4.0030660E+04; -1.2734716E-01;  0.0000000E+00;  1.9017066E-03;  4.1661860E+03;
  5.5299580E-01;  9.9999998E-03; -1.0992520E-01;5820;  3.3066058E-01;  0.0000000E+00; -3.5247405E-03;  9.9667206E+02;  1.0004858E-01; -2.7571497E+03;3; -3.1909704E+01;  0.0000000E+00; -6.1725664E+00;0; -1.2427646E-01;  3.9661730E+04;  0.0000000E+00; -7.7310195E-03;  4.0000000E+04;  0.0000000E+00;  4.0031957E+04; -1.2910037E-01;  0.0000000E+00;  4.8239054E-03;  4.3205488E+03;
  5.6432599E-01;  9.9999998E-03; -2.6990005E-01;5865;  2.8788155E-01;  0.0000000E+00; -8.1140809E-03;  9.9822546E+02;  1.0007928E-01; -1.4701761E+03;3; -2.0508247E+01;  0.0000000E+00; -8.9574881E+00;0; -1.2516508E-01;  3.9779555E+04;  0.0000000E+00; -9.6208227E-01;  4.0000000E+04;  0.0000000E+00;  4.0015184E+04; -1.6740410E-01;  0.0000000E+00;  4.2239033E-02;  2.5275452E+03;
  5.6430244E-01;  9.9999998E-03; -2.5989911E-01;5866;  2.9042679E-01;  0.0000000E+00; -7.0698415E-03;  9.9814734E+02;  1.0007925E-01; -1.5348655E+03;3; -2.0943954E+01;  0.0000000E+00; -9.1352329E+00;0; -1.2903307E-01;  3.9771480E+04;  0.0000000E+00; -7.1012419E-01;  4.0000000E+04;  0.0000000E+00;  4.0016879E+04; -1.6360019E-01;  0.0000000E+00;  3.4567121E-02;  2.5563281E+03;
  5.6425112E-01;  9.9999998E-03; -2.4990414E-01;5867;  2.9310638E-01;  0.0000000E+00; -6.0745496E-03;  9.9803113E+02;  1.0007920E-01; -1.6311588E+03;3; -2.1381342E+01;  0.0000000E+00; -9.0327921E+00;0; -1.3033363E-01;  3.9763344E+04;  0.0000000E+00; -4.7733849E-01;  4.0000000E+04;  0.0000000E+00;  4.0015594E+04; -1.5958302E-01;  0.0000000E+00;  2.9249378E-02;  2.2950210E+03;
  5.6417322E-01;  9.9999998E-03; -2.3991039E-01;5868;  2.9585272E-01;  0.0000000E+00; -5.4809446E-03;  9.9793048E+02;  1.0007923E-01; -1.7145636E+03;3; -2.1849504E+01;  0.0000000E+00; -8.9213629E+00;0; -1.2840021E-01;  3.9754895E+04;  0.0000000E+00; -2.8752178E-01;  4.0000000E+04;  0.0000000E+00;  4.0015754E+04; -1.5542196E-01;  0.0000000E+00;  2.7021749E-02;  2.2539285E+03;
  5.6408131E-01;  9.9999998E-03; -2.2991654E-01;5869;  2.9866567E-01;  0.0000000E+00; -5.0766310E-03;  9.9784540E+02;  1.0007921E-01; -1.7850305E+03;3; -2.2351175E+01;  0.0000000E+00; -8.7390709E+00;0; -1.2633581E-01;  3.9746363E+04;  0.0000000E+00; -1.4326990E-01;  4.0000000E+04;  0.0000000E+00;  4.0017176E+04; -1.5122634E-01;  0.0000000E+00;  2.4890531E-02;  2.4174783E+03;
  5.6398422E-01;  9.9999998E-03; -2.1992207E-01;5870;  3.0153126E-01;  0.0000000E+00; -4.7543161E-03;  9.9776776E+02;  1.0007947E-01; -1.8493743E+03;3; -2.2918341E+01;  0.0000000E+00; -8.5363455E+00;0; -1.2497883E-01;  3.9738047E+04;  0.0000000E+00; -3.6760140E-02;  4.0000000E+04;  0.0000000E+00;  4.0019309E+04; -1.4711580E-01;  0.0000000E+00;  2.2136962E-02;  2.6775042E+03;
  5.6388485E-01;  9.9999998E-03; -2.0992655E-01;5871;  3.0442277E-01;  0.0000000E+00; -4.5004818E-03;  9.9769287E+02;  1.0007920E-01; -1.9113970E+03;3; -2.3563030E+01;  0.0000000E+00; -8.3477707E+00;0; -1.2433171E-01;  3.9729680E+04;  0.0000000E+00;  3.8433101E-02;  4.0000000E+04;  0.0000000E+00;  4.0021387E+04; -1.4321639E-01;  0.0000000E+00;  1.8884683E-02;  2.9485964E+03;
  5.6378728E-01;  9.9999998E-03; -1.9992928E-01;5872;  3.0730268E-01;  0.0000000E+00; -4.3308474E-03;  9.9761639E+02;  1.0007921E-01; -1.9747531E+03;3; -2.4284288E+01;  0.0000000E+00; -8.1748419E+00;0; -1.2428761E-01;  3.9721656E+04;  0.0000000E+00;  8.5804559E-02;  4.0000000E+04;  0.0000000E+00;  4.0023250E+04; -1.3965863E-01;  0.0000000E+00;  1.5371027E-02;  3.1843330E+03;
  5.6369370E-01;  9.9999998E-03; -1.8993065E-01;5873;  3.1013998E-01;  0.0000000E+00; -4.2454805E-03;  9.9753754E+02;  1.0007938E-01; -2.0400844E+03;3; -2.5090048E+01;  0.0000000E+00; -8.0226603E+00;0; -1.2474640E-01;  3.9713953E+04;  0.0000000E+00;  1.0901322E-01;  4.0000000E+04;  0.0000000E+00;  4.0024535E+04; -1.3657273E-01;  0.0000000E+00;  1.1826338E-02;  3.3604714E+03;
  5.6360483E-01;  9.9999998E-03; -1.7993139E-01;5874;  3.1291208E-01;  0.0000000E+00; -4.2314860E-03;  9.9746155E+02;  1.0007942E-01; -2.1030452E+03;3; -2.5962479E+01;  0.0000000E+00; -7.8681111E+00;0; -1.2556951E-01;  3.9706762E+04;  0.0000000E+00;  1.1294731E-01;  4.0000000E+04;  0.0000000E+00;  4.0025492E+04; -1.3407579E-01;  0.0000000E+00;  8.5062822E-03;  3.4795588E+03;
  5.6352109E-01;  9.9999998E-03; -1.6993186E-01;5875;  3.1560084E-01;  0.0000000E+00; -4.2727585E-03;  9.9738397E+02;  1.0007933E-01; -2.1673396E+03;3; -2.6864141E+01;  0.0000000E+00; -7.6852465E+00;0; -1.2657522E-01;  3.9699973E+04;  0.0000000E+00;  1.0359053E-01;  4.0000000E+04;  0.0000000E+00;  4.0026047E+04; -1.3226178E-01;  0.0000000E+00;  5.6865653E-03;  3.5571826E+03;
  5.6344217E-01;  9.9999998E-03; -1.5993218E-01;5876;  3.1819129E-01;  0.0000000E+00; -4.3533277E-03;  9.9731158E+02;  1.0007913E-01; -2.2272883E+03;3; -2.7783873E+01;  0.0000000E+00; -7.4529786E+00;0; -1.2755470E-01;  3.9693688E+04;  0.0000000E+00;  8.6862504E-02;  4.0000000E+04;  0.0000000E+00;  4.0026477E+04; -1.3119295E-01;  0.0000000E+00;  3.6382522E-03;  3.6108174E+03;
  5.6336772E-01;  9.9999998E-03; -1.4993261E-01;5877;  3.2067236E-01;  0.0000000E+00; -4.4584079E-03;  9.9724127E+02;  1.0007934E-01; -2.2855581E+03;3; -2.8712141E+01;  0.0000000E+00; -7.1711092E+00;0; -1.2830232E-01;  3.9687809E+04;  0.0000000E+00;  6.7491792E-02;  4.0000000E+04;  0.0000000E+00;  4.0026777E+04; -1.3089897E-01;  0.0000000E+00;  2.5966531E-03;  3.6568748E+03;
  5.6329656E-01;  9.9999998E-03; -1.3993339E-01;5878;  3.2303497E-01;  0.0000000E+00; -4.5742262E-03;  9.9717688E+02;  1.0007916E-01; -2.3388896E+03;3; -2.9667393E+01;  0.0000000E+00; -6.8752518E+00;0; -1.2864885E-01;  3.9682207E+04;  0.0000000E+00;  4.8485849E-02;  4.0000000E+04;  0.0000000E+00;  4.0027102E+04; -1.3137785E-01;  0.0000000E+00;  2.7289987E-03;  3.7098882E+03;
  5.6322759E-01;  9.9999998E-03; -1.2993476E-01;5879;  3.2527250E-01;  0.0000000E+00; -4.6889544E-03;  9.9711749E+02;  1.0007913E-01; -2.3880735E+03;3; -3.0641256E+01;  0.0000000E+00; -6.5583582E+00;0; -1.2848806E-01;  3.9676832E+04;  0.0000000E+00;  3.1310827E-02;  4.0000000E+04;  0.0000000E+00;  4.0027695E+04; -1.3260306E-01;  0.0000000E+00;  4.1150004E-03;  3.7816917E+03;
  5.6316066E-01;  9.9999998E-03; -1.1993679E-01;5880;  3.2738316E-01;  0.0000000E+00; -4.7865985E-03;  9.9706335E+02;  1.0007919E-01; -2.4329609E+03;3; -3.1604725E+01;  0.0000000E+00; -6.1990590E+00;0; -1.2776734E-01;  3.9671766E+04;  0.0000000E+00;  1.6599832E-02;  4.0000000E+04;  0.0000000E+00;  4.0028477E+04; -1.3452688E-01;  0.0000000E+00;  6.7595388E-03;  3.8796968E+03;
  5.6309611E-01;  9.9999998E-03; -1.0993957E-01;5881;  3.2936174E-01;  0.0000000E+00; -4.8605790E-03;  9.9701544E+02;  1.0007910E-01; -2.4726633E+03;3; -3.2590527E+01;  0.0000000E+00; -5.8818479E+00;0; -1.2646388E-01;  3.9667105E+04;  0.0000000E+00;  4.7769356E-03;  4.0000000E+04;  0.0000000E+00;  4.0029371E+04; -1.3708098E-01;  0.0000000E+00;  1.0617108E-02;  4.0046904E+03;
  5.7442874E-01;  9.9999998E-03; -2.6991278E-01;5926;  2.8613827E-01;  0.0000000E+00; -9.5104147E-03;  9.9875543E+02;  1.0012982E-01; -1.0310782E+03;3; -2.0407082E+01;  0.0000000E+00; -8.5077505E+00;0; -1.3575417E-01;  3.9788484E+04;  0.0000000E+00; -1.2591305E+00;  4.0000000E+04;  0.0000000E+00;  4.0008375E+04; -1.7654547E-01;  0.0000000E+00;  4.0791295E-02;  2.1864724E+03;
  5.7440221E-01;  9.9999998E-03; -2.5991434E-01;5927;  2.8876141E-01;  0.0000000E+00; -8.3321715E-03;  9.9864557E+02;  1.0012991E-01; -1.1221371E+03;3; -2.0932858E+01;  0.0000000E+00; -8.6403904E+00;0; -1.3920397E-01;  3.9778574E+04;  0.0000000E+00; -9.1261125E-01;  4.0000000E+04;  0.0000000E+00;  4.0009430E+04; -1.7209807E-01;  0.0000000E+00;  3.2894108E-02;  1.9103490E+03;
  5.7434440E-01;  9.9999998E-03; -2.4992102E-01;5928;  2.9149935E-01;  0.0000000E+00; -7.4164802E-03;  9.9851807E+02;  1.0012995E-01; -1.2277634E+03;3; -2.1457733E+01;  0.0000000E+00; -8.5038204E+00;0; -1.3826364E-01;  3.9768672E+04;  0.0000000E+00; -6.0931343E-01;  4.0000000E+04;  0.0000000E+00;  4.0008941E+04; -1.6743003E-01;  0.0000000E+00;  2.9166378E-02;  1.6116528E+03;
  5.7426077E-01;  9.9999998E-03; -2.3992838E-01;5929;  2.9430300E-01;  0.0000000E+00; -6.8882704E-03;  9.9841412E+02;  1.0013004E-01; -1.3138842E+03;3; -2.2003300E+01;  0.0000000E+00; -8.3697996E+00;0; -1.3480289E-01;  3.9758539E+04;  0.0000000E+00; -3.7365806E-01;  4.0000000E+04;  0.0000000E+00;  4.0010406E+04; -1.6263427E-01;  0.0000000E+00;  2.7831379E-02;  1.6503369E+03;
  5.7416445E-01;  9.9999998E-03; -2.2993587E-01;5930;  2.9717153E-01;  0.0000000E+00; -6.5137809E-03;  9.9832642E+02;  1.0012998E-01; -1.3865239E+03;3; -2.2578390E+01;  0.0000000E+00; -8.1839609E+00;0; -1.3177037E-01;  3.9748484E+04;  0.0000000E+00; -2.0009559E-01;  4.0000000E+04;  0.0000000E+00;  4.0013188E+04; -1.5784009E-01;  0.0000000E+00;  2.6069721E-02;  1.9375479E+03;
  5.7406223E-01;  9.9999998E-03; -2.1994306E-01;5931;  3.0008829E-01;  0.0000000E+00; -6.2001972E-03;  9.9824310E+02;  1.0013010E-01; -1.4555587E+03;3; -2.3211924E+01;  0.0000000E+00; -7.9763203E+00;0; -1.2971419E-01;  3.9738383E+04;  0.0000000E+00; -7.3041745E-02;  4.0000000E+04;  0.0000000E+00;  4.0016402E+04; -1.5318561E-01;  0.0000000E+00;  2.3471419E-02;  2.3199336E+03;
  5.7395774E-01;  9.9999998E-03; -2.0994894E-01;5932;  3.0302563E-01;  0.0000000E+00; -5.9499918E-03;  9.9815991E+02;  1.0013019E-01; -1.5244948E+03;3; -2.3907791E+01;  0.0000000E+00; -7.7825060E+00;0; -1.2849832E-01;  3.9728566E+04;  0.0000000E+00;  1.8386409E-02;  4.0000000E+04;  0.0000000E+00;  4.0019363E+04; -1.4881703E-01;  0.0000000E+00;  2.0318713E-02;  2.6984651E+03;
  5.7385510E-01;  9.9999998E-03; -1.9995241E-01;5933;  3.0594665E-01;  0.0000000E+00; -5.7841400E-03;  9.9807391E+02;  1.0013010E-01; -1.5957024E+03;3; -2.4682558E+01;  0.0000000E+00; -7.6207690E+00;0; -1.2797438E-01;  3.9719215E+04;  0.0000000E+00;  7.9555206E-02;  4.0000000E+04;  0.0000000E+00;  4.0021914E+04; -1.4488493E-01;  0.0000000E+00;  1.6910559E-02;  3.0145071E+03;
  5.7375687E-01;  9.9999998E-03; -1.8995394E-01;5934;  3.0881909E-01;  0.0000000E+00; -5.7034353E-03;  9.9798499E+02;  1.0013006E-01; -1.6693792E+03;3; -2.5527529E+01;  0.0000000E+00; -7.4691157E+00;0; -1.2802275E-01;  3.9710262E+04;  0.0000000E+00;  1.1391186E-01;  4.0000000E+04;  0.0000000E+00;  4.0023547E+04; -1.4153783E-01;  0.0000000E+00;  1.3515082E-02;  3.2370120E+03;
  5.7366431E-01;  9.9999998E-03; -1.7995451E-01;5935;  3.1161958E-01;  0.0000000E+00; -5.6945845E-03;  9.9789319E+02;  1.0013002E-01; -1.7454260E+03;3; -2.6418400E+01;  0.0000000E+00; -7.3078890E+00;0; -1.2849432E-01;  3.9701914E+04;  0.0000000E+00;  1.2588491E-01;  4.0000000E+04;  0.0000000E+00;  4.0024590E+04; -1.3891020E-01;  0.0000000E+00;  1.0415888E-02;  3.3712424E+03;
  5.7357794E-01;  9.9999998E-03; -1.6995442E-01;5936;  3.1432897E-01;  0.0000000E+00; -5.7401881E-03;  9.9780573E+02;  1.0012992E-01; -1.8179176E+03;3; -2.7351980E+01;  0.0000000E+00; -7.1324759E+00;0; -1.2919921E-01;  3.9694297E+04;  0.0000000E+00;  1.2145222E-01;  4.0000000E+04;  0.0000000E+00;  4.0025016E+04; -1.3710979E-01;  0.0000000E+00;  7.9105813E-03;  3.4397068E+03;
  5.7349837E-01;  9.9999998E-03; -1.5995394E-01;5937;  3.1693235E-01;  0.0000000E+00; -5.8222986E-03;  9.9772266E+02;  1.0012975E-01; -1.8867056E+03;3; -2.8296135E+01;  0.0000000E+00; -6.9165816E+00;0; -1.2992135E-01;  3.9687418E+04;  0.0000000E+00;  1.0716513E-01;  4.0000000E+04;  0.0000000E+00;  4.0025262E+04; -1.3620710E-01;  0.0000000E+00;  6.2857633E-03;  3.4670618E+03;
  5.7342517E-01;  9.9999998E-03; -1.4995340E-01;5938;  3.1941849E-01;  0.0000000E+00; -5.9237112E-03;  9.9764551E+02;  1.0012992E-01; -1.9506541E+03;3; -2.9260681E+01;  0.0000000E+00; -6.6792879E+00;0; -1.3045059E-01;  3.9681238E+04;  0.0000000E+00;  8.8480748E-02;  4.0000000E+04;  0.0000000E+00;  4.0025227E+04; -1.3623399E-01;  0.0000000E+00;  5.7833917E-03;  3.4767183E+03;
  5.7335794E-01;  9.9999998E-03; -1.3995303E-01;5939;  3.2177663E-01;  0.0000000E+00; -6.0313088E-03;  9.9757678E+02;  1.0012983E-01; -2.0075906E+03;3; -3.0245388E+01;  0.0000000E+00; -6.4207182E+00;0; -1.3061333E-01;  3.9675574E+04;  0.0000000E+00;  6.8950079E-02;  4.0000000E+04;  0.0000000E+00;  4.0025316E+04; -1.3718247E-01;  0.0000000E+00;  6.5691397E-03;  3.4886565E+03;
  5.7329577E-01;  9.9999998E-03; -1.2995307E-01;5940;  3.2400069E-01;  0.0000000E+00; -6.1339661E-03;  9.9751434E+02;  1.0012973E-01; -2.0592927E+03;3; -3.1227842E+01;  0.0000000E+00; -6.1370215E+00;0; -1.3029820E-01;  3.9670602E+04;  0.0000000E+00;  5.0359432E-02;  4.0000000E+04;  0.0000000E+00;  4.0025523E+04; -1.3901460E-01;  0.0000000E+00;  8.7164026E-03;  3.5184927E+03;
  5.7323706E-01;  9.9999998E-03; -1.1995377E-01;5941;  3.2608885E-01;  0.0000000E+00; -6.2153218E-03;  9.9746155E+02;  1.0012984E-01; -2.1030444E+03;3; -3.2211460E+01;  0.0000000E+00; -5.8476782E+00;0; -1.2944543E-01;  3.9665906E+04;  0.0000000E+00;  3.3540107E-02;  4.0000000E+04;  0.0000000E+00;  4.0025906E+04; -1.4166731E-01;  0.0000000E+00;  1.2221869E-02;  3.5761919E+03;
  5.7318074E-01;  9.9999998E-03; -1.0995523E-01;5942;  3.2803664E-01;  0.0000000E+00; -6.2678419E-03;  9.9741626E+02;  1.0012995E-01; -2.1405740E+03;3; -3.3195457E+01;  0.0000000E+00; -5.5617347E+00;0; -1.2802133E-01;  3.9661719E+04;  0.0000000E+00;  1.9059885E-02;  4.0000000E+04;  0.0000000E+00;  4.0026605E+04; -1.4505111E-01;  0.0000000E+00;  1.7029779E-02;  3.6644209E+03;
  5.8447105E-01;  9.9999998E-03; -2.6992404E-01;5987;  2.8430143E-01;  0.0000000E+00; -1.0976788E-02;  9.9915411E+02;  1.0021182E-01; -7.0081677E+02;3; -2.0311321E+01;  0.0000000E+00; -7.9634395E+00;0; -1.4641879E-01;  3.9760750E+04;  0.0000000E+00; -1.3885335E+00;  4.0000000E+04;  0.0000000E+00;  4.0003219E+04; -1.8543069E-01;  0.0000000E+00;  3.9011892E-02;  2.0683562E+03;
  5.8444405E-01;  9.9999998E-03; -2.5992563E-01;5988;  2.8700370E-01;  0.0000000E+00; -9.7815227E-03;  9.9903235E+02;  1.0021196E-01; -8.0165314E+02;3; -2.0923477E+01;  0.0000000E+00; -8.0513144E+00;0; -1.4833272E-01;  3.9749262E+04;  0.0000000E+00; -1.0113957E+00;  4.0000000E+04;  0.0000000E+00;  4.0004590E+04; -1.8029395E-01;  0.0000000E+00;  3.1961232E-02;  1.6580198E+03;
  5.8438724E-01;  9.9999998E-03; -2.4993123E-01;5989;  2.8981516E-01;  0.0000000E+00; -8.9298375E-03;  9.9890240E+02;  1.0021226E-01; -9.0935333E+02;3; -2.1530210E+01;  0.0000000E+00; -7.8877130E+00;0; -1.4547205E-01;  3.9737871E+04;  0.0000000E+00; -6.8766874E-01;  4.0000000E+04;  0.0000000E+00;  4.0005289E+04; -1.7494354E-01;  0.0000000E+00;  2.9471481E-02;  1.3543079E+03;
  5.8430630E-01;  9.9999998E-03; -2.3993841E-01;5990;  2.9269519E-01;  0.0000000E+00; -8.3992183E-03;  9.9879156E+02;  1.0021224E-01; -1.0011529E+03;3; -2.2152458E+01;  0.0000000E+00; -7.7419119E+00;0; -1.4091337E-01;  3.9726684E+04;  0.0000000E+00; -4.3920624E-01;  4.0000000E+04;  0.0000000E+00;  4.0007477E+04; -1.6949224E-01;  0.0000000E+00;  2.8578872E-02;  1.3705786E+03;
  5.8421284E-01;  9.9999998E-03; -2.2994749E-01;5991;  2.9563227E-01;  0.0000000E+00; -8.0127716E-03;  9.9869202E+02;  1.0021241E-01; -1.0836194E+03;3; -2.2799923E+01;  0.0000000E+00; -7.5527453E+00;0; -1.3699417E-01;  3.9715539E+04;  0.0000000E+00; -2.5731611E-01;  4.0000000E+04;  0.0000000E+00;  4.0010316E+04; -1.6408722E-01;  0.0000000E+00;  2.7093058E-02;  1.6356808E+03;
  5.8411223E-01;  9.9999998E-03; -2.1995723E-01;5992;  2.9860651E-01;  0.0000000E+00; -7.7016666E-03;  9.9860040E+02;  1.0021241E-01; -1.1595181E+03;3; -2.3489897E+01;  0.0000000E+00; -7.3428469E+00;0; -1.3414231E-01;  3.9704684E+04;  0.0000000E+00; -1.2346009E-01;  4.0000000E+04;  0.0000000E+00;  4.0013727E+04; -1.5888606E-01;  0.0000000E+00;  2.4743753E-02;  2.0312007E+03;
  5.8400786E-01;  9.9999998E-03; -2.0996547E-01;5993;  3.0159476E-01;  0.0000000E+00; -7.4662119E-03;  9.9851099E+02;  1.0021227E-01; -1.2336392E+03;3; -2.4238916E+01;  0.0000000E+00; -7.1644163E+00;0; -1.3223982E-01;  3.9694059E+04;  0.0000000E+00; -2.4636647E-02;  4.0000000E+04;  0.0000000E+00;  4.0017094E+04; -1.5405618E-01;  0.0000000E+00;  2.1816358E-02;  2.4549058E+03;
  5.8390373E-01;  9.9999998E-03; -1.9997062E-01;5994;  3.0456224E-01;  0.0000000E+00; -7.3138447E-03;  9.9841907E+02;  1.0021225E-01; -1.3097849E+03;3; -2.5051956E+01;  0.0000000E+00; -6.9989581E+00;0; -1.3113941E-01;  3.9683613E+04;  0.0000000E+00;  4.5661878E-02;  4.0000000E+04;  0.0000000E+00;  4.0020004E+04; -1.4976922E-01;  0.0000000E+00;  1.8629801E-02;  2.8216611E+03;
  5.8380312E-01;  9.9999998E-03; -1.8997319E-01;5995;  3.0747578E-01;  0.0000000E+00; -7.2434866E-03;  9.9832220E+02;  1.0021224E-01; -1.3900292E+03;3; -2.5920656E+01;  0.0000000E+00; -6.8445859E+00;0; -1.3069871E-01;  3.9673727E+04;  0.0000000E+00;  9.0515226E-02;  4.0000000E+04;  0.0000000E+00;  4.0021934E+04; -1.4619076E-01;  0.0000000E+00;  1.5492055E-02;  3.0820190E+03;
  5.8370739E-01;  9.9999998E-03; -1.7997430E-01;5996;  3.1030896E-01;  0.0000000E+00; -7.2444826E-03;  9.9822247E+02;  1.0021213E-01; -1.4726438E+03;3; -2.6841515E+01;  0.0000000E+00; -6.7037678E+00;0; -1.3075255E-01;  3.9664582E+04;  0.0000000E+00;  1.1288255E-01;  4.0000000E+04;  0.0000000E+00;  4.0023062E+04; -1.4346983E-01;  0.0000000E+00;  1.2717282E-02;  3.2346941E+03;
  5.8361816E-01;  9.9999998E-03; -1.6997452E-01;5997;  3.1304300E-01;  0.0000000E+00; -7.2950153E-03;  9.9812500E+02;  1.0021217E-01; -1.5533820E+03;3; -2.7791113E+01;  0.0000000E+00; -6.5388465E+00;0; -1.3110164E-01;  3.9656305E+04;  0.0000000E+00;  1.1744432E-01;  4.0000000E+04;  0.0000000E+00;  4.0023590E+04; -1.4172462E-01;  0.0000000E+00;  1.0622978E-02;  3.3024424E+03;
  5.8353627E-01;  9.9999998E-03; -1.5997416E-01;5998;  3.1566176E-01;  0.0000000E+00; -7.3757623E-03;  9.9803363E+02;  1.0021213E-01; -1.6290833E+03;3; -2.8767365E+01;  0.0000000E+00; -6.3591647E+00;0; -1.3152455E-01;  3.9648992E+04;  0.0000000E+00;  1.1024458E-01;  4.0000000E+04;  0.0000000E+00;  4.0023648E+04; -1.4103213E-01;  0.0000000E+00;  9.5075797E-03;  3.3136211E+03;
  5.8346182E-01;  9.9999998E-03; -1.4997353E-01;5999;  3.1815216E-01;  0.0000000E+00; -7.4720001E-03;  9.9795093E+02;  1.0021212E-01; -1.6976243E+03;3; -2.9759588E+01;  0.0000000E+00; -6.1635041E+00;0; -1.3180700E-01;  3.9642598E+04;  0.0000000E+00;  9.6849374E-02;  4.0000000E+04;  0.0000000E+00;  4.0023531E+04; -1.4142253E-01;  0.0000000E+00;  9.6155256E-03;  3.2959780E+03;
  5.8339453E-01;  9.9999998E-03; -1.3997284E-01;6000;  3.2050371E-01;  0.0000000E+00; -7.5708339E-03;  9.9787958E+02;  1.0021207E-01; -1.7567334E+03;3; -3.0763142E+01;  0.0000000E+00; -5.9423523E+00;0; -1.3177459E-01;  3.9637211E+04;  0.0000000E+00;  8.1006244E-02;  4.0000000E+04;  0.0000000E+00;  4.0023203E+04; -1.4288111E-01;  0.0000000E+00;  1.1106516E-02;  3.2737146E+03;
  5.8333379E-01;  9.9999998E-03; -1.2997228E-01;6001;  3.2271272E-01;  0.0000000E+00; -7.6563624E-03;  9.9781995E+02;  1.0021184E-01; -1.8061145E+03;3; -3.1758013E+01;  0.0000000E+00; -5.7001534E+00;0; -1.3131362E-01;  3.9632586E+04;  0.0000000E+00;  6.4628705E-02;  4.0000000E+04;  0.0000000E+00;  4.0023098E+04; -1.4535771E-01;  0.0000000E+00;  1.4044085E-02;  3.2658618E+03;
  5.8327901E-01;  9.9999998E-03; -1.1997208E-01;6002;  3.2477278E-01;  0.0000000E+00; -7.7217510E-03;  9.9777063E+02;  1.0021186E-01; -1.8470021E+03;3; -3.2752625E+01;  0.0000000E+00; -5.4627666E+00;0; -1.3035555E-01;  3.9628586E+04;  0.0000000E+00;  4.8652377E-02;  4.0000000E+04;  0.0000000E+00;  4.0023211E+04; -1.4877196E-01;  0.0000000E+00;  1.8416399E-02;  3.2847144E+03;
  5.8322924E-01;  9.9999998E-03; -1.0997239E-01;6003;  3.2668418E-01;  0.0000000E+00; -7.7494867E-03;  9.9773224E+02;  1.0021175E-01; -1.8788036E+03;3; -3.3740780E+01;  0.0000000E+00; -5.2161102E+00;0; -1.2885681E-01;  3.9625223E+04;  0.0000000E+00;  3.3753294E-02;  4.0000000E+04;  0.0000000E+00;  4.0023566E+04; -1.5301605E-01;  0.0000000E+00;  2.4159243E-02;  3.3349421E+03;
  5.9443629E-01;  9.9999998E-03; -2.6993182E-01;6048;  2.8233811E-01;  0.0000000E+00; -1.2619037E-02;  9.9928418E+02;  1.0034441E-01; -5.9301752E+02;3; -2.0214010E+01;  0.0000000E+00; -7.3419204E+00;0; -1.5566014E-01;  3.9668348E+04;  0.0000000E+00; -1.2413346E+00;  4.0000000E+04;  0.0000000E+00;  4.0001621E+04; -1.9372873E-01;  0.0000000E+00;  3.8068596E-02;  1.8428589E+03;
  5.9441698E-01;  9.9999998E-03; -2.5993031E-01;6049;  2.8512773E-01;  0.0000000E+00; -1.1487074E-02;  9.9916949E+02;  1.0034478E-01; -6.8807611E+02;3; -2.0914366E+01;  0.0000000E+00; -7.3794985E+00;0; -1.5549991E-01;  3.9656156E+04;  0.0000000E+00; -9.3595529E-01;  4.0000000E+04;  0.0000000E+00;  4.0004367E+04; -1.8787891E-01;  0.0000000E+00;  3.2379005E-02;  1.6038031E+03;
  5.9437060E-01;  9.9999998E-03; -2.4993187E-01;6050;  2.8803411E-01;  0.0000000E+00; -1.0624008E-02;  9.9904541E+02;  1.0034472E-01; -7.9083813E+02;3; -2.1601162E+01;  0.0000000E+00; -7.1940656E+00;0; -1.5156865E-01;  3.9644250E+04;  0.0000000E+00; -6.6513574E-01;  4.0000000E+04;  0.0000000E+00;  4.0006027E+04; -1.8183662E-01;  0.0000000E+00;  3.0267972E-02;  1.4765458E+03;
  5.9430277E-01;  9.9999998E-03; -2.3993775E-01;6051;  2.9100987E-01;  0.0000000E+00; -1.0004570E-02;  9.9892273E+02;  1.0034499E-01; -8.9251379E+02;3; -2.2297678E+01;  0.0000000E+00; -7.0396748E+00;0; -1.4641729E-01;  3.9632723E+04;  0.0000000E+00; -4.5179307E-01;  4.0000000E+04;  0.0000000E+00;  4.0007371E+04; -1.7573409E-01;  0.0000000E+00;  2.9316792E-02;  1.4637288E+03;
  5.9422106E-01;  9.9999998E-03; -2.2994879E-01;6052;  2.9402998E-01;  0.0000000E+00; -9.5639462E-03;  9.9880328E+02;  1.0034517E-01; -9.9147351E+02;3; -2.3008551E+01;  0.0000000E+00; -6.8316703E+00;0; -1.4165950E-01;  3.9621633E+04;  0.0000000E+00; -2.9129094E-01;  4.0000000E+04;  0.0000000E+00;  4.0008910E+04; -1.6973205E-01;  0.0000000E+00;  2.8072543E-02;  1.5695143E+03;
  5.9412950E-01;  9.9999998E-03; -2.1996170E-01;6053;  2.9707190E-01;  0.0000000E+00; -9.2594875E-03;  9.9870264E+02;  1.0034522E-01; -1.0748287E+03;3; -2.3750027E+01;  0.0000000E+00; -6.6348672E+00;0; -1.3787745E-01;  3.9610770E+04;  0.0000000E+00; -1.6997710E-01;  4.0000000E+04;  0.0000000E+00;  4.0011457E+04; -1.6400646E-01;  0.0000000E+00;  2.6129013E-02;  1.8544799E+03;
  5.9403098E-01;  9.9999998E-03; -2.0997311E-01;6054;  3.0011994E-01;  0.0000000E+00; -9.0538133E-03;  9.9861139E+02;  1.0034509E-01; -1.1504313E+03;3; -2.4543627E+01;  0.0000000E+00; -6.4631524E+00;0; -1.3516271E-01;  3.9600062E+04;  0.0000000E+00; -7.7116497E-02;  4.0000000E+04;  0.0000000E+00;  4.0014484E+04; -1.5874676E-01;  0.0000000E+00;  2.3584057E-02;  2.2416194E+03;
  5.9392989E-01;  9.9999998E-03; -1.9998084E-01;6055;  3.0314025E-01;  0.0000000E+00; -8.9299195E-03;  9.9851782E+02;  1.0034516E-01; -1.2279595E+03;3; -2.5386160E+01;  0.0000000E+00; -6.3050065E+00;0; -1.3339297E-01;  3.9589766E+04;  0.0000000E+00; -6.8159034E-03;  4.0000000E+04;  0.0000000E+00;  4.0017504E+04; -1.5414487E-01;  0.0000000E+00;  2.0751892E-02;  2.6158669E+03;
  5.9382969E-01;  9.9999998E-03; -1.8998514E-01;6056;  3.0610090E-01;  0.0000000E+00; -8.8810259E-03;  9.9841937E+02;  1.0034516E-01; -1.3095371E+03;3; -2.6282269E+01;  0.0000000E+00; -6.1720486E+00;0; -1.3239686E-01;  3.9579676E+04;  0.0000000E+00;  4.3332364E-02;  4.0000000E+04;  0.0000000E+00;  4.0019711E+04; -1.5038434E-01;  0.0000000E+00;  1.7987475E-02;  2.8980603E+03;
  5.9373266E-01;  9.9999998E-03; -1.7998767E-01;6057;  3.0897361E-01;  0.0000000E+00; -8.8932402E-03;  9.9831750E+02;  1.0034479E-01; -1.3939293E+03;3; -2.7220472E+01;  0.0000000E+00; -6.0462804E+00;0; -1.3198578E-01;  3.9570137E+04;  0.0000000E+00;  7.4724868E-02;  4.0000000E+04;  0.0000000E+00;  4.0020973E+04; -1.4762670E-01;  0.0000000E+00;  1.5640911E-02;  3.0686165E+03;
  5.9364104E-01;  9.9999998E-03; -1.6998905E-01;6058;  3.1173635E-01;  0.0000000E+00; -8.9473203E-03;  9.9821362E+02;  1.0034484E-01; -1.4799512E+03;3; -2.8190474E+01;  0.0000000E+00; -5.9102483E+00;0; -1.3194662E-01;  3.9561543E+04;  0.0000000E+00;  8.9758128E-02;  4.0000000E+04;  0.0000000E+00;  4.0021527E+04; -1.4599702E-01;  0.0000000E+00;  1.4050390E-02;  3.1443982E+03;
  5.9355611E-01;  9.9999998E-03; -1.5998961E-01;6059;  3.1437123E-01;  0.0000000E+00; -9.0264762E-03;  9.9811768E+02;  1.0034477E-01; -1.5594548E+03;3; -2.9191406E+01;  0.0000000E+00; -5.7692776E+00;0; -1.3205232E-01;  3.9553883E+04;  0.0000000E+00;  9.2703961E-02;  4.0000000E+04;  0.0000000E+00;  4.0021551E+04; -1.4557424E-01;  0.0000000E+00;  1.3521924E-02;  3.1519902E+03;
  5.9347850E-01;  9.9999998E-03; -1.4998962E-01;6060;  3.1686562E-01;  0.0000000E+00; -9.1139441E-03;  9.9803204E+02;  1.0034443E-01; -1.6304154E+03;3; -3.0205994E+01;  0.0000000E+00; -5.6150084E+00;0; -1.3208741E-01;  3.9547504E+04;  0.0000000E+00;  8.8316329E-02;  4.0000000E+04;  0.0000000E+00;  4.0021180E+04; -1.4638528E-01;  0.0000000E+00;  1.4297877E-02;  3.1201348E+03;
  5.9340847E-01;  9.9999998E-03; -1.3998930E-01;6061;  3.1920940E-01;  0.0000000E+00; -9.1992440E-03;  9.9795898E+02;  1.0034432E-01; -1.6909567E+03;3; -3.1218302E+01;  0.0000000E+00; -5.4202080E+00;0; -1.3187876E-01;  3.9542227E+04;  0.0000000E+00;  8.0015838E-02;  4.0000000E+04;  0.0000000E+00;  4.0020816E+04; -1.4840691E-01;  0.0000000E+00;  1.6528137E-02;  3.0754333E+03;
  5.9334564E-01;  9.9999998E-03; -1.2998889E-01;6062;  3.2139826E-01;  0.0000000E+00; -9.2667248E-03;  9.9790057E+02;  1.0034428E-01; -1.7393501E+03;3; -3.2235443E+01;  0.0000000E+00; -5.2328124E+00;0; -1.3131133E-01;  3.9537922E+04;  0.0000000E+00;  6.9558717E-02;  4.0000000E+04;  0.0000000E+00;  4.0020406E+04; -1.5157464E-01;  0.0000000E+00;  2.0263314E-02;  3.0395271E+03;
  5.9328949E-01;  9.9999998E-03; -1.1998860E-01;6063;  3.2342625E-01;  0.0000000E+00; -9.3097920E-03;  9.9785431E+02;  1.0034412E-01; -1.7776698E+03;3; -3.3238197E+01;  0.0000000E+00; -5.0453310E+00;0; -1.3030897E-01;  3.9534543E+04;  0.0000000E+00;  5.7803076E-02;  4.0000000E+04;  0.0000000E+00;  4.0020316E+04; -1.5578988E-01;  0.0000000E+00;  2.5480907E-02;  3.0269099E+03;
  5.9323955E-01;  9.9999998E-03; -1.0998859E-01;6064;  3.2529405E-01;  0.0000000E+00; -9.3092499E-03;  9.9782275E+02;  1.0034413E-01; -1.8037924E+03;3; -3.4225525E+01;  0.0000000E+00; -4.8325958E+00;0; -1.2881595E-01;  3.9531953E+04;  0.0000000E+00;  4.5396544E-02;  4.0000000E+04;  0.0000000E+00;  4.0020398E+04; -1.6092405E-01;  0.0000000E+00;  3.2108091E-02;  3.0444097E+03;
  6.0434902E-01;  9.9999998E-03; -2.6993564E-01;6109;  2.8021032E-01;  0.0000000E+00; -1.4482711E-02;  9.9905316E+02;  1.0055496E-01; -7.8441797E+02;3; -2.0108952E+01;  0.0000000E+00; -6.6304269E+00;0; -1.6249421E-01;  3.9481988E+04;  0.0000000E+00; -8.6607182E-01;  4.0000000E+04;  0.0000000E+00;  4.0004410E+04; -2.0081706E-01;  0.0000000E+00;  3.8322851E-02;  1.6547488E+03;
  6.0433960E-01;  9.9999998E-03; -2.5992829E-01;6110;  2.8311256E-01;  0.0000000E+00; -1.3420397E-02;  9.9896228E+02;  1.0055577E-01; -8.5972412E+02;3; -2.0906994E+01;  0.0000000E+00; -6.6437101E+00;0; -1.6046718E-01;  3.9469926E+04;  0.0000000E+00; -6.9632143E-01;  4.0000000E+04;  0.0000000E+00;  4.0008875E+04; -1.9426343E-01;  0.0000000E+00;  3.3796247E-02;  1.9419355E+03;
  6.0430861E-01;  9.9999998E-03; -2.4992399E-01;6111;  2.8613490E-01;  0.0000000E+00; -1.2448858E-02;  9.9884882E+02;  1.0055585E-01; -9.5374561E+02;3; -2.1671881E+01;  0.0000000E+00; -6.4452000E+00;0; -1.5633515E-01;  3.9458391E+04;  0.0000000E+00; -5.3242958E-01;  4.0000000E+04;  0.0000000E+00;  4.0010711E+04; -1.8755662E-01;  0.0000000E+00;  3.1221487E-02;  2.0602961E+03;
  6.0425836E-01;  9.9999998E-03; -2.3992814E-01;6112;  2.8922892E-01;  0.0000000E+00; -1.1668602E-02;  9.9870496E+02;  1.0055644E-01; -1.0729021E+03;3; -2.2434769E+01;  0.0000000E+00; -6.2567024E+00;0; -1.5088259E-01;  3.9447832E+04;  0.0000000E+00; -3.9432770E-01;  4.0000000E+04;  0.0000000E+00;  4.0009617E+04; -1.8084876E-01;  0.0000000E+00;  2.9966176E-02;  1.8794758E+03;
  6.0419303E-01;  9.9999998E-03; -2.2994100E-01;6113;  2.9234642E-01;  0.0000000E+00; -1.1165624E-02;  9.9856427E+02;  1.0055660E-01; -1.1894907E+03;3; -2.3204969E+01;  0.0000000E+00; -6.0441675E+00;0; -1.4516047E-01;  3.9437660E+04;  0.0000000E+00; -2.8408960E-01;  4.0000000E+04;  0.0000000E+00;  4.0008406E+04; -1.7430945E-01;  0.0000000E+00;  2.9148985E-02;  1.7018969E+03;
  6.0411465E-01;  9.9999998E-03; -2.1995707E-01;6114;  2.9547057E-01;  0.0000000E+00; -1.0888210E-02;  9.9845380E+02;  1.0055659E-01; -1.2809939E+03;3; -2.3994272E+01;  0.0000000E+00; -5.8492393E+00;0; -1.4027575E-01;  3.9427906E+04;  0.0000000E+00; -1.9597110E-01;  4.0000000E+04;  0.0000000E+00;  4.0009215E+04; -1.6813104E-01;  0.0000000E+00;  2.7855286E-02;  1.7787983E+03;
  6.0402566E-01;  9.9999998E-03; -2.0997152E-01;6115;  2.9858890E-01;  0.0000000E+00; -1.0733951E-02;  9.9836261E+02;  1.0055652E-01; -1.3565469E+03;3; -2.4820120E+01;  0.0000000E+00; -5.6773028E+00;0; -1.3663812E-01;  3.9418266E+04;  0.0000000E+00; -1.2419479E-01;  4.0000000E+04;  0.0000000E+00;  4.0011449E+04; -1.6252092E-01;  0.0000000E+00;  2.5882799E-02;  2.0627434E+03;
  6.0393035E-01;  9.9999998E-03; -1.9998178E-01;6116;  3.0167350E-01;  0.0000000E+00; -1.0652354E-02;  9.9827594E+02;  1.0055647E-01; -1.4283469E+03;3; -2.5690804E+01;  0.0000000E+00; -5.5487132E+00;0; -1.3414016E-01;  3.9408789E+04;  0.0000000E+00; -6.5322064E-02;  4.0000000E+04;  0.0000000E+00;  4.0014246E+04; -1.5768911E-01;  0.0000000E+00;  2.3548942E-02;  2.4041255E+03;
  6.0383320E-01;  9.9999998E-03; -1.8998836E-01;6117;  3.0468956E-01;  0.0000000E+00; -1.0630505E-02;  9.9818536E+02;  1.0055640E-01; -1.5034061E+03;3; -2.6603930E+01;  0.0000000E+00; -5.4401002E+00;0; -1.3255882E-01;  3.9399336E+04;  0.0000000E+00; -1.8194877E-02;  4.0000000E+04;  0.0000000E+00;  4.0016457E+04; -1.5383522E-01;  0.0000000E+00;  2.1276403E-02;  2.6880535E+03;
  6.0373688E-01;  9.9999998E-03; -1.7999278E-01;6118;  3.0760649E-01;  0.0000000E+00; -1.0656445E-02;  9.9808691E+02;  1.0055643E-01; -1.5849342E+03;3; -2.7555935E+01;  0.0000000E+00; -5.3407011E+00;0; -1.3167182E-01;  3.9390156E+04;  0.0000000E+00;  1.7151546E-02;  4.0000000E+04;  0.0000000E+00;  4.0017887E+04; -1.5113138E-01;  0.0000000E+00;  1.9459566E-02;  2.8741589E+03;
  6.0364419E-01;  9.9999998E-03; -1.6999574E-01;6119;  3.1039971E-01;  0.0000000E+00; -1.0713699E-02;  9.9798560E+02;  1.0055596E-01; -1.6688820E+03;3; -2.8548197E+01;  0.0000000E+00; -5.2480435E+00;0; -1.3124962E-01;  3.9381586E+04;  0.0000000E+00;  4.0837865E-02;  4.0000000E+04;  0.0000000E+00;  4.0018535E+04; -1.4970617E-01;  0.0000000E+00;  1.8456547E-02;  2.9658997E+03;
  6.0355711E-01;  9.9999998E-03; -1.5999760E-01;6120;  3.1305119E-01;  0.0000000E+00; -1.0785838E-02;  9.9788672E+02;  1.0055587E-01; -1.7508052E+03;3; -2.9569166E+01;  0.0000000E+00; -5.1427402E+00;0; -1.3106062E-01;  3.9373988E+04;  0.0000000E+00;  5.4409545E-02;  4.0000000E+04;  0.0000000E+00;  4.0018625E+04; -1.4963801E-01;  0.0000000E+00;  1.8577401E-02;  2.9830034E+03;
  6.0347664E-01;  9.9999998E-03; -1.4999859E-01;6121;  3.1554729E-01;  0.0000000E+00; -1.0862135E-02;  9.9779895E+02;  1.0055552E-01; -1.8234940E+03;3; -3.0594917E+01;  0.0000000E+00; -5.0166817E+00;0; -1.3088864E-01;  3.9367461E+04;  0.0000000E+00;  6.0780946E-02;  4.0000000E+04;  0.0000000E+00;  4.0018293E+04; -1.5094689E-01;  0.0000000E+00;  2.0058237E-02;  2.9515051E+03;
  6.0340333E-01;  9.9999998E-03; -1.3999896E-01;6122;  3.1788030E-01;  0.0000000E+00; -1.0927146E-02;  9.9772369E+02;  1.0055529E-01; -1.8858623E+03;3; -3.1631849E+01;  0.0000000E+00; -4.8854856E+00;0; -1.3056405E-01;  3.9362184E+04;  0.0000000E+00;  6.2502973E-02;  4.0000000E+04;  0.0000000E+00;  4.0017801E+04; -1.5360025E-01;  0.0000000E+00;  2.3036199E-02;  2.8984719E+03;
  6.0333705E-01;  9.9999998E-03; -1.2999901E-01;6123;  3.2004294E-01;  0.0000000E+00; -1.0972255E-02;  9.9766376E+02;  1.0055502E-01; -1.9355397E+03;3; -3.2658340E+01;  0.0000000E+00; -4.7212882E+00;0; -1.2996975E-01;  3.9358102E+04;  0.0000000E+00;  6.0804818E-02;  4.0000000E+04;  0.0000000E+00;  4.0017352E+04; -1.5751736E-01;  0.0000000E+00;  2.7547617E-02;  2.8472561E+03;
  6.0327739E-01;  9.9999998E-03; -1.1999896E-01;6124;  3.2203230E-01;  0.0000000E+00; -1.0984530E-02;  9.9761981E+02;  1.0055505E-01; -1.9719335E+03;3; -3.3676659E+01;  0.0000000E+00; -4.5677967E+00;0; -1.2902451E-01;  3.9355027E+04;  0.0000000E+00;  5.6245223E-02;  4.0000000E+04;  0.0000000E+00;  4.0017051E+04; -1.6258264E-01;  0.0000000E+00;  3.3558123E-02;  2.8144741E+03;
  6.0322380E-01;  9.9999998E-03; -1.0999903E-01;6125;  3.2384700E-01;  0.0000000E+00; -1.0950551E-02;  9.9759100E+02;  1.0055471E-01; -1.9957845E+03;3; -3.4671432E+01;  0.0000000E+00; -4.3790374E+00;0; -1.2765843E-01;  3.9353047E+04;  0.0000000E+00;  4.9289413E-02;  4.0000000E+04;  0.0000000E+00;  4.0016965E+04; -1.6864434E-01;  0.0000000E+00;  4.0985916E-02;  2.8088145E+03;
  6.1424309E-01;  9.9999998E-03; -2.6993698E-01;6170;  2.7789521E-01;  0.0000000E+00; -1.6524876E-02;  9.9846356E+02;  1.0088418E-01; -1.2728942E+03;3; -2.0000586E+01;  0.0000000E+00; -5.8250122E+00;0; -1.6638321E-01;  3.9173207E+04;  0.0000000E+00; -4.0486684E-01;  4.0000000E+04;  0.0000000E+00;  4.0010758E+04; -2.0538558E-01;  0.0000000E+00;  3.9002366E-02;  2.3079824E+03;
  6.1424190E-01;  9.9999998E-03; -2.5992265E-01;6171;  2.8093973E-01;  0.0000000E+00; -1.5473600E-02;  9.9840472E+02;  1.0088500E-01; -1.3216332E+03;3; -2.0892954E+01;  0.0000000E+00; -5.8076310E+00;0; -1.6311848E-01;  3.9162098E+04;  0.0000000E+00; -3.6921075E-01;  4.0000000E+04;  0.0000000E+00;  4.0016480E+04; -1.9821084E-01;  0.0000000E+00;  3.5092361E-02;  2.9927092E+03;
  6.1422336E-01;  9.9999998E-03; -2.4991184E-01;6172;  2.8410429E-01;  0.0000000E+00; -1.4334697E-02;  9.9829633E+02;  1.0088585E-01; -1.4114572E+03;3; -2.1745743E+01;  0.0000000E+00; -5.6291542E+00;0; -1.5911096E-01;  3.9152105E+04;  0.0000000E+00; -3.1965324E-01;  4.0000000E+04;  0.0000000E+00;  4.0017332E+04; -1.9095388E-01;  0.0000000E+00;  3.1842925E-02;  3.1047292E+03;
  6.1418897E-01;  9.9999998E-03; -2.3991370E-01;6173;  2.8733504E-01;  0.0000000E+00; -1.3394922E-02;  9.9813214E+02;  1.0088670E-01; -1.5474525E+03;3; -2.2572943E+01;  0.0000000E+00; -5.4050794E+00;0; -1.5316689E-01;  3.9143168E+04;  0.0000000E+00; -2.7160805E-01;  4.0000000E+04;  0.0000000E+00;  4.0012891E+04; -1.8377921E-01;  0.0000000E+00;  3.0612323E-02;  2.5479517E+03;
  6.1414009E-01;  9.9999998E-03; -2.2992773E-01;6174;  2.9056776E-01;  0.0000000E+00; -1.2858783E-02;  9.9797345E+02;  1.0088699E-01; -1.6789541E+03;3; -2.3391636E+01;  0.0000000E+00; -5.1756949E+00;0; -1.4625728E-01;  3.9134941E+04;  0.0000000E+00; -2.2891498E-01;  4.0000000E+04;  0.0000000E+00;  4.0008133E+04; -1.7686282E-01;  0.0000000E+00;  3.0605538E-02;  1.9632638E+03;
  6.1407655E-01;  9.9999998E-03; -2.1994607E-01;6175;  2.9379359E-01;  0.0000000E+00; -1.2630429E-02;  9.9785583E+02;  1.0088693E-01; -1.7763828E+03;3; -2.4219667E+01;  0.0000000E+00; -4.9856100E+00;0; -1.4017785E-01;  3.9127148E+04;  0.0000000E+00; -1.9025914E-01;  4.0000000E+04;  0.0000000E+00;  4.0006445E+04; -1.7040719E-01;  0.0000000E+00;  3.0229349E-02;  1.7683573E+03;
  6.1399919E-01;  9.9999998E-03; -2.0996273E-01;6176;  2.9699925E-01;  0.0000000E+00; -1.2541387E-02;  9.9777399E+02;  1.0088722E-01; -1.8441830E+03;3; -2.5071941E+01;  0.0000000E+00; -4.8347473E+00;0; -1.3560396E-01;  3.9119551E+04;  0.0000000E+00; -1.5346803E-01;  4.0000000E+04;  0.0000000E+00;  4.0007555E+04; -1.6463014E-01;  0.0000000E+00;  2.9026182E-02;  1.9048173E+03;
  6.1391205E-01;  9.9999998E-03; -1.9997527E-01;6177;  3.0015898E-01;  0.0000000E+00; -1.2510395E-02;  9.9770184E+02;  1.0088698E-01; -1.9039836E+03;3; -2.5956329E+01;  0.0000000E+00; -4.7301111E+00;0; -1.3240635E-01;  3.9111801E+04;  0.0000000E+00; -1.1747689E-01;  4.0000000E+04;  0.0000000E+00;  4.0009777E+04; -1.5975250E-01;  0.0000000E+00;  2.7346149E-02;  2.1808472E+03;
  6.1381984E-01;  9.9999998E-03; -1.8998390E-01;6178;  3.0323735E-01;  0.0000000E+00; -1.2518676E-02;  9.9762408E+02;  1.0088664E-01; -1.9683765E+03;3; -2.6883701E+01;  0.0000000E+00; -4.6562414E+00;0; -1.3029559E-01;  3.9103699E+04;  0.0000000E+00; -8.2660228E-02;  4.0000000E+04;  0.0000000E+00;  4.0011980E+04; -1.5598431E-01;  0.0000000E+00;  2.5688723E-02;  2.4521848E+03;
  6.1372578E-01;  9.9999998E-03; -1.7999016E-01;6179;  3.0620155E-01;  0.0000000E+00; -1.2555232E-02;  9.9753815E+02;  1.0088625E-01; -2.0395839E+03;3; -2.7852060E+01;  0.0000000E+00; -4.6012692E+00;0; -1.2900624E-01;  3.9095527E+04;  0.0000000E+00; -5.0567869E-02;  4.0000000E+04;  0.0000000E+00;  4.0013469E+04; -1.5350281E-01;  0.0000000E+00;  2.4496567E-02;  2.6524211E+03;
  6.1363316E-01;  9.9999998E-03; -1.6999467E-01;6180;  3.0902585E-01;  0.0000000E+00; -1.2609523E-02;  9.9744232E+02;  1.0088595E-01; -2.1189885E+03;3; -2.8858351E+01;  0.0000000E+00; -4.5436444E+00;0; -1.2828933E-01;  3.9087531E+04;  0.0000000E+00; -2.2963179E-02;  4.0000000E+04;  0.0000000E+00;  4.0014391E+04; -1.5243886E-01;  0.0000000E+00;  2.4149543E-02;  2.7675149E+03;
  6.1354446E-01;  9.9999998E-03; -1.5999782E-01;6181;  3.1169096E-01;  0.0000000E+00; -1.2670952E-02;  9.9734613E+02;  1.0088547E-01; -2.1986895E+03;3; -2.9884432E+01;  0.0000000E+00; -4.4749837E+00;0; -1.2790523E-01;  3.9080070E+04;  0.0000000E+00; -1.0092087E-03;  4.0000000E+04;  0.0000000E+00;  4.0014574E+04; -1.5286426E-01;  0.0000000E+00;  2.4959031E-02;  2.8063665E+03;
  6.1346143E-01;  9.9999998E-03; -1.4999989E-01;6182;  3.1418604E-01;  0.0000000E+00; -1.2724673E-02;  9.9725531E+02;  1.0088516E-01; -2.2738967E+03;3; -3.0933191E+01;  0.0000000E+00; -4.3955674E+00;0; -1.2764075E-01;  3.9073477E+04;  0.0000000E+00;  1.5547345E-02;  4.0000000E+04;  0.0000000E+00;  4.0014402E+04; -1.5479226E-01;  0.0000000E+00;  2.7151512E-02;  2.7895205E+03;
  6.1338484E-01;  9.9999998E-03; -1.4000113E-01;6183;  3.1650034E-01;  0.0000000E+00; -1.2764826E-02;  9.9717749E+02;  1.0088460E-01; -2.3383884E+03;3; -3.1986395E+01;  0.0000000E+00; -4.3003044E+00;0; -1.2732702E-01;  3.9068047E+04;  0.0000000E+00;  2.7808588E-02;  4.0000000E+04;  0.0000000E+00;  4.0013992E+04; -1.5817730E-01;  0.0000000E+00;  3.0850282E-02;  2.7424661E+03;
  6.1331493E-01;  9.9999998E-03; -1.3000189E-01;6184;  3.1862867E-01;  0.0000000E+00; -1.2778917E-02;  9.9711322E+02;  1.0088436E-01; -2.3916211E+03;3; -3.3032784E+01;  0.0000000E+00; -4.1885633E+00;0; -1.2684688E-01;  3.9063820E+04;  0.0000000E+00;  3.6208022E-02;  4.0000000E+04;  0.0000000E+00;  4.0013547E+04; -1.6292478E-01;  0.0000000E+00;  3.6077902E-02;  2.6895510E+03;
  6.1325145E-01;  9.9999998E-03; -1.2000242E-01;6185;  3.2056859E-01;  0.0000000E+00; -1.2752041E-02;  9.9706519E+02;  1.0088405E-01; -2.4314221E+03;3; -3.4061169E+01;  0.0000000E+00; -4.0583210E+00;0; -1.2611207E-01;  3.9060633E+04;  0.0000000E+00;  4.0754370E-02;  4.0000000E+04;  0.0000000E+00;  4.0013098E+04; -1.6890167E-01;  0.0000000E+00;  4.2789586E-02;  2.6493638E+03;
  6.1319405E-01;  9.9999998E-03; -1.1000293E-01;6186;  3.2231805E-01;  0.0000000E+00; -1.2671453E-02;  9.9703168E+02;  1.0088365E-01; -2.4591743E+03;3; -3.5067120E+01;  0.0000000E+00; -3.9011891E+00;0; -1.2504193E-01;  3.9058473E+04;  0.0000000E+00;  4.1549303E-02;  4.0000000E+04;  0.0000000E+00;  4.0012973E+04; -1.7593656E-01;  0.0000000E+00;  5.0894625E-02;  2.6325281E+03;
  6.2413454E-01;  9.9999998E-03; -2.6993936E-01;6231;  2.7537489E-01;  0.0000000E+00; -1.8679544E-02;  9.9763422E+02;  1.0138352E-01; -1.9599796E+03;3; -1.9885880E+01;  0.0000000E+00; -4.9390154E+00;0; -1.6587901E-01;  3.8717512E+04;  0.0000000E+00; -1.6837612E-02;  4.0000000E+04;  0.0000000E+00;  4.0018320E+04; -2.0491190E-01;  0.0000000E+00;  3.9032884E-02;  3.6628862E+03;
  6.2414271E-01;  9.9999998E-03; -2.5991902E-01;6232;  2.7860057E-01;  0.0000000E+00; -1.7526651E-02;  9.9760101E+02;  1.0138524E-01; -1.9874847E+03;3; -2.0883415E+01;  0.0000000E+00; -4.9016514E+00;0; -1.6234273E-01;  3.8708406E+04;  0.0000000E+00; -5.3328842E-02;  4.0000000E+04;  0.0000000E+00;  4.0023672E+04; -1.9732736E-01;  0.0000000E+00;  3.4984626E-02;  4.3429473E+03;
  6.2413448E-01;  9.9999998E-03; -2.4990298E-01;6233;  2.8193480E-01;  0.0000000E+00; -1.6236888E-02;  9.9749908E+02;  1.0138651E-01; -2.0719263E+03;3; -2.1823284E+01;  0.0000000E+00; -4.7043452E+00;0; -1.5800197E-01;  3.8700684E+04;  0.0000000E+00; -8.0859520E-02;  4.0000000E+04;  0.0000000E+00;  4.0022531E+04; -1.8978779E-01;  0.0000000E+00;  3.1785820E-02;  4.1988062E+03;
  6.2411195E-01;  9.9999998E-03; -2.3990200E-01;6234;  2.8531960E-01;  0.0000000E+00; -1.5224027E-02;  9.9732507E+02;  1.0138737E-01; -2.2161187E+03;3; -2.2708757E+01;  0.0000000E+00; -4.4841943E+00;0; -1.5095837E-01;  3.8694160E+04;  0.0000000E+00; -1.0712681E-01;  4.0000000E+04;  0.0000000E+00;  4.0014520E+04; -1.8245868E-01;  0.0000000E+00;  3.1500310E-02;  3.2170776E+03;
  6.2407607E-01;  9.9999998E-03; -2.2991516E-01;6235;  2.8869256E-01;  0.0000000E+00; -1.4710300E-02;  9.9715802E+02;  1.0138801E-01; -2.3545334E+03;3; -2.3570257E+01;  0.0000000E+00; -4.2292576E+00;0; -1.4271042E-01;  3.8688664E+04;  0.0000000E+00; -1.3103046E-01;  4.0000000E+04;  0.0000000E+00;  4.0006496E+04; -1.7551850E-01;  0.0000000E+00;  3.2808080E-02;  2.2352996E+03;
  6.2402540E-01;  9.9999998E-03; -2.1993317E-01;6236;  2.9204214E-01;  0.0000000E+00; -1.4552243E-02;  9.9704980E+02;  1.0138813E-01; -2.4441599E+03;3; -2.4434292E+01;  0.0000000E+00; -4.0647016E+00;0; -1.3553593E-01;  3.8683598E+04;  0.0000000E+00; -1.4857018E-01;  4.0000000E+04;  0.0000000E+00;  4.0002672E+04; -1.6916059E-01;  0.0000000E+00;  3.3624664E-02;  1.7725834E+03;
  6.2396002E-01;  9.9999998E-03; -2.0995012E-01;6237;  2.9535615E-01;  0.0000000E+00; -1.4522975E-02;  9.9698285E+02;  1.0138808E-01; -2.4996147E+03;3; -2.5302820E+01;  0.0000000E+00; -3.9365375E+00;0; -1.3022186E-01;  3.8678559E+04;  0.0000000E+00; -1.5617250E-01;  4.0000000E+04;  0.0000000E+00;  4.0002473E+04; -1.6359876E-01;  0.0000000E+00;  3.3376902E-02;  1.7486174E+03;
  6.2388223E-01;  9.9999998E-03; -1.9996400E-01;6238;  2.9860276E-01;  0.0000000E+00; -1.4536328E-02;  9.9693005E+02;  1.0138772E-01; -2.5433662E+03;3; -2.6193027E+01;  0.0000000E+00; -3.8550615E+00;0; -1.2654079E-01;  3.8673148E+04;  0.0000000E+00; -1.5259810E-01;  4.0000000E+04;  0.0000000E+00;  4.0003969E+04; -1.5905325E-01;  0.0000000E+00;  3.2512452E-02;  1.9417338E+03;
  6.2379688E-01;  9.9999998E-03; -1.8997411E-01;6239;  3.0174798E-01;  0.0000000E+00; -1.4568546E-02;  9.9687372E+02;  1.0138742E-01; -2.5900312E+03;3; -2.7120510E+01;  0.0000000E+00; -3.8068373E+00;0; -1.2413238E-01;  3.8667102E+04;  0.0000000E+00; -1.3876253E-01;  4.0000000E+04;  0.0000000E+00;  4.0005934E+04; -1.5573156E-01;  0.0000000E+00;  3.1599175E-02;  2.1910125E+03;
  6.2370688E-01;  9.9999998E-03; -1.7998162E-01;6240;  3.0475926E-01;  0.0000000E+00; -1.4611009E-02;  9.9680212E+02;  1.0138680E-01; -2.6493379E+03;3; -2.8092085E+01;  0.0000000E+00; -3.7921855E+00;0; -1.2268522E-01;  3.8660445E+04;  0.0000000E+00; -1.1739758E-01;  4.0000000E+04;  0.0000000E+00;  4.0007633E+04; -1.5380830E-01;  0.0000000E+00;  3.1123074E-02;  2.4051616E+03;
  6.2361586E-01;  9.9999998E-03; -1.6998722E-01;6241;  3.0761066E-01;  0.0000000E+00; -1.4656260E-02;  9.9671820E+02;  1.0138601E-01; -2.7188662E+03;3; -2.9102922E+01;  0.0000000E+00; -3.7790992E+00;0; -1.2192497E-01;  3.8653340E+04;  0.0000000E+00; -9.2085600E-02;  4.0000000E+04;  0.0000000E+00;  4.0008715E+04; -1.5340738E-01;  0.0000000E+00;  3.1482413E-02;  2.5498511E+03;
  6.2352669E-01;  9.9999998E-03; -1.5999140E-01;6242;  3.1028602E-01;  0.0000000E+00; -1.4692687E-02;  9.9662634E+02;  1.0138528E-01; -2.7950117E+03;3; -3.0148598E+01;  0.0000000E+00; -3.7560003E+00;0; -1.2160183E-01;  3.8646195E+04;  0.0000000E+00; -6.6219948E-02;  4.0000000E+04;  0.0000000E+00;  4.0009242E+04; -1.5459186E-01;  0.0000000E+00;  3.2990031E-02;  2.6207678E+03;
  6.2344170E-01;  9.9999998E-03; -1.4999455E-01;6243;  3.1277022E-01;  0.0000000E+00; -1.4718436E-02;  9.9653467E+02;  1.0138462E-01; -2.8709595E+03;3; -3.1214169E+01;  0.0000000E+00; -3.7219329E+00;0; -1.2149784E-01;  3.8639559E+04;  0.0000000E+00; -4.2240273E-02;  4.0000000E+04;  0.0000000E+00;  4.0009262E+04; -1.5736052E-01;  0.0000000E+00;  3.5862688E-02;  2.6308694E+03;
  6.2336224E-01;  9.9999998E-03; -1.3999684E-01;6244;  3.1505567E-01;  0.0000000E+00; -1.4721910E-02;  9.9644806E+02;  1.0138395E-01; -2.9427100E+03;3; -3.2285336E+01;  0.0000000E+00; -3.6733150E+00;0; -1.2144543E-01;  3.8633715E+04;  0.0000000E+00; -2.0998687E-02;  4.0000000E+04;  0.0000000E+00;  4.0008969E+04; -1.6165595E-01;  0.0000000E+00;  4.0210512E-02;  2.6025173E+03;
  6.2328887E-01;  9.9999998E-03; -1.2999842E-01;6245;  3.1713733E-01;  0.0000000E+00; -1.4689927E-02;  9.9637152E+02;  1.0138321E-01; -3.0061152E+03;3; -3.3352673E+01;  0.0000000E+00; -3.6012106E+00;0; -1.2132595E-01;  3.8628676E+04;  0.0000000E+00; -3.0354315E-03;  4.0000000E+04;  0.0000000E+00;  4.0008500E+04; -1.6737202E-01;  0.0000000E+00;  4.6046060E-02;  2.5605747E+03;
  6.2322158E-01;  9.9999998E-03; -1.1999955E-01;6246;  3.1901217E-01;  0.0000000E+00; -1.4608522E-02;  9.9630792E+02;  1.0138235E-01; -3.0588049E+03;3; -3.4397949E+01;  0.0000000E+00; -3.4975841E+00;0; -1.2104373E-01;  3.8624727E+04;  0.0000000E+00;  1.0985210E-02;  4.0000000E+04;  0.0000000E+00;  4.0008254E+04; -1.7436127E-01;  0.0000000E+00;  5.3317539E-02;  2.5255381E+03;
  6.2316012E-01;  9.9999998E-03; -1.1000054E-01;6247;  3.2067952E-01;  0.0000000E+00; -1.4456594E-02;  9.9626068E+02;  1.0138213E-01; -3.0979146E+03;3; -3.5415634E+01;  0.0000000E+00; -3.3719268E+00;0; -1.2051068E-01;  3.8621645E+04;  0.0000000E+00;  2.0632196E-02;  4.0000000E+04;  0.0000000E+00;  4.0008109E+04; -1.8243814E-01;  0.0000000E+00;  6.1927449E-02;  2.5100330E+03;
  6.3403249E-01;  9.9999998E-03; -2.6994762E-01;6292;  2.7265912E-01;  0.0000000E+00; -2.0882249E-02;  9.9678949E+02;  1.0211074E-01; -2.6598032E+03;3; -1.9782640E+01;  0.0000000E+00; -3.9616623E+00;0; -1.5783493E-01;  3.8099113E+04;  0.0000000E+00;  1.2157612E-01;  4.0000000E+04;  0.0000000E+00;  4.0023277E+04; -1.9517507E-01;  0.0000000E+00;  3.7340131E-02;  4.9625898E+03;
  6.3404971E-01;  9.9999998E-03; -2.5992346E-01;6293;  2.7610421E-01;  0.0000000E+00; -1.9587241E-02;  9.9678204E+02;  1.0211335E-01; -2.6659758E+03;3; -2.0884275E+01;  0.0000000E+00; -3.9167669E+00;0; -1.5423691E-01;  3.8092824E+04;  0.0000000E+00;  1.4240478E-01;  4.0000000E+04;  0.0000000E+00;  4.0026973E+04; -1.8758543E-01;  0.0000000E+00;  3.3348516E-02;  5.4320010E+03;
  6.3405204E-01;  9.9999998E-03; -2.4990474E-01;6294;  2.7963740E-01;  0.0000000E+00; -1.8214658E-02;  9.9668445E+02;  1.0211515E-01; -2.7468618E+03;3; -2.1906033E+01;  0.0000000E+00; -3.7064247E+00;0; -1.4890531E-01;  3.8087906E+04;  0.0000000E+00;  1.2036283E-01;  4.0000000E+04;  0.0000000E+00;  4.0022812E+04; -1.8026462E-01;  0.0000000E+00;  3.1359315E-02;  4.9156118E+03;
  6.3404012E-01;  9.9999998E-03; -2.3990087E-01;6295;  2.8319898E-01;  0.0000000E+00; -1.7234234E-02;  9.9652136E+02;  1.0211643E-01; -2.8819680E+03;3; -2.2849546E+01;  0.0000000E+00; -3.4923120E+00;0; -1.4033425E-01;  3.8084469E+04;  0.0000000E+00;  6.5146916E-02;  4.0000000E+04;  0.0000000E+00;  4.0012109E+04; -1.7336985E-01;  0.0000000E+00;  3.3035606E-02;  3.6033228E+03;
  6.3401401E-01;  9.9999998E-03; -2.2990967E-01;6296;  2.8673515E-01;  0.0000000E+00; -1.6815189E-02;  9.9637659E+02;  1.0211740E-01; -3.0019143E+03;3; -2.3756021E+01;  0.0000000E+00; -3.2451169E+00;0; -1.3085252E-01;  3.8082031E+04;  0.0000000E+00; -5.0525838E-03;  4.0000000E+04;  0.0000000E+00;  4.0002422E+04; -1.6705537E-01;  0.0000000E+00;  3.6202855E-02;  2.3934602E+03;
  6.3397318E-01;  9.9999998E-03; -2.1992405E-01;6297;  2.9023516E-01;  0.0000000E+00; -1.6720043E-02;  9.9628851E+02;  1.0211763E-01; -3.0748499E+03;3; -2.4637253E+01;  0.0000000E+00; -3.0946088E+00;0; -1.2306216E-01;  3.8080145E+04;  0.0000000E+00; -7.3305249E-02;  4.0000000E+04;  0.0000000E+00;  3.9997027E+04; -1.6148438E-01;  0.0000000E+00;  3.8422219E-02;  1.7322477E+03;
  6.3391799E-01;  9.9999998E-03; -2.0993853E-01;6298;  2.9367280E-01;  0.0000000E+00; -1.6737431E-02;  9.9624548E+02;  1.0211750E-01; -3.1105027E+03;3; -2.5506882E+01;  0.0000000E+00; -2.9825993E+00;0; -1.1751780E-01;  3.8078051E+04;  0.0000000E+00; -1.2758105E-01;  4.0000000E+04;  0.0000000E+00;  3.9995637E+04; -1.5684372E-01;  0.0000000E+00;  3.9325919E-02;  1.5678496E+03;
  6.3384992E-01;  9.9999998E-03; -1.9995165E-01;6299;  2.9701579E-01;  0.0000000E+00; -1.6779393E-02;  9.9621442E+02;  1.0211680E-01; -3.1362795E+03;3; -2.6392370E+01;  0.0000000E+00; -2.9167364E+00;0; -1.1387798E-01;  3.8075297E+04;  0.0000000E+00; -1.6207229E-01;  4.0000000E+04;  0.0000000E+00;  3.9996484E+04; -1.5332779E-01;  0.0000000E+00;  3.9449811E-02;  1.6804559E+03;
  6.3377225E-01;  9.9999998E-03; -1.8996198E-01;6300;  3.0022961E-01;  0.0000000E+00; -1.6820814E-02;  9.9618030E+02;  1.0211575E-01; -3.1645254E+03;3; -2.7313023E+01;  0.0000000E+00; -2.8939626E+00;0; -1.1170492E-01;  3.8071438E+04;  0.0000000E+00; -1.7587894E-01;  4.0000000E+04;  0.0000000E+00;  3.9998238E+04; -1.5112202E-01;  0.0000000E+00;  3.9417095E-02;  1.9049609E+03;
  6.3368797E-01;  9.9999998E-03; -1.7996988E-01;6301;  3.0328614E-01;  0.0000000E+00; -1.6852550E-02;  9.9612708E+02;  1.0211477E-01; -3.2086228E+03;3; -2.8279078E+01;  0.0000000E+00; -2.9134598E+00;0; -1.1063655E-01;  3.8066430E+04;  0.0000000E+00; -1.7187405E-01;  4.0000000E+04;  0.0000000E+00;  4.0000023E+04; -1.5038139E-01;  0.0000000E+00;  3.9744839E-02;  2.1332793E+03;
  6.3360018E-01;  9.9999998E-03; -1.6997613E-01;6302;  3.0616117E-01;  0.0000000E+00; -1.6870575E-02;  9.9605463E+02;  1.0211337E-01; -3.2686206E+03;3; -2.9291042E+01;  0.0000000E+00; -2.9358468E+00;0; -1.1036575E-01;  3.8060270E+04;  0.0000000E+00; -1.5507554E-01;  4.0000000E+04;  0.0000000E+00;  4.0001418E+04; -1.5120977E-01;  0.0000000E+00;  4.0844027E-02;  2.3118730E+03;
  6.3351214E-01;  9.9999998E-03; -1.5998121E-01;6303;  3.0883539E-01;  0.0000000E+00; -1.6874757E-02;  9.9596356E+02;  1.0211204E-01; -3.3440747E+03;3; -3.0346186E+01;  0.0000000E+00; -2.9647696E+00;0; -1.1062172E-01;  3.8053473E+04;  0.0000000E+00; -1.3088474E-01;  4.0000000E+04;  0.0000000E+00;  4.0002309E+04; -1.5364933E-01;  0.0000000E+00;  4.3027610E-02;  2.4223962E+03;
  6.3342643E-01;  9.9999998E-03; -1.4998530E-01;6304;  3.1129736E-01;  0.0000000E+00; -1.6854055E-02;  9.9586548E+02;  1.0211095E-01; -3.4253557E+03;3; -3.1428097E+01;  0.0000000E+00; -2.9932594E+00;0; -1.1117520E-01;  3.8046562E+04;  0.0000000E+00; -1.0391632E-01;  4.0000000E+04;  0.0000000E+00;  4.0002676E+04; -1.5768015E-01;  0.0000000E+00;  4.6504952E-02;  2.4688157E+03;
  6.3334483E-01;  9.9999998E-03; -1.3998835E-01;6305;  3.1353945E-01;  0.0000000E+00; -1.6799938E-02;  9.9576483E+02;  1.0210977E-01; -3.5087107E+03;3; -3.2520161E+01;  0.0000000E+00; -2.9844234E+00;0; -1.1185116E-01;  3.8039840E+04;  0.0000000E+00; -7.7088594E-02;  4.0000000E+04;  0.0000000E+00;  4.0002598E+04; -1.6322903E-01;  0.0000000E+00;  5.1377874E-02;  2.4694309E+03;
  6.3326824E-01;  9.9999998E-03; -1.2999050E-01;6306;  3.1555644E-01;  0.0000000E+00; -1.6700184E-02;  9.9566766E+02;  1.0210846E-01; -3.5892510E+03;3; -3.3613190E+01;  0.0000000E+00; -2.9715881E+00;0; -1.1252367E-01;  3.8033590E+04;  0.0000000E+00; -5.1987879E-02;  4.0000000E+04;  0.0000000E+00;  4.0002367E+04; -1.7017956E-01;  0.0000000E+00;  5.7655893E-02;  2.4490562E+03;
  6.3319707E-01;  9.9999998E-03; -1.1999203E-01;6307;  3.1734583E-01;  0.0000000E+00; -1.6529275E-02;  9.9557825E+02;  1.0210721E-01; -3.6633223E+03;3; -3.4681423E+01;  0.0000000E+00; -2.9042833E+00;0; -1.1309053E-01;  3.8027891E+04;  0.0000000E+00; -2.9935541E-02;  4.0000000E+04;  0.0000000E+00;  4.0002176E+04; -1.7837800E-01;  0.0000000E+00;  6.5287471E-02;  2.4302952E+03;
  6.3313133E-01;  9.9999998E-03; -1.0999323E-01;6308;  3.1890395E-01;  0.0000000E+00; -1.6244436E-02;  9.9550232E+02;  1.0210623E-01; -3.7262334E+03;3; -3.5727859E+01;  0.0000000E+00; -2.8009560E+00;0; -1.1345997E-01;  3.8023121E+04;  0.0000000E+00; -1.1964854E-02;  4.0000000E+04;  0.0000000E+00;  4.0002105E+04; -1.8763305E-01;  0.0000000E+00;  7.4173078E-02;  2.4276230E+03;
  6.4394540E-01;  9.9999998E-03; -2.6996666E-01;6353;  2.6979026E-01;  0.0000000E+00; -2.3099616E-02;  9.9618329E+02;  1.0311506E-01; -3.1620520E+03;3; -1.9677540E+01;  0.0000000E+00; -2.8929236E+00;0; -1.3663583E-01;  3.7314570E+04;  0.0000000E+00; -1.6349883E-01;  4.0000000E+04;  0.0000000E+00;  4.0021742E+04; -1.6981827E-01;  0.0000000E+00;  3.3182438E-02;  5.6666597E+03;
  6.4397103E-01;  9.9999998E-03; -2.5994113E-01;6354;  2.7349088E-01;  0.0000000E+00; -2.1724274E-02;  9.9619751E+02;  1.0311823E-01; -3.1502500E+03;3; -2.0878565E+01;  0.0000000E+00; -2.8369460E+00;0; -1.3234559E-01;  3.7311559E+04;  0.0000000E+00;  1.0656189E-01;  4.0000000E+04;  0.0000000E+00;  4.0023184E+04; -1.6293514E-01;  0.0000000E+00;  3.0589558E-02;  5.8398677E+03;
  6.4398330E-01;  9.9999998E-03; -2.4992269E-01;6355;  2.7725369E-01;  0.0000000E+00; -2.0366764E-02;  9.9611481E+02;  1.0312073E-01; -3.2187905E+03;3; -2.1982407E+01;  0.0000000E+00; -2.6518497E+00;0; -1.2557088E-01;  3.7310070E+04;  0.0000000E+00;  2.1656896E-01;  4.0000000E+04;  0.0000000E+00;  4.0016000E+04; -1.5668319E-01;  0.0000000E+00;  3.1112310E-02;  4.9488462E+03;
  6.4398128E-01;  9.9999998E-03; -2.3991567E-01;6356;  2.8101188E-01;  0.0000000E+00; -1.9544555E-02;  9.9598938E+02;  1.0312241E-01; -3.3226877E+03;3; -2.3004007E+01;  0.0000000E+00; -2.4552155E+00;0; -1.1540263E-01;  3.7309977E+04;  0.0000000E+00;  2.0668904E-01;  4.0000000E+04;  0.0000000E+00;  4.0004508E+04; -1.5119243E-01;  0.0000000E+00;  3.5789795E-02;  3.5284321E+03;
  6.4396405E-01;  9.9999998E-03; -2.2991715E-01;6357;  2.8473827E-01;  0.0000000E+00; -1.9251971E-02;  9.9589276E+02;  1.0312339E-01; -3.4027341E+03;3; -2.3953815E+01;  0.0000000E+00; -2.2343581E+00;0; -1.0539907E-01;  3.7310891E+04;  0.0000000E+00;  1.2922372E-01;  4.0000000E+04;  0.0000000E+00;  3.9994766E+04; -1.4656775E-01;  0.0000000E+00;  4.1168679E-02;  2.3251211E+03;
  6.4393151E-01;  9.9999998E-03; -2.1992382E-01;6358;  2.8840461E-01;  0.0000000E+00; -1.9209823E-02;  9.9584210E+02;  1.0312332E-01; -3.4447080E+03;3; -2.4843498E+01;  0.0000000E+00; -2.0889170E+00;0; -9.7918041E-02;  3.7312156E+04;  0.0000000E+00;  2.8182423E-02;  4.0000000E+04;  0.0000000E+00;  3.9989051E+04; -1.4291936E-01;  0.0000000E+00;  4.5001321E-02;  1.6040913E+03;
  6.4388466E-01;  9.9999998E-03; -2.0993243E-01;6359;  2.9197621E-01;  0.0000000E+00; -1.9250235E-02;  9.9582489E+02;  1.0312273E-01; -3.4589790E+03;3; -2.5705500E+01;  0.0000000E+00; -1.9962250E+00;0; -9.3116045E-02;  3.7312887E+04;  0.0000000E+00; -6.6719010E-02;  4.0000000E+04;  0.0000000E+00;  3.9986934E+04; -1.4036947E-01;  0.0000000E+00;  4.7253430E-02;  1.3453489E+03;
  6.4382470E-01;  9.9999998E-03; -1.9994159E-01;6360;  2.9541725E-01;  0.0000000E+00; -1.9294038E-02;  9.9581732E+02;  1.0312155E-01; -3.4652505E+03;3; -2.6562431E+01;  0.0000000E+00; -1.9402997E+00;0; -9.0497643E-02;  3.7312703E+04;  0.0000000E+00; -1.3950931E-01;  4.0000000E+04;  0.0000000E+00;  3.9987234E+04; -1.3904783E-01;  0.0000000E+00;  4.8550192E-02;  1.3935621E+03;
  6.4375454E-01;  9.9999998E-03; -1.8995045E-01;6361;  2.9870144E-01;  0.0000000E+00; -1.9314863E-02;  9.9580219E+02;  1.0312012E-01; -3.4777932E+03;3; -2.7456747E+01;  0.0000000E+00; -1.9220153E+00;0; -8.9536741E-02;  3.7310828E+04;  0.0000000E+00; -1.8433690E-01;  4.0000000E+04;  0.0000000E+00;  3.9988770E+04; -1.3908248E-01;  0.0000000E+00;  4.9545735E-02;  1.5930557E+03;
  6.4367688E-01;  9.9999998E-03; -1.7995791E-01;6362;  3.0180052E-01;  0.0000000E+00; -1.9313106E-02;  9.9576184E+02;  1.0311797E-01; -3.5112241E+03;3; -2.8405169E+01;  0.0000000E+00; -1.9536872E+00;0; -8.9808688E-02;  3.7307289E+04;  0.0000000E+00; -2.0249441E-01;  4.0000000E+04;  0.0000000E+00;  3.9990645E+04; -1.4057997E-01;  0.0000000E+00;  5.0771281E-02;  1.8341007E+03;
  6.4359391E-01;  9.9999998E-03; -1.6996428E-01;6363;  3.0468959E-01;  0.0000000E+00; -1.9285204E-02;  9.9569440E+02;  1.0311595E-01; -3.5670737E+03;3; -2.9406071E+01;  0.0000000E+00; -2.0305257E+00;0; -9.0968877E-02;  3.7301988E+04;  0.0000000E+00; -1.9956681E-01;  4.0000000E+04;  0.0000000E+00;  3.9992336E+04; -1.4360435E-01;  0.0000000E+00;  5.2635480E-02;  2.0478514E+03;
  6.4350867E-01;  9.9999998E-03; -1.5996973E-01;6364;  3.0735108E-01;  0.0000000E+00; -1.9224709E-02;  9.9560083E+02;  1.0311366E-01; -3.6446016E+03;3; -3.0462214E+01;  0.0000000E+00; -2.1370018E+00;0; -9.2712983E-02;  3.7295293E+04;  0.0000000E+00; -1.8264574E-01;  4.0000000E+04;  0.0000000E+00;  3.9993488E+04; -1.4815980E-01;  0.0000000E+00;  5.5446822E-02;  2.2020806E+03;
  6.4342362E-01;  9.9999998E-03; -1.4997424E-01;6365;  3.0977559E-01;  0.0000000E+00; -1.9125966E-02;  9.9548853E+02;  1.0311161E-01; -3.7376350E+03;3; -3.1563095E+01;  0.0000000E+00; -2.2269888E+00;0; -9.4784573E-02;  3.7287648E+04;  0.0000000E+00; -1.5811351E-01;  4.0000000E+04;  0.0000000E+00;  3.9994270E+04; -1.5419598E-01;  0.0000000E+00;  5.9411410E-02;  2.2908486E+03;
  6.4334089E-01;  9.9999998E-03; -1.3997754E-01;6366;  3.1195503E-01;  0.0000000E+00; -1.8980332E-02;  9.9536279E+02;  1.0310923E-01; -3.8417793E+03;3; -3.2688396E+01;  0.0000000E+00; -2.2867782E+00;0; -9.6985981E-02;  3.7279555E+04;  0.0000000E+00; -1.3053221E-01;  4.0000000E+04;  0.0000000E+00;  3.9994461E+04; -1.6161744E-01;  0.0000000E+00;  6.4631462E-02;  2.3277563E+03;
  6.4326167E-01;  9.9999998E-03; -1.2997985E-01;6367;  3.1388137E-01;  0.0000000E+00; -1.8744940E-02;  9.9523267E+02;  1.0310711E-01; -3.9496274E+03;3; -3.3811520E+01;  0.0000000E+00; -2.3254685E+00;0; -9.9173561E-02;  3.7271266E+04;  0.0000000E+00; -1.0243690E-01;  4.0000000E+04;  0.0000000E+00;  3.9994453E+04; -1.7029868E-01;  0.0000000E+00;  7.1125120E-02;  2.3373171E+03;
  6.4318687E-01;  9.9999998E-03; -1.1998140E-01;6368;  3.1554610E-01;  0.0000000E+00; -1.8369768E-02;  9.9510675E+02;  1.0310514E-01; -4.0539197E+03;3; -3.4922081E+01;  0.0000000E+00; -2.2732038E+00;0; -1.0123407E-01;  3.7263184E+04;  0.0000000E+00; -7.5619467E-02;  4.0000000E+04;  0.0000000E+00;  3.9994566E+04; -1.8008763E-01;  0.0000000E+00;  7.8853555E-02;  2.3439229E+03;
  6.4311689E-01;  9.9999998E-03; -1.0998263E-01;6369;  3.1695613E-01;  0.0000000E+00; -1.7865967E-02;  9.9498633E+02;  1.0310343E-01; -4.1536689E+03;3; -3.5991859E+01;  0.0000000E+00; -2.1887770E+00;0; -1.0307504E-01;  3.7255648E+04;  0.0000000E+00; -5.1614199E-02;  4.0000000E+04;  0.0000000E+00;  3.9994508E+04; -1.9079873E-01;  0.0000000E+00;  8.7723687E-02;  2.3641006E+03;
  6.5388948E-01;  9.9999998E-03; -2.6999936E-01;6414;  2.6685441E-01;  0.0000000E+00; -2.5326861E-02;  9.9594965E+02;  1.0441760E-01; -3.3556196E+03;3; -1.9549225E+01;  0.0000000E+00; -1.7105345E+00;0; -9.3885385E-02;  3.6376562E+04;  0.0000000E+00; -9.8424047E-01;  4.0000000E+04;  0.0000000E+00;  4.0011789E+04; -1.2002296E-01;  0.0000000E+00;  2.6137577E-02;  5.7235020E+03;
  6.5391982E-01;  9.9999998E-03; -2.5997490E-01;6415;  2.7084228E-01;  0.0000000E+00; -2.4003638E-02;  9.9599054E+02;  1.0442114E-01; -3.3217444E+03;3; -2.0873861E+01;  0.0000000E+00; -1.6721853E+00;0; -8.7952271E-02;  3.6377270E+04;  0.0000000E+00; -2.4484360E-01;  4.0000000E+04;  0.0000000E+00;  4.0010879E+04; -1.1500227E-01;  0.0000000E+00;  2.7050000E-02;  5.3976553E+03;
  6.5394056E-01;  9.9999998E-03; -2.4995886E-01;6416;  2.7485284E-01;  0.0000000E+00; -2.2814997E-02;  9.9593353E+02;  1.0442382E-01; -3.3689524E+03;3; -2.2063248E+01;  0.0000000E+00; -1.5209959E+00;0; -7.9410344E-02;  3.6379195E+04;  0.0000000E+00;  1.5031709E-01;  4.0000000E+04;  0.0000000E+00;  4.0001438E+04; -1.1114410E-01;  0.0000000E+00;  3.1733762E-02;  4.2133535E+03;
  6.5394586E-01;  9.9999998E-03; -2.3994935E-01;6417;  2.7882925E-01;  0.0000000E+00; -2.2231935E-02;  9.9586853E+02;  1.0442528E-01; -3.4228269E+03;3; -2.3151825E+01;  0.0000000E+00; -1.3428398E+00;0; -6.8441615E-02;  3.6382359E+04;  0.0000000E+00;  2.7994406E-01;  4.0000000E+04;  0.0000000E+00;  3.9990680E+04; -1.0856043E-01;  0.0000000E+00;  4.0118810E-02;  2.9046968E+03;
  6.5393555E-01;  9.9999998E-03; -2.2994125E-01;6418;  2.8275380E-01;  0.0000000E+00; -2.2086112E-02;  9.9584222E+02;  1.0442583E-01; -3.4446038E+03;3; -2.4140783E+01;  0.0000000E+00; -1.1829915E+00;0; -5.9262436E-02;  3.6386395E+04;  0.0000000E+00;  2.4942917E-01;  4.0000000E+04;  0.0000000E+00;  3.9983137E+04; -1.0727114E-01;  0.0000000E+00;  4.8008706E-02;  1.9728361E+03;
  6.5391016E-01;  9.9999998E-03; -2.1993639E-01;6419;  2.8658953E-01;  0.0000000E+00; -2.2091921E-02;  9.9584174E+02;  1.0442541E-01; -3.4449988E+03;3; -2.5035425E+01;  0.0000000E+00; -1.0753571E+00;0; -5.3605117E-02;  3.6390371E+04;  0.0000000E+00;  1.4495619E-01;  4.0000000E+04;  0.0000000E+00;  3.9978387E+04; -1.0728671E-01;  0.0000000E+00;  5.3681597E-02;  1.3660573E+03;
  6.5387112E-01;  9.9999998E-03; -2.0993575E-01;6420;  2.9029098E-01;  0.0000000E+00; -2.2125192E-02;  9.9585297E+02;  1.0442399E-01; -3.4357153E+03;3; -2.5877867E+01;  0.0000000E+00; -1.0138772E+00;0; -5.1128343E-02;  3.6393660E+04;  0.0000000E+00;  2.3975307E-02;  4.0000000E+04;  0.0000000E+00;  3.9976164E+04; -1.0861316E-01;  0.0000000E+00;  5.7484813E-02;  1.0742721E+03;
  6.5381914E-01;  9.9999998E-03; -1.9993821E-01;6421;  2.9383120E-01;  0.0000000E+00; -2.2136360E-02;  9.9586566E+02;  1.0442194E-01; -3.4251973E+03;3; -2.6724253E+01;  0.0000000E+00; -9.7400177E-01;0; -5.1113747E-02;  3.6395340E+04;  0.0000000E+00; -8.1181683E-02;  4.0000000E+04;  0.0000000E+00;  3.9976156E+04; -1.1126755E-01;  0.0000000E+00;  6.0153805E-02;  1.0701624E+03;
  6.5375590E-01;  9.9999998E-03; -1.8994297E-01;6422;  2.9718482E-01;  0.0000000E+00; -2.2109021E-02;  9.9585693E+02;  1.0441896E-01; -3.4324067E+03;3; -2.7573181E+01;  0.0000000E+00; -9.8157167E-01;0; -5.2925561E-02;  3.6395168E+04;  0.0000000E+00; -1.5615769E-01;  4.0000000E+04;  0.0000000E+00;  3.9977457E+04; -1.1527068E-01;  0.0000000E+00;  6.2345121E-02;  1.2472042E+03;
  6.5368414E-01;  9.9999998E-03; -1.7994869E-01;6423;  3.0031711E-01;  0.0000000E+00; -2.2030748E-02;  9.9582129E+02;  1.0441575E-01; -3.4619365E+03;3; -2.8465084E+01;  0.0000000E+00; -1.0312313E+00;0; -5.6069560E-02;  3.6392484E+04;  0.0000000E+00; -1.9860071E-01;  4.0000000E+04;  0.0000000E+00;  3.9979363E+04; -1.2064045E-01;  0.0000000E+00;  6.4570889E-02;  1.4973029E+03;
  6.5360665E-01;  9.9999998E-03; -1.6995424E-01;6424;  3.0321002E-01;  0.0000000E+00; -2.1902634E-02;  9.9575018E+02;  1.0441241E-01; -3.5208477E+03;3; -2.9452778E+01;  0.0000000E+00; -1.1333387E+00;0; -6.0137480E-02;  3.6387496E+04;  0.0000000E+00; -2.1342584E-01;  4.0000000E+04;  0.0000000E+00;  3.9981320E+04; -1.2736467E-01;  0.0000000E+00;  6.7227185E-02;  1.7435518E+03;
  6.5352553E-01;  9.9999998E-03; -1.5995927E-01;6425;  3.0584645E-01;  0.0000000E+00; -2.1722008E-02;  9.9564233E+02;  1.0440877E-01; -3.6102268E+03;3; -3.0518320E+01;  0.0000000E+00; -1.2820563E+00;0; -6.4785004E-02;  3.6380340E+04;  0.0000000E+00; -2.0866831E-01;  4.0000000E+04;  0.0000000E+00;  3.9982773E+04; -1.3539255E-01;  0.0000000E+00;  7.0607543E-02;  1.9412551E+03;
  6.5344268E-01;  9.9999998E-03; -1.4996354E-01;6426;  3.0820921E-01;  0.0000000E+00; -2.1452079E-02;  9.9550531E+02;  1.0440480E-01; -3.7237039E+03;3; -3.1637392E+01;  0.0000000E+00; -1.4159454E+00;0; -6.9714114E-02;  3.6371496E+04;  0.0000000E+00; -1.9213827E-01;  4.0000000E+04;  0.0000000E+00;  3.9983898E+04; -1.4462797E-01;  0.0000000E+00;  7.4913859E-02;  2.0748486E+03;
  6.5336025E-01;  9.9999998E-03; -1.3996664E-01;6427;  3.1028754E-01;  0.0000000E+00; -2.1059968E-02;  9.9534155E+02;  1.0440121E-01; -3.8594023E+03;3; -3.2796741E+01;  0.0000000E+00; -1.5034413E+00;0; -7.4685082E-02;  3.6361445E+04;  0.0000000E+00; -1.6945440E-01;  4.0000000E+04;  0.0000000E+00;  3.9984473E+04; -1.5494487E-01;  0.0000000E+00;  8.0259785E-02;  2.1528357E+03;
  6.5327948E-01;  9.9999998E-03; -1.2996860E-01;6428;  3.1208730E-01;  0.0000000E+00; -2.0589029E-02;  9.9516357E+02;  1.0439762E-01; -4.0068533E+03;3; -3.3961006E+01;  0.0000000E+00; -1.5689301E+00;0; -7.9512767E-02;  3.6350527E+04;  0.0000000E+00; -1.4374754E-01;  4.0000000E+04;  0.0000000E+00;  3.9984738E+04; -1.6620055E-01;  0.0000000E+00;  8.6687781E-02;  2.1987734E+03;
  6.5320170E-01;  9.9999998E-03; -1.1996984E-01;6429;  3.1361148E-01;  0.0000000E+00; -2.0032121E-02;  9.9498322E+02;  1.0439435E-01; -4.1562798E+03;3; -3.5101044E+01;  0.0000000E+00; -1.6100427E+00;0; -8.4057949E-02;  3.6339266E+04;  0.0000000E+00; -1.1694562E-01;  4.0000000E+04;  0.0000000E+00;  3.9984945E+04; -1.7824677E-01;  0.0000000E+00;  9.4188817E-02;  2.2384731E+03;
  6.5312761E-01;  9.9999998E-03; -1.0997090E-01;6430;  3.1486517E-01;  0.0000000E+00; -1.9365251E-02;  9.9480530E+02;  1.0439125E-01; -4.3036812E+03;3; -3.6177185E+01;  0.0000000E+00; -1.6568837E+00;0; -8.8226467E-02;  3.6328188E+04;  0.0000000E+00; -9.0803474E-02;  4.0000000E+04;  0.0000000E+00;  3.9985266E+04; -1.9091706E-01;  0.0000000E+00;  1.0269059E-01;  2.2901929E+03;
  6.6317594E-01;  9.9999998E-03; -1.0996012E-01;6491;  3.1267646E-01;  0.0000000E+00; -2.0730834E-02;  9.9486963E+02;  1.0595115E-01; -4.2503418E+03;3; -3.6281670E+01;  0.0000000E+00; -1.1535956E+00;0; -6.7225486E-02;  3.5267422E+04;  0.0000000E+00; -1.1959399E-01;  4.0000000E+04;  0.0000000E+00;  3.9974039E+04; -1.8643335E-01;  0.0000000E+00;  1.1920786E-01;  2.1685654E+03;
  6.6325355E-01;  9.9999998E-03; -1.1995959E-01;6490;  3.1159952E-01;  0.0000000E+00; -2.1569028E-02;  9.9512347E+02;  1.0595647E-01; -4.0400791E+03;3; -3.5189304E+01;  0.0000000E+00; -9.8919642E-01;0; -5.9499890E-02;  3.5282668E+04;  0.0000000E+00; -1.4299896E-01;  4.0000000E+04;  0.0000000E+00;  3.9973488E+04; -1.7098068E-01;  0.0000000E+00;  1.1148079E-01;  2.0771162E+03;
  6.6333348E-01;  9.9999998E-03; -1.2995909E-01;6489;  3.1022590E-01;  0.0000000E+00; -2.2297265E-02;  9.9537506E+02;  1.0596174E-01; -3.8316433E+03;3; -3.4056995E+01;  0.0000000E+00; -7.8153819E-01;0; -5.1060565E-02;  3.5297523E+04;  0.0000000E+00; -1.6434532E-01;  4.0000000E+04;  0.0000000E+00;  3.9972934E+04; -1.5563752E-01;  0.0000000E+00;  1.0457695E-01;  1.9971006E+03;
  6.6341466E-01;  9.9999998E-03; -1.3995807E-01;6488;  3.0855092E-01;  0.0000000E+00; -2.2949599E-02;  9.9561292E+02;  1.0596744E-01; -3.6345649E+03;3; -3.2860115E+01;  0.0000000E+00; -5.7866639E-01;0; -4.2008467E-02;  3.5311527E+04;  0.0000000E+00; -1.8197735E-01;  4.0000000E+04;  0.0000000E+00;  3.9972355E+04; -1.4053860E-01;  0.0000000E+00;  9.8530136E-02;  1.9094073E+03;
  6.6349584E-01;  9.9999998E-03; -1.4995597E-01;6487;  3.0657148E-01;  0.0000000E+00; -2.3555322E-02;  9.9582745E+02;  1.0597333E-01; -3.4568440E+03;3; -3.1687878E+01;  0.0000000E+00; -4.0543371E-01;0; -3.2523789E-02;  3.5324160E+04;  0.0000000E+00; -1.9423124E-01;  4.0000000E+04;  0.0000000E+00;  3.9971457E+04; -1.2582350E-01;  0.0000000E+00;  9.3299709E-02;  1.7877092E+03;
  6.6357553E-01;  9.9999998E-03; -1.5995270E-01;6486;  3.0429116E-01;  0.0000000E+00; -2.4118766E-02;  9.9600433E+02;  1.0597911E-01; -3.3102822E+03;3; -3.0541031E+01;  0.0000000E+00; -3.4772846E-01;0; -2.2853486E-02;  3.5334723E+04;  0.0000000E+00; -1.9789463E-01;  4.0000000E+04;  0.0000000E+00;  3.9970125E+04; -1.1165250E-01;  0.0000000E+00;  8.8799015E-02;  1.6101630E+03;
  6.6365212E-01;  9.9999998E-03; -1.6994876E-01;6485;  3.0171505E-01;  0.0000000E+00; -2.4619270E-02;  9.9614172E+02;  1.0598462E-01; -3.1964595E+03;3; -2.9477654E+01;  0.0000000E+00; -3.5243520E-01;0; -1.3296992E-02;  3.5342996E+04;  0.0000000E+00; -1.8679234E-01;  4.0000000E+04;  0.0000000E+00;  3.9968281E+04; -9.8195329E-02;  0.0000000E+00;  8.4898338E-02;  1.3737291E+03;
  6.6372406E-01;  9.9999998E-03; -1.7994484E-01;6484;  2.9883546E-01;  0.0000000E+00; -2.4977779E-02;  9.9623254E+02;  1.0599009E-01; -3.1212034E+03;3; -2.8515680E+01;  0.0000000E+00; -3.0986869E-01;0; -4.2117909E-03;  3.5348398E+04;  0.0000000E+00; -1.5240163E-01;  4.0000000E+04;  0.0000000E+00;  3.9966195E+04; -8.5617833E-02;  0.0000000E+00;  8.1406042E-02;  1.1031620E+03;
  6.6378933E-01;  9.9999998E-03; -1.8994273E-01;6483;  2.9567906E-01;  0.0000000E+00; -2.5213730E-02;  9.9627948E+02;  1.0599528E-01; -3.0823408E+03;3; -2.7655470E+01;  0.0000000E+00; -1.7332213E-01;0;  4.0054619E-03;  3.5350828E+04;  0.0000000E+00; -8.6874433E-02;  4.0000000E+04;  0.0000000E+00;  3.9964348E+04; -7.4050434E-02;  0.0000000E+00;  7.8055896E-02;  8.5309467E+02;
  6.6384560E-01;  9.9999998E-03; -1.9994456E-01;6482;  2.9227984E-01;  0.0000000E+00; -2.5348606E-02;  9.9628876E+02;  1.0599980E-01; -3.0746375E+03;3; -2.6816071E+01;  0.0000000E+00; -7.7718005E-02;0;  1.0877244E-02;  3.5350430E+04;  0.0000000E+00;  1.2494214E-02;  4.0000000E+04;  0.0000000E+00;  3.9963332E+04; -6.3611545E-02;  0.0000000E+00;  7.4488789E-02;  7.0768384E+02;
  6.6389126E-01;  9.9999998E-03; -2.0995180E-01;6481;  2.8864104E-01;  0.0000000E+00; -2.5410580E-02;  9.9626947E+02;  1.0600322E-01; -3.0906367E+03;3; -2.6057461E+01;  0.0000000E+00; -1.1122083E-02;0;  1.5795942E-02;  3.5347523E+04;  0.0000000E+00;  1.3764092E-01;  4.0000000E+04;  0.0000000E+00;  3.9963484E+04; -5.4439586E-02;  0.0000000E+00;  7.0235528E-02;  7.5929395E+02;
  6.6392541E-01;  9.9999998E-03; -2.1996510E-01;6480;  2.8481600E-01;  0.0000000E+00; -2.5408544E-02;  9.9623212E+02;  1.0600600E-01; -3.1215984E+03;3; -2.5192524E+01;  0.0000000E+00; -1.9354738E-02;0;  1.7975848E-02;  3.5342500E+04;  0.0000000E+00;  2.6254758E-01;  4.0000000E+04;  0.0000000E+00;  3.9964961E+04; -4.6675298E-02;  0.0000000E+00;  6.4651147E-02;  1.0028663E+03;
  6.6394693E-01;  9.9999998E-03; -2.2998346E-01;6479;  2.8083867E-01;  0.0000000E+00; -2.5366416E-02;  9.9617676E+02;  1.0600797E-01; -3.1674236E+03;3; -2.4292593E+01;  0.0000000E+00; -8.4633850E-02;0;  1.6416024E-02;  3.5336348E+04;  0.0000000E+00;  3.3359337E-01;  4.0000000E+04;  0.0000000E+00;  3.9967477E+04; -4.0490717E-02;  0.0000000E+00;  5.6906741E-02;  1.3283690E+03;
  6.6395372E-01;  9.9999998E-03; -2.4000025E-01;6478;  2.7672988E-01;  0.0000000E+00; -2.5360923E-02;  9.9612854E+02;  1.0600857E-01; -3.2073726E+03;3; -2.3291414E+01;  0.0000000E+00; -1.6700269E-01;0;  1.0180864E-02;  3.5329809E+04;  0.0000000E+00;  2.5785378E-01;  4.0000000E+04;  0.0000000E+00;  3.9971855E+04; -3.6086768E-02;  0.0000000E+00;  4.6267632E-02;  1.8168866E+03;
  6.6394281E-01;  9.9999998E-03; -2.5001019E-01;6477;  2.7252135E-01;  0.0000000E+00; -2.5688561E-02;  9.9613373E+02;  1.0600802E-01; -3.2030764E+03;3; -2.2154785E+01;  0.0000000E+00; -2.8124541E-01;0;  3.0313432E-04;  3.5323734E+04;  0.0000000E+00; -1.0529173E-01;  4.0000000E+04;  0.0000000E+00;  3.9981133E+04; -3.3632200E-02;  0.0000000E+00;  3.3935335E-02;  2.9534829E+03;
  6.6389233E-01;  9.9999998E-03; -2.7004543E-01;6475;  2.6394859E-01;  0.0000000E+00; -2.7688000E-02;  9.9607782E+02;  1.0600261E-01; -3.2493955E+03;3; -1.9405279E+01;  0.0000000E+00; -4.2460957E-01;0; -1.7265027E-02;  3.5314203E+04;  0.0000000E+00; -2.3032641E+00;  4.0000000E+04;  0.0000000E+00;  3.9993836E+04; -3.4536142E-02;  0.0000000E+00;  1.7271115E-02;  5.9059385E+03;
  6.6391867E-01;  9.9999998E-03; -2.6002434E-01;6476;  2.6824784E-01;  0.0000000E+00; -2.6539218E-02;  9.9614337E+02;  1.0600589E-01; -3.1950769E+03;3; -2.0856327E+01;  0.0000000E+00; -3.6017030E-01;0; -9.6489564E-03;  3.5318672E+04;  0.0000000E+00; -9.2142665E-01;  4.0000000E+04;  0.0000000E+00;  3.9990516E+04; -3.3159647E-02;  0.0000000E+00;  2.3510691E-02;  4.4080615E+03;
  6.7401862E-01;  9.9999998E-03; -2.7010193E-01;6536;  2.6115805E-01;  0.0000000E+00; -3.0506719E-02;  9.9652228E+02;  1.0783046E-01; -2.8811577E+03;3; -1.9231422E+01;  0.0000000E+00;  1.0294926E+00;0;  1.1019801E-01;  3.4169332E+04;  0.0000000E+00; -3.8036082E+00;  4.0000000E+04;  0.0000000E+00;  3.9970770E+04;  1.0024237E-01;  0.0000000E+00;  9.9556381E-03;  7.1406621E+03;
  6.7401624E-01;  9.9999998E-03; -2.6008677E-01;6537;  2.6580933E-01;  0.0000000E+00; -2.9460970E-02;  9.9658960E+02;  1.0783049E-01; -2.8254070E+03;3; -2.0833126E+01;  0.0000000E+00;  9.7135717E-01;0;  1.1597664E-01;  3.4178262E+04;  0.0000000E+00; -1.7927842E+00;  4.0000000E+04;  0.0000000E+00;  3.9964262E+04;  9.5184721E-02;  0.0000000E+00;  2.0791918E-02;  3.8652881E+03;
  6.7402768E-01;  9.9999998E-03; -2.5007218E-01;6538;  2.7034119E-01;  0.0000000E+00; -2.9099392E-02;  9.9664752E+02;  1.0783034E-01; -2.7774092E+03;3; -2.2232897E+01;  0.0000000E+00;  1.0501833E+00;0;  1.2581778E-01;  3.4186555E+04;  0.0000000E+00; -5.1541018E-01;  4.0000000E+04;  0.0000000E+00;  3.9957547E+04;  8.7573275E-02;  0.0000000E+00;  3.8244501E-02;  1.7400768E+03;
  6.7403716E-01;  9.9999998E-03; -2.4006122E-01;6539;  2.7476937E-01;  0.0000000E+00; -2.9013084E-02;  9.9669531E+02;  1.0782921E-01; -2.7378059E+03;3; -2.3418959E+01;  0.0000000E+00;  1.0946325E+00;0;  1.3168773E-01;  3.4194461E+04;  0.0000000E+00;  1.3527696E-01;  4.0000000E+04;  0.0000000E+00;  3.9950727E+04;  7.7196330E-02;  0.0000000E+00;  5.4491408E-02;  5.5779675E+02;
  6.7403209E-01;  9.9999998E-03; -2.3003905E-01;6540;  2.7902836E-01;  0.0000000E+00; -2.9138669E-02;  9.9679364E+02;  1.0782650E-01; -2.6563774E+03;3; -2.4405273E+01;  0.0000000E+00;  1.1196257E+00;0;  1.3196497E-01;  3.4202480E+04;  0.0000000E+00;  3.6537248E-01;  4.0000000E+04;  0.0000000E+00;  3.9949141E+04;  6.4023256E-02;  0.0000000E+00;  6.7941710E-02;  6.0553625E+02;
  6.7401123E-01;  9.9999998E-03; -2.2000852E-01;6541;  2.8313187E-01;  0.0000000E+00; -2.9197635E-02;  9.9688916E+02;  1.0782243E-01; -2.5772205E+03;3; -2.5307352E+01;  0.0000000E+00;  1.0757058E+00;0;  1.2636939E-01;  3.4209773E+04;  0.0000000E+00;  3.6402169E-01;  4.0000000E+04;  0.0000000E+00;  3.9949348E+04;  4.8400939E-02;  0.0000000E+00;  7.7968441E-02;  6.3271729E+02;
  6.7397732E-01;  9.9999998E-03; -2.0998210E-01;6542;  2.8704503E-01;  0.0000000E+00; -2.9125955E-02;  9.9693982E+02;  1.0781736E-01; -2.5352468E+03;3; -2.6044739E+01;  0.0000000E+00;  8.9008522E-01;0;  1.1636201E-01;  3.4215512E+04;  0.0000000E+00;  2.6149827E-01;  4.0000000E+04;  0.0000000E+00;  3.9948777E+04;  3.0809017E-02;  0.0000000E+00;  8.5552990E-02;  4.8080032E+02;
  6.7393273E-01;  9.9999998E-03; -1.9996428E-01;6543;  2.9072383E-01;  0.0000000E+00; -2.8904527E-02;  9.9695111E+02;  1.0781098E-01; -2.5259141E+03;3; -2.6832092E+01;  0.0000000E+00;  5.3050894E-01;0;  1.0331348E-01;  3.4218945E+04;  0.0000000E+00;  1.3427258E-01;  4.0000000E+04;  0.0000000E+00;  3.9948680E+04;  1.1718681E-02;  0.0000000E+00;  9.1594793E-02;  3.3725409E+02;
  6.7387933E-01;  9.9999998E-03; -1.8995431E-01;6544;  2.9415876E-01;  0.0000000E+00; -2.8491171E-02;  9.9692279E+02;  1.0780411E-01; -2.5493699E+03;3; -2.7635904E+01;  0.0000000E+00;  2.7530575E-01;0;  8.8282593E-02;  3.4219371E+04;  0.0000000E+00;  2.1301121E-02;  4.0000000E+04;  0.0000000E+00;  3.9949641E+04; -8.4359096E-03;  0.0000000E+00;  9.6718505E-02;  3.9078836E+02;
  6.7381799E-01;  9.9999998E-03; -1.7995071E-01;6545;  2.9730847E-01;  0.0000000E+00; -2.7870798E-02;  9.9684961E+02;  1.0779618E-01; -2.6100090E+03;3; -2.8593689E+01;  0.0000000E+00;  2.9239982E-01;0;  7.2041281E-02;  3.4216359E+04;  0.0000000E+00; -6.2236607E-02;  4.0000000E+04;  0.0000000E+00;  3.9951242E+04; -2.9308343E-02;  0.0000000E+00;  1.0134962E-01;  6.2119702E+02;
  6.7374998E-01;  9.9999998E-03; -1.6995133E-01;6546;  3.0017173E-01;  0.0000000E+00; -2.7148256E-02;  9.9672754E+02;  1.0778885E-01; -2.7111404E+03;3; -2.9573689E+01;  0.0000000E+00;  5.1559329E-01;0;  5.5174578E-02;  3.4210004E+04;  0.0000000E+00; -1.1533074E-01;  4.0000000E+04;  0.0000000E+00;  3.9953434E+04; -5.0599251E-02;  0.0000000E+00;  1.0577383E-01;  9.0378424E+02;
  6.7367721E-01;  9.9999998E-03; -1.5995331E-01;6547;  3.0271366E-01;  0.0000000E+00; -2.6375150E-02;  9.9654797E+02;  1.0778031E-01; -2.8598750E+03;3; -3.0591492E+01;  0.0000000E+00;  6.9536299E-01;0;  3.8118981E-02;  3.4200117E+04;  0.0000000E+00; -1.4410694E-01;  4.0000000E+04;  0.0000000E+00;  3.9955426E+04; -7.2064683E-02;  0.0000000E+00;  1.1018366E-01;  1.1703281E+03;
  6.7360103E-01;  9.9999998E-03; -1.4995490E-01;6548;  3.0492902E-01;  0.0000000E+00; -2.5566485E-02;  9.9631317E+02;  1.0777172E-01; -3.0544346E+03;3; -3.1696955E+01;  0.0000000E+00;  6.9806409E-01;0;  2.1281585E-02;  3.4187184E+04;  0.0000000E+00; -1.5657236E-01;  4.0000000E+04;  0.0000000E+00;  3.9957004E+04; -9.3469888E-02;  0.0000000E+00;  1.1475147E-01;  1.3880620E+03;
  6.7352223E-01;  9.9999998E-03; -1.3995543E-01;6549;  3.0680823E-01;  0.0000000E+00; -2.4732476E-02;  9.9603625E+02;  1.0776299E-01; -3.2838567E+03;3; -3.2868645E+01;  0.0000000E+00;  5.0174457E-01;0;  5.0338805E-03;  3.4171633E+04;  0.0000000E+00; -1.5881808E-01;  4.0000000E+04;  0.0000000E+00;  3.9958121E+04; -1.1460251E-01;  0.0000000E+00;  1.1963639E-01;  1.5544978E+03;
  6.7344171E-01;  9.9999998E-03; -1.2995483E-01;6550;  3.0835372E-01;  0.0000000E+00; -2.3869919E-02;  9.9572137E+02;  1.0775463E-01; -3.5446848E+03;3; -3.4036602E+01;  0.0000000E+00;  1.5511858E-01;0; -1.0298774E-02;  3.4154234E+04;  0.0000000E+00; -1.5373003E-01;  4.0000000E+04;  0.0000000E+00;  3.9959117E+04; -1.3528255E-01;  0.0000000E+00;  1.2498377E-01;  1.6886754E+03;
  6.7336076E-01;  9.9999998E-03; -1.1995370E-01;6551;  3.0956152E-01;  0.0000000E+00; -2.2946650E-02;  9.9539172E+02;  1.0774657E-01; -3.8178086E+03;3; -3.5189781E+01;  0.0000000E+00; -2.2738193E-01;0; -2.4480924E-02;  3.4135453E+04;  0.0000000E+00; -1.4253379E-01;  4.0000000E+04;  0.0000000E+00;  3.9959973E+04; -1.5538424E-01;  0.0000000E+00;  1.3090332E-01;  1.8162090E+03;
  6.7328060E-01;  9.9999998E-03; -1.0995279E-01;6552;  3.1044251E-01;  0.0000000E+00; -2.1923624E-02;  9.9505432E+02;  1.0773863E-01; -4.0973521E+03;3; -3.6295837E+01;  0.0000000E+00; -5.8890438E-01;0; -3.7391543E-02;  3.4116016E+04;  0.0000000E+00; -1.2654965E-01;  4.0000000E+04;  0.0000000E+00;  3.9960887E+04; -1.7481117E-01;  0.0000000E+00;  1.3741963E-01;  1.9558506E+03;
  6.8446583E-01;  9.9999998E-03; -2.7016544E-01;6597;  2.5848985E-01;  0.0000000E+00; -3.4480885E-02;  9.9736469E+02;  1.0987063E-01; -2.1832566E+03;3; -1.8985479E+01;  0.0000000E+00;  2.9799509E+00;0;  3.1425917E-01;  3.2983656E+04;  0.0000000E+00; -4.6641140E+00;  4.0000000E+04;  0.0000000E+00;  3.9945766E+04;  3.0262130E-01;  0.0000000E+00;  1.1637880E-02;  8.3614268E+03;
  6.8439251E-01;  9.9999998E-03; -2.6015761E-01;6598;  2.6355720E-01;  0.0000000E+00; -3.3188548E-02;  9.9739056E+02;  1.0986059E-01; -2.1618254E+03;3; -2.0787752E+01;  0.0000000E+00;  2.3786938E+00;0;  3.0868697E-01;  3.2998660E+04;  0.0000000E+00; -2.4031477E+00;  4.0000000E+04;  0.0000000E+00;  3.9935227E+04;  2.8665301E-01;  0.0000000E+00;  2.2033965E-02;  4.3922158E+03;
  6.8433446E-01;  9.9999998E-03; -2.5014320E-01;6599;  2.6835951E-01;  0.0000000E+00; -3.3155635E-02;  9.9749158E+02;  1.0985136E-01; -2.0781257E+03;3; -2.2276339E+01;  0.0000000E+00;  2.4574153E+00;0;  3.1213230E-01;  3.3012355E+04;  0.0000000E+00; -8.9006728E-01;  4.0000000E+04;  0.0000000E+00;  3.9931340E+04;  2.6719618E-01;  0.0000000E+00;  4.4936135E-02;  1.8255341E+03;
  6.8430960E-01;  9.9999998E-03; -2.4012686E-01;6600;  2.7295762E-01;  0.0000000E+00; -3.3298943E-02;  9.9759528E+02;  1.0984457E-01; -1.9922531E+03;3; -2.3471878E+01;  0.0000000E+00;  2.4989569E+00;0;  3.0964652E-01;  3.3022887E+04;  0.0000000E+00; -2.6667014E-02;  4.0000000E+04;  0.0000000E+00;  3.9929172E+04;  2.4464551E-01;  0.0000000E+00;  6.5001018E-02;  6.9514899E+02;
  6.8428659E-01;  9.9999998E-03; -2.3010142E-01;6601;  2.7735683E-01;  0.0000000E+00; -3.3464242E-02;  9.9771130E+02;  1.0983748E-01; -1.8961094E+03;3; -2.4441751E+01;  0.0000000E+00;  2.2926352E+00;0;  2.9967034E-01;  3.3031809E+04;  0.0000000E+00;  3.5050586E-01;  4.0000000E+04;  0.0000000E+00;  3.9929859E+04;  2.1859553E-01;  0.0000000E+00;  8.1074819E-02;  6.9166052E+02;
  6.8425208E-01;  9.9999998E-03; -2.2006157E-01;6602;  2.8152975E-01;  0.0000000E+00; -3.3420715E-02;  9.9781427E+02;  1.0982915E-01; -1.8107800E+03;3; -2.5114708E+01;  0.0000000E+00;  1.8553475E+00;0;  2.8268817E-01;  3.3039699E+04;  0.0000000E+00;  4.3585867E-01;  4.0000000E+04;  0.0000000E+00;  3.9932195E+04;  1.8931073E-01;  0.0000000E+00;  9.3377441E-02;  6.6426843E+02;
  6.8420911E-01;  9.9999998E-03; -2.1002296E-01;6603;  2.8546211E-01;  0.0000000E+00; -3.3111930E-02;  9.9785596E+02;  1.0982010E-01; -1.7762632E+03;3; -2.5906267E+01;  0.0000000E+00;  1.2962743E+00;0;  2.6074693E-01;  3.3045418E+04;  0.0000000E+00;  3.7816286E-01;  4.0000000E+04;  0.0000000E+00;  3.9932633E+04;  1.5762728E-01;  0.0000000E+00;  1.0311964E-01;  5.8271417E+02;
  6.8415946E-01;  9.9999998E-03; -1.9999516E-01;6604;  2.8915665E-01;  0.0000000E+00; -3.2510817E-02;  9.9783917E+02;  1.0981053E-01; -1.7901887E+03;3; -2.6734846E+01;  0.0000000E+00;  9.2053676E-01;0;  2.3562375E-01;  3.3048438E+04;  0.0000000E+00;  2.6876658E-01;  4.0000000E+04;  0.0000000E+00;  3.9932543E+04;  1.2441365E-01;  0.0000000E+00;  1.1121011E-01;  4.4968372E+02;
  6.8410182E-01;  9.9999998E-03; -1.8997848E-01;6605;  2.9258940E-01;  0.0000000E+00; -3.1680983E-02;  9.9777179E+02;  1.0980010E-01; -1.8459885E+03;3; -2.7730949E+01;  0.0000000E+00;  9.5181978E-01;0;  2.0864187E-01;  3.3048207E+04;  0.0000000E+00;  1.5675086E-01;  4.0000000E+04;  0.0000000E+00;  3.9933094E+04;  9.0427808E-02;  0.0000000E+00;  1.1821406E-01;  2.7005066E+02;
  6.8403733E-01;  9.9999998E-03; -1.7997013E-01;6606;  2.9576403E-01;  0.0000000E+00; -3.0711237E-02;  9.9765680E+02;  1.0978901E-01; -1.9412434E+03;3; -2.8695148E+01;  0.0000000E+00;  1.1297529E+00;0;  1.8076041E-01;  3.3044426E+04;  0.0000000E+00;  6.4122036E-02;  4.0000000E+04;  0.0000000E+00;  3.9934648E+04;  5.6367148E-02;  0.0000000E+00;  1.2439327E-01;  7.3896278E+01;
  6.8396729E-01;  9.9999998E-03; -1.6996737E-01;6607;  2.9862842E-01;  0.0000000E+00; -2.9669348E-02;  9.9748694E+02;  1.0977727E-01; -2.0819775E+03;3; -2.9744234E+01;  0.0000000E+00;  1.3548046E+00;0;  1.5264849E-01;  3.3036789E+04;  0.0000000E+00; -3.4310964E-03;  4.0000000E+04;  0.0000000E+00;  3.9936629E+04;  2.2762863E-02;  0.0000000E+00;  1.2988563E-01;  2.9149924E+02;
  6.8389344E-01;  9.9999998E-03; -1.5996738E-01;6608;  3.0116847E-01;  0.0000000E+00; -2.8595984E-02;  9.9725488E+02;  1.0976561E-01; -2.2742156E+03;3; -3.0720150E+01;  0.0000000E+00;  1.5963342E+00;0;  1.2485766E-01;  3.3025289E+04;  0.0000000E+00; -4.8764143E-02;  4.0000000E+04;  0.0000000E+00;  3.9938699E+04; -9.9630188E-03;  0.0000000E+00;  1.3482068E-01;  5.7671478E+02;
  6.8381661E-01;  9.9999998E-03; -1.4996706E-01;6609;  3.0333370E-01;  0.0000000E+00; -2.7537361E-02;  9.9695892E+02;  1.0975353E-01; -2.5194390E+03;3; -3.1668676E+01;  0.0000000E+00;  1.7361859E+00;0;  9.7847670E-02;  3.3010176E+04;  0.0000000E+00; -7.7911794E-02;  4.0000000E+04;  0.0000000E+00;  3.9940523E+04; -4.1512217E-02;  0.0000000E+00;  1.3935989E-01;  8.2970312E+02;
  6.8373704E-01;  9.9999998E-03; -1.3996542E-01;6610;  3.0512258E-01;  0.0000000E+00; -2.6465600E-02;  9.9661182E+02;  1.0974131E-01; -2.8069812E+03;3; -3.2773628E+01;  0.0000000E+00;  1.6187786E+00;0;  7.2076835E-02;  3.2992004E+04;  0.0000000E+00; -9.6034572E-02;  4.0000000E+04;  0.0000000E+00;  3.9942027E+04; -7.1620144E-02;  0.0000000E+00;  1.4369698E-01;  1.0413134E+03;
  6.8365526E-01;  9.9999998E-03; -1.2996252E-01;6611;  3.0653283E-01;  0.0000000E+00; -2.5346169E-02;  9.9622131E+02;  1.0972952E-01; -3.1305220E+03;3; -3.3929428E+01;  0.0000000E+00;  1.1877440E+00;0;  4.7950767E-02;  3.2971379E+04;  0.0000000E+00; -1.0546245E-01;  4.0000000E+04;  0.0000000E+00;  3.9943297E+04; -1.0009844E-01;  0.0000000E+00;  1.4804921E-01;  1.2269017E+03;
  6.8357211E-01;  9.9999998E-03; -1.1995900E-01;6612;  3.0756328E-01;  0.0000000E+00; -2.4188487E-02;  9.9580719E+02;  1.0971797E-01; -3.4736172E+03;3; -3.5091087E+01;  0.0000000E+00;  6.0156935E-01;0;  2.5767073E-02;  3.2949242E+04;  0.0000000E+00; -1.0698526E-01;  4.0000000E+04;  0.0000000E+00;  3.9944566E+04; -1.2684216E-01;  0.0000000E+00;  1.5260923E-01;  1.4097428E+03;
  6.8348861E-01;  9.9999998E-03; -1.0995565E-01;6613;  3.0822778E-01;  0.0000000E+00; -2.2935200E-02;  9.9538483E+02;  1.0970686E-01; -3.8235271E+03;3; -3.6210232E+01;  0.0000000E+00;  6.7252710E-02;0;  5.6656599E-03;  3.2926285E+04;  0.0000000E+00; -1.0161470E-01;  4.0000000E+04;  0.0000000E+00;  3.9945930E+04; -1.5181012E-01;  0.0000000E+00;  1.5747578E-01;  1.6066599E+03;
  6.9592416E-01;  9.9999998E-03; -2.7024028E-01;6658;  2.5588143E-01;  0.0000000E+00; -4.0237769E-02;  9.9892981E+02;  1.1217287E-01; -8.8662244E+02;3; -1.8506798E+01;  0.0000000E+00;  5.9091825E+00;0;  6.3813740E-01;  3.1767623E+04;  0.0000000E+00; -3.1806464E+00;  4.0000000E+04;  0.0000000E+00;  3.9916375E+04;  6.1142832E-01;  0.0000000E+00;  2.6709065E-02;  6.1235840E+03;
  6.9570774E-01;  9.9999998E-03; -2.6023567E-01;6659;  2.6140240E-01;  0.0000000E+00; -3.8441699E-02;  9.9887384E+02;  1.1213829E-01; -9.3299054E+02;3; -2.0618416E+01;  0.0000000E+00;  4.3750868E+00;0;  6.0786611E-01;  3.1791219E+04;  0.0000000E+00; -1.6877781E+00;  4.0000000E+04;  0.0000000E+00;  3.9904855E+04;  5.7633084E-01;  0.0000000E+00;  3.1535242E-02;  3.9982285E+03;
  6.9553852E-01;  9.9999998E-03; -2.5022569E-01;6660;  2.6648483E-01;  0.0000000E+00; -3.8263701E-02;  9.9891272E+02;  1.1211049E-01; -9.0079474E+02;3; -2.2225183E+01;  0.0000000E+00;  4.0879588E+00;0;  5.9281641E-01;  3.1810771E+04;  0.0000000E+00; -5.6565493E-01;  4.0000000E+04;  0.0000000E+00;  3.9901332E+04;  5.3781992E-01;  0.0000000E+00;  5.4996490E-02;  2.8781016E+03;
  6.9540727E-01;  9.9999998E-03; -2.4020974E-01;6661;  2.7125227E-01;  0.0000000E+00; -3.8418949E-02;  9.9899884E+02;  1.1208761E-01; -8.2944025E+02;3; -2.3220190E+01;  0.0000000E+00;  3.5694206E+00;0;  5.7318312E-01;  3.1826502E+04;  0.0000000E+00;  1.1502159E-01;  4.0000000E+04;  0.0000000E+00;  3.9902199E+04;  4.9553788E-01;  0.0000000E+00;  7.7645250E-02;  2.4196750E+03;
  6.9529200E-01;  9.9999998E-03; -2.3019281E-01;6662;  2.7570862E-01;  0.0000000E+00; -3.8292982E-02;  9.9906464E+02;  1.1206595E-01; -7.7492450E+02;3; -2.4070084E+01;  0.0000000E+00;  2.9339492E+00;0;  5.4484755E-01;  3.1839615E+04;  0.0000000E+00;  4.3806827E-01;  4.0000000E+04;  0.0000000E+00;  3.9903426E+04;  4.4922110E-01;  0.0000000E+00;  9.5626466E-02;  2.3191775E+03;
  6.9518518E-01;  9.9999998E-03; -2.2015606E-01;6663;  2.7990869E-01;  0.0000000E+00; -3.7978556E-02;  9.9913904E+02;  1.1204468E-01; -7.1329791E+02;3; -2.4922510E+01;  0.0000000E+00;  2.3502507E+00;0;  5.0993240E-01;  3.1850098E+04;  0.0000000E+00;  5.2991474E-01;  4.0000000E+04;  0.0000000E+00;  3.9907930E+04;  3.9935201E-01;  0.0000000E+00;  1.1058040E-01;  1.8622233E+03;
  6.9509101E-01;  9.9999998E-03; -2.1010953E-01;6664;  2.8386000E-01;  0.0000000E+00; -3.7307188E-02;  9.9915454E+02;  1.1202544E-01; -7.0040967E+02;3; -2.5779757E+01;  0.0000000E+00;  1.8668392E+00;0;  4.7013831E-01;  3.1857109E+04;  0.0000000E+00;  4.9549326E-01;  4.0000000E+04;  0.0000000E+00;  3.9911188E+04;  3.4708154E-01;  0.0000000E+00;  1.2305678E-01;  1.4943606E+03;
  6.9500905E-01;  9.9999998E-03; -2.0007230E-01;6665;  2.8756067E-01;  0.0000000E+00; -3.6310151E-02;  9.9910040E+02;  1.1200856E-01; -7.4529639E+02;3; -2.6751955E+01;  0.0000000E+00;  1.6924024E+00;0;  4.2745745E-01;  3.1860299E+04;  0.0000000E+00;  4.0644774E-01;  4.0000000E+04;  0.0000000E+00;  3.9912523E+04;  2.9364786E-01;  0.0000000E+00;  1.3380961E-01;  1.3010758E+03;
  6.9493425E-01;  9.9999998E-03; -1.9004893E-01;6666;  2.9101056E-01;  0.0000000E+00; -3.5140976E-02;  9.9898328E+02;  1.1199248E-01; -8.4232861E+02;3; -2.7783464E+01;  0.0000000E+00;  1.7634571E+00;0;  3.8336533E-01;  3.1859287E+04;  0.0000000E+00;  3.0516031E-01;  4.0000000E+04;  0.0000000E+00;  3.9913543E+04;  2.4015847E-01;  0.0000000E+00;  1.4320685E-01;  1.1212563E+03;
  6.9486171E-01;  9.9999998E-03; -1.8003683E-01;6667;  2.9419130E-01;  0.0000000E+00; -3.3827435E-02;  9.9881421E+02;  1.1197696E-01; -9.8237109E+02;3; -2.8839493E+01;  0.0000000E+00;  1.9173417E+00;0;  3.3888137E-01;  3.1854174E+04;  0.0000000E+00;  2.1298976E-01;  4.0000000E+04;  0.0000000E+00;  3.9915047E+04;  1.8759200E-01;  0.0000000E+00;  1.5128937E-01;  8.7720050E+02;
  6.9478959E-01;  9.9999998E-03; -1.7003188E-01;6668;  2.9708651E-01;  0.0000000E+00; -3.2409862E-02;  9.9858624E+02;  1.1196167E-01; -1.1712506E+03;3; -2.9841991E+01;  0.0000000E+00;  2.1567478E+00;0;  2.9487172E-01;  3.1844777E+04;  0.0000000E+00;  1.3787277E-01;  4.0000000E+04;  0.0000000E+00;  3.9917203E+04;  1.3678321E-01;  0.0000000E+00;  1.5808851E-01;  5.7900983E+02;
  6.9471735E-01;  9.9999998E-03; -1.6003060E-01;6669;  2.9961953E-01;  0.0000000E+00; -3.0967845E-02;  9.9829358E+02;  1.1194662E-01; -1.4137079E+03;3; -3.0871111E+01;  0.0000000E+00;  2.4269011E+00;0;  2.5199986E-01;  3.1831277E+04;  0.0000000E+00;  8.0286786E-02;  4.0000000E+04;  0.0000000E+00;  3.9919379E+04;  8.8329092E-02;  0.0000000E+00;  1.6367078E-01;  2.6910950E+02;
  6.9464511E-01;  9.9999998E-03; -1.5002951E-01;6670;  3.0176893E-01;  0.0000000E+00; -2.9567670E-02;  9.9793774E+02;  1.1193205E-01; -1.7085081E+03;3; -3.1805477E+01;  0.0000000E+00;  2.7428815E+00;0;  2.1084413E-01;  3.1813697E+04;  0.0000000E+00;  3.7271254E-02;  4.0000000E+04;  0.0000000E+00;  3.9921445E+04;  4.2666852E-02;  0.0000000E+00;  1.6817728E-01;  3.1596251E+01;
  6.9457185E-01;  9.9999998E-03; -1.4002641E-01;6671;  3.0347168E-01;  0.0000000E+00; -2.8215731E-02;  9.9752350E+02;  1.1191732E-01; -2.0517009E+03;3; -3.2697090E+01;  0.0000000E+00;  2.7244122E+00;0;  1.7189184E-01;  3.1792734E+04;  0.0000000E+00;  5.4448443E-03;  4.0000000E+04;  0.0000000E+00;  3.9923316E+04;  5.8771086E-05;  0.0000000E+00;  1.7183307E-01;  2.8516699E+02;
  6.9449592E-01;  9.9999998E-03; -1.3002110E-01;6672;  3.0473682E-01;  0.0000000E+00; -2.6822900E-02;  9.9706506E+02;  1.1190322E-01; -2.4314846E+03;3; -3.3728336E+01;  0.0000000E+00;  2.3411193E+00;0;  1.3562721E-01;  3.1769223E+04;  0.0000000E+00; -1.6972195E-02;  4.0000000E+04;  0.0000000E+00;  3.9925000E+04; -3.9302003E-02;  0.0000000E+00;  1.7492922E-01;  5.3236359E+02;
  6.9441551E-01;  9.9999998E-03; -1.2001406E-01;6673;  3.0558032E-01;  0.0000000E+00; -2.5324492E-02;  9.9657959E+02;  1.1188880E-01; -2.8336873E+03;3; -3.4810978E+01;  0.0000000E+00;  1.7005001E+00;0;  1.0240517E-01;  3.1744182E+04;  0.0000000E+00; -3.0718980E-02;  4.0000000E+04;  0.0000000E+00;  3.9926668E+04; -7.5342365E-02;  0.0000000E+00;  1.7774753E-01;  7.8454932E+02;
  6.9433039E-01;  9.9999998E-03; -1.1000627E-01;6674;  3.0601710E-01;  0.0000000E+00; -2.3757972E-02;  9.9608533E+02;  1.1187458E-01; -3.2431487E+03;3; -3.5961712E+01;  0.0000000E+00;  8.3162856E-01;0;  7.2385475E-02;  3.1718625E+04;  0.0000000E+00; -3.6829244E-02;  4.0000000E+04;  0.0000000E+00;  3.9928684E+04; -1.0808794E-01;  0.0000000E+00;  1.8047342E-01;  1.0543011E+03;
  7.0862252E-01;  9.9999998E-03; -2.7033654E-01;6719;  2.5357169E-01;  0.0000000E+00; -4.7659528E-02;  1.0016503E+03;  1.1471580E-01;  1.3671356E+03;3; -1.8017931E+01;  0.0000000E+00;  1.0273468E+01;0;  1.1248865E+00;  3.0579715E+04;  0.0000000E+00; -4.9781474E-01;  4.0000000E+04;  0.0000000E+00;  3.9874203E+04;  1.0714868E+00;  0.0000000E+00;  5.3399697E-02;  4.4842007E+03;
  7.0832396E-01;  9.9999998E-03; -2.6032668E-01;6720;  2.5929910E-01;  0.0000000E+00; -4.6318699E-02;  1.0015506E+03;  1.1466516E-01;  1.2845723E+03;3; -2.0134233E+01;  0.0000000E+00;  8.2139673E+00;0;  1.0683391E+00;  3.0602824E+04;  0.0000000E+00; -3.9866339E-02;  4.0000000E+04;  0.0000000E+00;  3.9869863E+04;  1.0101311E+00;  0.0000000E+00;  5.8207948E-02;  4.8022285E+03;
  7.0805633E-01;  9.9999998E-03; -2.5032496E-01;6721;  2.6464477E-01;  0.0000000E+00; -4.5110278E-02;  1.0014330E+03;  1.1461917E-01;  1.1871949E+03;3; -2.1632832E+01;  0.0000000E+00;  5.9271512E+00;0;  1.0156394E+00;  3.0623059E+04;  0.0000000E+00;  3.4738696E-01;  4.0000000E+04;  0.0000000E+00;  3.9864809E+04;  9.4416058E-01;  0.0000000E+00;  7.1478814E-02;  5.4134058E+03;
  7.0784652E-01;  9.9999998E-03; -2.4032536E-01;6722;  2.6955914E-01;  0.0000000E+00; -4.4466086E-02;  1.0013653E+03;  1.1458095E-01;  1.1310994E+03;3; -2.2869602E+01;  0.0000000E+00;  4.6248794E+00;0;  9.6582299E-01;  3.0638547E+04;  0.0000000E+00;  5.9697711E-01;  4.0000000E+04;  0.0000000E+00;  3.9863855E+04;  8.7433499E-01;  0.0000000E+00;  9.1488004E-02;  5.5861685E+03;
  7.0765781E-01;  9.9999998E-03; -2.3033302E-01;6723;  2.7411702E-01;  0.0000000E+00; -4.3838553E-02;  1.0012980E+03;  1.1454531E-01;  1.0753987E+03;3; -2.3774996E+01;  0.0000000E+00;  3.7259929E+00;0;  9.1103113E-01;  3.0651096E+04;  0.0000000E+00;  6.9408780E-01;  4.0000000E+04;  0.0000000E+00;  3.9864586E+04;  7.9973072E-01;  0.0000000E+00;  1.1130041E-01;  5.5432866E+03;
  7.0748687E-01;  9.9999998E-03; -2.2032805E-01;6724;  2.7835912E-01;  0.0000000E+00; -4.3187913E-02;  1.0012689E+03;  1.1451168E-01;  1.0512025E+03;3; -2.4696941E+01;  0.0000000E+00;  3.0281491E+00;0;  8.5075802E-01;  3.0660662E+04;  0.0000000E+00;  6.8843895E-01;  4.0000000E+04;  0.0000000E+00;  3.9870367E+04;  7.2107339E-01;  0.0000000E+00;  1.2968461E-01;  4.8599956E+03;
  7.0732617E-01;  9.9999998E-03; -2.1029784E-01;6725;  2.8231779E-01;  0.0000000E+00; -4.2213798E-02;  1.0012352E+03;  1.1447927E-01;  1.0232535E+03;3; -2.5677176E+01;  0.0000000E+00;  2.6645625E+00;0;  7.8529012E-01;  3.0667471E+04;  0.0000000E+00;  6.2512296E-01;  4.0000000E+04;  0.0000000E+00;  3.9878227E+04;  6.3943261E-01;  0.0000000E+00;  1.4585753E-01;  3.8955613E+03;
  7.0719773E-01;  9.9999998E-03; -2.0026121E-01;6726;  2.8602156E-01;  0.0000000E+00; -4.0864367E-02;  1.0011402E+03;  1.1445210E-01;  9.4464050E+02;3; -2.6728935E+01;  0.0000000E+00;  2.4976501E+00;0;  7.1727312E-01;  3.0669766E+04;  0.0000000E+00;  5.3785861E-01;  4.0000000E+04;  0.0000000E+00;  3.9883953E+04;  5.5721098E-01;  0.0000000E+00;  1.6006212E-01;  3.1740452E+03;
  7.0709670E-01;  9.9999998E-03; -1.9023412E-01;6727;  2.8947335E-01;  0.0000000E+00; -3.9259471E-02;  1.0009755E+03;  1.1442921E-01;  8.0815405E+02;3; -2.7796387E+01;  0.0000000E+00;  2.5310996E+00;0;  6.4852530E-01;  3.0667283E+04;  0.0000000E+00;  4.4582230E-01;  4.0000000E+04;  0.0000000E+00;  3.9887664E+04;  4.7605219E-01;  0.0000000E+00;  1.7247309E-01;  2.6796807E+03;
  7.0700848E-01;  9.9999998E-03; -1.8021972E-01;6728;  2.9264373E-01;  0.0000000E+00; -3.7494976E-02;  1.0007512E+03;  1.1440818E-01;  6.2238629E+02;3; -2.8824505E+01;  0.0000000E+00;  2.6890230E+00;0;  5.8021200E-01;  3.0660607E+04;  0.0000000E+00;  3.5984546E-01;  4.0000000E+04;  0.0000000E+00;  3.9890730E+04;  3.9721444E-01;  0.0000000E+00;  1.8299754E-01;  2.2714385E+03;
  7.0693517E-01;  9.9999998E-03; -1.7021450E-01;6729;  2.9550859E-01;  0.0000000E+00; -3.5623226E-02;  1.0004713E+03;  1.1438980E-01;  3.9039877E+02;3; -2.9899136E+01;  0.0000000E+00;  2.9121740E+00;0;  5.1360494E-01;  3.0649318E+04;  0.0000000E+00;  2.8505653E-01;  4.0000000E+04;  0.0000000E+00;  3.9893559E+04;  3.2205853E-01;  0.0000000E+00;  1.9154641E-01;  1.8889844E+03;
  7.0687437E-01;  9.9999998E-03; -1.6021408E-01;6730;  2.9804280E-01;  0.0000000E+00; -3.3727620E-02;  1.0001255E+03;  1.1437303E-01;  1.0399442E+02;3; -3.0943693E+01;  0.0000000E+00;  3.2585497E+00;0;  4.4957739E-01;  3.0633410E+04;  0.0000000E+00;  2.2313808E-01;  4.0000000E+04;  0.0000000E+00;  3.9896188E+04;  2.5147948E-01;  0.0000000E+00;  1.9809790E-01;  1.5272363E+03;
  7.0682520E-01;  9.9999998E-03; -1.5021412E-01;6731;  3.0017117E-01;  0.0000000E+00; -3.1866942E-02;  9.9972296E+02;  1.1435843E-01; -2.2951854E+02;3; -3.1918427E+01;  0.0000000E+00;  3.5607414E+00;0;  3.8879198E-01;  3.0613066E+04;  0.0000000E+00;  1.7392565E-01;  4.0000000E+04;  0.0000000E+00;  3.9898637E+04;  1.8603751E-01;  0.0000000E+00;  2.0275445E-01;  1.1885856E+03;
  7.0678693E-01;  9.9999998E-03; -1.4021102E-01;6732;  3.0182815E-01;  0.0000000E+00; -3.0076472E-02;  9.9926532E+02;  1.1434574E-01; -6.0865869E+02;3; -3.2714310E+01;  0.0000000E+00;  3.8113587E+00;0;  3.3180019E-01;  3.0588773E+04;  0.0000000E+00;  1.3604404E-01;  4.0000000E+04;  0.0000000E+00;  3.9900891E+04;  1.2603824E-01;  0.0000000E+00;  2.0576195E-01;  8.6474731E+02;
  7.0675468E-01;  9.9999998E-03; -1.3020374E-01;6733;  3.0294755E-01;  0.0000000E+00; -2.8306879E-02;  9.9876996E+02;  1.1433455E-01; -1.0190564E+03;3; -3.3423981E+01;  0.0000000E+00;  3.5513420E+00;0;  2.7903956E-01;  3.0561566E+04;  0.0000000E+00;  1.0787395E-01;  4.0000000E+04;  0.0000000E+00;  3.9903164E+04;  7.1568914E-02;  0.0000000E+00;  2.0747064E-01;  5.4134381E+02;
  7.0672435E-01;  9.9999998E-03; -1.2019245E-01;6734;  3.0357158E-01;  0.0000000E+00; -2.6431598E-02;  9.9825226E+02;  1.1432442E-01; -1.4479222E+03;3; -3.4384712E+01;  0.0000000E+00;  2.8468723E+00;0;  2.3088983E-01;  3.0532527E+04;  0.0000000E+00;  8.7837264E-02;  4.0000000E+04;  0.0000000E+00;  3.9905637E+04;  2.2642005E-02;  0.0000000E+00;  2.0824783E-01;  2.1667461E+02;
  7.0669162E-01;  9.9999998E-03; -1.1017809E-01;6735;  3.0375579E-01;  0.0000000E+00; -2.4453634E-02;  9.9772559E+02;  1.1431511E-01; -1.8842445E+03;3; -3.5552120E+01;  0.0000000E+00;  1.9131172E+00;0;  1.8748692E-01;  3.0502939E+04;  0.0000000E+00;  7.3969305E-02;  4.0000000E+04;  0.0000000E+00;  3.9908129E+04; -2.0872161E-02;  0.0000000E+00;  2.0835908E-01;  2.0633752E+02;
  7.2090220E-01;  9.9999998E-03; -2.7043751E-01;6780;  2.5226933E-01;  0.0000000E+00; -5.4961503E-02;  1.0046484E+03;  1.1706965E-01;  3.8509304E+03;3; -1.7541082E+01;  0.0000000E+00;  1.4941243E+01;0;  1.7180777E+00;  2.9579719E+04;  0.0000000E+00; -3.3692273E-01;  4.0000000E+04;  0.0000000E+00;  3.9828863E+04;  1.6369267E+00;  0.0000000E+00;  8.1150971E-02;  8.4825850E+03;
  7.2082156E-01;  9.9999998E-03; -2.6042464E-01;6781;  2.5804359E-01;  0.0000000E+00; -5.5093363E-02;  1.0046288E+03;  1.1705089E-01;  3.8348333E+03;3; -1.9720497E+01;  0.0000000E+00;  1.4027617E+01;0;  1.6517783E+00;  2.9585260E+04;  0.0000000E+00;  1.3747588E-01;  4.0000000E+04;  0.0000000E+00;  3.9832000E+04;  1.5590135E+00;  0.0000000E+00;  9.2764869E-02;  8.0210713E+03;
  7.2061890E-01;  9.9999998E-03; -2.5041804E-01;6782;  2.6353848E-01;  0.0000000E+00; -5.4518327E-02;  1.0045151E+03;  1.1701539E-01;  3.7405181E+03;3; -2.1330618E+01;  0.0000000E+00;  1.1870105E+01;0;  1.5707151E+00;  2.9595389E+04;  0.0000000E+00;  4.3762290E-01;  4.0000000E+04;  0.0000000E+00;  3.9833371E+04;  1.4671984E+00;  0.0000000E+00;  1.0351673E-01;  7.8643003E+03;
  7.2043538E-01;  9.9999998E-03; -2.4042147E-01;6783;  2.6860330E-01;  0.0000000E+00; -5.3163592E-02;  1.0043713E+03;  1.1698225E-01;  3.6214143E+03;3; -2.2506062E+01;  0.0000000E+00;  7.6457090E+00;0;  1.4838256E+00;  2.9602787E+04;  0.0000000E+00;  6.1452848E-01;  4.0000000E+04;  0.0000000E+00;  3.9833941E+04;  1.3685392E+00;  0.0000000E+00;  1.1528631E-01;  7.8399946E+03;
  7.2028863E-01;  9.9999998E-03; -2.3043749E-01;6784;  2.7322197E-01;  0.0000000E+00; -5.1429085E-02;  1.0042159E+03;  1.1695310E-01;  3.4927310E+03;3; -2.3398849E+01;  0.0000000E+00;  4.8851247E+00;0;  1.3953290E+00;  2.9606482E+04;  0.0000000E+00;  6.8733060E-01;  4.0000000E+04;  0.0000000E+00;  3.9834926E+04;  1.2643675E+00;  0.0000000E+00;  1.3096157E-01;  7.7274478E+03;
  7.2015488E-01;  9.9999998E-03; -2.2045133E-01;6785;  2.7747795E-01;  0.0000000E+00; -4.9858827E-02;  1.0040902E+03;  1.1692578E-01;  3.3885396E+03;3; -2.4284307E+01;  0.0000000E+00;  3.7068405E+00;0;  1.3045850E+00;  2.9607631E+04;  0.0000000E+00;  6.8647033E-01;  4.0000000E+04;  0.0000000E+00;  3.9840164E+04;  1.1547182E+00;  0.0000000E+00;  1.4986679E-01;  7.0851963E+03;
  7.2003037E-01;  9.9999998E-03; -2.1044783E-01;6786;  2.8138363E-01;  0.0000000E+00; -4.8166975E-02;  1.0039702E+03;  1.1689937E-01;  3.2890891E+03;3; -2.5289642E+01;  0.0000000E+00;  3.0499465E+00;0;  1.2098778E+00;  2.9606455E+04;  0.0000000E+00;  6.4445221E-01;  4.0000000E+04;  0.0000000E+00;  3.9848145E+04;  1.0411084E+00;  0.0000000E+00;  1.6876952E-01;  6.0836665E+03;
  7.1991318E-01;  9.9999998E-03; -2.0042440E-01;6787;  2.8499821E-01;  0.0000000E+00; -4.6160899E-02;  1.0038146E+03;  1.1687315E-01;  3.1602080E+03;3; -2.6373657E+01;  0.0000000E+00;  2.8453944E+00;0;  1.1120595E+00;  2.9603172E+04;  0.0000000E+00;  5.8277893E-01;  4.0000000E+04;  0.0000000E+00;  3.9855852E+04;  9.2569691E-01;  0.0000000E+00;  1.8636261E-01;  5.1213428E+03;
  7.1981061E-01;  9.9999998E-03; -1.9039862E-01;6788;  2.8834996E-01;  0.0000000E+00; -4.3890014E-02;  1.0035958E+03;  1.1684908E-01;  2.9789844E+03;3; -2.7537966E+01;  0.0000000E+00;  2.9084134E+00;0;  1.0134633E+00;  2.9596867E+04;  0.0000000E+00;  5.1392251E-01;  4.0000000E+04;  0.0000000E+00;  3.9861340E+04;  8.1138462E-01;  0.0000000E+00;  2.0207861E-01;  4.4180815E+03;
  7.1973211E-01;  9.9999998E-03; -1.8037826E-01;6789;  2.9144162E-01;  0.0000000E+00; -4.1482843E-02;  1.0033227E+03;  1.1682858E-01;  2.7527261E+03;3; -2.8702923E+01;  0.0000000E+00;  3.1518145E+00;0;  9.1636455E-01;  2.9586881E+04;  0.0000000E+00;  4.4529271E-01;  4.0000000E+04;  0.0000000E+00;  3.9865340E+04;  7.0086735E-01;  0.0000000E+00;  2.1549718E-01;  3.8953259E+03;
  7.1967828E-01;  9.9999998E-03; -1.7036510E-01;6790;  2.9423800E-01;  0.0000000E+00; -3.9031647E-02;  1.0030007E+03;  1.1681121E-01;  2.4859766E+03;3; -2.9825598E+01;  0.0000000E+00;  3.4774873E+00;0;  8.2241219E-01;  2.9572686E+04;  0.0000000E+00;  3.8162547E-01;  4.0000000E+04;  0.0000000E+00;  3.9868508E+04;  5.9613127E-01;  0.0000000E+00;  2.2628091E-01;  3.4648040E+03;
  7.1964782E-01;  9.9999998E-03; -1.6035706E-01;6791;  2.9668733E-01;  0.0000000E+00; -3.6606241E-02;  1.0026313E+03;  1.1679719E-01;  2.1799207E+03;3; -3.0955608E+01;  0.0000000E+00;  3.8560784E+00;0;  7.3282051E-01;  2.9554463E+04;  0.0000000E+00;  3.2649040E-01;  4.0000000E+04;  0.0000000E+00;  3.9871328E+04;  4.9856523E-01;  0.0000000E+00;  2.3425528E-01;  3.0758027E+03;
  7.1963841E-01;  9.9999998E-03; -1.5035142E-01;6792;  2.9874012E-01;  0.0000000E+00; -3.4267958E-02;  1.0022197E+03;  1.1678608E-01;  1.8389037E+03;3; -3.1875214E+01;  0.0000000E+00;  4.2279015E+00;0;  6.4845246E-01;  2.9532373E+04;  0.0000000E+00;  2.8235111E-01;  4.0000000E+04;  0.0000000E+00;  3.9874047E+04;  4.0901113E-01;  0.0000000E+00;  2.3944132E-01;  2.6997747E+03;
  7.1964812E-01;  9.9999998E-03; -1.4034373E-01;6793;  3.0031258E-01;  0.0000000E+00; -3.1996217E-02;  1.0017726E+03;  1.1677788E-01;  1.4685553E+03;3; -3.2767719E+01;  0.0000000E+00;  4.5086384E+00;0;  5.6993115E-01;  2.9506975E+04;  0.0000000E+00;  2.4968855E-01;  4.0000000E+04;  0.0000000E+00;  3.9876844E+04;  3.2786167E-01;  0.0000000E+00;  2.4206951E-01;  2.3161008E+03;
  7.1967220E-01;  9.9999998E-03; -1.3033180E-01;6794;  3.0132574E-01;  0.0000000E+00; -2.9723287E-02;  1.0013042E+03;  1.1677203E-01;  1.0804301E+03;3; -3.3390244E+01;  0.0000000E+00;  4.6259704E+00;0;  4.9771497E-01;  2.9479109E+04;  0.0000000E+00;  2.2668587E-01;  4.0000000E+04;  0.0000000E+00;  3.9879797E+04;  2.5518349E-01;  0.0000000E+00;  2.4253148E-01;  1.9124430E+03;
  7.1970373E-01;  9.9999998E-03; -1.2031583E-01;6795;  3.0173719E-01;  0.0000000E+00; -2.7388915E-02;  1.0008279E+03;  1.1676820E-01;  6.8588538E+02;3; -3.4054672E+01;  0.0000000E+00;  4.1413755E+00;0;  4.3208486E-01;  2.9450051E+04;  0.0000000E+00;  2.1015982E-01;  4.0000000E+04;  0.0000000E+00;  3.9882891E+04;  1.9083159E-01;  0.0000000E+00;  2.4125327E-01;  1.4866458E+03;
  7.1973622E-01;  9.9999998E-03; -1.1029651E-01;6796;  3.0166274E-01;  0.0000000E+00; -2.4946023E-02;  1.0003568E+03;  1.1676489E-01;  2.9558746E+02;3; -3.5010811E+01;  0.0000000E+00;  3.1957183E+00;0;  3.7310714E-01;  2.9420928E+04;  0.0000000E+00;  1.9642462E-01;  4.0000000E+04;  0.0000000E+00;  3.9886246E+04;  1.3453977E-01;  0.0000000E+00;  2.3856735E-01;  1.0471256E+03;
  7.3251551E-01;  9.9999998E-03; -2.7052554E-01;6841;  2.5239104E-01;  0.0000000E+00; -6.1932988E-02;  1.0066307E+03;  1.1898889E-01;  5.4931704E+03;3; -1.7267469E+01;  0.0000000E+00;  1.9710247E+01;0;  2.3818004E+00;  2.8777707E+04;  0.0000000E+00; -6.7332196E-01;  4.0000000E+04;  0.0000000E+00;  3.9793539E+04;  2.2692504E+00;  0.0000000E+00;  1.1255001E-01;  1.1687186E+04;
  7.3256582E-01;  9.9999998E-03; -2.6050869E-01;6842;  2.5845885E-01;  0.0000000E+00; -6.3419811E-02;  1.0067065E+03;  1.1899035E-01;  5.5559810E+03;3; -1.9721527E+01;  0.0000000E+00;  1.8917198E+01;0;  2.3004065E+00;  2.8774670E+04;  0.0000000E+00; -3.3093974E-01;  4.0000000E+04;  0.0000000E+00;  3.9803195E+04;  2.1730330E+00;  0.0000000E+00;  1.2737344E-01;  1.0435485E+04;
  7.3258549E-01;  9.9999998E-03; -2.5049534E-01;6843;  2.6428398E-01;  0.0000000E+00; -6.3842133E-02;  1.0066994E+03;  1.1898873E-01;  5.5501543E+03;3; -2.1636875E+01;  0.0000000E+00;  1.7671017E+01;0;  2.2005122E+00;  2.8770539E+04;  0.0000000E+00;  2.6854707E-03;  4.0000000E+04;  0.0000000E+00;  3.9810609E+04;  2.0647569E+00;  0.0000000E+00;  1.3575535E-01;  9.4801768E+03;
  7.3259145E-01;  9.9999998E-03; -2.4049081E-01;6844;  2.6953858E-01;  0.0000000E+00; -6.3158244E-02;  1.0066052E+03;  1.1898577E-01;  5.4721348E+03;3; -2.2491505E+01;  0.0000000E+00;  1.4733768E+01;0;  2.0893583E+00;  2.8764525E+04;  0.0000000E+00;  2.5422356E-01;  4.0000000E+04;  0.0000000E+00;  3.9814516E+04;  1.9455557E+00;  0.0000000E+00;  1.4380263E-01;  8.9706699E+03;
  7.3258340E-01;  9.9999998E-03; -2.3049995E-01;6845;  2.7398303E-01;  0.0000000E+00; -6.1191130E-02;  1.0064451E+03;  1.1897890E-01;  5.3395015E+03;3; -2.2571537E+01;  0.0000000E+00;  9.0740347E+00;0;  1.9706886E+00;  2.8757361E+04;  0.0000000E+00;  4.0860346E-01;  4.0000000E+04;  0.0000000E+00;  3.9816551E+04;  1.8163779E+00;  0.0000000E+00;  1.5431076E-01;  8.7134688E+03;
  7.3254246E-01;  9.9999998E-03; -2.2051138E-01;6846;  2.7797055E-01;  0.0000000E+00; -5.8249455E-02;  1.0062723E+03;  1.1896646E-01;  5.1963008E+03;3; -2.3384808E+01;  0.0000000E+00;  4.1140103E+00;0;  1.8472701E+00;  2.8749840E+04;  0.0000000E+00;  4.8504129E-01;  4.0000000E+04;  0.0000000E+00;  3.9820859E+04;  1.6779059E+00;  0.0000000E+00;  1.6936418E-01;  8.1706025E+03;
  7.3247313E-01;  9.9999998E-03; -2.1051443E-01;6847;  2.8162122E-01;  0.0000000E+00; -5.5084568E-02;  1.0060843E+03;  1.1895052E-01;  5.0405581E+03;3; -2.4401566E+01;  0.0000000E+00;  2.5696034E+00;0;  1.7210629E+00;  2.8741732E+04;  0.0000000E+00;  5.0836444E-01;  4.0000000E+04;  0.0000000E+00;  3.9827090E+04;  1.5327069E+00;  0.0000000E+00;  1.8835598E-01;  7.3837637E+03;
  7.3237079E-01;  9.9999998E-03; -2.0050298E-01;6848;  2.8498739E-01;  0.0000000E+00; -5.1821373E-02;  1.0058577E+03;  1.1892912E-01;  4.8528179E+03;3; -2.5710485E+01;  0.0000000E+00;  2.3219762E+00;0;  1.5917740E+00;  2.8733615E+04;  0.0000000E+00;  4.9832568E-01;  4.0000000E+04;  0.0000000E+00;  3.9833438E+04;  1.3835331E+00;  0.0000000E+00;  2.0824084E-01;  6.5787432E+03;
  7.3223525E-01;  9.9999998E-03; -1.9047832E-01;6849;  2.8815255E-01;  0.0000000E+00; -4.8474584E-02;  1.0055783E+03;  1.1890306E-01;  4.6213271E+03;3; -2.7093830E+01;  0.0000000E+00;  2.6339250E+00;0;  1.4607458E+00;  2.8725576E+04;  0.0000000E+00;  4.6844804E-01;  4.0000000E+04;  0.0000000E+00;  3.9838648E+04;  1.2338133E+00;  0.0000000E+00;  2.2693250E-01;  5.9137256E+03;
  7.3210019E-01;  9.9999998E-03; -1.8045339E-01;6850;  2.9108006E-01;  0.0000000E+00; -4.5181312E-02;  1.0052513E+03;  1.1887681E-01;  4.3504316E+03;3; -2.8294357E+01;  0.0000000E+00;  3.1575730E+00;0;  1.3315610E+00;  2.8716064E+04;  0.0000000E+00;  4.2829400E-01;  4.0000000E+04;  0.0000000E+00;  3.9842578E+04;  1.0883563E+00;  0.0000000E+00;  2.4320476E-01;  5.4158550E+03;
  7.3198718E-01;  9.9999998E-03; -1.7042847E-01;6851;  2.9369506E-01;  0.0000000E+00; -4.2048272E-02;  1.0048904E+03;  1.1885265E-01;  4.0513894E+03;3; -2.9456669E+01;  0.0000000E+00;  3.7721217E+00;0;  1.2070193E+00;  2.8703850E+04;  0.0000000E+00;  3.8526741E-01;  4.0000000E+04;  0.0000000E+00;  3.9845602E+04;  9.5069414E-01;  0.0000000E+00;  2.5632524E-01;  5.0025659E+03;
  7.3191053E-01;  9.9999998E-03; -1.6040370E-01;6852;  2.9594898E-01;  0.0000000E+00; -3.9091937E-02;  1.0045037E+03;  1.1883248E-01;  3.7311145E+03;3; -3.0588661E+01;  0.0000000E+00;  4.3533883E+00;0;  1.0892602E+00;  2.8688312E+04;  0.0000000E+00;  3.4582949E-01;  4.0000000E+04;  0.0000000E+00;  3.9848551E+04;  8.2333428E-01;  0.0000000E+00;  2.6592591E-01;  4.6150820E+03;
  7.3187083E-01;  9.9999998E-03; -1.5038002E-01;6853;  2.9778746E-01;  0.0000000E+00; -3.6313046E-02;  1.0041003E+03;  1.1881658E-01;  3.3969141E+03;3; -3.1659510E+01;  0.0000000E+00;  4.8602381E+00;0;  9.7945964E-01;  2.8669781E+04;  0.0000000E+00;  3.1499076E-01;  4.0000000E+04;  0.0000000E+00;  3.9851484E+04;  7.0753759E-01;  0.0000000E+00;  2.7192202E-01;  4.2142100E+03;
  7.3186243E-01;  9.9999998E-03; -1.4035553E-01;6854;  2.9916656E-01;  0.0000000E+00; -3.3633858E-02;  1.0036921E+03;  1.1880500E-01;  3.0587634E+03;3; -3.2647316E+01;  0.0000000E+00;  5.2098522E+00;0;  8.7819970E-01;  2.8648818E+04;  0.0000000E+00;  2.9472849E-01;  4.0000000E+04;  0.0000000E+00;  3.9854734E+04;  6.0370755E-01;  0.0000000E+00;  2.7449217E-01;  3.7796240E+03;
  7.3187703E-01;  9.9999998E-03; -1.3032968E-01;6855;  3.0002588E-01;  0.0000000E+00; -3.0935550E-02;  1.0032866E+03;  1.1879596E-01;  2.7227854E+03;3; -3.3356010E+01;  0.0000000E+00;  5.2858391E+00;0;  7.8580123E-01;  2.8626570E+04;  0.0000000E+00;  2.8305367E-01;  4.0000000E+04;  0.0000000E+00;  3.9858367E+04;  5.1176977E-01;  0.0000000E+00;  2.7403146E-01;  3.3082288E+03;
  7.3190540E-01;  9.9999998E-03; -1.2030232E-01;6856;  3.0025592E-01;  0.0000000E+00; -2.8108966E-02;  1.0028970E+03;  1.1878884E-01;  2.4000410E+03;3; -3.3720634E+01;  0.0000000E+00;  4.9645629E+00;0;  7.0236182E-01;  2.8604229E+04;  0.0000000E+00;  2.7536681E-01;  4.0000000E+04;  0.0000000E+00;  3.9862164E+04;  4.3135980E-01;  0.0000000E+00;  2.7100199E-01;  2.8090400E+03;
  7.3193979E-01;  9.9999998E-03; -1.1027464E-01;6857;  2.9991591E-01;  0.0000000E+00; -2.5184175E-02;  1.0025324E+03;  1.1878339E-01;  2.0979373E+03;3; -3.4439602E+01;  0.0000000E+00;  4.3027515E+00;0;  6.2774515E-01;  2.8582648E+04;  0.0000000E+00;  2.6654553E-01;  4.0000000E+04;  0.0000000E+00;  3.9866090E+04;  3.6195961E-01;  0.0000000E+00;  2.6578552E-01;  2.2987593E+03;
  7.4461973E-01;  9.9999998E-03; -2.7060452E-01;6902;  2.5562605E-01;  0.0000000E+00; -6.8225540E-02;  1.0072662E+03;  1.2052036E-01;  6.0196094E+03;3; -1.6012636E+01;  0.0000000E+00;  2.6462751E+01;0;  3.1421251E+00;  2.8108844E+04;  0.0000000E+00;  2.4478670E-02;  4.0000000E+04;  0.0000000E+00;  3.9767035E+04;  2.9984469E+00;  0.0000000E+00;  1.4367822E-01;  1.3907202E+04;
  7.4465239E-01;  9.9999998E-03; -2.6057747E-01;6903;  2.6258987E-01;  0.0000000E+00; -7.2778106E-02;  1.0074634E+03;  1.2051671E-01;  6.1830542E+03;3; -1.9560598E+01;  0.0000000E+00;  2.5016968E+01;0;  3.0512850E+00;  2.8108605E+04;  0.0000000E+00; -2.1055201E-01;  4.0000000E+04;  0.0000000E+00;  3.9785836E+04;  2.8756955E+00;  0.0000000E+00;  1.7558967E-01;  1.1542327E+04;
  7.4466693E-01;  9.9999998E-03; -2.5055489E-01;6904;  2.6918790E-01;  0.0000000E+00; -7.4382074E-02;  1.0075117E+03;  1.2051373E-01;  6.2230513E+03;3; -2.1466957E+01;  0.0000000E+00;  2.3278374E+01;0;  2.9174275E+00;  2.8105766E+04;  0.0000000E+00; -1.8654567E-01;  4.0000000E+04;  0.0000000E+00;  3.9797785E+04;  2.7403281E+00;  0.0000000E+00;  1.7709938E-01;  1.0042428E+04;
  7.4466085E-01;  9.9999998E-03; -2.4053191E-01;6905;  2.7488759E-01;  0.0000000E+00; -7.4577697E-02;  1.0074659E+03;  1.2050872E-01;  6.1850293E+03;3; -2.1780743E+01;  0.0000000E+00;  2.0159752E+01;0;  2.7696273E+00;  2.8100615E+04;  0.0000000E+00; -5.0688017E-02;  4.0000000E+04;  0.0000000E+00;  3.9806840E+04;  2.5925167E+00;  0.0000000E+00;  1.7711078E-01;  8.9036299E+03;
  7.4465621E-01;  9.9999998E-03; -2.3051719E-01;6906;  2.7866033E-01;  0.0000000E+00; -7.2588950E-02;  1.0073082E+03;  1.2050363E-01;  6.0544712E+03;3; -2.0345270E+01;  0.0000000E+00;  1.4185492E+01;0;  2.6136980E+00;  2.8092500E+04;  0.0000000E+00;  9.6505828E-02;  4.0000000E+04;  0.0000000E+00;  3.9811070E+04;  2.4347734E+00;  0.0000000E+00;  1.7892465E-01;  8.3645107E+03;
  7.4463886E-01;  9.9999998E-03; -2.2050771E-01;6907;  2.8132316E-01;  0.0000000E+00; -6.8402767E-02;  1.0070875E+03;  1.2049677E-01;  5.8715708E+03;3; -2.0538336E+01;  0.0000000E+00;  5.1618352E+00;0;  2.4548309E+00;  2.8082268E+04;  0.0000000E+00;  2.1037297E-01;  4.0000000E+04;  0.0000000E+00;  3.9813758E+04;  2.2679608E+00;  0.0000000E+00;  1.8687013E-01;  8.0118955E+03;
  7.4458998E-01;  9.9999998E-03; -2.1049914E-01;6908;  2.8401124E-01;  0.0000000E+00; -6.2718913E-02;  1.0068203E+03;  1.2048665E-01;  5.6501548E+03;3; -2.2300573E+01;  0.0000000E+00;  5.4893017E-01;0;  2.2957063E+00;  2.8070549E+04;  0.0000000E+00;  2.8263539E-01;  4.0000000E+04;  0.0000000E+00;  3.9816297E+04;  2.0935216E+00;  0.0000000E+00;  2.0218478E-01;  7.6747827E+03;
  7.4452084E-01;  9.9999998E-03; -2.0049167E-01;6909;  2.8679597E-01;  0.0000000E+00; -5.7175197E-02;  1.0065154E+03;  1.2047526E-01;  5.3976304E+03;3; -2.4183754E+01;  0.0000000E+00;  6.1563629E-01;0;  2.1380444E+00;  2.8057666E+04;  0.0000000E+00;  3.1825292E-01;  4.0000000E+04;  0.0000000E+00;  3.9818684E+04;  1.9153632E+00;  0.0000000E+00;  2.2268105E-01;  7.3581494E+03;
  7.4441749E-01;  9.9999998E-03; -1.9047670E-01;6910;  2.8953466E-01;  0.0000000E+00; -5.2254118E-02;  1.0061800E+03;  1.2045950E-01;  5.1198242E+03;3; -2.5858503E+01;  0.0000000E+00;  1.9383938E+00;0;  1.9805155E+00;  2.8044695E+04;  0.0000000E+00;  3.2611844E-01;  4.0000000E+04;  0.0000000E+00;  3.9821086E+04;  1.7364866E+00;  0.0000000E+00;  2.4402893E-01;  7.0251948E+03;
  7.4429029E-01;  9.9999998E-03; -1.8045291E-01;6911;  2.9206777E-01;  0.0000000E+00; -4.7992487E-02;  1.0058215E+03;  1.2044033E-01;  4.8227603E+03;3; -2.7308037E+01;  0.0000000E+00;  3.2807827E+00;0;  1.8247008E+00;  2.8031967E+04;  0.0000000E+00;  3.1602564E-01;  4.0000000E+04;  0.0000000E+00;  3.9823484E+04;  1.5612932E+00;  0.0000000E+00;  2.6340756E-01;  6.7048306E+03;
  7.4417722E-01;  9.9999998E-03; -1.7042908E-01;6912;  2.9427484E-01;  0.0000000E+00; -4.4289432E-02;  1.0054548E+03;  1.2042130E-01;  4.5189795E+03;3; -2.8624554E+01;  0.0000000E+00;  4.4212160E+00;0;  1.6744640E+00;  2.8018430E+04;  0.0000000E+00;  2.9715583E-01;  4.0000000E+04;  0.0000000E+00;  3.9825812E+04;  1.3951106E+00;  0.0000000E+00;  2.7935344E-01;  6.3915161E+03;
  7.4407911E-01;  9.9999998E-03; -1.6040233E-01;6913;  2.9611254E-01;  0.0000000E+00; -4.1000415E-02;  1.0050829E+03;  1.2040266E-01;  4.2109531E+03;3; -2.9871515E+01;  0.0000000E+00;  5.3467083E+00;0;  1.5318382E+00;  2.8004170E+04;  0.0000000E+00;  2.7798718E-01;  4.0000000E+04;  0.0000000E+00;  3.9828406E+04;  1.2406660E+00;  0.0000000E+00;  2.9117215E-01;  6.0429868E+03;
  7.4400049E-01;  9.9999998E-03; -1.5037128E-01;6914;  2.9754058E-01;  0.0000000E+00; -3.7920102E-02;  1.0047224E+03;  1.2038495E-01;  3.9122097E+03;3; -3.1005091E+01;  0.0000000E+00;  5.8702431E+00;0;  1.3985705E+00;  2.7989516E+04;  0.0000000E+00;  2.6472670E-01;  4.0000000E+04;  0.0000000E+00;  3.9831473E+04;  1.0999492E+00;  0.0000000E+00;  2.9862127E-01;  5.6366367E+03;
  7.4394780E-01;  9.9999998E-03; -1.4033486E-01;6915;  2.9852772E-01;  0.0000000E+00; -3.4755766E-02;  1.0043844E+03;  1.2036936E-01;  3.6322300E+03;3; -3.2074821E+01;  0.0000000E+00;  6.0114722E+00;0;  1.2759078E+00;  2.7974820E+04;  0.0000000E+00;  2.5965819E-01;  4.0000000E+04;  0.0000000E+00;  3.9835082E+04;  9.7411209E-01;  0.0000000E+00;  3.0179566E-01;  5.1681416E+03;
  7.4392337E-01;  9.9999998E-03; -1.3029395E-01;6916;  2.9905999E-01;  0.0000000E+00; -3.1389240E-02;  1.0040789E+03;  1.2035541E-01;  3.3791125E+03;3; -3.2986084E+01;  0.0000000E+00;  5.9216132E+00;0;  1.1645139E+00;  2.7960648E+04;  0.0000000E+00;  2.6054937E-01;  4.0000000E+04;  0.0000000E+00;  3.9839105E+04;  8.6345536E-01;  0.0000000E+00;  3.0105859E-01;  4.6509521E+03;
  7.4392396E-01;  9.9999998E-03; -1.2025253E-01;6917;  2.9905242E-01;  0.0000000E+00; -2.8002452E-02;  1.0038190E+03;  1.2034388E-01;  3.1638196E+03;3; -3.3648880E+01;  0.0000000E+00;  5.5844946E+00;0;  1.0645981E+00;  2.7947695E+04;  0.0000000E+00;  2.6219893E-01;  4.0000000E+04;  0.0000000E+00;  3.9843469E+04;  7.6771486E-01;  0.0000000E+00;  2.9688317E-01;  4.1090674E+03;
  7.4394572E-01;  9.9999998E-03; -1.1021411E-01;6918;  2.9847318E-01;  0.0000000E+00; -2.4660343E-02;  1.0036095E+03;  1.2033469E-01;  2.9903013E+03;3; -3.4074703E+01;  0.0000000E+00;  4.9271054E+00;0;  9.7595477E-01;  2.7936523E+04;  0.0000000E+00;  2.5914866E-01;  4.0000000E+04;  0.0000000E+00;  3.9847648E+04;  6.8626910E-01;  0.0000000E+00;  2.8968567E-01;  3.5721077E+03;
  7.5697368E-01;  9.9999998E-03; -2.7067581E-01;6963;  2.8290203E-01;  0.0000000E+00; -7.2173744E-02;  1.0066329E+03;  1.2159156E-01;  5.4949561E+03;3;  4.3197422E+00;  0.0000000E+00;  3.6259853E+01;0;  3.9180183E+00;  2.7594492E+04;  0.0000000E+00;  7.5261223E-01;  4.0000000E+04;  0.0000000E+00;  3.9746926E+04;  3.7555192E+00;  0.0000000E+00;  1.6249914E-01;  1.5740058E+04;
  7.5706869E-01;  9.9999998E-03; -2.6064023E-01;6964;  2.9298133E-01;  0.0000000E+00; -8.2908168E-02;  1.0069620E+03;  1.2159091E-01;  5.7675259E+03;3;  4.1840658E+00;  0.0000000E+00;  3.2647385E+01;0;  3.8538980E+00;  2.7594998E+04;  0.0000000E+00;  6.0456701E-02;  4.0000000E+04;  0.0000000E+00;  3.9773812E+04;  3.6139693E+00;  0.0000000E+00;  2.3992881E-01;  1.2218546E+04;
  7.5718379E-01;  9.9999998E-03; -2.5060105E-01;6965;  2.9963851E-01;  0.0000000E+00; -8.6892724E-02;  1.0071522E+03;  1.2159288E-01;  5.9251421E+03;3;  2.9650879E+00;  0.0000000E+00;  2.9639862E+01;0;  3.6968973E+00;  2.7591875E+04;  0.0000000E+00; -2.2238410E-01;  4.0000000E+04;  0.0000000E+00;  3.9794465E+04;  3.4620721E+00;  0.0000000E+00;  2.3482524E-01;  9.6241426E+03;
  7.5722641E-01;  9.9999998E-03; -2.4056058E-01;6966;  3.0193821E-01;  0.0000000E+00; -8.7683432E-02;  1.0071620E+03;  1.2159247E-01;  5.9332393E+03;3;  1.3061376E+00;  0.0000000E+00;  2.6348522E+01;0;  3.5121846E+00;  2.7586420E+04;  0.0000000E+00; -2.2997692E-01;  4.0000000E+04;  0.0000000E+00;  3.9806801E+04;  3.2952931E+00;  0.0000000E+00;  2.1689151E-01;  8.0854321E+03;
  7.5719905E-01;  9.9999998E-03; -2.3052053E-01;6967;  2.9902673E-01;  0.0000000E+00; -8.5699737E-02;  1.0070176E+03;  1.2158767E-01;  5.8136450E+03;3; -3.8249668E-01;  0.0000000E+00;  1.9983580E+01;0;  3.3193979E+00;  2.7578764E+04;  0.0000000E+00; -1.3680585E-01;  4.0000000E+04;  0.0000000E+00;  3.9812395E+04;  3.1153224E+00;  0.0000000E+00;  2.0407546E-01;  7.3779292E+03;
  7.5712180E-01;  9.9999998E-03; -2.2048499E-01;6968;  2.9736599E-01;  0.0000000E+00; -7.9257436E-02;  1.0067568E+03;  1.2158020E-01;  5.5975640E+03;3; -4.1709299E+00;  0.0000000E+00;  7.2384386E+00;0;  3.1223979E+00;  2.7569025E+04;  0.0000000E+00; -3.3603746E-02;  4.0000000E+04;  0.0000000E+00;  3.9813289E+04;  2.9236267E+00;  0.0000000E+00;  1.9877119E-01;  7.2497603E+03;
  7.5701082E-01;  9.9999998E-03; -2.1045363E-01;6969;  2.9725638E-01;  0.0000000E+00; -6.9386579E-02;  1.0064209E+03;  1.2157014E-01;  5.3192661E+03;3; -8.1857948E+00;  0.0000000E+00; -6.5896183E-01;0;  2.9303272E+00;  2.7557342E+04;  0.0000000E+00;  4.7744777E-02;  4.0000000E+04;  0.0000000E+00;  3.9812246E+04;  2.7237592E+00;  0.0000000E+00;  2.0656805E-01;  7.3614058E+03;
  7.5687832E-01;  9.9999998E-03; -2.0042934E-01;6970;  2.9735047E-01;  0.0000000E+00; -6.0465548E-02;  1.0060396E+03;  1.2155908E-01;  5.0034409E+03;3; -1.2582879E+01;  0.0000000E+00; -1.1086792E-01;0;  2.7468390E+00;  2.7544037E+04;  0.0000000E+00;  1.0129241E-01;  4.0000000E+04;  0.0000000E+00;  3.9810594E+04;  2.5202043E+00;  0.0000000E+00;  2.2663479E-01;  7.5346367E+03;
  7.5672716E-01;  9.9999998E-03; -1.9041058E-01;6971;  2.9741547E-01;  0.0000000E+00; -5.3809930E-02;  1.0056395E+03;  1.2154676E-01;  4.6720122E+03;3; -1.7308783E+01;  0.0000000E+00;  2.6050260E+00;0;  2.5678346E+00;  2.7529586E+04;  0.0000000E+00;  1.3044399E-01;  4.0000000E+04;  0.0000000E+00;  3.9809516E+04;  2.3170667E+00;  0.0000000E+00;  2.5076792E-01;  7.6344883E+03;
  7.5656998E-01;  9.9999998E-03; -1.8039112E-01;6972;  2.9758283E-01;  0.0000000E+00; -4.8911110E-02;  1.0052386E+03;  1.2153386E-01;  4.3398916E+03;3; -2.1515484E+01;  0.0000000E+00;  4.8006067E+00;0;  2.3925948E+00;  2.7514590E+04;  0.0000000E+00;  1.4228021E-01;  4.0000000E+04;  0.0000000E+00;  3.9809520E+04;  2.1190064E+00;  0.0000000E+00;  2.7358830E-01;  7.6084424E+03;
  7.5642097E-01;  9.9999998E-03; -1.7037176E-01;6973;  2.9789832E-01;  0.0000000E+00; -4.5100335E-02;  1.0048496E+03;  1.2152038E-01;  4.0175481E+03;3; -2.4790699E+01;  0.0000000E+00;  6.3287220E+00;0;  2.2234044E+00;  2.7499389E+04;  0.0000000E+00;  1.4484839E-01;  4.0000000E+04;  0.0000000E+00;  3.9810484E+04;  1.9306298E+00;  0.0000000E+00;  2.9277456E-01;  7.4626685E+03;
  7.5629163E-01;  9.9999998E-03; -1.6034934E-01;6974;  2.9830119E-01;  0.0000000E+00; -4.1745745E-02;  1.0044942E+03;  1.2150733E-01;  3.7231526E+03;3; -2.7307730E+01;  0.0000000E+00;  7.3036318E+00;0;  2.0630696E+00;  2.7484795E+04;  0.0000000E+00;  1.4554691E-01;  4.0000000E+04;  0.0000000E+00;  3.9812328E+04;  1.7556636E+00;  0.0000000E+00;  3.0740598E-01;  7.2013667E+03;
  7.5621545E-01;  9.9999998E-03; -1.5031990E-01;6975;  2.9868504E-01;  0.0000000E+00; -3.8345177E-02;  1.0041891E+03;  1.2149567E-01;  3.4704331E+03;3; -2.9307875E+01;  0.0000000E+00;  7.7700729E+00;0;  1.9149578E+00;  2.7471523E+04;  0.0000000E+00;  1.4930396E-01;  4.0000000E+04;  0.0000000E+00;  3.9815078E+04;  1.5978183E+00;  0.0000000E+00;  3.1713948E-01;  6.8362954E+03;
  7.5618422E-01;  9.9999998E-03; -1.4028661E-01;6976;  2.9888383E-01;  0.0000000E+00; -3.4624927E-02;  1.0039469E+03;  1.2148543E-01;  3.2697581E+03;3; -3.0723513E+01;  0.0000000E+00;  7.7362533E+00;0;  1.7798073E+00;  2.7460436E+04;  0.0000000E+00;  1.5753068E-01;  4.0000000E+04;  0.0000000E+00;  3.9818629E+04;  1.4579031E+00;  0.0000000E+00;  3.2190415E-01;  6.3856948E+03;
  7.5616962E-01;  9.9999998E-03; -1.3025251E-01;6977;  2.9878202E-01;  0.0000000E+00; -3.0684115E-02;  1.0037767E+03;  1.2147547E-01;  3.1287324E+03;3; -3.1924339E+01;  0.0000000E+00;  7.3983312E+00;0;  1.6569314E+00;  2.7452338E+04;  0.0000000E+00;  1.6782387E-01;  4.0000000E+04;  0.0000000E+00;  3.9822559E+04;  1.3350306E+00;  0.0000000E+00;  3.2190084E-01;  5.8802065E+03;
  7.5617188E-01;  9.9999998E-03; -1.2022059E-01;6978;  2.9826635E-01;  0.0000000E+00; -2.6826050E-02;  1.0036764E+03;  1.2146559E-01;  3.0456775E+03;3; -3.2860218E+01;  0.0000000E+00;  6.7771692E+00;0;  1.5466224E+00;  2.7447727E+04;  0.0000000E+00;  1.7539136E-01;  4.0000000E+04;  0.0000000E+00;  3.9826785E+04;  1.2290825E+00;  0.0000000E+00;  3.1753990E-01;  5.3599238E+03;
  7.5618994E-01;  9.9999998E-03; -1.1019226E-01;6979;  2.9731452E-01;  0.0000000E+00; -2.3059152E-02;  1.0036526E+03;  1.2145662E-01;  3.0260249E+03;3; -3.3611111E+01;  0.0000000E+00;  6.0679965E+00;0;  1.4486730E+00;  2.7446928E+04;  0.0000000E+00;  1.7579059E-01;  4.0000000E+04;  0.0000000E+00;  3.9830723E+04;  1.1394532E+00;  0.0000000E+00;  3.0921978E-01;  4.8684316E+03;
  7.6924610E-01;  9.9999998E-03; -2.7073333E-01;7024;  3.6598665E-01;  0.0000000E+00; -6.9505267E-02;  1.0054233E+03;  1.2226400E-01;  4.4928164E+03;3;  5.0395317E+01;  0.0000000E+00;  4.2365189E+01;0;  4.5495787E+00;  2.7226914E+04;  0.0000000E+00;  7.7052504E-01;  4.0000000E+04;  0.0000000E+00;  3.9738762E+04;  4.4275832E+00;  0.0000000E+00;  1.2199525E-01;  1.6180246E+04;
  7.6932359E-01;  9.9999998E-03; -2.6069653E-01;7025;  3.7119818E-01;  0.0000000E+00; -8.4825046E-02;  1.0057927E+03;  1.2226273E-01;  4.7987627E+03;3;  4.8353394E+01;  0.0000000E+00;  4.2167454E+01;0;  4.5187016E+00;  2.7228896E+04;  0.0000000E+00;  6.3652195E-02;  4.0000000E+04;  0.0000000E+00;  3.9767805E+04;  4.2743368E+00;  0.0000000E+00;  2.4436480E-01;  1.2375991E+04;
  7.6944315E-01;  9.9999998E-03; -2.5064164E-01;7026;  3.7266639E-01;  0.0000000E+00; -9.2375204E-02;  1.0061126E+03;  1.2226413E-01;  5.0638242E+03;3;  4.5884148E+01;  0.0000000E+00;  3.6744129E+01;0;  4.3667598E+00;  2.7227348E+04;  0.0000000E+00; -2.8767571E-01;  4.0000000E+04;  0.0000000E+00;  3.9797266E+04;  4.1125603E+00;  0.0000000E+00;  2.5419933E-01;  8.6697402E+03;
  7.6952058E-01;  9.9999998E-03; -2.4059236E-01;7027;  3.6817887E-01;  0.0000000E+00; -9.3740724E-02;  1.0061483E+03;  1.2226516E-01;  5.0933521E+03;3;  4.2513081E+01;  0.0000000E+00;  3.2697582E+01;0;  4.1663918E+00;  2.7222303E+04;  0.0000000E+00; -3.5837865E-01;  4.0000000E+04;  0.0000000E+00;  3.9810453E+04;  3.9399006E+00;  0.0000000E+00;  2.2649102E-01;  7.0463203E+03;
  7.6951361E-01;  9.9999998E-03; -2.3053715E-01;7028;  3.5889459E-01;  0.0000000E+00; -9.2253439E-02;  1.0060148E+03;  1.2226382E-01;  4.9828438E+03;3;  3.8216713E+01;  0.0000000E+00;  2.6533043E+01;0;  3.9611163E+00;  2.7214283E+04;  0.0000000E+00; -3.0464298E-01;  4.0000000E+04;  0.0000000E+00;  3.9816219E+04;  3.7547321E+00;  0.0000000E+00;  2.0638409E-01;  6.3153843E+03;
  7.6943755E-01;  9.9999998E-03; -2.2048774E-01;7029;  3.5123101E-01;  0.0000000E+00; -8.4534347E-02;  1.0057262E+03;  1.2226012E-01;  4.7437554E+03;3;  3.2707088E+01;  0.0000000E+00;  1.2440127E+01;0;  3.7506974E+00;  2.7203584E+04;  0.0000000E+00; -2.2653650E-01;  4.0000000E+04;  0.0000000E+00;  3.9815066E+04;  3.5574656E+00;  0.0000000E+00;  1.9323188E-01;  6.4453052E+03;
  7.6931405E-01;  9.9999998E-03; -2.1044458E-01;7030;  3.4369981E-01;  0.0000000E+00; -7.3072493E-02;  1.0053447E+03;  1.2225501E-01;  4.4276367E+03;3;  2.6274338E+01;  0.0000000E+00;  3.4489112E+00;0;  3.5501537E+00;  2.7190412E+04;  0.0000000E+00; -1.6021039E-01;  4.0000000E+04;  0.0000000E+00;  3.9811004E+04;  3.3521097E+00;  0.0000000E+00;  1.9804406E-01;  6.9208184E+03;
  7.6918674E-01;  9.9999998E-03; -2.0040981E-01;7031;  3.3596519E-01;  0.0000000E+00; -6.3021109E-02;  1.0049158E+03;  1.2224995E-01;  4.0724116E+03;3;  1.9364025E+01;  0.0000000E+00;  2.6667342E+00;0;  3.3630280E+00;  2.7175104E+04;  0.0000000E+00; -1.1176154E-01;  4.0000000E+04;  0.0000000E+00;  3.9806484E+04;  3.1441991E+00;  0.0000000E+00;  2.1882890E-01;  7.4488701E+03;
  7.6905751E-01;  9.9999998E-03; -1.9038467E-01;7032;  3.2808223E-01;  0.0000000E+00; -5.5551793E-02;  1.0044786E+03;  1.2224431E-01;  3.7102727E+03;3;  1.1833589E+01;  0.0000000E+00;  4.5960131E+00;0;  3.1830482E+00;  2.7158494E+04;  0.0000000E+00; -7.8221135E-02;  4.0000000E+04;  0.0000000E+00;  3.9802875E+04;  2.9376245E+00;  0.0000000E+00;  2.4542382E-01;  7.8613184E+03;
  7.6893365E-01;  9.9999998E-03; -1.8035859E-01;7033;  3.2033622E-01;  0.0000000E+00; -4.9974889E-02;  1.0040573E+03;  1.2223878E-01;  3.3611697E+03;3;  3.6336169E+00;  0.0000000E+00;  6.9100289E+00;0;  3.0080316E+00;  2.7141459E+04;  0.0000000E+00; -5.4787517E-02;  4.0000000E+04;  0.0000000E+00;  3.9800871E+04;  2.7365623E+00;  0.0000000E+00;  2.7146941E-01;  8.0716191E+03;
  7.6883405E-01;  9.9999998E-03; -1.7032842E-01;7034;  3.1317121E-01;  0.0000000E+00; -4.5706090E-02;  1.0036722E+03;  1.2223332E-01;  3.0421870E+03;3; -5.1966205E+00;  0.0000000E+00;  8.8820076E+00;0;  2.8399627E+00;  2.7125035E+04;  0.0000000E+00; -3.6479998E-02;  4.0000000E+04;  0.0000000E+00;  3.9800363E+04;  2.5458190E+00;  0.0000000E+00;  2.9414368E-01;  8.0984922E+03;
  7.6878184E-01;  9.9999998E-03; -1.6028753E-01;7035;  3.0731794E-01;  0.0000000E+00; -4.2168695E-02;  1.0033517E+03;  1.2222855E-01;  2.7766318E+03;3; -1.4462872E+01;  0.0000000E+00;  1.0405379E+01;0;  2.6819427E+00;  2.7110510E+04;  0.0000000E+00; -1.9401284E-02;  4.0000000E+04;  0.0000000E+00;  3.9801258E+04;  2.3697488E+00;  0.0000000E+00;  3.1219396E-01;  7.9662798E+03;
  7.6872468E-01;  9.9999998E-03; -1.5024455E-01;7036;  3.0344403E-01;  0.0000000E+00; -3.8430642E-02;  1.0031011E+03;  1.2222306E-01;  2.5690461E+03;3; -2.2206810E+01;  0.0000000E+00;  1.1241461E+01;0;  2.5331306E+00;  2.7098773E+04;  0.0000000E+00; -1.6037892E-03;  4.0000000E+04;  0.0000000E+00;  3.9803145E+04;  2.2081344E+00;  0.0000000E+00;  3.2499635E-01;  7.6993931E+03;
  7.6865441E-01;  9.9999998E-03; -1.4020164E-01;7037;  3.0119714E-01;  0.0000000E+00; -3.4115121E-02;  1.0029326E+03;  1.2221660E-01;  2.4295037E+03;3; -2.6893993E+01;  0.0000000E+00;  1.1341402E+01;0;  2.3943291E+00;  2.7090959E+04;  0.0000000E+00;  1.6632980E-02;  4.0000000E+04;  0.0000000E+00;  3.9805887E+04;  2.0620959E+00;  0.0000000E+00;  3.3223310E-01;  7.3345566E+03;
  7.6858121E-01;  9.9999998E-03; -1.3016261E-01;7038;  2.9969484E-01;  0.0000000E+00; -2.9582035E-02;  1.0028589E+03;  1.2220909E-01;  2.3684724E+03;3; -2.9661108E+01;  0.0000000E+00;  1.0903484E+01;0;  2.2668321E+00;  2.7087641E+04;  0.0000000E+00;  3.2734510E-02;  4.0000000E+04;  0.0000000E+00;  3.9809254E+04;  1.9328985E+00;  0.0000000E+00;  3.3393368E-01;  6.9221021E+03;
  7.6858568E-01;  9.9999998E-03; -1.2013051E-01;7039;  2.9830754E-01;  0.0000000E+00; -2.5069788E-02;  1.0029023E+03;  1.2220312E-01;  2.4043210E+03;3; -3.1228014E+01;  0.0000000E+00;  1.0203977E+01;0;  2.1552904E+00;  2.7089799E+04;  0.0000000E+00;  4.2811573E-02;  4.0000000E+04;  0.0000000E+00;  3.9812512E+04;  1.8248512E+00;  0.0000000E+00;  3.3043918E-01;  6.5207339E+03;
  7.6863295E-01;  9.9999998E-03; -1.1010662E-01;7040;  2.9677492E-01;  0.0000000E+00; -2.0814382E-02;  1.0030463E+03;  1.2219782E-01;  2.5236184E+03;3; -3.2395115E+01;  0.0000000E+00;  9.3254004E+00;0;  2.0577261E+00;  2.7097307E+04;  0.0000000E+00;  4.4552978E-02;  4.0000000E+04;  0.0000000E+00;  3.9815336E+04;  1.7356548E+00;  0.0000000E+00;  3.2207140E-01;  6.1835820E+03;
  7.8174931E-01;  9.9999998E-03; -2.7077720E-01;7085;  4.7695783E-01;  0.0000000E+00; -6.5610640E-02;  1.0041838E+03;  1.2267011E-01;  3.4659026E+03;3;  9.6720947E+01;  0.0000000E+00;  3.9715702E+01;0;  5.0452099E+00;  2.6969305E+04;  0.0000000E+00;  5.8522917E-02;  4.0000000E+04;  0.0000000E+00;  3.9743094E+04;  4.9571838E+00;  0.0000000E+00;  8.8026263E-02;  1.5038627E+04;
  7.8170371E-01;  9.9999998E-03; -2.6074412E-01;7086;  4.7169358E-01;  0.0000000E+00; -7.9205111E-02;  1.0045203E+03;  1.2266722E-01;  3.7446880E+03;3;  9.3278534E+01;  0.0000000E+00;  4.4522221E+01;0;  5.0004115E+00;  2.6971879E+04;  0.0000000E+00; -1.8040733E-01;  4.0000000E+04;  0.0000000E+00;  3.9770051E+04;  4.8052936E+00;  0.0000000E+00;  1.9511800E-01;  1.1647459E+04;
  7.8175563E-01;  9.9999998E-03; -2.5068787E-01;7087;  4.6545720E-01;  0.0000000E+00; -8.8660479E-02;  1.0048621E+03;  1.2266619E-01;  4.0278181E+03;3;  8.9365875E+01;  0.0000000E+00;  4.1399887E+01;0;  4.8695459E+00;  2.6971615E+04;  0.0000000E+00; -3.6168873E-01;  4.0000000E+04;  0.0000000E+00;  3.9800848E+04;  4.6471028E+00;  0.0000000E+00;  2.2244319E-01;  7.7970483E+03;
  7.8180635E-01;  9.9999998E-03; -2.4063832E-01;7088;  4.5559579E-01;  0.0000000E+00; -9.1085233E-02;  1.0049099E+03;  1.2266698E-01;  4.0674187E+03;3;  8.4457977E+01;  0.0000000E+00;  3.7441406E+01;0;  4.6815000E+00;  2.6967738E+04;  0.0000000E+00; -4.0900704E-01;  4.0000000E+04;  0.0000000E+00;  3.9813832E+04;  4.4815416E+00;  0.0000000E+00;  1.9995816E-01;  6.1917495E+03;
  7.8176910E-01;  9.9999998E-03; -2.3058681E-01;7089;  4.4103712E-01;  0.0000000E+00; -9.0863839E-02;  1.0047707E+03;  1.2266658E-01;  3.9520732E+03;3;  7.7925087E+01;  0.0000000E+00;  3.2793671E+01;0;  4.4895420E+00;  2.6960514E+04;  0.0000000E+00; -3.8346902E-01;  4.0000000E+04;  0.0000000E+00;  3.9818137E+04;  4.3062840E+00;  0.0000000E+00;  1.8325797E-01;  5.6656050E+03;
  7.8166878E-01;  9.9999998E-03; -2.2053772E-01;7090;  4.2447233E-01;  0.0000000E+00; -8.6129405E-02;  1.0044874E+03;  1.2266494E-01;  3.7174316E+03;3;  6.9932724E+01;  0.0000000E+00;  2.2510235E+01;0;  4.2975841E+00;  2.6950211E+04;  0.0000000E+00; -3.4689859E-01;  4.0000000E+04;  0.0000000E+00;  3.9816098E+04;  4.1225438E+00;  0.0000000E+00;  1.7504005E-01;  5.8921445E+03;
  7.8152728E-01;  9.9999998E-03; -2.1049617E-01;7091;  4.0736264E-01;  0.0000000E+00; -7.7880010E-02;  1.0041096E+03;  1.2266275E-01;  3.4043794E+03;3;  6.0907673E+01;  0.0000000E+00;  1.2825894E+01;0;  4.1141887E+00;  2.6937266E+04;  0.0000000E+00; -3.1559083E-01;  4.0000000E+04;  0.0000000E+00;  3.9811000E+04;  3.9325852E+00;  0.0000000E+00;  1.8160361E-01;  6.5011226E+03;
  7.8139150E-01;  9.9999998E-03; -2.0046100E-01;7092;  3.9015922E-01;  0.0000000E+00; -6.9585033E-02;  1.0036894E+03;  1.2266096E-01;  3.0563674E+03;3;  5.1528305E+01;  0.0000000E+00;  8.7004404E+00;0;  3.9430072E+00;  2.6922377E+04;  0.0000000E+00; -2.8940552E-01;  4.0000000E+04;  0.0000000E+00;  3.9805586E+04;  3.7409680E+00;  0.0000000E+00;  2.0203933E-01;  7.1507217E+03;
  7.8129172E-01;  9.9999998E-03; -1.9042794E-01;7093;  3.7343326E-01;  0.0000000E+00; -6.2087622E-02;  1.0032686E+03;  1.2265920E-01;  2.7077627E+03;3;  4.1726776E+01;  0.0000000E+00;  7.9713464E+00;0;  3.7810969E+00;  2.6906430E+04;  0.0000000E+00; -2.6467162E-01;  4.0000000E+04;  0.0000000E+00;  3.9801031E+04;  3.5522957E+00;  0.0000000E+00;  2.2880128E-01;  7.6784053E+03;
  7.8123218E-01;  9.9999998E-03; -1.8038718E-01;7094;  3.5751417E-01;  0.0000000E+00; -5.5390436E-02;  1.0028739E+03;  1.2265833E-01;  2.3807852E+03;3;  3.1440346E+01;  0.0000000E+00;  9.2931261E+00;0;  3.6269627E+00;  2.6890479E+04;  0.0000000E+00; -2.3900452E-01;  4.0000000E+04;  0.0000000E+00;  3.9797793E+04;  3.3704028E+00;  0.0000000E+00;  2.5655979E-01;  8.0322778E+03;
  7.8121614E-01;  9.9999998E-03; -1.7034341E-01;7095;  3.4266579E-01;  0.0000000E+00; -4.9517889E-02;  1.0025308E+03;  1.2265787E-01;  2.0965684E+03;3;  2.0623903E+01;  0.0000000E+00;  1.1319975E+01;0;  3.4814856E+00;  2.6875988E+04;  0.0000000E+00; -2.1149327E-01;  4.0000000E+04;  0.0000000E+00;  3.9795941E+04;  3.1993551E+00;  0.0000000E+00;  2.8213048E-01;  8.2264502E+03;
  7.8122371E-01;  9.9999998E-03; -1.6030213E-01;7096;  3.2913250E-01;  0.0000000E+00; -4.4549033E-02;  1.0022618E+03;  1.2265691E-01;  1.8737771E+03;3;  9.2755566E+00;  0.0000000E+00;  1.3257209E+01;0;  3.3451018E+00;  2.6864154E+04;  0.0000000E+00; -1.8275586E-01;  4.0000000E+04;  0.0000000E+00;  3.9795461E+04;  3.0414658E+00;  0.0000000E+00;  3.0363607E-01;  8.2625625E+03;
  7.8124130E-01;  9.9999998E-03; -1.5026198E-01;7097;  3.1744972E-01;  0.0000000E+00; -4.0199608E-02;  1.0020862E+03;  1.2265564E-01;  1.7282122E+03;3; -2.5514977E+00;  0.0000000E+00;  1.4808152E+01;0;  3.2181425E+00;  2.6856371E+04;  0.0000000E+00; -1.5461223E-01;  4.0000000E+04;  0.0000000E+00;  3.9796066E+04;  2.8981771E+00;  0.0000000E+00;  3.1996527E-01;  8.1647749E+03;
  7.8125608E-01;  9.9999998E-03; -1.4021927E-01;7098;  3.0857420E-01;  0.0000000E+00; -3.5272155E-02;  1.0020208E+03;  1.2265365E-01;  1.6740944E+03;3; -1.4486418E+01;  0.0000000E+00;  1.5879644E+01;0;  3.1002357E+00;  2.6853381E+04;  0.0000000E+00; -1.2959120E-01;  4.0000000E+04;  0.0000000E+00;  3.9797391E+04;  2.7697132E+00;  0.0000000E+00;  3.3052245E-01;  7.9832983E+03;
  7.8125733E-01;  9.9999998E-03; -1.3017789E-01;7099;  3.0303770E-01;  0.0000000E+00; -2.9619671E-02;  1.0020623E+03;  1.2265055E-01;  1.7084612E+03;3; -2.3252552E+01;  0.0000000E+00;  1.6214462E+01;0;  2.9908025E+00;  2.6856010E+04;  0.0000000E+00; -1.1009254E-01;  4.0000000E+04;  0.0000000E+00;  3.9799125E+04;  2.6557271E+00;  0.0000000E+00;  3.3507535E-01;  7.7771899E+03;
  7.8123111E-01;  9.9999998E-03; -1.2014254E-01;7100;  2.9965997E-01;  0.0000000E+00; -2.4029752E-02;  1.0022114E+03;  1.2264670E-01;  1.8319049E+03;3; -2.7813292E+01;  0.0000000E+00;  1.5864018E+01;0;  2.8892796E+00;  2.6864363E+04;  0.0000000E+00; -9.7419985E-02;  4.0000000E+04;  0.0000000E+00;  3.9800582E+04;  2.5556030E+00;  0.0000000E+00;  3.3367661E-01;  7.6065498E+03;
  7.8116828E-01;  9.9999998E-03; -1.1011492E-01;7101;  2.9710367E-01;  0.0000000E+00; -1.8875485E-02;  1.0024526E+03;  1.2264182E-01;  2.0317852E+03;3; -3.0243469E+01;  0.0000000E+00;  1.5048146E+01;0;  2.7951157E+00;  2.6878047E+04;  0.0000000E+00; -9.1236822E-02;  4.0000000E+04;  0.0000000E+00;  3.9801445E+04;  2.4686284E+00;  0.0000000E+00;  3.2648739E-01;  7.5289121E+03;
  7.9473901E-01;  9.9999998E-03; -2.7080536E-01;7146;  6.0392761E-01;  0.0000000E+00; -6.1819684E-02;  1.0029943E+03;  1.2290706E-01;  2.4804846E+03;3;  1.4135126E+02;  0.0000000E+00;  3.7196499E+01;0;  5.3715439E+00;  2.6782320E+04;  0.0000000E+00; -5.4153419E-01;  4.0000000E+04;  0.0000000E+00;  3.9761133E+04;  5.2891889E+00;  0.0000000E+00;  8.2355164E-02;  1.2428250E+04;
  7.9458433E-01;  9.9999998E-03; -2.6078129E-01;7147;  5.8476311E-01;  0.0000000E+00; -7.1351700E-02;  1.0032611E+03;  1.2290378E-01;  2.7014949E+03;3;  1.3531903E+02;  0.0000000E+00;  3.7129471E+01;0;  5.3046570E+00;  2.6785568E+04;  0.0000000E+00; -3.7689954E-01;  4.0000000E+04;  0.0000000E+00;  3.9781168E+04;  5.1621232E+00;  0.0000000E+00;  1.4253391E-01;  9.9247744E+03;
  7.9449886E-01;  9.9999998E-03; -2.5074419E-01;7148;  5.6780893E-01;  0.0000000E+00; -7.7439420E-02;  1.0034969E+03;  1.2290215E-01;  2.8968291E+03;3;  1.2938512E+02;  0.0000000E+00;  3.6903091E+01;0;  5.1793971E+00;  2.6786439E+04;  0.0000000E+00; -3.3818892E-01;  4.0000000E+04;  0.0000000E+00;  3.9802176E+04;  5.0278640E+00;  0.0000000E+00;  1.5153325E-01;  7.3026729E+03;
  7.9439157E-01;  9.9999998E-03; -2.4071625E-01;7149;  5.4943055E-01;  0.0000000E+00; -7.9806268E-02;  1.0035045E+03;  1.2290092E-01;  2.9031499E+03;3;  1.2192693E+02;  0.0000000E+00;  3.5516285E+01;0;  5.0263000E+00;  2.6784551E+04;  0.0000000E+00; -3.3032352E-01;  4.0000000E+04;  0.0000000E+00;  3.9809926E+04;  4.8872409E+00;  0.0000000E+00;  1.3905910E-01;  6.3478979E+03;
  7.9426599E-01;  9.9999998E-03; -2.3069148E-01;7150;  5.2843744E-01;  0.0000000E+00; -8.0969885E-02;  1.0033770E+03;  1.2289992E-01;  2.7974844E+03;3;  1.1327675E+02;  0.0000000E+00;  3.3549988E+01;0;  4.8761768E+00;  2.6779498E+04;  0.0000000E+00; -3.4594840E-01;  4.0000000E+04;  0.0000000E+00;  3.9811840E+04;  4.7415366E+00;  0.0000000E+00;  1.3464025E-01;  6.0997554E+03;
  7.9409975E-01;  9.9999998E-03; -2.2066016E-01;7151;  5.0485212E-01;  0.0000000E+00; -8.1162706E-02;  1.0031707E+03;  1.2289882E-01;  2.6266416E+03;3;  1.0387228E+02;  0.0000000E+00;  3.0786133E+01;0;  4.7313538E+00;  2.6771479E+04;  0.0000000E+00; -3.7004110E-01;  4.0000000E+04;  0.0000000E+00;  3.9812129E+04;  4.5907760E+00;  0.0000000E+00;  1.4057787E-01;  6.0630234E+03;
  7.9390836E-01;  9.9999998E-03; -2.1062084E-01;7152;  4.7935766E-01;  0.0000000E+00; -7.9665132E-02;  1.0028922E+03;  1.2289830E-01;  2.3958557E+03;3;  9.3203506E+01;  0.0000000E+00;  2.5064093E+01;0;  4.5909896E+00;  2.6761016E+04;  0.0000000E+00; -3.9263749E-01;  4.0000000E+04;  0.0000000E+00;  3.9810590E+04;  4.4363413E+00;  0.0000000E+00;  1.5464813E-01;  6.2322627E+03;
  7.9372066E-01;  9.9999998E-03; -2.0058416E-01;7153;  4.5286876E-01;  0.0000000E+00; -7.5983897E-02;  1.0025571E+03;  1.2289775E-01;  2.1183594E+03;3;  8.1677483E+01;  0.0000000E+00;  1.9413864E+01;0;  4.4565387E+00;  2.6748812E+04;  0.0000000E+00; -4.0506774E-01;  4.0000000E+04;  0.0000000E+00;  3.9807262E+04;  4.2810183E+00;  0.0000000E+00;  1.7552060E-01;  6.6370366E+03;
  7.9356444E-01;  9.9999998E-03; -1.9054949E-01;7154;  4.2666835E-01;  0.0000000E+00; -7.0640974E-02;  1.0022079E+03;  1.2289806E-01;  1.8290121E+03;3;  6.9656517E+01;  0.0000000E+00;  1.5764657E+01;0;  4.3297434E+00;  2.6735914E+04;  0.0000000E+00; -4.0316114E-01;  4.0000000E+04;  0.0000000E+00;  3.9803289E+04;  4.1282210E+00;  0.0000000E+00;  2.0152225E-01;  7.1009907E+03;
  7.9345375E-01;  9.9999998E-03; -1.8050493E-01;7155;  4.0165681E-01;  0.0000000E+00; -6.4114481E-02;  1.0018778E+03;  1.2289832E-01;  1.5555642E+03;3;  5.7194439E+01;  0.0000000E+00;  1.4267906E+01;0;  4.2112479E+00;  2.6723586E+04;  0.0000000E+00; -3.8723066E-01;  4.0000000E+04;  0.0000000E+00;  3.9799648E+04;  3.9813855E+00;  0.0000000E+00;  2.2986256E-01;  7.5105972E+03;
  7.9340446E-01;  9.9999998E-03; -1.7045867E-01;7156;  3.7848932E-01;  0.0000000E+00; -5.6992996E-02;  1.0016030E+03;  1.2289895E-01;  1.3279376E+03;3;  4.4420868E+01;  0.0000000E+00;  1.4770965E+01;0;  4.1022449E+00;  2.6713270E+04;  0.0000000E+00; -3.6049840E-01;  4.0000000E+04;  0.0000000E+00;  3.9796707E+04;  3.8446257E+00;  0.0000000E+00;  2.5761935E-01;  7.8455986E+03;
  7.9341400E-01;  9.9999998E-03; -1.6041318E-01;7157;  3.5766080E-01;  0.0000000E+00; -4.9924038E-02;  1.0014077E+03;  1.2289958E-01;  1.1661796E+03;3;  3.1415695E+01;  0.0000000E+00;  1.6516283E+01;0;  4.0031605E+00;  2.6706393E+04;  0.0000000E+00; -3.2786360E-01;  4.0000000E+04;  0.0000000E+00;  3.9794637E+04;  3.7208097E+00;  0.0000000E+00;  2.8235054E-01;  8.0770684E+03;
  7.9346663E-01;  9.9999998E-03; -1.5036872E-01;7158;  3.3943772E-01;  0.0000000E+00; -4.3502126E-02;  1.0013210E+03;  1.2290008E-01;  1.0943856E+03;3;  1.8206453E+01;  0.0000000E+00;  1.8520462E+01;0;  3.9136198E+00;  2.6704062E+04;  0.0000000E+00; -2.9451635E-01;  4.0000000E+04;  0.0000000E+00;  3.9793477E+04;  3.6112936E+00;  0.0000000E+00;  3.0232617E-01;  8.2134004E+03;
  7.9353982E-01;  9.9999998E-03; -1.4032619E-01;7159;  3.2412058E-01;  0.0000000E+00; -3.7887201E-02;  1.0013495E+03;  1.2289974E-01;  1.1178888E+03;3;  4.8570795E+00;  0.0000000E+00;  2.0285452E+01;0;  3.8324723E+00;  2.6707373E+04;  0.0000000E+00; -2.6448786E-01;  4.0000000E+04;  0.0000000E+00;  3.9792785E+04;  3.5159345E+00;  0.0000000E+00;  3.1653795E-01;  8.2972451E+03;
  7.9361069E-01;  9.9999998E-03; -1.3028601E-01;7160;  3.1222299E-01;  0.0000000E+00; -3.2193195E-02;  1.0014932E+03;  1.2289850E-01;  1.2369854E+03;3; -8.5091648E+00;  0.0000000E+00;  2.1629349E+01;0;  3.7580066E+00;  2.6716432E+04;  0.0000000E+00; -2.3952594E-01;  4.0000000E+04;  0.0000000E+00;  3.9792074E+04;  3.4334602E+00;  0.0000000E+00;  3.2454646E-01;  8.3909297E+03;
  7.9365617E-01;  9.9999998E-03; -1.2024971E-01;7161;  3.0405012E-01;  0.0000000E+00; -2.5784925E-02;  1.0017424E+03;  1.2289670E-01;  1.4434786E+03;3; -1.9924778E+01;  0.0000000E+00;  2.2400053E+01;0;  3.6882024E+00;  2.6731326E+04;  0.0000000E+00; -2.1931250E-01;  4.0000000E+04;  0.0000000E+00;  3.9790891E+04;  3.3620172E+00;  0.0000000E+00;  3.2618529E-01;  8.5586553E+03;
  7.9365867E-01;  9.9999998E-03; -1.1022017E-01;7162;  2.9901749E-01;  0.0000000E+00; -1.9486222E-02;  1.0020773E+03;  1.2289372E-01;  1.7208770E+03;3; -2.6444847E+01;  0.0000000E+00;  2.2466734E+01;0;  3.6214256E+00;  2.6751342E+04;  0.0000000E+00; -2.0219819E-01;  4.0000000E+04;  0.0000000E+00;  3.9788758E+04;  3.3000338E+00;  0.0000000E+00;  3.2139185E-01;  8.8572490E+03;
  8.0665666E-01;  9.9999998E-03; -2.7081290E-01;7207;  7.1991605E-01;  0.0000000E+00; -5.3593822E-02;  1.0015096E+03;  1.2303511E-01;  1.2505880E+03;3;  1.7442545E+02;  0.0000000E+00;  3.4576359E+01;0;  5.4229689E+00;  2.6623303E+04;  0.0000000E+00;  6.7166293E-01;  4.0000000E+04;  0.0000000E+00;  3.9790176E+04;  5.3810425E+00;  0.0000000E+00;  4.1926410E-02;  8.6642549E+03;
  8.0668592E-01;  9.9999998E-03; -2.6080039E-01;7208;  6.9298756E-01;  0.0000000E+00; -5.9688713E-02;  1.0017042E+03;  1.2303309E-01;  1.4117504E+03;3;  1.6760321E+02;  0.0000000E+00;  3.3951450E+01;0;  5.3658967E+00;  2.6628000E+04;  0.0000000E+00;  3.7807533E-01;  4.0000000E+04;  0.0000000E+00;  3.9800781E+04;  5.2936974E+00;  0.0000000E+00;  7.2199233E-02;  7.2649888E+03;
  8.0668283E-01;  9.9999998E-03; -2.5078651E-01;7209;  6.6616082E-01;  0.0000000E+00; -6.3320220E-02;  1.0018425E+03;  1.2303146E-01;  1.5263020E+03;3;  1.5990063E+02;  0.0000000E+00;  3.3087891E+01;0;  5.2765989E+00;  2.6631322E+04;  0.0000000E+00;  1.4740603E-01;  4.0000000E+04;  0.0000000E+00;  3.9809418E+04;  5.2029920E+00;  0.0000000E+00;  7.3607102E-02;  6.1405947E+03;
  8.0657530E-01;  9.9999998E-03; -2.4077764E-01;7210;  6.3779795E-01;  0.0000000E+00; -6.5450542E-02;  1.0018756E+03;  1.2302987E-01;  1.5537551E+03;3;  1.5073618E+02;  0.0000000E+00;  3.2287960E+01;0;  5.1809196E+00;  2.6633215E+04;  0.0000000E+00; -2.8909869E-02;  4.0000000E+04;  0.0000000E+00;  3.9812762E+04;  5.1092868E+00;  0.0000000E+00;  7.1632683E-02;  5.7071255E+03;
  8.0642009E-01;  9.9999998E-03; -2.3076425E-01;7211;  6.0828692E-01;  0.0000000E+00; -6.7061573E-02;  1.0018557E+03;  1.2302890E-01;  1.5372642E+03;3;  1.4053279E+02;  0.0000000E+00;  3.1555990E+01;0;  5.0905380E+00;  2.6632795E+04;  0.0000000E+00; -1.7620736E-01;  4.0000000E+04;  0.0000000E+00;  3.9815469E+04;  5.0129471E+00;  0.0000000E+00;  7.7591076E-02;  5.3511006E+03;
  8.0623972E-01;  9.9999998E-03; -2.2074257E-01;7212;  5.7780129E-01;  0.0000000E+00; -6.8156354E-02;  1.0017802E+03;  1.2302864E-01;  1.4746561E+03;3;  1.2963022E+02;  0.0000000E+00;  3.0783472E+01;0;  5.0057864E+00;  2.6630047E+04;  0.0000000E+00; -2.9420373E-01;  4.0000000E+04;  0.0000000E+00;  3.9817402E+04;  4.9145017E+00;  0.0000000E+00;  9.1284767E-02;  5.1243643E+03;
  8.0604833E-01;  9.9999998E-03; -2.1072164E-01;7213;  5.4625231E-01;  0.0000000E+00; -6.8818912E-02;  1.0016254E+03;  1.2302869E-01;  1.3464772E+03;3;  1.1835802E+02;  0.0000000E+00;  3.1084002E+01;0;  4.9264526E+00;  2.6625291E+04;  0.0000000E+00; -3.8179177E-01;  4.0000000E+04;  0.0000000E+00;  3.9816414E+04;  4.8149352E+00;  0.0000000E+00;  1.1151721E-01;  5.2436812E+03;
  8.0586922E-01;  9.9999998E-03; -2.0070486E-01;7214;  5.1392907E-01;  0.0000000E+00; -6.9402389E-02;  1.0014252E+03;  1.2302935E-01;  1.1806737E+03;3;  1.0618425E+02;  0.0000000E+00;  3.0889973E+01;0;  4.8525643E+00;  2.6619199E+04;  0.0000000E+00; -4.3931648E-01;  4.0000000E+04;  0.0000000E+00;  3.9813586E+04;  4.7159233E+00;  0.0000000E+00;  1.3664119E-01;  5.5900371E+03;
  8.0572087E-01;  9.9999998E-03; -1.9068547E-01;7215;  4.8164177E-01;  0.0000000E+00; -6.9287360E-02;  1.0012108E+03;  1.2303070E-01;  1.0030198E+03;3;  9.3255417E+01;  0.0000000E+00;  2.9722092E+01;0;  4.7840877E+00;  2.6612682E+04;  0.0000000E+00; -4.6868813E-01;  4.0000000E+04;  0.0000000E+00;  3.9809977E+04;  4.6195641E+00;  0.0000000E+00;  1.6452366E-01;  6.0185151E+03;
  8.0561870E-01;  9.9999998E-03; -1.8064801E-01;7216;  4.5021105E-01;  0.0000000E+00; -6.7592189E-02;  1.0010138E+03;  1.2303193E-01;  8.3978363E+02;3;  7.9540863E+01;  0.0000000E+00;  2.7484819E+01;0;  4.7221465E+00;  2.6607055E+04;  0.0000000E+00; -4.7416252E-01;  4.0000000E+04;  0.0000000E+00;  3.9806242E+04;  4.5283551E+00;  0.0000000E+00;  1.9379149E-01;  6.4728896E+03;
  8.0555749E-01;  9.9999998E-03; -1.7060505E-01;7217;  4.2037967E-01;  0.0000000E+00; -6.3513607E-02;  1.0008622E+03;  1.2303326E-01;  7.1427039E+02;3;  6.5025772E+01;  0.0000000E+00;  2.3915667E+01;0;  4.6674252E+00;  2.6603723E+04;  0.0000000E+00; -4.6186092E-01;  4.0000000E+04;  0.0000000E+00;  3.9802176E+04;  4.4444094E+00;  0.0000000E+00;  2.2301555E-01;  6.9570107E+03;
  8.0554986E-01;  9.9999998E-03; -1.6056128E-01;7218;  3.9341754E-01;  0.0000000E+00; -5.7320703E-02;  1.0007818E+03;  1.2303428E-01;  6.4761310E+02;3;  5.0418015E+01;  0.0000000E+00;  2.1721025E+01;0;  4.6205063E+00;  2.6603943E+04;  0.0000000E+00; -4.3845168E-01;  4.0000000E+04;  0.0000000E+00;  3.9798422E+04;  4.3702087E+00;  0.0000000E+00;  2.5029746E-01;  7.4195361E+03;
  8.0559796E-01;  9.9999998E-03; -1.5051857E-01;7219;  3.7094110E-01;  0.0000000E+00; -5.1145833E-02;  1.0008010E+03;  1.2303489E-01;  6.6351202E+02;3;  3.6314938E+01;  0.0000000E+00;  2.2968500E+01;0;  4.5808721E+00;  2.6608805E+04;  0.0000000E+00; -4.0999043E-01;  4.0000000E+04;  0.0000000E+00;  3.9794902E+04;  4.3072472E+00;  0.0000000E+00;  2.7362505E-01;  7.8443008E+03;
  8.0568743E-01;  9.9999998E-03; -1.4047575E-01;7220;  3.5233831E-01;  0.0000000E+00; -4.5740880E-02;  1.0009287E+03;  1.2303532E-01;  7.6937366E+02;3;  2.2443871E+01;  0.0000000E+00;  2.5014219E+01;0;  4.5474958E+00;  2.6618941E+04;  0.0000000E+00; -3.8021705E-01;  4.0000000E+04;  0.0000000E+00;  3.9791656E+04;  4.2559266E+00;  0.0000000E+00;  2.9156911E-01;  8.2590420E+03;
  8.0578411E-01;  9.9999998E-03; -1.3043424E-01;7221;  3.3502254E-01;  0.0000000E+00; -4.0174436E-02;  1.0011586E+03;  1.2303498E-01;  9.5976654E+02;3;  8.8407478E+00;  0.0000000E+00;  2.6994946E+01;0;  4.5184350E+00;  2.6634463E+04;  0.0000000E+00; -3.4973976E-01;  4.0000000E+04;  0.0000000E+00;  3.9788059E+04;  4.2150602E+00;  0.0000000E+00;  3.0337471E-01;  8.7200781E+03;
  8.0586040E-01;  9.9999998E-03; -1.2039732E-01;7222;  3.1866315E-01;  0.0000000E+00; -3.3962414E-02;  1.0014743E+03;  1.2303373E-01;  1.2212606E+03;3; -4.3846135E+00;  0.0000000E+00;  2.8585726E+01;0;  4.4912467E+00;  2.6654986E+04;  0.0000000E+00; -3.1731823E-01;  4.0000000E+04;  0.0000000E+00;  3.9783727E+04;  4.1826220E+00;  0.0000000E+00;  3.0862460E-01;  9.2918447E+03;
  8.0591404E-01;  9.9999998E-03; -1.1036696E-01;7223;  3.0729207E-01;  0.0000000E+00; -2.6939996E-02;  1.0018616E+03;  1.2303181E-01;  1.5421042E+03;3; -1.6794722E+01;  0.0000000E+00;  2.9623644E+01;0;  4.4638696E+00;  2.6679924E+04;  0.0000000E+00; -2.8180164E-01;  4.0000000E+04;  0.0000000E+00;  3.9778102E+04;  4.1568794E+00;  0.0000000E+00;  3.0699006E-01;  1.0027743E+04;
  8.1798154E-01;  9.9999998E-03; -2.7082098E-01;7268;  8.0605298E-01;  0.0000000E+00; -3.5930332E-02;  9.9940594E+02;  1.2311234E-01; -4.9211737E+02;3;  1.9138829E+02;  0.0000000E+00;  3.0750401E+01;0;  5.1884065E+00;  2.6464799E+04;  0.0000000E+00;  1.5733569E+00;  4.0000000E+04;  0.0000000E+00;  3.9810227E+04;  5.2873149E+00;  0.0000000E+00; -9.8908193E-02;  6.6213750E+03;
  8.1800431E-01;  9.9999998E-03; -2.6082548E-01;7269;  7.7428949E-01;  0.0000000E+00; -4.0326241E-02;  9.9955725E+02;  1.2310897E-01; -3.6675507E+02;3;  1.8389728E+02;  0.0000000E+00;  3.1727140E+01;0;  5.1841822E+00;  2.6474506E+04;  0.0000000E+00;  1.0640785E+00;  4.0000000E+04;  0.0000000E+00;  3.9809352E+04;  5.2423658E+00;  0.0000000E+00; -5.8183670E-02;  6.2757979E+03;
  8.1804049E-01;  9.9999998E-03; -2.5082383E-01;7270;  7.4387336E-01;  0.0000000E+00; -4.4066269E-02;  9.9976117E+02;  1.2310550E-01; -1.9784430E+02;3;  1.7599142E+02;  0.0000000E+00;  3.2302986E+01;0;  5.1693130E+00;  2.6482795E+04;  0.0000000E+00;  6.4703876E-01;  4.0000000E+04;  0.0000000E+00;  3.9814770E+04;  5.1986656E+00;  0.0000000E+00; -2.9352430E-02;  5.3766533E+03;
  8.1804889E-01;  9.9999998E-03; -2.4080613E-01;7271;  7.1118897E-01;  0.0000000E+00; -4.6848398E-02;  9.9999786E+02;  1.2310231E-01; -1.7774881E+00;3;  1.6703717E+02;  0.0000000E+00;  3.2748241E+01;0;  5.1497731E+00;  2.6489887E+04;  0.0000000E+00;  3.2207176E-01;  4.0000000E+04;  0.0000000E+00;  3.9825301E+04;  5.1574602E+00;  0.0000000E+00; -7.6869619E-03;  3.9597654E+03;
  8.1805956E-01;  9.9999998E-03; -2.3077443E-01;7272;  6.7658091E-01;  0.0000000E+00; -4.8343647E-02;  1.0001757E+03;  1.2310114E-01;  1.4555653E+02;3;  1.5695752E+02;  0.0000000E+00;  3.3155582E+01;0;  5.1308889E+00;  2.6495381E+04;  0.0000000E+00;  6.3803546E-02;  4.0000000E+04;  0.0000000E+00;  3.9833898E+04;  5.1191516E+00;  0.0000000E+00;  1.1737388E-02;  2.8174902E+03;
  8.1802619E-01;  9.9999998E-03; -2.2075619E-01;7273;  6.4102459E-01;  0.0000000E+00; -4.8930034E-02;  1.0002243E+03;  1.2310138E-01;  1.8584625E+02;3;  1.4596953E+02;  0.0000000E+00;  3.3620064E+01;0;  5.1177540E+00;  2.6499809E+04;  0.0000000E+00; -1.3566262E-01;  4.0000000E+04;  0.0000000E+00;  3.9834109E+04;  5.0839300E+00;  0.0000000E+00;  3.3824068E-02;  2.7755247E+03;
  8.1792116E-01;  9.9999998E-03; -2.1074761E-01;7274;  6.0464406E-01;  0.0000000E+00; -4.9486917E-02;  1.0002178E+03;  1.2310246E-01;  1.8041510E+02;3;  1.3417619E+02;  0.0000000E+00;  3.4532650E+01;0;  5.1112695E+00;  2.6503641E+04;  0.0000000E+00; -2.8164935E-01;  4.0000000E+04;  0.0000000E+00;  3.9830949E+04;  5.0509286E+00;  0.0000000E+00;  6.0341034E-02;  3.1849700E+03;
  8.1781143E-01;  9.9999998E-03; -2.0074022E-01;7275;  5.6830150E-01;  0.0000000E+00; -5.0047301E-02;  1.0001882E+03;  1.2310340E-01;  1.5582652E+02;3;  1.2138657E+02;  0.0000000E+00;  3.4442554E+01;0;  5.1099181E+00;  2.6506867E+04;  0.0000000E+00; -3.8309497E-01;  4.0000000E+04;  0.0000000E+00;  3.9826770E+04;  5.0203619E+00;  0.0000000E+00;  8.9556180E-02;  3.7089783E+03;
  8.1773776E-01;  9.9999998E-03; -1.9072753E-01;7276;  5.3390461E-01;  0.0000000E+00; -5.0411731E-02;  1.0001533E+03;  1.2310496E-01;  1.2699174E+02;3;  1.0800655E+02;  0.0000000E+00;  3.4484344E+01;0;  5.1134911E+00;  2.6510080E+04;  0.0000000E+00; -4.4847929E-01;  4.0000000E+04;  0.0000000E+00;  3.9822238E+04;  4.9933105E+00;  0.0000000E+00;  1.2018039E-01;  4.2891309E+03;
  8.1772959E-01;  9.9999998E-03; -1.8069987E-01;7277;  5.0691170E-01;  0.0000000E+00; -5.0836042E-02;  1.0001345E+03;  1.2310628E-01;  1.1138933E+02;3;  9.3874825E+01;  0.0000000E+00;  3.4466881E+01;0;  5.1224499E+00;  2.6514373E+04;  0.0000000E+00; -4.8509869E-01;  4.0000000E+04;  0.0000000E+00;  3.9817078E+04;  4.9711585E+00;  0.0000000E+00;  1.5129159E-01;  4.9225737E+03;
  8.1775576E-01;  9.9999998E-03; -1.7067188E-01;7278;  4.8273247E-01;  0.0000000E+00; -5.1105499E-02;  1.0001538E+03;  1.2310779E-01;  1.2738673E+02;3;  7.9458778E+01;  0.0000000E+00;  3.4180969E+01;0;  5.1363916E+00;  2.6520898E+04;  0.0000000E+00; -4.9979669E-01;  4.0000000E+04;  0.0000000E+00;  3.9811496E+04;  4.9545317E+00;  0.0000000E+00;  1.8186003E-01;  5.6244570E+03;
  8.1779450E-01;  9.9999998E-03; -1.6064103E-01;7279;  4.6029651E-01;  0.0000000E+00; -5.1046751E-02;  1.0002323E+03;  1.2310917E-01;  1.9246255E+02;3;  6.5056854E+01;  0.0000000E+00;  3.3444744E+01;0;  5.1541715E+00;  2.6530611E+04;  0.0000000E+00; -4.9943897E-01;  4.0000000E+04;  0.0000000E+00;  3.9805633E+04;  4.9434218E+00;  0.0000000E+00;  2.1074940E-01;  6.3543652E+03;
  8.1783998E-01;  9.9999998E-03; -1.5060206E-01;7280;  4.3897793E-01;  0.0000000E+00; -5.0001539E-02;  1.0003869E+03;  1.2310991E-01;  3.2054047E+02;3;  5.0791080E+01;  0.0000000E+00;  3.1723236E+01;0;  5.1745062E+00;  2.6544223E+04;  0.0000000E+00; -4.8827949E-01;  4.0000000E+04;  0.0000000E+00;  3.9799738E+04;  4.9379487E+00;  0.0000000E+00;  2.3655771E-01;  7.1004292E+03;
  8.1788498E-01;  9.9999998E-03; -1.4055681E-01;7281;  4.1858238E-01;  0.0000000E+00; -4.6560243E-02;  1.0006223E+03;  1.2311007E-01;  5.1547168E+02;3;  3.6894615E+01;  0.0000000E+00;  3.1082657E+01;0;  5.1955657E+00;  2.6561939E+04;  0.0000000E+00; -4.6733251E-01;  4.0000000E+04;  0.0000000E+00;  3.9793594E+04;  4.9377475E+00;  0.0000000E+00;  2.5781801E-01;  7.8793062E+03;
  8.1793165E-01;  9.9999998E-03; -1.3051318E-01;7282;  3.9931047E-01;  0.0000000E+00; -4.1119605E-02;  1.0009291E+03;  1.2310953E-01;  7.6965253E+02;3;  2.3748741E+01;  0.0000000E+00;  3.2434731E+01;0;  5.2158389E+00;  2.6583703E+04;  0.0000000E+00; -4.3516332E-01;  4.0000000E+04;  0.0000000E+00;  3.9786879E+04;  4.9425445E+00;  0.0000000E+00;  2.7329430E-01;  8.7381436E+03;
  8.1799477E-01;  9.9999998E-03; -1.2047708E-01;7283;  3.8250244E-01;  0.0000000E+00; -3.4973960E-02;  1.0012916E+03;  1.2310862E-01;  1.0699492E+03;3;  1.1382936E+01;  0.0000000E+00;  3.4506985E+01;0;  5.2348118E+00;  2.6609027E+04;  0.0000000E+00; -3.9051586E-01;  4.0000000E+04;  0.0000000E+00;  3.9779180E+04;  4.9526396E+00;  0.0000000E+00;  2.8217244E-01;  9.7387285E+03;
  8.1807160E-01;  9.9999998E-03; -1.1045135E-01;7284;  3.6814201E-01;  0.0000000E+00; -2.9129745E-02;  1.0016880E+03;  1.2310747E-01;  1.3982905E+03;3; -1.4167215E-01;  0.0000000E+00;  3.6092327E+01;0;  5.2515454E+00;  2.6636969E+04;  0.0000000E+00; -3.3446798E-01;  4.0000000E+04;  0.0000000E+00;  3.9769922E+04;  4.9675970E+00;  0.0000000E+00;  2.8394863E-01;  1.0929334E+04;
  8.2942349E-01;  9.9999998E-03; -2.7081829E-01;7329;  8.7845665E-01;  0.0000000E+00; -1.6445834E-02;  9.9668817E+02;  1.2316517E-01; -2.7433359E+03;3;  1.9151729E+02;  0.0000000E+00;  2.7635422E+01;0;  4.7789168E+00;  2.6288459E+04;  0.0000000E+00;  1.4038137E+00;  4.0000000E+04;  0.0000000E+00;  3.9832883E+04;  5.0295553E+00;  0.0000000E+00; -2.5063857E-01;  3.8860728E+03;
  8.2992637E-01;  9.9999998E-03; -1.1051152E-01;7345;  4.5995906E-01;  0.0000000E+00; -2.1932686E-02;  1.0014224E+03;  1.2315054E-01;  1.1782462E+03;3;  1.4632233E+01;  0.0000000E+00;  4.1660179E+01;0;  5.9166331E+00;  2.6604133E+04;  0.0000000E+00; -3.6336148E-01;  4.0000000E+04;  0.0000000E+00;  3.9764441E+04;  5.6618166E+00;  0.0000000E+00;  2.5481671E-01;  1.1492294E+04;
  8.2944697E-01;  9.9999998E-03; -2.6084012E-01;7330;  8.4453577E-01;  0.0000000E+00; -1.9620355E-02;  9.9684784E+02;  1.2316088E-01; -2.6110647E+03;3;  1.8489630E+02;  0.0000000E+00;  2.9799149E+01;0;  4.8405037E+00;  2.6306131E+04;  0.0000000E+00;  1.1178983E+00;  4.0000000E+04;  0.0000000E+00;  3.9819887E+04;  5.0323138E+00;  0.0000000E+00; -1.9180997E-01;  4.7966641E+03;
  8.3005244E-01;  9.9999998E-03; -1.2051565E-01;7344;  4.7322094E-01;  0.0000000E+00; -2.6399493E-02;  1.0010386E+03;  1.2315143E-01;  8.6038013E+02;3;  2.4516426E+01;  0.0000000E+00;  3.9889854E+01;0;  5.8657737E+00;  2.6574330E+04;  0.0000000E+00; -4.3310156E-01;  4.0000000E+04;  0.0000000E+00;  3.9777109E+04;  5.6165457E+00;  0.0000000E+00;  2.4922784E-01;  9.8752646E+03;
  8.2945722E-01;  9.9999998E-03; -2.5084850E-01;7331;  8.1069797E-01;  0.0000000E+00; -2.3789862E-02;  9.9719427E+02;  1.2315512E-01; -2.3241060E+03;3;  1.7828519E+02;  0.0000000E+00;  3.1860205E+01;0;  4.9095817E+00;  2.6323379E+04;  0.0000000E+00;  8.2905978E-01;  4.0000000E+04;  0.0000000E+00;  3.9822699E+04;  5.0413818E+00;  0.0000000E+00; -1.3180014E-01;  4.2376333E+03;
  8.2944363E-01;  9.9999998E-03; -2.4082904E-01;7332;  7.7519667E-01;  0.0000000E+00; -2.7587045E-02;  9.9767230E+02;  1.2315004E-01; -1.9281313E+03;3;  1.7020374E+02;  0.0000000E+00;  3.3635010E+01;0;  4.9730496E+00;  2.6340043E+04;  0.0000000E+00;  5.5121660E-01;  4.0000000E+04;  0.0000000E+00;  3.9836965E+04;  5.0571280E+00;  0.0000000E+00; -8.4078483E-02;  2.4182048E+03;
  8.3011782E-01;  9.9999998E-03; -1.3052942E-01;7343;  4.8718122E-01;  0.0000000E+00; -3.0106632E-02;  1.0006445E+03;  1.2315198E-01;  5.3382465E+02;3;  3.5302757E+01;  0.0000000E+00;  3.8314590E+01;0;  5.8027277E+00;  2.6545008E+04;  0.0000000E+00; -4.8393023E-01;  4.0000000E+04;  0.0000000E+00;  3.9788273E+04;  5.5659022E+00;  0.0000000E+00;  2.3682559E-01;  8.4549678E+03;
  8.2984215E-01;  9.9999998E-03; -1.7066105E-01;7339;  5.6926417E-01;  0.0000000E+00; -3.3509333E-02;  9.9933551E+02;  1.2314987E-01; -5.5041443E+02;3;  8.5422592E+01;  0.0000000E+00;  3.8510666E+01;0;  5.4746861E+00;  2.6447684E+04;  0.0000000E+00; -4.7412628E-01;  4.0000000E+04;  0.0000000E+00;  3.9823102E+04;  5.3359857E+00;  0.0000000E+00;  1.3870029E-01;  4.0100811E+03;
  8.2991892E-01;  9.9999998E-03; -1.6063565E-01;7340;  5.4561222E-01;  0.0000000E+00; -3.3576485E-02;  9.9960114E+02;  1.2315095E-01; -3.3040662E+02;3;  7.2147766E+01;  0.0000000E+00;  3.8433468E+01;0;  5.5604987E+00;  2.6468342E+04;  0.0000000E+00; -5.0408256E-01;  4.0000000E+04;  0.0000000E+00;  3.9815215E+04;  5.3922663E+00;  0.0000000E+00;  1.6823232E-01;  5.0125947E+03;
  8.3000737E-01;  9.9999998E-03; -1.5060094E-01;7341;  5.2365965E-01;  0.0000000E+00; -3.3270366E-02;  9.9991071E+02;  1.2315165E-01; -7.3961296E+01;3;  5.9245373E+01;  0.0000000E+00;  3.8140812E+01;0;  5.6458654E+00;  2.6491455E+04;  0.0000000E+00; -5.1744115E-01;  4.0000000E+04;  0.0000000E+00;  3.9806863E+04;  5.4505796E+00;  0.0000000E+00;  1.9528599E-01;  6.0698301E+03;
  8.3008915E-01;  9.9999998E-03; -1.4055869E-01;7342;  5.0391555E-01;  0.0000000E+00; -3.2295261E-02;  1.0002616E+03;  1.2315215E-01;  2.1665028E+02;3;  4.6911530E+01;  0.0000000E+00;  3.7879112E+01;0;  5.7280326E+00;  2.6517166E+04;  0.0000000E+00; -5.1183420E-01;  4.0000000E+04;  0.0000000E+00;  3.9798137E+04;  5.5094905E+00;  0.0000000E+00;  2.1854191E-01;  7.2027646E+03;
  8.2947397E-01;  9.9999998E-03; -2.3078948E-01;7333;  7.3976892E-01;  0.0000000E+00; -2.9626843E-02;  9.9809088E+02;  1.2314718E-01; -1.5814309E+03;3;  1.6073080E+02;  0.0000000E+00;  3.4919716E+01;0;  5.0299110E+00;  2.6355234E+04;  0.0000000E+00;  2.8833005E-01;  4.0000000E+04;  0.0000000E+00;  3.9849289E+04;  5.0790262E+00;  0.0000000E+00; -4.9115319E-02;  9.1116101E+02;
  8.2979345E-01;  9.9999998E-03; -1.8068299E-01;7338;  5.9440923E-01;  0.0000000E+00; -3.3147093E-02;  9.9910767E+02;  1.2314911E-01; -7.3916907E+02;3;  9.8883705E+01;  0.0000000E+00;  3.8413647E+01;0;  5.3904462E+00;  2.6429150E+04;  0.0000000E+00; -4.2718953E-01;  4.0000000E+04;  0.0000000E+00;  3.9830535E+04;  5.2826610E+00;  0.0000000E+00;  1.0778513E-01;  3.0581523E+03;
  8.2955176E-01;  9.9999998E-03; -2.2075413E-01;7334;  7.0610350E-01;  0.0000000E+00; -3.0455483E-02;  9.9836755E+02;  1.2314636E-01; -1.3522391E+03;3;  1.4994383E+02;  0.0000000E+00;  3.5840603E+01;0;  5.0897198E+00;  2.6369180E+04;  0.0000000E+00;  5.7415254E-02;  4.0000000E+04;  0.0000000E+00;  3.9852430E+04;  5.1077867E+00;  0.0000000E+00; -1.8067030E-02;  3.4384055E+02;
  8.2976294E-01;  9.9999998E-03; -1.9070621E-01;7337;  6.2073272E-01;  0.0000000E+00; -3.2575876E-02;  9.9890662E+02;  1.2314804E-01; -9.0570551E+02;3;  1.1229221E+02;  0.0000000E+00;  3.8101559E+01;0;  5.3087697E+00;  2.6412307E+04;  0.0000000E+00; -3.5934246E-01;  4.0000000E+04;  0.0000000E+00;  3.9837473E+04;  5.2324791E+00;  0.0000000E+00;  7.6290816E-02;  2.1770320E+03;
  8.2972103E-01;  9.9999998E-03; -2.0071901E-01;7336;  6.4790112E-01;  0.0000000E+00; -3.1835198E-02;  9.9872614E+02;  1.2314732E-01; -1.0552083E+03;3;  1.2551649E+02;  0.0000000E+00;  3.7802734E+01;0;  5.2305050E+00;  2.6396971E+04;  0.0000000E+00; -2.6296687E-01;  4.0000000E+04;  0.0000000E+00;  3.9843801E+04;  5.1858025E+00;  0.0000000E+00;  4.4702623E-02;  1.3511536E+03;
  8.2964641E-01;  9.9999998E-03; -2.1073101E-01;7335;  6.7611003E-01;  0.0000000E+00; -3.1035252E-02;  9.9855859E+02;  1.2314665E-01; -1.1939971E+03;3;  1.3820634E+02;  0.0000000E+00;  3.6929806E+01;0;  5.1568389E+00;  2.6382787E+04;  0.0000000E+00; -1.2728837E-01;  4.0000000E+04;  0.0000000E+00;  3.9849438E+04;  5.1437292E+00;  0.0000000E+00;  1.3109715E-02;  6.0867603E+02;
  8.4177029E-01;  9.9999998E-03; -1.1058247E-01;7406;  5.6834930E-01;  0.0000000E+00; -1.4319190E-02;  1.0010499E+03;  1.2317727E-01;  8.6963544E+02;3;  2.6812037E+01;  0.0000000E+00;  4.6052330E+01;0;  6.4248762E+00;  2.6574297E+04;  0.0000000E+00; -3.6049211E-01;  4.0000000E+04;  0.0000000E+00;  3.9761242E+04;  6.2033148E+00;  0.0000000E+00;  2.2156152E-01;  1.1741473E+04;
  8.4187925E-01;  9.9999998E-03; -1.2058744E-01;7405;  5.7985210E-01;  0.0000000E+00; -1.7276753E-02;  1.0006921E+03;  1.2317683E-01;  5.7330554E+02;3;  3.4295876E+01;  0.0000000E+00;  4.4642639E+01;0;  6.3292398E+00;  2.6543775E+04;  0.0000000E+00; -4.3081042E-01;  4.0000000E+04;  0.0000000E+00;  3.9777035E+04;  6.1160135E+00;  0.0000000E+00;  2.1322644E-01;  9.7419053E+03;
  8.4194452E-01;  9.9999998E-03; -1.3059597E-01;7404;  5.9143293E-01;  0.0000000E+00; -1.9247649E-02;  1.0002798E+03;  1.2317669E-01;  2.3184999E+02;3;  4.2721817E+01;  0.0000000E+00;  4.3853745E+01;0;  6.2182741E+00;  2.6511406E+04;  0.0000000E+00; -4.7837007E-01;  4.0000000E+04;  0.0000000E+00;  3.9791223E+04;  6.0198555E+00;  0.0000000E+00;  1.9841871E-01;  7.9481299E+03;
  8.4198779E-01;  9.9999998E-03; -1.4060713E-01;7403;  6.0444844E-01;  0.0000000E+00; -2.0115582E-02;  9.9982599E+02;  1.2317659E-01; -1.4411627E+02;3;  5.2037075E+01;  0.0000000E+00;  4.3771790E+01;0;  6.0943532E+00;  2.6477883E+04;  0.0000000E+00; -4.9726924E-01;  4.0000000E+04;  0.0000000E+00;  3.9803871E+04;  5.9162560E+00;  0.0000000E+00;  1.7809737E-01;  6.3472188E+03;
  8.4199828E-01;  9.9999998E-03; -1.5062203E-01;7402;  6.2084800E-01;  0.0000000E+00; -2.0331711E-02;  9.9935052E+02;  1.2317634E-01; -5.3795508E+02;3;  6.2117493E+01;  0.0000000E+00;  4.3791225E+01;0;  5.9594245E+00;  2.6444020E+04;  0.0000000E+00; -4.8718747E-01;  4.0000000E+04;  0.0000000E+00;  3.9815195E+04;  5.8059392E+00;  0.0000000E+00;  1.5348531E-01;  4.8982769E+03;
  8.4197938E-01;  9.9999998E-03; -1.6063748E-01;7401;  6.4097196E-01;  0.0000000E+00; -2.0211561E-02;  9.9886920E+02;  1.2317602E-01; -9.3668182E+02;3;  7.2854912E+01;  0.0000000E+00;  4.3749546E+01;0;  5.8163514E+00;  2.6410512E+04;  0.0000000E+00; -4.5220247E-01;  4.0000000E+04;  0.0000000E+00;  3.9825668E+04;  5.6904283E+00;  0.0000000E+00;  1.2592293E-01;  3.5657166E+03;
  8.4193456E-01;  9.9999998E-03; -1.7065409E-01;7400;  6.6349149E-01;  0.0000000E+00; -1.9890465E-02;  9.9839221E+02;  1.2317567E-01; -1.3317551E+03;3;  8.4012093E+01;  0.0000000E+00;  4.3262810E+01;0;  5.6681337E+00;  2.6377729E+04;  0.0000000E+00; -3.9746788E-01;  4.0000000E+04;  0.0000000E+00;  3.9835242E+04;  5.5714431E+00;  0.0000000E+00;  9.6690565E-02;  2.3314854E+03;
  8.4186691E-01;  9.9999998E-03; -1.8067488E-01;7399;  6.8742490E-01;  0.0000000E+00; -1.9355321E-02;  9.9792554E+02;  1.2317587E-01; -1.7183367E+03;3;  9.5600174E+01;  0.0000000E+00;  4.3014626E+01;0;  5.5177493E+00;  2.6346010E+04;  0.0000000E+00; -3.2664874E-01;  4.0000000E+04;  0.0000000E+00;  3.9844164E+04;  5.4510255E+00;  0.0000000E+00;  6.6723794E-02;  1.2047595E+03;
  8.4177643E-01;  9.9999998E-03; -1.9070235E-01;7398;  7.1214181E-01;  0.0000000E+00; -1.8639458E-02;  9.9747095E+02;  1.2317584E-01; -2.0948467E+03;3;  1.0719952E+02;  0.0000000E+00;  4.2078812E+01;0;  5.3678851E+00;  2.6315521E+04;  0.0000000E+00; -2.3932970E-01;  4.0000000E+04;  0.0000000E+00;  3.9852148E+04;  5.3314271E+00;  0.0000000E+00;  3.6458228E-02;  3.7938138E+02;
  8.4166849E-01;  9.9999998E-03; -2.0072457E-01;7397;  7.3725903E-01;  0.0000000E+00; -1.7759873E-02;  9.9702502E+02;  1.2317649E-01; -2.4642473E+03;3;  1.1879423E+02;  0.0000000E+00;  4.1422260E+01;0;  5.2210617E+00;  2.6286273E+04;  0.0000000E+00; -1.2997462E-01;  4.0000000E+04;  0.0000000E+00;  3.9859129E+04;  5.2152252E+00;  0.0000000E+00;  5.8363238E-03;  8.6181573E+02;
  8.4155220E-01;  9.9999998E-03; -2.1073717E-01;7396;  7.6266992E-01;  0.0000000E+00; -1.6781881E-02;  9.9658923E+02;  1.2317710E-01; -2.8252061E+03;3;  1.2989799E+02;  0.0000000E+00;  3.9711056E+01;0;  5.0791078E+00;  2.6258229E+04;  0.0000000E+00;  9.9339159E-03;  4.0000000E+04;  0.0000000E+00;  3.9864934E+04;  5.1047568E+00;  0.0000000E+00; -2.5648937E-02;  1.6220540E+03;
  8.4142393E-01;  9.9999998E-03; -2.2075769E-01;7395;  7.8833038E-01;  0.0000000E+00; -1.5861912E-02;  9.9613965E+02;  1.2317847E-01; -3.1976191E+03;3;  1.4036436E+02;  0.0000000E+00;  3.8387146E+01;0;  4.9434800E+00;  2.6231232E+04;  0.0000000E+00;  1.8688270E-01;  4.0000000E+04;  0.0000000E+00;  3.9868469E+04;  5.0019083E+00;  0.0000000E+00; -5.8428083E-02;  2.1180286E+03;
  8.4129387E-01;  9.9999998E-03; -2.3079388E-01;7394;  8.1527263E-01;  0.0000000E+00; -1.4325451E-02;  9.9561273E+02;  1.2318047E-01; -3.6340679E+03;3;  1.5027657E+02;  0.0000000E+00;  3.6920639E+01;0;  4.8136692E+00;  2.6204848E+04;  0.0000000E+00;  3.9350930E-01;  4.0000000E+04;  0.0000000E+00;  3.9865039E+04;  4.9084439E+00;  0.0000000E+00; -9.4774507E-02;  1.8597290E+03;
  8.4120095E-01;  9.9999998E-03; -2.4083580E-01;7393;  8.4340590E-01;  0.0000000E+00; -1.1526652E-02;  9.9494598E+02;  1.2318517E-01; -4.1863428E+03;3;  1.5846107E+02;  0.0000000E+00;  3.5019505E+01;0;  4.6845503E+00;  2.6178236E+04;  0.0000000E+00;  5.9495014E-01;  4.0000000E+04;  0.0000000E+00;  3.9851219E+04;  4.8247347E+00;  0.0000000E+00; -1.4018427E-01;  1.1516865E+03;
  8.4119207E-01;  9.9999998E-03; -2.5085655E-01;7392;  8.7342578E-01;  0.0000000E+00; -6.6425875E-03;  9.9421375E+02;  1.2319192E-01; -4.7928774E+03;3;  1.6437935E+02;  0.0000000E+00;  3.2950565E+01;0;  4.5427709E+00;  2.6150242E+04;  0.0000000E+00;  7.2869343E-01;  4.0000000E+04;  0.0000000E+00;  3.9834465E+04;  4.7499399E+00;  0.0000000E+00; -2.0716909E-01;  2.4914709E+03;
  8.4121549E-01;  9.9999998E-03; -2.6083907E-01;7391;  9.0412980E-01;  0.0000000E+00; -1.1617386E-03;  9.9368237E+02;  1.2319954E-01; -5.2330273E+03;3;  1.6833778E+02;  0.0000000E+00;  3.0545845E+01;0;  4.3869400E+00;  2.6121654E+04;  0.0000000E+00;  7.4181414E-01;  4.0000000E+04;  0.0000000E+00;  3.9835047E+04;  4.6846495E+00;  0.0000000E+00; -2.9770926E-01;  2.4370645E+03;
  8.4124953E-01;  9.9999998E-03; -2.7079934E-01;7390;  9.3869370E-01;  0.0000000E+00;  8.0642861E-04;  9.9348743E+02;  1.2320609E-01; -5.3945225E+03;3;  1.7275623E+02;  0.0000000E+00;  2.5720039E+01;0;  4.2617798E+00;  2.6093049E+04;  0.0000000E+00;  6.1228979E-01;  4.0000000E+04;  0.0000000E+00;  3.9862426E+04;  4.6299806E+00;  0.0000000E+00; -3.6820084E-01;  1.9555754E+03;
  8.5390615E-01;  9.9999998E-03; -1.1059773E-01;7467;  6.8703109E-01;  0.0000000E+00; -8.8357106E-03;  1.0005922E+03;  1.2318645E-01;  4.9053970E+02;3;  3.6168171E+01;  0.0000000E+00;  4.8946316E+01;0;  6.7393413E+00;  2.6548826E+04;  0.0000000E+00; -3.0760908E-01;  4.0000000E+04;  0.0000000E+00;  3.9760488E+04;  6.5538650E+00;  0.0000000E+00;  1.8547617E-01;  1.1691056E+04;
  8.5406637E-01;  9.9999998E-03; -1.2060563E-01;7466;  6.9710296E-01;  0.0000000E+00; -1.0900809E-02;  1.0002538E+03;  1.2318522E-01;  2.1021707E+02;3;  4.0839981E+01;  0.0000000E+00;  4.8017754E+01;0;  6.6067238E+00;  2.6517744E+04;  0.0000000E+00; -3.6513254E-01;  4.0000000E+04;  0.0000000E+00;  3.9778520E+04;  6.4316483E+00;  0.0000000E+00;  1.7507567E-01;  9.4035371E+03;
  8.5418719E-01;  9.9999998E-03; -1.3061738E-01;7465;  7.0738184E-01;  0.0000000E+00; -1.2136584E-02;  9.9981464E+02;  1.2318409E-01; -1.5354036E+02;3;  4.6315689E+01;  0.0000000E+00;  4.7566292E+01;0;  6.4552622E+00;  2.6482457E+04;  0.0000000E+00; -4.0162331E-01;  4.0000000E+04;  0.0000000E+00;  3.9795016E+04;  6.2965651E+00;  0.0000000E+00;  1.5869720E-01;  7.3123423E+03;
  8.5426188E-01;  9.9999998E-03; -1.4063022E-01;7464;  7.1825457E-01;  0.0000000E+00; -1.2596038E-02;  9.9928986E+02;  1.2318335E-01; -5.8819269E+02;3;  5.2590389E+01;  0.0000000E+00;  4.7506390E+01;0;  6.2867274E+00;  2.6443824E+04;  0.0000000E+00; -4.1145271E-01;  4.0000000E+04;  0.0000000E+00;  3.9809914E+04;  6.1491976E+00;  0.0000000E+00;  1.3752969E-01;  5.4248394E+03;
  8.5428643E-01;  9.9999998E-03; -1.5064254E-01;7463;  7.3014843E-01;  0.0000000E+00; -1.2574165E-02;  9.9869666E+02;  1.2318285E-01; -1.0795216E+03;3;  5.9645260E+01;  0.0000000E+00;  4.7506153E+01;0;  6.1035271E+00;  2.6402572E+04;  0.0000000E+00; -3.9374050E-01;  4.0000000E+04;  0.0000000E+00;  3.9823324E+04;  5.9906435E+00;  0.0000000E+00;  1.1288378E-01;  3.7194236E+03;
  8.5427421E-01;  9.9999998E-03; -1.6065377E-01;7462;  7.4422038E-01;  0.0000000E+00; -1.2251757E-02;  9.9805096E+02;  1.2318283E-01; -1.6143455E+03;3;  6.7360420E+01;  0.0000000E+00;  4.7212223E+01;0;  5.9088488E+00;  2.6359371E+04;  0.0000000E+00; -3.5207337E-01;  4.0000000E+04;  0.0000000E+00;  3.9835477E+04;  5.8227429E+00;  0.0000000E+00;  8.6105667E-02;  2.1792632E+03;
  8.5424346E-01;  9.9999998E-03; -1.7066535E-01;7461;  7.6145357E-01;  0.0000000E+00; -1.1720430E-02;  9.9736469E+02;  1.2318343E-01; -2.1827903E+03;3;  7.5669876E+01;  0.0000000E+00;  4.6965260E+01;0;  5.7062926E+00;  2.6315021E+04;  0.0000000E+00; -2.9227152E-01;  4.0000000E+04;  0.0000000E+00;  3.9846484E+04;  5.6479015E+00;  0.0000000E+00;  5.8391303E-02;  8.5668640E+02;
  8.5420591E-01;  9.9999998E-03; -1.8068062E-01;7460;  7.8202832E-01;  0.0000000E+00; -1.1006825E-02;  9.9665356E+02;  1.2318413E-01; -2.7718230E+03;3;  8.4226761E+01;  0.0000000E+00;  4.6164234E+01;0;  5.4994144E+00;  2.6269957E+04;  0.0000000E+00; -2.1919788E-01;  4.0000000E+04;  0.0000000E+00;  3.9856547E+04;  5.4688630E+00;  0.0000000E+00;  3.0551275E-02;  8.1796851E+02;
  8.5415816E-01;  9.9999998E-03; -1.9070147E-01;7459;  8.0392396E-01;  0.0000000E+00; -1.0135654E-02;  9.9592474E+02;  1.2318558E-01; -3.3754690E+03;3;  9.2960030E+01;  0.0000000E+00;  4.5310673E+01;0;  5.2914181E+00;  2.6224930E+04;  0.0000000E+00; -1.3447784E-01;  4.0000000E+04;  0.0000000E+00;  3.9865461E+04;  5.2885060E+00;  0.0000000E+00;  2.9121540E-03;  1.8787206E+03;
  8.5409480E-01;  9.9999998E-03; -2.0072192E-01;7458;  8.2625830E-01;  0.0000000E+00; -9.0366974E-03;  9.9518927E+02;  1.2318773E-01; -3.9846943E+03;3;  1.0169467E+02;  0.0000000E+00;  4.4250298E+01;0;  5.0855260E+00;  2.6180549E+04;  0.0000000E+00; -3.5609826E-02;  4.0000000E+04;  0.0000000E+00;  3.9872973E+04;  5.1102972E+00;  0.0000000E+00; -2.4771271E-02;  2.8573806E+03;
  8.5401553E-01;  9.9999998E-03; -2.1072951E-01;7457;  8.4835398E-01;  0.0000000E+00; -7.9247206E-03;  9.9446039E+02;  1.2319024E-01; -4.5883911E+03;3;  1.1008799E+02;  0.0000000E+00;  4.2666531E+01;0;  4.8846817E+00;  2.6137252E+04;  0.0000000E+00;  8.2099579E-02;  4.0000000E+04;  0.0000000E+00;  3.9879793E+04;  4.9377122E+00;  0.0000000E+00; -5.3030681E-02;  3.7605669E+03;
  8.5392684E-01;  9.9999998E-03; -2.2074248E-01;7456;  8.6997175E-01;  0.0000000E+00; -6.7048790E-03;  9.9372870E+02;  1.2319341E-01; -5.1944575E+03;3;  1.1785643E+02;  0.0000000E+00;  4.0909985E+01;0;  4.6903052E+00;  2.6095174E+04;  0.0000000E+00;  2.2090247E-01;  4.0000000E+04;  0.0000000E+00;  3.9884672E+04;  4.7731738E+00;  0.0000000E+00; -8.2868703E-02;  4.4430796E+03;
  8.5381293E-01;  9.9999998E-03; -2.3077193E-01;7455;  8.9134204E-01;  0.0000000E+00; -4.8225969E-03;  9.9294800E+02;  1.2319724E-01; -5.8411069E+03;3;  1.2520513E+02;  0.0000000E+00;  3.9091606E+01;0;  4.5023584E+00;  2.6054564E+04;  0.0000000E+00;  3.7149259E-01;  4.0000000E+04;  0.0000000E+00;  3.9883676E+04;  4.6193738E+00;  0.0000000E+00; -1.1701556E-01;  4.3976211E+03;
  8.5370076E-01;  9.9999998E-03; -2.4081227E-01;7454;  9.1324824E-01;  0.0000000E+00; -1.6749683E-03;  9.9204700E+02;  1.2320281E-01; -6.5873857E+03;3;  1.3094807E+02;  0.0000000E+00;  3.7455978E+01;0;  4.3161612E+00;  2.6014918E+04;  0.0000000E+00;  4.9458179E-01;  4.0000000E+04;  0.0000000E+00;  3.9871746E+04;  4.4777741E+00;  0.0000000E+00; -1.6161308E-01;  3.0545249E+03;
  8.5365659E-01;  9.9999998E-03; -2.5083444E-01;7453;  9.3707508E-01;  0.0000000E+00;  3.6099337E-03;  9.9108655E+02;  1.2321123E-01; -7.3829351E+03;3;  1.3341367E+02;  0.0000000E+00;  3.4773338E+01;0;  4.1172509E+00;  2.5975055E+04;  0.0000000E+00;  5.1820397E-01;  4.0000000E+04;  0.0000000E+00;  3.9855781E+04;  4.3479414E+00;  0.0000000E+00; -2.3069040E-01;  1.3649941E+03;
  8.5372877E-01;  9.9999998E-03; -2.6080927E-01;7452;  9.6730304E-01;  0.0000000E+00;  8.8065742E-03;  9.9039252E+02;  1.2322034E-01; -7.9577964E+03;3;  1.3298569E+02;  0.0000000E+00;  3.0669115E+01;0;  3.9090734E+00;  2.5934082E+04;  0.0000000E+00;  3.9967275E-01;  4.0000000E+04;  0.0000000E+00;  3.9863199E+04;  4.2296600E+00;  0.0000000E+00; -3.2058671E-01;  2.1056707E+03;
  8.5387093E-01;  9.9999998E-03; -2.7075848E-01;7451;  9.9887657E-01;  0.0000000E+00;  8.8359518E-03;  9.9010553E+02;  1.2322803E-01; -8.1955088E+03;3;  1.3447478E+02;  0.0000000E+00;  2.4523748E+01;0;  3.7510076E+00;  2.5893131E+04;  0.0000000E+00;  1.8372053E-01;  4.0000000E+04;  0.0000000E+00;  3.9902918E+04;  4.1217232E+00;  0.0000000E+00; -3.7071568E-01;  6.9732651E+03;
  8.6688995E-01;  9.9999998E-03; -2.7070561E-01;7512;  1.0327243E+00;  0.0000000E+00;  1.4242056E-02;  9.8727051E+02;  1.2320882E-01; -1.0543168E+04;3;  8.3404228E+01;  0.0000000E+00;  2.5714695E+01;0;  3.2354379E+00;  2.5739670E+04;  0.0000000E+00;  4.5962304E-01;  4.0000000E+04;  0.0000000E+00;  3.9943465E+04;  3.5800962E+00;  0.0000000E+00; -3.4465846E-01;  1.2416690E+04;
  8.6666763E-01;  9.9999998E-03; -2.6075545E-01;7513;  1.0090442E+00;  0.0000000E+00;  1.5189840E-02;  9.8766742E+02;  1.2320060E-01; -1.0214440E+04;3;  8.6227875E+01;  0.0000000E+00;  3.1837097E+01;0;  3.4205785E+00;  2.5788994E+04;  0.0000000E+00;  4.5812145E-01;  4.0000000E+04;  0.0000000E+00;  3.9898812E+04;  3.7309613E+00;  0.0000000E+00; -3.1038290E-01;  6.8272725E+03;
  8.6649925E-01;  9.9999998E-03; -2.5078109E-01;7514;  9.8255706E-01;  0.0000000E+00;  1.0838360E-02;  9.8848761E+02;  1.2319013E-01; -9.5351484E+03;3;  9.1578499E+01;  0.0000000E+00;  3.7114243E+01;0;  3.6620867E+00;  2.5840084E+04;  0.0000000E+00;  4.7098202E-01;  4.0000000E+04;  0.0000000E+00;  3.9885434E+04;  3.8934708E+00;  0.0000000E+00; -2.3138405E-01;  5.1093843E+03;
  8.6650825E-01;  9.9999998E-03; -2.4075530E-01;7515;  9.6657056E-01;  0.0000000E+00;  5.0010453E-03;  9.8961163E+02;  1.2318131E-01; -8.6041748E+03;3;  9.1619835E+01;  0.0000000E+00;  3.9480713E+01;0;  3.9042513E+00;  2.5890461E+04;  0.0000000E+00;  4.3473727E-01;  4.0000000E+04;  0.0000000E+00;  3.9897641E+04;  4.0680819E+00;  0.0000000E+00; -1.6383056E-01;  6.5230322E+03;
  8.6659020E-01;  9.9999998E-03; -2.3072203E-01;7516;  9.5281386E-01;  0.0000000E+00;  1.5354744E-03;  9.9066284E+02;  1.2317399E-01; -7.7335254E+03;3;  8.8703392E+01;  0.0000000E+00;  4.0989544E+01;0;  4.1317139E+00;  2.5941531E+04;  0.0000000E+00;  3.3442894E-01;  4.0000000E+04;  0.0000000E+00;  3.9903254E+04;  4.2552881E+00;  0.0000000E+00; -1.2357424E-01;  7.1298145E+03;
  8.6665106E-01;  9.9999998E-03; -2.2070648E-01;7517;  9.3748915E-01;  0.0000000E+00; -7.0926553E-04;  9.9162439E+02;  1.2316874E-01; -6.9370771E+03;3;  8.4727791E+01;  0.0000000E+00;  4.2883846E+01;0;  4.3613567E+00;  2.5994480E+04;  0.0000000E+00;  2.1666664E-01;  4.0000000E+04;  0.0000000E+00;  3.9899445E+04;  4.4555182E+00;  0.0000000E+00; -9.4161637E-02;  6.5569692E+03;
  8.6668760E-01;  9.9999998E-03; -2.1070530E-01;7518;  9.2083204E-01;  0.0000000E+00; -2.2749554E-03;  9.9257288E+02;  1.2316392E-01; -6.1514912E+03;3;  8.0411308E+01;  0.0000000E+00;  4.4211384E+01;0;  4.5977440E+00;  2.6048996E+04;  0.0000000E+00;  1.0747448E-01;  4.0000000E+04;  0.0000000E+00;  3.9892078E+04;  4.6669168E+00;  0.0000000E+00; -6.9172882E-02;  5.5601333E+03;
  8.6671972E-01;  9.9999998E-03; -2.0070630E-01;7519;  9.0379471E-01;  0.0000000E+00; -3.7643102E-03;  9.9353381E+02;  1.2315989E-01; -5.3556357E+03;3;  7.5659119E+01;  0.0000000E+00;  4.5824821E+01;0;  4.8411765E+00;  2.6104816E+04;  0.0000000E+00;  1.3583257E-02;  4.0000000E+04;  0.0000000E+00;  3.9884148E+04;  4.8866353E+00;  0.0000000E+00; -4.5458641E-02;  4.4964673E+03;
  8.6674511E-01;  9.9999998E-03; -1.9069187E-01;7520;  8.8785905E-01;  0.0000000E+00; -5.1775039E-03;  9.9450244E+02;  1.2315661E-01; -4.5533638E+03;3;  7.0527237E+01;  0.0000000E+00;  4.6662170E+01;0;  5.0899777E+00;  2.6161404E+04;  0.0000000E+00; -6.4863317E-02;  4.0000000E+04;  0.0000000E+00;  3.9875953E+04;  5.1119742E+00;  0.0000000E+00; -2.1996416E-02;  3.4011104E+03;
  8.6676085E-01;  9.9999998E-03; -1.8067740E-01;7521;  8.7334716E-01;  0.0000000E+00; -6.3360715E-03;  9.9545142E+02;  1.2315379E-01; -3.7673833E+03;3;  6.5401398E+01;  0.0000000E+00;  4.7120842E+01;0;  5.3404503E+00;  2.6218055E+04;  0.0000000E+00; -1.2996137E-01;  4.0000000E+04;  0.0000000E+00;  3.9866449E+04;  5.3385549E+00;  0.0000000E+00;  1.8954126E-03;  2.1507622E+03;
  8.6676663E-01;  9.9999998E-03; -1.7066692E-01;7522;  8.6021441E-01;  0.0000000E+00; -7.2735846E-03;  9.9636517E+02;  1.2315218E-01; -3.0105300E+03;3;  6.0607841E+01;  0.0000000E+00;  4.7953255E+01;0;  5.5884781E+00;  2.6273928E+04;  0.0000000E+00; -1.8402985E-01;  4.0000000E+04;  0.0000000E+00;  3.9855609E+04;  5.5619216E+00;  0.0000000E+00;  2.6556648E-02;  8.2717212E+02;
  8.6675942E-01;  9.9999998E-03; -1.6065763E-01;7523;  8.4866709E-01;  0.0000000E+00; -7.9851979E-03;  9.9722589E+02;  1.2315060E-01; -2.2976631E+03;3;  5.6135387E+01;  0.0000000E+00;  4.8197411E+01;0;  5.8299546E+00;  2.6328023E+04;  0.0000000E+00; -2.2732884E-01;  4.0000000E+04;  0.0000000E+00;  3.9843598E+04;  5.7782059E+00;  0.0000000E+00;  5.1748820E-02;  1.0186091E+03;
  8.6673349E-01;  9.9999998E-03; -1.5064734E-01;7524;  8.3890307E-01;  0.0000000E+00; -8.4479852E-03;  9.9801495E+02;  1.2315067E-01; -1.6441360E+03;3;  5.2267551E+01;  0.0000000E+00;  4.8641415E+01;0;  6.0609617E+00;  2.6379432E+04;  0.0000000E+00; -2.5706998E-01;  4.0000000E+04;  0.0000000E+00;  3.9830320E+04;  5.9842677E+00;  0.0000000E+00;  7.6693863E-02;  2.6674011E+03;
  8.6667848E-01;  9.9999998E-03; -1.4063443E-01;7525;  8.3017701E-01;  0.0000000E+00; -8.6203683E-03;  9.9871429E+02;  1.2315118E-01; -1.0649071E+03;3;  4.8981483E+01;  0.0000000E+00;  4.8774933E+01;0;  6.2779746E+00;  2.6427074E+04;  0.0000000E+00; -2.6933444E-01;  4.0000000E+04;  0.0000000E+00;  3.9815582E+04;  6.1777811E+00;  0.0000000E+00;  1.0019333E-01;  4.5418325E+03;
  8.6659056E-01;  9.9999998E-03; -1.3061973E-01;7526;  8.2209861E-01;  0.0000000E+00; -8.3888182E-03;  9.9930585E+02;  1.2315214E-01; -5.7493451E+02;3;  4.6331093E+01;  0.0000000E+00;  4.8875290E+01;0;  6.4781194E+00;  2.6470160E+04;  0.0000000E+00; -2.6221502E-01;  4.0000000E+04;  0.0000000E+00;  3.9799387E+04;  6.3572607E+00;  0.0000000E+00;  1.2085858E-01;  6.6090029E+03;
  8.6647284E-01;  9.9999998E-03; -1.2060592E-01;7527;  8.1457120E-01;  0.0000000E+00; -7.5796442E-03;  9.9977325E+02;  1.2315369E-01; -1.8779427E+02;3;  4.4282692E+01;  0.0000000E+00;  4.9133385E+01;0;  6.6590962E+00;  2.6507943E+04;  0.0000000E+00; -2.3690696E-01;  4.0000000E+04;  0.0000000E+00;  3.9781605E+04;  6.5217505E+00;  0.0000000E+00;  1.3734588E-01;  8.8736133E+03;
  8.6633116E-01;  9.9999998E-03; -1.1059443E-01;7528;  8.0739856E-01;  0.0000000E+00; -6.1253919E-03;  1.0001121E+03;  1.2315596E-01;  9.2811104E+01;3;  4.2798367E+01;  0.0000000E+00;  4.9674023E+01;0;  6.8191609E+00;  2.6539764E+04;  0.0000000E+00; -1.9761454E-01;  4.0000000E+04;  0.0000000E+00;  3.9762355E+04;  6.6707363E+00;  0.0000000E+00;  1.4842440E-01;  1.1313288E+04;
  8.8003403E-01;  9.9999998E-03; -2.7065116E-01;7573;  1.0426244E+00;  0.0000000E+00;  1.8529691E-02;  9.8566626E+02;  1.2311794E-01; -1.1871171E+04;3;  1.6437918E+01;  0.0000000E+00;  2.9996540E+01;0;  2.7879760E+00;  2.5683377E+04;  0.0000000E+00;  1.0550441E+00;  4.0000000E+04;  0.0000000E+00;  3.9973598E+04;  3.1021900E+00;  0.0000000E+00; -3.1421402E-01;  1.6509051E+04;
  8.7975866E-01;  9.9999998E-03; -2.6069346E-01;7574;  1.0285776E+00;  0.0000000E+00;  1.9452952E-02;  9.8611823E+02;  1.2311020E-01; -1.1496904E+04;3;  3.5423050E+01;  0.0000000E+00;  3.3591564E+01;0;  2.9902763E+00;  2.5734861E+04;  0.0000000E+00;  7.9673839E-01;  4.0000000E+04;  0.0000000E+00;  3.9929457E+04;  3.2756526E+00;  0.0000000E+00; -2.8537628E-01;  1.0936479E+04;
  8.7954211E-01;  9.9999998E-03; -2.5071600E-01;7575;  1.0115573E+00;  0.0000000E+00;  1.5407208E-02;  9.8695642E+02;  1.2310015E-01; -1.0802702E+04;3;  4.2358440E+01;  0.0000000E+00;  3.8381145E+01;0;  3.2479620E+00;  2.5789416E+04;  0.0000000E+00;  6.1441451E-01;  4.0000000E+04;  0.0000000E+00;  3.9911621E+04;  3.4625969E+00;  0.0000000E+00; -2.1463494E-01;  8.6175693E+03;
  8.7950951E-01;  9.9999998E-03; -2.4068911E-01;7576;  1.0056241E+00;  0.0000000E+00;  9.5267361E-03;  9.8812744E+02;  1.2309136E-01; -9.8328379E+03;3;  4.4889091E+01;  0.0000000E+00;  3.9951996E+01;0;  3.5089633E+00;  2.5845336E+04;  0.0000000E+00;  4.7878727E-01;  4.0000000E+04;  0.0000000E+00;  3.9918633E+04;  3.6620736E+00;  0.0000000E+00; -1.5311037E-01;  9.3562812E+03;
  8.7952930E-01;  9.9999998E-03; -2.3066613E-01;7577;  1.0007051E+00;  0.0000000E+00;  5.7763392E-03;  9.8922272E+02;  1.2308419E-01; -8.9257617E+03;3;  4.4475399E+01;  0.0000000E+00;  4.1041973E+01;0;  3.7565465E+00;  2.5902949E+04;  0.0000000E+00;  3.4713721E-01;  4.0000000E+04;  0.0000000E+00;  3.9917316E+04;  3.8746846E+00;  0.0000000E+00; -1.1813797E-01;  9.0846338E+03;
  8.7950802E-01;  9.9999998E-03; -2.2066350E-01;7578;  9.9195099E-01;  0.0000000E+00;  3.4384753E-03;  9.9026733E+02;  1.2307864E-01; -8.0605991E+03;3;  4.4121944E+01;  0.0000000E+00;  4.3433983E+01;0;  4.0060987E+00;  2.5962693E+04;  0.0000000E+00;  2.2783589E-01;  4.0000000E+04;  0.0000000E+00;  3.9908988E+04;  4.1007428E+00;  0.0000000E+00; -9.4644293E-02;  7.9567480E+03;
  8.7946874E-01;  9.9999998E-03; -2.1067137E-01;7579;  9.8127621E-01;  0.0000000E+00;  1.5949452E-03;  9.9133270E+02;  1.2307318E-01; -7.1782573E+03;3;  4.3389179E+01;  0.0000000E+00;  4.3860889E+01;0;  4.2631097E+00;  2.6024088E+04;  0.0000000E+00;  1.2803762E-01;  4.0000000E+04;  0.0000000E+00;  3.9899828E+04;  4.3380713E+00;  0.0000000E+00; -7.4961685E-02;  6.7204902E+03;
  8.7943089E-01;  9.9999998E-03; -2.0067944E-01;7580;  9.7087127E-01;  0.0000000E+00; -2.3314702E-04;  9.9242407E+02;  1.2306854E-01; -6.2743926E+03;3;  4.2772919E+01;  0.0000000E+00;  4.5254333E+01;0;  4.5276093E+00;  2.6086811E+04;  0.0000000E+00;  4.8496384E-02;  4.0000000E+04;  0.0000000E+00;  3.9891211E+04;  4.5837808E+00;  0.0000000E+00; -5.6171216E-02;  5.5432554E+03;
  8.7939143E-01;  9.9999998E-03; -1.9067025E-01;7581;  9.6150911E-01;  0.0000000E+00; -1.8729435E-03;  9.9352740E+02;  1.2306460E-01; -5.3606050E+03;3;  4.1904346E+01;  0.0000000E+00;  4.5827202E+01;0;  4.7973266E+00;  2.6150332E+04;  0.0000000E+00; -1.1847823E-02;  4.0000000E+04;  0.0000000E+00;  3.9882570E+04;  4.8346734E+00;  0.0000000E+00; -3.7346624E-02;  4.3834819E+03;
  8.7935013E-01;  9.9999998E-03; -1.8066123E-01;7582;  9.5337468E-01;  0.0000000E+00; -3.3070992E-03;  9.9460785E+02;  1.2306170E-01; -4.4657734E+03;3;  4.1329021E+01;  0.0000000E+00;  4.6550724E+01;0;  5.0681448E+00;  2.6213719E+04;  0.0000000E+00; -5.5317279E-02;  4.0000000E+04;  0.0000000E+00;  3.9872785E+04;  5.0858140E+00;  0.0000000E+00; -1.7669391E-02;  3.0704878E+03;
  8.7930989E-01;  9.9999998E-03; -1.7065533E-01;7583;  9.4638962E-01;  0.0000000E+00; -4.5082010E-03;  9.9564795E+02;  1.2305991E-01; -3.6043606E+03;3;  4.1115730E+01;  0.0000000E+00;  4.7327213E+01;0;  5.3354702E+00;  2.6276023E+04;  0.0000000E+00; -8.5351579E-02;  4.0000000E+04;  0.0000000E+00;  3.9861703E+04;  5.3322978E+00;  0.0000000E+00;  3.1722642E-03;  1.6125323E+03;
  8.7926465E-01;  9.9999998E-03; -1.6064972E-01;7584;  9.4057894E-01;  0.0000000E+00; -5.3894115E-03;  9.9662616E+02;  1.2305913E-01; -2.7942378E+03;3;  4.1202564E+01;  0.0000000E+00;  4.7683266E+01;0;  5.5949082E+00;  2.6336096E+04;  0.0000000E+00; -1.0462514E-01;  4.0000000E+04;  0.0000000E+00;  3.9849422E+04;  5.5699353E+00;  0.0000000E+00;  2.4972688E-02;  2.8123312E+02;
  8.7920678E-01;  9.9999998E-03; -1.5064169E-01;7585;  9.3549126E-01;  0.0000000E+00; -6.0359631E-03;  9.9751465E+02;  1.2305899E-01; -2.0583594E+03;3;  4.1696461E+01;  0.0000000E+00;  4.7985893E+01;0;  5.8424063E+00;  2.6392766E+04;  0.0000000E+00; -1.1382514E-01;  4.0000000E+04;  0.0000000E+00;  3.9835762E+04;  5.7953897E+00;  0.0000000E+00;  4.7016751E-02;  1.8388798E+03;
  8.7913173E-01;  9.9999998E-03; -1.4062999E-01;7586;  9.3104100E-01;  0.0000000E+00; -6.3547762E-03;  9.9829840E+02;  1.2305947E-01; -1.4092637E+03;3;  4.2628799E+01;  0.0000000E+00;  4.8150829E+01;0;  6.0745301E+00;  2.6444803E+04;  0.0000000E+00; -1.1255954E-01;  4.0000000E+04;  0.0000000E+00;  3.9820691E+04;  6.0063858E+00;  0.0000000E+00;  6.8144321E-02;  3.7737488E+03;
  8.7903976E-01;  9.9999998E-03; -1.3061520E-01;7587;  9.2718488E-01;  0.0000000E+00; -6.3597970E-03;  9.9895599E+02;  1.2306143E-01; -8.6467255E+02;3;  4.3938427E+01;  0.0000000E+00;  4.8228497E+01;0;  6.2885203E+00;  2.6491359E+04;  0.0000000E+00; -1.0121496E-01;  4.0000000E+04;  0.0000000E+00;  3.9804164E+04;  6.2015152E+00;  0.0000000E+00;  8.7005362E-02;  5.8855659E+03;
  8.7893218E-01;  9.9999998E-03; -1.2060119E-01;7588;  9.2363471E-01;  0.0000000E+00; -5.9907194E-03;  9.9947424E+02;  1.2306395E-01; -4.3544647E+02;3;  4.5560116E+01;  0.0000000E+00;  4.8271481E+01;0;  6.4821577E+00;  2.6531686E+04;  0.0000000E+00; -8.1570230E-02;  4.0000000E+04;  0.0000000E+00;  3.9786246E+04;  6.3798709E+00;  0.0000000E+00;  1.0228676E-01;  8.1703120E+03;
  8.7881124E-01;  9.9999998E-03; -1.1058836E-01;7589;  9.2021745E-01;  0.0000000E+00; -5.1976810E-03;  9.9984821E+02;  1.2306744E-01; -1.2573211E+02;3;  4.7423557E+01;  0.0000000E+00;  4.8364620E+01;0;  6.6538215E+00;  2.6565234E+04;  0.0000000E+00; -5.6610018E-02;  4.0000000E+04;  0.0000000E+00;  3.9767086E+04;  6.5410314E+00;  0.0000000E+00;  1.1279006E-01;  1.0598749E+04;
  8.9327043E-01;  9.9999998E-03; -2.7060708E-01;7634;  1.0430741E+00;  0.0000000E+00;  2.0588648E-02;  9.8563568E+02;  1.2292480E-01; -1.1895604E+04;3; -3.9667217E+01;  0.0000000E+00;  3.0776274E+01;0;  2.4928832E+00;  2.5759600E+04;  0.0000000E+00;  1.4453250E+00;  4.0000000E+04;  0.0000000E+00;  3.9983008E+04;  2.7644088E+00;  0.0000000E+00; -2.7152553E-01;  1.7812588E+04;
  8.9294255E-01;  9.9999998E-03; -2.6064193E-01;7635;  1.0380243E+00;  0.0000000E+00;  2.0908345E-02;  9.8604755E+02;  1.2291921E-01; -1.1554543E+04;3; -1.8080379E+01;  0.0000000E+00;  3.1855028E+01;0;  2.6941690E+00;  2.5806646E+04;  0.0000000E+00;  1.1073736E+00;  4.0000000E+04;  0.0000000E+00;  3.9941887E+04;  2.9369547E+00;  0.0000000E+00; -2.4278571E-01;  1.2620014E+04;
  8.9267468E-01;  9.9999998E-03; -2.5066039E-01;7636;  1.0306405E+00;  0.0000000E+00;  1.7196074E-02;  9.8680859E+02;  1.2291164E-01; -1.0924322E+04;3; -9.1691408E+00;  0.0000000E+00;  3.6486122E+01;0;  2.9419084E+00;  2.5857641E+04;  0.0000000E+00;  8.1667733E-01;  4.0000000E+04;  0.0000000E+00;  3.9923059E+04;  3.1242433E+00;  0.0000000E+00; -1.8233499E-01;  1.0153918E+04;
  8.9258236E-01;  9.9999998E-03; -2.4063277E-01;7637;  1.0324945E+00;  0.0000000E+00;  1.2158555E-02;  9.8791980E+02;  1.2290397E-01; -1.0004092E+04;3; -6.5559278E+00;  0.0000000E+00;  3.9084381E+01;0;  3.1919253E+00;  2.5912246E+04;  0.0000000E+00;  6.0353208E-01;  4.0000000E+04;  0.0000000E+00;  3.9927109E+04;  3.3240299E+00;  0.0000000E+00; -1.3210458E-01;  1.0515459E+04;
  8.9250612E-01;  9.9999998E-03; -2.3061793E-01;7638;  1.0330356E+00;  0.0000000E+00;  9.5025254E-03;  9.8895215E+02;  1.2289852E-01; -9.1491631E+03;3; -5.1402535E+00;  0.0000000E+00;  4.0694542E+01;0;  3.4308507E+00;  2.5968900E+04;  0.0000000E+00;  4.3469733E-01;  4.0000000E+04;  0.0000000E+00;  3.9921531E+04;  3.5374851E+00;  0.0000000E+00; -1.0663442E-01;  9.7088350E+03;
  8.9238554E-01;  9.9999998E-03; -2.2062168E-01;7639;  1.0298584E+00;  0.0000000E+00;  7.2330125E-03;  9.8996088E+02;  1.2289334E-01; -8.3138330E+03;3; -1.7264048E+00;  0.0000000E+00;  4.1017738E+01;0;  3.6765575E+00;  2.6027521E+04;  0.0000000E+00;  2.9794955E-01;  4.0000000E+04;  0.0000000E+00;  3.9911402E+04;  3.7646284E+00;  0.0000000E+00; -8.8070944E-02;  8.3516064E+03;
  8.9225203E-01;  9.9999998E-03; -2.1063387E-01;7640;  1.0252199E+00;  0.0000000E+00;  5.0749341E-03;  9.9100250E+02;  1.2288883E-01; -7.4512056E+03;3;  2.5278661E+00;  0.0000000E+00;  4.1957809E+01;0;  3.9306681E+00;  2.6087938E+04;  0.0000000E+00;  1.9285400E-01;  4.0000000E+04;  0.0000000E+00;  3.9901766E+04;  4.0031309E+00;  0.0000000E+00; -7.2462745E-02;  7.0428013E+03;
  8.9212394E-01;  9.9999998E-03; -2.0064434E-01;7641;  1.0206003E+00;  0.0000000E+00;  3.1077415E-03;  9.9208502E+02;  1.2288467E-01; -6.5547139E+03;3;  6.7436614E+00;  0.0000000E+00;  4.3286514E+01;0;  4.1917930E+00;  2.6149924E+04;  0.0000000E+00;  1.1562186E-01;  4.0000000E+04;  0.0000000E+00;  3.9893094E+04;  4.2499313E+00;  0.0000000E+00; -5.8138255E-02;  5.8605220E+03;
  8.9200687E-01;  9.9999998E-03; -1.9063798E-01;7642;  1.0169528E+00;  0.0000000E+00;  1.3949117E-03;  9.9319067E+02;  1.2288107E-01; -5.6391187E+03;3;  1.0869986E+01;  0.0000000E+00;  4.3738892E+01;0;  4.4577169E+00;  2.6213217E+04;  0.0000000E+00;  6.1749171E-02;  4.0000000E+04;  0.0000000E+00;  3.9884703E+04;  4.5014381E+00;  0.0000000E+00; -4.3721341E-02;  4.7142588E+03;
  8.9189744E-01;  9.9999998E-03; -1.8063235E-01;7643;  1.0146412E+00;  0.0000000E+00; -1.0363175E-04;  9.9428162E+02;  1.2287883E-01; -4.7356646E+03;3;  1.5106051E+01;  0.0000000E+00;  4.4535412E+01;0;  4.7244291E+00;  2.6276727E+04;  0.0000000E+00;  2.7109191E-02;  4.0000000E+04;  0.0000000E+00;  3.9875160E+04;  4.7527452E+00;  0.0000000E+00; -2.8316122E-02;  3.4273596E+03;
  8.9179850E-01;  9.9999998E-03; -1.7062880E-01;7644;  1.0135492E+00;  0.0000000E+00; -1.3274597E-03;  9.9534180E+02;  1.2287731E-01; -3.8576790E+03;3;  1.9622597E+01;  0.0000000E+00;  4.5167065E+01;0;  4.9873052E+00;  2.6339623E+04;  0.0000000E+00;  7.8187808E-03;  4.0000000E+04;  0.0000000E+00;  3.9864488E+04;  4.9989142E+00;  0.0000000E+00; -1.1608910E-02;  1.9995504E+03;
  8.9171100E-01;  9.9999998E-03; -1.6062553E-01;7645;  1.0134045E+00;  0.0000000E+00; -2.2438634E-03;  9.9635034E+02;  1.2287670E-01; -3.0224392E+03;3;  2.4508049E+01;  0.0000000E+00;  4.5586697E+01;0;  5.2416897E+00;  2.6400727E+04;  0.0000000E+00;  5.0900155E-04;  4.0000000E+04;  0.0000000E+00;  3.9852457E+04;  5.2354579E+00;  0.0000000E+00;  6.2315883E-03;  4.2786169E+02;
  8.9162695E-01;  9.9999998E-03; -1.5062086E-01;7646;  1.0139322E+00;  0.0000000E+00; -2.8643170E-03;  9.9728088E+02;  1.2287719E-01; -2.2518123E+03;3;  2.9594240E+01;  0.0000000E+00;  4.6003845E+01;0;  5.4835901E+00;  2.6458920E+04;  0.0000000E+00;  2.5265978E-03;  4.0000000E+04;  0.0000000E+00;  3.9839410E+04;  5.4590359E+00;  0.0000000E+00;  2.4554016E-02;  1.2900084E+03;
  8.9154285E-01;  9.9999998E-03; -1.4061196E-01;7647;  1.0151684E+00;  0.0000000E+00; -3.2478012E-03;  9.9811188E+02;  1.2287860E-01; -1.5636183E+03;3;  3.4917053E+01;  0.0000000E+00;  4.6233971E+01;0;  5.7097206E+00;  2.6512809E+04;  0.0000000E+00;  1.1810088E-02;  4.0000000E+04;  0.0000000E+00;  3.9825047E+04;  5.6674008E+00;  0.0000000E+00;  4.2319916E-02;  3.1521240E+03;
  8.9146215E-01;  9.9999998E-03; -1.3059935E-01;7648;  1.0168568E+00;  0.0000000E+00; -3.3992510E-03;  9.9882812E+02;  1.2288086E-01; -9.7049316E+02;3;  4.0338573E+01;  0.0000000E+00;  4.6268742E+01;0;  5.9173160E+00;  2.6561586E+04;  0.0000000E+00;  2.6337167E-02;  4.0000000E+04;  0.0000000E+00;  3.9809504E+04;  5.8590298E+00;  0.0000000E+00;  5.8286060E-02;  5.1581445E+03;
  8.9138180E-01;  9.9999998E-03; -1.2058592E-01;7649;  1.0185243E+00;  0.0000000E+00; -3.3407859E-03;  9.9941327E+02;  1.2288377E-01; -4.8591318E+02;3;  4.5757687E+01;  0.0000000E+00;  4.6220921E+01;0;  6.1044202E+00;  2.6604391E+04;  0.0000000E+00;  4.3613579E-02;  4.0000000E+04;  0.0000000E+00;  3.9792734E+04;  6.0331774E+00;  0.0000000E+00;  7.1242787E-02;  7.3039849E+03;
  8.9129937E-01;  9.9999998E-03; -1.1057240E-01;7650;  1.0200020E+00;  0.0000000E+00; -3.1400213E-03;  9.9986249E+02;  1.2288754E-01; -1.1387671E+02;3;  5.1067291E+01;  0.0000000E+00;  4.5977772E+01;0;  6.2696953E+00;  2.6640666E+04;  0.0000000E+00;  6.0967982E-02;  4.0000000E+04;  0.0000000E+00;  3.9775059E+04;  6.1896152E+00;  0.0000000E+00;  8.0079861E-02;  9.5593594E+03;
  9.0649831E-01;  9.9999998E-03; -2.7057317E-01;7695;  1.0403663E+00;  0.0000000E+00;  1.9646518E-02;  9.8724683E+02;  1.2259565E-01; -1.0560418E+04;3; -7.4043961E+01;  0.0000000E+00;  2.5157965E+01;0;  2.3996739E+00;  2.5985580E+04;  0.0000000E+00;  1.1478095E+00;  4.0000000E+04;  0.0000000E+00;  3.9973805E+04;  2.6091893E+00;  0.0000000E+00; -2.0951533E-01;  1.6423537E+04;
  9.0610814E-01;  9.9999998E-03; -2.6060012E-01;7696;  1.0400641E+00;  0.0000000E+00;  1.9812355E-02;  9.8752386E+02;  1.2259370E-01; -1.0331040E+04;3; -6.3504242E+01;  0.0000000E+00;  2.6476858E+01;0;  2.5720389E+00;  2.6021684E+04;  0.0000000E+00;  1.0604776E+00;  4.0000000E+04;  0.0000000E+00;  3.9938078E+04;  2.7587409E+00;  0.0000000E+00; -1.8670207E-01;  1.2012184E+04;
  9.0577781E-01;  9.9999998E-03; -2.5060865E-01;7697;  1.0398040E+00;  0.0000000E+00;  1.6404534E-02;  9.8814612E+02;  1.2258989E-01; -9.8157842E+03;3; -5.5343018E+01;  0.0000000E+00;  3.0505669E+01;0;  2.7855527E+00;  2.6062143E+04;  0.0000000E+00;  8.7914944E-01;  4.0000000E+04;  0.0000000E+00;  3.9923516E+04;  2.9230459E+00;  0.0000000E+00; -1.3749324E-01;  1.0133840E+04;
  9.0559369E-01;  9.9999998E-03; -2.4057752E-01;7698;  1.0449216E+00;  0.0000000E+00;  1.3157225E-02;  9.8907306E+02;  1.2258448E-01; -9.0482529E+03;3; -5.5410469E+01;  0.0000000E+00;  3.2699055E+01;0;  2.9954467E+00;  2.6107420E+04;  0.0000000E+00;  6.9934016E-01;  4.0000000E+04;  0.0000000E+00;  3.9927055E+04;  3.1000051E+00;  0.0000000E+00; -1.0455836E-01;  1.0446053E+04;
  9.0541780E-01;  9.9999998E-03; -2.3057081E-01;7699;  1.0486927E+00;  0.0000000E+00;  1.1278003E-02;  9.8988483E+02;  1.2258098E-01; -8.3760264E+03;3; -5.0744152E+01;  0.0000000E+00;  3.3636822E+01;0;  3.2030182E+00;  2.6154881E+04;  0.0000000E+00;  5.4129398E-01;  4.0000000E+04;  0.0000000E+00;  3.9918086E+04;  3.2900033E+00;  0.0000000E+00; -8.6985134E-02;  9.2353770E+03;
  9.0521300E-01;  9.9999998E-03; -2.2058147E-01;7700;  1.0506468E+00;  0.0000000E+00;  9.4915600E-03;  9.9069836E+02;  1.2257784E-01; -7.7024189E+03;3; -4.3814896E+01;  0.0000000E+00;  3.4307781E+01;0;  3.4190240E+00;  2.6204078E+04;  0.0000000E+00;  4.0927020E-01;  4.0000000E+04;  0.0000000E+00;  3.9906914E+04;  3.4927928E+00;  0.0000000E+00; -7.3768914E-02;  7.7558740E+03;
  9.0500528E-01;  9.9999998E-03; -2.1059692E-01;7701;  1.0521942E+00;  0.0000000E+00;  7.8305993E-03;  9.9156989E+02;  1.2257495E-01; -6.9807349E+03;3; -3.6092373E+01;  0.0000000E+00;  3.5523869E+01;0;  3.6435685E+00;  2.6255348E+04;  0.0000000E+00;  3.0737707E-01;  4.0000000E+04;  0.0000000E+00;  3.9897598E+04;  3.7064502E+00;  0.0000000E+00; -6.2881716E-02;  6.4998179E+03;
  9.0480125E-01;  9.9999998E-03; -2.0060597E-01;7702;  1.0537940E+00;  0.0000000E+00;  6.3090655E-03;  9.9250024E+02;  1.2257227E-01; -6.2103335E+03;3; -2.7732216E+01;  0.0000000E+00;  3.6593407E+01;0;  3.8756614E+00;  2.6308641E+04;  0.0000000E+00;  2.3164476E-01;  4.0000000E+04;  0.0000000E+00;  3.9889797E+04;  3.9284921E+00;  0.0000000E+00; -5.2830778E-02;  5.4384395E+03;
  9.0460443E-01;  9.9999998E-03; -1.9059888E-01;7703;  1.0559990E+00;  0.0000000E+00;  5.0140084E-03;  9.9346448E+02;  1.2257015E-01; -5.4118950E+03;3; -1.9051317E+01;  0.0000000E+00;  3.7709076E+01;0;  4.1129541E+00;  2.6363791E+04;  0.0000000E+00;  1.7596148E-01;  4.0000000E+04;  0.0000000E+00;  3.9882184E+04;  4.1555009E+00;  0.0000000E+00; -4.2546745E-02;  4.4089946E+03;
  9.0441507E-01;  9.9999998E-03; -1.8059342E-01;7704;  1.0593036E+00;  0.0000000E+00;  3.9443788E-03;  9.9443689E+02;  1.2256908E-01; -4.6066914E+03;3; -1.0203093E+01;  0.0000000E+00;  3.8811375E+01;0;  4.3515282E+00;  2.6420162E+04;  0.0000000E+00;  1.3510701E-01;  4.0000000E+04;  0.0000000E+00;  3.9873656E+04;  4.3828406E+00;  0.0000000E+00; -3.1312522E-02;  3.2505732E+03;
  9.0424877E-01;  9.9999998E-03; -1.7059068E-01;7705;  1.0635378E+00;  0.0000000E+00;  3.0703195E-03;  9.9540546E+02;  1.2256889E-01; -3.8046436E+03;3; -9.8681462E-01;  0.0000000E+00;  3.9799599E+01;0;  4.5866599E+00;  2.6477213E+04;  0.0000000E+00;  1.0606661E-01;  4.0000000E+04;  0.0000000E+00;  3.9864074E+04;  4.6055064E+00;  0.0000000E+00; -1.8846415E-02;  1.9734908E+03;
  9.0411520E-01;  9.9999998E-03; -1.6058861E-01;7706;  1.0688992E+00;  0.0000000E+00;  2.4427199E-03;  9.9634814E+02;  1.2256910E-01; -3.0240146E+03;3;  8.4177465E+00;  0.0000000E+00;  4.0727623E+01;0;  4.8135633E+00;  2.6533977E+04;  0.0000000E+00;  8.7529033E-02;  4.0000000E+04;  0.0000000E+00;  3.9853387E+04;  4.8188720E+00;  0.0000000E+00; -5.3088279E-03;  6.2220667E+02;
  9.0401006E-01;  9.9999998E-03; -1.5058453E-01;7707;  1.0751364E+00;  0.0000000E+00;  2.0566834E-03;  9.9724908E+02;  1.2256984E-01; -2.2779827E+03;3;  1.7958141E+01;  0.0000000E+00;  4.1452011E+01;0;  5.0282388E+00;  2.6589291E+04;  0.0000000E+00;  7.8427903E-02;  4.0000000E+04;  0.0000000E+00;  3.9841797E+04;  5.0194874E+00;  0.0000000E+00;  8.7514510E-03;  1.0406204E+03;
  9.0392685E-01;  9.9999998E-03; -1.4057718E-01;7708;  1.0818704E+00;  0.0000000E+00;  1.8773540E-03;  9.9808362E+02;  1.2257157E-01; -1.5869337E+03;3;  2.7511616E+01;  0.0000000E+00;  4.1906490E+01;0;  5.2275615E+00;  2.6642100E+04;  0.0000000E+00;  7.7338837E-02;  4.0000000E+04;  0.0000000E+00;  3.9829184E+04;  5.2050939E+00;  0.0000000E+00;  2.2467807E-02;  2.6597339E+03;
  9.0386695E-01;  9.9999998E-03; -1.3056545E-01;7709;  1.0891250E+00;  0.0000000E+00;  1.8599477E-03;  9.9883820E+02;  1.2257371E-01; -9.6207153E+02;3;  3.6891651E+01;  0.0000000E+00;  4.2133354E+01;0;  5.4089379E+00;  2.6691385E+04;  0.0000000E+00;  8.2425013E-02;  4.0000000E+04;  0.0000000E+00;  3.9815656E+04;  5.3741493E+00;  0.0000000E+00;  3.4788594E-02;  4.4131226E+03;
  9.0382552E-01;  9.9999998E-03; -1.2054993E-01;7710;  1.0966769E+00;  0.0000000E+00;  1.9373666E-03;  9.9949402E+02;  1.2257668E-01; -4.1899387E+02;3;  4.5962788E+01;  0.0000000E+00;  4.2237022E+01;0;  5.5706754E+00;  2.6736256E+04;  0.0000000E+00;  9.1373920E-02;  4.0000000E+04;  0.0000000E+00;  3.9801160E+04;  5.5260172E+00;  0.0000000E+00;  4.4658393E-02;  6.2770542E+03;
  9.0379065E-01;  9.9999998E-03; -1.1053345E-01;7711;  1.1038604E+00;  0.0000000E+00;  1.9933793E-03;  1.0000414E+03;  1.2258015E-01;  3.4253948E+01;3;  5.4607323E+01;  0.0000000E+00;  4.2133465E+01;0;  5.7119660E+00;  2.6775957E+04;  0.0000000E+00;  1.0170297E-01;  4.0000000E+04;  0.0000000E+00;  3.9785871E+04;  5.6608582E+00;  0.0000000E+00;  5.1107708E-02;  8.2207012E+03;
  9.1969734E-01;  9.9999998E-03; -2.7054775E-01;7756;  1.0395154E+00;  0.0000000E+00;  1.6429890E-02;  9.9044598E+02;  1.2213787E-01; -7.9104414E+03;3; -1.0828973E+02;  0.0000000E+00;  1.2195169E+01;0;  2.5022595E+00;  2.6357396E+04;  0.0000000E+00;  1.8907946E-01;  4.0000000E+04;  0.0000000E+00;  3.9950422E+04;  2.6386294E+00;  0.0000000E+00; -1.3636991E-01;  1.3024771E+04;
  9.1924948E-01;  9.9999998E-03; -2.6056457E-01;7757;  1.0439041E+00;  0.0000000E+00;  1.7006649E-02;  9.9052911E+02;  1.2213957E-01; -7.8416289E+03;3; -1.0540424E+02;  0.0000000E+00;  1.3543289E+01;0;  2.6207595E+00;  2.6377281E+04;  0.0000000E+00;  6.0904950E-01;  4.0000000E+04;  0.0000000E+00;  3.9923188E+04;  2.7470262E+00;  0.0000000E+00; -1.2626675E-01;  9.7203799E+03;
  9.1885233E-01;  9.9999998E-03; -2.5056162E-01;7758;  1.0482388E+00;  0.0000000E+00;  1.4214234E-02;  9.9092242E+02;  1.2213998E-01; -7.5159888E+03;3; -1.0003678E+02;  0.0000000E+00;  1.5558571E+01;0;  2.7783694E+00;  2.6401256E+04;  0.0000000E+00;  7.2099668E-01;  4.0000000E+04;  0.0000000E+00;  3.9914926E+04;  2.8690109E+00;  0.0000000E+00; -9.0641387E-02;  8.7354785E+03;
  9.1855782E-01;  9.9999998E-03; -2.4052978E-01;7759;  1.0540519E+00;  0.0000000E+00;  1.1795063E-02;  9.9153638E+02;  1.2213873E-01; -7.0076909E+03;3; -9.4057472E+01;  0.0000000E+00;  1.8328131E+01;0;  2.9344475E+00;  2.6430150E+04;  0.0000000E+00;  6.8433905E-01;  4.0000000E+04;  0.0000000E+00;  3.9917871E+04;  3.0035033E+00;  0.0000000E+00; -6.9055811E-02;  9.0586475E+03;
  9.1829532E-01;  9.9999998E-03; -2.3052783E-01;7760;  1.0602210E+00;  0.0000000E+00;  1.0594455E-02;  9.9202588E+02;  1.2213782E-01; -6.6024336E+03;3; -8.5113472E+01;  0.0000000E+00;  1.9773046E+01;0;  3.0896060E+00;  2.6461676E+04;  0.0000000E+00;  6.0186988E-01;  4.0000000E+04;  0.0000000E+00;  3.9907609E+04;  3.1491265E+00;  0.0000000E+00; -5.9520394E-02;  7.7444062E+03;
  9.1802233E-01;  9.9999998E-03; -2.2054343E-01;7761;  1.0659126E+00;  0.0000000E+00;  9.4587291E-03;  9.9253851E+02;  1.2213718E-01; -6.1779766E+03;3; -7.5384102E+01;  0.0000000E+00;  2.1731878E+01;0;  3.2531948E+00;  2.6494988E+04;  0.0000000E+00;  5.1353234E-01;  4.0000000E+04;  0.0000000E+00;  3.9896402E+04;  3.3056920E+00;  0.0000000E+00; -5.2497100E-02;  6.3180464E+03;
  9.1773415E-01;  9.9999998E-03; -2.1056265E-01;7762;  1.0710039E+00;  0.0000000E+00;  8.2445946E-03;  9.9312030E+02;  1.2213682E-01; -5.6962710E+03;3; -6.4405411E+01;  0.0000000E+00;  2.3264454E+01;0;  3.4259231E+00;  2.6530145E+04;  0.0000000E+00;  4.3547076E-01;  4.0000000E+04;  0.0000000E+00;  3.9888023E+04;  3.4724677E+00;  0.0000000E+00; -4.6544660E-02;  5.2255439E+03;
  9.1745031E-01;  9.9999998E-03; -2.0057260E-01;7763;  1.0766703E+00;  0.0000000E+00;  7.1707293E-03;  9.9377484E+02;  1.2213656E-01; -5.1543535E+03;3; -5.2667725E+01;  0.0000000E+00;  2.4992008E+01;0;  3.6063170E+00;  2.6567775E+04;  0.0000000E+00;  3.7160838E-01;  4.0000000E+04;  0.0000000E+00;  3.9881758E+04;  3.6472991E+00;  0.0000000E+00; -4.0981915E-02;  4.3856777E+03;
  9.1717964E-01;  9.9999998E-03; -1.9056506E-01;7764;  1.0837098E+00;  0.0000000E+00;  6.4495443E-03;  9.9448297E+02;  1.2213691E-01; -4.5680156E+03;3; -4.0594505E+01;  0.0000000E+00;  2.6468401E+01;0;  3.7922029E+00;  2.6607984E+04;  0.0000000E+00;  3.1570032E-01;  4.0000000E+04;  0.0000000E+00;  3.9875863E+04;  3.8272495E+00;  0.0000000E+00; -3.5046473E-02;  3.5901831E+03;
  9.1693968E-01;  9.9999998E-03; -1.8055601E-01;7765;  1.0919509E+00;  0.0000000E+00;  5.9574619E-03;  9.9522540E+02;  1.2213756E-01; -3.9532959E+03;3; -2.8111422E+01;  0.0000000E+00;  2.7974266E+01;0;  3.9799590E+00;  2.6650844E+04;  0.0000000E+00;  2.6233152E-01;  4.0000000E+04;  0.0000000E+00;  3.9869012E+04;  4.0080733E+00;  0.0000000E+00; -2.8114356E-02;  2.6815337E+03;
  9.1674471E-01;  9.9999998E-03; -1.7054497E-01;7766;  1.1014849E+00;  0.0000000E+00;  5.6824959E-03;  9.9599823E+02;  1.2213897E-01; -3.3134526E+03;3; -1.5327071E+01;  0.0000000E+00;  2.9349800E+01;0;  4.1651821E+00;  2.6696154E+04;  0.0000000E+00;  2.1035615E-01;  4.0000000E+04;  0.0000000E+00;  3.9861262E+04;  4.1852450E+00;  0.0000000E+00; -2.0062979E-02;  1.6838120E+03;
  9.1659266E-01;  9.9999998E-03; -1.6053174E-01;7767;  1.1122246E+00;  0.0000000E+00;  5.6014326E-03;  9.9678796E+02;  1.2213980E-01; -2.6595405E+03;3; -2.3172178E+00;  0.0000000E+00;  3.0506374E+01;0;  4.3437200E+00;  2.6743303E+04;  0.0000000E+00;  1.6209008E-01;  4.0000000E+04;  0.0000000E+00;  3.9852762E+04;  4.3547988E+00;  0.0000000E+00; -1.1079069E-02;  7.4473303E+02;
  9.1647094E-01;  9.9999998E-03; -1.5051779E-01;7768;  1.1237999E+00;  0.0000000E+00;  5.7083820E-03;  9.9758270E+02;  1.2214135E-01; -2.0015295E+03;3;  1.0724377E+01;  0.0000000E+00;  3.1639061E+01;0;  4.5121593E+00;  2.6791289E+04;  0.0000000E+00;  1.2086812E-01;  4.0000000E+04;  0.0000000E+00;  3.9843383E+04;  4.5137734E+00;  0.0000000E+00; -1.6141691E-03;  1.0347113E+03;
  9.1637570E-01;  9.9999998E-03; -1.4050375E-01;7769;  1.1353337E+00;  0.0000000E+00;  5.9273643E-03;  9.9836224E+02;  1.2214310E-01; -1.3560529E+03;3;  2.3720169E+01;  0.0000000E+00;  3.2505680E+01;0;  4.6675887E+00;  2.6839242E+04;  0.0000000E+00;  8.8869989E-02;  4.0000000E+04;  0.0000000E+00;  3.9833402E+04;  4.6599216E+00;  0.0000000E+00;  7.6670679E-03;  2.2474775E+03;
  9.1631842E-01;  9.9999998E-03; -1.3048726E-01;7770;  1.1472039E+00;  0.0000000E+00;  6.2633571E-03;  9.9911414E+02;  1.2214481E-01; -7.3347412E+02;3;  3.6288631E+01;  0.0000000E+00;  3.3666691E+01;0;  4.8070412E+00;  2.6886389E+04;  0.0000000E+00;  6.6676497E-02;  4.0000000E+04;  0.0000000E+00;  3.9822766E+04;  4.7911024E+00;  0.0000000E+00;  1.5938709E-02;  3.6244807E+03;
  9.1629875E-01;  9.9999998E-03; -1.2046899E-01;7771;  1.1598672E+00;  0.0000000E+00;  6.6222465E-03;  9.9981500E+02;  1.2214706E-01; -1.5318962E+02;3;  4.8442207E+01;  0.0000000E+00;  3.4397152E+01;0;  4.9286060E+00;  2.6931660E+04;  0.0000000E+00;  5.3874165E-02;  4.0000000E+04;  0.0000000E+00;  3.9811461E+04;  4.9062734E+00;  0.0000000E+00;  2.2332642E-02;  5.0936958E+03;
  9.1630554E-01;  9.9999998E-03; -1.1044848E-01;7772;  1.1729442E+00;  0.0000000E+00;  7.0028319E-03;  1.0004534E+03;  1.2214909E-01;  3.7547244E+02;3;  5.9968090E+01;  0.0000000E+00;  3.4530079E+01;0;  5.0315795E+00;  2.6973994E+04;  0.0000000E+00;  4.9287464E-02;  4.0000000E+04;  0.0000000E+00;  3.9799543E+04;  5.0055509E+00;  0.0000000E+00;  2.6028866E-02;  6.6223228E+03;
  9.3263763E-01;  9.9999998E-03; -2.7053702E-01;7817;  1.0416292E+00;  0.0000000E+00;  1.2830707E-02;  9.9454846E+02;  1.2156750E-01; -4.5131265E+03;3; -1.3750885E+02;  0.0000000E+00; -2.2228746E+00;0;  2.7455220E+00;  2.6842275E+04;  0.0000000E+00; -7.9572231E-01;  4.0000000E+04;  0.0000000E+00;  3.9910832E+04;  2.8164024E+00;  0.0000000E+00; -7.0880316E-02;  7.7693521E+03;
  9.3223619E-01;  9.9999998E-03; -2.6054615E-01;7818;  1.0523400E+00;  0.0000000E+00;  1.4531081E-02;  9.9446918E+02;  1.2157238E-01; -4.5787749E+03;3; -1.3393582E+02;  0.0000000E+00;  6.3906854E-01;0;  2.7950549E+00;  2.6846818E+04;  0.0000000E+00;  1.8693311E-02;  4.0000000E+04;  0.0000000E+00;  3.9892617E+04;  2.8726280E+00;  0.0000000E+00; -7.7573083E-02;  5.3632114E+03;
  9.3185079E-01;  9.9999998E-03; -2.5053370E-01;7819;  1.0629177E+00;  0.0000000E+00;  1.3040768E-02;  9.9465369E+02;  1.2157619E-01; -4.4260234E+03;3; -1.2663786E+02;  0.0000000E+00;  3.5197270E+00;0;  2.8833158E+00;  2.6853547E+04;  0.0000000E+00;  4.2488554E-01;  4.0000000E+04;  0.0000000E+00;  3.9892578E+04;  2.9387560E+00;  0.0000000E+00; -5.5440195E-02;  5.4606934E+03;
  9.3151557E-01;  9.9999998E-03; -2.4050675E-01;7820;  1.0727940E+00;  0.0000000E+00;  1.1636052E-02;  9.9492639E+02;  1.2157833E-01; -4.2002871E+03;3; -1.1766050E+02;  0.0000000E+00;  5.8700333E+00;0;  2.9731441E+00;  2.6863793E+04;  0.0000000E+00;  5.7293767E-01;  4.0000000E+04;  0.0000000E+00;  3.9895922E+04;  3.0149484E+00;  0.0000000E+00; -4.1804392E-02;  5.9398545E+03;
  9.3121469E-01;  9.9999998E-03; -2.3049270E-01;7821;  1.0830557E+00;  0.0000000E+00;  1.0914080E-02;  9.9513971E+02;  1.2158056E-01; -4.0236953E+03;3; -1.0669202E+02;  0.0000000E+00;  8.0476913E+00;0;  3.0641921E+00;  2.6876504E+04;  0.0000000E+00;  5.9939009E-01;  4.0000000E+04;  0.0000000E+00;  3.9891402E+04;  3.1000612E+00;  0.0000000E+00; -3.5869136E-02;  5.4251396E+03;
  9.3091214E-01;  9.9999998E-03; -2.2049540E-01;7822;  1.0931098E+00;  0.0000000E+00;  1.0340247E-02;  9.9534180E+02;  1.2158229E-01; -3.8564280E+03;3; -9.4766785E+01;  0.0000000E+00;  1.0110902E+01;0;  3.1614921E+00;  2.6890799E+04;  0.0000000E+00;  5.7602948E-01;  4.0000000E+04;  0.0000000E+00;  3.9883762E+04;  3.1937971E+00;  0.0000000E+00; -3.2304917E-02;  4.5285801E+03;
  9.3064708E-01;  9.9999998E-03; -2.1049911E-01;7823;  1.1047746E+00;  0.0000000E+00;  9.9016232E-03;  9.9561115E+02;  1.2158449E-01; -3.6334478E+03;3; -8.2061966E+01;  0.0000000E+00;  1.2018517E+01;0;  3.2651594E+00;  2.6907809E+04;  0.0000000E+00;  5.4026449E-01;  4.0000000E+04;  0.0000000E+00;  3.9877672E+04;  3.2948985E+00;  0.0000000E+00; -2.9739197E-02;  3.8057520E+03;
  9.3038964E-01;  9.9999998E-03; -2.0049253E-01;7824;  1.1176593E+00;  0.0000000E+00;  9.6780909E-03;  9.9594092E+02;  1.2158675E-01; -3.3604292E+03;3; -6.8583244E+01;  0.0000000E+00;  1.3929513E+01;0;  3.3749793E+00;  2.6927031E+04;  0.0000000E+00;  4.9626654E-01;  4.0000000E+04;  0.0000000E+00;  3.9872938E+04;  3.4024212E+00;  0.0000000E+00; -2.7441943E-02;  3.2301274E+03;
  9.3013918E-01;  9.9999998E-03; -1.9047123E-01;7825;  1.1315179E+00;  0.0000000E+00;  9.6290298E-03;  9.9632410E+02;  1.2158992E-01; -3.0431948E+03;3; -5.4289478E+01;  0.0000000E+00;  1.5775664E+01;0;  3.4898958E+00;  2.6948900E+04;  0.0000000E+00;  4.4273853E-01;  4.0000000E+04;  0.0000000E+00;  3.9868418E+04;  3.5147178E+00;  0.0000000E+00; -2.4822012E-02;  2.6620408E+03;
  9.2989755E-01;  9.9999998E-03; -1.8045112E-01;7826;  1.1457005E+00;  0.0000000E+00;  9.6832169E-03;  9.9675482E+02;  1.2159265E-01; -2.6866304E+03;3; -3.9292355E+01;  0.0000000E+00;  1.7492413E+01;0;  3.6077595E+00;  2.6973900E+04;  0.0000000E+00;  3.7815812E-01;  4.0000000E+04;  0.0000000E+00;  3.9863141E+04;  3.6293681E+00;  0.0000000E+00; -2.1608550E-02;  2.0262625E+03;
  9.2966968E-01;  9.9999998E-03; -1.7043263E-01;7827;  1.1598511E+00;  0.0000000E+00;  9.7799283E-03;  9.9724353E+02;  1.2159570E-01; -2.2820500E+03;3; -2.3758436E+01;  0.0000000E+00;  1.9012575E+01;0;  3.7258365E+00;  2.7002281E+04;  0.0000000E+00;  3.0393136E-01;  4.0000000E+04;  0.0000000E+00;  3.9857570E+04;  3.7435713E+00;  0.0000000E+00; -1.7734837E-02;  1.3914264E+03;
  9.2944735E-01;  9.9999998E-03; -1.6041929E-01;7828;  1.1733886E+00;  0.0000000E+00;  9.8823272E-03;  9.9778607E+02;  1.2159862E-01; -1.8329082E+03;3; -7.8433318E+00;  0.0000000E+00;  2.0236040E+01;0;  3.8415871E+00;  2.7033904E+04;  0.0000000E+00;  2.2481681E-01;  4.0000000E+04;  0.0000000E+00;  3.9851598E+04;  3.8548687E+00;  0.0000000E+00; -1.3281641E-02;  9.3885187E+02;
  9.2923367E-01;  9.9999998E-03; -1.5040240E-01;7829;  1.1854951E+00;  0.0000000E+00;  9.9407472E-03;  9.9838074E+02;  1.2160144E-01; -1.3405861E+03;3;  8.2004070E+00;  0.0000000E+00;  2.1204056E+01;0;  3.9523966E+00;  2.7068672E+04;  0.0000000E+00;  1.4739332E-01;  4.0000000E+04;  0.0000000E+00;  3.9845254E+04;  3.9608529E+00;  0.0000000E+00; -8.4562814E-03;  1.1095955E+03;
  9.2904037E-01;  9.9999998E-03; -1.4037570E-01;7830;  1.1952516E+00;  0.0000000E+00;  9.8719494E-03;  9.9901862E+02;  1.2160407E-01; -8.1248560E+02;3;  2.4188026E+01;  0.0000000E+00;  2.1816357E+01;0;  4.0554261E+00;  2.7106377E+04;  0.0000000E+00;  7.7597171E-02;  4.0000000E+04;  0.0000000E+00;  3.9838586E+04;  4.0590563E+00;  0.0000000E+00; -3.6302458E-03;  1.8198926E+03;
  9.2887795E-01;  9.9999998E-03; -1.3034049E-01;7831;  1.2025396E+00;  0.0000000E+00;  9.6808178E-03;  9.9968176E+02;  1.2160543E-01; -2.6345993E+02;3;  3.9831913E+01;  0.0000000E+00;  2.2005960E+01;0;  4.1479650E+00;  2.7146197E+04;  0.0000000E+00;  1.9471036E-02;  4.0000000E+04;  0.0000000E+00;  3.9831277E+04;  4.1473103E+00;  0.0000000E+00;  6.5452571E-04;  2.7326904E+03;
  9.2878938E-01;  9.9999998E-03; -1.2031063E-01;7832;  1.2121823E+00;  0.0000000E+00;  9.7230645E-03;  1.0003595E+03;  1.2160641E-01;  2.9765720E+02;3;  5.4677753E+01;  0.0000000E+00;  2.1877417E+01;0;  4.2250853E+00;  2.7187430E+04;  0.0000000E+00; -2.4290040E-02;  4.0000000E+04;  0.0000000E+00;  3.9823574E+04;  4.2214093E+00;  0.0000000E+00;  3.6757048E-03;  3.7417991E+03;
  9.2880213E-01;  9.9999998E-03; -1.1029714E-01;7833;  1.2282910E+00;  0.0000000E+00;  1.0499125E-02;  1.0010260E+03;  1.2160728E-01;  8.4944806E+02;3;  6.8390129E+01;  0.0000000E+00;  2.1387697E+01;0;  4.2827764E+00;  2.7229041E+04;  0.0000000E+00; -5.2406959E-02;  4.0000000E+04;  0.0000000E+00;  3.9815598E+04;  4.2781038E+00;  0.0000000E+00;  4.6725511E-03;  4.8004482E+03;
  9.4457716E-01;  9.9999998E-03; -2.7053154E-01;7878;  1.0435152E+00;  0.0000000E+00;  7.0002861E-03;  9.9846680E+02;  1.2091298E-01; -1.2690964E+03;3; -1.4640233E+02;  0.0000000E+00; -8.7242498E+00;0;  3.0758915E+00;  2.7370061E+04;  0.0000000E+00; -8.3201873E-01;  4.0000000E+04;  0.0000000E+00;  3.9867184E+04;  3.0613928E+00;  0.0000000E+00;  1.4498742E-02;  2.2826243E+03;
  9.4430751E-01;  9.9999998E-03; -2.6053274E-01;7879;  1.0606296E+00;  0.0000000E+00;  9.2342356E-03;  9.9833099E+02;  1.2091888E-01; -1.3814912E+03;3; -1.4286458E+02;  0.0000000E+00; -6.0430570E+00;0;  3.0574186E+00;  2.7364510E+04;  0.0000000E+00; -2.0506999E-01;  4.0000000E+04;  0.0000000E+00;  3.9858781E+04;  3.0668604E+00;  0.0000000E+00; -9.4417995E-03;  6.7371136E+02;
  9.4401705E-01;  9.9999998E-03; -2.5051910E-01;7880;  1.0782217E+00;  0.0000000E+00;  8.9335889E-03;  9.9834467E+02;  1.2092429E-01; -1.3701984E+03;3; -1.3507553E+02;  0.0000000E+00; -3.3779163E+00;0;  3.0696471E+00;  2.7358715E+04;  0.0000000E+00;  1.9052076E-01;  4.0000000E+04;  0.0000000E+00;  3.9863184E+04;  3.0760467E+00;  0.0000000E+00; -6.3997009E-03;  1.3725823E+03;
  9.4373822E-01;  9.9999998E-03; -2.4049641E-01;7881;  1.0952529E+00;  0.0000000E+00;  8.7498855E-03;  9.9838757E+02;  1.2092888E-01; -1.3346803E+03;3; -1.2505603E+02;  0.0000000E+00; -1.9892966E+00;0;  3.0838587E+00;  2.7354240E+04;  0.0000000E+00;  3.9884523E-01;  4.0000000E+04;  0.0000000E+00;  3.9868934E+04;  3.0903008E+00;  0.0000000E+00; -6.4420239E-03;  2.2509248E+03;
  9.4347662E-01;  9.9999998E-03; -2.3048016E-01;7882;  1.1115859E+00;  0.0000000E+00;  9.0039494E-03;  9.9837720E+02;  1.2093294E-01; -1.3432698E+03;3; -1.1339296E+02;  0.0000000E+00; -7.2654551E-01;0;  3.1010962E+00;  2.7351201E+04;  0.0000000E+00;  4.9395368E-01;  4.0000000E+04;  0.0000000E+00;  3.9869324E+04;  3.1099551E+00;  0.0000000E+00; -8.8589424E-03;  2.4468491E+03;
  9.4324446E-01;  9.9999998E-03; -2.2046834E-01;7883;  1.1279801E+00;  0.0000000E+00;  9.3384907E-03;  9.9836224E+02;  1.2093658E-01; -1.3556576E+03;3; -1.0067656E+02;  0.0000000E+00;  5.4525727E-01;0;  3.1239312E+00;  2.7349740E+04;  0.0000000E+00;  5.3250158E-01;  4.0000000E+04;  0.0000000E+00;  3.9867551E+04;  3.1348448E+00;  0.0000000E+00; -1.0913729E-02;  2.3642229E+03;
  9.4304579E-01;  9.9999998E-03; -2.1045360E-01;7884;  1.1452438E+00;  0.0000000E+00;  9.7929481E-03;  9.9837561E+02;  1.2094055E-01; -1.3446095E+03;3; -8.7179001E+01;  0.0000000E+00;  2.1642702E+00;0;  3.1518838E+00;  2.7350082E+04;  0.0000000E+00;  5.4047042E-01;  4.0000000E+04;  0.0000000E+00;  3.9865395E+04;  3.1643867E+00;  0.0000000E+00; -1.2502827E-02;  2.2227258E+03;
  9.4286090E-01;  9.9999998E-03; -2.0042728E-01;7885;  1.1631064E+00;  0.0000000E+00;  1.0319441E-02;  9.9842108E+02;  1.2094460E-01; -1.3069678E+03;3; -7.2607491E+01;  0.0000000E+00;  3.6343102E+00;0;  3.1845973E+00;  2.7352223E+04;  0.0000000E+00;  5.2526295E-01;  4.0000000E+04;  0.0000000E+00;  3.9863348E+04;  3.1981790E+00;  0.0000000E+00; -1.3581741E-02;  2.0507585E+03;
  9.4267195E-01;  9.9999998E-03; -1.9038509E-01;7886;  1.1813440E+00;  0.0000000E+00;  1.0966631E-02;  9.9850330E+02;  1.2094916E-01; -1.2389333E+03;3; -5.7170189E+01;  0.0000000E+00;  5.2604294E+00;0;  3.2216182E+00;  2.7356348E+04;  0.0000000E+00;  4.8824784E-01;  4.0000000E+04;  0.0000000E+00;  3.9860773E+04;  3.2358630E+00;  0.0000000E+00; -1.4244789E-02;  1.8219604E+03;
  9.4247180E-01;  9.9999998E-03; -1.8034826E-01;7887;  1.1994940E+00;  0.0000000E+00;  1.1697480E-02;  9.9862689E+02;  1.2095381E-01; -1.1366088E+03;3; -4.1165501E+01;  0.0000000E+00;  7.2030125E+00;0;  3.2622561E+00;  2.7363152E+04;  0.0000000E+00;  4.3045956E-01;  4.0000000E+04;  0.0000000E+00;  3.9857574E+04;  3.2767799E+00;  0.0000000E+00; -1.4523849E-02;  1.5429973E+03;
  9.4225800E-01;  9.9999998E-03; -1.7032562E-01;7888;  1.2170920E+00;  0.0000000E+00;  1.2460613E-02;  9.9881390E+02;  1.2095846E-01; -9.8178760E+02;3; -2.4669407E+01;  0.0000000E+00;  9.0207062E+00;0;  3.3055425E+00;  2.7373363E+04;  0.0000000E+00;  3.5466143E-01;  4.0000000E+04;  0.0000000E+00;  3.9854480E+04;  3.3200123E+00;  0.0000000E+00; -1.4469915E-02;  1.2914714E+03;
  9.4204015E-01;  9.9999998E-03; -1.6030923E-01;7889;  1.2337843E+00;  0.0000000E+00;  1.3104550E-02;  9.9908051E+02;  1.2096272E-01; -7.6114783E+02;3; -7.7583728E+00;  0.0000000E+00;  1.0322902E+01;0;  3.3499062E+00;  2.7387803E+04;  0.0000000E+00;  2.6650941E-01;  4.0000000E+04;  0.0000000E+00;  3.9851449E+04;  3.3640277E+00;  0.0000000E+00; -1.4121530E-02;  1.1232854E+03;
  9.4182724E-01;  9.9999998E-03; -1.5029380E-01;7890;  1.2491698E+00;  0.0000000E+00;  1.3530619E-02;  9.9943115E+02;  1.2096625E-01; -4.7088968E+02;3;  9.4221725E+00;  0.0000000E+00;  1.1097149E+01;0;  3.3934550E+00;  2.7406949E+04;  0.0000000E+00;  1.7369844E-01;  4.0000000E+04;  0.0000000E+00;  3.9848406E+04;  3.4069924E+00;  0.0000000E+00; -1.3537369E-02;  1.1128401E+03;
  9.4162780E-01;  9.9999998E-03; -1.4027242E-01;7891;  1.2624245E+00;  0.0000000E+00;  1.3641229E-02;  9.9986346E+02;  1.2096906E-01; -1.1303552E+02;3;  2.6751326E+01;  0.0000000E+00;  1.1380245E+01;0;  3.4341834E+00;  2.7430949E+04;  0.0000000E+00;  8.3727106E-02;  4.0000000E+04;  0.0000000E+00;  3.9845207E+04;  3.4470251E+00;  0.0000000E+00; -1.2841681E-02;  1.3153486E+03;
  9.4143462E-01;  9.9999998E-03; -1.3024315E-01;7892;  1.2720629E+00;  0.0000000E+00;  1.3438609E-02;  1.0003667E+03;  1.2097073E-01;  3.0353391E+02;3;  4.3991833E+01;  0.0000000E+00;  1.1192358E+01;0;  3.4708931E+00;  2.7459369E+04;  0.0000000E+00;  2.5609217E-03;  4.0000000E+04;  0.0000000E+00;  3.9841609E+04;  3.4831760E+00;  0.0000000E+00; -1.2282850E-02;  1.7030607E+03;
  9.4122577E-01;  9.9999998E-03; -1.2020706E-01;7893;  1.2768924E+00;  0.0000000E+00;  1.2785137E-02;  1.0009203E+03;  1.2097184E-01;  7.6179718E+02;3;  6.1067207E+01;  0.0000000E+00;  1.0670650E+01;0;  3.5035510E+00;  2.7490967E+04;  0.0000000E+00; -6.4773530E-02;  4.0000000E+04;  0.0000000E+00;  3.9837586E+04;  3.5157778E+00;  0.0000000E+00; -1.2226834E-02;  2.2208069E+03;
  9.4099468E-01;  9.9999998E-03; -1.1016835E-01;7894;  1.2786549E+00;  0.0000000E+00;  1.1879404E-02;  1.0014975E+03;  1.2097268E-01;  1.2396017E+03;3;  7.7466553E+01;  0.0000000E+00;  1.0164851E+01;0;  3.5315325E+00;  2.7524520E+04;  0.0000000E+00; -1.1411018E-01;  4.0000000E+04;  0.0000000E+00;  3.9833070E+04;  3.5446780E+00;  0.0000000E+00; -1.3145521E-02;  2.8290474E+03;
  9.5582587E-01;  9.9999998E-03; -2.7051157E-01;7939;  1.0752161E+00;  0.0000000E+00;  3.3495075E-03;  1.0017879E+03;  1.2019458E-01;  1.4796699E+03;3; -1.4985164E+02;  0.0000000E+00; -1.1387966E+01;0;  3.3656523E+00;  2.7896896E+04;  0.0000000E+00; -5.8483708E-01;  4.0000000E+04;  0.0000000E+00;  3.9839871E+04;  3.2948611E+00;  0.0000000E+00;  7.0791267E-02;  2.4061501E+03;
  9.5558137E-01;  9.9999998E-03; -2.6050174E-01;7940;  1.0919049E+00;  0.0000000E+00;  4.0030880E-03;  1.0016168E+03;  1.2020156E-01;  1.3381011E+03;3; -1.4040198E+02;  0.0000000E+00; -1.0878289E+01;0;  3.3088105E+00;  2.7882768E+04;  0.0000000E+00; -2.8245151E-01;  4.0000000E+04;  0.0000000E+00;  3.9840230E+04;  3.2552071E+00;  0.0000000E+00;  5.3603344E-02;  2.1680623E+03;
  9.5532703E-01;  9.9999998E-03; -2.5048628E-01;7941;  1.1087050E+00;  0.0000000E+00;  3.7689598E-03;  1.0014785E+03;  1.2020925E-01;  1.2236625E+03;3; -1.3067511E+02;  0.0000000E+00; -1.0318140E+01;0;  3.2594368E+00;  2.7867498E+04;  0.0000000E+00; -3.4109052E-02;  4.0000000E+04;  0.0000000E+00;  3.9845465E+04;  3.2146916E+00;  0.0000000E+00;  4.4745285E-02;  1.5222103E+03;
  9.5510989E-01;  9.9999998E-03; -2.4048136E-01;7942;  1.1262367E+00;  0.0000000E+00;  4.6569472E-03;  1.0012700E+03;  1.2021532E-01;  1.0511122E+03;3; -1.1963354E+02;  0.0000000E+00; -9.2188511E+00;0;  3.2046416E+00;  2.7853068E+04;  0.0000000E+00;  1.4709118E-01;  4.0000000E+04;  0.0000000E+00;  3.9845336E+04;  3.1746697E+00;  0.0000000E+00;  2.9971875E-02;  1.6232662E+03;
  9.5491332E-01;  9.9999998E-03; -2.3048446E-01;7943;  1.1439880E+00;  0.0000000E+00;  5.4421625E-03;  1.0010503E+03;  1.2022108E-01;  8.6918787E+02;3; -1.0772901E+02;  0.0000000E+00; -8.2157316E+00;0;  3.1546152E+00;  2.7838936E+04;  0.0000000E+00;  2.7374211E-01;  4.0000000E+04;  0.0000000E+00;  3.9844758E+04;  3.1355844E+00;  0.0000000E+00;  1.9030813E-02;  1.8116350E+03;
  9.5473510E-01;  9.9999998E-03; -2.2048178E-01;7944;  1.1619885E+00;  0.0000000E+00;  5.9740678E-03;  1.0008613E+03;  1.2022550E-01;  7.1281500E+02;3; -9.5041618E+01;  0.0000000E+00; -7.2681341E+00;0;  3.1090131E+00;  2.7825150E+04;  0.0000000E+00;  3.5955888E-01;  4.0000000E+04;  0.0000000E+00;  3.9846812E+04;  3.0979161E+00;  0.0000000E+00;  1.1096900E-02;  1.7247004E+03;
  9.5456421E-01;  9.9999998E-03; -2.1046966E-01;7945;  1.1801877E+00;  0.0000000E+00;  6.5611266E-03;  1.0006859E+03;  1.2023059E-01;  5.6768835E+02;3; -8.1390511E+01;  0.0000000E+00; -6.1921043E+00;0;  3.0668156E+00;  2.7811572E+04;  0.0000000E+00;  4.1351715E-01;  4.0000000E+04;  0.0000000E+00;  3.9849414E+04;  3.0622165E+00;  0.0000000E+00;  4.5990511E-03;  1.5942532E+03;
  9.5440811E-01;  9.9999998E-03; -2.0044288E-01;7946;  1.1985693E+00;  0.0000000E+00;  7.8250933E-03;  1.0005214E+03;  1.2023549E-01;  4.3153891E+02;3; -6.6978661E+01;  0.0000000E+00; -4.3878875E+00;0;  3.0278025E+00;  2.7798965E+04;  0.0000000E+00;  4.3877262E-01;  4.0000000E+04;  0.0000000E+00;  3.9851621E+04;  3.0288858E+00;  0.0000000E+00; -1.0834255E-03;  1.5081805E+03;
  9.5426512E-01;  9.9999998E-03; -1.9040456E-01;7947;  1.2175275E+00;  0.0000000E+00;  9.4006825E-03;  1.0003734E+03;  1.2024075E-01;  3.0900388E+02;3; -5.1466991E+01;  0.0000000E+00; -3.0331361E+00;0;  2.9925709E+00;  2.7787949E+04;  0.0000000E+00;  4.3549922E-01;  4.0000000E+04;  0.0000000E+00;  3.9852645E+04;  2.9981768E+00;  0.0000000E+00; -5.6059882E-03;  1.4577319E+03;
  9.5411617E-01;  9.9999998E-03; -1.8036491E-01;7948;  1.2369748E+00;  0.0000000E+00;  1.1039362E-02;  1.0002576E+03;  1.2024616E-01;  2.1320526E+02;3; -3.5248199E+01;  0.0000000E+00; -1.6785042E+00;0;  2.9613957E+00;  2.7779197E+04;  0.0000000E+00;  4.0515050E-01;  4.0000000E+04;  0.0000000E+00;  3.9852742E+04;  2.9707153E+00;  0.0000000E+00; -9.3195429E-03;  1.3959846E+03;
  9.5395607E-01;  9.9999998E-03; -1.7032316E-01;7949;  1.2562373E+00;  0.0000000E+00;  1.2466942E-02;  1.0001960E+03;  1.2025147E-01;  1.6219820E+02;3; -1.8605165E+01;  0.0000000E+00; -2.6600236E-01;0;  2.9343245E+00;  2.7773504E+04;  0.0000000E+00;  3.5182372E-01;  4.0000000E+04;  0.0000000E+00;  3.9852617E+04;  2.9469285E+00;  0.0000000E+00; -1.2603881E-02;  1.2956670E+03;
  9.5378566E-01;  9.9999998E-03; -1.6027905E-01;7950;  1.2744412E+00;  0.0000000E+00;  1.3648001E-02;  1.0002119E+03;  1.2025587E-01;  1.7532054E+02;3; -2.0379195E+00;  0.0000000E+00;  1.5922840E+00;0;  2.9111354E+00;  2.7772121E+04;  0.0000000E+00;  2.8219000E-01;  4.0000000E+04;  0.0000000E+00;  3.9852727E+04;  2.9267926E+00;  0.0000000E+00; -1.5657142E-02;  1.1575153E+03;
  9.5360512E-01;  9.9999998E-03; -1.5023372E-01;7951;  1.2907810E+00;  0.0000000E+00;  1.4218570E-02;  1.0003198E+03;  1.2025975E-01;  2.6470810E+02;3;  1.4917921E+01;  0.0000000E+00;  2.6402092E+00;0;  2.8914182E+00;  2.7775695E+04;  0.0000000E+00;  2.0415567E-01;  4.0000000E+04;  0.0000000E+00;  3.9852977E+04;  2.9099011E+00;  0.0000000E+00; -1.8482886E-02;  9.9635059E+02;
  9.5340592E-01;  9.9999998E-03; -1.4019309E-01;7952;  1.3047546E+00;  0.0000000E+00;  1.4248718E-02;  1.0005197E+03;  1.2026244E-01;  4.3006570E+02;3;  3.2134453E+01;  0.0000000E+00;  3.1309676E+00;0;  2.8748450E+00;  2.7784533E+04;  0.0000000E+00;  1.2469313E-01;  4.0000000E+04;  0.0000000E+00;  3.9853062E+04;  2.8958654E+00;  0.0000000E+00; -2.1020507E-02;  8.3846948E+02;
  9.5317739E-01;  9.9999998E-03; -1.3015828E-01;7953;  1.3154463E+00;  0.0000000E+00;  1.3840365E-02;  1.0008083E+03;  1.2026482E-01;  6.6902631E+02;3;  4.9325684E+01;  0.0000000E+00;  3.7025630E+00;0;  2.8610971E+00;  2.7798539E+04;  0.0000000E+00;  4.8623048E-02;  4.0000000E+04;  0.0000000E+00;  3.9852863E+04;  2.8843977E+00;  0.0000000E+00; -2.3300597E-02;  7.2426276E+02;
  9.5293158E-01;  9.9999998E-03; -1.2012795E-01;7954;  1.3226439E+00;  0.0000000E+00;  1.3027066E-02;  1.0011708E+03;  1.2026627E-01;  9.6906079E+02;3;  6.6653816E+01;  0.0000000E+00;  3.6843400E+00;0;  2.8485994E+00;  2.7817205E+04;  0.0000000E+00; -2.0214146E-02;  4.0000000E+04;  0.0000000E+00;  3.9852227E+04;  2.8741446E+00;  0.0000000E+00; -2.5545072E-02;  7.1046265E+02;
  9.5267105E-01;  9.9999998E-03; -1.1010046E-01;7955;  1.3265501E+00;  0.0000000E+00;  1.1903440E-02;  1.0015895E+03;  1.2026715E-01;  1.3155677E+03;3;  8.3815277E+01;  0.0000000E+00;  3.6003926E+00;0;  2.8361864E+00;  2.7839578E+04;  0.0000000E+00; -7.7801675E-02;  4.0000000E+04;  0.0000000E+00;  3.9850922E+04;  2.8642898E+00;  0.0000000E+00; -2.8103314E-02;  8.4035004E+02;
  9.6685117E-01;  9.9999998E-03; -2.7048776E-01;8000;  1.1397569E+00;  0.0000000E+00; -3.9254567E-03;  1.0040858E+03;  1.1942173E-01;  3.3807534E+03;3; -1.3240234E+02;  0.0000000E+00;  6.3202566E-01;0;  3.6514249E+00;  2.8402016E+04;  0.0000000E+00; -6.0172069E-01;  4.0000000E+04;  0.0000000E+00;  3.9818867E+04;  3.4766405E+00;  0.0000000E+00;  1.7478451E-01;  5.2964019E+03;
  9.6663207E-01;  9.9999998E-03; -2.6046100E-01;8001;  1.1525042E+00;  0.0000000E+00; -2.9119861E-03;  1.0039902E+03;  1.1943018E-01;  3.3017573E+03;3; -1.2424142E+02;  0.0000000E+00; -7.3709831E+00;0;  3.5323527E+00;  2.8383375E+04;  0.0000000E+00; -4.6043250E-01;  4.0000000E+04;  0.0000000E+00;  3.9831285E+04;  3.3995872E+00;  0.0000000E+00;  1.3276552E-01;  3.7310425E+03;
  9.6639735E-01;  9.9999998E-03; -2.5044429E-01;8002;  1.1646104E+00;  0.0000000E+00;  2.0611535E-03;  1.0037437E+03;  1.1943898E-01;  3.0976858E+03;3; -1.1432139E+02;  0.0000000E+00; -1.3157704E+01;0;  3.3893032E+00;  2.8362686E+04;  0.0000000E+00; -2.8820419E-01;  4.0000000E+04;  0.0000000E+00;  3.9835066E+04;  3.3174796E+00;  0.0000000E+00;  7.1823537E-02;  3.2267175E+03;
  9.6619701E-01;  9.9999998E-03; -2.4043983E-01;8003;  1.1770086E+00;  0.0000000E+00;  4.9098618E-03;  1.0034135E+03;  1.1944599E-01;  2.8245627E+03;3; -1.0344254E+02;  0.0000000E+00; -1.4165359E+01;0;  3.2762034E+00;  2.8341611E+04;  0.0000000E+00; -1.2444654E-01;  4.0000000E+04;  0.0000000E+00;  3.9834070E+04;  3.2318738E+00;  0.0000000E+00;  4.4329677E-02;  3.2985618E+03;
  9.6605057E-01;  9.9999998E-03; -2.3043624E-01;8004;  1.1905283E+00;  0.0000000E+00;  6.1843232E-03;  1.0030945E+03;  1.1945196E-01;  2.5605098E+03;3; -9.2133865E+01;  0.0000000E+00; -1.3546592E+01;0;  3.1746881E+00;  2.8320342E+04;  0.0000000E+00;  1.7279802E-02;  4.0000000E+04;  0.0000000E+00;  3.9835441E+04;  3.1434298E+00;  0.0000000E+00;  3.1258404E-02;  3.1180203E+03;
  9.6594548E-01;  9.9999998E-03; -2.2042629E-01;8005;  1.2049009E+00;  0.0000000E+00;  6.9417837E-03;  1.0027850E+03;  1.1945652E-01;  2.3044434E+03;3; -8.0026924E+01;  0.0000000E+00; -1.3042545E+01;0;  3.0746288E+00;  2.8298725E+04;  0.0000000E+00;  1.3336678E-01;  4.0000000E+04;  0.0000000E+00;  3.9839125E+04;  3.0527241E+00;  0.0000000E+00;  2.1904668E-02;  2.6924575E+03;
  9.6585733E-01;  9.9999998E-03; -2.1041144E-01;8006;  1.2199334E+00;  0.0000000E+00;  7.6250397E-03;  1.0024623E+03;  1.1946103E-01;  2.0375251E+03;3; -6.7005119E+01;  0.0000000E+00; -1.2448671E+01;0;  2.9744923E+00;  2.8276365E+04;  0.0000000E+00;  2.2165357E-01;  4.0000000E+04;  0.0000000E+00;  3.9842629E+04;  2.9607341E+00;  0.0000000E+00;  1.3758103E-02;  2.2855391E+03;
  9.6576315E-01;  9.9999998E-03; -2.0038447E-01;8007;  1.2355049E+00;  0.0000000E+00;  8.2913600E-03;  1.0021280E+03;  1.1946622E-01;  1.7608406E+03;3; -5.3141006E+01;  0.0000000E+00; -1.1878819E+01;0;  2.8752084E+00;  2.8253371E+04;  0.0000000E+00;  2.8160137E-01;  4.0000000E+04;  0.0000000E+00;  3.9846043E+04;  2.8688564E+00;  0.0000000E+00;  6.3519287E-03;  1.9174028E+03;
  9.6565682E-01;  9.9999998E-03; -1.9034845E-01;8008;  1.2516261E+00;  0.0000000E+00;  9.0940204E-03;  1.0017923E+03;  1.1947177E-01;  1.4830704E+03;3; -3.8681446E+01;  0.0000000E+00; -1.0683745E+01;0;  2.7781928E+00;  2.8230455E+04;  0.0000000E+00;  3.1281608E-01;  4.0000000E+04;  0.0000000E+00;  3.9848730E+04;  2.7787631E+00;  0.0000000E+00; -5.7019235E-04;  1.6391731E+03;
  9.6554613E-01;  9.9999998E-03; -1.8031332E-01;8009;  1.2681721E+00;  0.0000000E+00;  1.0260358E-02;  1.0014784E+03;  1.1947730E-01;  1.2233507E+03;3; -2.3647108E+01;  0.0000000E+00; -9.1120491E+00;0;  2.6848621E+00;  2.8208844E+04;  0.0000000E+00;  3.1724197E-01;  4.0000000E+04;  0.0000000E+00;  3.9851043E+04;  2.6919868E+00;  0.0000000E+00; -7.1246666E-03;  1.4113136E+03;
  9.6544600E-01;  9.9999998E-03; -1.7027481E-01;8010;  1.2851543E+00;  0.0000000E+00;  1.1288042E-02;  1.0012095E+03;  1.1948229E-01;  1.0008175E+03;3; -7.9100771E+00;  0.0000000E+00; -7.7881060E+00;0;  2.5960348E+00;  2.8189838E+04;  0.0000000E+00;  2.9999310E-01;  4.0000000E+04;  0.0000000E+00;  3.9853512E+04;  2.6093795E+00;  0.0000000E+00; -1.3344797E-02;  1.1786528E+03;
  9.6535289E-01;  9.9999998E-03; -1.6023183E-01;8011;  1.3020569E+00;  0.0000000E+00;  1.2116204E-02;  1.0010086E+03;  1.1948580E-01;  8.3460779E+02;3;  7.9739766E+00;  0.0000000E+00; -6.3295341E+00;0;  2.5125134E+00;  2.8174637E+04;  0.0000000E+00;  2.6845625E-01;  4.0000000E+04;  0.0000000E+00;  3.9856434E+04;  2.5318213E+00;  0.0000000E+00; -1.9307807E-02;  9.6716357E+02;
  9.6521562E-01;  9.9999998E-03; -1.5018891E-01;8012;  1.3175377E+00;  0.0000000E+00;  1.2704620E-02;  1.0008832E+03;  1.1948888E-01;  7.3083856E+02;3;  2.3310848E+01;  0.0000000E+00; -4.2708445E+00;0;  2.4366698E+00;  2.8163250E+04;  0.0000000E+00;  2.2979739E-01;  4.0000000E+04;  0.0000000E+00;  3.9859562E+04;  2.4615641E+00;  0.0000000E+00; -2.4894258E-02;  8.6105475E+02;
  9.6499813E-01;  9.9999998E-03; -1.4014919E-01;8013;  1.3300844E+00;  0.0000000E+00;  1.2793901E-02;  1.0008401E+03;  1.1949289E-01;  6.9513287E+02;3;  3.7998638E+01;  0.0000000E+00; -2.4856405E+00;0;  2.3705256E+00;  2.8155861E+04;  0.0000000E+00;  1.8817176E-01;  4.0000000E+04;  0.0000000E+00;  3.9862645E+04;  2.4004269E+00;  0.0000000E+00; -2.9901158E-02;  9.1410535E+02;
  9.6471602E-01;  9.9999998E-03; -1.3011199E-01;8014;  1.3397461E+00;  0.0000000E+00;  1.2217091E-02;  1.0008802E+03;  1.1949655E-01;  7.2837915E+02;3;  5.1380718E+01;  0.0000000E+00; -1.5757688E+00;0;  2.3135345E+00;  2.8153131E+04;  0.0000000E+00;  1.4431164E-01;  4.0000000E+04;  0.0000000E+00;  3.9865266E+04;  2.3477738E+00;  0.0000000E+00; -3.4239240E-02;  1.0547135E+03;
  9.6442109E-01;  9.9999998E-03; -1.2008011E-01;8015;  1.3461112E+00;  0.0000000E+00;  1.1164145E-02;  1.0009998E+03;  1.1949979E-01;  8.2732245E+02;3;  5.9660103E+01;  0.0000000E+00; -1.5480714E+00;0;  2.2627468E+00;  2.8155502E+04;  0.0000000E+00;  9.8064482E-02;  4.0000000E+04;  0.0000000E+00;  3.9867340E+04;  2.3007975E+00;  0.0000000E+00; -3.8050655E-02;  1.1871725E+03;
  9.6414691E-01;  9.9999998E-03; -1.1005796E-01;8016;  1.3492091E+00;  0.0000000E+00;  9.9757854E-03;  1.0011868E+03;  1.1950157E-01;  9.8200018E+02;3;  6.3431641E+01;  0.0000000E+00; -2.3165007E+00;0;  2.2153246E+00;  2.8162871E+04;  0.0000000E+00;  5.0818380E-02;  4.0000000E+04;  0.0000000E+00;  3.9868590E+04;  2.2569706E+00;  0.0000000E+00; -4.1646056E-02;  1.2595402E+03;
  9.7788328E-01;  9.9999998E-03; -2.7047223E-01;8061;  1.2287620E+00;  0.0000000E+00;  7.5828849E-04;  1.0050472E+03;  1.1860219E-01;  4.1753379E+03;3; -1.0188885E+02;  0.0000000E+00;  1.1917139E+01;0;  3.7166181E+00;  2.8871900E+04;  0.0000000E+00; -9.1865987E-01;  4.0000000E+04;  0.0000000E+00;  3.9793078E+04;  3.5771296E+00;  0.0000000E+00;  1.3948856E-01;  8.8466475E+03;
  9.7766459E-01;  9.9999998E-03; -2.6042497E-01;8062;  1.2335596E+00;  0.0000000E+00; -8.1004417E-03;  1.0051511E+03;  1.1861136E-01;  4.2613521E+03;3; -9.5857437E+01;  0.0000000E+00;  2.3332222E+00;0;  3.6712174E+00;  2.8852301E+04;  0.0000000E+00; -7.4783421E-01;  4.0000000E+04;  0.0000000E+00;  3.9822293E+04;  3.4723811E+00;  0.0000000E+00;  1.9883633E-01;  5.2527710E+03;
  9.7743917E-01;  9.9999998E-03; -2.5038654E-01;8063;  1.2366321E+00;  0.0000000E+00;  3.0392481E-04;  1.0050184E+03;  1.1862093E-01;  4.1516118E+03;3; -8.8550179E+01;  0.0000000E+00; -1.2191869E+01;0;  3.4588170E+00;  2.8830031E+04;  0.0000000E+00; -5.5518115E-01;  4.0000000E+04;  0.0000000E+00;  3.9836262E+04;  3.3591504E+00;  0.0000000E+00;  9.9666715E-02;  3.5125181E+03;
  9.7728050E-01;  9.9999998E-03; -2.4037193E-01;8064;  1.2409656E+00;  0.0000000E+00;  7.7853510E-03;  1.0046639E+03;  1.1862835E-01;  3.8582375E+03;3; -7.9659500E+01;  0.0000000E+00; -1.5669999E+01;0;  3.2850080E+00;  2.8806793E+04;  0.0000000E+00; -3.7744200E-01;  4.0000000E+04;  0.0000000E+00;  3.9835684E+04;  3.2389956E+00;  0.0000000E+00;  4.6012472E-02;  3.5015381E+03;
  9.7720385E-01;  9.9999998E-03; -2.3035963E-01;8065;  1.2471086E+00;  0.0000000E+00;  9.4533786E-03;  1.0042839E+03;  1.1863293E-01;  3.5439475E+03;3; -6.9730324E+01;  0.0000000E+00; -1.6129166E+01;0;  3.1466472E+00;  2.8782883E+04;  0.0000000E+00; -2.2375162E-01;  4.0000000E+04;  0.0000000E+00;  3.9836195E+04;  3.1124744E+00;  0.0000000E+00;  3.4172814E-02;  3.3661501E+03;
  9.7716331E-01;  9.9999998E-03; -2.2034739E-01;8066;  1.2546954E+00;  0.0000000E+00;  9.7824335E-03;  1.0038825E+03;  1.1863711E-01;  3.2119023E+03;3; -5.9101185E+01;  0.0000000E+00; -1.6256121E+01;0;  3.0073395E+00;  2.8757270E+04;  0.0000000E+00; -9.3965471E-02;  4.0000000E+04;  0.0000000E+00;  3.9838152E+04;  2.9806223E+00;  0.0000000E+00;  2.6717173E-02;  3.0802595E+03;
  9.7711575E-01;  9.9999998E-03; -2.1033481E-01;8067;  1.2632976E+00;  0.0000000E+00;  9.7524682E-03;  1.0034576E+03;  1.1864173E-01;  2.8604294E+03;3; -4.7603458E+01;  0.0000000E+00; -1.6195391E+01;0;  2.8638921E+00;  2.8729387E+04;  0.0000000E+00;  1.1859723E-02;  4.0000000E+04;  0.0000000E+00;  3.9840855E+04;  2.8452058E+00;  0.0000000E+00;  1.8686358E-02;  2.7087361E+03;
  9.7706801E-01;  9.9999998E-03; -2.0030670E-01;8068;  1.2730545E+00;  0.0000000E+00;  9.5769288E-03;  1.0030229E+03;  1.1864617E-01;  2.5007703E+03;3; -3.5221703E+01;  0.0000000E+00; -1.5767905E+01;0;  2.7177901E+00;  2.8699947E+04;  0.0000000E+00;  9.3577050E-02;  4.0000000E+04;  0.0000000E+00;  3.9844898E+04;  2.7078640E+00;  0.0000000E+00;  9.9261953E-03;  2.1961570E+03;
  9.7706759E-01;  9.9999998E-03; -1.9026177E-01;8069;  1.2837951E+00;  0.0000000E+00;  9.4314227E-03;  1.0025803E+03;  1.1864897E-01;  2.1345996E+03;3; -2.1995129E+01;  0.0000000E+00; -1.5377477E+01;0;  2.5706844E+00;  2.8670957E+04;  0.0000000E+00;  1.5064624E-01;  4.0000000E+04;  0.0000000E+00;  3.9848977E+04;  2.5699370E+00;  0.0000000E+00;  7.4751844E-04;  1.6792313E+03;
  9.7707051E-01;  9.9999998E-03; -1.8021399E-01;8070;  1.2952111E+00;  0.0000000E+00;  9.2910528E-03;  1.0021377E+03;  1.1865113E-01;  1.7684287E+03;3; -7.9659681E+00;  0.0000000E+00; -1.5011411E+01;0;  2.4259207E+00;  2.8642135E+04;  0.0000000E+00;  1.8755449E-01;  4.0000000E+04;  0.0000000E+00;  3.9853160E+04;  2.4343910E+00;  0.0000000E+00; -8.4703900E-03;  1.2028788E+03;
  9.7705716E-01;  9.9999998E-03; -1.7016648E-01;8071;  1.3069845E+00;  0.0000000E+00;  9.4395075E-03;  1.0017181E+03;  1.1865326E-01;  1.4213901E+03;3;  6.1016564E+00;  0.0000000E+00; -1.3344153E+01;0;  2.2864776E+00;  2.8614109E+04;  0.0000000E+00;  2.1013983E-01;  4.0000000E+04;  0.0000000E+00;  3.9857699E+04;  2.3039541E+00;  0.0000000E+00; -1.7476529E-02;  7.7849866E+02;
  9.7701013E-01;  9.9999998E-03; -1.6012195E-01;8072;  1.3184505E+00;  0.0000000E+00;  9.7474670E-03;  1.0013398E+03;  1.1865548E-01;  1.1083759E+03;3;  2.0288309E+01;  0.0000000E+00; -1.1451129E+01;0;  2.1551812E+00;  2.8587467E+04;  0.0000000E+00;  2.2494751E-01;  4.0000000E+04;  0.0000000E+00;  3.9862840E+04;  2.1811962E+00;  0.0000000E+00; -2.6015054E-02;  7.1622076E+02;
  9.7690618E-01;  9.9999998E-03; -1.5008520E-01;8073;  1.3293796E+00;  0.0000000E+00;  9.9651935E-03;  1.0010090E+03;  1.1865819E-01;  8.3471075E+02;3;  3.4428658E+01;  0.0000000E+00; -9.3117332E+00;0;  2.0345490E+00;  2.8562811E+04;  0.0000000E+00;  2.3677088E-01;  4.0000000E+04;  0.0000000E+00;  3.9868500E+04;  2.0683966E+00;  0.0000000E+00; -3.3847604E-02;  1.1846019E+03;
  9.7670949E-01;  9.9999998E-03; -1.4006244E-01;8074;  1.3387347E+00;  0.0000000E+00;  1.0034314E-02;  1.0007363E+03;  1.1866189E-01;  6.0907324E+02;3;  4.7163498E+01;  0.0000000E+00; -7.1255555E+00;0;  1.9270307E+00;  2.8540627E+04;  0.0000000E+00;  2.4622822E-01;  4.0000000E+04;  0.0000000E+00;  3.9873832E+04;  1.9677433E+00;  0.0000000E+00; -4.0712643E-02;  1.7966617E+03;
  9.7644877E-01;  9.9999998E-03; -1.3004802E-01;8075;  1.3451674E+00;  0.0000000E+00;  9.6102739E-03;  1.0005237E+03;  1.1866671E-01;  4.3323737E+02;3;  5.6738594E+01;  0.0000000E+00; -5.6448293E+00;0;  1.8320347E+00;  2.8521523E+04;  0.0000000E+00;  2.4956681E-01;  4.0000000E+04;  0.0000000E+00;  3.9878719E+04;  1.8785442E+00;  0.0000000E+00; -4.6509515E-02;  2.3722935E+03;
  9.7613752E-01;  9.9999998E-03; -1.2003348E-01;8076;  1.3482863E+00;  0.0000000E+00;  8.7720873E-03;  1.0003716E+03;  1.1867160E-01;  3.0740036E+02;3;  6.1662273E+01;  0.0000000E+00; -5.5822177E+00;0;  1.7485580E+00;  2.8506035E+04;  0.0000000E+00;  2.4148370E-01;  4.0000000E+04;  0.0000000E+00;  3.9882594E+04;  1.7998546E+00;  0.0000000E+00; -5.1296573E-02;  2.8488269E+03;
  9.7578752E-01;  9.9999998E-03; -1.1001661E-01;8077;  1.3497800E+00;  0.0000000E+00;  8.0089653E-03;  1.0002809E+03;  1.1867701E-01;  2.3245047E+02;3;  6.4046898E+01;  0.0000000E+00; -5.5365524E+00;0;  1.6752890E+00;  2.8494354E+04;  0.0000000E+00;  2.1844435E-01;  4.0000000E+04;  0.0000000E+00;  3.9885609E+04;  1.7305957E+00;  0.0000000E+00; -5.5306669E-02;  3.1979524E+03;
  9.8938942E-01;  9.9999998E-03; -2.7043980E-01;8122;  1.3270609E+00;  0.0000000E+00;  7.0121381E-03;  1.0050413E+03;  1.1772536E-01;  4.1693481E+03;3; -6.6078674E+01;  0.0000000E+00;  6.5460482E+00;0;  3.6541028E+00;  2.9312324E+04;  0.0000000E+00; -1.0780420E+00;  4.0000000E+04;  0.0000000E+00;  3.9786379E+04;  3.5676930E+00;  0.0000000E+00;  8.6409830E-02;  9.9428584E+03;
  9.8916703E-01;  9.9999998E-03; -2.6038334E-01;8123;  1.3222849E+00;  0.0000000E+00; -7.4762097E-03;  1.0052544E+03;  1.1773518E-01;  4.3455527E+03;3; -6.2551971E+01;  0.0000000E+00;  3.0583136E+00;0;  3.6616328E+00;  2.9294727E+04;  0.0000000E+00; -9.0746742E-01;  4.0000000E+04;  0.0000000E+00;  3.9820695E+04;  3.4476712E+00;  0.0000000E+00;  2.1396156E-01;  5.7597061E+03;
  9.8892373E-01;  9.9999998E-03; -2.5032458E-01;8124;  1.3138772E+00;  0.0000000E+00; -1.6962111E-03;  1.0052723E+03;  1.1774644E-01;  4.3603691E+03;3; -5.7608982E+01;  0.0000000E+00; -1.3165771E+01;0;  3.4471164E+00;  2.9273912E+04;  0.0000000E+00; -7.3581988E-01;  4.0000000E+04;  0.0000000E+00;  3.9843266E+04;  3.3164318E+00;  0.0000000E+00;  1.3068469E-01;  3.0579211E+03;
  9.8877442E-01;  9.9999998E-03; -2.4029396E-01;8125;  1.3075989E+00;  0.0000000E+00;  8.3611403E-03;  1.0049686E+03;  1.1775441E-01;  4.1091763E+03;3; -5.1448521E+01;  0.0000000E+00; -1.7233335E+01;0;  3.2335162E+00;  2.9251533E+04;  0.0000000E+00; -5.7504398E-01;  4.0000000E+04;  0.0000000E+00;  3.9844559E+04;  3.1752355E+00;  0.0000000E+00;  5.8280788E-02;  2.8009377E+03;
  9.8874438E-01;  9.9999998E-03; -2.3026757E-01;8126;  1.3045789E+00;  0.0000000E+00;  1.1301379E-02;  1.0045919E+03;  1.1775827E-01;  3.7976313E+03;3; -4.3973618E+01;  0.0000000E+00; -1.7380604E+01;0;  3.0648828E+00;  2.9228090E+04;  0.0000000E+00; -4.2942429E-01;  4.0000000E+04;  0.0000000E+00;  3.9844660E+04;  3.0245905E+00;  0.0000000E+00;  4.0292185E-02;  2.7062908E+03;
  9.8875725E-01;  9.9999998E-03; -2.2024462E-01;8127;  1.3039142E+00;  0.0000000E+00;  1.1851773E-02;  1.0041647E+03;  1.1776172E-01;  3.4443782E+03;3; -3.5468037E+01;  0.0000000E+00; -1.7745184E+01;0;  2.8972244E+00;  2.9202121E+04;  0.0000000E+00; -3.0157056E-01;  4.0000000E+04;  0.0000000E+00;  3.9844773E+04;  2.8662908E+00;  0.0000000E+00;  3.0933656E-02;  2.5882544E+03;
  9.8879057E-01;  9.9999998E-03; -2.1022482E-01;8128;  1.3051155E+00;  0.0000000E+00;  1.1597074E-02;  1.0037028E+03;  1.1776429E-01;  3.0624336E+03;3; -2.5927870E+01;  0.0000000E+00; -1.8033302E+01;0;  2.7233007E+00;  2.9173791E+04;  0.0000000E+00; -1.9355100E-01;  4.0000000E+04;  0.0000000E+00;  3.9846023E+04;  2.7021344E+00;  0.0000000E+00;  2.1166207E-02;  2.3636199E+03;
  9.8882252E-01;  9.9999998E-03; -2.0019168E-01;8129;  1.3078837E+00;  0.0000000E+00;  1.1047395E-02;  1.0032242E+03;  1.1776634E-01;  2.6665889E+03;3; -1.5452729E+01;  0.0000000E+00; -1.8072676E+01;0;  2.5443163E+00;  2.9143035E+04;  0.0000000E+00; -1.0351668E-01;  4.0000000E+04;  0.0000000E+00;  3.9849402E+04;  2.5342259E+00;  0.0000000E+00;  1.0090251E-02;  1.8913247E+03;
  9.8884791E-01;  9.9999998E-03; -1.9015041E-01;8130;  1.3119953E+00;  0.0000000E+00;  1.0413642E-02;  1.0027231E+03;  1.1776864E-01;  2.2521111E+03;3; -4.1474576E+00;  0.0000000E+00; -1.7733074E+01;0;  2.3636179E+00;  2.9110361E+04;  0.0000000E+00; -2.7836077E-02;  4.0000000E+04;  0.0000000E+00;  3.9853621E+04;  2.3653691E+00;  0.0000000E+00; -1.7512594E-03;  1.3158658E+03;
  9.8885906E-01;  9.9999998E-03; -1.8010807E-01;8131;  1.3172107E+00;  0.0000000E+00;  9.7811278E-03;  1.0022084E+03;  1.1777035E-01;  1.8264937E+03;3;  7.8890777E+00;  0.0000000E+00; -1.7045864E+01;0;  2.1850538E+00;  2.9076248E+04;  0.0000000E+00;  3.8064010E-02;  4.0000000E+04;  0.0000000E+00;  3.9858629E+04;  2.1987717E+00;  0.0000000E+00; -1.3717857E-02;  6.5821039E+02;
  9.8884881E-01;  9.9999998E-03; -1.7006840E-01;8132;  1.3234632E+00;  0.0000000E+00;  9.2150606E-03;  1.0016958E+03;  1.1777202E-01;  1.4024548E+03;3;  2.0444874E+01;  0.0000000E+00; -1.5883203E+01;0;  2.0123587E+00;  2.9041295E+04;  0.0000000E+00;  9.8004699E-02;  4.0000000E+04;  0.0000000E+00;  3.9864750E+04;  2.0376656E+00;  0.0000000E+00; -2.5306907E-02;  3.0951813E+02;
  9.8880708E-01;  9.9999998E-03; -1.6003591E-01;8133;  1.3304355E+00;  0.0000000E+00;  8.8962764E-03;  1.0011937E+03;  1.1777417E-01;  9.8719128E+02;3;  3.2804131E+01;  0.0000000E+00; -1.3906908E+01;0;  1.8488978E+00;  2.9005828E+04;  0.0000000E+00;  1.5612979E-01;  4.0000000E+04;  0.0000000E+00;  3.9871660E+04;  1.8850137E+00;  0.0000000E+00; -3.6115933E-02;  1.1221431E+03;
  9.8871028E-01;  9.9999998E-03; -1.5001832E-01;8134;  1.3374079E+00;  0.0000000E+00;  8.9219790E-03;  1.0007054E+03;  1.1777714E-01;  5.8336420E+02;3;  4.4262943E+01;  0.0000000E+00; -1.1729638E+01;0;  1.6977425E+00;  2.8970264E+04;  0.0000000E+00;  2.1418282E-01;  4.0000000E+04;  0.0000000E+00;  3.9878855E+04;  1.7435302E+00;  0.0000000E+00; -4.5787647E-02;  2.0547876E+03;
  9.8854035E-01;  9.9999998E-03; -1.4001334E-01;8135;  1.3435341E+00;  0.0000000E+00;  8.7615689E-03;  1.0002358E+03;  1.1778146E-01;  1.9501428E+02;3;  5.4213669E+01;  0.0000000E+00; -9.5797234E+00;0;  1.5608525E+00;  2.8935209E+04;  0.0000000E+00;  2.6940238E-01;  4.0000000E+04;  0.0000000E+00;  3.9885852E+04;  1.6149143E+00;  0.0000000E+00; -5.4061823E-02;  2.9577344E+03;
  9.8832273E-01;  9.9999998E-03; -1.3001080E-01;8136;  1.3474410E+00;  0.0000000E+00;  8.3004748E-03;  9.9978668E+02;  1.1778618E-01; -1.7643076E+02;3;  6.0096973E+01;  0.0000000E+00; -8.6297159E+00;0;  1.4379795E+00;  2.8901348E+04;  0.0000000E+00;  3.1507537E-01;  4.0000000E+04;  0.0000000E+00;  3.9892035E+04;  1.4988233E+00;  0.0000000E+00; -6.0843851E-02;  3.7671653E+03;
  9.8806065E-01;  9.9999998E-03; -1.2000706E-01;8137;  1.3488532E+00;  0.0000000E+00;  7.6080598E-03;  9.9936700E+02;  1.1779160E-01; -5.2352808E+02;3;  6.2558159E+01;  0.0000000E+00; -8.3304815E+00;0;  1.3287468E+00;  2.8869354E+04;  0.0000000E+00;  3.4289432E-01;  4.0000000E+04;  0.0000000E+00;  3.9897160E+04;  1.3949244E+00;  0.0000000E+00; -6.6177592E-02;  4.4474307E+03;
  9.8776549E-01;  9.9999998E-03; -1.1000206E-01;8138;  1.3497053E+00;  0.0000000E+00;  6.9816983E-03;  9.9898181E+02;  1.1779730E-01; -8.4208807E+02;3;  6.4414474E+01;  0.0000000E+00; -8.0263376E+00;0;  1.2321714E+00;  2.8839877E+04;  0.0000000E+00;  3.4650165E-01;  4.0000000E+04;  0.0000000E+00;  3.9901277E+04;  1.3024589E+00;  0.0000000E+00; -7.0287421E-02;  4.9790186E+03;
  9.9978757E-01;  9.9999998E-03; -1.1003924E-01;8199;  1.3492707E+00;  0.0000000E+00;  6.7068259E-03;  9.9755402E+02;  1.1688096E-01; -2.0223107E+03;3;  6.4586037E+01;  0.0000000E+00; -1.0473506E+01;0;  9.1040432E-01;  2.9205549E+04;  0.0000000E+00;  3.7269983E-01;  4.0000000E+04;  0.0000000E+00;  3.9913980E+04;  9.9744743E-01;  0.0000000E+00; -8.7043114E-02;  6.3752725E+03;
  1.0000203E+00;  9.9999998E-03; -1.2003612E-01;8198;  1.3488662E+00;  0.0000000E+00;  7.2916597E-03;  9.9820013E+02;  1.1687499E-01; -1.4881028E+03;3;  6.2924469E+01;  0.0000000E+00; -1.0898774E+01;0;  1.0212758E+00;  2.9250516E+04;  0.0000000E+00;  3.5416767E-01;  4.0000000E+04;  0.0000000E+00;  3.9909402E+04;  1.1043946E+00;  0.0000000E+00; -8.3118856E-02;  5.7572998E+03;
  1.0002345E+00;  9.9999998E-03; -1.3003206E-01;8197;  1.3482957E+00;  0.0000000E+00;  7.9473918E-03;  9.9884741E+02;  1.1686939E-01; -9.5291760E+02;3;  6.1265083E+01;  0.0000000E+00; -1.1278082E+01;0;  1.1458372E+00;  2.9296342E+04;  0.0000000E+00;  3.0765000E-01;  4.0000000E+04;  0.0000000E+00;  3.9903812E+04;  1.2234085E+00;  0.0000000E+00; -7.7571250E-02;  4.9916655E+03;
  1.0006294E+00;  9.9999998E-03; -2.3019505E-01;8187;  1.3550960E+00;  0.0000000E+00;  1.0812357E-02;  1.0041011E+03;  1.1683909E-01;  3.3906836E+03;3; -1.8280634E+01;  0.0000000E+00; -1.8018486E+01;0;  2.9231045E+00;  2.9659527E+04;  0.0000000E+00; -5.7816470E-01;  4.0000000E+04;  0.0000000E+00;  3.9853160E+04;  2.8701210E+00;  0.0000000E+00;  5.2983586E-02;  2.0383861E+03;
  1.0006117E+00;  9.9999998E-03; -2.2017311E-01;8188;  1.3464068E+00;  0.0000000E+00;  1.2476785E-02;  1.0036962E+03;  1.1684387E-01;  3.0558845E+03;3; -1.2867232E+01;  0.0000000E+00; -1.7115372E+01;0;  2.7416584E+00;  2.9634965E+04;  0.0000000E+00; -4.7768751E-01;  4.0000000E+04;  0.0000000E+00;  3.9851418E+04;  2.7053883E+00;  0.0000000E+00;  3.6270197E-02;  2.1243921E+03;
  1.0007145E+00;  9.9999998E-03; -2.4022786E-01;8186;  1.3674234E+00;  0.0000000E+00;  6.4745811E-03;  1.0044349E+03;  1.1683150E-01;  3.6666355E+03;3; -2.2375593E+01;  0.0000000E+00; -2.0199682E+01;0;  3.1081266E+00;  2.9681812E+04;  0.0000000E+00; -6.6527569E-01;  4.0000000E+04;  0.0000000E+00;  3.9854465E+04;  3.0252492E+00;  0.0000000E+00;  8.2877398E-02;  1.9972644E+03;
  1.0006256E+00;  9.9999998E-03; -2.1015753E-01;8189;  1.3404562E+00;  0.0000000E+00;  1.2752230E-02;  1.0032611E+03;  1.1684710E-01;  2.6961475E+03;3; -6.0963426E+00;  0.0000000E+00; -1.7101664E+01;0;  2.5550859E+00;  2.9607756E+04;  0.0000000E+00; -3.7727571E-01;  4.0000000E+04;  0.0000000E+00;  3.9851699E+04;  2.5331099E+00;  0.0000000E+00;  2.1975953E-02;  1.9894623E+03;
  1.0006407E+00;  9.9999998E-03; -2.0012987E-01;8190;  1.3365101E+00;  0.0000000E+00;  1.2372922E-02;  1.0028068E+03;  1.1685006E-01;  2.3205422E+03;3;  1.8605669E+00;  0.0000000E+00; -1.7449778E+01;0;  2.3629239E+00;  2.9577365E+04;  0.0000000E+00; -2.8306061E-01;  4.0000000E+04;  0.0000000E+00;  3.9855195E+04;  2.3555560E+00;  0.0000000E+00;  7.3678265E-03;  1.4950687E+03;
  1.0004228E+00;  9.9999998E-03; -1.4002666E-01;8196;  1.3461361E+00;  0.0000000E+00;  8.4570330E-03;  9.9948639E+02;  1.1686476E-01; -4.2463895E+02;3;  5.7656754E+01;  0.0000000E+00; -1.2102969E+01;0;  1.2846527E+00;  2.9342123E+04;  0.0000000E+00;  2.3894566E-01;  4.0000000E+04;  0.0000000E+00;  3.9897102E+04;  1.3548028E+00;  0.0000000E+00; -7.0150182E-02;  4.0937798E+03;
  1.0009249E+00;  9.9999998E-03; -2.5026831E-01;8185;  1.3846724E+00;  0.0000000E+00; -1.6916543E-03;  1.0046636E+03;  1.1682061E-01;  3.8556436E+03;3; -2.5806053E+01;  0.0000000E+00; -1.8013958E+01;0;  3.3202038E+00;  2.9702289E+04;  0.0000000E+00; -7.2804803E-01;  4.0000000E+04;  0.0000000E+00;  3.9852617E+04;  3.1686072E+00;  0.0000000E+00;  1.5159656E-01;  2.2336948E+03;
  1.0006560E+00;  9.9999998E-03; -1.9009684E-01;8191;  1.3344280E+00;  0.0000000E+00;  1.1672579E-02;  1.0023226E+03;  1.1685239E-01;  1.9202985E+03;3;  1.0929326E+01;  0.0000000E+00; -1.7702490E+01;0;  2.1679981E+00;  2.9544201E+04;  0.0000000E+00; -1.9554788E-01;  4.0000000E+04;  0.0000000E+00;  3.9860082E+04;  2.1755950E+00;  0.0000000E+00; -7.5968704E-03;  8.3157202E+02;
  1.0006657E+00;  9.9999998E-03; -1.8006501E-01;8192;  1.3342285E+00;  0.0000000E+00;  1.0803162E-02;  1.0018065E+03;  1.1685381E-01;  1.4935430E+03;3;  2.0836498E+01;  0.0000000E+00; -1.7656511E+01;0;  1.9742011E+00;  2.9508396E+04;  0.0000000E+00; -1.1027905E-01;  4.0000000E+04;  0.0000000E+00;  3.9866262E+04;  1.9966100E+00;  0.0000000E+00; -2.2408931E-02;  2.3218129E+02;
  1.0005683E+00;  9.9999998E-03; -1.5002126E-01;8195;  1.3427862E+00;  0.0000000E+00;  8.8326121E-03;  1.0001035E+03;  1.1686024E-01;  8.5548317E+01;3;  5.0412422E+01;  0.0000000E+00; -1.3539156E+01;0;  1.4380002E+00;  2.9386836E+04;  0.0000000E+00;  1.5614493E-01;  4.0000000E+04;  0.0000000E+00;  3.9889516E+04;  1.4987563E+00;  0.0000000E+00; -6.0756113E-02;  3.0901504E+03;
  1.0006653E+00;  9.9999998E-03; -1.7003855E-01;8193;  1.3358586E+00;  0.0000000E+00;  9.9637201E-03;  1.0012626E+03;  1.1685535E-01;  1.0439229E+03;3;  3.1319292E+01;  0.0000000E+00; -1.6992706E+01;0;  1.7854949E+00;  2.9470168E+04;  0.0000000E+00; -2.2681795E-02;  4.0000000E+04;  0.0000000E+00;  3.9873457E+04;  1.8220221E+00;  0.0000000E+00; -3.6527105E-02;  1.0017274E+03;
  1.0006516E+00;  9.9999998E-03; -1.6002318E-01;8194;  1.3389765E+00;  0.0000000E+00;  9.2922943E-03;  1.0006973E+03;  1.1685701E-01;  5.7646411E+02;3;  4.1375633E+01;  0.0000000E+00; -1.5605766E+01;0;  1.6054934E+00;  2.9429684E+04;  0.0000000E+00;  6.7046493E-02;  4.0000000E+04;  0.0000000E+00;  3.9881457E+04;  1.6549557E+00;  0.0000000E+00; -4.9462270E-02;  2.0325531E+03;
  1.0012634E+00;  9.9999998E-03; -2.6033649E-01;8184;  1.4068319E+00;  0.0000000E+00; -5.3429040E-03;  1.0045375E+03;  1.1680612E-01;  3.7513311E+03;3; -2.8813185E+01;  0.0000000E+00; -5.1575265E+00;0;  3.5192580E+00;  2.9720580E+04;  0.0000000E+00; -7.6557463E-01;  4.0000000E+04;  0.0000000E+00;  3.9827820E+04;  3.2992747E+00;  0.0000000E+00;  2.1998341E-01;  5.0224893E+03;
  1.0015734E+00;  9.9999998E-03; -2.7039382E-01;8183;  1.4176500E+00;  0.0000000E+00;  6.6150413E-03;  1.0042864E+03;  1.1679310E-01;  3.5437378E+03;3; -3.1424891E+01;  0.0000000E+00; -4.9929686E+00;0;  3.5367134E+00;  2.9735607E+04;  0.0000000E+00; -7.3743892E-01;  4.0000000E+04;  0.0000000E+00;  3.9796957E+04;  3.4166486E+00;  0.0000000E+00;  1.2006483E-01;  8.7265518E+03;
  1.0117666E+00;  9.9999998E-03; -1.1010537E-01;8260;  1.3486165E+00;  0.0000000E+00;  7.1644019E-03;  9.9626025E+02;  1.1594216E-01; -3.0907429E+03;3;  6.4604042E+01;  0.0000000E+00; -1.3005550E+01;0;  7.1048033E-01;  2.9600268E+04;  0.0000000E+00;  2.9209685E-01;  4.0000000E+04;  0.0000000E+00;  3.9922641E+04;  8.1639141E-01;  0.0000000E+00; -1.0591111E-01;  7.2756279E+03;
  1.0125445E+00;  9.9999998E-03; -2.3014373E-01;8248;  1.3956385E+00;  0.0000000E+00;  1.0600645E-02;  1.0031980E+03;  1.1589545E-01;  2.6429397E+03;3;  2.1287453E+00;  0.0000000E+00; -2.3709927E+01;0;  2.7237296E+00;  3.0086539E+04;  0.0000000E+00; -7.5445604E-01;  4.0000000E+04;  0.0000000E+00;  3.9862348E+04;  2.6592684E+00;  0.0000000E+00;  6.4461239E-02;  1.5401316E+03;
  1.0124829E+00;  9.9999998E-03; -2.2012517E-01;8249;  1.3809576E+00;  0.0000000E+00;  1.2682625E-02;  1.0028475E+03;  1.1590225E-01;  2.3532039E+03;3;  4.3577108E+00;  0.0000000E+00; -2.1685040E+01;0;  2.5487132E+00;  3.0064652E+04;  0.0000000E+00; -6.5945941E-01;  4.0000000E+04;  0.0000000E+00;  3.9859195E+04;  2.5077603E+00;  0.0000000E+00;  4.0952910E-02;  1.6434451E+03;
  1.0124556E+00;  9.9999998E-03; -2.1011609E-01;8250;  1.3692355E+00;  0.0000000E+00;  1.3437768E-02;  1.0024705E+03;  1.1590686E-01;  2.0416918E+03;3;  8.1924820E+00;  0.0000000E+00; -2.0140682E+01;0;  2.3683212E+00;  3.0039914E+04;  0.0000000E+00; -5.5361384E-01;  4.0000000E+04;  0.0000000E+00;  3.9858938E+04;  2.3470745E+00;  0.0000000E+00;  2.1246560E-02;  1.5253005E+03;
  1.0119299E+00;  9.9999998E-03; -1.2009268E-01;8259;  1.3485725E+00;  0.0000000E+00;  7.7728247E-03;  9.9709485E+02;  1.1593701E-01; -2.4009358E+03;3;  6.3063869E+01;  0.0000000E+00; -1.3630529E+01;0;  8.2758468E-01;  2.9656111E+04;  0.0000000E+00;  2.7160361E-01;  4.0000000E+04;  0.0000000E+00;  3.9918207E+04;  9.2986345E-01;  0.0000000E+00; -1.0227875E-01;  6.6456865E+03;
  1.0124364E+00;  9.9999998E-03; -2.0009825E-01;8251;  1.3596961E+00;  0.0000000E+00;  1.3517020E-02;  1.0020776E+03;  1.1591103E-01;  1.7169768E+03;3;  1.3456909E+01;  0.0000000E+00; -1.9364458E+01;0;  2.1816118E+00;  3.0011604E+04;  0.0000000E+00; -4.4781074E-01;  4.0000000E+04;  0.0000000E+00;  3.9862586E+04;  2.1792977E+00;  0.0000000E+00;  2.3139843E-03;  1.0737848E+03;
  1.0126709E+00;  9.9999998E-03; -2.4017933E-01;8247;  1.4148055E+00;  0.0000000E+00;  6.3106003E-03;  1.0034722E+03;  1.1588617E-01;  2.8695176E+03;3;  1.5145940E+00;  0.0000000E+00; -2.5476421E+01;0;  2.9009519E+00;  3.0106193E+04;  0.0000000E+00; -8.2050538E-01;  4.0000000E+04;  0.0000000E+00;  3.9864402E+04;  2.7997193E+00;  0.0000000E+00;  1.0123247E-01;  1.5036616E+03;
  1.0124335E+00;  9.9999998E-03; -1.9007778E-01;8252;  1.3523698E+00;  0.0000000E+00;  1.3134441E-02;  1.0016438E+03;  1.1591391E-01;  1.3584690E+03;3;  2.0235579E+01;  0.0000000E+00; -1.9214428E+01;0;  1.9907913E+00;  2.9979939E+04;  0.0000000E+00; -3.4631243E-01;  4.0000000E+04;  0.0000000E+00;  3.9868043E+04;  2.0069711E+00;  0.0000000E+00; -1.6179839E-02;  6.7653943E+02;
  1.0120946E+00;  9.9999998E-03; -1.3007943E-01;8258;  1.3484687E+00;  0.0000000E+00;  8.4546264E-03;  9.9790515E+02;  1.1593197E-01; -1.7312839E+03;3;  6.1786831E+01;  0.0000000E+00; -1.4266684E+01;0;  9.5814902E-01;  2.9711662E+04;  0.0000000E+00;  2.2457714E-01;  4.0000000E+04;  0.0000000E+00;  3.9912828E+04;  1.0548198E+00;  0.0000000E+00; -9.6670784E-02;  5.8866792E+03;
  1.0124446E+00;  9.9999998E-03; -1.8005966E-01;8253;  1.3475881E+00;  0.0000000E+00;  1.2409704E-02;  1.0011622E+03;  1.1591578E-01;  9.6055310E+02;3;  2.8335556E+01;  0.0000000E+00; -1.9543510E+01;0;  1.7993376E+00;  2.9944805E+04;  0.0000000E+00; -2.4633001E-01;  4.0000000E+04;  0.0000000E+00;  3.9874828E+04;  1.8333154E+00;  0.0000000E+00; -3.3977695E-02;  1.0558772E+03;
  1.0122460E+00;  9.9999998E-03; -1.4006634E-01;8257;  1.3475142E+00;  0.0000000E+00;  9.0806289E-03;  9.9867493E+02;  1.1592690E-01; -1.0950879E+03;3;  5.8484230E+01;  0.0000000E+00; -1.5376813E+01;0;  1.1024307E+00;  2.9765373E+04;  0.0000000E+00;  1.5367413E-01;  4.0000000E+04;  0.0000000E+00;  3.9906184E+04;  1.1911929E+00;  0.0000000E+00; -8.8762127E-02;  5.0071885E+03;
  1.0124665E+00;  9.9999998E-03; -1.7004786E-01;8254;  1.3453338E+00;  0.0000000E+00;  1.1502242E-02;  1.0006294E+03;  1.1591732E-01;  5.2017609E+02;3;  3.7165958E+01;  0.0000000E+00; -1.9223524E+01;0;  1.6110767E+00;  2.9906100E+04;  0.0000000E+00; -1.4323421E-01;  4.0000000E+04;  0.0000000E+00;  3.9882633E+04;  1.6617122E+00;  0.0000000E+00; -5.0635483E-02;  1.9509471E+03;
  1.0123693E+00;  9.9999998E-03; -1.5005431E-01;8256;  1.3461932E+00;  0.0000000E+00;  9.7196586E-03;  9.9938892E+02;  1.1592296E-01; -5.0500604E+02;3;  5.2957798E+01;  0.0000000E+00; -1.6781767E+01;0;  1.2601291E+00;  2.9816186E+04;  0.0000000E+00;  6.4071879E-02;  4.0000000E+04;  0.0000000E+00;  3.9898734E+04;  1.3385189E+00;  0.0000000E+00; -7.8389756E-02;  4.0253984E+03;
  1.0124496E+00;  9.9999998E-03; -1.6004668E-01;8255;  1.3451060E+00;  0.0000000E+00;  1.0579203E-02;  1.0000415E+03;  1.1591928E-01;  3.4284348E+01;3;  4.5468697E+01;  0.0000000E+00; -1.8237171E+01;0;  1.4302757E+00;  2.9863246E+04;  0.0000000E+00; -3.7417579E-02;  4.0000000E+04;  0.0000000E+00;  3.9890742E+04;  1.4958725E+00;  0.0000000E+00; -6.5596804E-02;  2.9822727E+03;
  1.0129166E+00;  9.9999998E-03; -2.5022602E-01;8246;  1.4400734E+00;  0.0000000E+00;  1.1147199E-04;  1.0036190E+03;  1.1587344E-01;  2.9908638E+03;3;  1.1624594E+00;  0.0000000E+00; -2.4481268E+01;0;  3.0914476E+00;  3.0123744E+04;  0.0000000E+00; -8.5128844E-01;  4.0000000E+04;  0.0000000E+00;  3.9861934E+04;  2.9268177E+00;  0.0000000E+00;  1.6462989E-01;  1.6520386E+03;
  1.0133164E+00;  9.9999998E-03; -2.6029164E-01;8245;  1.4711574E+00;  0.0000000E+00; -3.6040482E-03;  1.0034743E+03;  1.1585685E-01;  2.8712214E+03;3; -1.3303505E+00;  0.0000000E+00; -1.8226923E+01;0;  3.2741239E+00;  3.0139152E+04;  0.0000000E+00; -8.7196887E-01;  4.0000000E+04;  0.0000000E+00;  3.9841797E+04;  3.0388041E+00;  0.0000000E+00;  2.3531990E-01;  3.5749624E+03;
  1.0136839E+00;  9.9999998E-03; -2.7035126E-01;8244;  1.4855213E+00;  0.0000000E+00;  2.9813205E-03;  1.0031682E+03;  1.1584115E-01;  2.6181001E+03;3; -6.0217972E+00;  0.0000000E+00; -1.8694918E+01;0;  3.3385808E+00;  3.0151230E+04;  0.0000000E+00; -7.9806310E-01;  4.0000000E+04;  0.0000000E+00;  3.9812934E+04;  3.1375442E+00;  0.0000000E+00;  2.0103660E-01;  6.8940239E+03;
  1.0236331E+00;  9.9999998E-03; -1.1014671E-01;8321;  1.3477923E+00;  0.0000000E+00;  8.3167786E-03;  9.9528687E+02;  1.1499733E-01; -3.8933125E+03;3;  6.4624039E+01;  0.0000000E+00; -1.5535522E+01;0;  6.2374282E-01;  3.0027342E+04;  0.0000000E+00;  1.4497839E-01;  4.0000000E+04;  0.0000000E+00;  3.9927277E+04;  7.5050682E-01;  0.0000000E+00; -1.2676398E-01;  7.6725601E+03;
  1.0237195E+00;  9.9999998E-03; -1.2012956E-01;8320;  1.3480641E+00;  0.0000000E+00;  9.0365252E-03;  9.9621771E+02;  1.1499325E-01; -3.1243674E+03;3;  6.3116646E+01;  0.0000000E+00; -1.6514425E+01;0;  7.4035144E-01;  3.0088893E+04;  0.0000000E+00;  1.2667875E-01;  4.0000000E+04;  0.0000000E+00;  3.9923141E+04;  8.6371392E-01;  0.0000000E+00; -1.2336247E-01;  7.0728530E+03;
  1.0238249E+00;  9.9999998E-03; -1.3011299E-01;8319;  1.3482939E+00;  0.0000000E+00;  9.8175909E-03;  9.9711505E+02;  1.1498875E-01; -2.3830969E+03;3;  6.1368034E+01;  0.0000000E+00; -1.7545952E+01;0;  8.6921585E-01;  3.0149377E+04;  0.0000000E+00;  8.7609068E-02;  4.0000000E+04;  0.0000000E+00;  3.9918258E+04;  9.8688859E-01;  0.0000000E+00; -1.1767273E-01;  6.3755098E+03;
  1.0239418E+00;  9.9999998E-03; -1.4009793E-01;8318;  1.3483300E+00;  0.0000000E+00;  1.0665418E-02;  9.9795697E+02;  1.1498421E-01; -1.6876224E+03;3;  5.7919064E+01;  0.0000000E+00; -1.9017809E+01;0;  1.0099846E+00;  3.0207197E+04;  0.0000000E+00;  2.6812550E-02;  4.0000000E+04;  0.0000000E+00;  3.9912402E+04;  1.1192816E+00;  0.0000000E+00; -1.0929709E-01;  5.5839287E+03;
  1.0240536E+00;  9.9999998E-03; -1.5008493E-01;8317;  1.3487210E+00;  0.0000000E+00;  1.1670738E-02;  9.9872156E+02;  1.1497963E-01; -1.0560636E+03;3;  5.2670372E+01;  0.0000000E+00; -2.0523310E+01;0;  1.1617713E+00;  3.0261117E+04;  0.0000000E+00; -5.4281443E-02;  4.0000000E+04;  0.0000000E+00;  3.9905816E+04;  1.2597598E+00;  0.0000000E+00; -9.7988538E-02;  4.7055522E+03;
  1.0241477E+00;  9.9999998E-03; -1.6007607E-01;8316;  1.3500372E+00;  0.0000000E+00;  1.2892903E-02;  9.9939880E+02;  1.1497550E-01; -4.9659256E+02;3;  4.5871792E+01;  0.0000000E+00; -2.1794760E+01;0;  1.3230581E+00;  3.0310307E+04;  0.0000000E+00; -1.5109207E-01;  4.0000000E+04;  0.0000000E+00;  3.9898582E+04;  1.4068111E+00;  0.0000000E+00; -8.3753027E-02;  3.7646033E+03;
  1.0242033E+00;  9.9999998E-03; -1.7007251E-01;8315;  1.3533248E+00;  0.0000000E+00;  1.4129749E-02;  9.9999121E+02;  1.1497203E-01; -7.2376485E+00;3;  3.8186821E+01;  0.0000000E+00; -2.2640892E+01;0;  1.4916140E+00;  3.0354229E+04;  0.0000000E+00; -2.5587115E-01;  4.0000000E+04;  0.0000000E+00;  3.9890840E+04;  1.5584656E+00;  0.0000000E+00; -6.6851616E-02;  2.8110874E+03;
  1.0242044E+00;  9.9999998E-03; -1.8007411E-01;8314;  1.3593639E+00;  0.0000000E+00;  1.5136514E-02;  1.0005003E+03;  1.1496909E-01;  4.1328448E+02;3;  3.0933681E+01;  0.0000000E+00; -2.3436440E+01;0;  1.6646231E+00;  3.0392750E+04;  0.0000000E+00; -3.6464116E-01;  4.0000000E+04;  0.0000000E+00;  3.9883355E+04;  1.7123826E+00;  0.0000000E+00; -4.7759436E-02;  1.9281487E+03;
  1.0241936E+00;  9.9999998E-03; -1.9008087E-01;8313;  1.3683168E+00;  0.0000000E+00;  1.5733480E-02;  1.0009390E+03;  1.1496654E-01;  7.7565961E+02;3;  2.5135597E+01;  0.0000000E+00; -2.4187338E+01;0;  1.8384562E+00;  3.0426564E+04;  0.0000000E+00; -4.8032254E-01;  4.0000000E+04;  0.0000000E+00;  3.9876355E+04;  1.8655261E+00;  0.0000000E+00; -2.7069870E-02;  1.2708016E+03;
  1.0242131E+00;  9.9999998E-03; -2.0008978E-01;8312;  1.3798627E+00;  0.0000000E+00;  1.5871637E-02;  1.0013178E+03;  1.1496229E-01;  1.0886010E+03;3;  2.1055618E+01;  0.0000000E+00; -2.5409567E+01;0;  2.0092902E+00;  3.0456375E+04;  0.0000000E+00; -6.0778803E-01;  4.0000000E+04;  0.0000000E+00;  3.9870609E+04;  2.0145307E+00;  0.0000000E+00; -5.2403235E-03;  1.0991243E+03;
  1.0242670E+00;  9.9999998E-03; -2.1009882E-01;8311;  1.3934683E+00;  0.0000000E+00;  1.5684824E-02;  1.0016501E+03;  1.1495680E-01;  1.3630375E+03;3;  1.8431177E+01;  0.0000000E+00; -2.6928934E+01;0;  2.1739664E+00;  3.0482623E+04;  0.0000000E+00; -7.5162059E-01;  4.0000000E+04;  0.0000000E+00;  3.9866887E+04;  2.1565652E+00;  0.0000000E+00;  1.7401213E-02;  1.3417123E+03;
  1.0243390E+00;  9.9999998E-03; -2.2010310E-01;8310;  1.4090624E+00;  0.0000000E+00;  1.5073941E-02;  1.0019635E+03;  1.1494998E-01;  1.6219130E+03;3;  1.7048117E+01;  0.0000000E+00; -2.8813913E+01;0;  2.3304958E+00;  3.0505379E+04;  0.0000000E+00; -9.1184700E-01;  4.0000000E+04;  0.0000000E+00;  3.9866945E+04;  2.2896430E+00;  0.0000000E+00;  4.0852826E-02;  1.5786899E+03;
  1.0244350E+00;  9.9999998E-03; -2.3011844E-01;8309;  1.4274596E+00;  0.0000000E+00;  1.3315798E-02;  1.0022557E+03;  1.1494185E-01;  1.8632570E+03;3;  1.6919577E+01;  0.0000000E+00; -3.0944849E+01;0;  2.4800742E+00;  3.0524857E+04;  0.0000000E+00; -1.0809009E+00;  4.0000000E+04;  0.0000000E+00;  3.9870195E+04;  2.4124427E+00;  0.0000000E+00;  6.7631423E-02;  1.7862838E+03;
  1.0245728E+00;  9.9999998E-03; -2.4015342E-01;8308;  1.4502709E+00;  0.0000000E+00;  9.6484888E-03;  1.0024726E+03;  1.1493213E-01;  2.0424606E+03;3;  1.8109465E+01;  0.0000000E+00; -3.2812244E+01;0;  2.6294091E+00;  3.0541701E+04;  0.0000000E+00; -1.2430001E+00;  4.0000000E+04;  0.0000000E+00;  3.9872289E+04;  2.5238397E+00;  0.0000000E+00;  1.0556927E-01;  2.0272737E+03;
  1.0248127E+00;  9.9999998E-03; -2.5019899E-01;8307;  1.4779623E+00;  0.0000000E+00;  4.4494197E-03;  1.0025764E+03;  1.1491989E-01;  2.1282051E+03;3;  1.9947479E+01;  0.0000000E+00; -3.2154926E+01;0;  2.7867217E+00;  3.0556322E+04;  0.0000000E+00; -1.4039167E+00;  4.0000000E+04;  0.0000000E+00;  3.9870570E+04;  2.6217649E+00;  0.0000000E+00;  1.6495690E-01;  2.2320168E+03;
  1.0252212E+00;  9.9999998E-03; -2.6025763E-01;8306;  1.5119667E+00;  0.0000000E+00; -5.5886590E-04;  1.0024504E+03;  1.1490320E-01;  2.0239883E+03;3;  1.7345501E+01;  0.0000000E+00; -2.7655945E+01;0;  2.9501679E+00;  3.0569049E+04;  0.0000000E+00; -1.6423899E+00;  4.0000000E+04;  0.0000000E+00;  3.9856336E+04;  2.7040129E+00;  0.0000000E+00;  2.4615492E-01;  3.0635520E+03;
  1.0256232E+00;  9.9999998E-03; -2.7031937E-01;8305;  1.5276538E+00;  0.0000000E+00;  4.2305603E-03;  1.0020899E+03;  1.1488608E-01;  1.7261931E+03;3;  1.3748763E+01;  0.0000000E+00; -2.5821054E+01;0;  3.0092082E+00;  3.0578455E+04;  0.0000000E+00; -1.8069760E+00;  4.0000000E+04;  0.0000000E+00;  3.9827879E+04;  2.7744753E+00;  0.0000000E+00;  2.3473293E-01;  5.7736113E+03;
  1.0352725E+00;  9.9999998E-03; -1.1013956E-01;8382;  1.3468536E+00;  0.0000000E+00;  1.0162224E-02;  9.9467920E+02;  1.1406291E-01; -4.3928413E+03;3;  6.4347534E+01;  0.0000000E+00; -1.7926647E+01;0;  6.3673443E-01;  3.0482654E+04;  0.0000000E+00; -1.3459713E-02;  4.0000000E+04;  0.0000000E+00;  3.9928051E+04;  7.8558624E-01;  0.0000000E+00; -1.4885181E-01;  7.6147642E+03;
  1.0353343E+00;  9.9999998E-03; -1.2012905E-01;8381;  1.3473690E+00;  0.0000000E+00;  1.1176806E-02;  9.9562091E+02;  1.1405791E-01; -3.6153677E+03;3;  6.3051056E+01;  0.0000000E+00; -1.9607023E+01;0;  7.4755889E-01;  3.0545564E+04;  0.0000000E+00; -3.4988414E-02;  4.0000000E+04;  0.0000000E+00;  3.9924359E+04;  8.9315891E-01;  0.0000000E+00; -1.4560004E-01;  7.0611372E+03;
  1.0353954E+00;  9.9999998E-03; -1.3011830E-01;8380;  1.3481292E+00;  0.0000000E+00;  1.2214704E-02;  9.9653442E+02;  1.1405392E-01; -2.8611748E+03;3;  6.0443573E+01;  0.0000000E+00; -2.1248545E+01;0;  8.6836642E-01;  3.0606996E+04;  0.0000000E+00; -6.8658143E-02;  4.0000000E+04;  0.0000000E+00;  3.9920074E+04;  1.0080903E+00;  0.0000000E+00; -1.3972384E-01;  6.4512349E+03;
  1.0354824E+00;  9.9999998E-03; -1.4010899E-01;8379;  1.3492441E+00;  0.0000000E+00;  1.3489500E-02;  9.9739221E+02;  1.1404923E-01; -2.1529451E+03;3;  5.6222084E+01;  0.0000000E+00; -2.3126135E+01;0;  9.9841195E-01;  3.0665887E+04;  0.0000000E+00; -1.1764008E-01;  4.0000000E+04;  0.0000000E+00;  3.9915320E+04;  1.1292119E+00;  0.0000000E+00; -1.3079995E-01;  5.7831797E+03;
  1.0355909E+00;  9.9999998E-03; -1.5010214E-01;8378;  1.3513850E+00;  0.0000000E+00;  1.4987988E-02;  9.9817682E+02;  1.1404418E-01; -1.5051980E+03;3;  5.0500168E+01;  0.0000000E+00; -2.4614399E+01;0;  1.1362045E+00;  3.0721010E+04;  0.0000000E+00; -1.8324371E-01;  4.0000000E+04;  0.0000000E+00;  3.9909863E+04;  1.2547277E+00;  0.0000000E+00; -1.1852323E-01;  5.0543320E+03;
  1.0357097E+00;  9.9999998E-03; -1.6009840E-01;8377;  1.3551937E+00;  0.0000000E+00;  1.6733792E-02;  9.9886505E+02;  1.1403838E-01; -9.3697839E+02;3;  4.3750530E+01;  0.0000000E+00; -2.6273085E+01;0;  1.2796613E+00;  3.0771201E+04;  0.0000000E+00; -2.6315743E-01;  4.0000000E+04;  0.0000000E+00;  3.9903906E+04;  1.3825263E+00;  0.0000000E+00; -1.0286494E-01;  4.2705591E+03;
  1.0358227E+00;  9.9999998E-03; -1.7009814E-01;8376;  1.3616523E+00;  0.0000000E+00;  1.8378479E-02;  9.9946063E+02;  1.1403306E-01; -4.4528479E+02;3;  3.7034897E+01;  0.0000000E+00; -2.7514345E+01;0;  1.4261039E+00;  3.0816080E+04;  0.0000000E+00; -3.5441926E-01;  4.0000000E+04;  0.0000000E+00;  3.9897363E+04;  1.5102316E+00;  0.0000000E+00; -8.4127702E-02;  3.4549280E+03;
  1.0359081E+00;  9.9999998E-03; -1.8009953E-01;8375;  1.3712056E+00;  0.0000000E+00;  1.9651491E-02;  9.9996210E+02;  1.1402781E-01; -3.1296259E+01;3;  3.1777153E+01;  0.0000000E+00; -2.8774662E+01;0;  1.5725564E+00;  3.0855283E+04;  0.0000000E+00; -4.6269503E-01;  4.0000000E+04;  0.0000000E+00;  3.9890574E+04;  1.6354163E+00;  0.0000000E+00; -6.2859878E-02;  2.6577078E+03;
  1.0359502E+00;  9.9999998E-03; -1.9010064E-01;8374;  1.3836020E+00;  0.0000000E+00;  2.0414356E-02;  1.0003774E+03;  1.1402284E-01;  3.1158408E+02;3;  2.8585705E+01;  0.0000000E+00; -3.0139067E+01;0;  1.7162360E+00;  3.0888926E+04;  0.0000000E+00; -5.9895378E-01;  4.0000000E+04;  0.0000000E+00;  3.9884059E+04;  1.7559410E+00;  0.0000000E+00; -3.9705064E-02;  1.9827362E+03;
  1.0359854E+00;  9.9999998E-03; -2.0010224E-01;8373;  1.3981705E+00;  0.0000000E+00;  2.0836601E-02;  1.0007216E+03;  1.1401735E-01;  5.9570911E+02;3;  2.7035095E+01;  0.0000000E+00; -3.1542530E+01;0;  1.8543204E+00;  3.0917865E+04;  0.0000000E+00; -7.7715409E-01;  4.0000000E+04;  0.0000000E+00;  3.9878176E+04;  1.8696865E+00;  0.0000000E+00; -1.5366059E-02;  1.6182899E+03;
  1.0360460E+00;  9.9999998E-03; -2.1010415E-01;8372;  1.4143635E+00;  0.0000000E+00;  2.1004269E-02;  1.0010162E+03;  1.1401095E-01;  8.3889117E+02;3;  2.6465872E+01;  0.0000000E+00; -3.3132492E+01;0;  1.9840999E+00;  3.0942998E+04;  0.0000000E+00; -1.0113250E+00;  4.0000000E+04;  0.0000000E+00;  3.9874203E+04;  1.9746206E+00;  0.0000000E+00;  9.4792927E-03;  1.7081733E+03;
  1.0361278E+00;  9.9999998E-03; -2.2010608E-01;8371;  1.4321342E+00;  0.0000000E+00;  2.0866711E-02;  1.0012842E+03;  1.1400396E-01;  1.0601240E+03;3;  2.6837624E+01;  0.0000000E+00; -3.4544689E+01;0;  2.1038272E+00;  3.0964250E+04;  0.0000000E+00; -1.3131640E+00;  4.0000000E+04;  0.0000000E+00;  3.9873531E+04;  2.0695379E+00;  0.0000000E+00;  3.4289379E-02;  2.1190369E+03;
  1.0362390E+00;  9.9999998E-03; -2.3011911E-01;8370;  1.4521227E+00;  0.0000000E+00;  1.9878138E-02;  1.0015255E+03;  1.1399505E-01;  1.2594065E+03;3;  2.8091040E+01;  0.0000000E+00; -3.6042114E+01;0;  2.2138908E+00;  3.0982273E+04;  0.0000000E+00; -1.6909055E+00;  4.0000000E+04;  0.0000000E+00;  3.9875613E+04;  2.1537409E+00;  0.0000000E+00;  6.0149837E-02;  2.7097217E+03;
  1.0363786E+00;  9.9999998E-03; -2.4015053E-01;8369;  1.4752344E+00;  0.0000000E+00;  1.7270606E-02;  1.0016987E+03;  1.1398575E-01;  1.4022936E+03;3;  3.0358370E+01;  0.0000000E+00; -3.7416641E+01;0;  2.3198988E+00;  3.0997418E+04;  0.0000000E+00; -2.1428499E+00;  4.0000000E+04;  0.0000000E+00;  3.9876949E+04;  2.2272274E+00;  0.0000000E+00;  9.2671297E-02;  3.3966292E+03;
  1.0365731E+00;  9.9999998E-03; -2.5018907E-01;8368;  1.5020105E+00;  0.0000000E+00;  1.2704489E-02;  1.0017891E+03;  1.1397523E-01;  1.4769742E+03;3;  3.2906464E+01;  0.0000000E+00; -3.6959621E+01;0;  2.4330201E+00;  3.1009365E+04;  0.0000000E+00; -2.6681683E+00;  4.0000000E+04;  0.0000000E+00;  3.9876633E+04;  2.2897124E+00;  0.0000000E+00;  1.4330770E-01;  4.1696968E+03;
  1.0368123E+00;  9.9999998E-03; -2.6023689E-01;8367;  1.5344597E+00;  0.0000000E+00;  7.2783353E-03;  1.0017239E+03;  1.1396639E-01;  1.4231245E+03;3;  2.8382845E+01;  0.0000000E+00; -3.0063700E+01;0;  2.5620198E+00;  3.1017172E+04;  0.0000000E+00; -3.2336781E+00;  4.0000000E+04;  0.0000000E+00;  3.9868551E+04;  2.3424592E+00;  0.0000000E+00;  2.1956053E-01;  4.9997612E+03;
  1.0370789E+00;  9.9999998E-03; -2.7029744E-01;8366;  1.5476506E+00;  0.0000000E+00;  1.1827803E-02;  1.0013586E+03;  1.1395607E-01;  1.1215765E+03;3;  2.3603762E+01;  0.0000000E+00; -2.7950531E+01;0;  2.5861979E+00;  3.1021869E+04;  0.0000000E+00; -3.6404529E+00;  4.0000000E+04;  0.0000000E+00;  3.9841676E+04;  2.3864923E+00;  0.0000000E+00;  1.9970550E-01;  6.6134800E+03;
  1.0465438E+00;  9.9999998E-03; -1.1010650E-01;8443;  1.3458872E+00;  0.0000000E+00;  1.2703063E-02;  9.9439062E+02;  1.1315686E-01; -4.6281621E+03;3;  6.4001236E+01;  0.0000000E+00; -2.0477280E+01;0;  7.3110300E-01;  3.0954699E+04;  0.0000000E+00; -1.3768658E-01;  4.0000000E+04;  0.0000000E+00;  3.9925625E+04;  9.0203553E-01;  0.0000000E+00; -1.7093253E-01;  7.1924575E+03;
  1.0465944E+00;  9.9999998E-03; -1.2010678E-01;8442;  1.3468589E+00;  0.0000000E+00;  1.4158344E-02;  9.9527844E+02;  1.1315123E-01; -3.8956406E+03;3;  6.1804024E+01;  0.0000000E+00; -2.2661341E+01;0;  8.3240110E-01;  3.1015248E+04;  0.0000000E+00; -1.6980921E-01;  4.0000000E+04;  0.0000000E+00;  3.9922223E+04;  9.9999285E-01;  0.0000000E+00; -1.6759175E-01;  6.6793765E+03;
  1.0466758E+00;  9.9999998E-03; -1.3010499E-01;8441;  1.3483773E+00;  0.0000000E+00;  1.5797609E-02;  9.9614941E+02;  1.1314493E-01; -3.1769856E+03;3;  5.7871582E+01;  0.0000000E+00; -2.4924641E+01;0;  9.4082373E-01;  3.1075451E+04;  0.0000000E+00; -2.0582265E-01;  4.0000000E+04;  0.0000000E+00;  3.9918695E+04;  1.1022612E+00;  0.0000000E+00; -1.6143747E-01;  6.1603008E+03;
  1.0467840E+00;  9.9999998E-03; -1.4010283E-01;8440;  1.3509259E+00;  0.0000000E+00;  1.7741209E-02;  9.9698157E+02;  1.1313807E-01; -2.4903972E+03;3;  5.3045414E+01;  0.0000000E+00; -2.7129889E+01;0;  1.0549005E+00;  3.1133898E+04;  0.0000000E+00; -2.4805306E-01;  4.0000000E+04;  0.0000000E+00;  3.9915008E+04;  1.2068173E+00;  0.0000000E+00; -1.5191670E-01;  5.6278760E+03;
  1.0469147E+00;  9.9999998E-03; -1.5010159E-01;8439;  1.3551748E+00;  0.0000000E+00;  1.9893173E-02;  9.9775153E+02;  1.1313016E-01; -1.8551077E+03;3;  4.6738388E+01;  0.0000000E+00; -2.9162340E+01;0;  1.1726780E+00;  3.1189102E+04;  0.0000000E+00; -2.9836106E-01;  4.0000000E+04;  0.0000000E+00;  3.9911059E+04;  1.3113313E+00;  0.0000000E+00; -1.3865328E-01;  5.0684570E+03;
  1.0470545E+00;  9.9999998E-03; -1.6010296E-01;8438;  1.3617268E+00;  0.0000000E+00;  2.2291061E-02;  9.9844604E+02;  1.1312303E-01; -1.2820848E+03;3;  4.0553131E+01;  0.0000000E+00; -3.0640984E+01;0;  1.2916988E+00;  3.1239883E+04;  0.0000000E+00; -3.5734648E-01;  4.0000000E+04;  0.0000000E+00;  3.9906551E+04;  1.4132947E+00;  0.0000000E+00; -1.2159583E-01;  4.4700112E+03;
  1.0472031E+00;  9.9999998E-03; -1.7010684E-01;8437;  1.3712205E+00;  0.0000000E+00;  2.4485534E-02;  9.9905328E+02;  1.1311550E-01; -7.8106586E+02;3;  3.5621357E+01;  0.0000000E+00; -3.1987257E+01;0;  1.4091411E+00;  3.1285816E+04;  0.0000000E+00; -4.3325529E-01;  4.0000000E+04;  0.0000000E+00;  3.9901539E+04;  1.5102907E+00;  0.0000000E+00; -1.0114971E-01;  3.8338508E+03;
  1.0473593E+00;  9.9999998E-03; -1.8011197E-01;8436;  1.3837128E+00;  0.0000000E+00;  2.6254639E-02;  9.9957019E+02;  1.1310828E-01; -3.5460626E+02;3;  3.2761330E+01;  0.0000000E+00; -3.3298206E+01;0;  1.5220196E+00;  3.1326430E+04;  0.0000000E+00; -5.4427987E-01;  4.0000000E+04;  0.0000000E+00;  3.9896121E+04;  1.6000587E+00;  0.0000000E+00; -7.8038998E-02;  3.1864021E+03;
  1.0475162E+00;  9.9999998E-03; -1.9011740E-01;8435;  1.3986592E+00;  0.0000000E+00;  2.7577752E-02;  9.9999750E+02;  1.1310046E-01; -2.0653610E+00;3;  3.1764109E+01;  0.0000000E+00; -3.4718102E+01;0;  1.6276346E+00;  3.1362031E+04;  0.0000000E+00; -7.1687466E-01;  4.0000000E+04;  0.0000000E+00;  3.9890469E+04;  1.6807712E+00;  0.0000000E+00; -5.3136595E-02;  2.6025564E+03;
  1.0476573E+00;  9.9999998E-03; -2.0012198E-01;8434;  1.4151264E+00;  0.0000000E+00;  2.8554766E-02;  1.0003492E+03;  1.1309281E-01;  2.8806613E+02;3;  3.1981850E+01;  0.0000000E+00; -3.6124050E+01;0;  1.7239933E+00;  3.1392693E+04;  0.0000000E+00; -9.8314190E-01;  4.0000000E+04;  0.0000000E+00;  3.9884984E+04;  1.7513884E+00;  0.0000000E+00; -2.7395146E-02;  2.2536992E+03;
  1.0477691E+00;  9.9999998E-03; -2.1012625E-01;8433;  1.4327064E+00;  0.0000000E+00;  2.9233590E-02;  1.0006335E+03;  1.1308502E-01;  5.2262640E+02;3;  3.3011330E+01;  0.0000000E+00; -3.7280350E+01;0;  1.8098836E+00;  3.1418770E+04;  0.0000000E+00; -1.3793904E+00;  4.0000000E+04;  0.0000000E+00;  3.9880500E+04;  1.8117558E+00;  0.0000000E+00; -1.8722069E-03;  2.3775632E+03;
  1.0478551E+00;  9.9999998E-03; -2.2013122E-01;8432;  1.4510391E+00;  0.0000000E+00;  2.9525887E-02;  1.0008775E+03;  1.1307814E-01;  7.2394287E+02;3;  3.4514103E+01;  0.0000000E+00; -3.8162460E+01;0;  1.8846859E+00;  3.1440104E+04;  0.0000000E+00; -1.9429784E+00;  4.0000000E+04;  0.0000000E+00;  3.9878008E+04;  1.8623209E+00;  0.0000000E+00;  2.2364983E-02;  3.0440420E+03;
  1.0479029E+00;  9.9999998E-03; -2.3014131E-01;8431;  1.4706124E+00;  0.0000000E+00;  2.9060643E-02;  1.0010890E+03;  1.1307226E-01;  8.9841028E+02;3;  3.6393398E+01;  0.0000000E+00; -3.8996880E+01;0;  1.9495370E+00;  3.1456707E+04;  0.0000000E+00; -2.6890042E+00;  4.0000000E+04;  0.0000000E+00;  3.9878301E+04;  1.9043313E+00;  0.0000000E+00;  4.5205697E-02;  4.1254224E+03;
  1.0479168E+00;  9.9999998E-03; -2.4016269E-01;8430;  1.4924982E+00;  0.0000000E+00;  2.7157759E-02;  1.0012583E+03;  1.1306820E-01;  1.0380637E+03;3;  3.8933804E+01;  0.0000000E+00; -3.9869736E+01;0;  2.0095193E+00;  3.1469045E+04;  0.0000000E+00; -3.5635450E+00;  4.0000000E+04;  0.0000000E+00;  3.9879578E+04;  1.9392915E+00;  0.0000000E+00;  7.0227951E-02;  5.4356685E+03;
  1.0479581E+00;  9.9999998E-03; -2.5019187E-01;8429;  1.5183871E+00;  0.0000000E+00;  2.2519190E-02;  1.0013688E+03;  1.1306440E-01;  1.1292294E+03;3;  4.2011318E+01;  0.0000000E+00; -4.0371021E+01;0;  2.0799592E+00;  3.1477949E+04;  0.0000000E+00; -4.4743943E+00;  4.0000000E+04;  0.0000000E+00;  3.9880688E+04;  1.9674658E+00;  0.0000000E+00;  1.1249337E-01;  6.8104224E+03;
  1.0481746E+00;  9.9999998E-03; -2.6022792E-01;8428;  1.5464851E+00;  0.0000000E+00;  1.6514177E-02;  1.0013593E+03;  1.1305683E-01;  1.1213464E+03;3;  3.0756706E+01;  0.0000000E+00; -2.8922031E+01;0;  2.1695836E+00;  3.1484045E+04;  0.0000000E+00; -5.5558791E+00;  4.0000000E+04;  0.0000000E+00;  3.9878309E+04;  1.9861646E+00;  0.0000000E+00;  1.8341888E-01;  8.4464902E+03;
  1.0484419E+00;  9.9999998E-03; -2.7028358E-01;8427;  1.5539953E+00;  0.0000000E+00;  2.1200716E-02;  1.0010033E+03;  1.1304728E-01;  8.2766986E+02;3;  2.3275894E+01;  0.0000000E+00; -2.6481392E+01;0;  2.1469743E+00;  3.1486336E+04;  0.0000000E+00; -6.4475603E+00;  4.0000000E+04;  0.0000000E+00;  3.9855043E+04;  1.9987122E+00;  0.0000000E+00;  1.4826211E-01;  1.0036772E+04;
  1.0577002E+00;  9.9999998E-03; -1.1006596E-01;8504;  1.3452568E+00;  0.0000000E+00;  1.5911240E-02;  9.9432172E+02;  1.1227864E-01; -4.6815225E+03;3;  6.2240623E+01;  0.0000000E+00; -2.3331455E+01;0;  8.9031684E-01;  3.1437861E+04;  0.0000000E+00; -2.0443062E-01;  4.0000000E+04;  0.0000000E+00;  3.9920945E+04;  1.0826523E+00;  0.0000000E+00; -1.9233550E-01;  6.5201909E+03;
  1.0577284E+00;  9.9999998E-03; -1.2009024E-01;8503;  1.3469942E+00;  0.0000000E+00;  1.8107357E-02;  9.9510040E+02;  1.1227299E-01; -4.0395283E+03;3;  5.8568352E+01;  0.0000000E+00; -2.6126745E+01;0;  9.7840393E-01;  3.1492395E+04;  0.0000000E+00; -2.5013918E-01;  4.0000000E+04;  0.0000000E+00;  3.9917656E+04;  1.1669567E+00;  0.0000000E+00; -1.8855271E-01;  6.0390293E+03;
  1.0577846E+00;  9.9999998E-03; -1.3009842E-01;8502;  1.3498718E+00;  0.0000000E+00;  2.0612748E-02;  9.9588544E+02;  1.1226650E-01; -3.3922720E+03;3;  5.3558655E+01;  0.0000000E+00; -2.8860683E+01;0;  1.0700284E+00;  3.1547646E+04;  0.0000000E+00; -2.9321599E-01;  4.0000000E+04;  0.0000000E+00;  3.9914746E+04;  1.2517984E+00;  0.0000000E+00; -1.8177000E-01;  5.6026270E+03;
  1.0578666E+00;  9.9999998E-03; -1.4010519E-01;8501;  1.3544238E+00;  0.0000000E+00;  2.3407085E-02;  9.9665765E+02;  1.1225939E-01; -2.7555813E+03;3;  4.7203636E+01;  0.0000000E+00; -3.1219538E+01;0;  1.1634445E+00;  3.1602377E+04;  0.0000000E+00; -3.3359650E-01;  4.0000000E+04;  0.0000000E+00;  3.9912098E+04;  1.3348359E+00;  0.0000000E+00; -1.7139134E-01;  5.2003179E+03;
  1.0579708E+00;  9.9999998E-03; -1.5011142E-01;8500;  1.3613250E+00;  0.0000000E+00;  2.6341993E-02;  9.9739862E+02;  1.1225170E-01; -2.1446934E+03;3;  4.0983334E+01;  0.0000000E+00; -3.3041950E+01;0;  1.2564268E+00;  3.1655348E+04;  0.0000000E+00; -3.7207204E-01;  4.0000000E+04;  0.0000000E+00;  3.9909492E+04;  1.4134221E+00;  0.0000000E+00; -1.5699524E-01;  4.8081792E+03;
  1.0580949E+00;  9.9999998E-03; -1.6011640E-01;8499;  1.3707114E+00;  0.0000000E+00;  2.9338580E-02;  9.9808521E+02;  1.1224345E-01; -1.5786281E+03;3;  3.6349766E+01;  0.0000000E+00; -3.4285042E+01;0;  1.3464200E+00;  3.1705361E+04;  0.0000000E+00; -4.1501459E-01;  4.0000000E+04;  0.0000000E+00;  3.9906590E+04;  1.4849839E+00;  0.0000000E+00; -1.3856383E-01;  4.3983203E+03;
  1.0582337E+00;  9.9999998E-03; -1.7012057E-01;8498;  1.3827294E+00;  0.0000000E+00;  3.2019354E-02;  9.9870642E+02;  1.1223527E-01; -1.0664784E+03;3;  3.3943497E+01;  0.0000000E+00; -3.5357525E+01;0;  1.4306036E+00;  3.1751674E+04;  0.0000000E+00; -4.8476547E-01;  4.0000000E+04;  0.0000000E+00;  3.9903367E+04;  1.5472022E+00;  0.0000000E+00; -1.1659863E-01;  3.9545662E+03;
  1.0583838E+00;  9.9999998E-03; -1.8012418E-01;8497;  1.3969892E+00;  0.0000000E+00;  3.4261540E-02;  9.9925275E+02;  1.1222715E-01; -6.1605731E+02;3;  3.3360790E+01;  0.0000000E+00; -3.6429054E+01;0;  1.5063461E+00;  3.1793691E+04;  0.0000000E+00; -6.1857277E-01;  4.0000000E+04;  0.0000000E+00;  3.9899500E+04;  1.5983468E+00;  0.0000000E+00; -9.2000760E-02;  3.4908301E+03;
  1.0585444E+00;  9.9999998E-03; -1.9012767E-01;8496;  1.4130350E+00;  0.0000000E+00;  3.6059074E-02;  9.9972089E+02;  1.1221923E-01; -2.3011588E+02;3;  3.4019852E+01;  0.0000000E+00; -3.7400330E+01;0;  1.5715374E+00;  3.1831311E+04;  0.0000000E+00; -8.6053222E-01;  4.0000000E+04;  0.0000000E+00;  3.9895180E+04;  1.6374358E+00;  0.0000000E+00; -6.5898389E-02;  3.0820017E+03;
  1.0587108E+00;  9.9999998E-03; -2.0013198E-01;8495;  1.4302157E+00;  0.0000000E+00;  3.7431199E-02;  1.0001144E+03;  1.1221128E-01;  9.4246605E+01;3;  3.5414162E+01;  0.0000000E+00; -3.8310291E+01;0;  1.6248144E+00;  3.1864371E+04;  0.0000000E+00; -1.2584813E+00;  4.0000000E+04;  0.0000000E+00;  3.9890754E+04;  1.6643426E+00;  0.0000000E+00; -3.9528266E-02;  2.9071929E+03;
  1.0588831E+00;  9.9999998E-03; -2.1013547E-01;8494;  1.4480348E+00;  0.0000000E+00;  3.8429029E-02;  1.0004442E+03;  1.1220323E-01;  3.6617142E+02;3;  3.7257977E+01;  0.0000000E+00; -3.9146927E+01;0;  1.6654260E+00;  3.1892836E+04;  0.0000000E+00; -1.8668755E+00;  4.0000000E+04;  0.0000000E+00;  3.9887039E+04;  1.6797109E+00;  0.0000000E+00; -1.4284887E-02;  3.2481885E+03;
  1.0590534E+00;  9.9999998E-03; -2.2014003E-01;8493;  1.4662201E+00;  0.0000000E+00;  3.8982671E-02;  1.0007241E+03;  1.1219571E-01;  5.9691284E+02;3;  3.9323318E+01;  0.0000000E+00; -3.9935795E+01;0;  1.6933208E+00;  3.1916746E+04;  0.0000000E+00; -2.7512128E+00;  4.0000000E+04;  0.0000000E+00;  3.9885066E+04;  1.6849492E+00;  0.0000000E+00;  8.3716502E-03;  4.2759219E+03;
  1.0592158E+00;  9.9999998E-03; -2.3014797E-01;8492;  1.4856144E+00;  0.0000000E+00;  3.8633153E-02;  1.0009615E+03;  1.1218832E-01;  7.9266400E+02;3;  4.1665409E+01;  0.0000000E+00; -4.0745483E+01;0;  1.7101488E+00;  3.1935811E+04;  0.0000000E+00; -3.9781442E+00;  4.0000000E+04;  0.0000000E+00;  3.9885879E+04;  1.6819830E+00;  0.0000000E+00;  2.8165832E-02;  6.0073955E+03;
  1.0593482E+00;  9.9999998E-03; -2.4016747E-01;8491;  1.5072218E+00;  0.0000000E+00;  3.6280468E-02;  1.0011439E+03;  1.1218198E-01;  9.4301129E+02;3;  4.4190990E+01;  0.0000000E+00; -4.1195110E+01;0;  1.7242287E+00;  3.1949883E+04;  0.0000000E+00; -5.5503621E+00;  4.0000000E+04;  0.0000000E+00;  3.9887441E+04;  1.6735945E+00;  0.0000000E+00;  5.0634298E-02;  8.3221064E+03;
  1.0594630E+00;  9.9999998E-03; -2.5019738E-01;8490;  1.5307070E+00;  0.0000000E+00;  3.1625744E-02;  1.0012294E+03;  1.1217693E-01;  1.0134632E+03;3;  4.6768085E+01;  0.0000000E+00; -4.1496254E+01;0;  1.7491416E+00;  3.1959066E+04;  0.0000000E+00; -7.3463030E+00;  4.0000000E+04;  0.0000000E+00;  3.9887188E+04;  1.6623493E+00;  0.0000000E+00;  8.6792231E-02;  1.0987098E+04;
  1.0596542E+00;  9.9999998E-03; -2.6022926E-01;8489;  1.5510271E+00;  0.0000000E+00;  2.5274970E-02;  1.0012133E+03;  1.1217057E-01;  1.0001824E+03;3;  2.8861191E+01;  0.0000000E+00; -2.8974165E+01;0;  1.8000481E+00;  3.1963922E+04;  0.0000000E+00; -9.2944822E+00;  4.0000000E+04;  0.0000000E+00;  3.9885863E+04;  1.6480830E+00;  0.0000000E+00;  1.5196520E-01;  1.3947163E+04;
  1.0598673E+00;  9.9999998E-03; -2.7027670E-01;8488;  1.5555530E+00;  0.0000000E+00;  2.7539974E-02;  1.0008964E+03;  1.1216231E-01;  7.3887323E+02;3;  2.3262383E+01;  0.0000000E+00; -2.4331604E+01;0;  1.7658334E+00;  3.1963869E+04;  0.0000000E+00; -1.0722894E+01;  4.0000000E+04;  0.0000000E+00;  3.9868117E+04;  1.6317214E+00;  0.0000000E+00;  1.3411196E-01;  1.6133607E+04;
  1.0706224E+00;  9.9999998E-03; -2.7027932E-01;8549;  1.5546790E+00;  0.0000000E+00;  2.9209655E-02;  1.0010027E+03;  1.1132039E-01;  8.2580731E+02;3;  2.3442005E+01;  0.0000000E+00; -2.3519817E+01;0;  1.4916087E+00;  3.2446438E+04;  0.0000000E+00; -1.2683024E+01;  4.0000000E+04;  0.0000000E+00;  3.9876137E+04;  1.3224679E+00;  0.0000000E+00;  1.6914079E-01;  1.8423674E+04;
  1.0704286E+00;  9.9999998E-03; -2.6023734E-01;8550;  1.5512086E+00;  0.0000000E+00;  3.4126319E-02;  1.0012722E+03;  1.1132810E-01;  1.0478143E+03;3;  2.5676786E+01;  0.0000000E+00; -3.3292633E+01;0;  1.4765981E+00;  3.2445545E+04;  0.0000000E+00; -1.1361122E+01;  4.0000000E+04;  0.0000000E+00;  3.9891152E+04;  1.3646244E+00;  0.0000000E+00;  1.1197372E-01;  1.6491932E+04;
  1.0702685E+00;  9.9999998E-03; -2.5020981E-01;8551;  1.5383013E+00;  0.0000000E+00;  4.0239025E-02;  1.0012454E+03;  1.1133379E-01;  1.0257373E+03;3;  4.6564449E+01;  0.0000000E+00; -3.9120377E+01;0;  1.4673531E+00;  3.2438994E+04;  0.0000000E+00; -9.2806435E+00;  4.0000000E+04;  0.0000000E+00;  3.9891688E+04;  1.4074478E+00;  0.0000000E+00;  5.9905265E-02;  1.3412981E+04;
  1.0701253E+00;  9.9999998E-03; -2.4018064E-01;8552;  1.5174885E+00;  0.0000000E+00;  4.4833686E-02;  1.0011369E+03;  1.1133920E-01;  9.3640076E+02;3;  4.5748985E+01;  0.0000000E+00; -4.0272839E+01;0;  1.4816980E+00;  3.2427068E+04;  0.0000000E+00; -7.1126900E+00;  4.0000000E+04;  0.0000000E+00;  3.9892898E+04;  1.4515855E+00;  0.0000000E+00;  3.0112484E-02;  1.0315238E+04;
  1.0699737E+00;  9.9999998E-03; -2.3016202E-01;8553;  1.4976063E+00;  0.0000000E+00;  4.7372434E-02;  1.0009142E+03;  1.1134575E-01;  7.5299908E+02;3;  4.3286827E+01;  0.0000000E+00; -3.9567825E+01;0;  1.5077080E+00;  3.2409652E+04;  0.0000000E+00; -5.1779113E+00;  4.0000000E+04;  0.0000000E+00;  3.9891539E+04;  1.4962440E+00;  0.0000000E+00;  1.1463986E-02;  7.5811479E+03;
  1.0698117E+00;  9.9999998E-03; -2.2015174E-01;8554;  1.4794338E+00;  0.0000000E+00;  4.7940299E-02;  1.0006245E+03;  1.1135307E-01;  5.1431274E+02;3;  4.1190056E+01;  0.0000000E+00; -3.9057785E+01;0;  1.5324110E+00;  3.2386824E+04;  0.0000000E+00; -3.6205795E+00;  4.0000000E+04;  0.0000000E+00;  3.9890980E+04;  1.5381823E+00;  0.0000000E+00; -5.7713329E-03;  5.4886753E+03;
  1.0696505E+00;  9.9999998E-03; -2.1014766E-01;8555;  1.4619215E+00;  0.0000000E+00;  4.7450136E-02;  1.0002820E+03;  1.1136091E-01;  2.3231786E+02;3;  3.8880890E+01;  0.0000000E+00; -3.8625809E+01;0;  1.5473642E+00;  3.2359117E+04;  0.0000000E+00; -2.4463916E+00;  4.0000000E+04;  0.0000000E+00;  3.9892117E+04;  1.5740529E+00;  0.0000000E+00; -2.6688723E-02;  4.1209243E+03;
  1.0695000E+00;  9.9999998E-03; -2.0014720E-01;8556;  1.4449599E+00;  0.0000000E+00;  4.6344571E-02;  9.9988635E+02;  1.1136863E-01; -9.3625519E+01;3;  3.6468895E+01;  0.0000000E+00; -3.8264580E+01;0;  1.5498784E+00;  3.2327137E+04;  0.0000000E+00; -1.6032802E+00;  4.0000000E+04;  0.0000000E+00;  3.9894695E+04;  1.6009847E+00;  0.0000000E+00; -5.1106300E-02;  3.4703440E+03;
  1.0693655E+00;  9.9999998E-03; -1.9014879E-01;8557;  1.4284716E+00;  0.0000000E+00;  4.4801954E-02;  9.9943365E+02;  1.1137611E-01; -4.6651285E+02;3;  3.4154415E+01;  0.0000000E+00; -3.7832466E+01;0;  1.5391141E+00;  3.2291135E+04;  0.0000000E+00; -1.0347706E+00;  4.0000000E+04;  0.0000000E+00;  3.9897762E+04;  1.6166285E+00;  0.0000000E+00; -7.7514410E-02;  3.3867246E+03;
  1.0692475E+00;  9.9999998E-03; -1.8015069E-01;8558;  1.4126817E+00;  0.0000000E+00;  4.2787243E-02;  9.9891895E+02;  1.1138379E-01; -8.9046820E+02;3;  3.2197472E+01;  0.0000000E+00; -3.7339939E+01;0;  1.5150162E+00;  3.2251641E+04;  0.0000000E+00; -6.8715358E-01;  4.0000000E+04;  0.0000000E+00;  3.9900684E+04;  1.6192963E+00;  0.0000000E+00; -1.0428008E-01;  3.5939824E+03;
  1.0691438E+00;  9.9999998E-03; -1.7015070E-01;8559;  1.3977242E+00;  0.0000000E+00;  4.0354308E-02;  9.9834747E+02;  1.1139128E-01; -1.3612201E+03;3;  3.0799522E+01;  0.0000000E+00; -3.6639313E+01;0;  1.4781532E+00;  3.2208820E+04;  0.0000000E+00; -5.0340921E-01;  4.0000000E+04;  0.0000000E+00;  3.9903078E+04;  1.6080860E+00;  0.0000000E+00; -1.2993270E-01;  3.8738865E+03;
  1.0690534E+00;  9.9999998E-03; -1.6014645E-01;8560;  1.3842431E+00;  0.0000000E+00;  3.7419084E-02;  9.9772217E+02;  1.1139885E-01; -1.8763136E+03;3;  3.0483843E+01;  0.0000000E+00; -3.5971954E+01;0;  1.4298841E+00;  3.2163312E+04;  0.0000000E+00; -4.2183796E-01;  4.0000000E+04;  0.0000000E+00;  3.9904773E+04;  1.5830203E+00;  0.0000000E+00; -1.5313621E-01;  4.1346250E+03;
  1.0689744E+00;  9.9999998E-03; -1.5013711E-01;8561;  1.3724629E+00;  0.0000000E+00;  3.4113154E-02;  9.9705914E+02;  1.1140647E-01; -2.4224424E+03;3;  3.1450041E+01;  0.0000000E+00; -3.5306759E+01;0;  1.3722849E+00;  3.2115717E+04;  0.0000000E+00; -3.8561198E-01;  4.0000000E+04;  0.0000000E+00;  3.9906148E+04;  1.5451021E+00;  0.0000000E+00; -1.7281726E-01;  4.3695586E+03;
  1.0689082E+00;  9.9999998E-03; -1.4012289E-01;8562;  1.3625170E+00;  0.0000000E+00;  3.0564221E-02;  9.9637286E+02;  1.1141338E-01; -2.9877729E+03;3;  3.5054291E+01;  0.0000000E+00; -3.4356495E+01;0;  1.3078635E+00;  3.2066967E+04;  0.0000000E+00; -3.5460702E-01;  4.0000000E+04;  0.0000000E+00;  3.9907453E+04;  1.4962181E+00;  0.0000000E+00; -1.8835457E-01;  4.6111353E+03;
  1.0688574E+00;  9.9999998E-03; -1.3010003E-01;8563;  1.3547515E+00;  0.0000000E+00;  2.6903059E-02;  9.9568738E+02;  1.1142036E-01; -3.5524666E+03;3;  4.1085175E+01;  0.0000000E+00; -3.2911434E+01;0;  1.2390475E+00;  3.2017904E+04;  0.0000000E+00; -3.1416556E-01;  4.0000000E+04;  0.0000000E+00;  3.9909270E+04;  1.4387811E+00;  0.0000000E+00; -1.9973360E-01;  4.9008403E+03;
  1.0688275E+00;  9.9999998E-03; -1.2005541E-01;8564;  1.3493004E+00;  0.0000000E+00;  2.3311613E-02;  9.9501672E+02;  1.1142653E-01; -4.1049326E+03;3;  4.8700111E+01;  0.0000000E+00; -3.0482378E+01;0;  1.1680223E+00;  3.1969943E+04;  0.0000000E+00; -2.6455659E-01;  4.0000000E+04;  0.0000000E+00;  3.9911703E+04;  1.3754240E+00;  0.0000000E+00; -2.0740171E-01;  5.2698354E+03;
  1.0688124E+00;  9.9999998E-03; -1.1001679E-01;8565;  1.3457861E+00;  0.0000000E+00;  2.0060103E-02;  9.9438306E+02;  1.1143173E-01; -4.6269053E+03;3;  5.5704407E+01;  0.0000000E+00; -2.7042795E+01;0;  1.0969093E+00;  3.1923928E+04;  0.0000000E+00; -2.0878355E-01;  4.0000000E+04;  0.0000000E+00;  3.9914961E+04;  1.3088359E+00;  0.0000000E+00; -2.1192662E-01;  5.7266763E+03;
  1.0812120E+00;  9.9999998E-03; -2.7028683E-01;8610;  1.5533220E+00;  0.0000000E+00;  3.0800132E-02;  1.0011647E+03;  1.1051816E-01;  9.5827313E+02;3;  2.4065735E+01;  0.0000000E+00; -2.5206438E+01;0;  1.2587516E+00;  3.2922000E+04;  0.0000000E+00; -1.3312940E+01;  4.0000000E+04;  0.0000000E+00;  3.9882832E+04;  1.0611960E+00;  0.0000000E+00;  1.9755571E-01;  1.8560898E+04;
  1.0810223E+00;  9.9999998E-03; -2.6024970E-01;8611;  1.5503910E+00;  0.0000000E+00;  4.2103413E-02;  1.0013602E+03;  1.1052560E-01;  1.1191514E+03;3;  2.2906902E+01;  0.0000000E+00; -3.2808914E+01;0;  1.1996261E+00;  3.2918207E+04;  0.0000000E+00; -1.2277391E+01;  4.0000000E+04;  0.0000000E+00;  3.9895555E+04;  1.1256413E+00;  0.0000000E+00;  7.3984742E-02;  1.7114988E+04;
  1.0808761E+00;  9.9999998E-03; -2.5022992E-01;8612;  1.5430830E+00;  0.0000000E+00;  4.8769079E-02;  1.0012366E+03;  1.1053129E-01;  1.0174523E+03;3;  4.3471573E+01;  0.0000000E+00; -3.4108181E+01;0;  1.2214078E+00;  3.2907684E+04;  0.0000000E+00; -1.0408032E+01;  4.0000000E+04;  0.0000000E+00;  3.9893012E+04;  1.1938841E+00;  0.0000000E+00;  2.7523592E-02;  1.4395516E+04;
  1.0807499E+00;  9.9999998E-03; -2.4021135E-01;8613;  1.5250759E+00;  0.0000000E+00;  5.2837133E-02;  1.0010315E+03;  1.1053681E-01;  8.4875427E+02;3;  4.5204445E+01;  0.0000000E+00; -3.6141750E+01;0;  1.2726108E+00;  3.2891395E+04;  0.0000000E+00; -8.2912512E+00;  4.0000000E+04;  0.0000000E+00;  3.9891750E+04;  1.2649869E+00;  0.0000000E+00;  7.6238988E-03;  1.1437548E+04;
  1.0806197E+00;  9.9999998E-03; -2.3019555E-01;8614;  1.5079645E+00;  0.0000000E+00;  5.4755203E-02;  1.0007584E+03;  1.1054301E-01;  6.2404315E+02;3;  4.2414410E+01;  0.0000000E+00; -3.5999313E+01;0;  1.3361999E+00;  3.2869398E+04;  0.0000000E+00; -6.2517953E+00;  4.0000000E+04;  0.0000000E+00;  3.9891652E+04;  1.3404090E+00;  0.0000000E+00; -4.2091468E-03;  8.6889912E+03;
  1.0804842E+00;  9.9999998E-03; -2.2018592E-01;8615;  1.4918742E+00;  0.0000000E+00;  5.5231232E-02;  1.0004155E+03;  1.1055007E-01;  3.4194348E+02;3;  4.0037762E+01;  0.0000000E+00; -3.5600212E+01;0;  1.3978624E+00;  3.2842203E+04;  0.0000000E+00; -4.4920735E+00;  4.0000000E+04;  0.0000000E+00;  3.9892168E+04;  1.4163631E+00;  0.0000000E+00; -1.8500648E-02;  6.4303594E+03;
  1.0803558E+00;  9.9999998E-03; -2.1018310E-01;8616;  1.4765470E+00;  0.0000000E+00;  5.4823566E-02;  1.0000154E+03;  1.1055747E-01;  1.2751931E+01;3;  3.7445881E+01;  0.0000000E+00; -3.5489304E+01;0;  1.4510337E+00;  3.2810305E+04;  0.0000000E+00; -3.0763485E+00;  4.0000000E+04;  0.0000000E+00;  3.9893477E+04;  1.4888927E+00;  0.0000000E+00; -3.7858944E-02;  4.7970532E+03;
  1.0802450E+00;  9.9999998E-03; -2.0018639E-01;8617;  1.4615430E+00;  0.0000000E+00;  5.3747822E-02;  9.9956335E+02;  1.1056504E-01; -3.5931421E+02;3;  3.4289268E+01;  0.0000000E+00; -3.5099239E+01;0;  1.4929622E+00;  3.2774566E+04;  0.0000000E+00; -1.9982114E+00;  4.0000000E+04;  0.0000000E+00;  3.9895668E+04;  1.5543476E+00;  0.0000000E+00; -6.1385356E-02;  3.8426072E+03;
  1.0801544E+00;  9.9999998E-03; -1.9019282E-01;8618;  1.4470025E+00;  0.0000000E+00;  5.2166585E-02;  9.9906372E+02;  1.1057217E-01; -7.7042853E+02;3;  3.0624712E+01;  0.0000000E+00; -3.4813965E+01;0;  1.5220463E+00;  3.2735891E+04;  0.0000000E+00; -1.2347811E+00;  4.0000000E+04;  0.0000000E+00;  3.9898035E+04;  1.6095526E+00;  0.0000000E+00; -8.7506346E-02;  3.5045042E+03;
  1.0800844E+00;  9.9999998E-03; -1.8019906E-01;8619;  1.4330448E+00;  0.0000000E+00;  5.0201483E-02;  9.9851324E+02;  1.1057902E-01; -1.2234342E+03;3;  2.6618912E+01;  0.0000000E+00; -3.4485214E+01;0;  1.5373671E+00;  3.2694779E+04;  0.0000000E+00; -7.5072622E-01;  4.0000000E+04;  0.0000000E+00;  3.9899992E+04;  1.6518672E+00;  0.0000000E+00; -1.1450005E-01;  3.5296677E+03;
  1.0800322E+00;  9.9999998E-03; -1.7020056E-01;8620;  1.4197899E+00;  0.0000000E+00;  4.7733124E-02;  9.9792847E+02;  1.1058573E-01; -1.7046455E+03;3;  2.2575420E+01;  0.0000000E+00; -3.4230125E+01;0;  1.5387338E+00;  3.2652281E+04;  0.0000000E+00; -4.8940274E-01;  4.0000000E+04;  0.0000000E+00;  3.9901184E+04;  1.6794615E+00;  0.0000000E+00; -1.4072767E-01;  3.6564441E+03;
  1.0799917E+00;  9.9999998E-03; -1.6019367E-01;8621;  1.4068682E+00;  0.0000000E+00;  4.4909850E-02;  9.9731598E+02;  1.1059196E-01; -2.2086177E+03;3;  1.8582426E+01;  0.0000000E+00; -3.3833797E+01;0;  1.5267433E+00;  3.2608674E+04;  0.0000000E+00; -3.7650940E-01;  4.0000000E+04;  0.0000000E+00;  3.9901613E+04;  1.6914951E+00;  0.0000000E+00; -1.6475172E-01;  3.7661475E+03;
  1.0799595E+00;  9.9999998E-03; -1.5017368E-01;8622;  1.3942273E+00;  0.0000000E+00;  4.1703898E-02;  9.9669788E+02;  1.1059858E-01; -2.7172510E+03;3;  1.5327524E+01;  0.0000000E+00; -3.3616299E+01;0;  1.5028554E+00;  3.2565012E+04;  0.0000000E+00; -3.3609250E-01;  4.0000000E+04;  0.0000000E+00;  3.9901648E+04;  1.6882493E+00;  0.0000000E+00; -1.8539388E-01;  3.8582593E+03;
  1.0799341E+00;  9.9999998E-03; -1.4013243E-01;8623;  1.3820727E+00;  0.0000000E+00;  3.8210910E-02;  9.9608990E+02;  1.1060482E-01; -3.2175964E+03;3;  1.3207536E+01;  0.0000000E+00; -3.3443150E+01;0;  1.4690937E+00;  3.2521951E+04;  0.0000000E+00; -3.0997527E-01;  4.0000000E+04;  0.0000000E+00;  3.9902008E+04;  1.6710478E+00;  0.0000000E+00; -2.0195408E-01;  3.9802634E+03;
  1.0799133E+00;  9.9999998E-03; -1.3007937E-01;8624;  1.3708020E+00;  0.0000000E+00;  3.4430917E-02;  9.9551178E+02;  1.1061055E-01; -3.6933203E+03;3;  1.2805387E+01;  0.0000000E+00; -3.3130524E+01;0;  1.4276218E+00;  3.2480328E+04;  0.0000000E+00; -2.7207279E-01;  4.0000000E+04;  0.0000000E+00;  3.9903074E+04;  1.6419619E+00;  0.0000000E+00; -2.1434015E-01;  4.1818501E+03;
  1.0798928E+00;  9.9999998E-03; -1.2003837E-01;8625;  1.3607458E+00;  0.0000000E+00;  3.0323377E-02;  9.9498022E+02;  1.1061617E-01; -4.1307393E+03;3;  1.6536253E+01;  0.0000000E+00; -3.3153214E+01;0;  1.3805200E+00;  3.2441059E+04;  0.0000000E+00; -2.2177064E-01;  4.0000000E+04;  0.0000000E+00;  3.9905207E+04;  1.6034889E+00;  0.0000000E+00; -2.2296894E-01;  4.4951631E+03;
  1.0798736E+00;  9.9999998E-03; -1.1001412E-01;8626;  1.3524466E+00;  0.0000000E+00;  2.6076864E-02;  9.9450433E+02;  1.1062098E-01; -4.5223491E+03;3;  2.5011831E+01;  0.0000000E+00; -3.2462032E+01;0;  1.3298256E+00;  3.2404875E+04;  0.0000000E+00; -1.6433215E-01;  4.0000000E+04;  0.0000000E+00;  3.9908473E+04;  1.5582726E+00;  0.0000000E+00; -2.2844695E-01;  4.9275347E+03;
  1.0917857E+00;  9.9999998E-03; -2.7029786E-01;8671;  1.5514427E+00;  0.0000000E+00;  3.4516793E-02;  1.0012430E+03;  1.0975755E-01;  1.0215159E+03;3;  2.4804634E+01;  0.0000000E+00; -2.8597412E+01;0;  1.0373501E+00;  3.3378695E+04;  0.0000000E+00; -1.3039657E+01;  4.0000000E+04;  0.0000000E+00;  3.9888871E+04;  8.4748340E-01;  0.0000000E+00;  1.8986669E-01;  1.7355359E+04;
  1.0915985E+00;  9.9999998E-03; -2.6026887E-01;8672;  1.5490085E+00;  0.0000000E+00;  4.9142975E-02;  1.0013093E+03;  1.0976539E-01;  1.0760104E+03;3;  2.1649683E+01;  0.0000000E+00; -3.0253010E+01;0;  9.6509600E-01;  3.3370512E+04;  0.0000000E+00; -1.2258463E+01;  4.0000000E+04;  0.0000000E+00;  3.9896277E+04;  9.2997634E-01;  0.0000000E+00;  3.5119630E-02;  1.6253165E+04;
  1.0914700E+00;  9.9999998E-03; -2.5025845E-01;8673;  1.5456395E+00;  0.0000000E+00;  5.6539796E-02;  1.0010632E+03;  1.0977159E-01;  8.7381256E+02;3;  3.8005478E+01;  0.0000000E+00; -2.8367826E+01;0;  1.0109829E+00;  3.3354734E+04;  0.0000000E+00; -1.0815011E+01;  4.0000000E+04;  0.0000000E+00;  3.9889914E+04;  1.0195303E+00;  0.0000000E+00; -8.5473750E-03;  1.4163011E+04;
  1.0913688E+00;  9.9999998E-03; -2.4025220E-01;8674;  1.5322936E+00;  0.0000000E+00;  5.9179116E-02;  1.0007462E+03;  1.0977682E-01;  6.1321436E+02;3;  4.4302910E+01;  0.0000000E+00; -3.0050846E+01;0;  1.0993264E+00;  3.3333121E+04;  0.0000000E+00; -9.0174484E+00;  4.0000000E+04;  0.0000000E+00;  3.9886047E+04;  1.1127956E+00;  0.0000000E+00; -1.3469164E-02;  1.1729997E+04;
  1.0912677E+00;  9.9999998E-03; -2.3024569E-01;8675;  1.5185041E+00;  0.0000000E+00;  5.9847530E-02;  1.0004066E+03;  1.0978252E-01;  3.3409268E+02;3;  4.0605244E+01;  0.0000000E+00; -3.0006014E+01;0;  1.1961132E+00;  3.3306371E+04;  0.0000000E+00; -7.0895114E+00;  4.0000000E+04;  0.0000000E+00;  3.9886145E+04;  1.2131438E+00;  0.0000000E+00; -1.7030625E-02;  9.2424688E+03;
  1.0911725E+00;  9.9999998E-03; -2.2024088E-01;8676;  1.5061960E+00;  0.0000000E+00;  5.9572149E-02;  1.0000219E+03;  1.0978931E-01;  1.8027493E+01;3;  3.7000690E+01;  0.0000000E+00; -2.9770292E+01;0;  1.2890693E+00;  3.3274809E+04;  0.0000000E+00; -5.2795663E+00;  4.0000000E+04;  0.0000000E+00;  3.9888250E+04;  1.3170745E+00;  0.0000000E+00; -2.8005257E-02;  7.0193623E+03;
  1.0910854E+00;  9.9999998E-03; -2.1023986E-01;8677;  1.4952989E+00;  0.0000000E+00;  5.8662001E-02;  9.9958759E+02;  1.0979625E-01; -3.3894974E+02;3;  3.2846409E+01;  0.0000000E+00; -2.9385309E+01;0;  1.3742630E+00;  3.3239406E+04;  0.0000000E+00; -3.7011170E+00;  4.0000000E+04;  0.0000000E+00;  3.9891035E+04;  1.4202962E+00;  0.0000000E+00; -4.6033107E-02;  5.2405278E+03;
  1.0910131E+00;  9.9999998E-03; -2.0024411E-01;8678;  1.4846734E+00;  0.0000000E+00;  5.7421509E-02;  9.9910162E+02;  1.0980347E-01; -7.3835736E+02;3;  2.8057611E+01;  0.0000000E+00; -2.8870909E+01;0;  1.4492805E+00;  3.3200891E+04;  0.0000000E+00; -2.4166522E+00;  4.0000000E+04;  0.0000000E+00;  3.9893738E+04;  1.5185224E+00;  0.0000000E+00; -6.9241822E-02;  4.0486958E+03;
  1.0909599E+00;  9.9999998E-03; -1.9025104E-01;8679;  1.4744805E+00;  0.0000000E+00;  5.5785291E-02;  9.9857751E+02;  1.0980975E-01; -1.1691221E+03;3;  2.2559361E+01;  0.0000000E+00; -2.8556332E+01;0;  1.5126853E+00;  3.3160566E+04;  0.0000000E+00; -1.4566628E+00;  4.0000000E+04;  0.0000000E+00;  3.9896180E+04;  1.6079878E+00;  0.0000000E+00; -9.5302433E-02;  3.4888320E+03;
  1.0909288E+00;  9.9999998E-03; -1.8025687E-01;8680;  1.4641979E+00;  0.0000000E+00;  5.3870078E-02;  9.9802374E+02;  1.0981593E-01; -1.6242847E+03;3;  1.6781452E+01;  0.0000000E+00; -2.8163593E+01;0;  1.5630056E+00;  3.3119383E+04;  0.0000000E+00; -8.1809753E-01;  4.0000000E+04;  0.0000000E+00;  3.9897734E+04;  1.6853840E+00;  0.0000000E+00; -1.2237846E-01;  3.3635881E+03;
  1.0909187E+00;  9.9999998E-03; -1.7025423E-01;8681;  1.4534844E+00;  0.0000000E+00;  5.1672854E-02;  9.9745270E+02;  1.0982145E-01; -2.0936523E+03;3;  1.0712379E+01;  0.0000000E+00; -2.7784073E+01;0;  1.5994023E+00;  3.3078387E+04;  0.0000000E+00; -4.5693463E-01;  4.0000000E+04;  0.0000000E+00;  3.9898184E+04;  1.7482270E+00;  0.0000000E+00; -1.4882468E-01;  3.3809773E+03;
  1.0909271E+00;  9.9999998E-03; -1.6023494E-01;8682;  1.4421681E+00;  0.0000000E+00;  4.9194105E-02;  9.9687976E+02;  1.0982613E-01; -2.5645344E+03;3;  4.8263340E+00;  0.0000000E+00; -2.7459047E+01;0;  1.6218226E+00;  3.3038488E+04;  0.0000000E+00; -2.9544753E-01;  4.0000000E+04;  0.0000000E+00;  3.9897719E+04;  1.7950459E+00;  0.0000000E+00; -1.7322324E-01;  3.3869219E+03;
  1.0909401E+00;  9.9999998E-03; -1.5019019E-01;8683;  1.4301014E+00;  0.0000000E+00;  4.6482261E-02;  9.9632599E+02;  1.0983101E-01; -3.0196880E+03;3; -9.8182273E-01;  0.0000000E+00; -2.6988655E+01;0;  1.6309953E+00;  3.3000055E+04;  0.0000000E+00; -2.4218877E-01;  4.0000000E+04;  0.0000000E+00;  3.9896949E+04;  1.8254184E+00;  0.0000000E+00; -1.9442305E-01;  3.3788733E+03;
  1.0909436E+00;  9.9999998E-03; -1.4013503E-01;8684;  1.4172188E+00;  0.0000000E+00;  4.3506045E-02;  9.9581219E+02;  1.0983583E-01; -3.4419727E+03;3; -6.2433500E+00;  0.0000000E+00; -2.6874798E+01;0;  1.6282520E+00;  3.2963953E+04;  0.0000000E+00; -2.2061031E-01;  4.0000000E+04;  0.0000000E+00;  3.9896617E+04;  1.8399235E+00;  0.0000000E+00; -2.1167143E-01;  3.4154956E+03;
  1.0909299E+00;  9.9999998E-03; -1.3009058E-01;8685;  1.4036204E+00;  0.0000000E+00;  4.0272478E-02;  9.9535687E+02;  1.0984115E-01; -3.8162065E+03;3; -1.0723830E+01;  0.0000000E+00; -2.6691008E+01;0;  1.6152654E+00;  3.2930598E+04;  0.0000000E+00; -1.9060822E-01;  4.0000000E+04;  0.0000000E+00;  3.9897211E+04;  1.8401154E+00;  0.0000000E+00; -2.2485009E-01;  3.5507344E+03;
  1.0909001E+00;  9.9999998E-03; -1.2006082E-01;8686;  1.3896744E+00;  0.0000000E+00;  3.6786795E-02;  9.9496130E+02;  1.0984545E-01; -4.1413135E+03;3; -1.3909914E+01;  0.0000000E+00; -2.6958038E+01;0;  1.5938023E+00;  3.2900535E+04;  0.0000000E+00; -1.4765520E-01;  4.0000000E+04;  0.0000000E+00;  3.9899023E+04;  1.8282077E+00;  0.0000000E+00; -2.3440535E-01;  3.8144199E+03;
  1.0908675E+00;  9.9999998E-03; -1.1004387E-01;8687;  1.3762592E+00;  0.0000000E+00;  3.2980409E-02;  9.9464459E+02;  1.0985030E-01; -4.4016592E+03;3; -1.5236969E+01;  0.0000000E+00; -2.7687292E+01;0;  1.5659065E+00;  3.2874242E+04;  0.0000000E+00; -9.7610079E-02;  4.0000000E+04;  0.0000000E+00;  3.9902117E+04;  1.8068399E+00;  0.0000000E+00; -2.4093343E-01;  4.2097021E+03;
  1.1024035E+00;  9.9999998E-03; -2.7031147E-01;8732;  1.5494033E+00;  0.0000000E+00;  4.0529549E-02;  1.0011293E+03;  1.0904044E-01;  9.2687762E+02;3;  2.4686560E+01;  0.0000000E+00; -3.1962498E+01;0;  8.2211596E-01;  3.3806078E+04;  0.0000000E+00; -1.2322546E+01;  4.0000000E+04;  0.0000000E+00;  3.9894602E+04;  6.8171722E-01;  0.0000000E+00;  1.4039873E-01;  1.5611390E+04;
  1.1022184E+00;  9.9999998E-03; -2.6029503E-01;8733;  1.5478179E+00;  0.0000000E+00;  5.6364994E-02;  1.0010199E+03;  1.0904920E-01;  8.3708777E+02;3;  2.0298077E+01;  0.0000000E+00; -2.6383478E+01;0;  7.5922799E-01;  3.3793703E+04;  0.0000000E+00; -1.1598058E+01;  4.0000000E+04;  0.0000000E+00;  3.9892449E+04;  7.7801490E-01;  0.0000000E+00; -1.8786905E-02;  1.4442013E+04;
  1.1021240E+00;  9.9999998E-03; -2.5029683E-01;8734;  1.5474408E+00;  0.0000000E+00;  6.1626922E-02;  1.0006147E+03;  1.0905509E-01;  5.0445081E+02;3;  3.0770464E+01;  0.0000000E+00; -2.2032675E+01;0;  8.4726024E-01;  3.3771660E+04;  0.0000000E+00; -1.0748739E+01;  4.0000000E+04;  0.0000000E+00;  3.9880859E+04;  8.8407260E-01;  0.0000000E+00; -3.6812373E-02;  1.3181615E+04;
  1.1020763E+00;  9.9999998E-03; -2.4030133E-01;8735;  1.5447347E+00;  0.0000000E+00;  6.1814651E-02;  1.0002014E+03;  1.0906073E-01;  1.6534669E+02;3;  4.0179451E+01;  0.0000000E+00; -2.2790081E+01;0;  9.7316664E-01;  3.3744406E+04;  0.0000000E+00; -9.5127115E+00;  4.0000000E+04;  0.0000000E+00;  3.9875477E+04;  9.9720472E-01;  0.0000000E+00; -2.4038104E-02;  1.1636238E+04;
  1.1020211E+00;  9.9999998E-03; -2.3030010E-01;8736;  1.5438219E+00;  0.0000000E+00;  6.0549930E-02;  9.9982892E+02;  1.0906642E-01; -1.4039900E+02;3;  3.6822590E+01;  0.0000000E+00; -2.2589998E+01;0;  1.0982360E+00;  3.3713879E+04;  0.0000000E+00; -7.8131886E+00;  4.0000000E+04;  0.0000000E+00;  3.9877527E+04;  1.1187086E+00;  0.0000000E+00; -2.0472659E-02;  9.5703008E+03;
  1.1019492E+00;  9.9999998E-03; -2.2029594E-01;8737;  1.5390623E+00;  0.0000000E+00;  5.9218489E-02;  9.9944629E+02;  1.0907288E-01; -4.5446683E+02;3;  3.1776819E+01;  0.0000000E+00; -2.2163940E+01;0;  1.2124406E+00;  3.3680090E+04;  0.0000000E+00; -5.9910011E+00;  4.0000000E+04;  0.0000000E+00;  3.9882176E+04;  1.2431958E+00;  0.0000000E+00; -3.0755110E-02;  7.4265669E+03;
  1.1018778E+00;  9.9999998E-03; -2.1029346E-01;8738;  1.5319194E+00;  0.0000000E+00;  5.7952948E-02;  9.9901257E+02;  1.0907925E-01; -8.1041675E+02;3;  2.6102980E+01;  0.0000000E+00; -2.2005766E+01;0;  1.3182894E+00;  3.3643195E+04;  0.0000000E+00; -4.2968149E+00;  4.0000000E+04;  0.0000000E+00;  3.9886746E+04;  1.3683552E+00;  0.0000000E+00; -5.0065804E-02;  5.5710259E+03;
  1.1018203E+00;  9.9999998E-03; -2.0029478E-01;8739;  1.5236709E+00;  0.0000000E+00;  5.6555338E-02;  9.9853705E+02;  1.0908554E-01; -1.2007139E+03;3;  1.9858528E+01;  0.0000000E+00; -2.1780659E+01;0;  1.4165394E+00;  3.3604172E+04;  0.0000000E+00; -2.8456848E+00;  4.0000000E+04;  0.0000000E+00;  3.9890441E+04;  1.4907907E+00;  0.0000000E+00; -7.4251264E-02;  4.2046357E+03;
  1.1017872E+00;  9.9999998E-03; -1.9029854E-01;8740;  1.5146897E+00;  0.0000000E+00;  5.5093963E-02;  9.9802362E+02;  1.0909136E-01; -1.6221257E+03;3;  1.3436028E+01;  0.0000000E+00; -2.1397886E+01;0;  1.5057504E+00;  3.3564367E+04;  0.0000000E+00; -1.7069026E+00;  4.0000000E+04;  0.0000000E+00;  3.9893070E+04;  1.6066177E+00;  0.0000000E+00; -1.0086723E-01;  3.4426545E+03;
  1.1017863E+00;  9.9999998E-03; -1.8029992E-01;8741;  1.5051202E+00;  0.0000000E+00;  5.3489286E-02;  9.9749524E+02;  1.0909598E-01; -2.0558118E+03;3;  6.8929033E+00;  0.0000000E+00; -2.0969337E+01;0;  1.5841928E+00;  3.3525285E+04;  0.0000000E+00; -9.1127735E-01;  4.0000000E+04;  0.0000000E+00;  3.9894496E+04;  1.7122263E+00;  0.0000000E+00; -1.2803350E-01;  3.1780596E+03;
  1.1018157E+00;  9.9999998E-03; -1.7028908E-01;8742;  1.4948829E+00;  0.0000000E+00;  5.1755015E-02;  9.9696710E+02;  1.0909969E-01; -2.4892915E+03;3;  3.8264656E-01;  0.0000000E+00; -2.0253817E+01;0;  1.6503186E+00;  3.3487816E+04;  0.0000000E+00; -4.3743891E-01;  4.0000000E+04;  0.0000000E+00;  3.9894570E+04;  1.8046614E+00;  0.0000000E+00; -1.5434273E-01;  3.1196853E+03;
  1.1018618E+00;  9.9999998E-03; -1.6025417E-01;8743;  1.4836813E+00;  0.0000000E+00;  4.9854793E-02;  9.9645795E+02;  1.0910277E-01; -2.9071555E+03;3; -5.9976120E+00;  0.0000000E+00; -1.9592512E+01;0;  1.7032572E+00;  3.3452840E+04;  0.0000000E+00; -2.1309255E-01;  4.0000000E+04;  0.0000000E+00;  3.9893715E+04;  1.8818605E+00;  0.0000000E+00; -1.7860334E-01;  3.0694072E+03;
  1.1018988E+00;  9.9999998E-03; -1.5020418E-01;8744;  1.4709431E+00;  0.0000000E+00;  4.7796734E-02;  9.9599036E+02;  1.0910607E-01; -3.2909204E+03;3; -1.2129695E+01;  0.0000000E+00; -1.9060074E+01;0;  1.7427746E+00;  3.3420965E+04;  0.0000000E+00; -1.3903058E-01;  4.0000000E+04;  0.0000000E+00;  3.9892484E+04;  1.9425737E+00;  0.0000000E+00; -1.9979909E-01;  3.0064590E+03;
  1.1019073E+00;  9.9999998E-03; -1.4015974E-01;8745;  1.4565923E+00;  0.0000000E+00;  4.5543339E-02;  9.9558276E+02;  1.0910960E-01; -3.6254333E+03;3; -1.7793139E+01;  0.0000000E+00; -1.8586382E+01;0;  1.7694132E+00;  3.3392344E+04;  0.0000000E+00; -1.2206039E-01;  4.0000000E+04;  0.0000000E+00;  3.9891746E+04;  1.9866880E+00;  0.0000000E+00; -2.1727484E-01;  2.9913074E+03;
  1.1018959E+00;  9.9999998E-03; -1.3012490E-01;8746;  1.4417360E+00;  0.0000000E+00;  4.3026272E-02;  9.9524084E+02;  1.0911320E-01; -3.9060464E+03;3; -2.3230087E+01;  0.0000000E+00; -1.8216530E+01;0;  1.7845335E+00;  3.3367336E+04;  0.0000000E+00; -1.0503068E-01;  4.0000000E+04;  0.0000000E+00;  3.9891973E+04;  2.0154977E+00;  0.0000000E+00; -2.3096421E-01;  3.0741111E+03;
  1.1018773E+00;  9.9999998E-03; -1.2009900E-01;8747;  1.4271985E+00;  0.0000000E+00;  4.0179897E-02;  9.9497870E+02;  1.0911749E-01; -4.1212090E+03;3; -2.8329987E+01;  0.0000000E+00; -1.8018597E+01;0;  1.7897071E+00;  3.3346137E+04;  0.0000000E+00; -7.5267598E-02;  4.0000000E+04;  0.0000000E+00;  3.9893477E+04;  2.0310035E+00;  0.0000000E+00; -2.4129641E-01;  3.2805276E+03;
  1.1018525E+00;  9.9999998E-03; -1.1008170E-01;8748;  1.4128959E+00;  0.0000000E+00;  3.7093721E-02;  9.9479175E+02;  1.0912171E-01; -4.2746870E+03;3; -3.3177975E+01;  0.0000000E+00; -1.7719238E+01;0;  1.7864890E+00;  3.3328898E+04;  0.0000000E+00; -3.7843958E-02;  4.0000000E+04;  0.0000000E+00;  3.9896203E+04;  2.0353107E+00;  0.0000000E+00; -2.4882174E-01;  3.6148416E+03;
  1.1131605E+00;  9.9999998E-03; -2.7033040E-01;8793;  1.5470725E+00;  0.0000000E+00;  4.9532142E-02;  1.0006152E+03;  1.0836729E-01;  5.0409961E+02;3;  2.3817280E+01;  0.0000000E+00; -3.0816698E+01;0;  5.9905839E-01;  3.4190516E+04;  0.0000000E+00; -1.2904600E+01;  4.0000000E+04;  0.0000000E+00;  3.9896957E+04;  5.6191301E-01;  0.0000000E+00;  3.7145399E-02;  1.5728343E+04;
  1.1129959E+00;  9.9999998E-03; -2.6031923E-01;8794;  1.5463734E+00;  0.0000000E+00;  6.1085753E-02;  1.0004219E+03;  1.0837677E-01;  3.4568036E+02;3;  1.8155359E+01;  0.0000000E+00; -2.3508757E+01;0;  6.0369676E-01;  3.4175387E+04;  0.0000000E+00; -1.2074480E+01;  4.0000000E+04;  0.0000000E+00;  3.9890812E+04;  6.6802806E-01;  0.0000000E+00; -6.4331271E-02;  1.4343428E+04;
  1.1129358E+00;  9.9999998E-03; -2.5031754E-01;8795;  1.5503542E+00;  0.0000000E+00;  6.5318957E-02;  1.0000009E+03;  1.0838355E-01;  6.8374854E-01;3;  1.1147192E+01;  0.0000000E+00; -2.1005461E+01;0;  7.1953934E-01;  3.4149695E+04;  0.0000000E+00; -1.1452684E+01;  4.0000000E+04;  0.0000000E+00;  3.9881566E+04;  7.8866178E-01;  0.0000000E+00; -6.9122441E-02;  1.3416136E+04;
  1.1129010E+00;  9.9999998E-03; -2.4031895E-01;8796;  1.5551535E+00;  0.0000000E+00;  6.6256210E-02;  9.9957294E+02;  1.0838829E-01; -3.4993475E+02;3;  7.1899195E+00;  0.0000000E+00; -1.8483568E+01;0;  8.6302537E-01;  3.4121301E+04;  0.0000000E+00; -1.0265290E+01;  4.0000000E+04;  0.0000000E+00;  3.9876664E+04;  9.1747475E-01;  0.0000000E+00; -5.4449379E-02;  1.1955444E+04;
  1.1128490E+00;  9.9999998E-03; -2.3031826E-01;8797;  1.5592786E+00;  0.0000000E+00;  6.5379694E-02;  9.9919360E+02;  1.0839403E-01; -6.6075464E+02;3;  4.6922979E+00;  0.0000000E+00; -1.7051588E+01;0;  1.0067357E+00;  3.4091223E+04;  0.0000000E+00; -8.5274506E+00;  4.0000000E+04;  0.0000000E+00;  3.9877281E+04;  1.0522537E+00;  0.0000000E+00; -4.5518026E-02;  9.9136338E+03;
  1.1127816E+00;  9.9999998E-03; -2.2031486E-01;8798;  1.5619724E+00;  0.0000000E+00;  6.3521847E-02;  9.9881506E+02;  1.0839964E-01; -9.7094733E+02;3;  4.2006054E+00;  0.0000000E+00; -1.5941376E+01;0;  1.1425562E+00;  3.4058688E+04;  0.0000000E+00; -6.6517458E+00;  4.0000000E+04;  0.0000000E+00;  3.9880742E+04;  1.1909510E+00;  0.0000000E+00; -4.8394758E-02;  7.8006567E+03;
  1.1127187E+00;  9.9999998E-03; -2.1031268E-01;8799;  1.5617726E+00;  0.0000000E+00;  6.0990419E-02;  9.9840186E+02;  1.0840575E-01; -1.3095223E+03;3;  5.5161800E+00;  0.0000000E+00; -1.5247751E+01;0;  1.2693063E+00;  3.4023602E+04;  0.0000000E+00; -4.8800931E+00;  4.0000000E+04;  0.0000000E+00;  3.9884406E+04;  1.3308150E+00;  0.0000000E+00; -6.1508700E-02;  5.9266934E+03;
  1.1126740E+00;  9.9999998E-03; -2.0031334E-01;8800;  1.5574819E+00;  0.0000000E+00;  5.8190182E-02;  9.9794952E+02;  1.0841108E-01; -1.6801884E+03;3;  6.6625795E+00;  0.0000000E+00; -1.5241370E+01;0;  1.3871367E+00;  3.3987184E+04;  0.0000000E+00; -3.3101449E+00;  4.0000000E+04;  0.0000000E+00;  3.9887488E+04;  1.4690522E+00;  0.0000000E+00; -8.1915438E-02;  4.4407178E+03;
  1.1126603E+00;  9.9999998E-03; -1.9031464E-01;8801;  1.5497266E+00;  0.0000000E+00;  5.5920739E-02;  9.9747949E+02;  1.0841530E-01; -2.0653552E+03;3;  4.0990973E+00;  0.0000000E+00; -1.5618156E+01;0;  1.4962088E+00;  3.3950691E+04;  0.0000000E+00; -2.0219424E+00;  4.0000000E+04;  0.0000000E+00;  3.9889727E+04;  1.6028075E+00;  0.0000000E+00; -1.0659876E-01;  3.4833301E+03;
  1.1126856E+00;  9.9999998E-03; -1.8031166E-01;8802;  1.5403529E+00;  0.0000000E+00;  5.4088522E-02;  9.9700598E+02;  1.0841881E-01; -2.4533408E+03;3; -1.3958030E+00;  0.0000000E+00; -1.5062989E+01;0;  1.5963920E+00;  3.3915820E+04;  0.0000000E+00; -1.0745325E+00;  4.0000000E+04;  0.0000000E+00;  3.9890930E+04;  1.7288736E+00;  0.0000000E+00; -1.3248162E-01;  3.0533606E+03;
  1.1127421E+00;  9.9999998E-03; -1.7029430E-01;8803;  1.5301607E+00;  0.0000000E+00;  5.2289009E-02;  9.9655206E+02;  1.0842112E-01; -2.8252891E+03;3; -7.6211958E+00;  0.0000000E+00; -1.4454030E+01;0;  1.6863570E+00;  3.3883730E+04;  0.0000000E+00; -4.7651699E-01;  4.0000000E+04;  0.0000000E+00;  3.9890867E+04;  1.8440638E+00;  0.0000000E+00; -1.5770675E-01;  2.9196826E+03;
  1.1128017E+00;  9.9999998E-03; -1.6025862E-01;8804;  1.5186260E+00;  0.0000000E+00;  5.0472338E-02;  9.9612860E+02;  1.0842298E-01; -3.1722231E+03;3; -1.3845602E+01;  0.0000000E+00; -1.3776941E+01;0;  1.7646053E+00;  3.3855004E+04;  0.0000000E+00; -1.7367764E-01;  4.0000000E+04;  0.0000000E+00;  3.9889863E+04;  1.9456908E+00;  0.0000000E+00; -1.8108553E-01;  2.8441443E+03;
  1.1128365E+00;  9.9999998E-03; -1.5022035E-01;8805;  1.5053300E+00;  0.0000000E+00;  4.8624579E-02;  9.9576001E+02;  1.0842521E-01; -3.4742317E+03;3; -1.9626539E+01;  0.0000000E+00; -1.2895322E+01;0;  1.8301742E+00;  3.3829863E+04;  0.0000000E+00; -6.6970535E-02;  4.0000000E+04;  0.0000000E+00;  3.9888617E+04;  2.0318584E+00;  0.0000000E+00; -2.0168419E-01;  2.7658079E+03;
  1.1128564E+00;  9.9999998E-03; -1.4018613E-01;8806;  1.4918534E+00;  0.0000000E+00;  4.6545018E-02;  9.9545270E+02;  1.0842761E-01; -3.7260383E+03;3; -2.5328159E+01;  0.0000000E+00; -1.2053912E+01;0;  1.8832325E+00;  3.3808551E+04;  0.0000000E+00; -5.0205894E-02;  4.0000000E+04;  0.0000000E+00;  3.9887695E+04;  2.1021748E+00;  0.0000000E+00; -2.1894231E-01;  2.7229055E+03;
  1.1128625E+00;  9.9999998E-03; -1.3015646E-01;8807;  1.4785416E+00;  0.0000000E+00;  4.4206586E-02;  9.9521820E+02;  1.0843024E-01; -3.9181702E+03;3; -3.1094938E+01;  0.0000000E+00; -1.1344264E+01;0;  1.9245728E+00;  3.3790973E+04;  0.0000000E+00; -4.6951231E-02;  4.0000000E+04;  0.0000000E+00;  3.9887633E+04;  2.1573508E+00;  0.0000000E+00; -2.3277795E-01;  2.7573535E+03;
  1.1128505E+00;  9.9999998E-03; -1.2013109E-01;8808;  1.4651095E+00;  0.0000000E+00;  4.1603759E-02;  9.9505847E+02;  1.0843367E-01; -4.0490686E+03;3; -3.6617657E+01;  0.0000000E+00; -1.0743705E+01;0;  1.9551589E+00;  3.3777273E+04;  0.0000000E+00; -3.1358592E-02;  4.0000000E+04;  0.0000000E+00;  3.9888594E+04;  2.1987305E+00;  0.0000000E+00; -2.4357146E-01;  2.8959380E+03;
  1.1128188E+00;  9.9999998E-03; -1.1010654E-01;8809;  1.4514533E+00;  0.0000000E+00;  3.8789969E-02;  9.9497614E+02;  1.0843763E-01; -4.1165381E+03;3; -4.1957424E+01;  0.0000000E+00; -1.0043575E+01;0;  1.9760939E+00;  3.3767383E+04;  0.0000000E+00; -6.4064325E-03;  4.0000000E+04;  0.0000000E+00;  3.9890754E+04;  2.2279348E+00;  0.0000000E+00; -2.5184092E-01;  3.1484153E+03;
  1.1240371E+00;  9.9999998E-03; -2.7034456E-01;8854;  1.5447367E+00;  0.0000000E+00;  5.0567783E-02;  9.9976617E+02;  1.0773776E-01; -1.9122081E+02;3;  2.3426905E+01;  0.0000000E+00; -2.6681400E+01;0;  5.0586790E-01;  3.4525637E+04;  0.0000000E+00; -1.5834343E+01;  4.0000000E+04;  0.0000000E+00;  3.9906254E+04;  4.8669216E-01;  0.0000000E+00;  1.9175762E-02;  1.9021072E+04;
  1.1238273E+00;  9.9999998E-03; -2.6033172E-01;8855;  1.5445434E+00;  0.0000000E+00;  5.8712035E-02;  9.9970941E+02;  1.0774784E-01; -2.3763414E+02;3;  1.8426609E+01;  0.0000000E+00; -1.9217707E+01;0;  5.4777443E-01;  3.4519480E+04;  0.0000000E+00; -1.3699614E+01;  4.0000000E+04;  0.0000000E+00;  3.9899727E+04;  5.9948146E-01;  0.0000000E+00; -5.1707018E-02;  1.5881806E+04;
  1.1237587E+00;  9.9999998E-03; -2.5032169E-01;8856;  1.5487422E+00;  0.0000000E+00;  6.2755913E-02;  9.9935614E+02;  1.0775395E-01; -5.2655542E+02;3;  9.6296215E+00;  0.0000000E+00; -1.7579742E+01;0;  6.6306311E-01;  3.4496570E+04;  0.0000000E+00; -1.2522289E+01;  4.0000000E+04;  0.0000000E+00;  3.9892879E+04;  7.2797644E-01;  0.0000000E+00; -6.4913347E-02;  1.4188245E+04;
  1.1237729E+00;  9.9999998E-03; -2.4031755E-01;8857;  1.5549952E+00;  0.0000000E+00;  6.4861745E-02;  9.9889612E+02;  1.0775803E-01; -9.0277545E+02;3;  4.6227221E+00;  0.0000000E+00; -1.6178965E+01;0;  8.0212003E-01;  3.4468164E+04;  0.0000000E+00; -1.1516944E+01;  4.0000000E+04;  0.0000000E+00;  3.9886199E+04;  8.6542684E-01;  0.0000000E+00; -6.3306786E-02;  1.2929033E+04;
  1.1237738E+00;  9.9999998E-03; -2.3031457E-01;8858;  1.5611045E+00;  0.0000000E+00;  6.5155834E-02;  9.9850122E+02;  1.0776255E-01; -1.2257173E+03;3;  2.1930085E-01;  0.0000000E+00; -1.5278537E+01;0;  9.4850510E-01;  3.4440805E+04;  0.0000000E+00; -9.7397690E+00;  4.0000000E+04;  0.0000000E+00;  3.9883035E+04;  1.0084666E+00;  0.0000000E+00; -5.9961513E-02;  1.0893188E+04;
  1.1237525E+00;  9.9999998E-03; -2.2030768E-01;8859;  1.5661979E+00;  0.0000000E+00;  6.4321831E-02;  9.9815057E+02;  1.0776699E-01; -1.5124960E+03;3; -3.5029094E+00;  0.0000000E+00; -1.4195791E+01;0;  1.0920126E+00;  3.4413223E+04;  0.0000000E+00; -7.6794376E+00;  4.0000000E+04;  0.0000000E+00;  3.9883402E+04;  1.1553855E+00;  0.0000000E+00; -6.3372836E-02;  8.6526699E+03;
  1.1237150E+00;  9.9999998E-03; -2.1029876E-01;8860;  1.5699865E+00;  0.0000000E+00;  6.2587425E-02;  9.9779431E+02;  1.0777187E-01; -1.8038645E+03;3; -5.9619117E+00;  0.0000000E+00; -1.3022125E+01;0;  1.2300632E+00;  3.4384332E+04;  0.0000000E+00; -5.6912174E+00;  4.0000000E+04;  0.0000000E+00;  3.9884984E+04;  1.3044038E+00;  0.0000000E+00; -7.4340627E-02;  6.6083843E+03;
  1.1236879E+00;  9.9999998E-03; -2.0029241E-01;8861;  1.5714051E+00;  0.0000000E+00;  6.0196307E-02;  9.9741711E+02;  1.0777653E-01; -2.1123921E+03;3; -6.9253950E+00;  0.0000000E+00; -1.2441265E+01;0;  1.3613443E+00;  3.4354285E+04;  0.0000000E+00; -3.9409068E+00;  4.0000000E+04;  0.0000000E+00;  3.9886363E+04;  1.4528906E+00;  0.0000000E+00; -9.1546342E-02;  4.9452734E+03;
  1.1236833E+00;  9.9999998E-03; -1.9028774E-01;8862;  1.5698535E+00;  0.0000000E+00;  5.7665329E-02;  9.9702802E+02;  1.0778031E-01; -2.4306130E+03;3; -7.7682152E+00;  0.0000000E+00; -1.2095376E+01;0;  1.4852780E+00;  3.4324484E+04;  0.0000000E+00; -2.4846730E+00;  4.0000000E+04;  0.0000000E+00;  3.9887250E+04;  1.5982248E+00;  0.0000000E+00; -1.1294676E-01;  3.7539995E+03;
  1.1237062E+00;  9.9999998E-03; -1.8027946E-01;8863;  1.5647067E+00;  0.0000000E+00;  5.5257369E-02;  9.9664673E+02;  1.0778299E-01; -2.7424346E+03;3; -1.0040580E+01;  0.0000000E+00; -1.1819459E+01;0;  1.6014291E+00;  3.4296242E+04;  0.0000000E+00; -1.3748324E+00;  4.0000000E+04;  0.0000000E+00;  3.9887590E+04;  1.7375953E+00;  0.0000000E+00; -1.3616623E-01;  3.0869746E+03;
  1.1237434E+00;  9.9999998E-03; -1.7026153E-01;8864;  1.5566629E+00;  0.0000000E+00;  5.3147975E-02;  9.9628760E+02;  1.0778482E-01; -3.0361113E+03;3; -1.4197706E+01;  0.0000000E+00; -1.1084492E+01;0;  1.7089037E+00;  3.4270785E+04;  0.0000000E+00; -6.3275695E-01;  4.0000000E+04;  0.0000000E+00;  3.9887219E+04;  1.8682353E+00;  0.0000000E+00; -1.5933166E-01;  2.8141062E+03;
  1.1237707E+00;  9.9999998E-03; -1.6023675E-01;8865;  1.5464028E+00;  0.0000000E+00;  5.1225327E-02;  9.9596869E+02;  1.0778689E-01; -3.2968862E+03;3; -1.9287077E+01;  0.0000000E+00; -1.0066898E+01;0;  1.8063207E+00;  3.4248523E+04;  0.0000000E+00; -2.2308429E-01;  4.0000000E+04;  0.0000000E+00;  3.9886223E+04;  1.9874041E+00;  0.0000000E+00; -1.8108343E-01;  2.7012744E+03;
  1.1237936E+00;  9.9999998E-03; -1.5021226E-01;8866;  1.5352041E+00;  0.0000000E+00;  4.9272731E-02;  9.9569739E+02;  1.0778848E-01; -3.5187632E+03;3; -2.4742455E+01;  0.0000000E+00; -8.8869543E+00;0;  1.8925595E+00;  3.4229758E+04;  0.0000000E+00; -5.8256075E-02;  4.0000000E+04;  0.0000000E+00;  3.9885098E+04;  2.0930667E+00;  0.0000000E+00; -2.0050710E-01;  2.6232786E+03;
  1.1238128E+00;  9.9999998E-03; -1.4018881E-01;8867;  1.5239663E+00;  0.0000000E+00;  4.7086075E-02;  9.9548456E+02;  1.0779071E-01; -3.6928206E+03;3; -3.0471996E+01;  0.0000000E+00; -7.8644562E+00;0;  1.9672403E+00;  3.4214793E+04;  0.0000000E+00; -2.7192961E-02;  4.0000000E+04;  0.0000000E+00;  3.9884137E+04;  2.1842940E+00;  0.0000000E+00; -2.1705362E-01;  2.5676775E+03;
  1.1238151E+00;  9.9999998E-03; -1.3016489E-01;8868;  1.5125065E+00;  0.0000000E+00;  4.4656806E-02;  9.9533801E+02;  1.0779306E-01; -3.8126357E+03;3; -3.6174320E+01;  0.0000000E+00; -7.1143122E+00;0;  2.0305643E+00;  3.4203270E+04;  0.0000000E+00; -3.2089144E-02;  4.0000000E+04;  0.0000000E+00;  3.9883855E+04;  2.2611639E+00;  0.0000000E+00; -2.3059967E-01;  2.5603286E+03;
  1.1237922E+00;  9.9999998E-03; -1.2013926E-01;8869;  1.5006478E+00;  0.0000000E+00;  4.2043123E-02;  9.9525763E+02;  1.0779634E-01; -3.8784102E+03;3; -4.1618759E+01;  0.0000000E+00; -6.1473455E+00;0;  2.0830729E+00;  3.4195234E+04;  0.0000000E+00; -2.7127823E-02;  4.0000000E+04;  0.0000000E+00;  3.9884336E+04;  2.3245296E+00;  0.0000000E+00; -2.4145679E-01;  2.6276667E+03;
  1.1237468E+00;  9.9999998E-03; -1.1011277E-01;8870;  1.4885226E+00;  0.0000000E+00;  3.9251953E-02;  9.9524109E+02;  1.0779963E-01; -3.8919468E+03;3; -4.6816841E+01;  0.0000000E+00; -5.4207344E+00;0;  2.1255395E+00;  3.4190504E+04;  0.0000000E+00; -1.0381768E-02;  4.0000000E+04;  0.0000000E+00;  3.9885734E+04;  2.3756454E+00;  0.0000000E+00; -2.5010580E-01;  2.7858464E+03;
  1.1349095E+00;  9.9999998E-03; -2.7036569E-01;8914;  1.5420656E+00;  0.0000000E+00;  5.2745767E-02;  9.9862933E+02;  1.0715276E-01; -1.1183872E+03;3;  2.2922197E+01;  0.0000000E+00; -1.8473179E+01;0;  4.2237204E-01;  3.4823285E+04;  0.0000000E+00; -1.9791414E+01;  4.0000000E+04;  0.0000000E+00;  3.9910148E+04;  4.5189503E-01;  0.0000000E+00; -2.9522996E-02;  2.3123131E+04;
  1.1346611E+00;  9.9999998E-03; -2.6035082E-01;8915;  1.5430454E+00;  0.0000000E+00;  5.6193508E-02;  9.9880811E+02;  1.0716221E-01; -9.7258771E+02;3;  1.8200134E+01;  0.0000000E+00; -1.3271976E+01;0;  5.2100182E-01;  3.4832715E+04;  0.0000000E+00; -1.6464300E+01;  4.0000000E+04;  0.0000000E+00;  3.9904438E+04;  5.7047784E-01;  0.0000000E+00; -4.9476042E-02;  1.8507688E+04;
  1.1346292E+00;  9.9999998E-03; -2.5032976E-01;8916;  1.5466775E+00;  0.0000000E+00;  5.8360707E-02;  9.9855139E+02;  1.0716724E-01; -1.1820743E+03;3;  9.6086025E+00;  0.0000000E+00; -1.3576945E+01;0;  6.4751709E-01;  3.4812367E+04;  0.0000000E+00; -1.5138442E+01;  4.0000000E+04;  0.0000000E+00;  3.9903223E+04;  7.0287281E-01;  0.0000000E+00; -5.5355716E-02;  1.6773211E+04;
  1.1347247E+00;  9.9999998E-03; -2.4030910E-01;8917;  1.5537002E+00;  0.0000000E+00;  6.1063677E-02;  9.9813971E+02;  1.0716980E-01; -1.5179292E+03;3;  3.9640069E+00;  0.0000000E+00; -1.2716602E+01;0;  7.8001553E-01;  3.4784531E+04;  0.0000000E+00; -1.4361453E+01;  4.0000000E+04;  0.0000000E+00;  3.9900496E+04;  8.4617841E-01;  0.0000000E+00; -6.6162862E-02;  1.5919289E+04;
  1.1347930E+00;  9.9999998E-03; -2.3029198E-01;8918;  1.5610656E+00;  0.0000000E+00;  6.2517419E-02;  9.9780212E+02;  1.0717253E-01; -1.7933762E+03;3; -2.1309769E+00;  0.0000000E+00; -1.1895826E+01;0;  9.2282277E-01;  3.4763164E+04;  0.0000000E+00; -1.2173355E+01;  4.0000000E+04;  0.0000000E+00;  3.9896094E+04;  9.9414033E-01;  0.0000000E+00; -7.1317531E-02;  1.3467236E+04;
  1.1347955E+00;  9.9999998E-03; -2.2027427E-01;8919;  1.5683117E+00;  0.0000000E+00;  6.2311910E-02;  9.9755249E+02;  1.0717653E-01; -1.9970594E+03;3; -7.1449404E+00;  0.0000000E+00; -1.0764379E+01;0;  1.0694563E+00;  3.4745801E+04;  0.0000000E+00; -9.3941364E+00;  4.0000000E+04;  0.0000000E+00;  3.9892656E+04;  1.1452790E+00;  0.0000000E+00; -7.5822711E-02;  1.0432087E+04;
  1.1347648E+00;  9.9999998E-03; -2.1025531E-01;8920;  1.5745131E+00;  0.0000000E+00;  6.1199989E-02;  9.9731262E+02;  1.0718122E-01; -2.1928313E+03;3; -1.1067187E+01;  0.0000000E+00; -9.9340763E+00;0;  1.2122113E+00;  3.4727969E+04;  0.0000000E+00; -6.8888493E+00;  4.0000000E+04;  0.0000000E+00;  3.9890316E+04;  1.2977920E+00;  0.0000000E+00; -8.5580759E-02;  7.8329141E+03;
  1.1347200E+00;  9.9999998E-03; -2.0024009E-01;8921;  1.5788734E+00;  0.0000000E+00;  5.9346080E-02;  9.9705133E+02;  1.0718600E-01; -2.4060251E+03;3; -1.4142582E+01;  0.0000000E+00; -9.1118574E+00;0;  1.3496220E+00;  3.4708395E+04;  0.0000000E+00; -4.8161554E+00;  4.0000000E+04;  0.0000000E+00;  3.9888094E+04;  1.4498892E+00;  0.0000000E+00; -1.0026715E-01;  5.8031411E+03;
  1.1346869E+00;  9.9999998E-03; -1.9022995E-01;8922;  1.5809661E+00;  0.0000000E+00;  5.7061322E-02;  9.9677637E+02;  1.0719030E-01; -2.6304509E+03;3; -1.6337427E+01;  0.0000000E+00; -8.7153950E+00;0;  1.4810435E+00;  3.4688113E+04;  0.0000000E+00; -3.1519575E+00;  4.0000000E+04;  0.0000000E+00;  3.9886324E+04;  1.5996616E+00;  0.0000000E+00; -1.1861814E-01;  4.3099917E+03;
  1.1346716E+00;  9.9999998E-03; -1.8022034E-01;8923;  1.5801851E+00;  0.0000000E+00;  5.4749306E-02;  9.9650464E+02;  1.0719347E-01; -2.8521455E+03;3; -1.8006844E+01;  0.0000000E+00; -8.3096457E+00;0;  1.6060028E+00;  3.4668254E+04;  0.0000000E+00; -1.8645481E+00;  4.0000000E+04;  0.0000000E+00;  3.9884891E+04;  1.7449161E+00;  0.0000000E+00; -1.3891324E-01;  3.3365776E+03;
  1.1346725E+00;  9.9999998E-03; -1.7020935E-01;8924;  1.5764728E+00;  0.0000000E+00;  5.2619815E-02;  9.9625629E+02;  1.0719576E-01; -3.0548137E+03;3; -2.0397648E+01;  0.0000000E+00; -7.8032303E+00;0;  1.7238327E+00;  3.4650168E+04;  0.0000000E+00; -9.5390809E-01;  4.0000000E+04;  0.0000000E+00;  3.9883719E+04;  1.8833057E+00;  0.0000000E+00; -1.5947299E-01;  2.8275400E+03;
  1.1346842E+00;  9.9999998E-03; -1.6019855E-01;8925;  1.5700932E+00;  0.0000000E+00;  5.0628453E-02;  9.9603961E+02;  1.0719805E-01; -3.2315991E+03;3; -2.4102276E+01;  0.0000000E+00; -7.0275002E+00;0;  1.8334283E+00;  3.4634609E+04;  0.0000000E+00; -3.9983928E-01;  4.0000000E+04;  0.0000000E+00;  3.9882707E+04;  2.0124555E+00;  0.0000000E+00; -1.7902723E-01;  2.6152197E+03;
  1.1347023E+00;  9.9999998E-03; -1.5018845E-01;8926;  1.5621485E+00;  0.0000000E+00;  4.8635200E-02;  9.9586121E+02;  1.0719927E-01; -3.3771543E+03;3; -2.8811260E+01;  0.0000000E+00; -6.1260934E+00;0;  1.9336447E+00;  3.4621930E+04;  0.0000000E+00; -1.3604115E-01;  4.0000000E+04;  0.0000000E+00;  3.9881742E+04;  2.1303747E+00;  0.0000000E+00; -1.9672997E-01;  2.5202922E+03;
  1.1347140E+00;  9.9999998E-03; -1.4017643E-01;8927;  1.5533595E+00;  0.0000000E+00;  4.6471324E-02;  9.9573108E+02;  1.0720108E-01; -3.4833667E+03;3; -3.3975132E+01;  0.0000000E+00; -5.1047115E+00;0;  2.0237014E+00;  3.4612246E+04;  0.0000000E+00; -5.8777064E-02;  4.0000000E+04;  0.0000000E+00;  3.9880836E+04;  2.2357707E+00;  0.0000000E+00; -2.1206924E-01;  2.4570476E+03;
  1.1347052E+00;  9.9999998E-03; -1.3015996E-01;8928;  1.5439392E+00;  0.0000000E+00;  4.4102710E-02;  9.9564569E+02;  1.0720304E-01; -3.5530205E+03;3; -3.9229897E+01;  0.0000000E+00; -4.1606073E+00;0;  2.1033018E+00;  3.4605320E+04;  0.0000000E+00; -5.7403684E-02;  4.0000000E+04;  0.0000000E+00;  3.9880168E+04;  2.3281860E+00;  0.0000000E+00; -2.2488417E-01;  2.4165430E+03;
  1.1346711E+00;  9.9999998E-03; -1.2013879E-01;8929;  1.5341259E+00;  0.0000000E+00;  4.1500937E-02;  9.9561749E+02;  1.0720626E-01; -3.5760525E+03;3; -4.4397945E+01;  0.0000000E+00; -3.4753160E+00;0;  2.1726055E+00;  3.4601023E+04;  0.0000000E+00; -5.7170454E-02;  4.0000000E+04;  0.0000000E+00;  3.9880219E+04;  2.4079823E+00;  0.0000000E+00; -2.3537678E-01;  2.4168455E+03;
  1.1346146E+00;  9.9999998E-03; -1.1011491E-01;8930;  1.5241870E+00;  0.0000000E+00;  3.8702659E-02;  9.9563159E+02;  1.0720950E-01; -3.5646194E+03;3; -4.9341660E+01;  0.0000000E+00; -2.8333650E+00;0;  2.2320845E+00;  3.4599340E+04;  0.0000000E+00; -4.3274838E-02;  4.0000000E+04;  0.0000000E+00;  3.9880781E+04;  2.4760602E+00;  0.0000000E+00; -2.4397558E-01;  2.4784526E+03;
  1.1457192E+00;  9.9999998E-03; -2.7039334E-01;8973;  1.5395763E+00;  0.0000000E+00;  5.2969843E-02;  9.9738068E+02;  1.0661456E-01; -2.1316460E+03;3;  2.1837606E+01;  0.0000000E+00; -1.1081883E+01;0;  3.8605237E-01;  3.5092004E+04;  0.0000000E+00; -2.3381233E+01;  4.0000000E+04;  0.0000000E+00;  3.9909195E+04;  4.5285809E-01;  0.0000000E+00; -6.6805720E-02;  2.6348812E+04;
  1.1454306E+00;  9.9999998E-03; -2.6037660E-01;8974;  1.5416331E+00;  0.0000000E+00;  5.3575993E-02;  9.9789459E+02;  1.0662350E-01; -1.7135461E+03;3;  1.7568306E+01;  0.0000000E+00; -8.0306635E+00;0;  5.1970524E-01;  3.5123086E+04;  0.0000000E+00; -1.9327400E+01;  4.0000000E+04;  0.0000000E+00;  3.9905012E+04;  5.7664424E-01;  0.0000000E+00; -5.6939002E-02;  2.0899008E+04;
  1.1453917E+00;  9.9999998E-03; -2.5034693E-01;8975;  1.5449876E+00;  0.0000000E+00;  5.3495008E-02;  9.9782245E+02;  1.0662798E-01; -1.7722620E+03;3;  1.1856230E+01;  0.0000000E+00; -7.4779696E+00;0;  6.6373760E-01;  3.5110426E+04;  0.0000000E+00; -1.7357977E+01;  4.0000000E+04;  0.0000000E+00;  3.9909457E+04;  7.1175838E-01;  0.0000000E+00; -4.8020806E-02;  1.8535277E+04;
  1.1455151E+00;  9.9999998E-03; -2.4031110E-01;8976;  1.5516381E+00;  0.0000000E+00;  5.5351697E-02;  9.9752417E+02;  1.0663012E-01; -2.0149963E+03;3;  3.8204386E+00;  0.0000000E+00; -8.5675707E+00;0;  7.9640967E-01;  3.5085969E+04;  0.0000000E+00; -1.6671421E+01;  4.0000000E+04;  0.0000000E+00;  3.9912293E+04;  8.5838950E-01;  0.0000000E+00; -6.1979823E-02;  1.7965240E+04;
  1.1456507E+00;  9.9999998E-03; -2.3028068E-01;8977;  1.5602456E+00;  0.0000000E+00;  5.7525609E-02;  9.9724823E+02;  1.0663146E-01; -2.2394688E+03;3; -4.2508178E+00;  0.0000000E+00; -8.4072056E+00;0;  9.3324214E-01;  3.5069266E+04;  0.0000000E+00; -1.4620566E+01;  4.0000000E+04;  0.0000000E+00;  3.9908102E+04;  1.0100775E+00;  0.0000000E+00; -7.6835357E-02;  1.5819831E+04;
  1.1456951E+00;  9.9999998E-03; -2.2025391E-01;8978;  1.5695175E+00;  0.0000000E+00;  5.8560394E-02;  9.9710181E+02;  1.0663425E-01; -2.3586255E+03;3; -1.0740838E+01;  0.0000000E+00; -7.4478021E+00;0;  1.0761241E+00;  3.5062543E+04;  0.0000000E+00; -1.1364820E+01;  4.0000000E+04;  0.0000000E+00;  3.9901418E+04;  1.1630034E+00;  0.0000000E+00; -8.6879395E-02;  1.2334609E+04;
  1.1456798E+00;  9.9999998E-03; -2.1022727E-01;8979;  1.5780988E+00;  0.0000000E+00;  5.7963569E-02;  9.9700256E+02;  1.0663843E-01; -2.4394001E+03;3; -1.5616711E+01;  0.0000000E+00; -6.4227190E+00;0;  1.2193156E+00;  3.5057695E+04;  0.0000000E+00; -8.3552732E+00;  4.0000000E+04;  0.0000000E+00;  3.9895340E+04;  1.3152598E+00;  0.0000000E+00; -9.5944121E-02;  9.2198174E+03;
  1.1456294E+00;  9.9999998E-03; -2.0020519E-01;8980;  1.5848550E+00;  0.0000000E+00;  5.6541484E-02;  9.9688910E+02;  1.0664298E-01; -2.5317434E+03;3; -1.8972137E+01;  0.0000000E+00; -5.5871668E+00;0;  1.3574053E+00;  3.5051090E+04;  0.0000000E+00; -5.9423552E+00;  4.0000000E+04;  0.0000000E+00;  3.9889750E+04;  1.4657344E+00;  0.0000000E+00; -1.0832901E-01;  6.8186021E+03;
  1.1455678E+00;  9.9999998E-03; -1.9019115E-01;8981;  1.5892493E+00;  0.0000000E+00;  5.4460641E-02;  9.9675275E+02;  1.0664772E-01; -2.6427727E+03;3; -2.1881472E+01;  0.0000000E+00; -4.9515285E+00;0;  1.4900135E+00;  3.5042117E+04;  0.0000000E+00; -4.0542927E+00;  4.0000000E+04;  0.0000000E+00;  3.9885125E+04;  1.6136049E+00;  0.0000000E+00; -1.2359145E-01;  5.0317788E+03;
  1.1455145E+00;  9.9999998E-03; -1.8018305E-01;8982;  1.5913858E+00;  0.0000000E+00;  5.2256014E-02;  9.9660742E+02;  1.0665169E-01; -2.7610759E+03;3; -2.4066996E+01;  0.0000000E+00; -4.5524206E+00;0;  1.6169910E+00;  3.5031668E+04;  0.0000000E+00; -2.5777810E+00;  4.0000000E+04;  0.0000000E+00;  3.9881992E+04;  1.7577615E+00;  0.0000000E+00; -1.4077041E-01;  3.7573577E+03;
  1.1454839E+00;  9.9999998E-03; -1.7017896E-01;8983;  1.5912936E+00;  0.0000000E+00;  5.0212085E-02;  9.9646594E+02;  1.0665454E-01; -2.8762610E+03;3; -2.6345001E+01;  0.0000000E+00; -4.2825427E+00;0;  1.7381128E+00;  3.5021480E+04;  0.0000000E+00; -1.4722990E+00;  4.0000000E+04;  0.0000000E+00;  3.9879965E+04;  1.8965390E+00;  0.0000000E+00; -1.5842618E-01;  2.9585361E+03;
  1.1454780E+00;  9.9999998E-03; -1.6017704E-01;8984;  1.5888410E+00;  0.0000000E+00;  4.8295803E-02;  9.9634650E+02;  1.0665657E-01; -2.9734795E+03;3; -2.8945816E+01;  0.0000000E+00; -3.8733394E+00;0;  1.8526776E+00;  3.5012504E+04;  0.0000000E+00; -7.2978622E-01;  4.0000000E+04;  0.0000000E+00;  3.9878688E+04;  2.0280700E+00;  0.0000000E+00; -1.7539236E-01;  2.5631155E+03;
  1.1454865E+00;  9.9999998E-03; -1.5017606E-01;8985;  1.5845742E+00;  0.0000000E+00;  4.6410128E-02;  9.9625348E+02;  1.0665809E-01; -3.0491489E+03;3; -3.2459049E+01;  0.0000000E+00; -3.2452691E+00;0;  1.9596359E+00;  3.5005219E+04;  0.0000000E+00; -3.1580749E-01;  4.0000000E+04;  0.0000000E+00;  3.9877781E+04;  2.1505623E+00;  0.0000000E+00; -1.9092639E-01;  2.4014856E+03;
  1.1454918E+00;  9.9999998E-03; -1.4017275E-01;8986;  1.5788399E+00;  0.0000000E+00;  4.4413846E-02;  9.9618799E+02;  1.0665983E-01; -3.1024570E+03;3; -3.6632912E+01;  0.0000000E+00; -2.5106626E+00;0;  2.0580406E+00;  3.4999914E+04;  0.0000000E+00; -1.4707313E-01;  4.0000000E+04;  0.0000000E+00;  3.9877023E+04;  2.2626336E+00;  0.0000000E+00; -2.0459305E-01;  2.3184543E+03;
  1.1454803E+00;  9.9999998E-03; -1.3016365E-01;8987;  1.5722106E+00;  0.0000000E+00;  4.2202421E-02;  9.9615039E+02;  1.0666153E-01; -3.1330762E+03;3; -4.1129345E+01;  0.0000000E+00; -1.7277900E+00;0;  2.1472690E+00;  3.4996402E+04;  0.0000000E+00; -1.0999222E-01;  4.0000000E+04;  0.0000000E+00;  3.9876188E+04;  2.3634968E+00;  0.0000000E+00; -2.1622774E-01;  2.2507595E+03;
  1.1454443E+00;  9.9999998E-03; -1.2014767E-01;8988;  1.5650066E+00;  0.0000000E+00;  3.9743844E-02;  9.9614368E+02;  1.0666406E-01; -3.1385388E+03;3; -4.5834736E+01;  0.0000000E+00; -1.1341473E+00;0;  2.2271023E+00;  3.4994391E+04;  0.0000000E+00; -1.0578781E-01;  4.0000000E+04;  0.0000000E+00;  3.9875637E+04;  2.4530292E+00;  0.0000000E+00; -2.2592677E-01;  2.1950115E+03;
  1.1453854E+00;  9.9999998E-03; -1.1012661E-01;8989;  1.5574955E+00;  0.0000000E+00;  3.7080843E-02;  9.9616492E+02;  1.0666697E-01; -3.1213169E+03;3; -5.0421028E+01;  0.0000000E+00; -8.4039789E-01;0;  2.2977080E+00;  3.4993902E+04;  0.0000000E+00; -9.1114476E-02;  4.0000000E+04;  0.0000000E+00;  3.9875293E+04;  2.5317261E+00;  0.0000000E+00; -2.3401803E-01;  2.1683940E+03;
  1.1564159E+00;  9.9999998E-03; -2.7042881E-01;9032;  1.5374441E+00;  0.0000000E+00;  5.1144924E-02;  9.9621771E+02;  1.0612397E-01; -3.0688164E+03;3;  2.0650959E+01;  0.0000000E+00; -5.6568933E+00;0;  3.9625803E-01;  3.5343988E+04;  0.0000000E+00; -2.4769918E+01;  4.0000000E+04;  0.0000000E+00;  3.9901914E+04;  4.8308110E-01;  0.0000000E+00; -8.6823083E-02;  2.6698205E+04;
  1.1560824E+00;  9.9999998E-03; -2.6041240E-01;9033;  1.5403782E+00;  0.0000000E+00;  5.0658416E-02;  9.9712354E+02;  1.0613172E-01; -2.3341047E+03;3;  1.6715086E+01;  0.0000000E+00; -3.3645954E+00;0;  5.4328567E-01;  3.5402316E+04;  0.0000000E+00; -2.0711555E+01;  4.0000000E+04;  0.0000000E+00;  3.9898332E+04;  6.1221200E-01;  0.0000000E+00; -6.8926319E-02;  2.1223992E+04;
  1.1560160E+00;  9.9999998E-03; -2.5037992E-01;9034;  1.5441177E+00;  0.0000000E+00;  4.9510390E-02;  9.9725787E+02;  1.0613628E-01; -2.2251318E+03;3;  1.2054533E+01;  0.0000000E+00; -2.2298996E+00;0;  6.9731385E-01;  3.5400637E+04;  0.0000000E+00; -1.8066904E+01;  4.0000000E+04;  0.0000000E+00;  3.9906152E+04;  7.5094563E-01;  0.0000000E+00; -5.3631779E-02;  1.8151916E+04;
  1.1561488E+00;  9.9999998E-03; -2.4033569E-01;9035;  1.5497631E+00;  0.0000000E+00;  4.9356300E-02;  9.9706232E+02;  1.0613793E-01; -2.3837290E+03;3;  3.6576221E+00;  0.0000000E+00; -3.6111424E+00;0;  8.4082317E-01;  3.5378328E+04;  0.0000000E+00; -1.7854895E+01;  4.0000000E+04;  0.0000000E+00;  3.9914680E+04;  8.9875388E-01;  0.0000000E+00; -5.7930727E-02;  1.8259068E+04;
  1.1563374E+00;  9.9999998E-03; -2.3029481E-01;9036;  1.5588287E+00;  0.0000000E+00;  5.1295515E-02;  9.9684381E+02;  1.0613864E-01; -2.5608899E+03;3; -5.8359652E+00;  0.0000000E+00; -4.8343854E+00;0;  9.7474134E-01;  3.5363707E+04;  0.0000000E+00; -1.6621670E+01;  4.0000000E+04;  0.0000000E+00;  3.9913457E+04;  1.0530573E+00;  0.0000000E+00; -7.8315943E-02;  1.7218502E+04;
  1.1564292E+00;  9.9999998E-03; -2.2026131E-01;9037;  1.5705582E+00;  0.0000000E+00;  5.3276028E-02;  9.9680316E+02;  1.0614035E-01; -2.5938008E+03;3; -1.4894346E+01;  0.0000000E+00; -4.2520733E+00;0;  1.1125057E+00;  3.5365832E+04;  0.0000000E+00; -1.3377977E+01;  4.0000000E+04;  0.0000000E+00;  3.9905777E+04;  1.2076758E+00;  0.0000000E+00; -9.5170163E-02;  1.3911595E+04;
  1.1564324E+00;  9.9999998E-03; -2.1022971E-01;9038;  1.5819470E+00;  0.0000000E+00;  5.3532653E-02;  9.9685608E+02;  1.0614350E-01; -2.5508538E+03;3; -2.0153296E+01;  0.0000000E+00; -2.8764973E+00;0;  1.2521621E+00;  3.5374062E+04;  0.0000000E+00; -1.0006893E+01;  4.0000000E+04;  0.0000000E+00;  3.9897500E+04;  1.3578069E+00;  0.0000000E+00; -1.0564487E-01;  1.0512356E+04;
  1.1563760E+00;  9.9999998E-03; -2.0020439E-01;9039;  1.5910761E+00;  0.0000000E+00;  5.2291699E-02;  9.9690961E+02;  1.0614808E-01; -2.5074685E+03;3; -2.3357597E+01;  0.0000000E+00; -1.8756028E+00;0;  1.3871661E+00;  3.5381180E+04;  0.0000000E+00; -7.2818027E+00;  4.0000000E+04;  0.0000000E+00;  3.9889465E+04;  1.5028912E+00;  0.0000000E+00; -1.1572507E-01;  7.8239458E+03;
  1.1562904E+00;  9.9999998E-03; -1.9018824E-01;9040;  1.5974416E+00;  0.0000000E+00;  5.0420213E-02;  9.9692511E+02;  1.0615265E-01; -2.4949590E+03;3; -2.5715696E+01;  0.0000000E+00; -1.3143926E+00;0;  1.5157175E+00;  3.5384453E+04;  0.0000000E+00; -5.1840878E+00;  4.0000000E+04;  0.0000000E+00;  3.9882820E+04;  1.6437945E+00;  0.0000000E+00; -1.2807703E-01;  5.8187183E+03;
  1.1562085E+00;  9.9999998E-03; -1.8018104E-01;9041;  1.6014676E+00;  0.0000000E+00;  4.8281588E-02;  9.9690631E+02;  1.0615709E-01; -2.5102554E+03;3; -2.7843279E+01;  0.0000000E+00; -1.0836413E+00;0;  1.6388502E+00;  3.5383922E+04;  0.0000000E+00; -3.5264831E+00;  4.0000000E+04;  0.0000000E+00;  3.9878117E+04;  1.7809155E+00;  0.0000000E+00; -1.4206533E-01;  4.3135767E+03;
  1.1561526E+00;  9.9999998E-03; -1.7017984E-01;9042;  1.6034818E+00;  0.0000000E+00;  4.6271335E-02;  9.9687604E+02;  1.0616022E-01; -2.5348672E+03;3; -3.0271015E+01;  0.0000000E+00; -8.1238866E-01;0;  1.7569864E+00;  3.5381492E+04;  0.0000000E+00; -2.2117372E+00;  4.0000000E+04;  0.0000000E+00;  3.9875156E+04;  1.9136121E+00;  0.0000000E+00; -1.5662575E-01;  3.2279888E+03;
  1.1561270E+00;  9.9999998E-03; -1.6018210E-01;9043;  1.6037860E+00;  0.0000000E+00;  4.4433828E-02;  9.9684570E+02;  1.0616264E-01; -2.5595051E+03;3; -3.2787136E+01;  0.0000000E+00; -5.9173030E-01;0;  1.8698783E+00;  3.5378703E+04;  0.0000000E+00; -1.2403914E+00;  4.0000000E+04;  0.0000000E+00;  3.9873578E+04;  2.0406094E+00;  0.0000000E+00; -1.7073101E-01;  2.5613901E+03;
  1.1561222E+00;  9.9999998E-03; -1.5018614E-01;9044;  1.6026684E+00;  0.0000000E+00;  4.2673945E-02;  9.9682233E+02;  1.0616429E-01; -2.5785164E+03;3; -3.5706120E+01;  0.0000000E+00; -2.9102153E-01;0;  1.9766992E+00;  3.5376383E+04;  0.0000000E+00; -6.1926162E-01;  4.0000000E+04;  0.0000000E+00;  3.9872648E+04;  2.1604395E+00;  0.0000000E+00; -1.8374027E-01;  2.2416833E+03;
  1.1561221E+00;  9.9999998E-03; -1.4018844E-01;9045;  1.6001664E+00;  0.0000000E+00;  4.0856920E-02;  9.9681110E+02;  1.0616584E-01; -2.5876094E+03;3; -3.8909729E+01;  0.0000000E+00;  9.5208317E-02;0;  2.0765049E+00;  3.5374637E+04;  0.0000000E+00; -3.0100343E-01;  4.0000000E+04;  0.0000000E+00;  3.9871805E+04;  2.2718225E+00;  0.0000000E+00; -1.9531745E-01;  2.0990977E+03;
  1.1561118E+00;  9.9999998E-03; -1.3018523E-01;9046;  1.5966032E+00;  0.0000000E+00;  3.8875420E-02;  9.9680408E+02;  1.0616742E-01; -2.5933245E+03;3; -4.2534248E+01;  0.0000000E+00;  5.0822538E-01;0;  2.1684902E+00;  3.5373410E+04;  0.0000000E+00; -1.8466248E-01;  4.0000000E+04;  0.0000000E+00;  3.9870945E+04;  2.3738210E+00;  0.0000000E+00; -2.0533094E-01;  2.0010404E+03;
  1.1560826E+00;  9.9999998E-03; -1.2017367E-01;9047;  1.5922618E+00;  0.0000000E+00;  3.6677975E-02;  9.9680542E+02;  1.0616905E-01; -2.5922349E+03;3; -4.6387276E+01;  0.0000000E+00;  9.0025920E-01;0;  2.2521875E+00;  3.5372816E+04;  0.0000000E+00; -1.5685511E-01;  4.0000000E+04;  0.0000000E+00;  3.9869898E+04;  2.4659939E+00;  0.0000000E+00; -2.1380638E-01;  1.9028909E+03;
  1.1560322E+00;  9.9999998E-03; -1.1015526E-01;9048;  1.5873936E+00;  0.0000000E+00;  3.4289684E-02;  9.9682159E+02;  1.0617180E-01; -2.5791667E+03;3; -5.0353745E+01;  0.0000000E+00;  1.1657389E+00;0;  2.3274872E+00;  3.5372719E+04;  0.0000000E+00; -1.3965032E-01;  4.0000000E+04;  0.0000000E+00;  3.9868910E+04;  2.5484262E+00;  0.0000000E+00; -2.2093901E-01;  1.8065797E+03;
  1.1665232E+00;  9.9999998E-03; -2.5042641E-01;9093;  1.5436831E+00;  0.0000000E+00;  4.5433450E-02;  9.9690784E+02;  1.0568969E-01; -2.5006433E+03;3;  1.1180470E+01;  0.0000000E+00;  2.3374932E+00;0;  7.5180376E-01;  3.5687223E+04;  0.0000000E+00; -1.6922634E+01;  4.0000000E+04;  0.0000000E+00;  3.9893629E+04;  8.1329018E-01;  0.0000000E+00; -6.1486430E-02;  1.5567078E+04;
  1.1665967E+00;  9.9999998E-03; -1.2021299E-01;9106;  1.6159973E+00;  0.0000000E+00;  3.2403149E-02;  9.9753870E+02;  1.0572006E-01; -1.9904185E+03;3; -4.6380615E+01;  0.0000000E+00;  2.7953243E+00;0;  2.2537544E+00;  3.5732551E+04;  0.0000000E+00; -2.0750645E-01;  4.0000000E+04;  0.0000000E+00;  3.9862578E+04;  2.4534328E+00;  0.0000000E+00; -1.9967850E-01;  1.5073776E+03;
  1.1665616E+00;  9.9999998E-03; -1.1019723E-01;9107;  1.6137961E+00;  0.0000000E+00;  3.0325128E-02;  9.9754071E+02;  1.0572213E-01; -1.9888040E+03;3; -4.9589252E+01;  0.0000000E+00;  2.8533754E+00;0;  2.3276260E+00;  3.5732262E+04;  0.0000000E+00; -1.7877312E-01;  4.0000000E+04;  0.0000000E+00;  3.9861109E+04;  2.5330532E+00;  0.0000000E+00; -2.0542710E-01;  1.3652268E+03;
  1.1666460E+00;  9.9999998E-03; -1.6021219E-01;9102;  1.6173733E+00;  0.0000000E+00;  3.9413750E-02;  9.9744745E+02;  1.0571431E-01; -2.0641787E+03;3; -3.4855228E+01;  0.0000000E+00;  2.4662914E+00;0;  1.8880265E+00;  3.5728367E+04;  0.0000000E+00; -1.9670531E+00;  4.0000000E+04;  0.0000000E+00;  3.9866844E+04;  2.0535815E+00;  0.0000000E+00; -1.6555494E-01;  2.6929214E+03;
  1.1666276E+00;  9.9999998E-03; -1.5021679E-01;9103;  1.6183565E+00;  0.0000000E+00;  3.7740950E-02;  9.9748547E+02;  1.0571612E-01; -2.0334399E+03;3; -3.7501869E+01;  0.0000000E+00;  2.4926867E+00;0;  1.9887950E+00;  3.5730277E+04;  0.0000000E+00; -1.0882801E+00;  4.0000000E+04;  0.0000000E+00;  3.9865734E+04;  2.1645610E+00;  0.0000000E+00; -1.7576595E-01;  2.0935552E+03;
  1.1666217E+00;  9.9999998E-03; -1.4022082E-01;9104;  1.6183722E+00;  0.0000000E+00;  3.6072373E-02;  9.9751569E+02;  1.0571730E-01; -2.0090065E+03;3; -4.0271240E+01;  0.0000000E+00;  2.5358882E+00;0;  2.0838735E+00;  3.5731664E+04;  0.0000000E+00; -5.5438292E-01;  4.0000000E+04;  0.0000000E+00;  3.9864852E+04;  2.2687628E+00;  0.0000000E+00; -1.8488935E-01;  1.7980231E+03;
  1.1666148E+00;  9.9999998E-03; -1.3022050E-01;9105;  1.6175617E+00;  0.0000000E+00;  3.4320507E-02;  9.9753302E+02;  1.0571858E-01; -1.9949850E+03;3; -4.3256039E+01;  0.0000000E+00;  2.6514299E+00;0;  2.1724036E+00;  3.5732383E+04;  0.0000000E+00; -2.9732615E-01;  4.0000000E+04;  0.0000000E+00;  3.9863879E+04;  2.3652625E+00;  0.0000000E+00; -1.9285899E-01;  1.6403868E+03;
  1.1666306E+00;  9.9999998E-03; -2.6045713E-01;9092;  1.5393981E+00;  0.0000000E+00;  4.7144540E-02;  9.9655457E+02;  1.0568526E-01; -2.7862344E+03;3;  1.5467283E+01;  0.0000000E+00;  7.1703362E-01;0;  5.9117055E-01;  3.5675051E+04;  0.0000000E+00; -2.0281979E+01;  4.0000000E+04;  0.0000000E+00;  3.9884336E+04;  6.6993660E-01;  0.0000000E+00; -7.8766018E-02;  1.9425883E+04;
  1.1666324E+00;  9.9999998E-03; -2.4038199E-01;9094;  1.5490047E+00;  0.0000000E+00;  4.4081092E-02;  9.9680719E+02;  1.0569172E-01; -2.5819106E+03;3;  4.3420472E+00;  0.0000000E+00;  2.3360274E+00;0;  9.0333986E-01;  3.5668027E+04;  0.0000000E+00; -1.7067583E+01;  4.0000000E+04;  0.0000000E+00;  3.9905609E+04;  9.6266091E-01;  0.0000000E+00; -5.9321076E-02;  1.6062139E+04;
  1.1666892E+00;  9.9999998E-03; -1.7021056E-01;9101;  1.6154331E+00;  0.0000000E+00;  4.1226249E-02;  9.9739691E+02;  1.0571153E-01; -2.1050208E+03;3; -3.2538982E+01;  0.0000000E+00;  2.5006466E+00;0;  1.7824395E+00;  3.5725465E+04;  0.0000000E+00; -3.1860330E+00;  4.0000000E+04;  0.0000000E+00;  3.9868777E+04;  1.9369234E+00;  0.0000000E+00; -1.5448393E-01;  3.6657683E+03;
  1.1667622E+00;  9.9999998E-03; -1.8021370E-01;9100;  1.6122226E+00;  0.0000000E+00;  4.3175209E-02;  9.9732556E+02;  1.0570765E-01; -2.1626604E+03;3; -3.0654095E+01;  0.0000000E+00;  2.5792339E+00;0;  1.6726519E+00;  3.5720410E+04;  0.0000000E+00; -4.6914611E+00;  4.0000000E+04;  0.0000000E+00;  3.9872227E+04;  1.8156857E+00;  0.0000000E+00; -1.4303388E-01;  4.9593828E+03;
  1.1668341E+00;  9.9999998E-03; -2.3033643E-01;9095;  1.5577129E+00;  0.0000000E+00;  4.4609677E-02;  9.9664081E+02;  1.0569227E-01; -2.7162947E+03;3; -7.0656443E+00;  0.0000000E+00; -4.1637388E-01;0;  1.0412478E+00;  3.5653023E+04;  0.0000000E+00; -1.7109156E+01;  4.0000000E+04;  0.0000000E+00;  3.9908910E+04;  1.1179565E+00;  0.0000000E+00; -7.6708734E-02;  1.6520926E+04;
  1.1668541E+00;  9.9999998E-03; -1.9022395E-01;9099;  1.6070844E+00;  0.0000000E+00;  4.5305707E-02;  9.9721588E+02;  1.0570364E-01; -2.2512729E+03;3; -2.9072138E+01;  0.0000000E+00;  2.4898345E+00;0;  1.5583041E+00;  3.5711191E+04;  0.0000000E+00; -6.4724865E+00;  4.0000000E+04;  0.0000000E+00;  3.9877703E+04;  1.6904478E+00;  0.0000000E+00; -1.3214371E-01;  6.5476450E+03;
  1.1669596E+00;  9.9999998E-03; -2.2029966E-01;9096;  1.5721300E+00;  0.0000000E+00;  4.7180511E-02;  9.9667151E+02;  1.0569307E-01; -2.6913547E+03;3; -2.0266672E+01;  0.0000000E+00; -9.7144395E-01;0;  1.1743208E+00;  3.5659688E+04;  0.0000000E+00; -1.4653226E+01;  4.0000000E+04;  0.0000000E+00;  3.9902762E+04;  1.2752334E+00;  0.0000000E+00; -1.0091253E-01;  1.4253321E+04;
  1.1669391E+00;  9.9999998E-03; -2.0024265E-01;9098;  1.5990313E+00;  0.0000000E+00;  4.7101397E-02;  9.9705286E+02;  1.0569940E-01; -2.3830198E+03;3; -2.7512714E+01;  0.0000000E+00;  1.9232070E+00;0;  1.4379880E+00;  3.5696727E+04;  0.0000000E+00; -8.6544609E+00;  4.0000000E+04;  0.0000000E+00;  3.9885078E+04;  1.5604850E+00;  0.0000000E+00; -1.2249691E-01;  8.5515518E+03;
  1.1669737E+00;  9.9999998E-03; -2.7047169E-01;9091;  1.5356867E+00;  0.0000000E+00;  4.8208177E-02;  9.9533514E+02;  1.0567924E-01; -3.7718682E+03;3;  1.9501266E+01;  0.0000000E+00; -1.2390555E+00;0;  4.3658766E-01;  3.5594074E+04;  0.0000000E+00; -2.2462143E+01;  4.0000000E+04;  0.0000000E+00;  3.9887836E+04;  5.3410047E-01;  0.0000000E+00; -9.7512811E-02;  2.2937539E+04;
  1.1669855E+00;  9.9999998E-03; -2.1026866E-01;9097;  1.5871257E+00;  0.0000000E+00;  4.8103381E-02;  9.9685028E+02;  1.0569566E-01; -2.5467947E+03;3; -2.5145144E+01;  0.0000000E+00;  5.6534743E-01;0;  1.3092431E+00;  3.5677793E+04;  0.0000000E+00; -1.1433834E+01;  4.0000000E+04;  0.0000000E+00;  3.9893770E+04;  1.4231316E+00;  0.0000000E+00; -1.1388845E-01;  1.1171234E+04;
  1.1770135E+00;  9.9999998E-03; -1.2025661E-01;9164;  1.6373445E+00;  0.0000000E+00;  2.7253773E-02;  9.9826776E+02;  1.0531424E-01; -1.3953456E+03;3; -4.5445004E+01;  0.0000000E+00;  4.3887024E+00;0;  2.2363594E+00;  3.6068965E+04;  0.0000000E+00; -2.8484413E-01;  4.0000000E+04;  0.0000000E+00;  3.9853219E+04;  2.4204566E+00;  0.0000000E+00; -1.8409736E-01;  1.0168632E+03;
  1.1769961E+00;  9.9999998E-03; -1.1024389E-01;9165;  1.6374404E+00;  0.0000000E+00;  2.5495397E-02;  9.9826044E+02;  1.0531596E-01; -1.4012611E+03;3; -4.8032330E+01;  0.0000000E+00;  4.2336483E+00;0;  2.3036685E+00;  3.6068543E+04;  0.0000000E+00; -2.0913015E-01;  4.0000000E+04;  0.0000000E+00;  3.9851418E+04;  2.4917133E+00;  0.0000000E+00; -1.8804489E-01;  8.4497052E+02;
  1.1770242E+00;  9.9999998E-03; -1.4026174E-01;9162;  1.6355835E+00;  0.0000000E+00;  3.0503694E-02;  9.9821478E+02;  1.0531211E-01; -1.4380227E+03;3; -4.0284565E+01;  0.0000000E+00;  4.6558604E+00;0;  2.0824397E+00;  3.6065426E+04;  0.0000000E+00; -9.7160572E-01;  4.0000000E+04;  0.0000000E+00;  3.9855684E+04;  2.2562861E+00;  0.0000000E+00; -1.7384656E-01;  1.5301017E+03;
  1.1770201E+00;  9.9999998E-03; -1.3026182E-01;9163;  1.6366832E+00;  0.0000000E+00;  2.8922297E-02;  9.9825702E+02;  1.0531331E-01; -1.4039843E+03;3; -4.2863056E+01;  0.0000000E+00;  4.5189762E+00;0;  2.1624765E+00;  3.6067941E+04;  0.0000000E+00; -5.0102532E-01;  4.0000000E+04;  0.0000000E+00;  3.9854582E+04;  2.3418489E+00;  0.0000000E+00; -1.7937219E-01;  1.2101783E+03;
  1.1770366E+00;  9.9999998E-03; -1.5025896E-01;9161;  1.6341041E+00;  0.0000000E+00;  3.2051660E-02;  9.9814966E+02;  1.0531090E-01; -1.4904929E+03;3; -3.7741257E+01;  0.0000000E+00;  4.8892279E+00;0;  1.9969804E+00;  3.6061496E+04;  0.0000000E+00; -1.7803048E+00;  4.0000000E+04;  0.0000000E+00;  3.9856699E+04;  2.1644671E+00;  0.0000000E+00; -1.6748664E-01;  2.1298513E+03;
  1.1770667E+00;  9.9999998E-03; -1.6025738E-01;9160;  1.6320448E+00;  0.0000000E+00;  3.3651724E-02;  9.9806018E+02;  1.0530879E-01; -1.5625403E+03;3; -3.5392387E+01;  0.0000000E+00;  5.0930619E+00;0;  1.9069977E+00;  3.6055770E+04;  0.0000000E+00; -2.9411404E+00;  4.0000000E+04;  0.0000000E+00;  3.9858023E+04;  2.0672655E+00;  0.0000000E+00; -1.6026783E-01;  3.0716545E+03;
  1.1771204E+00;  9.9999998E-03; -1.7026025E-01;9159;  1.6295902E+00;  0.0000000E+00;  3.5417907E-02;  9.9794238E+02;  1.0530579E-01; -1.6573754E+03;3; -3.3539082E+01;  0.0000000E+00;  5.3486538E+00;0;  1.8133843E+00;  3.6047664E+04;  0.0000000E+00; -4.3842597E+00;  4.0000000E+04;  0.0000000E+00;  3.9860398E+04;  1.9656743E+00;  0.0000000E+00; -1.5228993E-01;  4.2778545E+03;
  1.1771971E+00;  9.9999998E-03; -1.8026988E-01;9158;  1.6255844E+00;  0.0000000E+00;  3.7396982E-02;  9.9778320E+02;  1.0530285E-01; -1.7855564E+03;3; -3.2095520E+01;  0.0000000E+00;  5.6257958E+00;0;  1.7163482E+00;  3.6035797E+04;  0.0000000E+00; -6.0052032E+00;  4.0000000E+04;  0.0000000E+00;  3.9863973E+04;  1.8602755E+00;  0.0000000E+00; -1.4392737E-01;  5.6271558E+03;
  1.1772860E+00;  9.9999998E-03; -1.9028568E-01;9157;  1.6196865E+00;  0.0000000E+00;  3.9510630E-02;  9.9755621E+02;  1.0529859E-01; -1.9683044E+03;3; -3.1531235E+01;  0.0000000E+00;  5.6665211E+00;0;  1.6151057E+00;  3.6018332E+04;  0.0000000E+00; -7.7814770E+00;  4.0000000E+04;  0.0000000E+00;  3.9869273E+04;  1.7510111E+00;  0.0000000E+00; -1.3590543E-01;  7.0994316E+03;
  1.1770004E+00;  9.9999998E-03; -2.4043918E-01;9152;  1.5491793E+00;  0.0000000E+00;  3.8508974E-02;  9.9683380E+02;  1.0528930E-01; -2.5504490E+03;3;  3.6438696E+00;  0.0000000E+00;  7.4193993E+00;0;  9.8414749E-01;  3.5957441E+04;  0.0000000E+00; -1.3913984E+01;  4.0000000E+04;  0.0000000E+00;  3.9889352E+04;  1.0415963E+00;  0.0000000E+00; -5.7448793E-02;  1.1528578E+04;
  1.1773584E+00;  9.9999998E-03; -2.0030716E-01;9156;  1.6098006E+00;  0.0000000E+00;  4.1285053E-02;  9.9726770E+02;  1.0529541E-01; -2.2005959E+03;3; -3.0882500E+01;  0.0000000E+00;  5.2128358E+00;0;  1.5065191E+00;  3.5994711E+04;  0.0000000E+00; -9.8314409E+00;  4.0000000E+04;  0.0000000E+00;  3.9876094E+04;  1.6350867E+00;  0.0000000E+00; -1.2856764E-01;  8.8236133E+03;
  1.1769476E+00;  9.9999998E-03; -2.5047892E-01;9151;  1.5435779E+00;  0.0000000E+00;  4.0554602E-02;  9.9681567E+02;  1.0528656E-01; -2.5650999E+03;3;  9.8917818E+00;  0.0000000E+00;  6.9974747E+00;0;  8.2773173E-01;  3.5970047E+04;  0.0000000E+00; -1.4181079E+01;  4.0000000E+04;  0.0000000E+00;  3.9876457E+04;  8.8929892E-01;  0.0000000E+00; -6.1567169E-02;  1.1543264E+04;
  1.1771729E+00;  9.9999998E-03; -2.3039439E-01;9153;  1.5578594E+00;  0.0000000E+00;  3.7913669E-02;  9.9670282E+02;  1.0528975E-01; -2.6557966E+03;3; -1.0273509E+01;  0.0000000E+00;  4.0845418E+00;0;  1.1252658E+00;  3.5941457E+04;  0.0000000E+00; -1.5176289E+01;  4.0000000E+04;  0.0000000E+00;  3.9896586E+04;  1.1978852E+00;  0.0000000E+00; -7.2619341E-02;  1.3221135E+04;
  1.1773243E+00;  9.9999998E-03; -2.2035767E-01;9154;  1.5756373E+00;  0.0000000E+00;  4.0681880E-02;  9.9673401E+02;  1.0529084E-01; -2.6304783E+03;3; -2.6085484E+01;  0.0000000E+00;  2.2565396E+00;0;  1.2562975E+00;  3.5945762E+04;  0.0000000E+00; -1.4501676E+01;  4.0000000E+04;  0.0000000E+00;  3.9893109E+04;  1.3602512E+00;  0.0000000E+00; -1.0395370E-01;  1.2884492E+04;
  1.1773818E+00;  9.9999998E-03; -2.1033105E-01;9155;  1.5950649E+00;  0.0000000E+00;  4.2080991E-02;  9.9695673E+02;  1.0529254E-01; -2.4510681E+03;3; -3.0054167E+01;  0.0000000E+00;  4.1987243E+00;0;  1.3867155E+00;  3.5967770E+04;  0.0000000E+00; -1.2235795E+01;  4.0000000E+04;  0.0000000E+00;  3.9884422E+04;  1.5072246E+00;  0.0000000E+00; -1.2050901E-01;  1.0908095E+04;
  1.1770880E+00;  9.9999998E-03; -2.6050606E-01;9150;  1.5387154E+00;  0.0000000E+00;  4.2757895E-02;  9.9626752E+02;  1.0528249E-01; -3.0065139E+03;3;  1.4262599E+01;  0.0000000E+00;  5.3431044E+00;0;  6.6089642E-01;  3.5944434E+04;  0.0000000E+00; -1.7853382E+01;  4.0000000E+04;  0.0000000E+00;  3.9867102E+04;  7.3993725E-01;  0.0000000E+00; -7.9040825E-02;  1.5767617E+04;
  1.1774334E+00;  9.9999998E-03; -2.7051875E-01;9149;  1.5343250E+00;  0.0000000E+00;  4.4441838E-02;  9.9475061E+02;  1.0527839E-01; -4.2277612E+03;3;  1.8698984E+01;  0.0000000E+00;  3.7587607E+00;0;  4.9700940E-01;  3.5841324E+04;  0.0000000E+00; -1.6836885E+01;  4.0000000E+04;  0.0000000E+00;  3.9870395E+04;  5.9592754E-01;  0.0000000E+00; -9.8918125E-02;  1.6180414E+04;
  1.1873699E+00;  9.9999998E-03; -1.4030427E-01;9219;  1.6547754E+00;  0.0000000E+00;  2.4734152E-02;  9.9882843E+02;  1.0494760E-01; -9.3950946E+02;3; -3.8850780E+01;  0.0000000E+00;  6.3061309E+00;0;  2.0720654E+00;  3.6371371E+04;  0.0000000E+00; -1.6291510E+00;  4.0000000E+04;  0.0000000E+00;  3.9844113E+04;  2.2346456E+00;  0.0000000E+00; -1.6258036E-01;  1.5965771E+03;
  1.1873657E+00;  9.9999998E-03; -1.3030216E-01;9220;  1.6565738E+00;  0.0000000E+00;  2.3277167E-02;  9.9889001E+02;  1.0494866E-01; -8.9008844E+02;3; -4.1029469E+01;  0.0000000E+00;  5.9827461E+00;0;  2.1400158E+00;  3.6375531E+04;  0.0000000E+00; -8.7881321E-01;  4.0000000E+04;  0.0000000E+00;  3.9842902E+04;  2.3053184E+00;  0.0000000E+00; -1.6530260E-01;  9.5311969E+02;
  1.1874310E+00;  9.9999998E-03; -1.6030867E-01;9217;  1.6507256E+00;  0.0000000E+00;  2.7734257E-02;  9.9860474E+02;  1.0494393E-01; -1.1188619E+03;3; -3.5003109E+01;  0.0000000E+00;  6.9972949E+00;0;  1.9242947E+00;  3.6356176E+04;  0.0000000E+00; -4.1645708E+00;  4.0000000E+04;  0.0000000E+00;  3.9846984E+04;  2.0794747E+00;  0.0000000E+00; -1.5517993E-01;  3.7264700E+03;
  1.1873889E+00;  9.9999998E-03; -1.5030561E-01;9218;  1.6528002E+00;  0.0000000E+00;  2.6152581E-02;  9.9873431E+02;  1.0494604E-01; -1.0149729E+03;3; -3.6792149E+01;  0.0000000E+00;  6.7226167E+00;0;  1.9998021E+00;  3.6365031E+04;  0.0000000E+00; -2.7436123E+00;  4.0000000E+04;  0.0000000E+00;  3.9845328E+04;  2.1590416E+00;  0.0000000E+00; -1.5923952E-01;  2.5425730E+03;
  1.1873665E+00;  9.9999998E-03; -1.2029690E-01;9221;  1.6582668E+00;  0.0000000E+00;  2.1817042E-02;  9.9891565E+02;  1.0494960E-01; -8.6953510E+02;3; -4.3180260E+01;  0.0000000E+00;  5.6798472E+00;0;  2.2027845E+00;  3.6377543E+04;  0.0000000E+00; -4.5723769E-01;  4.0000000E+04;  0.0000000E+00;  3.9841637E+04;  2.3702939E+00;  0.0000000E+00; -1.6750929E-01;  5.6985455E+02;
  1.1873637E+00;  9.9999998E-03; -1.1028629E-01;9222;  1.6597075E+00;  0.0000000E+00;  2.0315090E-02;  9.9891199E+02;  1.0495090E-01; -8.7249969E+02;3; -4.5315834E+01;  0.0000000E+00;  5.3675604E+00;0;  2.2598276E+00;  3.6377617E+04;  0.0000000E+00; -2.6674700E-01;  4.0000000E+04;  0.0000000E+00;  3.9839848E+04;  2.4290540E+00;  0.0000000E+00; -1.6922651E-01;  3.3687674E+02;
  1.1873289E+00;  9.9999998E-03; -2.4049690E-01;9209;  1.5500318E+00;  0.0000000E+00;  3.1923905E-02;  9.9707184E+02;  1.0492662E-01; -2.3481492E+03;3;  1.0689491E+00;  0.0000000E+00;  1.2178939E+01;0;  1.0797199E+00;  3.6238801E+04;  0.0000000E+00; -9.6736908E+00;  4.0000000E+04;  0.0000000E+00;  3.9871773E+04;  1.1232932E+00;  0.0000000E+00; -4.3573309E-02;  6.5973022E+03;
  1.1874971E+00;  9.9999998E-03; -1.7031707E-01;9216;  1.6476709E+00;  0.0000000E+00;  2.9443810E-02;  9.9842834E+02;  1.0494119E-01; -1.2602522E+03;3; -3.3820648E+01;  0.0000000E+00;  7.5147686E+00;0;  1.8463554E+00;  3.6343543E+04;  0.0000000E+00; -5.7557225E+00;  4.0000000E+04;  0.0000000E+00;  3.9849641E+04;  1.9967009E+00;  0.0000000E+00; -1.5034543E-01;  5.0069409E+03;
  1.1873357E+00;  9.9999998E-03; -2.5053114E-01;9208;  1.5436717E+00;  0.0000000E+00;  3.4419548E-02;  9.9692285E+02;  1.0492392E-01; -2.4676377E+03;3;  8.7716484E+00;  0.0000000E+00;  1.2138972E+01;0;  9.2023695E-01;  3.6242211E+04;  0.0000000E+00; -1.1032633E+01;  4.0000000E+04;  0.0000000E+00;  3.9859309E+04;  9.6552414E-01;  0.0000000E+00; -4.5287196E-02;  7.6962778E+03;
  1.1874514E+00;  9.9999998E-03; -2.3045635E-01;9210;  1.5609099E+00;  0.0000000E+00;  3.1131180E-02;  9.9697552E+02;  1.0492800E-01; -2.4252534E+03;3; -2.0037102E+01;  0.0000000E+00;  6.9796591E+00;0;  1.2221231E+00;  3.6222879E+04;  0.0000000E+00; -1.1486932E+01;  4.0000000E+04;  0.0000000E+00;  3.9880805E+04;  1.2868158E+00;  0.0000000E+00; -6.4692661E-02;  8.6140312E+03;
  1.1875815E+00;  9.9999998E-03; -1.8033178E-01;9215;  1.6434747E+00;  0.0000000E+00;  3.1440791E-02;  9.9818646E+02;  1.0493830E-01; -1.4541462E+03;3; -3.3180984E+01;  0.0000000E+00;  7.8262515E+00;0;  1.7661215E+00;  3.6325527E+04;  0.0000000E+00; -7.3824167E+00;  4.0000000E+04;  0.0000000E+00;  3.9853562E+04;  1.9111710E+00;  0.0000000E+00; -1.4504944E-01;  6.2562144E+03;
  1.1876086E+00;  9.9999998E-03; -2.2041914E-01;9211;  1.5825514E+00;  0.0000000E+00;  3.3663031E-02;  9.9695172E+02;  1.0492849E-01; -2.4441924E+03;3; -3.1657242E+01;  0.0000000E+00;  5.6507049E+00;0;  1.3546625E+00;  3.6220789E+04;  0.0000000E+00; -1.2872724E+01;  4.0000000E+04;  0.0000000E+00;  3.9880812E+04;  1.4567653E+00;  0.0000000E+00; -1.0210273E-01;  1.0186230E+04;
  1.1876649E+00;  9.9999998E-03; -1.9035172E-01;9214;  1.6361688E+00;  0.0000000E+00;  3.3430602E-02;  9.9786694E+02;  1.0493488E-01; -1.7102972E+03;3; -3.3509968E+01;  0.0000000E+00;  7.9754148E+00;0;  1.6815653E+00;  3.6300645E+04;  0.0000000E+00; -9.0207624E+00;  4.0000000E+04;  0.0000000E+00;  3.9858617E+04;  1.8211372E+00;  0.0000000E+00; -1.3957185E-01;  7.4670674E+03;
  1.1877055E+00;  9.9999998E-03; -2.1039498E-01;9212;  1.6060816E+00;  0.0000000E+00;  3.5505101E-02;  9.9713098E+02;  1.0492957E-01; -2.3003296E+03;3; -3.3955849E+01;  0.0000000E+00;  6.8727260E+00;0;  1.4791092E+00;  3.6239730E+04;  0.0000000E+00; -1.2313242E+01;  4.0000000E+04;  0.0000000E+00;  3.9872938E+04;  1.6036927E+00;  0.0000000E+00; -1.2458349E-01;  9.9014678E+03;
  1.1877164E+00;  9.9999998E-03; -2.0037377E-01;9213;  1.6240652E+00;  0.0000000E+00;  3.5030991E-02;  9.9748206E+02;  1.0493191E-01; -2.0188353E+03;3; -3.3842148E+01;  0.0000000E+00;  7.8146200E+00;0;  1.5878857E+00;  3.6270168E+04;  0.0000000E+00; -1.0724449E+01;  4.0000000E+04;  0.0000000E+00;  3.9864949E+04;  1.7215767E+00;  0.0000000E+00; -1.3369097E-01;  8.7213018E+03;
  1.1875150E+00;  9.9999998E-03; -2.6055560E-01;9207;  1.5381430E+00;  0.0000000E+00;  3.7230138E-02;  9.9610358E+02;  1.0492059E-01; -3.1243652E+03;3;  1.3342782E+01;  0.0000000E+00;  1.0473900E+01;0;  7.4534976E-01;  3.6197617E+04;  0.0000000E+00; -1.4911931E+01;  4.0000000E+04;  0.0000000E+00;  3.9849980E+04;  8.0836511E-01;  0.0000000E+00; -6.3015342E-02;  1.2148973E+04;
  1.1878287E+00;  9.9999998E-03; -2.7056777E-01;9206;  1.5328906E+00;  0.0000000E+00;  3.9407857E-02;  9.9440509E+02;  1.0491822E-01; -4.4856567E+03;3;  1.7900150E+01;  0.0000000E+00;  8.7281590E+00;0;  5.7170111E-01;  3.6081551E+04;  0.0000000E+00; -8.4460907E+00;  4.0000000E+04;  0.0000000E+00;  3.9851520E+04;  6.5345323E-01;  0.0000000E+00; -8.1752129E-02;  7.6997983E+03;
  1.1976975E+00;  9.9999998E-03; -1.1031895E-01;9279;  1.6832989E+00;  0.0000000E+00;  1.5384367E-02;  9.9943671E+02;  1.0462364E-01; -4.4936691E+02;3; -4.1544048E+01;  0.0000000E+00;  6.0204525E+00;0;  2.1989594E+00;  3.6656301E+04;  0.0000000E+00; -4.3146294E-01;  4.0000000E+04;  0.0000000E+00;  3.9826125E+04;  2.3482769E+00;  0.0000000E+00; -1.4931747E-01;  5.6440381E+02;
  1.1976953E+00;  9.9999998E-03; -1.2032942E-01;9278;  1.6817720E+00;  0.0000000E+00;  1.6695403E-02;  9.9942981E+02;  1.0462268E-01; -4.5488348E+02;3; -3.9844112E+01;  0.0000000E+00;  6.4003181E+00;0;  2.1543076E+00;  3.6655316E+04;  0.0000000E+00; -8.2104546E-01;  4.0000000E+04;  0.0000000E+00;  3.9827754E+04;  2.3045373E+00;  0.0000000E+00; -1.5022969E-01;  7.7032330E+02;
  1.1976963E+00;  9.9999998E-03; -1.3033639E-01;9277;  1.6801387E+00;  0.0000000E+00;  1.8014606E-02;  9.9938641E+02;  1.0462218E-01; -4.8950113E+02;3; -3.8146194E+01;  0.0000000E+00;  6.7903624E+00;0;  2.1048086E+00;  3.6652016E+04;  0.0000000E+00; -1.5205833E+00;  4.0000000E+04;  0.0000000E+00;  3.9829004E+04;  2.2557337E+00;  0.0000000E+00; -1.5092506E-01;  1.3181132E+03;
  1.1977091E+00;  9.9999998E-03; -1.4034173E-01;9276;  1.6784534E+00;  0.0000000E+00;  1.9377586E-02;  9.9930872E+02;  1.0462149E-01; -5.5150531E+02;3; -3.6531174E+01;  0.0000000E+00;  7.1826644E+00;0;  2.0511975E+00;  3.6646426E+04;  0.0000000E+00; -2.5867248E+00;  4.0000000E+04;  0.0000000E+00;  3.9830195E+04;  2.2025304E+00;  0.0000000E+00; -1.5133286E-01;  2.1900559E+03;
  1.1977417E+00;  9.9999998E-03; -1.5034761E-01;9275;  1.6767377E+00;  0.0000000E+00;  2.0785784E-02;  9.9918628E+02;  1.0461938E-01; -6.4916528E+02;3; -3.5062130E+01;  0.0000000E+00;  7.6810465E+00;0;  1.9945940E+00;  3.6638098E+04;  0.0000000E+00; -3.9885232E+00;  4.0000000E+04;  0.0000000E+00;  3.9831691E+04;  2.1458881E+00;  0.0000000E+00; -1.5129407E-01;  3.3177056E+03;
  1.1977993E+00;  9.9999998E-03; -1.6035654E-01;9274;  1.6744307E+00;  0.0000000E+00;  2.2309961E-02;  9.9902545E+02;  1.0461769E-01; -7.7743372E+02;3; -3.4044155E+01;  0.0000000E+00;  8.0980253E+00;0;  1.9361893E+00;  3.6626082E+04;  0.0000000E+00; -5.5945101E+00;  4.0000000E+04;  0.0000000E+00;  3.9833840E+04;  2.0867999E+00;  0.0000000E+00; -1.5061060E-01;  4.5628950E+03;
  1.1978778E+00;  9.9999998E-03; -1.7037064E-01;9273;  1.6714340E+00;  0.0000000E+00;  2.4126360E-02;  9.9878906E+02;  1.0461440E-01; -9.6597443E+02;3; -3.3464016E+01;  0.0000000E+00;  8.5755777E+00;0;  1.8769398E+00;  3.6608930E+04;  0.0000000E+00; -7.2247176E+00;  4.0000000E+04;  0.0000000E+00;  3.9836996E+04;  2.0261950E+00;  0.0000000E+00; -1.4925528E-01;  5.7566631E+03;
  1.1979629E+00;  9.9999998E-03; -1.8039024E-01;9272;  1.6661649E+00;  0.0000000E+00;  2.5989039E-02;  9.9847369E+02;  1.0461146E-01; -1.2174926E+03;3; -3.3815041E+01;  0.0000000E+00;  8.8484573E+00;0;  1.8162973E+00;  3.6584938E+04;  0.0000000E+00; -8.7466974E+00;  4.0000000E+04;  0.0000000E+00;  3.9841055E+04;  1.9634229E+00;  0.0000000E+00; -1.4712563E-01;  6.7862622E+03;
  1.1976923E+00;  9.9999998E-03; -2.4055178E-01;9266;  1.5544127E+00;  0.0000000E+00;  2.4979159E-02;  9.9729236E+02;  1.0460159E-01; -2.1601533E+03;3; -2.2260714E+01;  0.0000000E+00;  9.8338842E+00;0;  1.1819222E+00;  3.6494645E+04;  0.0000000E+00; -7.0048108E+00;  4.0000000E+04;  0.0000000E+00;  3.9854988E+04;  1.2048498E+00;  0.0000000E+00; -2.2927659E-02;  3.8678164E+03;
  1.1977437E+00;  9.9999998E-03; -2.3051785E-01;9267;  1.5746195E+00;  0.0000000E+00;  2.5863871E-02;  9.9730536E+02;  1.0460355E-01; -2.1497278E+03;3; -3.6361816E+01;  0.0000000E+00;  6.6203022E+00;0;  1.3336751E+00;  3.6486695E+04;  0.0000000E+00; -7.6639566E+00;  4.0000000E+04;  0.0000000E+00;  3.9863156E+04;  1.3986607E+00;  0.0000000E+00; -6.4985529E-02;  4.6613096E+03;
  1.1978707E+00;  9.9999998E-03; -2.2048172E-01;9268;  1.5965734E+00;  0.0000000E+00;  2.7385036E-02;  9.9725739E+02;  1.0460440E-01; -2.1878101E+03;3; -3.8248055E+01;  0.0000000E+00;  7.0828381E+00;0;  1.4631592E+00;  3.6480621E+04;  0.0000000E+00; -1.0141232E+01;  4.0000000E+04;  0.0000000E+00;  3.9865934E+04;  1.5645406E+00;  0.0000000E+00; -1.0138141E-01;  6.8343706E+03;
  1.1980301E+00;  9.9999998E-03; -1.9041306E-01;9271;  1.6570593E+00;  0.0000000E+00;  2.7787860E-02;  9.9807410E+02;  1.0460867E-01; -1.5361810E+03;3; -3.5289219E+01;  0.0000000E+00;  9.3569651E+00;0;  1.7509518E+00;  3.6553836E+04;  0.0000000E+00; -1.0125698E+01;  4.0000000E+04;  0.0000000E+00;  3.9846074E+04;  1.8951108E+00;  0.0000000E+00; -1.4415911E-01;  7.6415137E+03;
  1.1979945E+00;  9.9999998E-03; -2.1045606E-01;9269;  1.6215407E+00;  0.0000000E+00;  2.9013434E-02;  9.9734515E+02;  1.0460532E-01; -2.1176797E+03;3; -3.8257030E+01;  0.0000000E+00;  8.5721855E+00;0;  1.5788841E+00;  3.6491609E+04;  0.0000000E+00; -1.1563817E+01;  4.0000000E+04;  0.0000000E+00;  3.9860098E+04;  1.7062291E+00;  0.0000000E+00; -1.2734497E-01;  8.2332197E+03;
  1.1980492E+00;  9.9999998E-03; -2.0043547E-01;9270;  1.6423951E+00;  0.0000000E+00;  2.9071139E-02;  9.9765686E+02;  1.0460693E-01; -1.8689668E+03;3; -3.6797752E+01;  0.0000000E+00;  9.0183983E+00;0;  1.6740892E+00;  3.6519727E+04;  0.0000000E+00; -1.1257486E+01;  4.0000000E+04;  0.0000000E+00;  3.9852422E+04;  1.8133032E+00;  0.0000000E+00; -1.3921401E-01;  8.2697998E+03;
  1.1977500E+00;  9.9999998E-03; -2.5058085E-01;9265;  1.5437305E+00;  0.0000000E+00;  2.6837407E-02;  9.9696198E+02;  1.0459886E-01; -2.4236602E+03;3;  6.7626767E+00;  0.0000000E+00;  1.7167452E+01;0;  1.0165594E+00;  3.6484312E+04;  0.0000000E+00; -9.7904968E+00;  4.0000000E+04;  0.0000000E+00;  3.9844219E+04;  1.0234181E+00;  0.0000000E+00; -6.8586604E-03;  6.2524956E+03;
  1.1979531E+00;  9.9999998E-03; -2.6060399E-01;9264;  1.5372825E+00;  0.0000000E+00;  3.0271621E-02;  9.9583295E+02;  1.0459697E-01; -3.3240046E+03;3;  1.2727983E+01;  0.0000000E+00;  1.5917579E+01;0;  8.3175552E-01;  3.6417484E+04;  0.0000000E+00; -1.2162445E+01;  4.0000000E+04;  0.0000000E+00;  3.9834227E+04;  8.5554934E-01;  0.0000000E+00; -2.3793787E-02;  9.3592246E+03;
  1.1981519E+00;  9.9999998E-03; -2.7061975E-01;9263;  1.5313439E+00;  0.0000000E+00;  3.3229001E-02;  9.9440851E+02;  1.0459673E-01; -4.4597725E+03;3;  1.7313740E+01;  0.0000000E+00;  1.4154267E+01;0;  6.4411688E-01;  3.6325258E+04;  0.0000000E+00;  2.3461621E+00;  4.0000000E+04;  0.0000000E+00;  3.9829312E+04;  6.8936867E-01;  0.0000000E+00; -4.5251783E-02;  2.5768867E+03;
  1.2080226E+00;  9.9999998E-03; -1.1034048E-01;9335;  1.7096914E+00;  0.0000000E+00;  1.1421253E-02;  9.9981256E+02;  1.0433219E-01; -1.4867052E+02;3; -3.6386433E+01;  0.0000000E+00;  6.5439286E+00;0;  2.1232915E+00;  3.6903551E+04;  0.0000000E+00; -8.0986881E-01;  4.0000000E+04;  0.0000000E+00;  3.9810555E+04;  2.2518926E+00;  0.0000000E+00; -1.2860115E-01;  1.2133130E+03;
  1.2080250E+00;  9.9999998E-03; -1.2035246E-01;9334;  1.7087721E+00;  0.0000000E+00;  1.2586332E-02;  9.9978522E+02;  1.0433151E-01; -1.7032088E+02;3; -3.5143620E+01;  0.0000000E+00;  6.9463801E+00;0;  2.0917394E+00;  3.6901227E+04;  0.0000000E+00; -1.4737082E+00;  4.0000000E+04;  0.0000000E+00;  3.9811801E+04;  2.2242346E+00;  0.0000000E+00; -1.3249518E-01;  1.5004926E+03;
  1.2080361E+00;  9.9999998E-03; -1.3036238E-01;9333;  1.7078784E+00;  0.0000000E+00;  1.3852490E-02;  9.9972174E+02;  1.0433103E-01; -2.2066400E+02;3; -3.3930233E+01;  0.0000000E+00;  7.4251862E+00;0;  2.0563393E+00;  3.6896648E+04;  0.0000000E+00; -2.4911954E+00;  4.0000000E+04;  0.0000000E+00;  3.9812949E+04;  2.1927965E+00;  0.0000000E+00; -1.3645723E-01;  2.1482354E+03;
  1.2080646E+00;  9.9999998E-03; -1.4037217E-01;9332;  1.7068908E+00;  0.0000000E+00;  1.5167136E-02;  9.9962164E+02;  1.0432944E-01; -3.0007510E+02;3; -3.2951912E+01;  0.0000000E+00;  7.8968344E+00;0;  2.0181510E+00;  3.6889328E+04;  0.0000000E+00; -3.8577514E+00;  4.0000000E+04;  0.0000000E+00;  3.9814305E+04;  2.1585093E+00;  0.0000000E+00; -1.4035811E-01;  3.1163821E+03;
  1.2081158E+00;  9.9999998E-03; -1.5038386E-01;9331;  1.7056025E+00;  0.0000000E+00;  1.6599376E-02;  9.9947162E+02;  1.0432764E-01; -4.1904263E+02;3; -3.2269962E+01;  0.0000000E+00;  8.3980675E+00;0;  1.9785905E+00;  3.6878699E+04;  0.0000000E+00; -5.4712620E+00;  4.0000000E+04;  0.0000000E+00;  3.9816168E+04;  2.1226053E+00;  0.0000000E+00; -1.4401488E-01;  4.2702368E+03;
  1.2081892E+00;  9.9999998E-03; -1.6039886E-01;9330;  1.7038186E+00;  0.0000000E+00;  1.8316099E-02;  9.9926477E+02;  1.0432535E-01; -5.8304095E+02;3; -3.1976927E+01;  0.0000000E+00;  8.8900738E+00;0;  1.9391358E+00;  3.6863074E+04;  0.0000000E+00; -7.1491914E+00;  4.0000000E+04;  0.0000000E+00;  3.9818863E+04;  2.0864413E+00;  0.0000000E+00; -1.4730543E-01;  5.4270176E+03;
  1.2082741E+00;  9.9999998E-03; -1.7041855E-01;9329;  1.7004926E+00;  0.0000000E+00;  2.0114828E-02;  9.9897522E+02;  1.0432321E-01; -8.1262274E+02;3; -3.2512131E+01;  0.0000000E+00;  9.3081379E+00;0;  1.9005228E+00;  3.6840828E+04;  0.0000000E+00; -8.7103395E+00;  4.0000000E+04;  0.0000000E+00;  3.9822523E+04;  2.0505075E+00;  0.0000000E+00; -1.4998476E-01;  6.4249858E+03;
  1.2083498E+00;  9.9999998E-03; -1.8044226E-01;9328;  1.6941125E+00;  0.0000000E+00;  2.1926310E-02;  9.9859338E+02;  1.0432047E-01; -1.1153489E+03;3; -3.4086452E+01;  0.0000000E+00;  9.2940559E+00;0;  1.8611810E+00;  3.6810910E+04;  0.0000000E+00; -1.0045890E+01;  4.0000000E+04;  0.0000000E+00;  3.9827031E+04;  2.0130336E+00;  0.0000000E+00; -1.5185256E-01;  7.1791514E+03;
  1.2083904E+00;  9.9999998E-03; -1.9046710E-01;9327;  1.6832224E+00;  0.0000000E+00;  2.3443999E-02;  9.9815503E+02;  1.0431880E-01; -1.4628811E+03;3; -3.6769592E+01;  0.0000000E+00;  9.5712271E+00;0;  1.8165661E+00;  3.6775738E+04;  0.0000000E+00; -1.1061914E+01;  4.0000000E+04;  0.0000000E+00;  3.9832488E+04;  1.9685661E+00;  0.0000000E+00; -1.5200000E-01;  7.6329624E+03;
  1.2083689E+00;  9.9999998E-03; -2.0049071E-01;9326;  1.6665708E+00;  0.0000000E+00;  2.4369821E-02;  9.9775598E+02;  1.0431702E-01; -1.7793196E+03;3; -3.9475262E+01;  0.0000000E+00;  8.9443808E+00;0;  1.7581389E+00;  3.6742312E+04;  0.0000000E+00; -1.1380209E+01;  4.0000000E+04;  0.0000000E+00;  3.9838910E+04;  1.9066561E+00;  0.0000000E+00; -1.4851730E-01;  7.5133818E+03;
  1.2082804E+00;  9.9999998E-03; -2.1051475E-01;9325;  1.6457211E+00;  0.0000000E+00;  2.4485191E-02;  9.9753583E+02;  1.0431591E-01; -1.9540115E+03;3; -4.2451324E+01;  0.0000000E+00;  8.2948914E+00;0;  1.6802108E+00;  3.6720973E+04;  0.0000000E+00; -1.0255405E+01;  4.0000000E+04;  0.0000000E+00;  3.9845387E+04;  1.8180418E+00;  0.0000000E+00; -1.3783102E-01;  6.2978457E+03;
  1.2081679E+00;  9.9999998E-03; -2.2054608E-01;9324;  1.6257744E+00;  0.0000000E+00;  2.4695974E-02;  9.9748376E+02;  1.0431535E-01; -1.9954110E+03;3; -4.5209019E+01;  0.0000000E+00;  6.9729271E+00;0;  1.5838258E+00;  3.6715613E+04;  0.0000000E+00; -7.7977486E+00;  4.0000000E+04;  0.0000000E+00;  3.9847062E+04;  1.7058715E+00;  0.0000000E+00; -1.2204564E-01;  4.2221533E+03;
  1.2081065E+00;  9.9999998E-03; -2.3058026E-01;9323;  1.6077420E+00;  0.0000000E+00;  2.5534043E-02;  9.9740552E+02;  1.0431399E-01; -2.0575510E+03;3; -4.7778767E+01;  0.0000000E+00;  5.7374635E+00;0;  1.4642678E+00;  3.6714816E+04;  0.0000000E+00; -6.4301100E+00;  4.0000000E+04;  0.0000000E+00;  3.9841996E+04;  1.5707917E+00;  0.0000000E+00; -1.0652392E-01;  3.0893462E+03;
  1.2081273E+00;  9.9999998E-03; -2.4060348E-01;9322;  1.5796834E+00;  0.0000000E+00;  2.3642845E-02;  9.9720483E+02;  1.0431191E-01; -2.2166797E+03;3; -4.7982315E+01;  0.0000000E+00;  2.9540434E+00;0;  1.2960362E+00;  3.6704875E+04;  0.0000000E+00; -8.1868830E+00;  4.0000000E+04;  0.0000000E+00;  3.9839438E+04;  1.3561159E+00;  0.0000000E+00; -6.0079705E-02;  4.5661597E+03;
  1.2082313E+00;  9.9999998E-03; -2.5062439E-01;9321;  1.5453548E+00;  0.0000000E+00;  1.8173242E-02;  9.9661621E+02;  1.0430972E-01; -2.6833372E+03;3; -1.2518425E+01;  0.0000000E+00;  1.4749575E+01;0;  1.1013857E+00;  3.6670473E+04;  0.0000000E+00; -1.1609309E+01;  4.0000000E+04;  0.0000000E+00;  3.9834969E+04;  1.0515138E+00;  0.0000000E+00;  4.9871959E-02;  7.9566812E+03;
  1.2084005E+00;  9.9999998E-03; -2.6064944E-01;9320;  1.5359107E+00;  0.0000000E+00;  2.1410216E-02;  9.9535925E+02;  1.0430961E-01; -3.6797000E+03;3;  1.2117166E+01;  0.0000000E+00;  2.2816900E+01;0;  9.0635026E-01;  3.6596812E+04;  0.0000000E+00; -7.9718833E+00;  4.0000000E+04;  0.0000000E+00;  3.9821703E+04;  8.5768902E-01;  0.0000000E+00;  4.8661243E-02;  5.9713452E+03;
  1.2083677E+00;  9.9999998E-03; -2.7067050E-01;9319;  1.5296593E+00;  0.0000000E+00;  2.5084076E-02;  9.9521515E+02;  1.0431044E-01; -3.7940063E+03;3;  1.7117712E+01;  0.0000000E+00;  2.0431957E+01;0;  7.0969701E-01;  3.6602680E+04;  0.0000000E+00;  1.3243882E+01;  4.0000000E+04;  0.0000000E+00;  3.9807492E+04;  6.8435955E-01;  0.0000000E+00;  2.5337458E-02;  1.0357720E+04;
  1.2183529E+00;  9.9999998E-03; -1.1035095E-01;9390;  1.7376133E+00;  0.0000000E+00;  8.0486219E-03;  1.0000443E+03;  1.0407388E-01;  3.4933449E+01;3; -3.0284330E+01;  0.0000000E+00;  7.5063763E+00;0;  2.0352879E+00;  3.7120070E+04;  0.0000000E+00; -1.5031737E+00;  4.0000000E+04;  0.0000000E+00;  3.9793688E+04;  2.1425982E+00;  0.0000000E+00; -1.0731035E-01;  1.9121653E+03;
  1.2183670E+00;  9.9999998E-03; -1.2036561E-01;9389;  1.7379800E+00;  0.0000000E+00;  9.1162967E-03;  9.9998755E+02;  1.0407323E-01; -9.8131971E+00;3; -2.9457233E+01;  0.0000000E+00;  8.0572948E+00;0;  2.0164440E+00;  3.7116082E+04;  0.0000000E+00; -2.4806745E+00;  4.0000000E+04;  0.0000000E+00;  3.9794414E+04;  2.1309028E+00;  0.0000000E+00; -1.1445884E-01;  2.3654863E+03;
  1.2183949E+00;  9.9999998E-03; -1.3038005E-01;9388;  1.7383546E+00;  0.0000000E+00;  1.0237750E-02;  9.9989807E+02;  1.0407218E-01; -8.0288231E+01;3; -2.8842009E+01;  0.0000000E+00;  8.5803270E+00;0;  1.9950689E+00;  3.7109824E+04;  0.0000000E+00; -3.8021507E+00;  4.0000000E+04;  0.0000000E+00;  3.9795469E+04;  2.1170349E+00;  0.0000000E+00; -1.2196599E-01;  3.1327549E+03;
  1.2184443E+00;  9.9999998E-03; -1.4039557E-01;9387;  1.7384914E+00;  0.0000000E+00;  1.1466053E-02;  9.9977057E+02;  1.0407093E-01; -1.8071269E+02;3; -2.8587288E+01;  0.0000000E+00;  9.1134205E+00;0;  1.9726547E+00;  3.7100434E+04;  0.0000000E+00; -5.3955503E+00;  4.0000000E+04;  0.0000000E+00;  3.9796930E+04;  2.1023023E+00;  0.0000000E+00; -1.2964758E-01;  4.1331509E+03;
  1.2185137E+00;  9.9999998E-03; -1.5041353E-01;9386;  1.7381711E+00;  0.0000000E+00;  1.3058690E-02;  9.9958331E+02;  1.0406880E-01; -3.2821542E+02;3; -2.8623068E+01;  0.0000000E+00;  9.7848654E+00;0;  1.9510010E+00;  3.7086398E+04;  0.0000000E+00; -7.1059527E+00;  4.0000000E+04;  0.0000000E+00;  3.9799195E+04;  2.0884154E+00;  0.0000000E+00; -1.3741429E-01;  5.2092271E+03;
  1.2185965E+00;  9.9999998E-03; -1.6043496E-01;9385;  1.7367746E+00;  0.0000000E+00;  1.4887665E-02;  9.9932526E+02;  1.0406714E-01; -5.3142371E+02;3; -2.9399059E+01;  0.0000000E+00;  1.0253898E+01;0;  1.9316925E+00;  3.7066176E+04;  0.0000000E+00; -8.7438545E+00;  4.0000000E+04;  0.0000000E+00;  3.9802520E+04;  2.0768011E+00;  0.0000000E+00; -1.4510860E-01;  6.1893809E+03;
  1.2186779E+00;  9.9999998E-03; -1.7045993E-01;9384;  1.7331040E+00;  0.0000000E+00;  1.6827047E-02;  9.9896863E+02;  1.0406492E-01; -8.1229956E+02;3; -3.1200714E+01;  0.0000000E+00;  1.0837927E+01;0;  1.9148376E+00;  3.7038000E+04;  0.0000000E+00; -1.0166220E+01;  4.0000000E+04;  0.0000000E+00;  3.9806711E+04;  2.0673423E+00;  0.0000000E+00; -1.5250465E-01;  6.9558711E+03;
  1.2187330E+00;  9.9999998E-03; -1.8048778E-01;9383;  1.7256881E+00;  0.0000000E+00;  1.8800329E-02;  9.9853357E+02;  1.0406262E-01; -1.1548910E+03;3; -3.3828274E+01;  0.0000000E+00;  1.0637179E+01;0;  1.8973005E+00;  3.7003430E+04;  0.0000000E+00; -1.1269080E+01;  4.0000000E+04;  0.0000000E+00;  3.9811836E+04;  2.0567126E+00;  0.0000000E+00; -1.5941212E-01;  7.4358608E+03;
  1.2187387E+00;  9.9999998E-03; -1.9051552E-01;9382;  1.7134347E+00;  0.0000000E+00;  2.0518187E-02;  9.9809692E+02;  1.0406119E-01; -1.4987281E+03;3; -3.7573017E+01;  0.0000000E+00;  1.0396073E+01;0;  1.8727180E+00;  3.6967156E+04;  0.0000000E+00; -1.1812804E+01;  4.0000000E+04;  0.0000000E+00;  3.9817668E+04;  2.0375013E+00;  0.0000000E+00; -1.6478337E-01;  7.4627197E+03;
  1.2185185E+00;  9.9999998E-03; -2.2061856E-01;9379;  1.6675646E+00;  0.0000000E+00;  2.5668049E-02;  9.9742084E+02;  1.0405872E-01; -2.0314923E+03;3; -5.1328304E+01;  0.0000000E+00;  7.6885524E+00;0;  1.7156974E+00;  3.6916941E+04;  0.0000000E+00; -7.6345663E+00;  4.0000000E+04;  0.0000000E+00;  3.9819191E+04;  1.8886155E+00;  0.0000000E+00; -1.7291807E-01;  3.3548430E+03;
  1.2185857E+00;  9.9999998E-03; -2.1057947E-01;9380;  1.6810482E+00;  0.0000000E+00;  2.3274103E-02;  9.9759772E+02;  1.0405959E-01; -1.8921080E+03;3; -4.6536674E+01;  0.0000000E+00;  8.8885946E+00;0;  1.7830822E+00;  3.6924836E+04;  0.0000000E+00; -9.2569818E+00;  4.0000000E+04;  0.0000000E+00;  3.9824773E+04;  1.9503744E+00;  0.0000000E+00; -1.6729206E-01;  4.7937036E+03;
  1.2186813E+00;  9.9999998E-03; -2.0054449E-01;9381;  1.6970702E+00;  0.0000000E+00;  2.1837842E-02;  9.9777472E+02;  1.0406064E-01; -1.7525612E+03;3; -4.1713261E+01;  0.0000000E+00;  9.5511484E+00;0;  1.8342597E+00;  3.6938910E+04;  0.0000000E+00; -1.1218383E+01;  4.0000000E+04;  0.0000000E+00;  3.9823254E+04;  2.0013001E+00;  0.0000000E+00; -1.6704032E-01;  6.6210044E+03;
  1.2185249E+00;  9.9999998E-03; -2.3064637E-01;9378;  1.6488798E+00;  0.0000000E+00;  2.7895510E-02;  9.9712671E+02;  1.0405698E-01; -2.2631709E+03;3; -5.6431698E+01;  0.0000000E+00;  6.1841574E+00;0;  1.5996015E+00;  3.6900484E+04;  0.0000000E+00; -8.7612343E+00;  4.0000000E+04;  0.0000000E+00;  3.9814477E+04;  1.7792721E+00;  0.0000000E+00; -1.7967057E-01;  4.3937783E+03;
  1.2186141E+00;  9.9999998E-03; -2.4065636E-01;9377;  1.6129626E+00;  0.0000000E+00;  2.5314296E-02;  9.9662390E+02;  1.0405501E-01; -2.6590576E+03;3; -6.0270805E+01;  0.0000000E+00;  3.2524121E+00;0;  1.4025910E+00;  3.6860629E+04;  0.0000000E+00; -1.2731161E+01;  4.0000000E+04;  0.0000000E+00;  3.9820938E+04;  1.5361583E+00;  0.0000000E+00; -1.3356735E-01;  8.1638081E+03;
  1.2187499E+00;  9.9999998E-03; -2.5066718E-01;9376;  1.5627856E+00;  0.0000000E+00;  1.4673128E-02;  9.9573627E+02;  1.0405477E-01; -3.3578420E+03;3; -5.6619850E+01;  0.0000000E+00; -6.8232042E-01;0;  1.1677589E+00;  3.6795543E+04;  0.0000000E+00; -1.3413467E+01;  4.0000000E+04;  0.0000000E+00;  3.9825773E+04;  1.1313533E+00;  0.0000000E+00;  3.6405630E-02;  9.6322363E+03;
  1.2186205E+00;  9.9999998E-03; -2.7070853E-01;9374;  1.5264236E+00;  0.0000000E+00;  1.3224510E-02;  9.9601703E+02;  1.0405555E-01; -3.1369900E+03;3;  1.1311336E+01;  0.0000000E+00;  1.8867922E+01;0;  7.6282454E-01;  3.6844043E+04;  0.0000000E+00;  2.3734446E+01;  4.0000000E+04;  0.0000000E+00;  3.9800512E+04;  6.0797364E-01;  0.0000000E+00;  1.5485087E-01;  1.7176203E+04;
  1.2188245E+00;  9.9999998E-03; -2.6069051E-01;9375;  1.5347887E+00;  0.0000000E+00;  1.0690982E-02;  9.9482825E+02;  1.0405585E-01; -4.0727202E+03;3;  2.1518657E+00;  0.0000000E+00;  1.9322821E+01;0;  9.4877172E-01;  3.6745312E+04;  0.0000000E+00;  6.4805728E-01;  4.0000000E+04;  0.0000000E+00;  3.9813133E+04;  7.9833758E-01;  0.0000000E+00;  1.5043414E-01;  1.8948756E+03;
  1.2286896E+00;  9.9999998E-03; -1.1035079E-01;9444;  1.7654825E+00;  0.0000000E+00;  4.4488618E-03;  1.0001582E+03;  1.0384630E-01;  1.2365720E+02;3; -2.3780281E+01;  0.0000000E+00;  9.0017557E+00;0;  1.9384470E+00;  3.7308328E+04;  0.0000000E+00; -2.5728743E+00;  4.0000000E+04;  0.0000000E+00;  3.9776012E+04;  2.0239911E+00;  0.0000000E+00; -8.5544154E-02;  2.6340835E+03;
  1.2287221E+00;  9.9999998E-03; -1.2036963E-01;9443;  1.7674594E+00;  0.0000000E+00;  5.3811613E-03;  1.0000624E+03;  1.0384486E-01;  4.8734768E+01;3; -2.3412693E+01;  0.0000000E+00;  9.5807695E+00;0;  1.9312922E+00;  3.7302340E+04;  0.0000000E+00; -3.8519464E+00;  4.0000000E+04;  0.0000000E+00;  3.9776391E+04;  2.0273414E+00;  0.0000000E+00; -9.6049145E-02;  3.2594163E+03;
  1.2287724E+00;  9.9999998E-03; -1.3038944E-01;9442;  1.7693785E+00;  0.0000000E+00;  6.4314730E-03;  9.9994122E+02;  1.0384399E-01; -4.5937435E+01;3; -2.3399061E+01;  0.0000000E+00;  1.0095342E+01;0;  1.9233787E+00;  3.7293672E+04;  0.0000000E+00; -5.4081244E+00;  4.0000000E+04;  0.0000000E+00;  3.9777199E+04;  2.0306001E+00;  0.0000000E+00; -1.0722142E-01;  4.1083247E+03;
  1.2288417E+00;  9.9999998E-03; -1.4041097E-01;9441;  1.7708703E+00;  0.0000000E+00;  7.6486822E-03;  9.9977063E+02;  1.0384283E-01; -1.7926726E+02;3; -2.3983072E+01;  0.0000000E+00;  1.0548036E+01;0;  1.9167695E+00;  3.7280770E+04;  0.0000000E+00; -7.1168661E+00;  4.0000000E+04;  0.0000000E+00;  3.9778992E+04;  2.0356054E+00;  0.0000000E+00; -1.1883591E-01;  5.0709971E+03;
  1.2289217E+00;  9.9999998E-03; -1.5043554E-01;9440;  1.7713975E+00;  0.0000000E+00;  9.2099560E-03;  9.9952722E+02;  1.0384075E-01; -3.6950549E+02;3; -2.5219801E+01;  0.0000000E+00;  1.1464511E+01;0;  1.9135329E+00;  3.7262039E+04;  0.0000000E+00; -8.8074675E+00;  4.0000000E+04;  0.0000000E+00;  3.9781852E+04;  2.0442955E+00;  0.0000000E+00; -1.3076270E-01;  6.0019702E+03;
  1.2290022E+00;  9.9999998E-03; -1.6046368E-01;9439;  1.7702097E+00;  0.0000000E+00;  1.1088037E-02;  9.9920123E+02;  1.0383897E-01; -6.2423401E+02;3; -2.7205725E+01;  0.0000000E+00;  1.2130342E+01;0;  1.9149758E+00;  3.7235949E+04;  0.0000000E+00; -1.0325574E+01;  4.0000000E+04;  0.0000000E+00;  3.9785715E+04;  2.0578825E+00;  0.0000000E+00; -1.4290676E-01;  6.7772686E+03;
  1.2290659E+00;  9.9999998E-03; -1.7049579E-01;9438;  1.7660847E+00;  0.0000000E+00;  1.3229136E-02;  9.9878857E+02;  1.0383740E-01; -9.4666718E+02;3; -3.0211811E+01;  0.0000000E+00;  1.2329967E+01;0;  1.9199138E+00;  3.7202578E+04;  0.0000000E+00; -1.1569146E+01;  4.0000000E+04;  0.0000000E+00;  3.9790352E+04;  2.0751731E+00;  0.0000000E+00; -1.5525931E-01;  7.3246260E+03;
  1.2290907E+00;  9.9999998E-03; -1.8052949E-01;9437;  1.7579648E+00;  0.0000000E+00;  1.5393822E-02;  9.9833441E+02;  1.0383559E-01; -1.3015719E+03;3; -3.4337955E+01;  0.0000000E+00;  1.2367026E+01;0;  1.9241729E+00;  3.7165820E+04;  0.0000000E+00; -1.2376507E+01;  4.0000000E+04;  0.0000000E+00;  3.9795574E+04;  2.0915263E+00;  0.0000000E+00; -1.6735339E-01;  7.5359609E+03;
  1.2290609E+00;  9.9999998E-03; -1.9056483E-01;9436;  1.7460376E+00;  0.0000000E+00;  1.7461363E-02;  9.9794379E+02;  1.0383468E-01; -1.6068815E+03;3; -3.9074188E+01;  0.0000000E+00;  1.1678170E+01;0;  1.9218597E+00;  3.7133242E+04;  0.0000000E+00; -1.2350311E+01;  4.0000000E+04;  0.0000000E+00;  3.9800379E+04;  2.1004474E+00;  0.0000000E+00; -1.7858765E-01;  7.1386772E+03;
  1.2289857E+00;  9.9999998E-03; -2.0060574E-01;9435;  1.7333432E+00;  0.0000000E+00;  1.9560726E-02;  9.9768237E+02;  1.0383450E-01; -1.8112390E+03;3; -4.4392605E+01;  0.0000000E+00;  1.1004664E+01;0;  1.9131293E+00;  3.7112766E+04;  0.0000000E+00; -1.1135181E+01;  4.0000000E+04;  0.0000000E+00;  3.9801473E+04;  2.1020865E+00;  0.0000000E+00; -1.8895726E-01;  5.9038413E+03;
  1.2289126E+00;  9.9999998E-03; -2.1065281E-01;9434;  1.7228431E+00;  0.0000000E+00;  2.2709226E-02;  9.9744611E+02;  1.0383313E-01; -1.9960055E+03;3; -5.0770519E+01;  0.0000000E+00;  1.0398920E+01;0;  1.8969458E+00;  3.7101562E+04;  0.0000000E+00; -9.5936584E+00;  4.0000000E+04;  0.0000000E+00;  3.9794816E+04;  2.1023865E+00;  0.0000000E+00; -2.0544064E-01;  4.5548350E+03;
  1.2288922E+00;  9.9999998E-03; -2.2069271E-01;9433;  1.7109772E+00;  0.0000000E+00;  2.6599575E-02;  9.9711414E+02;  1.0383202E-01; -2.2555181E+03;3; -5.7091911E+01;  0.0000000E+00;  9.5352488E+00;0;  1.8517929E+00;  3.7086742E+04;  0.0000000E+00; -9.7894993E+00;  4.0000000E+04;  0.0000000E+00;  3.9784355E+04;  2.0833540E+00;  0.0000000E+00; -2.3156106E-01;  4.8298213E+03;
  1.2289633E+00;  9.9999998E-03; -2.3070806E-01;9432;  1.6857954E+00;  0.0000000E+00;  2.8822577E-02;  9.9655011E+02;  1.0383016E-01; -2.6962014E+03;3; -6.3396595E+01;  0.0000000E+00;  6.8225865E+00;0;  1.7179595E+00;  3.7045566E+04;  0.0000000E+00; -1.3418788E+01;  4.0000000E+04;  0.0000000E+00;  3.9785859E+04;  1.9657234E+00;  0.0000000E+00; -2.4776386E-01;  7.9278042E+03;
  1.2291080E+00;  9.9999998E-03; -2.4070604E-01;9431;  1.6416912E+00;  0.0000000E+00;  2.4692966E-02;  9.9566510E+02;  1.0382973E-01; -3.3874680E+03;3; -6.8289909E+01;  0.0000000E+00;  2.4938552E+00;0;  1.4852732E+00;  3.6967770E+04;  0.0000000E+00; -1.6981850E+01;  4.0000000E+04;  0.0000000E+00;  3.9802766E+04;  1.6713291E+00;  0.0000000E+00; -1.8605585E-01;  1.1293330E+04;
  1.2292455E+00;  9.9999998E-03; -2.5071114E-01;9430;  1.5882705E+00;  0.0000000E+00;  1.3695959E-02;  9.9451984E+02;  1.0383090E-01; -4.2819312E+03;3; -6.8015053E+01;  0.0000000E+00; -1.2191344E+00;0;  1.2165231E+00;  3.6877824E+04;  0.0000000E+00; -9.5930681E+00;  4.0000000E+04;  0.0000000E+00;  3.9813332E+04;  1.2229632E+00;  0.0000000E+00; -6.4401980E-03;  7.1572896E+03;
  1.2291797E+00;  9.9999998E-03; -2.6073009E-01;9429;  1.5490420E+00;  0.0000000E+00;  7.4785338E-03;  9.9455048E+02;  1.0383152E-01; -4.2582178E+03;3; -6.1134346E+01;  0.0000000E+00; -2.2383118E+00;0;  9.4106412E-01;  3.6891102E+04;  0.0000000E+00;  1.5206320E+01;  4.0000000E+04;  0.0000000E+00;  3.9804227E+04;  8.0907369E-01;  0.0000000E+00;  1.3199043E-01;  1.0749239E+04;
  1.2390364E+00;  9.9999998E-03; -1.1034033E-01;9497;  1.7917254E+00;  0.0000000E+00;  4.7902786E-04;  1.0001776E+03;  1.0364562E-01;  1.3763338E+02;3; -1.7457817E+01;  0.0000000E+00;  9.4692326E+00;0;  1.8375030E+00;  3.7471680E+04;  0.0000000E+00; -4.0291877E+00;  4.0000000E+04;  0.0000000E+00;  3.9758254E+04;  1.9007075E+00;  0.0000000E+00; -6.3204497E-02;  3.3578516E+03;
  1.2390909E+00;  9.9999998E-03; -1.2036397E-01;9496;  1.7952155E+00;  0.0000000E+00;  1.2488894E-03;  1.0000430E+03;  1.0364434E-01;  3.3344433E+01;3; -1.7637001E+01;  0.0000000E+00;  1.0185666E+01;0;  1.8408163E+00;  3.7462867E+04;  0.0000000E+00; -5.5438929E+00;  4.0000000E+04;  0.0000000E+00;  3.9758355E+04;  1.9177938E+00;  0.0000000E+00; -7.6977469E-02;  4.1024189E+03;
  1.2391604E+00;  9.9999998E-03; -1.3038926E-01;9495;  1.7984666E+00;  0.0000000E+00;  2.2469240E-03;  9.9987720E+02;  1.0364387E-01; -9.5131889E+01;3; -1.8383875E+01;  0.0000000E+00;  1.0880702E+01;0;  1.8455714E+00;  3.7450258E+04;  0.0000000E+00; -7.2287154E+00;  4.0000000E+04;  0.0000000E+00;  3.9759590E+04;  1.9373286E+00;  0.0000000E+00; -9.1757193E-02;  4.9605625E+03;
  1.2392401E+00;  9.9999998E-03; -1.4041671E-01;9494;  1.8008784E+00;  0.0000000E+00;  3.5083769E-03;  9.9964331E+02;  1.0364220E-01; -2.7632437E+02;3; -2.0043131E+01;  0.0000000E+00;  1.1614324E+01;0;  1.8541616E+00;  3.7432293E+04;  0.0000000E+00; -8.9376478E+00;  4.0000000E+04;  0.0000000E+00;  3.9761891E+04;  1.9614521E+00;  0.0000000E+00; -1.0729051E-01;  5.8225791E+03;
  1.2393183E+00;  9.9999998E-03; -1.5044825E-01;9493;  1.8016896E+00;  0.0000000E+00;  5.1136035E-03;  9.9933807E+02;  1.0364079E-01; -5.1276147E+02;3; -2.2711285E+01;  0.0000000E+00;  1.2298828E+01;0;  1.8684694E+00;  3.7407617E+04;  0.0000000E+00; -1.0519149E+01;  4.0000000E+04;  0.0000000E+00;  3.9765348E+04;  1.9918844E+00;  0.0000000E+00; -1.2341494E-01;  6.5803379E+03;
  1.2393811E+00;  9.9999998E-03; -1.6048603E-01;9492;  1.8000484E+00;  0.0000000E+00;  7.1095503E-03;  9.9894965E+02;  1.0363936E-01; -8.1363074E+02;3; -2.6539583E+01;  0.0000000E+00;  1.3031388E+01;0;  1.8887873E+00;  3.7376285E+04;  0.0000000E+00; -1.1863132E+01;  4.0000000E+04;  0.0000000E+00;  3.9769559E+04;  2.0289056E+00;  0.0000000E+00; -1.4011835E-01;  7.1618574E+03;
  1.2394143E+00;  9.9999998E-03; -1.7052792E-01;9491;  1.7951715E+00;  0.0000000E+00;  9.3313586E-03;  9.9851196E+02;  1.0363835E-01; -1.1526320E+03;3; -3.1532267E+01;  0.0000000E+00;  1.3151738E+01;0;  1.9130039E+00;  3.7340527E+04;  0.0000000E+00; -1.2858182E+01;  4.0000000E+04;  0.0000000E+00;  3.9774109E+04;  2.0702479E+00;  0.0000000E+00; -1.5724403E-01;  7.4961089E+03;
  1.2394042E+00;  9.9999998E-03; -1.8057148E-01;9490;  1.7869774E+00;  0.0000000E+00;  1.1535431E-02;  9.9809186E+02;  1.0363739E-01; -1.4780511E+03;3; -3.7188065E+01;  0.0000000E+00;  1.3194195E+01;0;  1.9375956E+00;  3.7306500E+04;  0.0000000E+00; -1.3246716E+01;  4.0000000E+04;  0.0000000E+00;  3.9778020E+04;  2.1116016E+00;  0.0000000E+00; -1.7400599E-01;  7.4183843E+03;
  1.2393512E+00;  9.9999998E-03; -1.9061913E-01;9489;  1.7770131E+00;  0.0000000E+00;  1.3857870E-02;  9.9775916E+02;  1.0363635E-01; -1.7358572E+03;3; -4.3454514E+01;  0.0000000E+00;  1.2997297E+01;0;  1.9605432E+00;  3.7281621E+04;  0.0000000E+00; -1.2730788E+01;  4.0000000E+04;  0.0000000E+00;  3.9778980E+04;  2.1510780E+00;  0.0000000E+00; -1.9053484E-01;  6.7512974E+03;
  1.2392803E+00;  9.9999998E-03; -2.0067400E-01;9488;  1.7679027E+00;  0.0000000E+00;  1.6713478E-02;  9.9749982E+02;  1.0363524E-01; -1.9368783E+03;3; -4.9888168E+01;  0.0000000E+00;  1.2433252E+01;0;  1.9835489E+00;  3.7268594E+04;  0.0000000E+00; -1.1579072E+01;  4.0000000E+04;  0.0000000E+00;  3.9772324E+04;  2.1929026E+00;  0.0000000E+00; -2.0935363E-01;  5.7616460E+03;
  1.2392373E+00;  9.9999998E-03; -2.1072569E-01;9487;  1.7584150E+00;  0.0000000E+00;  2.0505939E-02;  9.9719019E+02;  1.0363396E-01; -2.1768450E+03;3; -5.6953251E+01;  0.0000000E+00;  1.1691681E+01;0;  1.9920745E+00;  3.7258242E+04;  0.0000000E+00; -1.1164611E+01;  4.0000000E+04;  0.0000000E+00;  3.9758863E+04;  2.2280648E+00;  0.0000000E+00; -2.3599027E-01;  5.5924946E+03;
  1.2392691E+00;  9.9999998E-03; -2.2075593E-01;9486;  1.7429743E+00;  0.0000000E+00;  2.4417892E-02;  9.9668585E+02;  1.0363285E-01; -2.5674773E+03;3; -6.4075142E+01;  0.0000000E+00;  1.0757888E+01;0;  1.9481113E+00;  3.7228410E+04;  0.0000000E+00; -1.3408460E+01;  4.0000000E+04;  0.0000000E+00;  3.9751242E+04;  2.2162127E+00;  0.0000000E+00; -2.6810148E-01;  7.4439868E+03;
  1.2394055E+00;  9.9999998E-03; -2.3075883E-01;9485;  1.7113118E+00;  0.0000000E+00;  2.5354225E-02;  9.9573871E+02;  1.0363226E-01; -3.3008521E+03;3; -6.9884171E+01;  0.0000000E+00;  7.4009700E+00;0;  1.7911774E+00;  3.7149480E+04;  0.0000000E+00; -1.8125734E+01;  4.0000000E+04;  0.0000000E+00;  3.9762699E+04;  2.0630732E+00;  0.0000000E+00; -2.7189574E-01;  1.1044806E+04;
  1.2395763E+00;  9.9999998E-03; -2.4075168E-01;9484;  1.6634946E+00;  0.0000000E+00;  1.9752048E-02;  9.9446375E+02;  1.0363337E-01; -4.2877700E+03;3; -7.5376564E+01;  0.0000000E+00;  2.5588551E+00;0;  1.5382838E+00;  3.7036848E+04;  0.0000000E+00; -1.6172092E+01;  4.0000000E+04;  0.0000000E+00;  3.9785855E+04;  1.7221841E+00;  0.0000000E+00; -1.8390024E-01;  1.0524188E+04;
  1.2396345E+00;  9.9999998E-03; -2.5075772E-01;9483;  1.6135459E+00;  0.0000000E+00;  1.0960857E-02;  9.9364948E+02;  1.0363530E-01; -4.9181440E+03;3; -7.6557671E+01;  0.0000000E+00; -1.7040182E+00;0;  1.2538089E+00;  3.6971184E+04;  0.0000000E+00;  4.0185032E+00;  4.0000000E+04;  0.0000000E+00;  3.9794871E+04;  1.2792294E+00;  0.0000000E+00; -2.5420571E-02;  3.9392205E+03;
  1.2394621E+00;  9.9999998E-03; -2.6077810E-01;9482;  1.5817024E+00;  0.0000000E+00;  1.1510088E-02;  9.9454150E+02;  1.0363359E-01; -4.2279648E+03;3; -7.7356010E+01;  0.0000000E+00; -4.3266802E+00;0;  9.5067650E-01;  3.7049211E+04;  0.0000000E+00;  3.4557465E+01;  4.0000000E+04;  0.0000000E+00;  3.9781629E+04;  9.4181806E-01;  0.0000000E+00;  8.8584404E-03;  2.2613697E+04;
  1.2498842E+00;  9.9999998E-03; -2.5080824E-01;9535;  1.6392822E+00;  0.0000000E+00;  7.9343030E-03;  9.9370099E+02;  1.0346308E-01; -4.8301895E+03;3; -8.1931824E+01;  0.0000000E+00; -1.4353617E+00;0;  1.2720621E+00;  3.7122340E+04;  0.0000000E+00;  2.4898888E+01;  4.0000000E+04;  0.0000000E+00;  3.9767508E+04;  1.3114686E+00;  0.0000000E+00; -3.9406519E-02;  1.5192032E+04;
  1.2499624E+00;  9.9999998E-03; -2.4079473E-01;9536;  1.6784519E+00;  0.0000000E+00;  1.1454106E-02;  9.9350647E+02;  1.0346343E-01; -4.9789277E+03;3; -7.8977470E+01;  0.0000000E+00;  1.8093547E+00;0;  1.5350968E+00;  3.7106227E+04;  0.0000000E+00; -5.3418102E+00;  4.0000000E+04;  0.0000000E+00;  3.9768363E+04;  1.6670157E+00;  0.0000000E+00; -1.3191895E-01;  4.0071619E+03;
  1.2498353E+00;  9.9999998E-03; -2.3079567E-01;9537;  1.7245305E+00;  0.0000000E+00;  1.7524835E-02;  9.9477966E+02;  1.0346089E-01; -4.0032522E+03;3; -7.3077347E+01;  0.0000000E+00;  6.3898277E+00;0;  1.7845566E+00;  3.7215559E+04;  0.0000000E+00; -1.8929583E+01;  4.0000000E+04;  0.0000000E+00;  3.9749711E+04;  2.0251746E+00;  0.0000000E+00; -2.4061793E-01;  1.1136324E+04;
  1.2496496E+00;  9.9999998E-03; -2.2079806E-01;9538;  1.7556511E+00;  0.0000000E+00;  1.8058401E-02;  9.9622333E+02;  1.0345986E-01; -2.8967065E+03;3; -6.7271843E+01;  0.0000000E+00;  9.2944927E+00;0;  1.9322348E+00;  3.7338523E+04;  0.0000000E+00; -1.7068157E+01;  4.0000000E+04;  0.0000000E+00;  3.9730613E+04;  2.1939824E+00;  0.0000000E+00; -2.6174760E-01;  9.5117832E+03;
  1.2495397E+00;  9.9999998E-03; -2.1077986E-01;9539;  1.7745198E+00;  0.0000000E+00;  1.5579944E-02;  9.9712415E+02;  1.0346015E-01; -2.2060364E+03;3; -6.1753128E+01;  0.0000000E+00;  1.0668377E+01;0;  1.9860320E+00;  3.7405836E+04;  0.0000000E+00; -1.2658681E+01;  4.0000000E+04;  0.0000000E+00;  3.9729387E+04;  2.2301435E+00;  0.0000000E+00; -2.4411152E-01;  6.5097690E+03;
  1.2495497E+00;  9.9999998E-03; -2.0073588E-01;9540;  1.7877699E+00;  0.0000000E+00;  1.2467155E-02;  9.9744250E+02;  1.0346185E-01; -1.9618158E+03;3; -5.5800060E+01;  0.0000000E+00;  1.1664455E+01;0;  1.9862115E+00;  3.7417898E+04;  0.0000000E+00; -1.2087897E+01;  4.0000000E+04;  0.0000000E+00;  3.9741305E+04;  2.2064662E+00;  0.0000000E+00; -2.2025463E-01;  5.8583408E+03;
  1.2496065E+00;  9.9999998E-03; -1.9067532E-01;9541;  1.7981756E+00;  0.0000000E+00;  9.5726959E-03;  9.9766846E+02;  1.0346316E-01; -1.7883820E+03;3; -4.9606388E+01;  0.0000000E+00;  1.2280727E+01;0;  1.9584734E+00;  3.7422730E+04;  0.0000000E+00; -1.2891967E+01;  4.0000000E+04;  0.0000000E+00;  3.9754008E+04;  2.1563077E+00;  0.0000000E+00; -1.9783428E-01;  6.3199961E+03;
  1.2496719E+00;  9.9999998E-03; -1.8061265E-01;9542;  1.8079867E+00;  0.0000000E+00;  7.2296290E-03;  9.9791534E+02;  1.0346403E-01; -1.5989080E+03;3; -4.2297939E+01;  0.0000000E+00;  1.2608165E+01;0;  1.9229107E+00;  3.7435574E+04;  0.0000000E+00; -1.3734961E+01;  4.0000000E+04;  0.0000000E+00;  3.9759871E+04;  2.1005328E+00;  0.0000000E+00; -1.7762206E-01;  7.0442148E+03;
  1.2497112E+00;  9.9999998E-03; -1.7055677E-01;9543;  1.8168694E+00;  0.0000000E+00;  5.0427634E-03;  9.9825024E+02;  1.0346448E-01; -1.3419773E+03;3; -3.4797939E+01;  0.0000000E+00;  1.3170495E+01;0;  1.8869820E+00;  3.7461051E+04;  0.0000000E+00; -1.3872734E+01;  4.0000000E+04;  0.0000000E+00;  3.9758902E+04;  2.0438383E+00;  0.0000000E+00; -1.5685633E-01;  7.4011128E+03;
  1.2497132E+00;  9.9999998E-03; -1.6050427E-01;9544;  1.8231888E+00;  0.0000000E+00;  2.7770072E-03;  9.9866040E+02;  1.0346558E-01; -1.0274178E+03;3; -2.7688957E+01;  0.0000000E+00;  1.3010890E+01;0;  1.8510904E+00;  3.7494004E+04;  0.0000000E+00; -1.3283705E+01;  4.0000000E+04;  0.0000000E+00;  3.9755387E+04;  1.9864568E+00;  0.0000000E+00; -1.3536634E-01;  7.3210786E+03;
  1.2496772E+00;  9.9999998E-03; -1.5045586E-01;9545;  1.8262464E+00;  0.0000000E+00;  7.3021877E-04;  9.9907660E+02;  1.0346647E-01; -7.0822437E+02;3; -2.1718449E+01;  0.0000000E+00;  1.2420766E+01;0;  1.8174539E+00;  3.7527996E+04;  0.0000000E+00; -1.2189598E+01;  4.0000000E+04;  0.0000000E+00;  3.9751148E+04;  1.9318428E+00;  0.0000000E+00; -1.1438888E-01;  6.9286416E+03;
  1.2496171E+00;  9.9999998E-03; -1.4041457E-01;9546;  1.8262098E+00;  0.0000000E+00; -9.4237895E-04;  9.9943323E+02;  1.0346741E-01; -4.3473529E+02;3; -1.7180429E+01;  0.0000000E+00;  1.1461999E+01;0;  1.7889767E+00;  3.7557762E+04;  0.0000000E+00; -1.0796704E+01;  4.0000000E+04;  0.0000000E+00;  3.9746922E+04;  1.8832120E+00;  0.0000000E+00; -9.4235286E-02;  6.3484629E+03;
  1.2495426E+00;  9.9999998E-03; -1.3038084E-01;9547;  1.8238313E+00;  0.0000000E+00; -2.1198697E-03;  9.9972864E+02;  1.0346869E-01; -2.0817125E+02;3; -1.4058607E+01;  0.0000000E+00;  1.0474735E+01;0;  1.7669544E+00;  3.7581668E+04;  0.0000000E+00; -9.1916008E+00;  4.0000000E+04;  0.0000000E+00;  3.9743645E+04;  1.8420341E+00;  0.0000000E+00; -7.5079717E-02;  5.6280493E+03;
  1.2494644E+00;  9.9999998E-03; -1.2035096E-01;9548;  1.8199208E+00;  0.0000000E+00; -2.9143970E-03;  9.9996698E+02;  1.0347027E-01; -2.5331886E+01;3; -1.2328240E+01;  0.0000000E+00;  9.7990665E+00;0;  1.7506351E+00;  3.7599609E+04;  0.0000000E+00; -7.4900146E+00;  4.0000000E+04;  0.0000000E+00;  3.9741906E+04;  1.8076121E+00;  0.0000000E+00; -5.6976963E-02;  4.8316108E+03;
  1.2493937E+00;  9.9999998E-03; -1.1032306E-01;9549;  1.8152597E+00;  0.0000000E+00; -3.3975325E-03;  1.0001436E+03;  1.0347049E-01;  1.1011477E+02;3; -1.1456438E+01;  0.0000000E+00;  9.1767302E+00;0;  1.7379228E+00;  3.7612637E+04;  0.0000000E+00; -5.8359814E+00;  4.0000000E+04;  0.0000000E+00;  3.9741426E+04;  1.7781187E+00;  0.0000000E+00; -4.0195979E-02;  4.0480037E+03;
  1.2602109E+00;  9.9999998E-03; -2.4083565E-01;9586;  1.6899582E+00;  0.0000000E+00;  1.2714436E-03;  9.9356531E+02;  1.0331486E-01; -4.8791040E+03;3; -7.9266472E+01;  0.0000000E+00;  7.1807384E-01;0;  1.4837507E+00;  3.7235512E+04;  0.0000000E+00;  1.5303344E+01;  4.0000000E+04;  0.0000000E+00;  3.9749305E+04;  1.5292445E+00;  0.0000000E+00; -4.5493808E-02;  8.7925928E+03;
  1.2602104E+00;  9.9999998E-03; -2.3082480E-01;9587;  1.7265892E+00;  0.0000000E+00;  5.7240524E-03;  9.9396826E+02;  1.0331409E-01; -4.5735864E+03;3; -7.5097336E+01;  0.0000000E+00;  3.7935534E+00;0;  1.6779108E+00;  3.7270473E+04;  0.0000000E+00; -1.0687296E+01;  4.0000000E+04;  0.0000000E+00;  3.9742555E+04;  1.8264445E+00;  0.0000000E+00; -1.4853366E-01;  6.1440718E+03;
  1.2600484E+00;  9.9999998E-03; -2.2082128E-01;9588;  1.7572075E+00;  0.0000000E+00;  8.3063645E-03;  9.9553198E+02;  1.0331132E-01; -3.3885183E+03;3; -6.9419876E+01;  0.0000000E+00;  6.2463360E+00;0;  1.8140893E+00;  3.7401551E+04;  0.0000000E+00; -1.8672905E+01;  4.0000000E+04;  0.0000000E+00;  3.9725480E+04;  2.0229025E+00;  0.0000000E+00; -2.0881316E-01;  9.9476846E+03;
  1.2598755E+00;  9.9999998E-03; -2.1081075E-01;9589;  1.7807851E+00;  0.0000000E+00;  7.9448083E-03;  9.9697284E+02;  1.0331085E-01; -2.2962188E+03;3; -6.3121922E+01;  0.0000000E+00;  8.5384121E+00;0;  1.8980044E+00;  3.7517699E+04;  0.0000000E+00; -1.5304274E+01;  4.0000000E+04;  0.0000000E+00;  3.9714605E+04;  2.1186621E+00;  0.0000000E+00; -2.2065774E-01;  7.7016416E+03;
  1.2598082E+00;  9.9999998E-03; -2.0077643E-01;9590;  1.7969174E+00;  0.0000000E+00;  6.0120574E-03;  9.9764508E+02;  1.0331082E-01; -1.7864475E+03;3; -5.7240910E+01;  0.0000000E+00;  9.3936033E+00;0;  1.9170084E+00;  3.7562723E+04;  0.0000000E+00; -1.2436005E+01;  4.0000000E+04;  0.0000000E+00;  3.9719789E+04;  2.1267991E+00;  0.0000000E+00; -2.0979074E-01;  5.8206650E+03;
  1.2598366E+00;  9.9999998E-03; -1.9072083E-01;9591;  1.8092912E+00;  0.0000000E+00;  3.6777591E-03;  9.9782855E+02;  1.0331219E-01; -1.6472183E+03;3; -5.1663902E+01;  0.0000000E+00;  1.0391621E+01;0;  1.9006822E+00;  3.7564707E+04;  0.0000000E+00; -1.2661490E+01;  4.0000000E+04;  0.0000000E+00;  3.9731863E+04;  2.0921266E+00;  0.0000000E+00; -1.9144446E-01;  5.7616719E+03;
  1.2599010E+00;  9.9999998E-03; -1.8065213E-01;9592;  1.8202646E+00;  0.0000000E+00;  1.6191591E-03;  9.9794330E+02;  1.0331327E-01; -1.5600646E+03;3; -4.5364311E+01;  0.0000000E+00;  1.0530010E+01;0;  1.8694487E+00;  3.7563449E+04;  0.0000000E+00; -1.3735883E+01;  4.0000000E+04;  0.0000000E+00;  3.9742289E+04;  2.0412099E+00;  0.0000000E+00; -1.7176132E-01;  6.4280488E+03;
  1.2599608E+00;  9.9999998E-03; -1.7058463E-01;9593;  1.8306572E+00;  0.0000000E+00; -1.7901497E-04;  9.9813538E+02;  1.0331424E-01; -1.4142513E+03;3; -3.7970917E+01;  0.0000000E+00;  1.1458332E+01;0;  1.8353100E+00;  3.7574320E+04;  0.0000000E+00; -1.4472505E+01;  4.0000000E+04;  0.0000000E+00;  3.9745621E+04;  1.9856625E+00;  0.0000000E+00; -1.5035254E-01;  7.0350288E+03;
  1.2599899E+00;  9.9999998E-03; -1.6052310E-01;9594;  1.8390268E+00;  0.0000000E+00; -2.2208029E-03;  9.9844470E+02;  1.0331468E-01; -1.1796261E+03;3; -3.0358675E+01;  0.0000000E+00;  1.1950860E+01;0;  1.7992514E+00;  3.7598875E+04;  0.0000000E+00; -1.4439112E+01;  4.0000000E+04;  0.0000000E+00;  3.9743594E+04;  1.9255563E+00;  0.0000000E+00; -1.2630491E-01;  7.2339951E+03;
  1.2599863E+00;  9.9999998E-03; -1.5046403E-01;9595;  1.8441641E+00;  0.0000000E+00; -4.2308038E-03;  9.9882074E+02;  1.0331527E-01; -8.9441992E+02;3; -2.2432570E+01;  0.0000000E+00;  1.1403480E+01;0;  1.7612133E+00;  3.7630117E+04;  0.0000000E+00; -1.3755734E+01;  4.0000000E+04;  0.0000000E+00;  3.9739875E+04;  1.8631408E+00;  0.0000000E+00; -1.0192746E-01;  7.0727642E+03;
  1.2599518E+00;  9.9999998E-03; -1.4041123E-01;9596;  1.8457968E+00;  0.0000000E+00; -5.8207526E-03;  9.9920544E+02;  1.0331616E-01; -6.0263287E+02;3; -1.5844012E+01;  0.0000000E+00;  1.0281351E+01;0;  1.7245871E+00;  3.7662070E+04;  0.0000000E+00; -1.2633766E+01;  4.0000000E+04;  0.0000000E+00;  3.9735305E+04;  1.8031088E+00;  0.0000000E+00; -7.8521751E-02;  6.6671572E+03;
  1.2598965E+00;  9.9999998E-03; -1.3036862E-01;9597;  1.8443022E+00;  0.0000000E+00; -6.8880320E-03;  9.9954346E+02;  1.0331738E-01; -3.4632117E+02;3; -1.1067567E+01;  0.0000000E+00;  9.5677338E+00;0;  1.6926098E+00;  3.7690578E+04;  0.0000000E+00; -1.1229796E+01;  4.0000000E+04;  0.0000000E+00;  3.9730973E+04;  1.7488867E+00;  0.0000000E+00; -5.6276884E-02;  6.1048130E+03;
  1.2598282E+00;  9.9999998E-03; -1.2033335E-01;9598;  1.8405750E+00;  0.0000000E+00; -7.4931481E-03;  9.9982880E+02;  1.0331807E-01; -1.2985799E+02;3; -8.0313864E+00;  0.0000000E+00;  8.8501339E+00;0;  1.6666132E+00;  3.7713902E+04;  0.0000000E+00; -9.6211891E+00;  4.0000000E+04;  0.0000000E+00;  3.9727953E+04;  1.7019731E+00;  0.0000000E+00; -3.5359889E-02;  5.4191948E+03;
  1.2597541E+00;  9.9999998E-03; -1.1030121E-01;9599;  1.8354253E+00;  0.0000000E+00; -7.6743802E-03;  1.0000624E+03;  1.0331807E-01;  4.7389534E+01;3; -6.2426991E+00;  0.0000000E+00;  8.1755419E+00;0;  1.6456161E+00;  3.7732281E+04;  0.0000000E+00; -7.9270201E+00;  4.0000000E+04;  0.0000000E+00;  3.9726723E+04;  1.6617049E+00;  0.0000000E+00; -1.6088853E-02;  4.6674199E+03;
  1.2704731E+00;  9.9999998E-03; -2.3085468E-01;9635;  1.7261481E+00;  0.0000000E+00; -8.2119023E-03;  9.9392871E+02;  1.0318654E-01; -4.5463530E+03;3; -7.4543175E+01;  0.0000000E+00;  8.3989924E-01;0;  1.5233839E+00;  3.7370375E+04;  0.0000000E+00;  8.5996723E+00;  4.0000000E+04;  0.0000000E+00;  3.9732836E+04;  1.5365045E+00;  0.0000000E+00; -1.3120610E-02;  5.0031045E+03;
  1.2704194E+00;  9.9999998E-03; -2.2084059E-01;9636;  1.7553139E+00;  0.0000000E+00; -4.0638773E-03;  9.9477399E+02;  1.0318471E-01; -3.9136709E+03;3; -7.0176628E+01;  0.0000000E+00;  2.8083889E+00;0;  1.6389358E+00;  3.7440273E+04;  0.0000000E+00; -1.2647425E+01;  4.0000000E+04;  0.0000000E+00;  3.9724703E+04;  1.7487439E+00;  0.0000000E+00; -1.0980806E-01;  6.5149189E+03;
  1.2702616E+00;  9.9999998E-03; -2.1082672E-01;9637;  1.7806536E+00;  0.0000000E+00; -2.0286127E-03;  9.9635614E+02;  1.0318230E-01; -2.7293831E+03;3; -6.4240646E+01;  0.0000000E+00;  4.8716917E+00;0;  1.7328722E+00;  3.7568312E+04;  0.0000000E+00; -1.7692005E+01;  4.0000000E+04;  0.0000000E+00;  3.9713148E+04;  1.8942109E+00;  0.0000000E+00; -1.6133875E-01;  8.5316504E+03;
  1.2701169E+00;  9.9999998E-03; -2.0079981E-01;9638;  1.8011297E+00;  0.0000000E+00; -2.3094944E-03;  9.9767450E+02;  1.0318117E-01; -1.7421836E+03;3; -5.7956383E+01;  0.0000000E+00;  6.3916478E+00;0;  1.7924690E+00;  3.7669059E+04;  0.0000000E+00; -1.4580414E+01;  4.0000000E+04;  0.0000000E+00;  3.9710164E+04;  1.9659702E+00;  0.0000000E+00; -1.7350119E-01;  6.6067368E+03;
  1.2700819E+00;  9.9999998E-03; -1.9075149E-01;9639;  1.8156742E+00;  0.0000000E+00; -3.4940094E-03;  9.9813635E+02;  1.0318165E-01; -1.3962656E+03;3; -5.2214439E+01;  0.0000000E+00;  7.4244194E+00;0;  1.7976898E+00;  3.7696309E+04;  0.0000000E+00; -1.3066007E+01;  4.0000000E+04;  0.0000000E+00;  3.9717871E+04;  1.9657848E+00;  0.0000000E+00; -1.6809502E-01;  5.6139453E+03;
  1.2701139E+00;  9.9999998E-03; -1.8068837E-01;9640;  1.8279178E+00;  0.0000000E+00; -5.0051408E-03;  9.9822388E+02;  1.0318265E-01; -1.3306107E+03;3; -4.6374435E+01;  0.0000000E+00;  8.1510830E+00;0;  1.7823921E+00;  3.7693945E+04;  0.0000000E+00; -1.3591321E+01;  4.0000000E+04;  0.0000000E+00;  3.9727055E+04;  1.9357187E+00;  0.0000000E+00; -1.5332647E-01;  5.8378574E+03;
  1.2701710E+00;  9.9999998E-03; -1.7061743E-01;9641;  1.8390863E+00;  0.0000000E+00; -6.3415826E-03;  9.9827057E+02;  1.0318374E-01; -1.2955516E+03;3; -3.9601608E+01;  0.0000000E+00;  8.9228344E+00;0;  1.7580900E+00;  3.7691324E+04;  0.0000000E+00; -1.4644144E+01;  4.0000000E+04;  0.0000000E+00;  3.9733141E+04;  1.8923969E+00;  0.0000000E+00; -1.3430686E-01;  6.4861533E+03;
  1.2702187E+00;  9.9999998E-03; -1.6054988E-01;9642;  1.8491875E+00;  0.0000000E+00; -7.9322997E-03;  9.9840808E+02;  1.0318455E-01; -1.1924686E+03;3; -3.2332870E+01;  0.0000000E+00;  9.5764132E+00;0;  1.7320694E+00;  3.7701457E+04;  0.0000000E+00; -1.5295009E+01;  4.0000000E+04;  0.0000000E+00;  3.9733090E+04;  1.8425556E+00;  0.0000000E+00; -1.1048625E-01;  6.9754321E+03;
  1.2702379E+00;  9.9999998E-03; -1.5048467E-01;9643;  1.8565446E+00;  0.0000000E+00; -9.6356906E-03;  9.9868396E+02;  1.0318502E-01; -9.8576715E+02;3; -2.4248091E+01;  0.0000000E+00;  9.7522631E+00;0;  1.7001884E+00;  3.7724500E+04;  0.0000000E+00; -1.5150111E+01;  4.0000000E+04;  0.0000000E+00;  3.9730148E+04;  1.7847719E+00;  0.0000000E+00; -8.4583521E-02;  7.0638403E+03;
  1.2702280E+00;  9.9999998E-03; -1.4042102E-01;9644;  1.8602078E+00;  0.0000000E+00; -1.1229081E-02;  9.9903143E+02;  1.0318546E-01; -7.2552734E+02;3; -1.5925875E+01;  0.0000000E+00;  8.8129845E+00;0;  1.6639620E+00;  3.7753844E+04;  0.0000000E+00; -1.4379460E+01;  4.0000000E+04;  0.0000000E+00;  3.9726109E+04;  1.7225701E+00;  0.0000000E+00; -5.8608010E-02;  6.8343804E+03;
  1.2701952E+00;  9.9999998E-03; -1.3036463E-01;9645;  1.8600296E+00;  0.0000000E+00; -1.2272792E-02;  9.9937390E+02;  1.0318543E-01; -4.6900058E+02;3; -9.2339249E+00;  0.0000000E+00;  7.5888653E+00;0;  1.6270100E+00;  3.7783535E+04;  0.0000000E+00; -1.3229595E+01;  4.0000000E+04;  0.0000000E+00;  3.9721715E+04;  1.6610550E+00;  0.0000000E+00; -3.4045015E-02;  6.4136787E+03;
  1.2701463E+00;  9.9999998E-03; -1.2032057E-01;9646;  1.8568176E+00;  0.0000000E+00; -1.2528175E-02;  9.9968469E+02;  1.0318621E-01; -2.3621182E+02;3; -4.6696582E+00;  0.0000000E+00;  6.4528046E+00;0;  1.5934242E+00;  3.7810168E+04;  0.0000000E+00; -1.1820712E+01;  4.0000000E+04;  0.0000000E+00;  3.9717387E+04;  1.6048113E+00;  0.0000000E+00; -1.1387121E-02;  5.8637837E+03;
  1.2700871E+00;  9.9999998E-03; -1.1028327E-01;9647;  1.8516201E+00;  0.0000000E+00; -1.2152758E-02;  9.9996136E+02;  1.0318713E-01; -2.8937021E+01;3; -1.8695464E+00;  0.0000000E+00;  5.7081280E+00;0;  1.5650482E+00;  3.7832578E+04;  0.0000000E+00; -1.0203156E+01;  4.0000000E+04;  0.0000000E+00;  3.9714609E+04;  1.5556655E+00;  0.0000000E+00;  9.3827415E-03;  5.1991665E+03;
  1.2805983E+00;  9.9999998E-03; -2.3088627E-01;9682;  1.7301389E+00;  0.0000000E+00; -2.0618476E-02;  9.9525818E+02;  1.0307448E-01; -3.5024460E+03;3; -7.2337158E+01;  0.0000000E+00; -1.9973868E-01;0;  1.3696063E+00;  3.7564117E+04;  0.0000000E+00;  3.2950386E+01;  4.0000000E+04;  0.0000000E+00;  3.9717984E+04;  1.2532437E+00;  0.0000000E+00;  1.1636256E-01;  1.5254864E+04;
  1.2806917E+00;  9.9999998E-03; -2.2086754E-01;9683;  1.7534393E+00;  0.0000000E+00; -1.8088013E-02;  9.9459729E+02;  1.0307571E-01; -3.9900237E+03;3; -6.9699852E+01;  0.0000000E+00; -6.2616551E-01;0;  1.4448954E+00;  3.7516359E+04;  0.0000000E+00;  4.9813328E+00;  4.0000000E+04;  0.0000000E+00;  3.9716219E+04;  1.4174337E+00;  0.0000000E+00;  2.7461661E-02;  3.4049019E+03;
  1.2806215E+00;  9.9999998E-03; -2.1084706E-01;9684;  1.7778203E+00;  0.0000000E+00; -1.4463740E-02;  9.9558856E+02;  1.0307375E-01; -3.2583044E+03;3; -6.4251778E+01;  0.0000000E+00;  7.4517465E-01;0;  1.5251198E+00;  3.7595516E+04;  0.0000000E+00; -1.2938325E+01;  4.0000000E+04;  0.0000000E+00;  3.9710500E+04;  1.5834656E+00;  0.0000000E+00; -5.8345780E-02;  6.0856440E+03;
  1.2804836E+00;  9.9999998E-03; -2.0082045E-01;9685;  1.7999734E+00;  0.0000000E+00; -1.2268008E-02;  9.9707800E+02;  1.0307113E-01; -2.1586128E+03;3; -5.8609634E+01;  0.0000000E+00;  2.6675270E+00;0;  1.5994172E+00;  3.7710922E+04;  0.0000000E+00; -1.7162500E+01;  4.0000000E+04;  0.0000000E+00;  3.9705723E+04;  1.7072809E+00;  0.0000000E+00; -1.0786369E-01;  7.5451904E+03;
  1.2803611E+00;  9.9999998E-03; -1.9078055E-01;9686;  1.8190955E+00;  0.0000000E+00; -1.1838672E-02;  9.9828833E+02;  1.0306992E-01; -1.2647064E+03;3; -5.2563992E+01;  0.0000000E+00;  4.1898999E+00;0;  1.6555270E+00;  3.7800297E+04;  0.0000000E+00; -1.4907529E+01;  4.0000000E+04;  0.0000000E+00;  3.9707164E+04;  1.7792625E+00;  0.0000000E+00; -1.2373552E-01;  6.1968003E+03;
  1.2803361E+00;  9.9999998E-03; -1.8072502E-01;9687;  1.8331743E+00;  0.0000000E+00; -1.2317535E-02;  9.9863849E+02;  1.0307011E-01; -1.0060051E+03;3; -4.6184124E+01;  0.0000000E+00;  5.6222415E+00;0;  1.6670390E+00;  3.7820484E+04;  0.0000000E+00; -1.4178489E+01;  4.0000000E+04;  0.0000000E+00;  3.9713578E+04;  1.7875665E+00;  0.0000000E+00; -1.2052756E-01;  5.7205757E+03;
  1.2803624E+00;  9.9999998E-03; -1.7065836E-01;9688;  1.8449438E+00;  0.0000000E+00; -1.3178539E-02;  9.9867328E+02;  1.0307097E-01; -9.8029193E+02;3; -3.9812897E+01;  0.0000000E+00;  6.1981096E+00;0;  1.6608473E+00;  3.7816977E+04;  0.0000000E+00; -1.4820168E+01;  4.0000000E+04;  0.0000000E+00;  3.9719762E+04;  1.7673721E+00;  0.0000000E+00; -1.0652488E-01;  6.0297515E+03;
  1.2804098E+00;  9.9999998E-03; -1.6058794E-01;9689;  1.8554690E+00;  0.0000000E+00; -1.4184609E-02;  9.9864465E+02;  1.0307120E-01; -1.0013638E+03;3; -3.2973251E+01;  0.0000000E+00;  7.1570702E+00;0;  1.6483152E+00;  3.7812562E+04;  0.0000000E+00; -1.5881649E+01;  4.0000000E+04;  0.0000000E+00;  3.9722207E+04;  1.7341535E+00;  0.0000000E+00; -8.5838363E-02;  6.6199956E+03;
  1.2804457E+00;  9.9999998E-03; -1.5052083E-01;9690;  1.8644906E+00;  0.0000000E+00; -1.5496164E-02;  9.9873126E+02;  1.0307190E-01; -9.3732971E+02;3; -2.5543961E+01;  0.0000000E+00;  7.4928093E+00;0;  1.6320829E+00;  3.7820609E+04;  0.0000000E+00; -1.6432514E+01;  4.0000000E+04;  0.0000000E+00;  3.9720148E+04;  1.6925609E+00;  0.0000000E+00; -6.0478020E-02;  6.9866333E+03;
  1.2804493E+00;  9.9999998E-03; -1.4045393E-01;9691;  1.8703980E+00;  0.0000000E+00; -1.6958525E-02;  9.9899817E+02;  1.0307287E-01; -7.4013715E+02;3; -1.6949333E+01;  0.0000000E+00;  7.0848346E+00;0;  1.6072788E+00;  3.7843309E+04;  0.0000000E+00; -1.6061539E+01;  4.0000000E+04;  0.0000000E+00;  3.9716695E+04;  1.6406636E+00;  0.0000000E+00; -3.3384763E-02;  6.9246460E+03;
  1.2804255E+00;  9.9999998E-03; -1.3038801E-01;9692;  1.8718690E+00;  0.0000000E+00; -1.7951911E-02;  9.9933862E+02;  1.0307342E-01; -4.8862668E+02;3; -8.2189989E+00;  0.0000000E+00;  5.4213085E+00;0;  1.5725402E+00;  3.7871957E+04;  0.0000000E+00; -1.5112566E+01;  4.0000000E+04;  0.0000000E+00;  3.9712914E+04;  1.5801141E+00;  0.0000000E+00; -7.5739543E-03;  6.5976919E+03;
  1.2803940E+00;  9.9999998E-03; -1.2032790E-01;9693;  1.8690389E+00;  0.0000000E+00; -1.7707326E-02;  9.9963934E+02;  1.0307361E-01; -2.6647565E+02;3; -2.1118762E+00;  0.0000000E+00;  3.2771122E+00;0;  1.5330110E+00;  3.7897996E+04;  0.0000000E+00; -1.3902169E+01;  4.0000000E+04;  0.0000000E+00;  3.9708789E+04;  1.5176606E+00;  0.0000000E+00;  1.5350338E-02;  6.1541318E+03;
  1.2803590E+00;  9.9999998E-03; -1.1027881E-01;9694;  1.8636742E+00;  0.0000000E+00; -1.6463663E-02;  9.9988812E+02;  1.0307375E-01; -8.2663948E+01;3;  1.1460916E+00;  0.0000000E+00;  2.6129503E+00;0;  1.4972607E+00;  3.7919973E+04;  0.0000000E+00; -1.2473248E+01;  4.0000000E+04;  0.0000000E+00;  3.9705172E+04;  1.4611226E+00;  0.0000000E+00;  3.6138013E-02;  5.6088257E+03;
  1.2908297E+00;  9.9999998E-03; -2.2090065E-01;9729;  1.7550825E+00;  0.0000000E+00; -3.0324506E-02;  9.9572906E+02;  1.0298001E-01; -3.1066121E+03;3; -6.7429573E+01;  0.0000000E+00; -1.4192990E+00;0;  1.2549039E+00;  3.7687086E+04;  0.0000000E+00;  3.0193768E+01;  4.0000000E+04;  0.0000000E+00;  3.9699098E+04;  1.0961628E+00;  0.0000000E+00;  1.5874115E-01;  1.2695427E+04;
  1.2908922E+00;  9.9999998E-03; -2.1087980E-01;9730;  1.7749835E+00;  0.0000000E+00; -2.8405372E-02;  9.9529688E+02;  1.0298058E-01; -3.4206482E+03;3; -6.3064140E+01;  0.0000000E+00; -2.3092308E+00;0;  1.3096585E+00;  3.7657082E+04;  0.0000000E+00;  3.7757952E+00;  4.0000000E+04;  0.0000000E+00;  3.9696453E+04;  1.2278939E+00;  0.0000000E+00;  8.1764601E-02;  2.8838096E+03;
  1.2908227E+00;  9.9999998E-03; -2.0085236E-01;9731;  1.7965615E+00;  0.0000000E+00; -2.4617711E-02;  9.9629022E+02;  1.0297916E-01; -2.6984902E+03;3; -5.8508614E+01;  0.0000000E+00; -1.3913000E+00;0;  1.3767459E+00;  3.7733133E+04;  0.0000000E+00; -1.2610745E+01;  4.0000000E+04;  0.0000000E+00;  3.9694371E+04;  1.3770106E+00;  0.0000000E+00; -2.6464358E-04;  5.4502124E+03;
  1.2907027E+00;  9.9999998E-03; -1.9081439E-01;9732;  1.8170692E+00;  0.0000000E+00; -2.1980124E-02;  9.9769971E+02;  1.0297679E-01; -1.6735615E+03;3; -5.2669407E+01;  0.0000000E+00;  3.4087777E-01;0;  1.4522938E+00;  3.7837078E+04;  0.0000000E+00; -1.7196959E+01;  4.0000000E+04;  0.0000000E+00;  3.9695891E+04;  1.5012945E+00;  0.0000000E+00; -4.9000695E-02;  6.9386470E+03;
  1.2905887E+00;  9.9999998E-03; -1.8076606E-01;9733;  1.8357456E+00;  0.0000000E+00; -2.0949572E-02;  9.9889062E+02;  1.0297509E-01; -8.0724225E+02;3; -4.5699333E+01;  0.0000000E+00;  2.6637173E+00;0;  1.5231676E+00;  3.7923641E+04;  0.0000000E+00; -1.5888084E+01;  4.0000000E+04;  0.0000000E+00;  3.9699477E+04;  1.5887655E+00;  0.0000000E+00; -6.5597937E-02;  6.1294106E+03;
  1.2905638E+00;  9.9999998E-03; -1.7070551E-01;9734;  1.8486342E+00;  0.0000000E+00; -2.1261241E-02;  9.9919934E+02;  1.0297496E-01; -5.8264062E+02;3; -3.8993568E+01;  0.0000000E+00;  3.8699062E+00;0;  1.5457648E+00;  3.7941586E+04;  0.0000000E+00; -1.5706449E+01;  4.0000000E+04;  0.0000000E+00;  3.9705059E+04;  1.6059104E+00;  0.0000000E+00; -6.0145602E-02;  5.9625405E+03;
  1.2905841E+00;  9.9999998E-03; -1.6063951E-01;9735;  1.8589864E+00;  0.0000000E+00; -2.1858295E-02;  9.9916382E+02;  1.0297544E-01; -6.0847211E+02;3; -3.2641571E+01;  0.0000000E+00;  4.5092721E+00;0;  1.5498794E+00;  3.7935574E+04;  0.0000000E+00; -1.6597603E+01;  4.0000000E+04;  0.0000000E+00;  3.9708262E+04;  1.5950418E+00;  0.0000000E+00; -4.5162264E-02;  6.3524409E+03;
  1.2906164E+00;  9.9999998E-03; -1.5057404E-01;9736;  1.8683177E+00;  0.0000000E+00; -2.2554379E-02;  9.9909113E+02;  1.0297664E-01; -6.6130969E+02;3; -2.5963936E+01;  0.0000000E+00;  4.9756846E+00;0;  1.5505228E+00;  3.7930648E+04;  0.0000000E+00; -1.7593897E+01;  4.0000000E+04;  0.0000000E+00;  3.9707352E+04;  1.5749037E+00;  0.0000000E+00; -2.4380915E-02;  6.8302617E+03;
  1.2906300E+00;  9.9999998E-03; -1.4050853E-01;9737;  1.8761747E+00;  0.0000000E+00; -2.3427362E-02;  9.9918536E+02;  1.0297704E-01; -5.9272870E+02;3; -1.8503117E+01;  0.0000000E+00;  4.7115278E+00;0;  1.5467788E+00;  3.7940086E+04;  0.0000000E+00; -1.7765438E+01;  4.0000000E+04;  0.0000000E+00;  3.9704371E+04;  1.5467309E+00;  0.0000000E+00;  4.7888469E-05;  6.9711738E+03;
  1.2906147E+00;  9.9999998E-03; -1.3043925E-01;9738;  1.8792554E+00;  0.0000000E+00; -2.4219519E-02;  9.9945410E+02;  1.0297742E-01; -3.9722922E+02;3; -8.8693409E+00;  0.0000000E+00;  3.0104430E+00;0;  1.5227256E+00;  3.7962418E+04;  0.0000000E+00; -1.7028259E+01;  4.0000000E+04;  0.0000000E+00;  3.9701703E+04;  1.4975611E+00;  0.0000000E+00;  2.5164440E-02;  6.7364541E+03;
  1.2905864E+00;  9.9999998E-03; -1.2036850E-01;9739;  1.8771509E+00;  0.0000000E+00; -2.3072585E-02;  9.9974481E+02;  1.0297771E-01; -1.8567682E+02;3; -1.4487393E+00;  0.0000000E+00; -6.6440272E-01;0;  1.4809301E+00;  3.7986699E+04;  0.0000000E+00; -1.5865784E+01;  4.0000000E+04;  0.0000000E+00;  3.9699039E+04;  1.4353602E+00;  0.0000000E+00;  4.5569893E-02;  6.3302534E+03;
  1.2905576E+00;  9.9999998E-03; -1.1030522E-01;9740;  1.8721633E+00;  0.0000000E+00; -2.0531574E-02;  9.9997870E+02;  1.0297806E-01; -1.5484608E+01;3;  2.3076062E+00;  0.0000000E+00; -1.0646398E+00;0;  1.4396557E+00;  3.8006984E+04;  0.0000000E+00; -1.4538186E+01;  4.0000000E+04;  0.0000000E+00;  3.9695723E+04;  1.3756758E+00;  0.0000000E+00;  6.3979849E-02;  5.8556392E+03;
  1.3010298E+00;  9.9999998E-03; -2.1091795E-01;9774;  1.7769874E+00;  0.0000000E+00; -3.9157227E-02;  9.9635034E+02;  1.0289901E-01; -2.6105291E+03;3; -6.0243298E+01;  0.0000000E+00; -3.0695124E+00;0;  1.1156482E+00;  3.7817023E+04;  0.0000000E+00;  2.9823191E+01;  4.0000000E+04;  0.0000000E+00;  3.9674434E+04;  9.1552567E-01;  0.0000000E+00;  2.0012252E-01;  1.1287371E+04;
  1.3010789E+00;  9.9999998E-03; -2.0089807E-01;9775;  1.7945759E+00;  0.0000000E+00; -3.7206363E-02;  9.9593781E+02;  1.0289965E-01; -2.9053542E+03;3; -5.6812386E+01;  0.0000000E+00; -3.7868018E+00;0;  1.1625133E+00;  3.7790254E+04;  0.0000000E+00;  4.5302820E+00;  4.0000000E+04;  0.0000000E+00;  3.9669844E+04;  1.0327259E+00;  0.0000000E+00;  1.2978730E-01;  2.6780500E+03;
  1.3010173E+00;  9.9999998E-03; -1.9086692E-01;9776;  1.8139167E+00;  0.0000000E+00; -3.3640988E-02;  9.9683850E+02;  1.0289780E-01; -2.2614045E+03;3; -5.1643997E+01;  0.0000000E+00; -3.2870183E+00;0;  1.2321156E+00;  3.7857438E+04;  0.0000000E+00; -1.1819612E+01;  4.0000000E+04;  0.0000000E+00;  3.9670277E+04;  1.1737366E+00;  0.0000000E+00;  5.8379099E-02;  4.6476348E+03;
  1.3009121E+00;  9.9999998E-03; -1.8081903E-01;9777;  1.8325474E+00;  0.0000000E+00; -3.1448297E-02;  9.9818658E+02;  1.0289571E-01; -1.2973625E+03;3; -4.5225357E+01;  0.0000000E+00; -9.9652106E-01;0;  1.3198225E+00;  3.7951352E+04;  0.0000000E+00; -1.7607988E+01;  4.0000000E+04;  0.0000000E+00;  3.9678059E+04;  1.2993678E+00;  0.0000000E+00;  2.0454748E-02;  6.4940156E+03;
  1.3008089E+00;  9.9999998E-03; -1.7076124E-01;9778;  1.8494941E+00;  0.0000000E+00; -3.0903500E-02;  9.9936450E+02;  1.0289446E-01; -4.5473740E+02;3; -3.8633671E+01;  0.0000000E+00;  2.0249658E+00;0;  1.4065263E+00;  3.8032531E+04;  0.0000000E+00; -1.7621189E+01;  4.0000000E+04;  0.0000000E+00;  3.9686070E+04;  1.3948760E+00;  0.0000000E+00;  1.1650275E-02;  6.3027856E+03;
  1.3007649E+00;  9.9999998E-03; -1.6070032E-01;9779;  1.8618680E+00;  0.0000000E+00; -3.0582244E-02;  9.9980176E+02;  1.0289429E-01; -1.4186557E+02;3; -3.1267019E+01;  0.0000000E+00;  2.6966686E+00;0;  1.4470128E+00;  3.8061641E+04;  0.0000000E+00; -1.7598379E+01;  4.0000000E+04;  0.0000000E+00;  3.9690203E+04;  1.4327421E+00;  0.0000000E+00;  1.4270683E-02;  6.2035410E+03;
  1.3007678E+00;  9.9999998E-03; -1.5064134E-01;9780;  1.8708202E+00;  0.0000000E+00; -3.0319031E-02;  9.9976007E+02;  1.0289488E-01; -1.7167953E+02;3; -2.5023621E+01;  0.0000000E+00;  2.5116301E+00;0;  1.4604828E+00;  3.8058957E+04;  0.0000000E+00; -1.8624804E+01;  4.0000000E+04;  0.0000000E+00;  3.9689461E+04;  1.4353467E+00;  0.0000000E+00;  2.5136087E-02;  6.5781704E+03;
  1.3007803E+00;  9.9999998E-03; -1.4058225E-01;9781;  1.8786391E+00;  0.0000000E+00; -3.0365897E-02;  9.9966980E+02;  1.0289541E-01; -2.3629419E+02;3; -1.8933500E+01;  0.0000000E+00;  2.2770596E+00;0;  1.4725585E+00;  3.8054777E+04;  0.0000000E+00; -1.9449865E+01;  4.0000000E+04;  0.0000000E+00;  3.9686523E+04;  1.4295150E+00;  0.0000000E+00;  4.3043483E-02;  6.9202998E+03;
  1.3007737E+00;  9.9999998E-03; -1.3051412E-01;9782;  1.8836586E+00;  0.0000000E+00; -3.0737007E-02;  9.9977966E+02;  1.0289537E-01; -1.5768764E+02;3; -1.1152193E+01;  0.0000000E+00;  4.8669311E-01;0;  1.4712906E+00;  3.8064074E+04;  0.0000000E+00; -1.9077982E+01;  4.0000000E+04;  0.0000000E+00;  3.9685203E+04;  1.4064595E+00;  0.0000000E+00;  6.4831078E-02;  6.8318672E+03;
  1.3007520E+00;  9.9999998E-03; -1.2043767E-01;9783;  1.8818294E+00;  0.0000000E+00; -2.8306533E-02;  9.9999652E+02;  1.0289558E-01; -2.4739585E+00;3; -2.4795752E+00;  0.0000000E+00; -3.9170086E+00;0;  1.4273381E+00;  3.8080562E+04;  0.0000000E+00; -1.7915667E+01;  4.0000000E+04;  0.0000000E+00;  3.9684781E+04;  1.3481050E+00;  0.0000000E+00;  7.9233162E-02;  6.4571909E+03;
  1.3007246E+00;  9.9999998E-03; -1.1036433E-01;9784;  1.8773859E+00;  0.0000000E+00; -2.4436630E-02;  1.0001946E+03;  1.0289539E-01;  1.3923068E+02;3;  1.9154469E+00;  0.0000000E+00; -4.0882797E+00;0;  1.3829889E+00;  3.8097203E+04;  0.0000000E+00; -1.6511772E+01;  4.0000000E+04;  0.0000000E+00;  3.9683121E+04;  1.2900242E+00;  0.0000000E+00;  9.2964791E-02;  5.9902397E+03;
  1.3112028E+00;  9.9999998E-03; -2.0093915E-01;9817;  1.7979167E+00;  0.0000000E+00; -4.6341654E-02;  9.9709540E+02;  1.0283019E-01; -2.0400455E+03;3; -5.3502190E+01;  0.0000000E+00; -4.6807933E+00;0;  9.9361217E-01;  3.7951848E+04;  0.0000000E+00;  3.1982805E+01;  4.0000000E+04;  0.0000000E+00;  3.9645469E+04;  7.5795507E-01;  0.0000000E+00;  2.3565708E-01;  1.0799657E+04;
  1.3112485E+00;  9.9999998E-03; -1.9092630E-01;9818;  1.8139164E+00;  0.0000000E+00; -4.3469742E-02;  9.9653137E+02;  1.0283112E-01; -2.4359907E+03;3; -4.9832993E+01;  0.0000000E+00; -5.6921077E+00;0;  1.0347341E+00;  3.7919148E+04;  0.0000000E+00;  7.4589591E+00;  4.0000000E+04;  0.0000000E+00;  3.9634902E+04;  8.7045783E-01;  0.0000000E+00;  1.6427633E-01;  2.8950901E+03;
  1.3112056E+00;  9.9999998E-03; -1.8089397E-01;9819;  1.8304756E+00;  0.0000000E+00; -4.0630873E-02;  9.9718237E+02;  1.0282986E-01; -1.9789559E+03;3; -4.3832836E+01;  0.0000000E+00; -5.2369623E+00;0;  1.1068263E+00;  3.7965980E+04;  0.0000000E+00; -9.9376354E+00;  4.0000000E+04;  0.0000000E+00;  3.9637309E+04;  9.9574220E-01;  0.0000000E+00;  1.1108416E-01;  3.5275127E+03;
  1.3111093E+00;  9.9999998E-03; -1.7084147E-01;9820;  1.8467587E+00;  0.0000000E+00; -3.8811989E-02;  9.9849304E+02;  1.0282750E-01; -1.0586168E+03;3; -3.7290218E+01;  0.0000000E+00; -3.1898806E+00;0;  1.2021166E+00;  3.8053773E+04;  0.0000000E+00; -1.7711876E+01;  4.0000000E+04;  0.0000000E+00;  3.9649059E+04;  1.1178889E+00;  0.0000000E+00;  8.4227718E-02;  5.9000371E+03;
  1.3110083E+00;  9.9999998E-03; -1.6077816E-01;9821;  1.8623281E+00;  0.0000000E+00; -3.8163166E-02;  9.9972229E+02;  1.0282583E-01; -1.9511232E+02;3; -3.0228558E+01;  0.0000000E+00; -2.8046611E-01;0;  1.3062731E+00;  3.8135695E+04;  0.0000000E+00; -1.9342453E+01;  4.0000000E+04;  0.0000000E+00;  3.9660719E+04;  1.2268028E+00;  0.0000000E+00;  7.9470322E-02;  6.3074731E+03;
  1.3109404E+00;  9.9999998E-03; -1.5071304E-01;9822;  1.8754907E+00;  0.0000000E+00; -3.6437169E-02;  1.0004090E+03;  1.0282525E-01;  2.8740723E+02;3; -2.2156284E+01;  0.0000000E+00;  9.1010171E-01;0;  1.3782243E+00;  3.8181539E+04;  0.0000000E+00; -1.9392553E+01;  4.0000000E+04;  0.0000000E+00;  3.9667344E+04;  1.3020010E+00;  0.0000000E+00;  7.6223277E-02;  6.2422773E+03;
  1.3109236E+00;  9.9999998E-03; -1.4065646E-01;9823;  1.8836714E+00;  0.0000000E+00; -3.4617338E-02;  1.0004340E+03;  1.0282567E-01;  3.0492419E+02;3; -1.5865147E+01;  0.0000000E+00;  1.1034015E+00;0;  1.4048386E+00;  3.8184688E+04;  0.0000000E+00; -2.0346430E+01;  4.0000000E+04;  0.0000000E+00;  3.9665930E+04;  1.3234885E+00;  0.0000000E+00;  8.1350133E-02;  6.5433975E+03;
  1.3109232E+00;  9.9999998E-03; -1.3060056E-01;9824;  1.8890173E+00;  0.0000000E+00; -3.4638096E-02;  1.0003024E+03;  1.0282569E-01;  2.1252562E+02;3; -1.0454118E+01;  0.0000000E+00;  7.6644957E-01;0;  1.4225762E+00;  3.8177656E+04;  0.0000000E+00; -2.1037628E+01;  4.0000000E+04;  0.0000000E+00;  3.9662746E+04;  1.3217250E+00;  0.0000000E+00;  1.0085121E-01;  6.7970718E+03;
  1.3109043E+00;  9.9999998E-03; -1.2052907E-01;9825;  1.8889956E+00;  0.0000000E+00; -3.4293499E-02;  1.0003973E+03;  1.0282567E-01;  2.7921677E+02;3; -3.2572856E+00;  0.0000000E+00; -3.6054642E+00;0;  1.4018443E+00;  3.8184340E+04;  0.0000000E+00; -2.0174572E+01;  4.0000000E+04;  0.0000000E+00;  3.9663402E+04;  1.2820280E+00;  0.0000000E+00;  1.1981628E-01;  6.5456484E+03;
  1.3108791E+00;  9.9999998E-03; -1.1045276E-01;9826;  1.8831847E+00;  0.0000000E+00; -2.8273648E-02;  1.0005263E+03;  1.0282595E-01;  3.6987689E+02;3;  1.7026774E+00;  0.0000000E+00; -5.5977063E+00;0;  1.3359543E+00;  3.8193543E+04;  0.0000000E+00; -1.8688940E+01;  4.0000000E+04;  0.0000000E+00;  3.9663688E+04;  1.2127640E+00;  0.0000000E+00;  1.2319034E-01;  6.0949473E+03;
  1.3213977E+00;  9.9999998E-03; -1.8095991E-01;9858;  1.8335289E+00;  0.0000000E+00; -4.6121038E-02;  9.9715509E+02;  1.0277251E-01; -1.9590410E+03;3; -4.0981243E+01;  0.0000000E+00; -7.2561727E+00;0;  9.3723518E-01;  3.8047027E+04;  0.0000000E+00;  1.3381603E+01;  4.0000000E+04;  0.0000000E+00;  3.9596031E+04;  7.6031047E-01;  0.0000000E+00;  1.7692472E-01;  4.0711685E+03;
  1.3213670E+00;  9.9999998E-03; -1.7093664E-01;9859;  1.8480738E+00;  0.0000000E+00; -4.2557366E-02;  9.9752167E+02;  1.0277188E-01; -1.7067235E+03;3; -3.4818314E+01;  0.0000000E+00; -6.3719544E+00;0;  1.0080259E+00;  3.8077457E+04;  0.0000000E+00; -5.4481225E+00;  4.0000000E+04;  0.0000000E+00;  3.9593004E+04;  8.7820196E-01;  0.0000000E+00;  1.2982389E-01;  1.7063682E+03;
  1.3212833E+00;  9.9999998E-03; -1.6088331E-01;9860;  1.8619492E+00;  0.0000000E+00; -4.0955469E-02;  9.9870673E+02;  1.0276971E-01; -8.9078198E+02;3; -2.8082479E+01;  0.0000000E+00; -4.4365401E+00;0;  1.1092898E+00;  3.8153426E+04;  0.0000000E+00; -1.5951614E+01;  4.0000000E+04;  0.0000000E+00;  3.9607566E+04;  9.9310559E-01;  0.0000000E+00;  1.1618415E-01;  4.7417368E+03;
  1.3211937E+00;  9.9999998E-03; -1.5081215E-01;9861;  1.8759594E+00;  0.0000000E+00; -4.0256385E-02;  9.9990216E+02;  1.0276846E-01; -6.7381157E+01;3; -2.0351330E+01;  0.0000000E+00; -2.3610985E+00;0;  1.2307899E+00;  3.8226504E+04;  0.0000000E+00; -1.9868237E+01;  4.0000000E+04;  0.0000000E+00;  3.9625789E+04;  1.1115600E+00;  0.0000000E+00;  1.1922989E-01;  5.8458643E+03;
  1.3211231E+00;  9.9999998E-03; -1.4073843E-01;9862;  1.8884685E+00;  0.0000000E+00; -3.8598564E-02;  1.0006813E+03;  1.0276735E-01;  4.6939407E+02;3; -1.3074249E+01;  0.0000000E+00; -8.1358695E-01;0;  1.3330309E+00;  3.8274289E+04;  0.0000000E+00; -2.0822142E+01;  4.0000000E+04;  0.0000000E+00;  3.9638027E+04;  1.2105502E+00;  0.0000000E+00;  1.2248069E-01;  6.0815254E+03;
  1.3210820E+00;  9.9999998E-03; -1.3067631E-01;9863;  1.8973701E+00;  0.0000000E+00; -3.6384143E-02;  1.0009308E+03;  1.0276693E-01;  6.4143500E+02;3; -6.4420619E+00;  0.0000000E+00;  4.3135375E-02;0;  1.3964193E+00;  3.8291738E+04;  0.0000000E+00; -2.1403961E+01;  4.0000000E+04;  0.0000000E+00;  3.9639805E+04;  1.2673239E+00;  0.0000000E+00;  1.2909542E-01;  6.2329326E+03;
  1.3210628E+00;  9.9999998E-03; -1.2062527E-01;9864;  1.9016634E+00;  0.0000000E+00; -3.5993788E-02;  1.0008502E+03;  1.0276692E-01;  5.8584827E+02;3; -1.3306166E+00;  0.0000000E+00; -5.1486351E-02;0;  1.4264300E+00;  3.8289727E+04;  0.0000000E+00; -2.1959503E+01;  4.0000000E+04;  0.0000000E+00;  3.9635512E+04;  1.2781028E+00;  0.0000000E+00;  1.4832719E-01;  6.4055771E+03;
  1.3210354E+00;  9.9999998E-03; -1.1055986E-01;9865;  1.8981338E+00;  0.0000000E+00; -3.5203584E-02;  1.0008985E+03;  1.0276705E-01;  6.1915057E+02;3;  4.7784104E+00;  0.0000000E+00; -4.4919443E+00;0;  1.3868035E+00;  3.8293555E+04;  0.0000000E+00; -2.1012470E+01;  4.0000000E+04;  0.0000000E+00;  3.9635316E+04;  1.2210819E+00;  0.0000000E+00;  1.6572163E-01;  6.1434658E+03;
  1.3315158E+00;  9.9999998E-03; -1.7098872E-01;9895;  1.8535458E+00;  0.0000000E+00; -4.5605086E-02;  9.9804456E+02;  1.0272298E-01; -1.3185393E+03;3; -3.0126980E+01;  0.0000000E+00; -7.3067656E+00;0;  8.8497502E-01;  3.8185473E+04;  0.0000000E+00;  2.2709974E+01;  4.0000000E+04;  0.0000000E+00;  3.9560195E+04;  7.1134537E-01;  0.0000000E+00;  1.7362963E-01;  6.0483467E+03;
  1.3314964E+00;  9.9999998E-03; -1.6098320E-01;9896;  1.8670409E+00;  0.0000000E+00; -4.0801302E-02;  9.9803564E+02;  1.0272241E-01; -1.3245828E+03;3; -2.3161591E+01;  0.0000000E+00; -5.9232316E+00;0;  9.6231616E-01;  3.8199203E+04;  0.0000000E+00;  2.8946016E+00;  4.0000000E+04;  0.0000000E+00;  3.9545289E+04;  8.3390558E-01;  0.0000000E+00;  1.2841056E-01;  8.3866870E+02;
  1.3314334E+00;  9.9999998E-03; -1.5093869E-01;9897;  1.8793275E+00;  0.0000000E+00; -3.9380424E-02;  9.9887421E+02;  1.0272079E-01; -7.5925769E+02;3; -1.6528305E+01;  0.0000000E+00; -4.0964389E+00;0;  1.0777699E+00;  3.8252496E+04;  0.0000000E+00; -1.0774471E+01;  4.0000000E+04;  0.0000000E+00;  3.9556402E+04;  9.4950223E-01;  0.0000000E+00;  1.2826765E-01;  2.8989832E+03;
  1.3313639E+00;  9.9999998E-03; -1.4086230E-01;9898;  1.8901763E+00;  0.0000000E+00; -3.9710015E-02;  9.9987360E+02;  1.0271911E-01; -8.5272408E+01;3; -1.0473915E+01;  0.0000000E+00; -3.3368216E+00;0;  1.2005210E+00;  3.8305613E+04;  0.0000000E+00; -1.7760420E+01;  4.0000000E+04;  0.0000000E+00;  3.9580586E+04;  1.0531434E+00;  0.0000000E+00;  1.4737757E-01;  4.6949316E+03;
  1.3313022E+00;  9.9999998E-03; -1.3078162E-01;9899;  1.9009093E+00;  0.0000000E+00; -3.9167959E-02;  1.0006100E+03;  1.0271793E-01;  4.1150076E+02;3; -4.1471677E+00;  0.0000000E+00; -2.4843636E+00;0;  1.3231406E+00;  3.8344707E+04;  0.0000000E+00; -2.0525494E+01;  4.0000000E+04;  0.0000000E+00;  3.9598336E+04;  1.1603029E+00;  0.0000000E+00;  1.6283771E-01;  5.3976958E+03;
  1.3312532E+00;  9.9999998E-03; -1.2071116E-01;9900;  1.9088863E+00;  0.0000000E+00; -3.7434060E-02;  1.0009863E+03;  1.0271765E-01;  6.6537079E+02;3;  1.8051122E+00;  0.0000000E+00; -1.7094486E+00;0;  1.4096076E+00;  3.8366781E+04;  0.0000000E+00; -2.1480148E+01;  4.0000000E+04;  0.0000000E+00;  3.9605172E+04;  1.2354218E+00;  0.0000000E+00;  1.7418584E-01;  5.6358750E+03;
  1.3312154E+00;  9.9999998E-03; -1.1065435E-01;9901;  1.9132193E+00;  0.0000000E+00; -3.6352597E-02;  1.0010832E+03;  1.0271760E-01;  7.3081689E+02;3;  6.9668965E+00;  0.0000000E+00; -1.4234058E+00;0;  1.4611766E+00;  3.8375562E+04;  0.0000000E+00; -2.1721260E+01;  4.0000000E+04;  0.0000000E+00;  3.9603871E+04;  1.2705866E+00;  0.0000000E+00;  1.9059001E-01;  5.7000142E+03;
  1.3414207E+00;  9.9999998E-03; -1.1075936E-01;9935;  1.9174221E+00;  0.0000000E+00; -3.6930244E-02;  1.0007366E+03;  1.0267764E-01;  4.8595987E+02;3;  8.5995817E+00;  0.0000000E+00; -3.4609401E+00;0;  1.4160626E+00;  3.8420703E+04;  0.0000000E+00; -1.9127373E+01;  4.0000000E+04;  0.0000000E+00;  3.9560711E+04;  1.2057158E+00;  0.0000000E+00;  2.1034682E-01;  4.5070791E+03;
  1.3414661E+00;  9.9999998E-03; -1.2083911E-01;9934;  1.9120803E+00;  0.0000000E+00; -3.7419822E-02;  1.0003519E+03;  1.0267826E-01;  2.3214206E+02;3;  4.1822524E+00;  0.0000000E+00; -3.7283361E+00;0;  1.3276606E+00;  3.8403648E+04;  0.0000000E+00; -1.6897020E+01;  4.0000000E+04;  0.0000000E+00;  3.9547984E+04;  1.1373088E+00;  0.0000000E+00;  1.9035172E-01;  4.0087161E+03;
  1.3415167E+00;  9.9999998E-03; -1.3092494E-01;9933;  1.9063021E+00;  0.0000000E+00; -3.6982048E-02;  9.9971423E+02;  1.0267911E-01; -1.8847594E+02;3;  8.7859675E-02;  0.0000000E+00; -3.8614805E+00;0;  1.2360260E+00;  3.8377180E+04;  0.0000000E+00; -1.1547422E+01;  4.0000000E+04;  0.0000000E+00;  3.9525031E+04;  1.0719044E+00;  0.0000000E+00;  1.6412167E-01;  2.8618257E+03;
  1.3416077E+00;  9.9999998E-03; -1.5101542E-01;9931;  1.8871074E+00;  0.0000000E+00; -3.8021587E-02;  9.9870850E+02;  1.0268109E-01; -8.5170129E+02;3; -1.1298496E+01;  0.0000000E+00; -5.4602561E+00;0;  9.9254370E-01;  3.8319461E+04;  0.0000000E+00;  1.5172619E+01;  4.0000000E+04;  0.0000000E+00;  3.9505160E+04;  8.6389560E-01;  0.0000000E+00;  1.2864809E-01;  3.7059463E+03;
  1.3415695E+00;  9.9999998E-03; -1.4098944E-01;9932;  1.8975170E+00;  0.0000000E+00; -3.6608547E-02;  9.9901990E+02;  1.0268040E-01; -6.4637866E+02;3; -5.3886666E+00;  0.0000000E+00; -4.1909695E+00;0;  1.1117642E+00;  3.8343105E+04;  0.0000000E+00; -1.0201346E+00;  4.0000000E+04;  0.0000000E+00;  3.9505473E+04;  9.7390366E-01;  0.0000000E+00;  1.3786049E-01;  1.1325437E+03;
  1.3416085E+00;  9.9999998E-03; -1.6100180E-01;9930;  1.8743345E+00;  0.0000000E+00; -4.3592039E-02;  9.9922906E+02;  1.0268109E-01; -5.0839407E+02;3; -1.8150734E+01;  0.0000000E+00; -6.5861363E+00;0;  9.0117526E-01;  3.8331277E+04;  0.0000000E+00;  3.4694008E+01;  4.0000000E+04;  0.0000000E+00;  3.9534152E+04;  7.3179442E-01;  0.0000000E+00;  1.6938081E-01;  8.2179053E+03;
  1.3517054E+00;  9.9999998E-03; -1.4101490E-01;9963;  1.9059584E+00;  0.0000000E+00; -3.5865478E-02;  9.9959943E+02;  1.0264479E-01; -2.5807611E+02;3;  1.4529008E-01;  0.0000000E+00; -5.5797982E+00;0;  1.0714033E+00;  3.8435707E+04;  0.0000000E+00;  2.9884043E+01;  4.0000000E+04;  0.0000000E+00;  3.9482785E+04;  9.2985260E-01;  0.0000000E+00;  1.4155068E-01;  6.3630498E+03;
  1.3516868E+00;  9.9999998E-03; -1.3101161E-01;9964;  1.9138728E+00;  0.0000000E+00; -3.3473235E-02;  9.9937091E+02;  1.0264427E-01; -4.0527518E+02;3;  4.6722050E+00;  0.0000000E+00; -4.6735406E+00;0;  1.1713262E+00;  3.8433785E+04;  0.0000000E+00;  1.3115537E+01;  4.0000000E+04;  0.0000000E+00;  3.9466887E+04;  1.0227003E+00;  0.0000000E+00;  1.4862591E-01;  3.0956057E+03;
  1.3516515E+00;  9.9999998E-03; -1.2096764E-01;9965;  1.9195330E+00;  0.0000000E+00; -3.3578269E-02;  9.9962787E+02;  1.0264374E-01; -2.3975214E+02;3;  8.4165020E+00;  0.0000000E+00; -4.2392750E+00;0;  1.2737507E+00;  3.8446051E+04;  0.0000000E+00; -7.8089073E-02;  4.0000000E+04;  0.0000000E+00;  3.9474766E+04;  1.0957851E+00;  0.0000000E+00;  1.7796555E-01;  1.3270831E+03;
  1.3516121E+00;  9.9999998E-03; -1.1089503E-01;9966;  1.9230918E+00;  0.0000000E+00; -3.4508903E-02;  1.0000165E+03;  1.0264307E-01;  1.0600316E+01;3;  1.1355862E+01;  0.0000000E+00; -4.0057373E+00;0;  1.3612906E+00;  3.8458699E+04;  0.0000000E+00; -8.5830765E+00;  4.0000000E+04;  0.0000000E+00;  3.9492527E+04;  1.1504475E+00;  0.0000000E+00;  2.1084309E-01;  2.0633030E+03;
  1.3617938E+00;  9.9999998E-03; -1.2098273E-01;9992;  1.9232086E+00;  0.0000000E+00; -3.3193406E-02;  1.0000126E+03;  1.0261591E-01;  7.9450603E+00;3;  1.1230177E+01;  0.0000000E+00; -5.0096211E+00;0;  1.1845303E+00;  3.8518703E+04;  0.0000000E+00;  2.8661898E+01;  4.0000000E+04;  0.0000000E+00;  3.9451332E+04;  1.0004410E+00;  0.0000000E+00;  1.8408930E-01;  5.4618369E+03;
  1.3617744E+00;  9.9999998E-03; -1.1096035E-01;9993;  1.9271729E+00;  0.0000000E+00; -3.3566114E-02;  9.9980414E+02;  1.0261574E-01; -1.2315426E+02;3;  1.3081403E+01;  0.0000000E+00; -4.9841642E+00;0;  1.2826924E+00;  3.8510344E+04;  0.0000000E+00;  1.4874199E+01;  4.0000000E+04;  0.0000000E+00;  3.9443480E+04;  1.0671794E+00;  0.0000000E+00;  2.1551298E-01;  3.0562681E+03;
  5.8001245E-04;  9.9999998E-03; -9.9929288E-02;2467;  2.5556988E-01;  0.0000000E+00;  1.7594935E-02;  9.8933984E+02;  1.0000000E-01; -8.8317500E+03;3;  9.3637138E+01;  0.0000000E+00; -3.1138611E-01;0;  2.0589080E+00;  3.9110262E+04;  0.0000000E+00;  1.7530795E-02;  4.0000000E+04;  0.0000000E+00;  4.0043793E+04;  2.1251647E+00;  0.0000000E+00; -6.6256851E-02;  6.3597495E+03;
  5.7560834E-04;  9.9999998E-03; -8.9938119E-02;2468;  2.5710273E-01;  0.0000000E+00;  1.5616782E-02;  9.8933826E+02;  1.0000000E-01; -8.8330342E+03;3;  9.3112389E+01;  0.0000000E+00; -9.7223455E-01;0;  2.0767546E+00;  3.9110734E+04;  0.0000000E+00;  1.3395387E-02;  4.0000000E+04;  0.0000000E+00;  4.0043098E+04;  2.1408968E+00;  0.0000000E+00; -6.4142294E-02;  6.2775020E+03;
  5.6481123E-04;  9.9999998E-03; -7.9946525E-02;2469;  2.5837287E-01;  0.0000000E+00;  1.3745070E-02;  9.8937384E+02;  1.0000000E-01; -8.8035537E+03;3;  9.2002151E+01;  0.0000000E+00; -1.4619510E+00;0;  2.0919030E+00;  3.9114531E+04;  0.0000000E+00;  9.1583990E-03;  4.0000000E+04;  0.0000000E+00;  4.0042105E+04;  2.1543882E+00;  0.0000000E+00; -6.2485233E-02;  6.1458711E+03;
  5.4986280E-04;  9.9999998E-03; -6.9954447E-02;2470;  2.5943089E-01;  0.0000000E+00;  1.1950346E-02;  9.8943701E+02;  1.0000000E-01; -8.7512588E+03;3;  9.0525787E+01;  0.0000000E+00; -1.7690266E+00;0;  2.1046240E+00;  3.9120531E+04;  0.0000000E+00;  5.5663045E-03;  4.0000000E+04;  0.0000000E+00;  4.0040969E+04;  2.1659698E+00;  0.0000000E+00; -6.1345838E-02;  5.9908599E+03;
  5.3269719E-04;  9.9999998E-03; -5.9961878E-02;2471;  2.6031309E-01;  0.0000000E+00;  1.0207161E-02;  9.8951385E+02;  1.0000000E-01; -8.6875566E+03;3;  8.8910431E+01;  0.0000000E+00; -1.8957375E+00;0;  2.1151588E+00;  3.9127699E+04;  0.0000000E+00;  2.9319122E-03;  4.0000000E+04;  0.0000000E+00;  4.0039781E+04;  2.1758547E+00;  0.0000000E+00; -6.0695831E-02;  5.8326284E+03;
  5.1540084E-04;  9.9999998E-03; -4.9969003E-02;2472;  2.6104319E-01;  0.0000000E+00;  8.4945383E-03;  9.8959521E+02;  1.0000000E-01; -8.6201514E+03;3;  8.7316620E+01;  0.0000000E+00; -1.8551143E+00;0;  2.1237173E+00;  3.9135211E+04;  0.0000000E+00;  1.2577720E-03;  4.0000000E+04;  0.0000000E+00;  4.0038637E+04;  2.1841614E+00;  0.0000000E+00; -6.0444139E-02;  5.6854873E+03;
  4.9926032E-04;  9.9999998E-03; -3.9975755E-02;2473;  2.6163504E-01;  0.0000000E+00;  6.7964387E-03;  9.8967401E+02;  1.0000000E-01; -8.5548691E+03;3;  8.5861748E+01;  0.0000000E+00; -1.6677972E+00;0;  2.1304810E+00;  3.9142285E+04;  0.0000000E+00;  3.6564944E-04;  4.0000000E+04;  0.0000000E+00;  4.0037730E+04;  2.1909473E+00;  0.0000000E+00; -6.0466319E-02;  5.5586279E+03;
  4.8553458E-04;  9.9999998E-03; -2.9982219E-02;2474;  2.6209497E-01;  0.0000000E+00;  5.1019429E-03;  9.8974261E+02;  1.0000000E-01; -8.4980312E+03;3;  8.4645157E+01;  0.0000000E+00; -1.3593913E+00;0;  2.1356058E+00;  3.9148297E+04;  0.0000000E+00;  5.9984372E-06;  4.0000000E+04;  0.0000000E+00;  4.0036973E+04;  2.1962388E+00;  0.0000000E+00; -6.0632981E-02;  5.4572993E+03;
  4.7511805E-04;  9.9999998E-03; -1.9988386E-02;2475;  2.6242468E-01;  0.0000000E+00;  3.4050497E-03;  9.8979480E+02;  1.0000000E-01; -8.4548223E+03;3;  8.3738647E+01;  0.0000000E+00; -9.5839417E-01;0;  2.1391964E+00;  3.9152898E+04;  0.0000000E+00; -6.1679319E-05;  4.0000000E+04;  0.0000000E+00;  4.0036414E+04;  2.2000291E+00;  0.0000000E+00; -6.0832631E-02;  5.3840649E+03;
  4.6865692E-04;  9.9999998E-03; -9.9942908E-03;2476;  2.6262331E-01;  0.0000000E+00;  1.7039814E-03;  9.8982690E+02;  1.0000000E-01; -8.4282061E+03;3;  8.3184807E+01;  0.0000000E+00; -4.9492788E-01;0;  2.1413229E+00;  3.9155812E+04;  0.0000000E+00; -2.5086933E-05;  4.0000000E+04;  0.0000000E+00;  4.0036074E+04;  2.2023070E+00;  0.0000000E+00; -6.0984038E-02;  5.3399282E+03;
  4.6648466E-04;  9.9999998E-03; -9.7888489E-11;2477;  2.6268971E-01;  0.0000000E+00;  2.2587397E-08;  9.8983856E+02;  1.0000000E-01; -8.4185771E+03;3;  8.2991379E+01;  0.0000000E+00; -1.0597696E-05;0;  2.1420274E+00;  3.9156840E+04;  0.0000000E+00; -6.6081266E-13;  4.0000000E+04;  0.0000000E+00;  4.0035980E+04;  2.2030671E+00;  0.0000000E+00; -6.1039675E-02;  5.3251973E+03;
  4.6865662E-04;  9.9999998E-03;  9.9942908E-03;2478;  2.6262331E-01;  0.0000000E+00; -1.7039357E-03;  9.8982690E+02;  1.0000000E-01; -8.4282061E+03;3;  8.3184502E+01;  0.0000000E+00;  4.9491203E-01;0;  2.1413236E+00;  3.9155812E+04;  0.0000000E+00; -2.5063035E-05;  4.0000000E+04;  0.0000000E+00;  4.0036074E+04;  2.2023077E+00;  0.0000000E+00; -6.0984105E-02;  5.3399302E+03;
  4.7511805E-04;  9.9999998E-03;  1.9988386E-02;2479;  2.6242468E-01;  0.0000000E+00; -3.4050052E-03;  9.8979480E+02;  1.0000000E-01; -8.4548223E+03;3;  8.3738556E+01;  0.0000000E+00;  9.5837194E-01;0;  2.1391964E+00;  3.9152898E+04;  0.0000000E+00; -6.1580919E-05;  4.0000000E+04;  0.0000000E+00;  4.0036414E+04;  2.2000291E+00;  0.0000000E+00; -6.0832694E-02;  5.3840630E+03;
  4.8553399E-04;  9.9999998E-03;  2.9982219E-02;2480;  2.6209500E-01;  0.0000000E+00; -5.1019024E-03;  9.8974268E+02;  1.0000000E-01; -8.4979814E+03;3;  8.4644730E+01;  0.0000000E+00;  1.3593980E+00;0;  2.1356061E+00;  3.9148297E+04;  0.0000000E+00;  6.0709426E-06;  4.0000000E+04;  0.0000000E+00;  4.0036973E+04;  2.1962390E+00;  0.0000000E+00; -6.0633011E-02;  5.4572964E+03;
  4.9925974E-04;  9.9999998E-03;  3.9975755E-02;2481;  2.6163507E-01;  0.0000000E+00; -6.7963987E-03;  9.8967395E+02;  1.0000000E-01; -8.5549189E+03;3;  8.5862206E+01;  0.0000000E+00;  1.6677915E+00;0;  2.1304817E+00;  3.9142289E+04;  0.0000000E+00;  3.6580552E-04;  4.0000000E+04;  0.0000000E+00;  4.0037730E+04;  2.1909480E+00;  0.0000000E+00; -6.0466371E-02;  5.5586279E+03;
  5.1539979E-04;  9.9999998E-03;  4.9969003E-02;2482;  2.6104325E-01;  0.0000000E+00; -8.4945010E-03;  9.8959521E+02;  1.0000000E-01; -8.6201514E+03;3;  8.7316513E+01;  0.0000000E+00;  1.8551043E+00;0;  2.1237168E+00;  3.9135215E+04;  0.0000000E+00;  1.2579103E-03;  4.0000000E+04;  0.0000000E+00;  4.0038637E+04;  2.1841609E+00;  0.0000000E+00; -6.0444206E-02;  5.6854829E+03;
  5.3269637E-04;  9.9999998E-03;  5.9961878E-02;2483;  2.6031315E-01;  0.0000000E+00; -1.0207129E-02;  9.8951379E+02;  1.0000000E-01; -8.6876064E+03;3;  8.8911011E+01;  0.0000000E+00;  1.8957287E+00;0;  2.1151602E+00;  3.9127699E+04;  0.0000000E+00;  2.9320773E-03;  4.0000000E+04;  0.0000000E+00;  4.0039781E+04;  2.1758561E+00;  0.0000000E+00; -6.0695950E-02;  5.8326226E+03;
  1.0740791E-02;  9.9999998E-03; -9.9926509E-02;2527;  2.5421962E-01;  0.0000000E+00;  1.5326267E-02;  9.8865759E+02;  1.0000000E-01; -9.3969688E+03;3;  9.8186226E+01;  0.0000000E+00; -2.2439082E-01;0;  1.9260315E+00;  3.9049777E+04;  0.0000000E+00;  1.6295008E-02;  4.0000000E+04;  0.0000000E+00;  4.0051668E+04;  1.9960854E+00;  0.0000000E+00; -7.0053943E-02;  7.3897100E+03;
  1.0734364E-02;  9.9999998E-03; -8.9935541E-02;2528;  2.5563002E-01;  0.0000000E+00;  1.3713478E-02;  9.8868011E+02;  1.0000000E-01; -9.3783027E+03;3;  9.7348778E+01;  0.0000000E+00; -8.2518113E-01;0;  1.9422191E+00;  3.9052641E+04;  0.0000000E+00;  1.1763619E-02;  4.0000000E+04;  0.0000000E+00;  4.0050637E+04;  2.0100315E+00;  0.0000000E+00; -6.7812301E-02;  7.2610391E+03;
  1.0721983E-02;  9.9999998E-03; -7.9944134E-02;2529;  2.5681692E-01;  0.0000000E+00;  1.2151546E-02;  9.8873914E+02;  1.0000000E-01; -9.3294150E+03;3;  9.5955078E+01;  0.0000000E+00; -1.2671515E+00;0;  1.9562191E+00;  3.9058332E+04;  0.0000000E+00;  7.4168663E-03;  4.0000000E+04;  0.0000000E+00;  4.0049199E+04;  2.0223818E+00;  0.0000000E+00; -6.6162668E-02;  7.0861719E+03;
  1.0706113E-02;  9.9999998E-03; -6.9952123E-02;2530;  2.5782451E-01;  0.0000000E+00;  1.0623226E-02;  9.8881689E+02;  1.0000000E-01; -9.2649727E+03;3;  9.4290947E+01;  0.0000000E+00; -1.5429431E+00;0;  1.9681640E+00;  3.9065945E+04;  0.0000000E+00;  3.9445842E-03;  4.0000000E+04;  0.0000000E+00;  4.0047703E+04;  2.0332942E+00;  0.0000000E+00; -6.5130293E-02;  6.8934102E+03;
  1.0688653E-02;  9.9999998E-03; -5.9959523E-02;2531;  2.5868216E-01;  0.0000000E+00;  9.1137495E-03;  9.8890564E+02;  1.0000000E-01; -9.1914434E+03;3;  9.2532211E+01;  0.0000000E+00; -1.6569884E+00;0;  1.9781752E+00;  3.9074328E+04;  0.0000000E+00;  1.5789762E-03;  4.0000000E+04;  0.0000000E+00;  4.0046227E+04;  2.0428267E+00;  0.0000000E+00; -6.4651430E-02;  6.7039810E+03;
  1.0671513E-02;  9.9999998E-03; -4.9966659E-02;2532;  2.5940666E-01;  0.0000000E+00;  7.6109194E-03;  9.8899750E+02;  1.0000000E-01; -9.1153467E+03;3;  9.0827309E+01;  0.0000000E+00; -1.6225170E+00;0;  1.9863878E+00;  3.9082793E+04;  0.0000000E+00;  2.4105499E-04;  4.0000000E+04;  0.0000000E+00;  4.0044938E+04;  2.0509892E+00;  0.0000000E+00; -6.4601280E-02;  6.5323252E+03;
  1.0655782E-02;  9.9999998E-03; -3.9973564E-02;2533;  2.6000503E-01;  0.0000000E+00;  6.1056265E-03;  9.8908325E+02;  1.0000000E-01; -9.0443369E+03;3;  8.9304253E+01;  0.0000000E+00; -1.4587866E+00;0;  1.9929297E+00;  3.9090492E+04;  0.0000000E+00; -3.1536608E-04;  4.0000000E+04;  0.0000000E+00;  4.0043871E+04;  2.0577555E+00;  0.0000000E+00; -6.4825729E-02;  6.3871382E+03;
  1.0642528E-02;  9.9999998E-03; -2.9980348E-02;2534;  2.6047733E-01;  0.0000000E+00;  4.5922957E-03;  9.8915649E+02;  1.0000000E-01; -8.9836475E+03;3;  8.8046509E+01;  0.0000000E+00; -1.1888888E+00;0;  1.9979100E+00;  3.9096961E+04;  0.0000000E+00; -3.8559036E-04;  4.0000000E+04;  0.0000000E+00;  4.0043047E+04;  2.0630817E+00;  0.0000000E+00; -6.5171748E-02;  6.2728369E+03;
  1.0632502E-02;  9.9999998E-03; -1.9987006E-02;2535;  2.6081997E-01;  0.0000000E+00;  3.0689826E-03;  9.8921149E+02;  1.0000000E-01; -8.9380684E+03;3;  8.7118141E+01;  0.0000000E+00; -8.3806890E-01;0;  2.0014155E+00;  3.9101844E+04;  0.0000000E+00; -2.3716150E-04;  4.0000000E+04;  0.0000000E+00;  4.0042441E+04;  2.0669260E+00;  0.0000000E+00; -6.5510459E-02;  6.1911006E+03;
  1.0626273E-02;  9.9999998E-03; -9.9935466E-03;2536;  2.6102808E-01;  0.0000000E+00;  1.5369883E-03;  9.8924524E+02;  1.0000000E-01; -8.9101182E+03;3;  8.6552681E+01;  0.0000000E+00; -4.3274340E-01;0;  2.0035000E+00;  3.9105023E+04;  0.0000000E+00; -6.9050744E-05;  4.0000000E+04;  0.0000000E+00;  4.0042082E+04;  2.0692492E+00;  0.0000000E+00; -6.5749221E-02;  6.1422026E+03;
  1.0624156E-02;  9.9999998E-03; -3.2395187E-11;2537;  2.6109794E-01;  0.0000000E+00;  1.7991045E-08;  9.8925745E+02;  1.0000000E-01; -8.8999951E+03;3;  8.6356850E+01;  0.0000000E+00; -1.8617813E-05;0;  2.0041909E+00;  3.9106039E+04;  0.0000000E+00; -8.1762385E-13;  4.0000000E+04;  0.0000000E+00;  4.0041969E+04;  2.0700254E+00;  0.0000000E+00; -6.5834597E-02;  6.1259453E+03;
  1.0626273E-02;  9.9999998E-03;  9.9935466E-03;2538;  2.6102808E-01;  0.0000000E+00; -1.5369517E-03;  9.8924524E+02;  1.0000000E-01; -8.9101182E+03;3;  8.6552818E+01;  0.0000000E+00;  4.3272346E-01;0;  2.0034993E+00;  3.9105023E+04;  0.0000000E+00; -6.8987676E-05;  4.0000000E+04;  0.0000000E+00;  4.0042086E+04;  2.0692484E+00;  0.0000000E+00; -6.5749258E-02;  6.1422046E+03;
  1.0632502E-02;  9.9999998E-03;  1.9987004E-02;2539;  2.6081997E-01;  0.0000000E+00; -3.0689470E-03;  9.8921161E+02;  1.0000000E-01; -8.9379697E+03;3;  8.7117676E+01;  0.0000000E+00;  8.3805776E-01;0;  2.0014160E+00;  3.9101844E+04;  0.0000000E+00; -2.3699703E-04;  4.0000000E+04;  0.0000000E+00;  4.0042441E+04;  2.0669265E+00;  0.0000000E+00; -6.5510482E-02;  6.1911011E+03;
  1.0642527E-02;  9.9999998E-03;  2.9980348E-02;2540;  2.6047736E-01;  0.0000000E+00; -4.5922599E-03;  9.8915649E+02;  1.0000000E-01; -8.9836475E+03;3;  8.8046562E+01;  0.0000000E+00;  1.1889045E+00;0;  1.9979113E+00;  3.9096961E+04;  0.0000000E+00; -3.8550585E-04;  4.0000000E+04;  0.0000000E+00;  4.0043047E+04;  2.0630832E+00;  0.0000000E+00; -6.5171868E-02;  6.2728350E+03;
  1.0655782E-02;  9.9999998E-03;  3.9973564E-02;2541;  2.6000506E-01;  0.0000000E+00; -6.1055920E-03;  9.8908325E+02;  1.0000000E-01; -9.0443369E+03;3;  8.9304268E+01;  0.0000000E+00;  1.4587963E+00;0;  1.9929296E+00;  3.9090492E+04;  0.0000000E+00; -3.1503246E-04;  4.0000000E+04;  0.0000000E+00;  4.0043871E+04;  2.0577555E+00;  0.0000000E+00; -6.4825855E-02;  6.3871328E+03;
  1.0671512E-02;  9.9999998E-03;  4.9966659E-02;2542;  2.5940672E-01;  0.0000000E+00; -7.6108915E-03;  9.8899750E+02;  1.0000000E-01; -9.1153467E+03;3;  9.0827621E+01;  0.0000000E+00;  1.6225053E+00;0;  1.9863877E+00;  3.9082797E+04;  0.0000000E+00;  2.4106193E-04;  4.0000000E+04;  0.0000000E+00;  4.0044938E+04;  2.0509892E+00;  0.0000000E+00; -6.4601444E-02;  6.5323223E+03;
  1.0688651E-02;  9.9999998E-03;  5.9959523E-02;2543;  2.5868222E-01;  0.0000000E+00; -9.1137234E-03;  9.8890564E+02;  1.0000000E-01; -9.1914434E+03;3;  9.2532249E+01;  0.0000000E+00;  1.6569728E+00;0;  1.9781754E+00;  3.9074328E+04;  0.0000000E+00;  1.5786368E-03;  4.0000000E+04;  0.0000000E+00;  4.0046227E+04;  2.0428269E+00;  0.0000000E+00; -6.4651527E-02;  6.7039756E+03;
  2.0888578E-02;  9.9999998E-03; -9.9917963E-02;2588;  2.5262776E-01;  0.0000000E+00;  1.3119972E-02;  9.8831268E+02;  1.0000000E-01; -9.6827383E+03;3;  9.3243256E+01;  0.0000000E+00; -2.1035874E-01;0;  1.7113345E+00;  3.9016672E+04;  0.0000000E+00;  1.2749369E-02;  4.0000000E+04;  0.0000000E+00;  4.0058801E+04;  1.7820340E+00;  0.0000000E+00; -7.0699595E-02;  8.3225918E+03;
  2.0879744E-02;  9.9999998E-03; -8.9927956E-02;2589;  2.5397569E-01;  0.0000000E+00;  1.1846852E-02;  9.8836523E+02;  1.0000000E-01; -9.6391846E+03;3;  9.2067917E+01;  0.0000000E+00; -7.1821630E-01;0;  1.7252131E+00;  3.9022102E+04;  0.0000000E+00;  8.6924573E-03;  4.0000000E+04;  0.0000000E+00;  4.0057434E+04;  1.7936159E+00;  0.0000000E+00; -6.8402842E-02;  8.1384087E+03;
  2.0865610E-02;  9.9999998E-03; -7.9937398E-02;2590;  2.5512823E-01;  0.0000000E+00;  1.0579275E-02;  9.8844452E+02;  1.0000000E-01; -9.5735068E+03;3;  9.0475929E+01;  0.0000000E+00; -1.0935043E+00;0;  1.7374943E+00;  3.9029910E+04;  0.0000000E+00;  4.9042874E-03;  4.0000000E+04;  0.0000000E+00;  4.0055688E+04;  1.8043346E+00;  0.0000000E+00; -6.6840276E-02;  7.9157510E+03;
  2.0848652E-02;  9.9999998E-03; -6.9946207E-02;2591;  2.5612426E-01;  0.0000000E+00;  9.3087358E-03;  9.8854059E+02;  1.0000000E-01; -9.4939043E+03;3;  8.8680069E+01;  0.0000000E+00; -1.3249598E+00;0;  1.7481568E+00;  3.9039105E+04;  0.0000000E+00;  2.0050807E-03;  4.0000000E+04;  0.0000000E+00;  4.0053887E+04;  1.8141482E+00;  0.0000000E+00; -6.5991402E-02;  7.6841685E+03;
  2.0830752E-02;  9.9999998E-03; -5.9954457E-02;2592;  2.5698763E-01;  0.0000000E+00;  8.0283787E-03;  9.8864258E+02;  1.0000000E-01; -9.4094131E+03;3;  8.6864456E+01;  0.0000000E+00; -1.4179626E+00;0;  1.7572185E+00;  3.9048777E+04;  0.0000000E+00;  1.7440702E-04;  4.0000000E+04;  0.0000000E+00;  4.0052168E+04;  1.8229678E+00;  0.0000000E+00; -6.5749273E-02;  7.4648442E+03;
  2.0813584E-02;  9.9999998E-03; -4.9962450E-02;2593;  2.5772941E-01;  0.0000000E+00;  6.7329821E-03;  9.8874316E+02;  1.0000000E-01; -9.3260576E+03;3;  8.5157967E+01;  0.0000000E+00; -1.3848048E+00;0;  1.7647240E+00;  3.9057984E+04;  0.0000000E+00; -7.0298131E-04;  4.0000000E+04;  0.0000000E+00;  4.0050691E+04;  1.8306756E+00;  0.0000000E+00; -6.5951556E-02;  7.2713433E+03;
  2.0798134E-02;  9.9999998E-03; -3.9970223E-02;2594;  2.5835106E-01;  0.0000000E+00;  5.4192026E-03;  9.8883411E+02;  1.0000000E-01; -9.2507510E+03;3;  8.3664917E+01;  0.0000000E+00; -1.2426538E+00;0;  1.7707493E+00;  3.9066352E+04;  0.0000000E+00; -8.9276326E-04;  4.0000000E+04;  0.0000000E+00;  4.0049422E+04;  1.8371634E+00;  0.0000000E+00; -6.6414125E-02;  7.1110435E+03;
  2.0785313E-02;  9.9999998E-03; -2.9977845E-02;2595;  2.5884750E-01;  0.0000000E+00;  4.0860795E-03;  9.8891125E+02;  1.0000000E-01; -9.1868018E+03;3;  8.2444084E+01;  0.0000000E+00; -1.0113430E+00;0;  1.7753636E+00;  3.9073160E+04;  0.0000000E+00; -6.9469394E-04;  4.0000000E+04;  0.0000000E+00;  4.0048527E+04;  1.8423257E+00;  0.0000000E+00; -6.6962108E-02;  6.9868882E+03;
  2.0775706E-02;  9.9999998E-03; -1.9985326E-02;2596;  2.5921077E-01;  0.0000000E+00;  2.7353507E-03;  9.8896863E+02;  1.0000000E-01; -9.1392969E+03;3;  8.1550751E+01;  0.0000000E+00; -7.1225703E-01;0;  1.7786243E+00;  3.9078289E+04;  0.0000000E+00; -3.6843022E-04;  4.0000000E+04;  0.0000000E+00;  4.0047938E+04;  1.8460768E+00;  0.0000000E+00; -6.7452572E-02;  6.8992188E+03;
  2.0769767E-02;  9.9999998E-03; -9.9926973E-03;2597;  2.5943267E-01;  0.0000000E+00;  1.3712739E-03;  9.8900507E+02;  1.0000000E-01; -9.1090762E+03;3;  8.0999878E+01;  0.0000000E+00; -3.6758816E-01;0;  1.7805692E+00;  3.9081504E+04;  0.0000000E+00; -1.0086279E-04;  4.0000000E+04;  0.0000000E+00;  4.0047516E+04;  1.8483541E+00;  0.0000000E+00; -6.7784958E-02;  6.8472036E+03;
  2.0767756E-02;  9.9999998E-03; -1.1644681E-11;2598;  2.5950733E-01;  0.0000000E+00;  1.4926847E-08;  9.8901648E+02;  1.0000000E-01; -9.0996436E+03;3;  8.0820580E+01;  0.0000000E+00; -7.9793126E-06;0;  1.7812165E+00;  3.9082535E+04;  0.0000000E+00; -6.5463851E-13;  4.0000000E+04;  0.0000000E+00;  4.0047402E+04;  1.8491184E+00;  0.0000000E+00; -6.7901872E-02;  6.8299805E+03;
  2.0769767E-02;  9.9999998E-03;  9.9926963E-03;2599;  2.5943267E-01;  0.0000000E+00; -1.3712440E-03;  9.8900507E+02;  1.0000000E-01; -9.1090762E+03;3;  8.0999840E+01;  0.0000000E+00;  3.6756957E-01;0;  1.7805691E+00;  3.9081504E+04;  0.0000000E+00; -1.0081944E-04;  4.0000000E+04;  0.0000000E+00;  4.0047516E+04;  1.8483541E+00;  0.0000000E+00; -6.7784980E-02;  6.8472031E+03;
  2.0775706E-02;  9.9999998E-03;  1.9985326E-02;2600;  2.5921080E-01;  0.0000000E+00; -2.7353223E-03;  9.8896863E+02;  1.0000000E-01; -9.1392969E+03;3;  8.1550583E+01;  0.0000000E+00;  7.1225494E-01;0;  1.7786237E+00;  3.9078293E+04;  0.0000000E+00; -3.6845158E-04;  4.0000000E+04;  0.0000000E+00;  4.0047938E+04;  1.8460764E+00;  0.0000000E+00; -6.7452647E-02;  6.8992188E+03;
  2.0785313E-02;  9.9999998E-03;  2.9977843E-02;2601;  2.5884756E-01;  0.0000000E+00; -4.0860530E-03;  9.8891125E+02;  1.0000000E-01; -9.1868018E+03;3;  8.2444069E+01;  0.0000000E+00;  1.0113573E+00;0;  1.7753634E+00;  3.9073160E+04;  0.0000000E+00; -6.9461740E-04;  4.0000000E+04;  0.0000000E+00;  4.0048527E+04;  1.8423257E+00;  0.0000000E+00; -6.6962197E-02;  6.9868867E+03;
  2.0798132E-02;  9.9999998E-03;  3.9970223E-02;2602;  2.5835109E-01;  0.0000000E+00; -5.4191775E-03;  9.8883411E+02;  1.0000000E-01; -9.2507510E+03;3;  8.3664742E+01;  0.0000000E+00;  1.2426548E+00;0;  1.7707500E+00;  3.9066352E+04;  0.0000000E+00; -8.9276669E-04;  4.0000000E+04;  0.0000000E+00;  4.0049422E+04;  1.8371642E+00;  0.0000000E+00; -6.6414170E-02;  7.1110420E+03;
  2.0813582E-02;  9.9999998E-03;  4.9962450E-02;2603;  2.5772947E-01;  0.0000000E+00; -6.7329598E-03;  9.8874316E+02;  1.0000000E-01; -9.3260576E+03;3;  8.5157539E+01;  0.0000000E+00;  1.3848078E+00;0;  1.7647252E+00;  3.9057988E+04;  0.0000000E+00; -7.0253783E-04;  4.0000000E+04;  0.0000000E+00;  4.0050691E+04;  1.8306768E+00;  0.0000000E+00; -6.5951638E-02;  7.2713428E+03;
  2.0830750E-02;  9.9999998E-03;  5.9954457E-02;2604;  2.5698769E-01;  0.0000000E+00; -8.0283582E-03;  9.8864264E+02;  1.0000000E-01; -9.4093633E+03;3;  8.6864212E+01;  0.0000000E+00;  1.4179446E+00;0;  1.7572197E+00;  3.9048781E+04;  0.0000000E+00;  1.7442957E-04;  4.0000000E+04;  0.0000000E+00;  4.0052168E+04;  1.8229691E+00;  0.0000000E+00; -6.5749392E-02;  7.4648394E+03;
  3.1028531E-02;  9.9999998E-03; -9.9909112E-02;2649;  2.5081208E-01;  0.0000000E+00;  1.0986205E-02;  9.8830194E+02;  1.0000000E-01; -9.6916270E+03;3;  8.0555916E+01;  0.0000000E+00; -2.1105456E-01;0;  1.4462229E+00;  3.9010680E+04;  0.0000000E+00;  7.9586552E-03;  4.0000000E+04;  0.0000000E+00;  4.0065082E+04;  1.5142475E+00;  0.0000000E+00; -6.8024606E-02;  9.0979082E+03;
  3.1016598E-02;  9.9999998E-03; -8.9920200E-02;2650;  2.5214520E-01;  0.0000000E+00;  1.0022970E-02;  9.8838226E+02;  1.0000000E-01; -9.6250615E+03;3;  7.9134216E+01;  0.0000000E+00; -6.2665296E-01;0;  1.4574783E+00;  3.9018867E+04;  0.0000000E+00;  5.0040898E-03;  4.0000000E+04;  0.0000000E+00;  4.0063121E+04;  1.5232089E+00;  0.0000000E+00; -6.5730549E-02;  8.8514150E+03;
  3.1000486E-02;  9.9999998E-03; -7.9930522E-02;2651;  2.5330308E-01;  0.0000000E+00;  9.0304911E-03;  9.8848566E+02;  1.0000000E-01; -9.5394336E+03;3;  7.7415466E+01;  0.0000000E+00; -9.2716378E-01;0;  1.4677318E+00;  3.9028824E+04;  0.0000000E+00;  2.2228195E-03;  4.0000000E+04;  0.0000000E+00;  4.0061008E+04;  1.5320458E+00;  0.0000000E+00; -6.4314000E-02;  8.5790107E+03;
  3.0982513E-02;  9.9999998E-03; -6.9940083E-02;2652;  2.5431976E-01;  0.0000000E+00;  8.0061052E-03;  9.8859827E+02;  1.0000000E-01; -9.4461035E+03;3;  7.5605560E+01;  0.0000000E+00; -1.1090388E+00;0;  1.4768248E+00;  3.9039621E+04;  0.0000000E+00;  1.6456882E-04;  4.0000000E+04;  0.0000000E+00;  4.0058945E+04;  1.5405233E+00;  0.0000000E+00; -6.3698471E-02;  8.3100889E+03;
  3.0964443E-02;  9.9999998E-03; -5.9949189E-02;2653;  2.5521421E-01;  0.0000000E+00;  6.9484119E-03;  9.8871063E+02;  1.0000000E-01; -9.3530195E+03;3;  7.3851555E+01;  0.0000000E+00; -1.1781074E+00;0;  1.4846717E+00;  3.9050336E+04;  0.0000000E+00; -1.0115369E-03;  4.0000000E+04;  0.0000000E+00;  4.0057039E+04;  1.5483998E+00;  0.0000000E+00; -6.3728057E-02;  8.0644751E+03;
  3.0947467E-02;  9.9999998E-03; -4.9958047E-02;2654;  2.5599271E-01;  0.0000000E+00;  5.8571473E-03;  9.8881989E+02;  1.0000000E-01; -9.2625039E+03;3;  7.2233696E+01;  0.0000000E+00; -1.1450408E+00;0;  1.4912542E+00;  3.9060344E+04;  0.0000000E+00; -1.4125375E-03;  4.0000000E+04;  0.0000000E+00;  4.0055461E+04;  1.5554554E+00;  0.0000000E+00; -6.4201184E-02;  7.8537378E+03;
  3.0932466E-02;  9.9999998E-03; -3.9966706E-02;2655;  2.5665203E-01;  0.0000000E+00;  4.7334149E-03;  9.8891687E+02;  1.0000000E-01; -9.1821602E+03;3;  7.0844063E+01;  0.0000000E+00; -1.0241084E+00;0;  1.4965907E+00;  3.9069117E+04;  0.0000000E+00; -1.2800760E-03;  4.0000000E+04;  0.0000000E+00;  4.0054148E+04;  1.5614967E+00;  0.0000000E+00; -6.4906001E-02;  7.6830244E+03;
  3.0920200E-02;  9.9999998E-03; -2.9975209E-02;2656;  2.5718284E-01;  0.0000000E+00;  3.5799802E-03;  9.8899640E+02;  1.0000000E-01; -9.1162852E+03;3;  6.9730324E+01;  0.0000000E+00; -8.3163863E-01;0;  1.5007083E+00;  3.9076355E+04;  0.0000000E+00; -8.8062254E-04;  4.0000000E+04;  0.0000000E+00;  4.0053164E+04;  1.5663586E+00;  0.0000000E+00; -6.5650247E-02;  7.5531919E+03;
  3.0911108E-02;  9.9999998E-03; -1.9983564E-02;2657;  2.5757343E-01;  0.0000000E+00;  2.4017128E-03;  9.8905579E+02;  1.0000000E-01; -9.0670518E+03;3;  6.8917694E+01;  0.0000000E+00; -5.8488154E-01;0;  1.5036368E+00;  3.9081590E+04;  0.0000000E+00; -4.4033446E-04;  4.0000000E+04;  0.0000000E+00;  4.0052438E+04;  1.5699195E+00;  0.0000000E+00; -6.6282615E-02;  7.4628013E+03;
  3.0905521E-02;  9.9999998E-03; -9.9918144E-03;2658;  2.5781286E-01;  0.0000000E+00;  1.2055484E-03;  9.8909216E+02;  1.0000000E-01; -9.0369297E+03;3;  6.8426544E+01;  0.0000000E+00; -3.0162105E-01;0;  1.5053915E+00;  3.9084871E+04;  0.0000000E+00; -1.1712221E-04;  4.0000000E+04;  0.0000000E+00;  4.0052035E+04;  1.5720917E+00;  0.0000000E+00; -6.6700183E-02;  7.4097041E+03;
  3.0903637E-02;  9.9999998E-03;  7.1178241E-13;2659;  2.5789359E-01;  0.0000000E+00;  1.0951298E-08;  9.8910449E+02;  1.0000000E-01; -9.0267080E+03;3;  6.8261032E+01;  0.0000000E+00; -3.7333184E-06;0;  1.5059773E+00;  3.9085902E+04;  0.0000000E+00; -6.7361725E-14;  4.0000000E+04;  0.0000000E+00;  4.0051898E+04;  1.5728228E+00;  0.0000000E+00; -6.6845581E-02;  7.3922144E+03;
  3.0905521E-02;  9.9999998E-03;  9.9918144E-03;2660;  2.5781289E-01;  0.0000000E+00; -1.2055265E-03;  9.8909210E+02;  1.0000000E-01; -9.0369785E+03;3;  6.8426537E+01;  0.0000000E+00;  3.0160305E-01;0;  1.5053921E+00;  3.9084871E+04;  0.0000000E+00; -1.1710682E-04;  4.0000000E+04;  0.0000000E+00;  4.0052035E+04;  1.5720923E+00;  0.0000000E+00; -6.6700257E-02;  7.4097046E+03;
  3.0911108E-02;  9.9999998E-03;  1.9983564E-02;2661;  2.5757346E-01;  0.0000000E+00; -2.4016912E-03;  9.8905579E+02;  1.0000000E-01; -9.0670518E+03;3;  6.8918076E+01;  0.0000000E+00;  5.8488172E-01;0;  1.5036374E+00;  3.9081590E+04;  0.0000000E+00; -4.4019253E-04;  4.0000000E+04;  0.0000000E+00;  4.0052438E+04;  1.5699201E+00;  0.0000000E+00; -6.6282645E-02;  7.4627988E+03;
  3.0920200E-02;  9.9999998E-03;  2.9975209E-02;2662;  2.5718287E-01;  0.0000000E+00; -3.5799593E-03;  9.8899640E+02;  1.0000000E-01; -9.1162852E+03;3;  6.9730278E+01;  0.0000000E+00;  8.3164066E-01;0;  1.5007093E+00;  3.9076352E+04;  0.0000000E+00; -8.8036119E-04;  4.0000000E+04;  0.0000000E+00;  4.0053164E+04;  1.5663595E+00;  0.0000000E+00; -6.5650277E-02;  7.5531909E+03;
  3.0932466E-02;  9.9999998E-03;  3.9966706E-02;2663;  2.5665206E-01;  0.0000000E+00; -4.7333972E-03;  9.8891681E+02;  1.0000000E-01; -9.1822090E+03;3;  7.0844666E+01;  0.0000000E+00;  1.0240915E+00;0;  1.4965903E+00;  3.9069117E+04;  0.0000000E+00; -1.2800996E-03;  4.0000000E+04;  0.0000000E+00;  4.0054145E+04;  1.5614964E+00;  0.0000000E+00; -6.4906068E-02;  7.6830229E+03;
  3.0947467E-02;  9.9999998E-03;  4.9958047E-02;2664;  2.5599274E-01;  0.0000000E+00; -5.8571305E-03;  9.8881989E+02;  1.0000000E-01; -9.2625039E+03;3;  7.2234184E+01;  0.0000000E+00;  1.1450305E+00;0;  1.4912562E+00;  3.9060344E+04;  0.0000000E+00; -1.4123979E-03;  4.0000000E+04;  0.0000000E+00;  4.0055461E+04;  1.5554575E+00;  0.0000000E+00; -6.4201273E-02;  7.8537319E+03;
  3.0964442E-02;  9.9999998E-03;  5.9949189E-02;2665;  2.5521427E-01;  0.0000000E+00; -6.9483989E-03;  9.8871063E+02;  1.0000000E-01; -9.3530195E+03;3;  7.3851219E+01;  0.0000000E+00;  1.1781098E+00;0;  1.4846724E+00;  3.9050336E+04;  0.0000000E+00; -1.0111508E-03;  4.0000000E+04;  0.0000000E+00;  4.0057039E+04;  1.5484005E+00;  0.0000000E+00; -6.3728124E-02;  8.0644746E+03;
  4.1160066E-02;  9.9999998E-03; -9.9902608E-02;2710;  2.4885428E-01;  0.0000000E+00;  8.9423032E-03;  9.8859998E+02;  1.0000000E-01; -9.4447207E+03;3;  6.2862514E+01;  0.0000000E+00; -2.1457809E-01;0;  1.1608143E+00;  3.9030211E+04;  0.0000000E+00;  3.2898281E-03;  4.0000000E+04;  0.0000000E+00;  4.0069750E+04;  1.2230213E+00;  0.0000000E+00; -6.2207013E-02;  9.6611133E+03;
  4.1144356E-02;  9.9999998E-03; -8.9914322E-02;2711;  2.5020096E-01;  0.0000000E+00;  8.2553746E-03;  9.8870850E+02;  1.0000000E-01; -9.3547969E+03;3;  6.1312542E+01;  0.0000000E+00; -5.3024679E-01;0;  1.1694740E+00;  3.9041102E+04;  0.0000000E+00;  1.6286724E-03;  4.0000000E+04;  0.0000000E+00;  4.0067293E+04;  1.2294240E+00;  0.0000000E+00; -5.9949983E-02;  9.3490361E+03;
  4.1126102E-02;  9.9999998E-03; -7.9925053E-02;2712;  2.5138983E-01;  0.0000000E+00;  7.5159394E-03;  9.8883093E+02;  1.0000000E-01; -9.2533682E+03;3;  5.9610600E+01;  0.0000000E+00; -7.5234163E-01;0;  1.1776714E+00;  3.9053137E+04;  0.0000000E+00; -2.4839363E-05;  4.0000000E+04;  0.0000000E+00;  4.0064836E+04;  1.2363760E+00;  0.0000000E+00; -5.8704607E-02;  9.0281748E+03;
  4.1106820E-02;  9.9999998E-03; -6.9935143E-02;2713;  2.5244927E-01;  0.0000000E+00;  6.7234356E-03;  9.8895868E+02;  1.0000000E-01; -9.1475439E+03;3;  5.7896584E+01;  0.0000000E+00; -8.8757068E-01;0;  1.1851544E+00;  3.9065309E+04;  0.0000000E+00; -1.2076257E-03;  4.0000000E+04;  0.0000000E+00;  4.0062410E+04;  1.2434858E+00;  0.0000000E+00; -5.8331408E-02;  8.7261787E+03;
  4.1088115E-02;  9.9999998E-03; -5.9944976E-02;2714;  2.5339338E-01;  0.0000000E+00;  5.8794958E-03;  9.8908356E+02;  1.0000000E-01; -9.0440898E+03;3;  5.6281384E+01;  0.0000000E+00; -9.3530005E-01;0;  1.1917551E+00;  3.9077059E+04;  0.0000000E+00; -1.7684414E-03;  4.0000000E+04;  0.0000000E+00;  4.0060426E+04;  1.2503772E+00;  0.0000000E+00; -5.8622126E-02;  8.4601387E+03;
  4.1070931E-02;  9.9999998E-03; -4.9954578E-02;2715;  2.5422376E-01;  0.0000000E+00;  4.9872189E-03;  9.8919849E+02;  1.0000000E-01; -8.9488330E+03;3;  5.4842220E+01;  0.0000000E+00; -9.0422535E-01;0;  1.1973912E+00;  3.9087715E+04;  0.0000000E+00; -1.7789120E-03;  4.0000000E+04;  0.0000000E+00;  4.0058699E+04;  1.2567286E+00;  0.0000000E+00; -5.9337493E-02;  8.2384521E+03;
  4.1056108E-02;  9.9999998E-03; -3.9963976E-02;2716;  2.5493267E-01;  0.0000000E+00;  4.0506972E-03;  9.8929895E+02;  1.0000000E-01; -8.8656260E+03;3;  5.3624737E+01;  0.0000000E+00; -8.0590856E-01;0;  1.2020260E+00;  3.9096801E+04;  0.0000000E+00; -1.4269244E-03;  4.0000000E+04;  0.0000000E+00;  4.0057359E+04;  1.2622689E+00;  0.0000000E+00; -6.0242876E-02;  8.0632578E+03;
  4.1044232E-02;  9.9999998E-03; -2.9973181E-02;2717;  2.5550675E-01;  0.0000000E+00;  3.0754509E-03;  9.8938019E+02;  1.0000000E-01; -8.7983193E+03;3;  5.2661827E+01;  0.0000000E+00; -6.5296143E-01;0;  1.2056479E+00;  3.9104180E+04;  0.0000000E+00; -9.2387915E-04;  4.0000000E+04;  0.0000000E+00;  4.0056496E+04;  1.2667855E+00;  0.0000000E+00; -6.1137497E-02;  7.9327080E+03;
  4.1035578E-02;  9.9999998E-03; -1.9982211E-02;2718;  2.5593087E-01;  0.0000000E+00;  2.0688539E-03;  9.8944055E+02;  1.0000000E-01; -8.7482959E+03;3;  5.1964230E+01;  0.0000000E+00; -4.5858851E-01;0;  1.2082512E+00;  3.9109555E+04;  0.0000000E+00; -4.4686379E-04;  4.0000000E+04;  0.0000000E+00;  4.0055867E+04;  1.2701223E+00;  0.0000000E+00; -6.1870992E-02;  7.8432642E+03;
  4.1030347E-02;  9.9999998E-03; -9.9911299E-03;2719;  2.5619152E-01;  0.0000000E+00;  1.0401466E-03;  9.8947729E+02;  1.0000000E-01; -8.7178770E+03;3;  5.1544292E+01;  0.0000000E+00; -2.3633194E-01;0;  1.2098217E+00;  3.9112750E+04;  0.0000000E+00; -1.1683669E-04;  4.0000000E+04;  0.0000000E+00;  4.0055480E+04;  1.2721674E+00;  0.0000000E+00; -6.2345758E-02;  7.7913110E+03;
  4.1028589E-02;  9.9999998E-03; -3.2601771E-12;2720;  2.5627947E-01;  0.0000000E+00;  7.6017930E-09;  9.8948975E+02;  1.0000000E-01; -8.7075566E+03;3;  5.1403641E+01;  0.0000000E+00; -6.6674493E-06;0;  1.2103465E+00;  3.9113871E+04;  0.0000000E+00; -4.3290740E-13;  4.0000000E+04;  0.0000000E+00;  4.0055352E+04;  1.2728560E+00;  0.0000000E+00; -6.2509522E-02;  7.7742949E+03;
  4.1030347E-02;  9.9999998E-03;  9.9911299E-03;2721;  2.5619152E-01;  0.0000000E+00; -1.0401319E-03;  9.8947723E+02;  1.0000000E-01; -8.7179268E+03;3;  5.1544762E+01;  0.0000000E+00;  2.3631644E-01;0;  1.2098218E+00;  3.9112750E+04;  0.0000000E+00; -1.1680690E-04;  4.0000000E+04;  0.0000000E+00;  4.0055480E+04;  1.2721676E+00;  0.0000000E+00; -6.2345739E-02;  7.7913086E+03;
  4.1035578E-02;  9.9999998E-03;  1.9982211E-02;2722;  2.5593090E-01;  0.0000000E+00; -2.0688397E-03;  9.8944055E+02;  1.0000000E-01; -8.7482959E+03;3;  5.1964531E+01;  0.0000000E+00;  4.5858282E-01;0;  1.2082502E+00;  3.9109555E+04;  0.0000000E+00; -4.4678253E-04;  4.0000000E+04;  0.0000000E+00;  4.0055867E+04;  1.2701211E+00;  0.0000000E+00; -6.1870929E-02;  7.8432632E+03;
  4.1044232E-02;  9.9999998E-03;  2.9973181E-02;2723;  2.5550681E-01;  0.0000000E+00; -3.0754393E-03;  9.8938019E+02;  1.0000000E-01; -8.7983193E+03;3;  5.2661350E+01;  0.0000000E+00;  6.5295482E-01;0;  1.2056468E+00;  3.9104180E+04;  0.0000000E+00; -9.2376722E-04;  4.0000000E+04;  0.0000000E+00;  4.0056496E+04;  1.2667843E+00;  0.0000000E+00; -6.1137538E-02;  7.9327075E+03;
  4.1056108E-02;  9.9999998E-03;  3.9963976E-02;2724;  2.5493270E-01;  0.0000000E+00; -4.0506856E-03;  9.8929895E+02;  1.0000000E-01; -8.8656260E+03;3;  5.3624580E+01;  0.0000000E+00;  8.0592370E-01;0;  1.2020261E+00;  3.9096801E+04;  0.0000000E+00; -1.4268197E-03;  4.0000000E+04;  0.0000000E+00;  4.0057359E+04;  1.2622690E+00;  0.0000000E+00; -6.0242858E-02;  8.0632559E+03;
  4.1070927E-02;  9.9999998E-03;  4.9954578E-02;2725;  2.5422385E-01;  0.0000000E+00; -4.9872100E-03;  9.8919849E+02;  1.0000000E-01; -8.9488330E+03;3;  5.4841679E+01;  0.0000000E+00;  9.0422517E-01;0;  1.1973920E+00;  3.9087715E+04;  0.0000000E+00; -1.7788380E-03;  4.0000000E+04;  0.0000000E+00;  4.0058699E+04;  1.2567295E+00;  0.0000000E+00; -5.9337500E-02;  8.2384512E+03;
  4.1088112E-02;  9.9999998E-03;  5.9944976E-02;2726;  2.5339347E-01;  0.0000000E+00; -5.8794897E-03;  9.8908356E+02;  1.0000000E-01; -9.0440898E+03;3;  5.6281643E+01;  0.0000000E+00;  9.3527925E-01;0;  1.1917559E+00;  3.9077066E+04;  0.0000000E+00; -1.7683152E-03;  4.0000000E+04;  0.0000000E+00;  4.0060426E+04;  1.2503780E+00;  0.0000000E+00; -5.8622178E-02;  8.4601348E+03;
  5.1283114E-02;  9.9999998E-03; -9.9899210E-02;2771;  2.4683423E-01;  0.0000000E+00;  6.9992659E-03;  9.8916858E+02;  1.0000000E-01; -8.9736230E+03;3;  4.3166458E+01;  0.0000000E+00; -1.7494732E-01;0;  8.8084853E-01;  3.9072844E+04;  0.0000000E+00; -1.8278952E-04;  4.0000000E+04;  0.0000000E+00;  4.0072590E+04;  9.3453872E-01;  0.0000000E+00; -5.3690206E-02;  9.9680322E+03;
  5.1263444E-02;  9.9999998E-03; -8.9910768E-02;2772;  2.4821129E-01;  0.0000000E+00;  6.5564192E-03;  9.8930243E+02;  1.0000000E-01; -8.8627119E+03;3;  4.1628796E+01;  0.0000000E+00; -4.0017584E-01;0;  8.8724297E-01;  3.9086117E+04;  0.0000000E+00; -7.3408149E-04;  4.0000000E+04;  0.0000000E+00;  4.0069633E+04;  9.3871754E-01;  0.0000000E+00; -5.1474575E-02;  9.5913057E+03;
  5.1241867E-02;  9.9999998E-03; -7.9921618E-02;2773;  2.4944718E-01;  0.0000000E+00;  6.0462598E-03;  9.8944159E+02;  1.0000000E-01; -8.7474561E+03;3;  4.0052433E+01;  0.0000000E+00; -5.6090283E-01;0;  8.9366877E-01;  3.9099828E+04;  0.0000000E+00; -1.4018929E-03;  4.0000000E+04;  0.0000000E+00;  4.0066816E+04;  9.4405389E-01;  0.0000000E+00; -5.0385088E-02;  9.2268008E+03;
  5.1220179E-02;  9.9999998E-03; -6.9932088E-02;2774;  2.5056455E-01;  0.0000000E+00;  5.4691536E-03;  9.8958234E+02;  1.0000000E-01; -8.6308174E+03;3;  3.8525620E+01;  0.0000000E+00; -6.5587664E-01;0;  8.9977956E-01;  3.9113219E+04;  0.0000000E+00; -1.8514555E-03;  4.0000000E+04;  0.0000000E+00;  4.0064320E+04;  9.4999260E-01;  0.0000000E+00; -5.0213058E-02;  8.8987656E+03;
  5.1199816E-02;  9.9999998E-03; -5.9942342E-02;2775;  2.5157219E-01;  0.0000000E+00;  4.8282491E-03;  9.8971649E+02;  1.0000000E-01; -8.5197100E+03;3;  3.7126755E+01;  0.0000000E+00; -6.8736756E-01;0;  9.0534407E-01;  3.9125703E+04;  0.0000000E+00; -1.9481431E-03;  4.0000000E+04;  0.0000000E+00;  4.0062180E+04;  9.5604211E-01;  0.0000000E+00; -5.0698046E-02;  8.6201592E+03;
  5.1181749E-02;  9.9999998E-03; -4.9952373E-02;2776;  2.5246656E-01;  0.0000000E+00;  4.1280459E-03;  9.8983472E+02;  1.0000000E-01; -8.4217373E+03;3;  3.5916080E+01;  0.0000000E+00; -6.6275686E-01;0;  9.1022283E-01;  3.9136754E+04;  0.0000000E+00; -1.7216641E-03;  4.0000000E+04;  0.0000000E+00;  4.0060477E+04;  9.6179223E-01;  0.0000000E+00; -5.1569417E-02;  8.3952314E+03;
  5.1166665E-02;  9.9999998E-03; -3.9962217E-02;2777;  2.5323525E-01;  0.0000000E+00;  3.3743980E-03;  9.8993695E+02;  1.0000000E-01; -8.3370479E+03;3;  3.4904419E+01;  0.0000000E+00; -5.8989108E-01;0;  9.1432679E-01;  3.9146004E+04;  0.0000000E+00; -1.2930399E-03;  4.0000000E+04;  0.0000000E+00;  4.0059109E+04;  9.6690708E-01;  0.0000000E+00; -5.2580304E-02;  8.2222549E+03;
  5.1154822E-02;  9.9999998E-03; -2.9971872E-02;2778;  2.5386077E-01;  0.0000000E+00;  2.5746922E-03;  9.9001990E+02;  1.0000000E-01; -8.2683096E+03;3;  3.4108910E+01;  0.0000000E+00; -4.7771803E-01;0;  9.1760051E-01;  3.9153379E+04;  0.0000000E+00; -8.0623804E-04;  4.0000000E+04;  0.0000000E+00;  4.0058152E+04;  9.7113460E-01;  0.0000000E+00; -5.3534098E-02;  8.0963633E+03;
  5.1146343E-02;  9.9999998E-03; -1.9981369E-02;2779;  2.5432444E-01;  0.0000000E+00;  1.7381134E-03;  9.9007971E+02;  1.0000000E-01; -8.2187803E+03;3;  3.3542618E+01;  0.0000000E+00; -3.3531958E-01;0;  9.1999292E-01;  3.9158781E+04;  0.0000000E+00; -3.8139281E-04;  4.0000000E+04;  0.0000000E+00;  4.0057500E+04;  9.7428662E-01;  0.0000000E+00; -5.4293670E-02;  8.0117178E+03;
  5.1141292E-02;  9.9999998E-03; -9.9907303E-03;2780;  2.5460982E-01;  0.0000000E+00;  8.7570376E-04;  9.9011584E+02;  1.0000000E-01; -8.1888550E+03;3;  3.3203438E+01;  0.0000000E+00; -1.7266758E-01;0;  9.2145234E-01;  3.9161949E+04;  0.0000000E+00; -9.8530050E-05;  4.0000000E+04;  0.0000000E+00;  4.0057137E+04;  9.7622883E-01;  0.0000000E+00; -5.4776493E-02;  7.9631973E+03;
  5.1139638E-02;  9.9999998E-03;  3.4939179E-13;2781;  2.5470620E-01;  0.0000000E+00;  4.2883723E-09;  9.9012885E+02;  1.0000000E-01; -8.1780405E+03;3;  3.3086948E+01;  0.0000000E+00; -3.1356685E-06;0;  9.2194337E-01;  3.9163020E+04;  0.0000000E+00; -3.5166347E-13;  4.0000000E+04;  0.0000000E+00;  4.0057004E+04;  9.7688484E-01;  0.0000000E+00; -5.4941487E-02;  7.9474160E+03;
  5.1141292E-02;  9.9999998E-03;  9.9907303E-03;2782;  2.5460982E-01;  0.0000000E+00; -8.7569619E-04;  9.9011591E+02;  1.0000000E-01; -8.1888057E+03;3;  3.3202934E+01;  0.0000000E+00;  1.7265421E-01;0;  9.2145264E-01;  3.9161949E+04;  0.0000000E+00; -9.8515258E-05;  4.0000000E+04;  0.0000000E+00;  4.0057137E+04;  9.7622913E-01;  0.0000000E+00; -5.4776508E-02;  7.9631938E+03;
  5.1146343E-02;  9.9999998E-03;  1.9981369E-02;2783;  2.5432447E-01;  0.0000000E+00; -1.7381072E-03;  9.9007977E+02;  1.0000000E-01; -8.2187305E+03;3;  3.3542370E+01;  0.0000000E+00;  3.3532116E-01;0;  9.1999286E-01;  3.9158777E+04;  0.0000000E+00; -3.8141292E-04;  4.0000000E+04;  0.0000000E+00;  4.0057500E+04;  9.7428650E-01;  0.0000000E+00; -5.4293651E-02;  8.0117148E+03;
  5.1154822E-02;  9.9999998E-03;  2.9971872E-02;2784;  2.5386080E-01;  0.0000000E+00; -2.5746869E-03;  9.9001990E+02;  1.0000000E-01; -8.2683096E+03;3;  3.4109089E+01;  0.0000000E+00;  4.7771946E-01;0;  9.1760105E-01;  3.9153383E+04;  0.0000000E+00; -8.0624496E-04;  4.0000000E+04;  0.0000000E+00;  4.0058152E+04;  9.7113520E-01;  0.0000000E+00; -5.3534131E-02;  8.0963608E+03;
  5.1166665E-02;  9.9999998E-03;  3.9962217E-02;2785;  2.5323531E-01;  0.0000000E+00; -3.3743933E-03;  9.8993695E+02;  1.0000000E-01; -8.3370479E+03;3;  3.4904232E+01;  0.0000000E+00;  5.8990633E-01;0;  9.1432679E-01;  3.9146008E+04;  0.0000000E+00; -1.2928370E-03;  4.0000000E+04;  0.0000000E+00;  4.0059113E+04;  9.6690708E-01;  0.0000000E+00; -5.2580290E-02;  8.2222549E+03;
  5.1181749E-02;  9.9999998E-03;  4.9952373E-02;2786;  2.5246662E-01;  0.0000000E+00; -4.1280435E-03;  9.8983472E+02;  1.0000000E-01; -8.4217373E+03;3;  3.5915630E+01;  0.0000000E+00;  6.6276830E-01;0;  9.1022295E-01;  3.9136754E+04;  0.0000000E+00; -1.7215501E-03;  4.0000000E+04;  0.0000000E+00;  4.0060477E+04;  9.6179235E-01;  0.0000000E+00; -5.1569380E-02;  8.3952295E+03;
  5.1199812E-02;  9.9999998E-03;  5.9942342E-02;2787;  2.5157228E-01;  0.0000000E+00; -4.8282510E-03;  9.8971649E+02;  1.0000000E-01; -8.5197100E+03;3;  3.7126461E+01;  0.0000000E+00;  6.8738097E-01;0;  9.0534371E-01;  3.9125703E+04;  0.0000000E+00; -1.9479058E-03;  4.0000000E+04;  0.0000000E+00;  4.0062180E+04;  9.5604187E-01;  0.0000000E+00; -5.0698154E-02;  8.6201562E+03;
  6.1400689E-02;  9.9999998E-03; -9.9898726E-02;2832;  2.4482043E-01;  0.0000000E+00;  5.1623071E-03;  9.8996375E+02;  1.0000000E-01; -8.3148262E+03;3;  2.4091202E+01;  0.0000000E+00; -9.6279383E-02;0;  6.2630266E-01;  3.9135164E+04;  0.0000000E+00; -2.0719641E-03;  4.0000000E+04;  0.0000000E+00;  4.0073195E+04;  6.6937816E-01;  0.0000000E+00; -4.3075524E-02;  9.9883848E+03;
  6.1375394E-02;  9.9999998E-03; -8.9909956E-02;2833;  2.4623689E-01;  0.0000000E+00;  4.9308115E-03;  9.9011725E+02;  1.0000000E-01; -8.1876694E+03;3;  2.2696379E+01;  0.0000000E+00; -2.3460707E-01;0;  6.3110864E-01;  3.9150512E+04;  0.0000000E+00; -1.8333195E-03;  4.0000000E+04;  0.0000000E+00;  4.0069867E+04;  6.7198485E-01;  0.0000000E+00; -4.0876180E-02;  9.5523691E+03;
  6.1349064E-02;  9.9999998E-03; -7.9920642E-02;2834;  2.4753059E-01;  0.0000000E+00;  4.6266979E-03;  9.9027075E+02;  1.0000000E-01; -8.0605127E+03;3;  2.1327047E+01;  0.0000000E+00; -3.4175685E-01;0;  6.3633108E-01;  3.9165547E+04;  0.0000000E+00; -1.7427636E-03;  4.0000000E+04;  0.0000000E+00;  4.0066766E+04;  6.7621374E-01;  0.0000000E+00; -3.9882682E-02;  9.1524648E+03;
  6.1323822E-02;  9.9999998E-03; -6.9931045E-02;2835;  2.4871686E-01;  0.0000000E+00;  4.2481851E-03;  9.9041852E+02;  1.0000000E-01; -7.9380967E+03;3;  2.0050079E+01;  0.0000000E+00; -4.0849766E-01;0;  6.4156789E-01;  3.9179688E+04;  0.0000000E+00; -1.6537273E-03;  4.0000000E+04;  0.0000000E+00;  4.0064090E+04;  6.8138385E-01;  0.0000000E+00; -3.9815966E-02;  8.8078691E+03;
  6.1300982E-02;  9.9999998E-03; -5.9941262E-02;2836;  2.4979858E-01;  0.0000000E+00;  3.7983176E-03;  9.9055646E+02;  1.0000000E-01; -7.8237788E+03;3;  1.8908434E+01;  0.0000000E+00; -4.3344975E-01;0;  6.4654040E-01;  3.9192566E+04;  0.0000000E+00; -1.4714573E-03;  4.0000000E+04;  0.0000000E+00;  4.0061844E+04;  6.8691051E-01;  0.0000000E+00; -4.0370107E-02;  8.5261904E+03;
  6.1281405E-02;  9.9999998E-03; -4.9951363E-02;2837;  2.5076693E-01;  0.0000000E+00;  3.2820592E-03;  9.9067859E+02;  1.0000000E-01; -7.7225962E+03;3;  1.7930483E+01;  0.0000000E+00; -4.2150721E-01;0;  6.5105861E-01;  3.9203707E+04;  0.0000000E+00; -1.1841999E-03;  4.0000000E+04;  0.0000000E+00;  4.0060191E+04;  6.9231242E-01;  0.0000000E+00; -4.1253801E-02;  8.3065166E+03;
  6.1265402E-02;  9.9999998E-03; -3.9961368E-02;2838;  2.5160444E-01;  0.0000000E+00;  2.7059834E-03;  9.9078058E+02;  1.0000000E-01; -7.6381050E+03;3;  1.7130257E+01;  0.0000000E+00; -3.7753826E-01;0;  6.5498710E-01;  3.9212945E+04;  0.0000000E+00; -8.4030762E-04;  4.0000000E+04;  0.0000000E+00;  4.0059074E+04;  6.9721085E-01;  0.0000000E+00; -4.2223755E-02;  8.1428569E+03;
  6.1253078E-02;  9.9999998E-03; -2.9971253E-02;2839;  2.5228861E-01;  0.0000000E+00;  2.0783057E-03;  9.9086157E+02;  1.0000000E-01; -7.5709956E+03;3;  1.6507999E+01;  0.0000000E+00; -3.0704349E-01;0;  6.5820736E-01;  3.9220176E+04;  0.0000000E+00; -5.0498673E-04;  4.0000000E+04;  0.0000000E+00;  4.0058289E+04;  7.0131028E-01;  0.0000000E+00; -4.3102894E-02;  8.0270254E+03;
  6.1244432E-02;  9.9999998E-03; -1.9980986E-02;2840;  2.5279745E-01;  0.0000000E+00;  1.4095833E-03;  9.9092114E+02;  1.0000000E-01; -7.5216636E+03;3;  1.6061253E+01;  0.0000000E+00; -2.1711226E-01;0;  6.6061020E-01;  3.9225375E+04;  0.0000000E+00; -2.3321841E-04;  4.0000000E+04;  0.0000000E+00;  4.0057688E+04;  7.0439190E-01;  0.0000000E+00; -4.3781675E-02;  7.9509111E+03;
  6.1239298E-02;  9.9999998E-03; -9.9905571E-03;2841;  2.5311193E-01;  0.0000000E+00;  7.1225921E-04;  9.9095685E+02;  1.0000000E-01; -7.4920845E+03;3;  1.5797150E+01;  0.0000000E+00; -1.1208995E-01;0;  6.6209763E-01;  3.9228508E+04;  0.0000000E+00; -5.9429254E-05;  4.0000000E+04;  0.0000000E+00;  4.0057344E+04;  7.0630151E-01;  0.0000000E+00; -4.4203900E-02;  7.9079790E+03;
  6.1237592E-02;  9.9999998E-03;  1.4996555E-12;2842;  2.5321850E-01;  0.0000000E+00;  6.7050665E-10;  9.9096912E+02;  1.0000000E-01; -7.4819116E+03;3;  1.5710974E+01;  0.0000000E+00; -1.1323686E-05;0;  6.6260242E-01;  3.9229500E+04;  0.0000000E+00;  1.8206634E-13;  4.0000000E+04;  0.0000000E+00;  4.0057258E+04;  7.0694906E-01;  0.0000000E+00; -4.4346604E-02;  7.8941484E+03;
  6.1239298E-02;  9.9999998E-03;  9.9905571E-03;2843;  2.5311196E-01;  0.0000000E+00; -7.1225880E-04;  9.9095685E+02;  1.0000000E-01; -7.4920845E+03;3;  1.5797420E+01;  0.0000000E+00;  1.1209436E-01;0;  6.6209793E-01;  3.9228508E+04;  0.0000000E+00; -5.9432441E-05;  4.0000000E+04;  0.0000000E+00;  4.0057344E+04;  7.0630187E-01;  0.0000000E+00; -4.4203937E-02;  7.9079761E+03;
  6.1244428E-02;  9.9999998E-03;  1.9980986E-02;2844;  2.5279748E-01;  0.0000000E+00; -1.4095840E-03;  9.9092114E+02;  1.0000000E-01; -7.5216636E+03;3;  1.6061769E+01;  0.0000000E+00;  2.1711758E-01;0;  6.6060978E-01;  3.9225375E+04;  0.0000000E+00; -2.3315383E-04;  4.0000000E+04;  0.0000000E+00;  4.0057688E+04;  7.0439148E-01;  0.0000000E+00; -4.3781690E-02;  7.9509141E+03;
  6.1253078E-02;  9.9999998E-03;  2.9971253E-02;2845;  2.5228870E-01;  0.0000000E+00; -2.0783073E-03;  9.9086157E+02;  1.0000000E-01; -7.5709956E+03;3;  1.6508217E+01;  0.0000000E+00;  3.0704746E-01;0;  6.5820724E-01;  3.9220176E+04;  0.0000000E+00; -5.0499028E-04;  4.0000000E+04;  0.0000000E+00;  4.0058289E+04;  7.0131016E-01;  0.0000000E+00; -4.3102928E-02;  8.0270239E+03;
  6.1265402E-02;  9.9999998E-03;  3.9961368E-02;2846;  2.5160447E-01;  0.0000000E+00; -2.7059861E-03;  9.9078058E+02;  1.0000000E-01; -7.6381050E+03;3;  1.7130125E+01;  0.0000000E+00;  3.7754855E-01;0;  6.5498674E-01;  3.9212945E+04;  0.0000000E+00; -8.4008457E-04;  4.0000000E+04;  0.0000000E+00;  4.0059074E+04;  6.9721043E-01;  0.0000000E+00; -4.2223707E-02;  8.1428599E+03;
  6.1281402E-02;  9.9999998E-03;  4.9951363E-02;2847;  2.5076696E-01;  0.0000000E+00; -3.2820634E-03;  9.9067859E+02;  1.0000000E-01; -7.7225962E+03;3;  1.7930620E+01;  0.0000000E+00;  4.2151794E-01;0;  6.5105909E-01;  3.9203707E+04;  0.0000000E+00; -1.1846396E-03;  4.0000000E+04;  0.0000000E+00;  4.0060191E+04;  6.9231284E-01;  0.0000000E+00; -4.1253772E-02;  8.3065127E+03;
  6.1300982E-02;  9.9999998E-03;  5.9941262E-02;2848;  2.4979863E-01;  0.0000000E+00; -3.7983237E-03;  9.9055646E+02;  1.0000000E-01; -7.8237788E+03;3;  1.8908737E+01;  0.0000000E+00;  4.3348747E-01;0;  6.4654112E-01;  3.9192570E+04;  0.0000000E+00; -1.4712510E-03;  4.0000000E+04;  0.0000000E+00;  4.0061844E+04;  6.8691117E-01;  0.0000000E+00; -4.0370066E-02;  8.5261836E+03;
  7.1516201E-02;  9.9999998E-03; -9.9901654E-02;2893;  2.4286178E-01;  0.0000000E+00;  3.4479501E-03;  9.9094006E+02;  1.0000000E-01; -7.5060098E+03;3;  7.5399394E+00;  0.0000000E+00;  1.4085630E-01;0;  4.1125116E-01;  3.9213852E+04;  0.0000000E+00; -2.6981016E-03;  4.0000000E+04;  0.0000000E+00;  4.0071617E+04;  4.4227272E-01;  0.0000000E+00; -3.1021560E-02;  9.7083203E+03;
  7.1484476E-02;  9.9999998E-03; -8.9912027E-02;2894;  2.4432424E-01;  0.0000000E+00;  3.4003160E-03;  9.9110815E+02;  1.0000000E-01; -7.3667051E+03;3;  6.3497062E+00;  0.0000000E+00;  4.0862173E-02;0;  4.1538495E-01;  3.9230531E+04;  0.0000000E+00; -1.8526558E-03;  4.0000000E+04;  0.0000000E+00;  4.0067840E+04;  4.4416976E-01;  0.0000000E+00; -2.8784823E-02;  9.2225264E+03;
  7.1452893E-02;  9.9999998E-03; -7.9921983E-02;2895;  2.4568316E-01;  0.0000000E+00;  3.2741397E-03;  9.9126819E+02;  1.0000000E-01; -7.2341162E+03;3;  5.2336178E+00;  0.0000000E+00; -4.8085697E-02;0;  4.2020828E-01;  3.9246445E+04;  0.0000000E+00; -1.1390379E-03;  4.0000000E+04;  0.0000000E+00;  4.0064555E+04;  4.4799435E-01;  0.0000000E+00; -2.7786085E-02;  8.7984131E+03;
  7.1423523E-02;  9.9999998E-03; -6.9931753E-02;2896;  2.4694808E-01;  0.0000000E+00;  3.0714017E-03;  9.9141998E+02;  1.0000000E-01; -7.1083916E+03;3;  4.2218723E+00;  0.0000000E+00; -1.1415313E-01;0;  4.2529237E-01;  3.9260852E+04;  0.0000000E+00; -6.4619788E-04;  4.0000000E+04;  0.0000000E+00;  4.0061867E+04;  4.5297408E-01;  0.0000000E+00; -2.7681703E-02;  8.4486816E+03;
  7.1397744E-02;  9.9999998E-03; -5.9941564E-02;2897;  2.4811389E-01;  0.0000000E+00;  2.7941966E-03;  9.9155658E+02;  1.0000000E-01; -6.9952095E+03;3;  3.3350799E+00;  0.0000000E+00; -1.5445401E-01;0;  4.3032366E-01;  3.9273691E+04;  0.0000000E+00; -3.3311779E-04;  4.0000000E+04;  0.0000000E+00;  4.0059777E+04;  4.5845428E-01;  0.0000000E+00; -2.8130628E-02;  8.1743672E+03;
  7.1376108E-02;  9.9999998E-03; -4.9951468E-02;2898;  2.4916546E-01;  0.0000000E+00;  2.4488219E-03;  9.9167603E+02;  1.0000000E-01; -6.8962495E+03;3;  2.5854647E+00;  0.0000000E+00; -1.7165534E-01;0;  4.3506631E-01;  3.9284562E+04;  0.0000000E+00; -1.4601971E-04;  4.0000000E+04;  0.0000000E+00;  4.0058266E+04;  4.6390313E-01;  0.0000000E+00; -2.8836811E-02;  7.9688218E+03;
  7.1358792E-02;  9.9999998E-03; -3.9961413E-02;2899;  2.5007966E-01;  0.0000000E+00;  2.0425001E-03;  9.9177509E+02;  1.0000000E-01; -6.8141777E+03;3;  1.9763328E+00;  0.0000000E+00; -1.6642329E-01;0;  4.3932158E-01;  3.9293500E+04;  0.0000000E+00; -4.5040917E-05;  4.0000000E+04;  0.0000000E+00;  4.0057121E+04;  4.6889910E-01;  0.0000000E+00; -2.9577516E-02;  7.8214243E+03;
  7.1345612E-02;  9.9999998E-03; -2.9971264E-02;2900;  2.5082988E-01;  0.0000000E+00;  1.5830171E-03;  9.9185461E+02;  1.0000000E-01; -6.7483027E+03;3;  1.4970242E+00;  0.0000000E+00; -1.4310285E-01;0;  4.4290295E-01;  3.9300293E+04;  0.0000000E+00; -1.6788911E-06;  4.0000000E+04;  0.0000000E+00;  4.0056387E+04;  4.7311643E-01;  0.0000000E+00; -3.0213472E-02;  7.7206924E+03;
  7.1336433E-02;  9.9999998E-03; -1.9980997E-02;2901;  2.5138992E-01;  0.0000000E+00;  1.0808430E-03;  9.9190979E+02;  1.0000000E-01; -6.7025757E+03;3;  1.1630884E+00;  0.0000000E+00; -1.0388662E-01;0;  4.4562691E-01;  3.9305180E+04;  0.0000000E+00;  7.5609310E-06;  4.0000000E+04;  0.0000000E+00;  4.0055875E+04;  4.7630548E-01;  0.0000000E+00; -3.0678557E-02;  7.6564214E+03;
  7.1331017E-02;  9.9999998E-03; -9.9905645E-03;2902;  2.5173616E-01;  0.0000000E+00;  5.4796186E-04;  9.9194391E+02;  1.0000000E-01; -6.6743296E+03;3;  9.5733100E-01;  0.0000000E+00; -5.4711707E-02;0;  4.4733551E-01;  3.9308145E+04;  0.0000000E+00;  3.2152693E-06;  4.0000000E+04;  0.0000000E+00;  4.0055605E+04;  4.7829065E-01;  0.0000000E+00; -3.0955149E-02;  7.6209482E+03;
  7.1329229E-02;  9.9999998E-03; -4.3431557E-11;2903;  2.5185296E-01;  0.0000000E+00; -3.5133403E-09;  9.9195471E+02;  1.0000000E-01; -6.6653916E+03;3;  8.8261449E-01;  0.0000000E+00;  4.9412320E-06;0;  4.4791830E-01;  3.9309062E+04;  0.0000000E+00;  4.3427246E-13;  4.0000000E+04;  0.0000000E+00;  4.0055562E+04;  4.7896451E-01;  0.0000000E+00; -3.1046199E-02;  7.6096372E+03;
  7.1331017E-02;  9.9999998E-03;  9.9905645E-03;2904;  2.5173616E-01;  0.0000000E+00; -5.4796995E-04;  9.9194391E+02;  1.0000000E-01; -6.6743296E+03;3;  9.5757115E-01;  0.0000000E+00;  5.4718103E-02;0;  4.4733593E-01;  3.9308145E+04;  0.0000000E+00;  3.1770535E-06;  4.0000000E+04;  0.0000000E+00;  4.0055605E+04;  4.7829109E-01;  0.0000000E+00; -3.0955154E-02;  7.6209492E+03;
  7.1336433E-02;  9.9999998E-03;  1.9980997E-02;2905;  2.5138995E-01;  0.0000000E+00; -1.0808513E-03;  9.9190979E+02;  1.0000000E-01; -6.7025757E+03;3;  1.1630590E+00;  0.0000000E+00;  1.0389343E-01;0;  4.4562718E-01;  3.9305184E+04;  0.0000000E+00;  7.5037306E-06;  4.0000000E+04;  0.0000000E+00;  4.0055875E+04;  4.7630572E-01;  0.0000000E+00; -3.0678527E-02;  7.6564248E+03;
  7.1345612E-02;  9.9999998E-03;  2.9971264E-02;2906;  2.5082991E-01;  0.0000000E+00; -1.5830273E-03;  9.9185461E+02;  1.0000000E-01; -6.7483027E+03;3;  1.4966730E+00;  0.0000000E+00;  1.4309236E-01;0;  4.4290334E-01;  3.9300293E+04;  0.0000000E+00; -1.6899032E-06;  4.0000000E+04;  0.0000000E+00;  4.0056387E+04;  4.7311676E-01;  0.0000000E+00; -3.0213425E-02;  7.7206924E+03;
  7.1358785E-02;  9.9999998E-03;  3.9961413E-02;2907;  2.5007972E-01;  0.0000000E+00; -2.0425126E-03;  9.9177509E+02;  1.0000000E-01; -6.8141777E+03;3;  1.9768494E+00;  0.0000000E+00;  1.6642785E-01;0;  4.3932173E-01;  3.9293500E+04;  0.0000000E+00; -4.5140925E-05;  4.0000000E+04;  0.0000000E+00;  4.0057121E+04;  4.6889922E-01;  0.0000000E+00; -2.9577503E-02;  7.8214229E+03;
  7.1376108E-02;  9.9999998E-03;  4.9951468E-02;2908;  2.4916551E-01;  0.0000000E+00; -2.4488333E-03;  9.9167603E+02;  1.0000000E-01; -6.8962495E+03;3;  2.5852890E+00;  0.0000000E+00;  1.7166948E-01;0;  4.3506673E-01;  3.9284566E+04;  0.0000000E+00; -1.4638001E-04;  4.0000000E+04;  0.0000000E+00;  4.0058266E+04;  4.6390349E-01;  0.0000000E+00; -2.8836761E-02;  7.9688198E+03;
  7.1397744E-02;  9.9999998E-03;  5.9941564E-02;2909;  2.4811396E-01;  0.0000000E+00; -2.7942092E-03;  9.9155658E+02;  1.0000000E-01; -6.9952095E+03;3;  3.3351283E+00;  0.0000000E+00;  1.5447541E-01;0;  4.3032375E-01;  3.9273691E+04;  0.0000000E+00; -3.3348450E-04;  4.0000000E+04;  0.0000000E+00;  4.0059777E+04;  4.5845437E-01;  0.0000000E+00; -2.8130615E-02;  8.1743667E+03;
  8.1636928E-02;  9.9999998E-03; -9.9908352E-02;2954;  2.4098068E-01;  0.0000000E+00;  1.8987452E-03;  9.9204663E+02;  1.0000000E-01; -6.5891958E+03;3; -5.4466443E+00;  0.0000000E+00;  4.3790182E-01;0;  2.4413016E-01;  3.9304824E+04;  0.0000000E+00; -2.7461953E-03;  4.0000000E+04;  0.0000000E+00;  4.0067812E+04;  2.6229241E-01;  0.0000000E+00; -1.8162258E-02;  9.1317686E+03;
  8.1599966E-02;  9.9999998E-03; -8.9917205E-02;2955;  2.4249445E-01;  0.0000000E+00;  2.0354686E-03;  9.9221912E+02;  1.0000000E-01; -6.4463359E+03;3; -6.4028091E+00;  0.0000000E+00;  3.7293535E-01;0;  2.4868722E-01;  3.9322395E+04;  0.0000000E+00; -1.1980854E-03;  4.0000000E+04;  0.0000000E+00;  4.0063637E+04;  2.6450226E-01;  0.0000000E+00; -1.5815040E-02;  8.6092236E+03;
  8.1563674E-02;  9.9999998E-03; -7.9925813E-02;2956;  2.4392709E-01;  0.0000000E+00;  2.0666742E-03;  9.9238336E+02;  1.0000000E-01; -6.3102407E+03;3; -7.2752986E+00;  0.0000000E+00;  2.9197761E-01;0;  2.5409785E-01;  3.9338438E+04;  0.0000000E+00;  1.7540203E-04;  4.0000000E+04;  0.0000000E+00;  4.0060250E+04;  2.6878092E-01;  0.0000000E+00; -1.4683066E-02;  8.1744502E+03;
  8.1530549E-02;  9.9999998E-03; -6.9934599E-02;2957;  2.4527971E-01;  0.0000000E+00;  2.0037678E-03;  9.9253186E+02;  1.0000000E-01; -6.1872319E+03;3; -8.0457134E+00;  0.0000000E+00;  2.0987286E-01;0;  2.5992274E-01;  3.9352770E+04;  0.0000000E+00;  1.0440645E-03;  4.0000000E+04;  0.0000000E+00;  4.0057523E+04;  2.7428970E-01;  0.0000000E+00; -1.4366948E-02;  7.8321982E+03;
  8.1501827E-02;  9.9999998E-03; -5.9943683E-02;2958;  2.4653989E-01;  0.0000000E+00;  1.8636435E-03;  9.9266284E+02;  1.0000000E-01; -6.0786919E+03;3; -8.7130795E+00;  0.0000000E+00;  1.4164250E-01;0;  2.6582527E-01;  3.9364953E+04;  0.0000000E+00;  1.4002955E-03;  4.0000000E+04;  0.0000000E+00;  4.0055668E+04;  2.8032967E-01;  0.0000000E+00; -1.4504388E-02;  7.5761230E+03;
  8.1478179E-02;  9.9999998E-03; -4.9953058E-02;2959;  2.4768548E-01;  0.0000000E+00;  1.6582516E-03;  9.9277594E+02;  1.0000000E-01; -5.9850156E+03;3; -9.2821426E+00;  0.0000000E+00;  8.3193168E-02;0;  2.7151564E-01;  3.9375227E+04;  0.0000000E+00;  1.3625645E-03;  4.0000000E+04;  0.0000000E+00;  4.0054387E+04;  2.8632742E-01;  0.0000000E+00; -1.4811791E-02;  7.3932896E+03;
  8.1459619E-02;  9.9999998E-03; -3.9962582E-02;2960;  2.4868648E-01;  0.0000000E+00;  1.3981463E-03;  9.9286926E+02;  1.0000000E-01; -5.9076841E+03;3; -9.7459173E+00;  0.0000000E+00;  4.6244737E-02;0;  2.7672088E-01;  3.9383539E+04;  0.0000000E+00;  1.0820564E-03;  4.0000000E+04;  0.0000000E+00;  4.0053406E+04;  2.9182750E-01;  0.0000000E+00; -1.5106604E-02;  7.2684238E+03;
  8.1445836E-02;  9.9999998E-03; -2.9972136E-02;2961;  2.4951141E-01;  0.0000000E+00;  1.0918777E-03;  9.9294189E+02;  1.0000000E-01; -5.8474883E+03;3; -1.0107128E+01;  0.0000000E+00;  1.8110216E-02;0;  2.8116634E-01;  3.9389812E+04;  0.0000000E+00;  7.0139393E-04;  4.0000000E+04;  0.0000000E+00;  4.0052773E+04;  2.9647300E-01;  0.0000000E+00; -1.5306639E-02;  7.1869751E+03;
  8.1436329E-02;  9.9999998E-03; -1.9981578E-02;2962;  2.5012732E-01;  0.0000000E+00;  7.4900832E-04;  9.9299274E+02;  1.0000000E-01; -5.8053662E+03;3; -1.0374361E+01;  0.0000000E+00;  4.9318564E-03;0;  2.8458363E-01;  3.9394199E+04;  0.0000000E+00;  3.4129157E-04;  4.0000000E+04;  0.0000000E+00;  4.0052395E+04;  2.9999015E-01;  0.0000000E+00; -1.5406528E-02;  7.1371016E+03;
  8.1430800E-02;  9.9999998E-03; -9.9908635E-03;2963;  2.5050738E-01;  0.0000000E+00;  3.8129999E-04;  9.9302332E+02;  1.0000000E-01; -5.7800337E+03;3; -1.0538767E+01;  0.0000000E+00;  8.3465748E-05;0;  2.8673947E-01;  3.9396766E+04;  0.0000000E+00;  8.9723580E-05;  4.0000000E+04;  0.0000000E+00;  4.0052246E+04;  3.0218005E-01;  0.0000000E+00; -1.5440569E-02;  7.1103828E+03;
  8.1428990E-02;  9.9999998E-03; -4.4366594E-11;2964;  2.5063634E-01;  0.0000000E+00; -8.4130090E-09;  9.9303387E+02;  1.0000000E-01; -5.7712930E+03;3; -1.0597173E+01;  0.0000000E+00;  8.2773440E-06;0;  2.8747669E-01;  3.9397660E+04;  0.0000000E+00;  1.1614444E-12;  4.0000000E+04;  0.0000000E+00;  4.0052199E+04;  3.0292338E-01;  0.0000000E+00; -1.5446686E-02;  7.1019961E+03;
  8.1430800E-02;  9.9999998E-03;  9.9908635E-03;2965;  2.5050738E-01;  0.0000000E+00; -3.8131705E-04;  9.9302332E+02;  1.0000000E-01; -5.7800337E+03;3; -1.0539051E+01;  0.0000000E+00; -7.8895348E-05;0;  2.8673941E-01;  3.9396766E+04;  0.0000000E+00;  8.9683504E-05;  4.0000000E+04;  0.0000000E+00;  4.0052246E+04;  3.0217999E-01;  0.0000000E+00; -1.5440571E-02;  7.1103857E+03;
  8.1436329E-02;  9.9999998E-03;  1.9981576E-02;2966;  2.5012735E-01;  0.0000000E+00; -7.4902538E-04;  9.9299274E+02;  1.0000000E-01; -5.8053662E+03;3; -1.0374360E+01;  0.0000000E+00; -4.9131131E-03;0;  2.8458381E-01;  3.9394199E+04;  0.0000000E+00;  3.4116738E-04;  4.0000000E+04;  0.0000000E+00;  4.0052395E+04;  2.9999030E-01;  0.0000000E+00; -1.5406479E-02;  7.1371006E+03;
  8.1445836E-02;  9.9999998E-03;  2.9972136E-02;2967;  2.4951142E-01;  0.0000000E+00; -1.0918957E-03;  9.9294189E+02;  1.0000000E-01; -5.8474883E+03;3; -1.0106915E+01;  0.0000000E+00; -1.8088482E-02;0;  2.8116667E-01;  3.9389812E+04;  0.0000000E+00;  7.0117722E-04;  4.0000000E+04;  0.0000000E+00;  4.0052773E+04;  2.9647326E-01;  0.0000000E+00; -1.5306589E-02;  7.1869756E+03;
  8.1459619E-02;  9.9999998E-03;  3.9962582E-02;2968;  2.4868652E-01;  0.0000000E+00; -1.3981662E-03;  9.9286926E+02;  1.0000000E-01; -5.9076841E+03;3; -9.7460375E+00;  0.0000000E+00; -4.6243362E-02;0;  2.7672133E-01;  3.9383543E+04;  0.0000000E+00;  1.0816464E-03;  4.0000000E+04;  0.0000000E+00;  4.0053406E+04;  2.9182786E-01;  0.0000000E+00; -1.5106529E-02;  7.2684238E+03;
  8.1478179E-02;  9.9999998E-03;  4.9953058E-02;2969;  2.4768555E-01;  0.0000000E+00; -1.6582710E-03;  9.9277594E+02;  1.0000000E-01; -5.9850156E+03;3; -9.2825899E+00;  0.0000000E+00; -8.3161466E-02;0;  2.7151591E-01;  3.9375223E+04;  0.0000000E+00;  1.3626068E-03;  4.0000000E+04;  0.0000000E+00;  4.0054387E+04;  2.8632760E-01;  0.0000000E+00; -1.4811707E-02;  7.3932910E+03;
  8.1501827E-02;  9.9999998E-03;  5.9943683E-02;2970;  2.4653997E-01;  0.0000000E+00; -1.8636648E-03;  9.9266284E+02;  1.0000000E-01; -6.0786919E+03;3; -8.7129965E+00;  0.0000000E+00; -1.4162856E-01;0;  2.6582575E-01;  3.9364957E+04;  0.0000000E+00;  1.4002158E-03;  4.0000000E+04;  0.0000000E+00;  4.0055668E+04;  2.8033003E-01;  0.0000000E+00; -1.4504276E-02;  7.5761226E+03;
  9.1767557E-02;  9.9999998E-03; -9.9919870E-02;3015;  2.3919095E-01;  0.0000000E+00;  3.5397054E-04;  9.9322882E+02;  1.0000000E-01; -5.6098164E+03;3; -1.4656881E+01;  0.0000000E+00;  8.2336235E-01;0;  1.2850136E-01;  3.9403805E+04;  0.0000000E+00; -2.7720958E-03;  4.0000000E+04;  0.0000000E+00;  4.0061746E+04;  1.3356684E-01;  0.0000000E+00; -5.0654844E-03;  8.2814795E+03;
  9.1729924E-02;  9.9999998E-03; -8.9926764E-02;3016;  2.4077153E-01;  0.0000000E+00;  7.1019022E-04;  9.9340308E+02;  1.0000000E-01; -5.4654253E+03;3; -1.5386971E+01;  0.0000000E+00;  7.7534056E-01;0;  1.3468567E-01;  3.9421746E+04;  0.0000000E+00; -2.0288881E-04;  4.0000000E+04;  0.0000000E+00;  4.0057457E+04;  1.3721690E-01;  0.0000000E+00; -2.5312256E-03;  7.7378481E+03;
  9.1692358E-02;  9.9999998E-03; -7.9933681E-02;3017;  2.4229144E-01;  0.0000000E+00;  9.1546506E-04;  9.9356189E+02;  1.0000000E-01; -5.3338735E+03;3; -1.6043985E+01;  0.0000000E+00;  6.5281534E-01;0;  1.4177957E-01;  3.9437449E+04;  0.0000000E+00;  1.9830840E-03;  4.0000000E+04;  0.0000000E+00;  4.0054195E+04;  1.4290854E-01;  0.0000000E+00; -1.1289702E-03;  7.3073384E+03;
  9.1657780E-02;  9.9999998E-03; -6.9941066E-02;3018;  2.4373883E-01;  0.0000000E+00;  9.8332856E-04;  9.9370074E+02;  1.0000000E-01; -5.2188149E+03;3; -1.6630930E+01;  0.0000000E+00;  5.3106284E-01;0;  1.4935267E-01;  3.9451016E+04;  0.0000000E+00;  3.2575941E-03;  4.0000000E+04;  0.0000000E+00;  4.0051684E+04;  1.4976773E-01;  0.0000000E+00; -4.1504970E-04;  6.9856528E+03;
  9.1628000E-02;  9.9999998E-03; -5.9949018E-02;3019;  2.4510007E-01;  0.0000000E+00;  9.5950410E-04;  9.9382269E+02;  1.0000000E-01; -5.1177808E+03;3; -1.7135521E+01;  0.0000000E+00;  4.3303970E-01;0;  1.5703891E-01;  3.9462285E+04;  0.0000000E+00;  3.6087381E-03;  4.0000000E+04;  0.0000000E+00;  4.0049938E+04;  1.5706025E-01;  0.0000000E+00; -2.1343845E-05;  6.7582588E+03;
  9.1603771E-02;  9.9999998E-03; -4.9957417E-02;3020;  2.4634331E-01;  0.0000000E+00;  8.7754737E-04;  9.9392578E+02;  1.0000000E-01; -5.0323511E+03;3; -1.7564409E+01;  0.0000000E+00;  3.4368014E-01;0;  1.6449122E-01;  3.9471492E+04;  0.0000000E+00;  3.2525181E-03;  4.0000000E+04;  0.0000000E+00;  4.0048770E+04;  1.6418691E-01;  0.0000000E+00;  3.0430438E-04;  6.6057852E+03;
  9.1585100E-02;  9.9999998E-03; -3.9966080E-02;3021;  2.4743612E-01;  0.0000000E+00;  7.4951380E-04;  9.9400946E+02;  1.0000000E-01; -4.9630693E+03;3; -1.7928894E+01;  0.0000000E+00;  2.6224336E-01;0;  1.7134802E-01;  3.9478758E+04;  0.0000000E+00;  2.4790331E-03;  4.0000000E+04;  0.0000000E+00;  4.0048082E+04;  1.7066422E-01;  0.0000000E+00;  6.8379712E-04;  6.5085068E+03;
  9.1571450E-02;  9.9999998E-03; -2.9974749E-02;3022;  2.4833876E-01;  0.0000000E+00;  5.9081014E-04;  9.9407379E+02;  1.0000000E-01; -4.9097373E+03;3; -1.8250708E+01;  0.0000000E+00;  1.8188004E-01;0;  1.7722876E-01;  3.9484199E+04;  0.0000000E+00;  1.5680337E-03;  4.0000000E+04;  0.0000000E+00;  4.0047656E+04;  1.7610645E-01;  0.0000000E+00;  1.1223067E-03;  6.4493354E+03;
  9.1562234E-02;  9.9999998E-03; -1.9983308E-02;3023;  2.4901028E-01;  0.0000000E+00;  4.0740793E-04;  9.9411755E+02;  1.0000000E-01; -4.8734912E+03;3; -1.8477598E+01;  0.0000000E+00;  1.1206894E-01;0;  1.8176004E-01;  3.9487980E+04;  0.0000000E+00;  7.5138937E-04;  4.0000000E+04;  0.0000000E+00;  4.0047359E+04;  1.8021303E-01;  0.0000000E+00;  1.5470076E-03;  6.4153477E+03;
  9.1556951E-02;  9.9999998E-03; -9.9917259E-03;3024;  2.4942814E-01;  0.0000000E+00;  2.0733922E-04;  9.9414478E+02;  1.0000000E-01; -4.8509243E+03;3; -1.8614725E+01;  0.0000000E+00;  5.2083496E-02;0;  1.8462223E-01;  3.9490098E+04;  0.0000000E+00;  1.9592654E-04;  4.0000000E+04;  0.0000000E+00;  4.0047250E+04;  1.8276489E-01;  0.0000000E+00;  1.8573477E-03;  6.3980264E+03;
  9.1555253E-02;  9.9999998E-03; -7.4240676E-11;3025;  2.4956824E-01;  0.0000000E+00; -1.4018268E-08;  9.9415424E+02;  1.0000000E-01; -4.8431221E+03;3; -1.8665545E+01;  0.0000000E+00;  3.9748802E-06;0;  1.8560115E-01;  3.9490875E+04;  0.0000000E+00; -4.1379771E-13;  4.0000000E+04;  0.0000000E+00;  4.0047207E+04;  1.8362987E-01;  0.0000000E+00;  1.9712672E-03;  6.3927290E+03;
  9.1556951E-02;  9.9999998E-03;  9.9917259E-03;3026;  2.4942815E-01;  0.0000000E+00; -2.0736681E-04;  9.9414478E+02;  1.0000000E-01; -4.8509243E+03;3; -1.8614422E+01;  0.0000000E+00; -5.2070804E-02;0;  1.8462229E-01;  3.9490098E+04;  0.0000000E+00;  1.9585644E-04;  4.0000000E+04;  0.0000000E+00;  4.0047250E+04;  1.8276489E-01;  0.0000000E+00;  1.8573946E-03;  6.3980254E+03;
  9.1562234E-02;  9.9999998E-03;  1.9983308E-02;3027;  2.4901029E-01;  0.0000000E+00; -4.0743541E-04;  9.9411755E+02;  1.0000000E-01; -4.8734912E+03;3; -1.8477728E+01;  0.0000000E+00; -1.1206029E-01;0;  1.8176012E-01;  3.9487984E+04;  0.0000000E+00;  7.5132272E-04;  4.0000000E+04;  0.0000000E+00;  4.0047359E+04;  1.8021306E-01;  0.0000000E+00;  1.5470488E-03;  6.4153501E+03;
  9.1571450E-02;  9.9999998E-03;  2.9974749E-02;3028;  2.4833879E-01;  0.0000000E+00; -5.9083797E-04;  9.9407379E+02;  1.0000000E-01; -4.9097373E+03;3; -1.8250683E+01;  0.0000000E+00; -1.8185988E-01;0;  1.7722885E-01;  3.9484195E+04;  0.0000000E+00;  1.5679253E-03;  4.0000000E+04;  0.0000000E+00;  4.0047656E+04;  1.7610648E-01;  0.0000000E+00;  1.1223753E-03;  6.4493350E+03;
  9.1585100E-02;  9.9999998E-03;  3.9966080E-02;3029;  2.4743618E-01;  0.0000000E+00; -7.4954185E-04;  9.9400940E+02;  1.0000000E-01; -4.9631187E+03;3; -1.7928917E+01;  0.0000000E+00; -2.6223487E-01;0;  1.7134818E-01;  3.9478754E+04;  0.0000000E+00;  2.4791695E-03;  4.0000000E+04;  0.0000000E+00;  4.0048082E+04;  1.7066430E-01;  0.0000000E+00;  6.8389351E-04;  6.5085088E+03;
  9.1603771E-02;  9.9999998E-03;  4.9957417E-02;3030;  2.4634339E-01;  0.0000000E+00; -8.7757595E-04;  9.9392578E+02;  1.0000000E-01; -5.0323511E+03;3; -1.7564629E+01;  0.0000000E+00; -3.4367889E-01;0;  1.6449140E-01;  3.9471492E+04;  0.0000000E+00;  3.2523929E-03;  4.0000000E+04;  0.0000000E+00;  4.0048770E+04;  1.6418698E-01;  0.0000000E+00;  3.0441381E-04;  6.6057861E+03;
  9.1628000E-02;  9.9999998E-03;  5.9949018E-02;3031;  2.4510016E-01;  0.0000000E+00; -9.5953234E-04;  9.9382269E+02;  1.0000000E-01; -5.1177808E+03;3; -1.7135338E+01;  0.0000000E+00; -4.3302539E-01;0;  1.5703908E-01;  3.9462285E+04;  0.0000000E+00;  3.6082256E-03;  4.0000000E+04;  0.0000000E+00;  4.0049938E+04;  1.5706027E-01;  0.0000000E+00; -2.1184505E-05;  6.7582529E+03;
  1.0186563E-01;  9.9999998E-03; -9.9935420E-02;3076;  2.3754564E-01;  0.0000000E+00; -1.1607821E-03;  9.9441980E+02;  1.0000000E-01; -4.6230786E+03;3; -2.0481432E+01;  0.0000000E+00;  1.2417841E+00;0;  6.3935623E-02;  3.9505512E+04;  0.0000000E+00; -2.8573289E-03;  4.0000000E+04;  0.0000000E+00;  4.0053887E+04;  5.6199625E-02;  0.0000000E+00;  7.7359970E-03;  7.2052891E+03;
  1.0182662E-01;  9.9999998E-03; -8.9939989E-02;3077;  2.3920015E-01;  0.0000000E+00; -6.7285990E-04;  9.9459058E+02;  1.0000000E-01; -4.4816011E+03;3; -2.1022381E+01;  0.0000000E+00;  1.1379746E+00;0;  7.3040865E-02;  3.9523090E+04;  0.0000000E+00;  1.0395020E-03;  4.0000000E+04;  0.0000000E+00;  4.0049590E+04;  6.2536418E-02;  0.0000000E+00;  1.0504445E-02;  6.6592832E+03;
  1.0178782E-01;  9.9999998E-03; -7.9944901E-02;3078;  2.4081050E-01;  0.0000000E+00; -3.4038498E-04;  9.9473779E+02;  1.0000000E-01; -4.3596294E+03;3; -2.1515118E+01;  0.0000000E+00;  1.0535698E+00;0;  8.2992367E-02;  3.9537805E+04;  0.0000000E+00;  4.1386201E-03;  4.0000000E+04;  0.0000000E+00;  4.0046465E+04;  7.0702136E-02;  0.0000000E+00;  1.2290233E-02;  6.2492847E+03;
  1.0175246E-01;  9.9999998E-03; -6.9950581E-02;3079;  2.4236041E-01;  0.0000000E+00; -1.4316279E-04;  9.9486426E+02;  1.0000000E-01; -4.2548423E+03;3; -2.1957737E+01;  0.0000000E+00;  9.2919648E-01;0;  9.3377821E-02;  3.9549977E+04;  0.0000000E+00;  5.8093430E-03;  4.0000000E+04;  0.0000000E+00;  4.0044234E+04;  7.9810753E-02;  0.0000000E+00;  1.3567066E-02;  5.9611577E+03;
  1.0172226E-01;  9.9999998E-03; -5.9957035E-02;3080;  2.4381728E-01;  0.0000000E+00; -4.3208169E-05;  9.9497247E+02;  1.0000000E-01; -4.1652153E+03;3; -2.2354780E+01;  0.0000000E+00;  7.8994650E-01;0;  1.0381194E-01;  3.9559867E+04;  0.0000000E+00;  6.0935961E-03;  4.0000000E+04;  0.0000000E+00;  4.0042809E+04;  8.9120977E-02;  0.0000000E+00;  1.4690968E-02;  5.7719858E+03;
  1.0169802E-01;  9.9999998E-03; -4.9964152E-02;3081;  2.4515177E-01;  0.0000000E+00; -1.8250668E-05;  9.9506042E+02;  1.0000000E-01; -4.0923284E+03;3; -2.2691906E+01;  0.0000000E+00;  6.6446126E-01;0;  1.1388098E-01;  3.9567730E+04;  0.0000000E+00;  5.3445711E-03;  4.0000000E+04;  0.0000000E+00;  4.0041898E+04;  9.8017231E-02;  0.0000000E+00;  1.5863750E-02;  5.6561162E+03;
  1.0167961E-01;  9.9999998E-03; -3.9971616E-02;3082;  2.4631466E-01;  0.0000000E+00; -3.0412682E-05;  9.9512994E+02;  1.0000000E-01; -4.0347498E+03;3; -2.3039455E+01;  0.0000000E+00;  5.5063951E-01;0;  1.2312068E-01;  3.9573664E+04;  0.0000000E+00;  4.0081996E-03;  4.0000000E+04;  0.0000000E+00;  4.0041398E+04;  1.0599363E-01;  0.0000000E+00;  1.7127054E-02;  5.5899019E+03;
  1.0166625E-01;  9.9999998E-03; -2.9979054E-02;3083;  2.4727099E-01;  0.0000000E+00; -5.7130223E-05;  9.9518256E+02;  1.0000000E-01; -3.9911460E+03;3; -2.3285717E+01;  0.0000000E+00;  4.5557484E-01;0;  1.3102803E-01;  3.9578039E+04;  0.0000000E+00;  2.5100575E-03;  4.0000000E+04;  0.0000000E+00;  4.0041176E+04;  1.1263742E-01;  0.0000000E+00;  1.8390602E-02;  5.5544956E+03;
  1.0165730E-01;  9.9999998E-03; -1.9986320E-02;3084;  2.4798582E-01;  0.0000000E+00; -7.6397642E-05;  9.9521899E+02;  1.0000000E-01; -3.9609741E+03;3; -2.3480227E+01;  0.0000000E+00;  3.6837733E-01;0;  1.3710825E-01;  3.9581027E+04;  0.0000000E+00;  1.1954925E-03;  4.0000000E+04;  0.0000000E+00;  4.0041070E+04;  1.1762121E-01;  0.0000000E+00;  1.9487035E-02;  5.5367251E+03;
  1.0165224E-01;  9.9999998E-03; -9.9933101E-03;3085;  2.4842328E-01;  0.0000000E+00; -6.5838110E-05;  9.9523969E+02;  1.0000000E-01; -3.9438389E+03;3; -2.3579403E+01;  0.0000000E+00;  2.0938079E-01;0;  1.4094420E-01;  3.9582750E+04;  0.0000000E+00;  3.1070239E-04;  4.0000000E+04;  0.0000000E+00;  4.0041062E+04;  1.2070809E-01;  0.0000000E+00;  2.0236114E-02;  5.5286646E+03;
  1.0165063E-01;  9.9999998E-03; -8.9678154E-11;3086;  2.4857014E-01;  0.0000000E+00; -2.2707857E-08;  9.9524670E+02;  1.0000000E-01; -3.9380117E+03;3; -2.3589314E+01;  0.0000000E+00;  9.0127505E-06;0;  1.4225571E-01;  3.9583320E+04;  0.0000000E+00;  7.6455292E-13;  4.0000000E+04;  0.0000000E+00;  4.0041059E+04;  1.2175321E-01;  0.0000000E+00;  2.0502502E-02;  5.5263491E+03;
  1.0165224E-01;  9.9999998E-03;  9.9933092E-03;3087;  2.4842329E-01;  0.0000000E+00;  6.5795095E-05;  9.9523969E+02;  1.0000000E-01; -3.9438389E+03;3; -2.3579174E+01;  0.0000000E+00; -2.0934822E-01;0;  1.4094420E-01;  3.9582750E+04;  0.0000000E+00;  3.1063880E-04;  4.0000000E+04;  0.0000000E+00;  4.0041062E+04;  1.2070807E-01;  0.0000000E+00;  2.0236131E-02;  5.5286641E+03;
  1.0165730E-01;  9.9999998E-03;  1.9986320E-02;3088;  2.4798585E-01;  0.0000000E+00;  7.6357828E-05;  9.9521899E+02;  1.0000000E-01; -3.9609741E+03;3; -2.3480202E+01;  0.0000000E+00; -3.6835694E-01;0;  1.3710840E-01;  3.9581031E+04;  0.0000000E+00;  1.1955302E-03;  4.0000000E+04;  0.0000000E+00;  4.0041070E+04;  1.1762130E-01;  0.0000000E+00;  1.9487098E-02;  5.5367266E+03;
  1.0166625E-01;  9.9999998E-03;  2.9979054E-02;3089;  2.4727103E-01;  0.0000000E+00;  5.7092297E-05;  9.9518256E+02;  1.0000000E-01; -3.9911460E+03;3; -2.3285498E+01;  0.0000000E+00; -4.5552829E-01;0;  1.3102812E-01;  3.9578039E+04;  0.0000000E+00;  2.5098454E-03;  4.0000000E+04;  0.0000000E+00;  4.0041176E+04;  1.1263743E-01;  0.0000000E+00;  1.8390689E-02;  5.5544956E+03;
  1.0167961E-01;  9.9999998E-03;  3.9971616E-02;3090;  2.4631472E-01;  0.0000000E+00;  3.0375819E-05;  9.9512994E+02;  1.0000000E-01; -4.0347498E+03;3; -2.3039433E+01;  0.0000000E+00; -5.5062556E-01;0;  1.2312090E-01;  3.9573660E+04;  0.0000000E+00;  4.0077087E-03;  4.0000000E+04;  0.0000000E+00;  4.0041398E+04;  1.0599372E-01;  0.0000000E+00;  1.7127186E-02;  5.5899058E+03;
  1.0169802E-01;  9.9999998E-03;  4.9964152E-02;3091;  2.4515183E-01;  0.0000000E+00;  1.8213143E-05;  9.9506042E+02;  1.0000000E-01; -4.0923284E+03;3; -2.2692076E+01;  0.0000000E+00; -6.6444737E-01;0;  1.1388122E-01;  3.9567734E+04;  0.0000000E+00;  5.3437068E-03;  4.0000000E+04;  0.0000000E+00;  4.0041898E+04;  9.8017335E-02;  0.0000000E+00;  1.5863890E-02;  5.6561172E+03;
  1.0172225E-01;  9.9999998E-03;  5.9957035E-02;3092;  2.4381736E-01;  0.0000000E+00;  4.3172164E-05;  9.9497235E+02;  1.0000000E-01; -4.1653140E+03;3; -2.2354940E+01;  0.0000000E+00; -7.8994393E-01;0;  1.0381231E-01;  3.9559867E+04;  0.0000000E+00;  6.0940362E-03;  4.0000000E+04;  0.0000000E+00;  4.0042809E+04;  8.9121163E-02;  0.0000000E+00;  1.4691145E-02;  5.7719834E+03;
  1.1191090E-01;  9.9999998E-03; -9.9952772E-02;3137;  2.3609373E-01;  0.0000000E+00; -2.6726767E-03;  9.9556116E+02;  1.0000000E-01; -3.6774761E+03;3; -2.3704990E+01;  0.0000000E+00;  1.5972203E+00;0;  4.5921355E-02;  3.9604359E+04;  0.0000000E+00; -2.7146072E-03;  4.0000000E+04;  0.0000000E+00;  4.0044676E+04;  2.6061036E-02;  0.0000000E+00;  1.9860322E-02;  5.9660791E+03;
  1.1186780E-01;  9.9999998E-03; -8.9954615E-02;3138;  2.3782805E-01;  0.0000000E+00; -2.0968905E-03;  9.9572064E+02;  1.0000000E-01; -3.5453809E+03;3; -2.4122723E+01;  0.0000000E+00;  1.5311291E+00;0;  5.9103951E-02;  3.9620875E+04;  0.0000000E+00;  2.5597452E-03;  4.0000000E+04;  0.0000000E+00;  4.0040609E+04;  3.6238521E-02;  0.0000000E+00;  2.2865431E-02;  5.4382930E+03;
  1.1182586E-01;  9.9999998E-03; -7.9957098E-02;3139;  2.3953010E-01;  0.0000000E+00; -1.6891556E-03;  9.9585010E+02;  1.0000000E-01; -3.4381248E+03;3; -2.4513844E+01;  0.0000000E+00;  1.3963001E+00;0;  7.2976589E-02;  3.9634027E+04;  0.0000000E+00;  6.4752437E-03;  4.0000000E+04;  0.0000000E+00;  4.0037648E+04;  4.7874935E-02;  0.0000000E+00;  2.5101652E-02;  5.0654932E+03;
  1.1178812E-01;  9.9999998E-03; -6.9960758E-02;3140;  2.4117179E-01;  0.0000000E+00; -1.4117266E-03;  9.9595929E+02;  1.0000000E-01; -3.3476582E+03;3; -2.4864382E+01;  0.0000000E+00;  1.2598448E+00;0;  8.7150671E-02;  3.9644473E+04;  0.0000000E+00;  8.4185395E-03;  4.0000000E+04;  0.0000000E+00;  4.0035758E+04;  6.0093418E-02;  0.0000000E+00;  2.7057253E-02;  4.8233521E+03;
  1.1175639E-01;  9.9999998E-03; -5.9965659E-02;3141;  2.4271743E-01;  0.0000000E+00; -1.2407430E-03;  9.9604614E+02;  1.0000000E-01; -3.2757095E+03;3; -2.5196020E+01;  0.0000000E+00;  1.1053423E+00;0;  1.0121352E-01;  3.9652473E+04;  0.0000000E+00;  8.5433964E-03;  4.0000000E+04;  0.0000000E+00;  4.0034801E+04;  7.2153330E-02;  0.0000000E+00;  2.9060194E-02;  4.6806416E+03;
  1.1173114E-01;  9.9999998E-03; -4.9971469E-02;3142;  2.4412040E-01;  0.0000000E+00; -1.1225016E-03;  9.9611597E+02;  1.0000000E-01; -3.2178347E+03;3; -2.5547272E+01;  0.0000000E+00;  9.5771933E-01;0;  1.1467478E-01;  3.9658566E+04;  0.0000000E+00;  7.3541361E-03;  4.0000000E+04;  0.0000000E+00;  4.0034312E+04;  8.3430387E-02;  0.0000000E+00;  3.1244393E-02;  4.6060156E+03;
  1.1171211E-01;  9.9999998E-03; -3.9977789E-02;3143;  2.4532814E-01;  0.0000000E+00; -1.0350428E-03;  9.9616815E+02;  1.0000000E-01; -3.1746260E+03;3; -2.5819124E+01;  0.0000000E+00;  8.1630218E-01;0;  1.2695447E-01;  3.9662852E+04;  0.0000000E+00;  5.4513435E-03;  4.0000000E+04;  0.0000000E+00;  4.0034004E+04;  9.3399160E-02;  0.0000000E+00;  3.3555314E-02;  4.5727427E+03;
  1.1169822E-01;  9.9999998E-03; -2.9984009E-02;3144;  2.4629955E-01;  0.0000000E+00; -8.9871761E-04;  9.9620673E+02;  1.0000000E-01; -3.1426763E+03;3; -2.6051884E+01;  0.0000000E+00;  6.7235518E-01;0;  1.3741422E-01;  3.9666023E+04;  0.0000000E+00;  3.3883371E-03;  4.0000000E+04;  0.0000000E+00;  4.0033906E+04;  1.0162187E-01;  0.0000000E+00;  3.5792347E-02;  4.5611562E+03;
  1.1168870E-01;  9.9999998E-03; -1.9989727E-02;3145;  2.4698761E-01;  0.0000000E+00; -6.4535928E-04;  9.9623230E+02;  1.0000000E-01; -3.1214917E+03;3; -2.6186460E+01;  0.0000000E+00;  4.5306307E-01;0;  1.4542980E-01;  3.9667992E+04;  0.0000000E+00;  1.6065391E-03;  4.0000000E+04;  0.0000000E+00;  4.0033969E+04;  1.0775070E-01;  0.0000000E+00;  3.7679106E-02;  4.5588477E+03;
  1.1168327E-01;  9.9999998E-03; -9.9950209E-03;3146;  2.4740081E-01;  0.0000000E+00; -3.3516172E-04;  9.9624689E+02;  1.0000000E-01; -3.1093933E+03;3; -2.6266907E+01;  0.0000000E+00;  2.3018858E-01;0;  1.5047500E-01;  3.9669141E+04;  0.0000000E+00;  4.1653079E-04;  4.0000000E+04;  0.0000000E+00;  4.0033941E+04;  1.1153133E-01;  0.0000000E+00;  3.8943663E-02;  4.5592314E+03;
  1.1168154E-01;  9.9999998E-03; -9.8572671E-11;3147;  2.4753955E-01;  0.0000000E+00; -2.8856014E-08;  9.9625153E+02;  1.0000000E-01; -3.1055415E+03;3; -2.6284798E+01;  0.0000000E+00;  1.3173326E-05;0;  1.5219796E-01;  3.9669527E+04;  0.0000000E+00;  9.3571337E-14;  4.0000000E+04;  0.0000000E+00;  4.0033965E+04;  1.1280876E-01;  0.0000000E+00;  3.9389186E-02;  4.5595796E+03;
  1.1168327E-01;  9.9999998E-03;  9.9950209E-03;3148;  2.4740081E-01;  0.0000000E+00;  3.3510485E-04;  9.9624689E+02;  1.0000000E-01; -3.1093933E+03;3; -2.6266575E+01;  0.0000000E+00; -2.3016363E-01;0;  1.5047511E-01;  3.9669137E+04;  0.0000000E+00;  4.1655800E-04;  4.0000000E+04;  0.0000000E+00;  4.0033941E+04;  1.1153135E-01;  0.0000000E+00;  3.8943771E-02;  4.5592305E+03;
  1.1168870E-01;  9.9999998E-03;  1.9989725E-02;3149;  2.4698764E-01;  0.0000000E+00;  6.4530323E-04;  9.9623230E+02;  1.0000000E-01; -3.1214917E+03;3; -2.6186249E+01;  0.0000000E+00; -4.5304254E-01;0;  1.4542991E-01;  3.9667988E+04;  0.0000000E+00;  1.6063923E-03;  4.0000000E+04;  0.0000000E+00;  4.0033969E+04;  1.0775071E-01;  0.0000000E+00;  3.7679203E-02;  4.5588496E+03;
  1.1169822E-01;  9.9999998E-03;  2.9984009E-02;3150;  2.4629959E-01;  0.0000000E+00;  8.9866441E-04;  9.9620673E+02;  1.0000000E-01; -3.1426763E+03;3; -2.6052246E+01;  0.0000000E+00; -6.7234796E-01;0;  1.3741441E-01;  3.9666023E+04;  0.0000000E+00;  3.3879958E-03;  4.0000000E+04;  0.0000000E+00;  4.0033906E+04;  1.0162194E-01;  0.0000000E+00;  3.5792474E-02;  4.5611582E+03;
  1.1171211E-01;  9.9999998E-03;  3.9977789E-02;3151;  2.4532817E-01;  0.0000000E+00;  1.0349960E-03;  9.9616815E+02;  1.0000000E-01; -3.1746260E+03;3; -2.5819269E+01;  0.0000000E+00; -8.1630343E-01;0;  1.2695473E-01;  3.9662855E+04;  0.0000000E+00;  5.4514231E-03;  4.0000000E+04;  0.0000000E+00;  4.0034004E+04;  9.3399212E-02;  0.0000000E+00;  3.3555530E-02;  4.5727437E+03;
  1.1173114E-01;  9.9999998E-03;  4.9971469E-02;3152;  2.4412046E-01;  0.0000000E+00;  1.1224573E-03;  9.9611597E+02;  1.0000000E-01; -3.2178347E+03;3; -2.5547422E+01;  0.0000000E+00; -9.5772284E-01;0;  1.1467505E-01;  3.9658562E+04;  0.0000000E+00;  7.3540932E-03;  4.0000000E+04;  0.0000000E+00;  4.0034312E+04;  8.3430469E-02;  0.0000000E+00;  3.1244576E-02;  4.6060176E+03;
  1.1175639E-01;  9.9999998E-03;  5.9965659E-02;3153;  2.4271750E-01;  0.0000000E+00;  1.2406978E-03;  9.9604614E+02;  1.0000000E-01; -3.2757095E+03;3; -2.5196146E+01;  0.0000000E+00; -1.1053597E+00;0;  1.0121378E-01;  3.9652473E+04;  0.0000000E+00;  8.5433787E-03;  4.0000000E+04;  0.0000000E+00;  4.0034801E+04;  7.2153389E-02;  0.0000000E+00;  2.9060394E-02;  4.6806406E+03;
  1.2191826E-01;  9.9999998E-03; -9.9970207E-02;3198;  2.3485665E-01;  0.0000000E+00; -4.2114714E-03;  9.9659668E+02;  1.0000000E-01; -2.8195745E+03;3; -2.5235088E+01;  0.0000000E+00;  1.9657704E+00;0;  6.7610607E-02;  3.9695723E+04;  0.0000000E+00; -2.1295359E-03;  4.0000000E+04;  0.0000000E+00;  4.0034754E+04;  3.6519676E-02;  0.0000000E+00;  3.1090928E-02;  4.6307158E+03;
  1.2187002E-01;  9.9999998E-03; -8.9968748E-02;3199;  2.3666851E-01;  0.0000000E+00; -3.6037092E-03;  9.9673596E+02;  1.0000000E-01; -2.7041702E+03;3; -2.5562567E+01;  0.0000000E+00;  1.8918676E+00;0;  8.5783005E-02;  3.9710445E+04;  0.0000000E+00;  4.2087147E-03;  4.0000000E+04;  0.0000000E+00;  4.0030852E+04;  5.1501647E-02;  0.0000000E+00;  3.4281358E-02;  4.1421382E+03;
  1.2182377E-01;  9.9999998E-03; -7.9968341E-02;3200;  2.3845769E-01;  0.0000000E+00; -3.1698616E-03;  9.9684625E+02;  1.0000000E-01; -2.6128147E+03;3; -2.5880741E+01;  0.0000000E+00;  1.7438811E+00;0;  1.0441737E-01;  3.9721617E+04;  0.0000000E+00;  8.6285546E-03;  4.0000000E+04;  0.0000000E+00;  4.0028359E+04;  6.7444749E-02;  0.0000000E+00;  3.6972616E-02;  3.8225388E+03;
  1.2178316E-01;  9.9999998E-03; -6.9969878E-02;3201;  2.4018559E-01;  0.0000000E+00; -2.8548911E-03;  9.9693054E+02;  1.0000000E-01; -2.5429895E+03;3; -2.6186272E+01;  0.0000000E+00;  1.5935445E+00;0;  1.2314674E-01;  3.9729699E+04;  0.0000000E+00;  1.0629752E-02;  4.0000000E+04;  0.0000000E+00;  4.0027016E+04;  8.3491668E-02;  0.0000000E+00;  3.9655078E-02;  3.6373313E+03;
  1.2174953E-01;  9.9999998E-03; -5.9973329E-02;3202;  2.4180166E-01;  0.0000000E+00; -2.6209396E-03;  9.9699548E+02;  1.0000000E-01; -2.4891641E+03;3; -2.6546890E+01;  0.0000000E+00;  1.3996836E+00;0;  1.4152274E-01;  3.9735438E+04;  0.0000000E+00;  1.0505072E-02;  4.0000000E+04;  0.0000000E+00;  4.0026328E+04;  9.8908082E-02;  0.0000000E+00;  4.2614646E-02;  3.5475168E+03;
  1.2172278E-01;  9.9999998E-03; -4.9977999E-02;3203;  2.4324748E-01;  0.0000000E+00; -2.4200296E-03;  9.9704218E+02;  1.0000000E-01; -2.4504983E+03;3; -2.6843199E+01;  0.0000000E+00;  1.2484188E+00;0;  1.5896815E-01;  3.9739449E+04;  0.0000000E+00;  8.8971956E-03;  4.0000000E+04;  0.0000000E+00;  4.0026148E+04;  1.1306281E-01;  0.0000000E+00;  4.5905337E-02;  3.5169336E+03;
  1.2170248E-01;  9.9999998E-03; -3.9983153E-02;3204;  2.4444444E-01;  0.0000000E+00; -2.1092552E-03;  9.9707465E+02;  1.0000000E-01; -2.4235857E+03;3; -2.7122395E+01;  0.0000000E+00;  1.1233571E+00;0;  1.7478152E-01;  3.9742020E+04;  0.0000000E+00;  6.5245917E-03;  4.0000000E+04;  0.0000000E+00;  4.0026137E+04;  1.2541556E-01;  0.0000000E+00;  4.9365956E-02;  3.5168308E+03;
  1.2168770E-01;  9.9999998E-03; -2.9988145E-02;3205;  2.4538399E-01;  0.0000000E+00; -1.6817381E-03;  9.9709760E+02;  1.0000000E-01; -2.4045737E+03;3; -2.7317080E+01;  0.0000000E+00;  8.9148301E-01;0;  1.8818572E-01;  3.9743668E+04;  0.0000000E+00;  4.0262276E-03;  4.0000000E+04;  0.0000000E+00;  4.0026207E+04;  1.3551036E-01;  0.0000000E+00;  5.2675363E-02;  3.5277979E+03;
  1.2167728E-01;  9.9999998E-03; -1.9992549E-02;3206;  2.4606633E-01;  0.0000000E+00; -1.1672442E-03;  9.9711078E+02;  1.0000000E-01; -2.3936604E+03;3; -2.7438334E+01;  0.0000000E+00;  6.0514981E-01;0;  1.9841865E-01;  3.9744512E+04;  0.0000000E+00;  1.9003314E-03;  4.0000000E+04;  0.0000000E+00;  4.0026375E+04;  1.4298257E-01;  0.0000000E+00;  5.5436075E-02;  3.5391941E+03;
  1.2167123E-01;  9.9999998E-03; -9.9964533E-03;3207;  2.4647741E-01;  0.0000000E+00; -5.9660332E-04;  9.9711731E+02;  1.0000000E-01; -2.3882778E+03;3; -2.7522375E+01;  0.0000000E+00;  2.9945022E-01;0;  2.0484492E-01;  3.9745090E+04;  0.0000000E+00;  4.9146049E-04;  4.0000000E+04;  0.0000000E+00;  4.0026391E+04;  1.4757226E-01;  0.0000000E+00;  5.7272654E-02;  3.5465925E+03;
  1.2166928E-01;  9.9999998E-03; -5.7660172E-11;3208;  2.4661309E-01;  0.0000000E+00; -3.4264453E-08;  9.9711884E+02;  1.0000000E-01; -2.3869941E+03;3; -2.7549398E+01;  0.0000000E+00;  1.5985104E-05;0;  2.0703748E-01;  3.9745223E+04;  0.0000000E+00; -2.9762287E-13;  4.0000000E+04;  0.0000000E+00;  4.0026363E+04;  1.4912026E-01;  0.0000000E+00;  5.7917219E-02;  3.5490491E+03;
  1.2167123E-01;  9.9999998E-03;  9.9964533E-03;3209;  2.4647741E-01;  0.0000000E+00;  5.9653522E-04;  9.9711731E+02;  1.0000000E-01; -2.3882778E+03;3; -2.7522408E+01;  0.0000000E+00; -2.9942885E-01;0;  2.0484494E-01;  3.9745090E+04;  0.0000000E+00;  4.9143832E-04;  4.0000000E+04;  0.0000000E+00;  4.0026391E+04;  1.4757229E-01;  0.0000000E+00;  5.7272647E-02;  3.5465920E+03;
  1.2167728E-01;  9.9999998E-03;  1.9992549E-02;3210;  2.4606636E-01;  0.0000000E+00;  1.1671761E-03;  9.9711078E+02;  1.0000000E-01; -2.3936604E+03;3; -2.7438143E+01;  0.0000000E+00; -6.0514551E-01;0;  1.9841880E-01;  3.9744508E+04;  0.0000000E+00;  1.9004429E-03;  4.0000000E+04;  0.0000000E+00;  4.0026375E+04;  1.4298263E-01;  0.0000000E+00;  5.5436164E-02;  3.5391975E+03;
  1.2168770E-01;  9.9999998E-03;  2.9988144E-02;3211;  2.4538405E-01;  0.0000000E+00;  1.6816728E-03;  9.9709760E+02;  1.0000000E-01; -2.4045737E+03;3; -2.7317205E+01;  0.0000000E+00; -8.9147991E-01;0;  1.8818577E-01;  3.9743668E+04;  0.0000000E+00;  4.0262281E-03;  4.0000000E+04;  0.0000000E+00;  4.0026207E+04;  1.3551031E-01;  0.0000000E+00;  5.2675456E-02;  3.5278030E+03;
  1.2170248E-01;  9.9999998E-03;  3.9983153E-02;3212;  2.4444450E-01;  0.0000000E+00;  2.1091921E-03;  9.9707465E+02;  1.0000000E-01; -2.4235857E+03;3; -2.7122211E+01;  0.0000000E+00; -1.1233512E+00;0;  1.7478161E-01;  3.9742020E+04;  0.0000000E+00;  6.5246513E-03;  4.0000000E+04;  0.0000000E+00;  4.0026137E+04;  1.2541543E-01;  0.0000000E+00;  4.9366176E-02;  3.5168296E+03;
  1.2172278E-01;  9.9999998E-03;  4.9977999E-02;3213;  2.4324755E-01;  0.0000000E+00;  2.4199737E-03;  9.9704218E+02;  1.0000000E-01; -2.4504983E+03;3; -2.6843296E+01;  0.0000000E+00; -1.2484230E+00;0;  1.5896831E-01;  3.9739445E+04;  0.0000000E+00;  8.8971788E-03;  4.0000000E+04;  0.0000000E+00;  4.0026148E+04;  1.1306275E-01;  0.0000000E+00;  4.5905571E-02;  3.5169307E+03;
  1.2174953E-01;  9.9999998E-03;  5.9973329E-02;3214;  2.4180175E-01;  0.0000000E+00;  2.6208884E-03;  9.9699548E+02;  1.0000000E-01; -2.4891641E+03;3; -2.6546822E+01;  0.0000000E+00; -1.3996655E+00;0;  1.4152308E-01;  3.9735438E+04;  0.0000000E+00;  1.0504096E-02;  4.0000000E+04;  0.0000000E+00;  4.0026328E+04;  9.8908223E-02;  0.0000000E+00;  4.2614851E-02;  3.5475168E+03;
  1.3190524E-01;  9.9999998E-03; -9.9986434E-02;3259;  2.3384440E-01;  0.0000000E+00; -5.8192210E-03;  9.9748334E+02;  1.0000000E-01; -2.0850273E+03;3; -2.5775036E+01;  0.0000000E+00;  2.2987771E+00;0;  1.2128682E-01;  3.9775746E+04;  0.0000000E+00; -1.2936721E-03;  4.0000000E+04;  0.0000000E+00;  4.0024324E+04;  7.9972982E-02;  0.0000000E+00;  4.1313846E-02;  3.2676985E+03;
  1.3185216E-01;  9.9999998E-03; -8.9981712E-02;3260;  2.3573379E-01;  0.0000000E+00; -5.2324845E-03;  9.9759821E+02;  1.0000000E-01; -1.9898201E+03;3; -2.6068367E+01;  0.0000000E+00;  2.1960502E+00;0;  1.4504918E-01;  3.9788172E+04;  0.0000000E+00;  5.5323881E-03;  4.0000000E+04;  0.0000000E+00;  4.0021125E+04;  1.0047734E-01;  0.0000000E+00;  4.4571854E-02;  2.8388447E+03;
  1.3180161E-01;  9.9999998E-03; -7.9978868E-02;3261;  2.3760122E-01;  0.0000000E+00; -4.8004356E-03;  9.9768237E+02;  1.0000000E-01; -1.9200938E+03;3; -2.6348131E+01;  0.0000000E+00;  2.0747943E+00;0;  1.6897412E-01;  3.9796672E+04;  0.0000000E+00;  1.0024165E-02;  4.0000000E+04;  0.0000000E+00;  4.0019008E+04;  1.2133140E-01;  0.0000000E+00;  4.7642712E-02;  2.5870969E+03;
  1.3175823E-01;  9.9999998E-03; -6.9978662E-02;3262;  2.3939623E-01;  0.0000000E+00; -4.4730520E-03;  9.9773926E+02;  1.0000000E-01; -1.8729839E+03;3; -2.6695005E+01;  0.0000000E+00;  1.8694627E+00;0;  1.9271864E-01;  3.9802133E+04;  0.0000000E+00;  1.1860480E-02;  4.0000000E+04;  0.0000000E+00;  4.0018172E+04;  1.4170992E-01;  0.0000000E+00;  5.1008720E-02;  2.4679717E+03;
  1.3172284E-01;  9.9999998E-03; -5.9980735E-02;3263;  2.4104759E-01;  0.0000000E+00; -4.1733775E-03;  9.9777710E+02;  1.0000000E-01; -1.8416268E+03;3; -2.7037199E+01;  0.0000000E+00;  1.7757772E+00;0;  2.1579467E-01;  3.9805352E+04;  0.0000000E+00;  1.1462194E-02;  4.0000000E+04;  0.0000000E+00;  4.0018004E+04;  1.6088809E-01;  0.0000000E+00;  5.4906577E-02;  2.4356155E+03;
  1.3169470E-01;  9.9999998E-03; -4.9984165E-02;3264;  2.4246667E-01;  0.0000000E+00; -3.7295381E-03;  9.9779938E+02;  1.0000000E-01; -1.8231582E+03;3; -2.7339890E+01;  0.0000000E+00;  1.6717689E+00;0;  2.3753808E-01;  3.9807008E+04;  0.0000000E+00;  9.5655154E-03;  4.0000000E+04;  0.0000000E+00;  4.0018035E+04;  1.7823121E-01;  0.0000000E+00;  5.9306879E-02;  2.4501877E+03;
  1.3167316E-01;  9.9999998E-03; -3.9988056E-02;3265;  2.4365811E-01;  0.0000000E+00; -3.1655687E-03;  9.9781165E+02;  1.0000000E-01; -1.8129856E+03;3; -2.7559631E+01;  0.0000000E+00;  1.4122725E+00;0;  2.5713152E-01;  3.9807609E+04;  0.0000000E+00;  6.9409376E-03;  4.0000000E+04;  0.0000000E+00;  4.0018340E+04;  1.9319274E-01;  0.0000000E+00;  6.3938767E-02;  2.4821077E+03;
  1.3165744E-01;  9.9999998E-03; -2.9991923E-02;3266;  2.4459827E-01;  0.0000000E+00; -2.5062235E-03;  9.9781622E+02;  1.0000000E-01; -1.8092327E+03;3; -2.7745865E+01;  0.0000000E+00;  1.0833379E+00;0;  2.7367058E-01;  3.9807684E+04;  0.0000000E+00;  4.2510652E-03;  4.0000000E+04;  0.0000000E+00;  4.0018559E+04;  2.0531514E-01;  0.0000000E+00;  6.8355434E-02;  2.5133286E+03;
  1.3164645E-01;  9.9999998E-03; -1.9995248E-02;3267;  2.4528271E-01;  0.0000000E+00; -1.7396447E-03;  9.9781616E+02;  1.0000000E-01; -1.8092820E+03;3; -2.7865482E+01;  0.0000000E+00;  7.4725032E-01;0;  2.8626347E-01;  3.9807383E+04;  0.0000000E+00;  1.9962420E-03;  4.0000000E+04;  0.0000000E+00;  4.0018695E+04;  2.1423376E-01;  0.0000000E+00;  7.2029717E-02;  2.5358630E+03;
  1.3163981E-01;  9.9999998E-03; -9.9978447E-03;3268;  2.4570328E-01;  0.0000000E+00; -8.9058670E-04;  9.9781390E+02;  1.0000000E-01; -1.8111586E+03;3; -2.7938028E+01;  0.0000000E+00;  3.9079392E-01;0;  2.9415673E-01;  3.9807223E+04;  0.0000000E+00;  5.1479921E-04;  4.0000000E+04;  0.0000000E+00;  4.0018820E+04;  2.1968783E-01;  0.0000000E+00;  7.4468881E-02;  2.5483984E+03;
  1.3163754E-01;  9.9999998E-03; -2.8890335E-11;3269;  2.4584419E-01;  0.0000000E+00; -3.8911608E-08;  9.9781311E+02;  1.0000000E-01; -1.8118004E+03;3; -2.7976824E+01;  0.0000000E+00;  1.4179546E-05;0;  2.9684660E-01;  3.9807195E+04;  0.0000000E+00;  4.7486993E-13;  4.0000000E+04;  0.0000000E+00;  4.0018797E+04;  2.2152264E-01;  0.0000000E+00;  7.5323947E-02;  2.5522771E+03;
  1.3163981E-01;  9.9999998E-03;  9.9978447E-03;3270;  2.4570329E-01;  0.0000000E+00;  8.9050917E-04;  9.9781390E+02;  1.0000000E-01; -1.8111586E+03;3; -2.7938068E+01;  0.0000000E+00; -3.9077437E-01;0;  2.9415676E-01;  3.9807223E+04;  0.0000000E+00;  5.1476352E-04;  4.0000000E+04;  0.0000000E+00;  4.0018820E+04;  2.1968774E-01;  0.0000000E+00;  7.4469015E-02;  2.5484004E+03;
  1.3164645E-01;  9.9999998E-03;  1.9995248E-02;3271;  2.4528272E-01;  0.0000000E+00;  1.7395662E-03;  9.9781616E+02;  1.0000000E-01; -1.8092820E+03;3; -2.7865444E+01;  0.0000000E+00; -7.4724007E-01;0;  2.8626382E-01;  3.9807383E+04;  0.0000000E+00;  1.9961591E-03;  4.0000000E+04;  0.0000000E+00;  4.0018695E+04;  2.1423398E-01;  0.0000000E+00;  7.2029859E-02;  2.5358635E+03;
  1.3165744E-01;  9.9999998E-03;  2.9991923E-02;3272;  2.4459830E-01;  0.0000000E+00;  2.5061450E-03;  9.9781622E+02;  1.0000000E-01; -1.8092327E+03;3; -2.7745823E+01;  0.0000000E+00; -1.0833434E+00;0;  2.7367091E-01;  3.9807688E+04;  0.0000000E+00;  4.2511295E-03;  4.0000000E+04;  0.0000000E+00;  4.0018559E+04;  2.0531523E-01;  0.0000000E+00;  6.8355665E-02;  2.5133306E+03;
  1.3167316E-01;  9.9999998E-03;  3.9988056E-02;3273;  2.4365816E-01;  0.0000000E+00;  3.1654944E-03;  9.9781165E+02;  1.0000000E-01; -1.8129856E+03;3; -2.7559719E+01;  0.0000000E+00; -1.4122725E+00;0;  2.5713146E-01;  3.9807609E+04;  0.0000000E+00;  6.9405800E-03;  4.0000000E+04;  0.0000000E+00;  4.0018340E+04;  1.9319247E-01;  0.0000000E+00;  6.3938975E-02;  2.4821082E+03;
  1.3169470E-01;  9.9999998E-03;  4.9984165E-02;3274;  2.4246673E-01;  0.0000000E+00;  3.7294654E-03;  9.9779938E+02;  1.0000000E-01; -1.8231582E+03;3; -2.7339905E+01;  0.0000000E+00; -1.6717641E+00;0;  2.3753852E-01;  3.9807008E+04;  0.0000000E+00;  9.5653133E-03;  4.0000000E+04;  0.0000000E+00;  4.0018035E+04;  1.7823137E-01;  0.0000000E+00;  5.9307151E-02;  2.4501897E+03;
  1.3172282E-01;  9.9999998E-03;  5.9980735E-02;3275;  2.4104767E-01;  0.0000000E+00;  4.1733123E-03;  9.9777704E+02;  1.0000000E-01; -1.8416761E+03;3; -2.7037189E+01;  0.0000000E+00; -1.7757785E+00;0;  2.1579480E-01;  3.9805352E+04;  0.0000000E+00;  1.1462159E-02;  4.0000000E+04;  0.0000000E+00;  4.0018004E+04;  1.6088805E-01;  0.0000000E+00;  5.4906752E-02;  2.4356128E+03;
  1.4188167E-01;  9.9999998E-03; -1.0000086E-01;3320;  2.3305258E-01;  0.0000000E+00; -7.5313798E-03;  9.9819299E+02;  1.0000000E-01; -1.4970934E+03;3; -2.5864487E+01;  0.0000000E+00;  2.5736966E+00;0;  1.9911104E-01;  3.9841570E+04;  0.0000000E+00; -6.9422682E-04;  4.0000000E+04;  0.0000000E+00;  4.0014051E+04;  1.4863166E-01;  0.0000000E+00;  5.0479382E-02;  1.9435126E+03;
  1.4182596E-01;  9.9999998E-03; -8.9994043E-02;3321;  2.3501761E-01;  0.0000000E+00; -7.0145270E-03;  9.9828058E+02;  1.0000000E-01; -1.4245028E+03;3; -2.6138594E+01;  0.0000000E+00;  2.4656930E+00;0;  2.2866189E-01;  3.9851285E+04;  0.0000000E+00;  5.9899334E-03;  4.0000000E+04;  0.0000000E+00;  4.0011430E+04;  1.7504862E-01;  0.0000000E+00;  5.3613272E-02;  1.5934647E+03;
  1.4177372E-01;  9.9999998E-03; -7.9989694E-02;3322;  2.3695062E-01;  0.0000000E+00; -6.6243368E-03;  9.9833496E+02;  1.0000000E-01; -1.3794670E+03;3; -2.6445444E+01;  0.0000000E+00;  2.3110461E+00;0;  2.5800291E-01;  3.9856852E+04;  0.0000000E+00;  1.0154970E-02;  4.0000000E+04;  0.0000000E+00;  4.0010078E+04;  2.0110746E-01;  0.0000000E+00;  5.6895453E-02;  1.4222205E+03;
  1.4172901E-01;  9.9999998E-03; -6.9988199E-02;3323;  2.3877084E-01;  0.0000000E+00; -6.2685194E-03;  9.9836432E+02;  1.0000000E-01; -1.3551221E+03;3; -2.6809559E+01;  0.0000000E+00;  2.2733159E+00;0;  2.8680289E-01;  3.9859438E+04;  0.0000000E+00;  1.1678896E-02;  4.0000000E+04;  0.0000000E+00;  4.0009742E+04;  2.2600992E-01;  0.0000000E+00;  6.0792971E-02;  1.3764545E+03;
  1.4169253E-01;  9.9999998E-03; -5.9988946E-02;3324;  2.4041015E-01;  0.0000000E+00; -5.7703424E-03;  9.9837469E+02;  1.0000000E-01; -1.3465297E+03;3; -2.7118134E+01;  0.0000000E+00;  2.1862564E+00;0;  3.1454602E-01;  3.9859988E+04;  0.0000000E+00;  1.1080441E-02;  4.0000000E+04;  0.0000000E+00;  4.0009965E+04;  2.4905081E-01;  0.0000000E+00;  6.5495215E-02;  1.4046299E+03;
  1.4166340E-01;  9.9999998E-03; -4.9991030E-02;3325;  2.4185356E-01;  0.0000000E+00; -5.1536756E-03;  9.9837140E+02;  1.0000000E-01; -1.3492457E+03;3; -2.7356289E+01;  0.0000000E+00;  1.9513235E+00;0;  3.4050629E-01;  3.9859195E+04;  0.0000000E+00;  9.1171991E-03;  4.0000000E+04;  0.0000000E+00;  4.0010371E+04;  2.6961085E-01;  0.0000000E+00;  7.0895433E-02;  1.4643921E+03;
  1.4164098E-01;  9.9999998E-03; -3.9993659E-02;3326;  2.4307393E-01;  0.0000000E+00; -4.4160159E-03;  9.9835986E+02;  1.0000000E-01; -1.3588257E+03;3; -2.7572872E+01;  0.0000000E+00;  1.6516851E+00;0;  3.6378419E-01;  3.9857836E+04;  0.0000000E+00;  6.5426715E-03;  4.0000000E+04;  0.0000000E+00;  4.0011008E+04;  2.8716320E-01;  0.0000000E+00;  7.6621011E-02;  1.5264570E+03;
  1.4162453E-01;  9.9999998E-03; -2.9996268E-02;3327;  2.4404611E-01;  0.0000000E+00; -3.5190189E-03;  9.9834460E+02;  1.0000000E-01; -1.3714673E+03;3; -2.7743313E+01;  0.0000000E+00;  1.2873209E+00;0;  3.8337219E-01;  3.9856211E+04;  0.0000000E+00;  3.9725369E-03;  4.0000000E+04;  0.0000000E+00;  4.0011387E+04;  3.0127141E-01;  0.0000000E+00;  8.2100764E-02;  1.5751543E+03;
  1.4161322E-01;  9.9999998E-03; -1.9998429E-02;3328;  2.4474823E-01;  0.0000000E+00; -2.4676879E-03;  9.9833051E+02;  1.0000000E-01; -1.3831212E+03;3; -2.7852779E+01;  0.0000000E+00;  8.8273633E-01;0;  3.9826325E-01;  3.9854914E+04;  0.0000000E+00;  1.8538949E-03;  4.0000000E+04;  0.0000000E+00;  4.0011578E+04;  3.1159240E-01;  0.0000000E+00;  8.6670846E-02;  1.6060531E+03;
  1.4160611E-01;  9.9999998E-03; -9.9995835E-03;3329;  2.4517326E-01;  0.0000000E+00; -1.2758053E-03;  9.9832159E+02;  1.0000000E-01; -1.3905284E+03;3; -2.7922142E+01;  0.0000000E+00;  4.5240194E-01;0;  4.0758699E-01;  3.9853988E+04;  0.0000000E+00;  4.7629894E-04;  4.0000000E+04;  0.0000000E+00;  4.0011578E+04;  3.1787694E-01;  0.0000000E+00;  8.9710072E-02;  1.6216816E+03;
  1.4160365E-01;  9.9999998E-03; -2.8507413E-11;3330;  2.4531424E-01;  0.0000000E+00; -4.3093436E-08;  9.9831726E+02;  1.0000000E-01; -1.3941333E+03;3; -2.7945776E+01;  0.0000000E+00;  5.5680903E-06;0;  4.1076347E-01;  3.9853645E+04;  0.0000000E+00; -5.1899045E-13;  4.0000000E+04;  0.0000000E+00;  4.0011680E+04;  3.1998694E-01;  0.0000000E+00;  9.0776540E-02;  1.6262430E+03;
  1.4160611E-01;  9.9999998E-03;  9.9995835E-03;3331;  2.4517326E-01;  0.0000000E+00;  1.2757188E-03;  9.9832159E+02;  1.0000000E-01; -1.3905284E+03;3; -2.7922033E+01;  0.0000000E+00; -4.5239174E-01;0;  4.0758720E-01;  3.9853992E+04;  0.0000000E+00;  4.7628090E-04;  4.0000000E+04;  0.0000000E+00;  4.0011578E+04;  3.1787696E-01;  0.0000000E+00;  8.9710236E-02;  1.6216807E+03;
  1.4161322E-01;  9.9999998E-03;  1.9998427E-02;3332;  2.4474828E-01;  0.0000000E+00;  2.4676006E-03;  9.9833051E+02;  1.0000000E-01; -1.3831212E+03;3; -2.7852818E+01;  0.0000000E+00; -8.8272786E-01;0;  3.9826316E-01;  3.9854914E+04;  0.0000000E+00;  1.8538558E-03;  4.0000000E+04;  0.0000000E+00;  4.0011578E+04;  3.1159213E-01;  0.0000000E+00;  8.6671025E-02;  1.6060547E+03;
  1.4162453E-01;  9.9999998E-03;  2.9996268E-02;3333;  2.4404614E-01;  0.0000000E+00;  3.5189320E-03;  9.9834460E+02;  1.0000000E-01; -1.3714673E+03;3; -2.7743359E+01;  0.0000000E+00; -1.2873281E+00;0;  3.8337213E-01;  3.9856207E+04;  0.0000000E+00;  3.9727273E-03;  4.0000000E+04;  0.0000000E+00;  4.0011387E+04;  3.0127123E-01;  0.0000000E+00;  8.2100891E-02;  1.5751573E+03;
  1.4164098E-01;  9.9999998E-03;  3.9993659E-02;3334;  2.4307398E-01;  0.0000000E+00;  4.4159316E-03;  9.9835986E+02;  1.0000000E-01; -1.3588257E+03;3; -2.7572952E+01;  0.0000000E+00; -1.6516761E+00;0;  3.6378422E-01;  3.9857836E+04;  0.0000000E+00;  6.5427325E-03;  4.0000000E+04;  0.0000000E+00;  4.0011008E+04;  2.8716302E-01;  0.0000000E+00;  7.6621212E-02;  1.5264598E+03;
  1.4166340E-01;  9.9999998E-03;  4.9991030E-02;3335;  2.4185364E-01;  0.0000000E+00;  5.1535955E-03;  9.9837140E+02;  1.0000000E-01; -1.3492457E+03;3; -2.7356152E+01;  0.0000000E+00; -1.9513183E+00;0;  3.4050637E-01;  3.9859191E+04;  0.0000000E+00;  9.1177355E-03;  4.0000000E+04;  0.0000000E+00;  4.0010371E+04;  2.6961067E-01;  0.0000000E+00;  7.0895717E-02;  1.4643911E+03;
  1.4169252E-01;  9.9999998E-03;  5.9988946E-02;3336;  2.4041022E-01;  0.0000000E+00;  5.7702679E-03;  9.9837469E+02;  1.0000000E-01; -1.3465297E+03;3; -2.7118290E+01;  0.0000000E+00; -2.1862376E+00;0;  3.1454617E-01;  3.9859988E+04;  0.0000000E+00;  1.1079211E-02;  4.0000000E+04;  0.0000000E+00;  4.0009965E+04;  2.4905077E-01;  0.0000000E+00;  6.5495394E-02;  1.4046251E+03;
  1.5158154E-01;  9.9999998E-03; -1.0001970E-02;3390;  2.4499527E-01;  0.0000000E+00; -1.7950828E-03;  9.9864221E+02;  1.0000000E-01; -1.1249064E+03;3; -2.7690353E+01;  0.0000000E+00;  4.6427220E-01;0;  5.3389549E-01;  3.9885102E+04;  0.0000000E+00;  3.8606045E-04;  4.0000000E+04;  0.0000000E+00;  4.0005527E+04;  4.3178126E-01;  0.0000000E+00;  1.0211422E-01;  8.2041077E+02;
  1.5157914E-01;  9.9999998E-03; -5.9203233E-11;3391;  2.4513775E-01;  0.0000000E+00; -4.7441517E-08;  9.9863599E+02;  1.0000000E-01; -1.1300420E+03;3; -2.7724882E+01;  0.0000000E+00;  1.8236233E-06;0;  5.3749377E-01;  3.9884578E+04;  0.0000000E+00;  4.7050244E-14;  4.0000000E+04;  0.0000000E+00;  4.0005547E+04;  4.3411523E-01;  0.0000000E+00;  1.0337852E-01;  8.2501373E+02;
  1.5158154E-01;  9.9999998E-03;  1.0001970E-02;3392;  2.4499528E-01;  0.0000000E+00;  1.7949883E-03;  9.9864221E+02;  1.0000000E-01; -1.1249064E+03;3; -2.7690359E+01;  0.0000000E+00; -4.6426219E-01;0;  5.3389579E-01;  3.9885102E+04;  0.0000000E+00;  3.8603734E-04;  4.0000000E+04;  0.0000000E+00;  4.0005527E+04;  4.3178150E-01;  0.0000000E+00;  1.0211428E-01;  8.2041327E+02;
  1.5158850E-01;  9.9999998E-03; -2.0002909E-02;3389;  2.4456304E-01;  0.0000000E+00; -3.4729138E-03;  9.9865942E+02;  1.0000000E-01; -1.1106351E+03;3; -2.7620604E+01;  0.0000000E+00;  9.1153330E-01;0;  5.2333623E-01;  3.9886684E+04;  0.0000000E+00;  1.5113385E-03;  4.0000000E+04;  0.0000000E+00;  4.0005312E+04;  4.2481592E-01;  0.0000000E+00;  9.8520286E-02;  8.0342889E+02;
  1.5158850E-01;  9.9999998E-03;  2.0002909E-02;3393;  2.4456306E-01;  0.0000000E+00;  3.4728188E-03;  9.9865942E+02;  1.0000000E-01; -1.1106351E+03;3; -2.7620655E+01;  0.0000000E+00; -9.1153526E-01;0;  5.2333641E-01;  3.9886684E+04;  0.0000000E+00;  1.5116020E-03;  4.0000000E+04;  0.0000000E+00;  4.0005312E+04;  4.2481601E-01;  0.0000000E+00;  9.8520413E-02;  8.0343176E+02;
  1.5160015E-01;  9.9999998E-03; -3.0002661E-02;3388;  2.4383929E-01;  0.0000000E+00; -4.9252156E-03;  9.9868451E+02;  1.0000000E-01; -1.0898456E+03;3; -2.7509977E+01;  0.0000000E+00;  1.3599766E+00;0;  5.0648093E-01;  3.9889062E+04;  0.0000000E+00;  3.2677418E-03;  4.0000000E+04;  0.0000000E+00;  4.0005027E+04;  4.1333771E-01;  0.0000000E+00;  9.3143247E-02;  7.6647931E+02;
  1.5160015E-01;  9.9999998E-03;  3.0002661E-02;3394;  2.4383934E-01;  0.0000000E+00;  4.9251206E-03;  9.9868451E+02;  1.0000000E-01; -1.0898456E+03;3; -2.7509878E+01;  0.0000000E+00; -1.3599840E+00;0;  5.0648135E-01;  3.9889059E+04;  0.0000000E+00;  3.2677480E-03;  4.0000000E+04;  0.0000000E+00;  4.0005027E+04;  4.1333798E-01;  0.0000000E+00;  9.3143381E-02;  7.6648267E+02;
  1.5161692E-01;  9.9999998E-03; -4.0001683E-02;3387;  2.4283148E-01;  0.0000000E+00; -6.1064744E-03;  9.9871948E+02;  1.0000000E-01; -1.0609082E+03;3; -2.7366005E+01;  0.0000000E+00;  1.7769070E+00;0;  4.8429492E-01;  3.9892152E+04;  0.0000000E+00;  5.4453863E-03;  4.0000000E+04;  0.0000000E+00;  4.0004598E+04;  3.9755350E-01;  0.0000000E+00;  8.6741425E-02;  7.0270660E+02;
  1.5161692E-01;  9.9999998E-03;  4.0001683E-02;3395;  2.4283154E-01;  0.0000000E+00;  6.1063822E-03;  9.9871942E+02;  1.0000000E-01; -1.0609575E+03;3; -2.7366056E+01;  0.0000000E+00; -1.7769115E+00;0;  4.8429504E-01;  3.9892156E+04;  0.0000000E+00;  5.4458366E-03;  4.0000000E+04;  0.0000000E+00;  4.0004598E+04;  3.9755344E-01;  0.0000000E+00;  8.6741596E-02;  7.0270752E+02;
  1.5163946E-01;  9.9999998E-03; -5.0000381E-02;3386;  2.4156480E-01;  0.0000000E+00; -7.0232563E-03;  9.9875177E+02;  1.0000000E-01; -1.0341436E+03;3; -2.7192785E+01;  0.0000000E+00;  2.1383348E+00;0;  4.5787117E-01;  3.9895430E+04;  0.0000000E+00;  7.6934053E-03;  4.0000000E+04;  0.0000000E+00;  4.0003832E+04;  3.7775570E-01;  0.0000000E+00;  8.0115475E-02;  6.1220538E+02;
  1.5163946E-01;  9.9999998E-03;  5.0000381E-02;3396;  2.4156485E-01;  0.0000000E+00;  7.0231687E-03;  9.9875177E+02;  1.0000000E-01; -1.0341436E+03;3; -2.7192743E+01;  0.0000000E+00; -2.1383352E+00;0;  4.5787185E-01;  3.9895426E+04;  0.0000000E+00;  7.6947301E-03;  4.0000000E+04;  0.0000000E+00;  4.0003832E+04;  3.7775603E-01;  0.0000000E+00;  8.0115825E-02;  6.1220514E+02;
  1.5166847E-01;  9.9999998E-03; -5.9999421E-02;3385;  2.4005122E-01;  0.0000000E+00; -7.7237808E-03;  9.9877911E+02;  1.0000000E-01; -1.0114775E+03;3; -2.6965715E+01;  0.0000000E+00;  2.3778439E+00;0;  4.2827803E-01;  3.9898480E+04;  0.0000000E+00;  9.4937291E-03;  4.0000000E+04;  0.0000000E+00;  4.0003172E+04;  3.5432708E-01;  0.0000000E+00;  7.3950946E-02;  5.0744113E+02;
  1.5166847E-01;  9.9999998E-03;  5.9999421E-02;3397;  2.4005130E-01;  0.0000000E+00;  7.7236993E-03;  9.9877911E+02;  1.0000000E-01; -1.0114775E+03;3; -2.6965721E+01;  0.0000000E+00; -2.3778248E+00;0;  4.2827824E-01;  3.9898477E+04;  0.0000000E+00;  9.4937384E-03;  4.0000000E+04;  0.0000000E+00;  4.0003172E+04;  3.5432711E-01;  0.0000000E+00;  7.3951118E-02;  5.0743832E+02;
  1.5170462E-01;  9.9999998E-03; -6.9999613E-02;3384;  2.3833847E-01;  0.0000000E+00; -8.2311966E-03;  9.9879584E+02;  1.0000000E-01; -9.9760132E+02;3; -2.6706375E+01;  0.0000000E+00;  2.5302145E+00;0;  3.9644396E-01;  3.9900492E+04;  0.0000000E+00;  1.0173049E-02;  4.0000000E+04;  0.0000000E+00;  4.0002422E+04;  3.2773834E-01;  0.0000000E+00;  6.8705626E-02;  4.1645032E+02;
  1.5174797E-01;  9.9999998E-03; -8.0001809E-02;3383;  2.3648137E-01;  0.0000000E+00; -8.6361496E-03;  9.9879523E+02;  1.0000000E-01; -9.9814453E+02;3; -2.6410101E+01;  0.0000000E+00;  2.6224003E+00;0;  3.6309484E-01;  3.9900836E+04;  0.0000000E+00;  9.0052215E-03;  4.0000000E+04;  0.0000000E+00;  4.0002176E+04;  2.9855004E-01;  0.0000000E+00;  6.4544797E-02;  3.8294305E+02;
  1.5179756E-01;  9.9999998E-03; -9.0006329E-02;3382;  2.3451078E-01;  0.0000000E+00; -8.9785354E-03;  9.9876990E+02;  1.0000000E-01; -1.0191316E+03;3; -2.6093864E+01;  0.0000000E+00;  2.6462848E+00;0;  3.2874015E-01;  3.9898254E+04;  0.0000000E+00;  5.4138210E-03;  4.0000000E+04;  0.0000000E+00;  4.0002715E+04;  2.6742274E-01;  0.0000000E+00;  6.1317418E-02;  4.6285919E+02;
  1.5185231E-01;  9.9999998E-03; -1.0001379E-01;3381;  2.3248199E-01;  0.0000000E+00; -9.3794530E-03;  9.9871155E+02;  1.0000000E-01; -1.0674760E+03;3; -2.5788380E+01;  0.0000000E+00;  2.8297415E+00;0;  2.9371244E-01;  3.9891703E+04;  0.0000000E+00; -6.8700354E-04;  4.0000000E+04;  0.0000000E+00;  4.0004773E+04;  2.3513968E-01;  0.0000000E+00;  5.8572743E-02;  7.1710297E+02;
  1.6182020E-01;  9.9999998E-03; -1.0002550E-01;3442;  2.3211993E-01;  0.0000000E+00; -1.1385124E-02;  9.9903638E+02;  1.0000000E-01; -7.9834772E+02;3; -2.5692854E+01;  0.0000000E+00;  2.9701629E+00;0;  3.9862442E-01;  3.9925441E+04;  0.0000000E+00; -1.0092094E-03;  4.0000000E+04;  0.0000000E+00;  3.9996277E+04;  3.3304590E-01;  0.0000000E+00;  6.5578535E-02;  3.6462979E+02;
  1.6176912E-01;  9.9999998E-03; -9.0018548E-02;3443;  2.3422562E-01;  0.0000000E+00; -1.1123295E-02;  9.9906787E+02;  1.0000000E-01; -7.7227441E+02;3; -2.5960707E+01;  0.0000000E+00;  2.7022431E+00;0;  4.3817008E-01;  3.9928977E+04;  0.0000000E+00;  4.3753521E-03;  4.0000000E+04;  0.0000000E+00;  3.9995176E+04;  3.7056255E-01;  0.0000000E+00;  6.7607522E-02;  5.0862100E+02;
  1.6172381E-01;  9.9999998E-03; -8.0014564E-02;3444;  2.3628096E-01;  0.0000000E+00; -1.0925690E-02;  9.9906531E+02;  1.0000000E-01; -7.7439777E+02;3; -2.6221539E+01;  0.0000000E+00;  2.6387312E+00;0;  4.7644362E-01;  3.9928652E+04;  0.0000000E+00;  7.3315860E-03;  4.0000000E+04;  0.0000000E+00;  3.9995367E+04;  4.0601775E-01;  0.0000000E+00;  7.0425875E-02;  4.8827625E+02;
  1.6168518E-01;  9.9999998E-03; -7.0012897E-02;3445;  2.3826937E-01;  0.0000000E+00; -1.0674142E-02;  9.9904095E+02;  1.0000000E-01; -7.9454535E+02;3; -2.6450941E+01;  0.0000000E+00;  2.5190508E+00;0;  5.1316929E-01;  3.9925691E+04;  0.0000000E+00;  8.1517007E-03;  4.0000000E+04;  0.0000000E+00;  3.9996195E+04;  4.3869460E-01;  0.0000000E+00;  7.4474722E-02;  3.7050909E+02;
  1.6165306E-01;  9.9999998E-03; -6.0012724E-02;3446;  2.4012546E-01;  0.0000000E+00; -1.0307827E-02;  9.9900140E+02;  1.0000000E-01; -8.2733453E+02;3; -2.6681980E+01;  0.0000000E+00;  2.2988043E+00;0;  5.4788983E-01;  3.9921316E+04;  0.0000000E+00;  7.4529154E-03;  4.0000000E+04;  0.0000000E+00;  3.9997480E+04;  4.6800822E-01;  0.0000000E+00;  7.9881631E-02;  2.1432938E+02;
  1.6162691E-01;  9.9999998E-03; -5.0013069E-02;3447;  2.4176756E-01;  0.0000000E+00; -9.6710287E-03;  9.9895471E+02;  1.0000000E-01; -8.6600012E+02;3; -2.6823183E+01;  0.0000000E+00;  1.9613352E+00;0;  5.7993978E-01;  3.9916270E+04;  0.0000000E+00;  5.9117055E-03;  4.0000000E+04;  0.0000000E+00;  3.9998660E+04;  4.9349460E-01;  0.0000000E+00;  8.6445205E-02;  6.4096275E+01;
  1.6160609E-01;  9.9999998E-03; -4.0013026E-02;3448;  2.4313915E-01;  0.0000000E+00; -8.6492524E-03;  9.9890430E+02;  1.0000000E-01; -9.0777673E+02;3; -2.6952051E+01;  0.0000000E+00;  1.5392658E+00;0;  6.0843730E-01;  3.9911391E+04;  0.0000000E+00;  4.0974305E-03;  4.0000000E+04;  0.0000000E+00;  3.9999559E+04;  5.1478803E-01;  0.0000000E+00;  9.3649268E-02;  5.5407314E+01;
  1.6159025E-01;  9.9999998E-03; -3.0011987E-02;3449;  2.4418420E-01;  0.0000000E+00; -7.1419333E-03;  9.9885754E+02;  1.0000000E-01; -9.4649170E+02;3; -2.7096197E+01;  0.0000000E+00;  1.0686557E+00;0;  6.3232929E-01;  3.9907074E+04;  0.0000000E+00;  2.4128892E-03;  4.0000000E+04;  0.0000000E+00;  4.0000074E+04;  5.3161168E-01;  0.0000000E+00;  1.0071763E-01;  1.3312419E+02;
  1.6157900E-01;  9.9999998E-03; -2.0009566E-02;3450;  2.4489628E-01;  0.0000000E+00; -5.1400461E-03;  9.9882086E+02;  1.0000000E-01; -9.7691058E+02;3; -2.7211012E+01;  0.0000000E+00;  6.3970834E-01;0;  6.5048522E-01;  3.9903746E+04;  0.0000000E+00;  1.0991900E-03;  4.0000000E+04;  0.0000000E+00;  4.0000309E+04;  5.4376078E-01;  0.0000000E+00;  1.0672444E-01;  1.7505592E+02;
  1.6157225E-01;  9.9999998E-03; -1.0005476E-02;3451;  2.4530742E-01;  0.0000000E+00; -2.7024015E-03;  9.9879614E+02;  1.0000000E-01; -9.9735443E+02;3; -2.7294203E+01;  0.0000000E+00;  3.0677155E-01;0;  6.6187477E-01;  3.9901719E+04;  0.0000000E+00;  2.7805349E-04;  4.0000000E+04;  0.0000000E+00;  4.0000508E+04;  5.5110258E-01;  0.0000000E+00;  1.1077221E-01;  1.9261157E+02;
  1.6156992E-01;  9.9999998E-03; -8.7701478E-11;3452;  2.4543382E-01;  0.0000000E+00; -4.9316068E-08;  9.9878735E+02;  1.0000000E-01; -1.0046628E+03;3; -2.7368364E+01;  0.0000000E+00;  4.8508196E-06;0;  6.6575986E-01;  3.9901035E+04;  0.0000000E+00; -8.0954031E-13;  4.0000000E+04;  0.0000000E+00;  4.0000586E+04;  5.5355769E-01;  0.0000000E+00;  1.1220216E-01;  1.9695557E+02;
  1.6157225E-01;  9.9999998E-03;  1.0005476E-02;3453;  2.4530745E-01;  0.0000000E+00;  2.7023028E-03;  9.9879614E+02;  1.0000000E-01; -9.9735443E+02;3; -2.7294207E+01;  0.0000000E+00; -3.0675951E-01;0;  6.6187429E-01;  3.9901719E+04;  0.0000000E+00;  2.7804848E-04;  4.0000000E+04;  0.0000000E+00;  4.0000508E+04;  5.5110198E-01;  0.0000000E+00;  1.1077228E-01;  1.9261235E+02;
  1.6157900E-01;  9.9999998E-03;  2.0009566E-02;3454;  2.4489632E-01;  0.0000000E+00;  5.1399423E-03;  9.9882086E+02;  1.0000000E-01; -9.7691058E+02;3; -2.7211140E+01;  0.0000000E+00; -6.3969344E-01;0;  6.5048617E-01;  3.9903746E+04;  0.0000000E+00;  1.0993434E-03;  4.0000000E+04;  0.0000000E+00;  4.0000309E+04;  5.4376161E-01;  0.0000000E+00;  1.0672455E-01;  1.7505804E+02;
  1.6159025E-01;  9.9999998E-03;  3.0011987E-02;3455;  2.4418424E-01;  0.0000000E+00;  7.1418332E-03;  9.9885754E+02;  1.0000000E-01; -9.4649170E+02;3; -2.7096170E+01;  0.0000000E+00; -1.0686482E+00;0;  6.3232917E-01;  3.9907070E+04;  0.0000000E+00;  2.4126361E-03;  4.0000000E+04;  0.0000000E+00;  4.0000074E+04;  5.3161144E-01;  0.0000000E+00;  1.0071771E-01;  1.3312872E+02;
  1.6160609E-01;  9.9999998E-03;  4.0013026E-02;3456;  2.4313919E-01;  0.0000000E+00;  8.6491406E-03;  9.9890424E+02;  1.0000000E-01; -9.0782611E+02;3; -2.6952017E+01;  0.0000000E+00; -1.5392581E+00;0;  6.0843766E-01;  3.9911391E+04;  0.0000000E+00;  4.0978137E-03;  4.0000000E+04;  0.0000000E+00;  3.9999559E+04;  5.1478815E-01;  0.0000000E+00;  9.3649477E-02;  5.5407104E+01;
  1.6162691E-01;  9.9999998E-03;  5.0013069E-02;3457;  2.4176762E-01;  0.0000000E+00;  9.6709346E-03;  9.9895471E+02;  1.0000000E-01; -8.6600012E+02;3; -2.6823111E+01;  0.0000000E+00; -1.9613428E+00;0;  5.7994020E-01;  3.9916270E+04;  0.0000000E+00;  5.9120310E-03;  4.0000000E+04;  0.0000000E+00;  3.9998660E+04;  4.9349478E-01;  0.0000000E+00;  8.6445443E-02;  6.4096413E+01;
  1.6165306E-01;  9.9999998E-03;  6.0012724E-02;3458;  2.4012554E-01;  0.0000000E+00;  1.0307748E-02;  9.9900140E+02;  1.0000000E-01; -8.2733453E+02;3; -2.6682043E+01;  0.0000000E+00; -2.2987666E+00;0;  5.4788959E-01;  3.9921312E+04;  0.0000000E+00;  7.4538826E-03;  4.0000000E+04;  0.0000000E+00;  3.9997484E+04;  4.6800780E-01;  0.0000000E+00;  7.9881780E-02;  2.1433002E+02;
  1.7178753E-01;  9.9999998E-03; -1.0003568E-01;3503;  2.3200551E-01;  0.0000000E+00; -1.3518548E-02;  9.9917468E+02;  1.0000000E-01; -6.8378308E+02;3; -2.5535952E+01;  0.0000000E+00;  2.8048699E+00;0;  5.0826144E-01;  3.9943297E+04;  0.0000000E+00; -5.8360177E-04;  4.0000000E+04;  0.0000000E+00;  3.9989133E+04;  4.3682450E-01;  0.0000000E+00;  7.1436957E-02;  1.2687805E+03;
  1.7174113E-01;  9.9999998E-03; -9.0030074E-02;3504;  2.3422214E-01;  0.0000000E+00; -1.3441607E-02;  9.9918420E+02;  1.0000000E-01; -6.7588208E+02;3; -2.5726362E+01;  0.0000000E+00;  2.5939035E+00;0;  5.5062139E-01;  3.9944090E+04;  0.0000000E+00;  4.1936520E-03;  4.0000000E+04;  0.0000000E+00;  3.9988930E+04;  4.7823298E-01;  0.0000000E+00;  7.2388440E-02;  1.2905897E+03;
  1.7170067E-01;  9.9999998E-03; -8.0027267E-02;3505;  2.3644824E-01;  0.0000000E+00; -1.3475327E-02;  9.9916278E+02;  1.0000000E-01; -6.9360999E+02;3; -2.5925102E+01;  0.0000000E+00;  2.5039933E+00;0;  5.9096885E-01;  3.9941250E+04;  0.0000000E+00;  6.5368298E-03;  4.0000000E+04;  0.0000000E+00;  3.9990008E+04;  5.1657820E-01;  0.0000000E+00;  7.4390657E-02;  1.1623171E+03;
  1.7166673E-01;  9.9999998E-03; -7.0026509E-02;3506;  2.3867509E-01;  0.0000000E+00; -1.3537910E-02;  9.9911987E+02;  1.0000000E-01; -7.2916449E+02;3; -2.6064333E+01;  0.0000000E+00;  2.3897443E+00;0;  6.2913191E-01;  3.9936141E+04;  0.0000000E+00;  6.9562905E-03;  4.0000000E+04;  0.0000000E+00;  3.9991582E+04;  5.5125213E-01;  0.0000000E+00;  7.7879801E-02;  9.5556049E+02;
  1.7163889E-01;  9.9999998E-03; -6.0027007E-02;3507;  2.4084429E-01;  0.0000000E+00; -1.3553752E-02;  9.9906543E+02;  1.0000000E-01; -7.7424963E+02;3; -2.6097387E+01;  0.0000000E+00;  2.1380475E+00;0;  6.6478878E-01;  3.9929902E+04;  0.0000000E+00;  6.1320523E-03;  4.0000000E+04;  0.0000000E+00;  3.9993301E+04;  5.8181536E-01;  0.0000000E+00;  8.2973406E-02;  7.3111444E+02;
  1.7161649E-01;  9.9999998E-03; -5.0027486E-02;3508;  2.4285126E-01;  0.0000000E+00; -1.3390977E-02;  9.9900354E+02;  1.0000000E-01; -8.2555682E+02;3; -2.6019033E+01;  0.0000000E+00;  1.5876471E+00;0;  6.9742584E-01;  3.9923520E+04;  0.0000000E+00;  4.7041797E-03;  4.0000000E+04;  0.0000000E+00;  3.9994922E+04;  6.0797071E-01;  0.0000000E+00;  8.9455158E-02;  5.3262872E+02;
  1.7159872E-01;  9.9999998E-03; -4.0026732E-02;3509;  2.4448699E-01;  0.0000000E+00; -1.2684984E-02;  9.9894379E+02;  1.0000000E-01; -8.7503693E+02;3; -2.5938643E+01;  0.0000000E+00;  7.2526205E-01;0;  7.2631109E-01;  3.9917441E+04;  0.0000000E+00;  3.1606434E-03;  4.0000000E+04;  0.0000000E+00;  3.9996012E+04;  6.2952697E-01;  0.0000000E+00;  9.6784130E-02;  3.8396216E+02;
  1.7158501E-01;  9.9999998E-03; -3.0023813E-02;3510;  2.4557072E-01;  0.0000000E+00; -1.0944254E-02;  9.9888818E+02;  1.0000000E-01; -9.2110968E+02;3; -2.6041195E+01;  0.0000000E+00; -8.2213119E-02;0;  7.5049818E-01;  3.9912375E+04;  0.0000000E+00;  1.8100445E-03;  4.0000000E+04;  0.0000000E+00;  3.9996859E+04;  6.4636284E-01;  0.0000000E+00;  1.0413533E-01;  2.9019888E+02;
  1.7157508E-01;  9.9999998E-03; -2.0018313E-02;3511;  2.4620652E-01;  0.0000000E+00; -8.0713565E-03;  9.9884326E+02;  1.0000000E-01; -9.5834320E+02;3; -2.6240999E+01;  0.0000000E+00; -3.4575981E-01;0;  7.6890641E-01;  3.9908414E+04;  0.0000000E+00;  8.0601318E-04;  4.0000000E+04;  0.0000000E+00;  3.9997062E+04;  6.5841717E-01;  0.0000000E+00;  1.1048923E-01;  2.4208028E+02;
  1.7156905E-01;  9.9999998E-03; -1.0010117E-02;3512;  2.4652109E-01;  0.0000000E+00; -4.2937379E-03;  9.9881366E+02;  1.0000000E-01; -9.8283630E+02;3; -2.6394926E+01;  0.0000000E+00; -2.7314791E-01;0;  7.8047937E-01;  3.9906004E+04;  0.0000000E+00;  2.0085170E-04;  4.0000000E+04;  0.0000000E+00;  3.9997125E+04;  6.6565830E-01;  0.0000000E+00;  1.1482109E-01;  2.2326904E+02;
  1.7156693E-01;  9.9999998E-03; -1.2134686E-10;3513;  2.4661192E-01;  0.0000000E+00; -5.1279002E-08;  9.9880408E+02;  1.0000000E-01; -9.9078674E+02;3; -2.6451559E+01;  0.0000000E+00;  1.2838755E-05;0;  7.8443217E-01;  3.9905176E+04;  0.0000000E+00;  1.0420953E-13;  4.0000000E+04;  0.0000000E+00;  3.9997117E+04;  6.6807157E-01;  0.0000000E+00;  1.1636058E-01;  2.1896260E+02;
  1.7156905E-01;  9.9999998E-03;  1.0010117E-02;3514;  2.4652107E-01;  0.0000000E+00;  4.2936308E-03;  9.9881366E+02;  1.0000000E-01; -9.8283630E+02;3; -2.6394842E+01;  0.0000000E+00;  2.7315202E-01;0;  7.8047973E-01;  3.9906004E+04;  0.0000000E+00;  2.0076903E-04;  4.0000000E+04;  0.0000000E+00;  3.9997125E+04;  6.6565865E-01;  0.0000000E+00;  1.1482108E-01;  2.2327078E+02;
  1.7157508E-01;  9.9999998E-03;  2.0018311E-02;3515;  2.4620654E-01;  0.0000000E+00;  8.0712512E-03;  9.9884332E+02;  1.0000000E-01; -9.5829382E+02;3; -2.6240959E+01;  0.0000000E+00;  3.4575674E-01;0;  7.6890624E-01;  3.9908414E+04;  0.0000000E+00;  8.0598571E-04;  4.0000000E+04;  0.0000000E+00;  3.9997062E+04;  6.5841687E-01;  0.0000000E+00;  1.1048938E-01;  2.4207812E+02;
  1.7158501E-01;  9.9999998E-03;  3.0023813E-02;3516;  2.4557076E-01;  0.0000000E+00;  1.0944143E-02;  9.9888818E+02;  1.0000000E-01; -9.2110968E+02;3; -2.6041262E+01;  0.0000000E+00;  8.2220003E-02;0;  7.5049812E-01;  3.9912375E+04;  0.0000000E+00;  1.8100449E-03;  4.0000000E+04;  0.0000000E+00;  3.9996859E+04;  6.4636272E-01;  0.0000000E+00;  1.0413541E-01;  2.9019995E+02;
  1.7159872E-01;  9.9999998E-03;  4.0026728E-02;3517;  2.4448705E-01;  0.0000000E+00;  1.2684892E-02;  9.9894373E+02;  1.0000000E-01; -8.7508630E+02;3; -2.5938631E+01;  0.0000000E+00; -7.2526687E-01;0;  7.2631091E-01;  3.9917441E+04;  0.0000000E+00;  3.1606923E-03;  4.0000000E+04;  0.0000000E+00;  3.9996012E+04;  6.2952656E-01;  0.0000000E+00;  9.6784346E-02;  3.8396185E+02;
  1.7161649E-01;  9.9999998E-03;  5.0027486E-02;3518;  2.4285133E-01;  0.0000000E+00;  1.3390905E-02;  9.9900354E+02;  1.0000000E-01; -8.2555682E+02;3; -2.6019001E+01;  0.0000000E+00; -1.5876052E+00;0;  6.9742626E-01;  3.9923516E+04;  0.0000000E+00;  4.7036088E-03;  4.0000000E+04;  0.0000000E+00;  3.9994922E+04;  6.0797095E-01;  0.0000000E+00;  8.9455292E-02;  5.3262830E+02;
  1.7163889E-01;  9.9999998E-03;  6.0027007E-02;3519;  2.4084438E-01;  0.0000000E+00;  1.3553703E-02;  9.9906543E+02;  1.0000000E-01; -7.7424963E+02;3; -2.6097425E+01;  0.0000000E+00; -2.1380432E+00;0;  6.6478890E-01;  3.9929898E+04;  0.0000000E+00;  6.1345859E-03;  4.0000000E+04;  0.0000000E+00;  3.9993301E+04;  5.8181524E-01;  0.0000000E+00;  8.2973666E-02;  7.3111420E+02;
  1.8175520E-01;  9.9999998E-03; -1.0004343E-01;3564;  2.3220299E-01;  0.0000000E+00; -1.5632270E-02;  9.9915027E+02;  1.0000000E-01; -7.0398004E+02;3; -2.5287170E+01;  0.0000000E+00;  2.6176848E+00;0;  6.1677611E-01;  3.9946547E+04;  0.0000000E+00;  2.1534213E-03;  4.0000000E+04;  0.0000000E+00;  3.9983352E+04;  5.4077673E-01;  0.0000000E+00;  7.5999357E-02;  1.9761871E+03;
  1.8171377E-01;  9.9999998E-03; -9.0039417E-02;3565;  2.3461856E-01;  0.0000000E+00; -1.5768053E-02;  9.9914429E+02;  1.0000000E-01; -7.0891815E+02;3; -2.5418114E+01;  0.0000000E+00;  2.4904563E+00;0;  6.5948367E-01;  3.9945074E+04;  0.0000000E+00;  6.4359372E-03;  4.0000000E+04;  0.0000000E+00;  3.9984359E+04;  5.8397150E-01;  0.0000000E+00;  7.5512201E-02;  1.8676250E+03;
  1.8167816E-01;  9.9999998E-03; -8.0037937E-02;3566;  2.3710208E-01;  0.0000000E+00; -1.5982164E-02;  9.9910919E+02;  1.0000000E-01; -7.3800378E+02;3; -2.5419666E+01;  0.0000000E+00;  2.3187242E+00;0;  6.9931579E-01;  3.9940504E+04;  0.0000000E+00;  8.0940276E-03;  4.0000000E+04;  0.0000000E+00;  3.9986191E+04;  6.2303078E-01;  0.0000000E+00;  7.6285020E-02;  1.6266606E+03;
  1.8164864E-01;  9.9999998E-03; -7.0038423E-02;3567;  2.3962338E-01;  0.0000000E+00; -1.6203010E-02;  9.9906097E+02;  1.0000000E-01; -7.7795325E+02;3; -2.5296064E+01;  0.0000000E+00;  2.1203527E+00;0;  7.3627388E-01;  3.9934047E+04;  0.0000000E+00;  7.8927176E-03;  4.0000000E+04;  0.0000000E+00;  3.9988590E+04;  6.5751970E-01;  0.0000000E+00;  7.8754157E-02;  1.3278304E+03;
  1.8162498E-01;  9.9999998E-03; -6.0039967E-02;3568;  2.4219093E-01;  0.0000000E+00; -1.6419951E-02;  9.9899884E+02;  1.0000000E-01; -8.2945795E+02;3; -2.5117001E+01;  0.0000000E+00;  2.0329280E+00;0;  7.7025729E-01;  3.9926766E+04;  0.0000000E+00;  6.6114031E-03;  4.0000000E+04;  0.0000000E+00;  3.9990820E+04;  6.8722403E-01;  0.0000000E+00;  8.3033249E-02;  1.0323740E+03;
  1.8160653E-01;  9.9999998E-03; -5.0041441E-02;3569;  2.4476038E-01;  0.0000000E+00; -1.6606107E-02;  9.9893512E+02;  1.0000000E-01; -8.8224658E+02;3; -2.4780493E+01;  0.0000000E+00;  1.8222297E+00;0;  8.0099392E-01;  3.9919691E+04;  0.0000000E+00;  4.8997649E-03;  4.0000000E+04;  0.0000000E+00;  3.9992879E+04;  7.1209264E-01;  0.0000000E+00;  8.8901281E-02;  7.8256592E+02;
  1.8159235E-01;  9.9999998E-03; -4.0041700E-02;3570;  2.4724522E-01;  0.0000000E+00; -1.6707793E-02;  9.9887146E+02;  1.0000000E-01; -9.3498584E+02;3; -2.4279768E+01;  0.0000000E+00;  1.5340445E+00;0;  8.2800317E-01;  3.9913148E+04;  0.0000000E+00;  3.2117937E-03;  4.0000000E+04;  0.0000000E+00;  3.9994309E+04;  7.3218983E-01;  0.0000000E+00;  9.5813319E-02;  5.9973645E+02;
  1.8158117E-01;  9.9999998E-03; -3.0038703E-02;3571;  2.4926223E-01;  0.0000000E+00; -1.6437136E-02;  9.9881342E+02;  1.0000000E-01; -9.8308325E+02;3; -2.3362829E+01;  0.0000000E+00;  1.9666919E-02;0;  8.5056406E-01;  3.9907684E+04;  0.0000000E+00;  1.8058860E-03;  4.0000000E+04;  0.0000000E+00;  3.9995129E+04;  7.4762529E-01;  0.0000000E+00;  1.0293876E-01;  4.8580252E+02;
  1.8157268E-01;  9.9999998E-03; -2.0030050E-02;3572;  2.5020373E-01;  0.0000000E+00; -1.3140106E-02;  9.9876721E+02;  1.0000000E-01; -1.0213538E+03;3; -2.2785656E+01;  0.0000000E+00; -2.2600403E+00;0;  8.6776793E-01;  3.9903602E+04;  0.0000000E+00;  7.9368608E-04;  4.0000000E+04;  0.0000000E+00;  3.9995520E+04;  7.5852579E-01;  0.0000000E+00;  1.0924215E-01;  4.2778696E+02;
  1.8156718E-01;  9.9999998E-03; -1.0016476E-02;3573;  2.5046962E-01;  0.0000000E+00; -7.0505938E-03;  9.9873724E+02;  1.0000000E-01; -1.0461925E+03;3; -2.2676718E+01;  0.0000000E+00; -1.3403009E+00;0;  8.7862116E-01;  3.9901031E+04;  0.0000000E+00;  1.9616757E-04;  4.0000000E+04;  0.0000000E+00;  3.9995684E+04;  7.6501036E-01;  0.0000000E+00;  1.1361080E-01;  4.0525165E+02;
  1.8156527E-01;  9.9999998E-03; -1.3541875E-10;3574;  2.5053948E-01;  0.0000000E+00; -5.0839901E-08;  9.9872809E+02;  1.0000000E-01; -1.0537479E+03;3; -2.2648136E+01;  0.0000000E+00;  2.9135063E-06;0;  8.8233918E-01;  3.9900152E+04;  0.0000000E+00;  3.7259968E-13;  4.0000000E+04;  0.0000000E+00;  3.9995805E+04;  7.6716310E-01;  0.0000000E+00;  1.1517607E-01;  4.0012122E+02;
  1.8156718E-01;  9.9999998E-03;  1.0016476E-02;3575;  2.5046962E-01;  0.0000000E+00;  7.0504923E-03;  9.9873724E+02;  1.0000000E-01; -1.0461925E+03;3; -2.2676693E+01;  0.0000000E+00;  1.3403039E+00;0;  8.7862122E-01;  3.9901031E+04;  0.0000000E+00;  1.9615711E-04;  4.0000000E+04;  0.0000000E+00;  3.9995684E+04;  7.6501042E-01;  0.0000000E+00;  1.1361083E-01;  4.0525165E+02;
  1.8157268E-01;  9.9999998E-03;  2.0030048E-02;3576;  2.5020376E-01;  0.0000000E+00;  1.3139998E-02;  9.9876721E+02;  1.0000000E-01; -1.0213538E+03;3; -2.2785622E+01;  0.0000000E+00;  2.2600484E+00;0;  8.6776787E-01;  3.9903602E+04;  0.0000000E+00;  7.9375168E-04;  4.0000000E+04;  0.0000000E+00;  3.9995520E+04;  7.5852567E-01;  0.0000000E+00;  1.0924222E-01;  4.2778751E+02;
  1.8158117E-01;  9.9999998E-03;  3.0038703E-02;3577;  2.4926232E-01;  0.0000000E+00;  1.6437087E-02;  9.9881335E+02;  1.0000000E-01; -9.8313263E+02;3; -2.3362823E+01;  0.0000000E+00; -1.9610109E-02;0;  8.5056388E-01;  3.9907688E+04;  0.0000000E+00;  1.8057959E-03;  4.0000000E+04;  0.0000000E+00;  3.9995129E+04;  7.4762505E-01;  0.0000000E+00;  1.0293880E-01;  4.8579926E+02;
  1.8159235E-01;  9.9999998E-03;  4.0041700E-02;3578;  2.4724531E-01;  0.0000000E+00;  1.6707757E-02;  9.9887146E+02;  1.0000000E-01; -9.3498584E+02;3; -2.4279760E+01;  0.0000000E+00; -1.5340486E+00;0;  8.2800317E-01;  3.9913148E+04;  0.0000000E+00;  3.2116384E-03;  4.0000000E+04;  0.0000000E+00;  3.9994309E+04;  7.3218971E-01;  0.0000000E+00;  9.5813431E-02;  5.9973425E+02;
  1.8160653E-01;  9.9999998E-03;  5.0041441E-02;3579;  2.4476048E-01;  0.0000000E+00;  1.6606072E-02;  9.9893512E+02;  1.0000000E-01; -8.8224658E+02;3; -2.4780600E+01;  0.0000000E+00; -1.8222317E+00;0;  8.0099487E-01;  3.9919688E+04;  0.0000000E+00;  4.9002953E-03;  4.0000000E+04;  0.0000000E+00;  3.9992879E+04;  7.1209329E-01;  0.0000000E+00;  8.8901564E-02;  7.8256531E+02;
  1.8162498E-01;  9.9999998E-03;  6.0039967E-02;3580;  2.4219102E-01;  0.0000000E+00;  1.6419917E-02;  9.9899884E+02;  1.0000000E-01; -8.2945795E+02;3; -2.5117039E+01;  0.0000000E+00; -2.0329144E+00;0;  7.7025789E-01;  3.9926766E+04;  0.0000000E+00;  6.6130189E-03;  4.0000000E+04;  0.0000000E+00;  3.9990820E+04;  6.8722451E-01;  0.0000000E+00;  8.3033368E-02;  1.0323754E+03;
  1.9172509E-01;  9.9999998E-03; -1.0004669E-01;3625;  2.3302414E-01;  0.0000000E+00; -1.7606545E-02;  9.9898969E+02;  1.0000000E-01; -8.3701331E+02;3; -2.4853371E+01;  0.0000000E+00;  2.4461710E+00;0;  7.1697402E-01;  3.9937613E+04;  0.0000000E+00;  8.4707551E-03;  4.0000000E+04;  0.0000000E+00;  3.9979293E+04;  6.3798213E-01;  0.0000000E+00;  7.8991897E-02;  2.4798435E+03;
  1.9168864E-01;  9.9999998E-03; -9.0044141E-02;3626;  2.3594664E-01;  0.0000000E+00; -1.7814843E-02;  9.9897974E+02;  1.0000000E-01; -8.4526001E+02;3; -2.4481424E+01;  0.0000000E+00;  2.2720327E+00;0;  7.5684243E-01;  3.9934637E+04;  0.0000000E+00;  1.2093828E-02;  4.0000000E+04;  0.0000000E+00;  3.9981262E+04;  6.8009788E-01;  0.0000000E+00;  7.6744564E-02;  2.2371169E+03;
  1.9165792E-01;  9.9999998E-03; -8.0043726E-02;3627;  2.3907219E-01;  0.0000000E+00; -1.8004211E-02;  9.9894598E+02;  1.0000000E-01; -8.7320978E+02;3; -2.3914165E+01;  0.0000000E+00;  2.1640654E+00;0;  7.9292011E-01;  3.9929211E+04;  0.0000000E+00;  1.2757539E-02;  4.0000000E+04;  0.0000000E+00;  3.9984141E+04;  7.1700203E-01;  0.0000000E+00;  7.5918056E-02;  1.8822040E+03;
  1.9163302E-01;  9.9999998E-03; -7.0044868E-02;3628;  2.4253473E-01;  0.0000000E+00; -1.8226959E-02;  9.9889844E+02;  1.0000000E-01; -9.1261609E+02;3; -2.2903301E+01;  0.0000000E+00;  2.1199322E+00;0;  8.2547539E-01;  3.9922293E+04;  0.0000000E+00;  1.1509974E-02;  4.0000000E+04;  0.0000000E+00;  3.9987164E+04;  7.4852312E-01;  0.0000000E+00;  7.6952256E-02;  1.4908687E+03;
  1.9161372E-01;  9.9999998E-03; -6.0046680E-02;3629;  2.4628867E-01;  0.0000000E+00; -1.8426806E-02;  9.9884448E+02;  1.0000000E-01; -9.5730621E+02;3; -2.1418556E+01;  0.0000000E+00;  2.0176215E+00;0;  8.5470498E-01;  3.9914992E+04;  0.0000000E+00;  9.2758844E-03;  4.0000000E+04;  0.0000000E+00;  3.9989898E+04;  7.7474415E-01;  0.0000000E+00;  7.9960816E-02;  1.1233444E+03;
  1.9159968E-01;  9.9999998E-03; -5.0048389E-02;3630;  2.5034937E-01;  0.0000000E+00; -1.8511938E-02;  9.9878632E+02;  1.0000000E-01; -1.0055024E+03;3; -1.9663523E+01;  0.0000000E+00;  2.0097413E+00;0;  8.8065988E-01;  3.9907957E+04;  0.0000000E+00;  6.7556817E-03;  4.0000000E+04;  0.0000000E+00;  3.9992488E+04;  7.9593647E-01;  0.0000000E+00;  8.4723391E-02;  8.1963013E+02;
  1.9159000E-01;  9.9999998E-03; -4.0049084E-02;3631;  2.5452578E-01;  0.0000000E+00; -1.8382525E-02;  9.9872968E+02;  1.0000000E-01; -1.0524640E+03;3; -1.7794838E+01;  0.0000000E+00;  1.7910206E+00;0;  9.0318590E-01;  3.9901582E+04;  0.0000000E+00;  4.4105491E-03;  4.0000000E+04;  0.0000000E+00;  3.9994262E+04;  8.1248456E-01;  0.0000000E+00;  9.0701342E-02;  5.9825085E+02;
  1.9158420E-01;  9.9999998E-03; -3.0047322E-02;3632;  2.5874907E-01;  0.0000000E+00; -1.7855570E-02;  9.9867627E+02;  1.0000000E-01; -1.0967096E+03;3; -1.6053265E+01;  0.0000000E+00;  1.3135082E+00;0;  9.2190152E-01;  3.9896484E+04;  0.0000000E+00;  2.4903896E-03;  4.0000000E+04;  0.0000000E+00;  3.9995250E+04;  8.2482272E-01;  0.0000000E+00;  9.7078778E-02;  4.5831842E+02;
  1.9158094E-01;  9.9999998E-03; -2.0040376E-02;3633;  2.6262757E-01;  0.0000000E+00; -1.6256006E-02;  9.9863623E+02;  1.0000000E-01; -1.1298445E+03;3; -1.4313417E+01;  0.0000000E+00; -1.8975196E-02;0;  9.3618250E-01;  3.9892629E+04;  0.0000000E+00;  1.1028595E-03;  4.0000000E+04;  0.0000000E+00;  3.9995742E+04;  8.3334249E-01;  0.0000000E+00;  1.0283998E-01;  3.8441806E+02;
  1.9157851E-01;  9.9999998E-03; -1.0023370E-02;3634;  2.6489314E-01;  0.0000000E+00; -1.0118967E-02;  9.9860864E+02;  1.0000000E-01; -1.1527080E+03;3; -1.2775742E+01;  0.0000000E+00; -1.6627063E+00;0;  9.4523472E-01;  3.9890277E+04;  0.0000000E+00;  2.7434863E-04;  4.0000000E+04;  0.0000000E+00;  3.9996102E+04;  8.3832246E-01;  0.0000000E+00;  1.0691223E-01;  3.5394489E+02;
  1.9157743E-01;  9.9999998E-03; -9.9819798E-11;3635;  2.6536748E-01;  0.0000000E+00; -4.1593108E-08;  9.9859979E+02;  1.0000000E-01; -1.1600659E+03;3; -1.2509871E+01;  0.0000000E+00; -4.8887532E-06;0;  9.4834542E-01;  3.9889547E+04;  0.0000000E+00; -4.0955545E-13;  4.0000000E+04;  0.0000000E+00;  3.9996145E+04;  8.3995515E-01;  0.0000000E+00;  1.0839028E-01;  3.4650391E+02;
  1.9157851E-01;  9.9999998E-03;  1.0023369E-02;3636;  2.6489311E-01;  0.0000000E+00;  1.0118881E-02;  9.9860864E+02;  1.0000000E-01; -1.1527080E+03;3; -1.2775731E+01;  0.0000000E+00;  1.6627085E+00;0;  9.4523507E-01;  3.9890277E+04;  0.0000000E+00;  2.7432002E-04;  4.0000000E+04;  0.0000000E+00;  3.9996102E+04;  8.3832276E-01;  0.0000000E+00;  1.0691234E-01;  3.5394418E+02;
  1.9158094E-01;  9.9999998E-03;  2.0040376E-02;3637;  2.6262760E-01;  0.0000000E+00;  1.6255984E-02;  9.9863623E+02;  1.0000000E-01; -1.1298445E+03;3; -1.4313374E+01;  0.0000000E+00;  1.9004492E-02;0;  9.3618226E-01;  3.9892629E+04;  0.0000000E+00;  1.1028954E-03;  4.0000000E+04;  0.0000000E+00;  3.9995742E+04;  8.3334190E-01;  0.0000000E+00;  1.0284037E-01;  3.8441849E+02;
  1.9158420E-01;  9.9999998E-03;  3.0047322E-02;3638;  2.5874910E-01;  0.0000000E+00;  1.7855559E-02;  9.9867627E+02;  1.0000000E-01; -1.0967096E+03;3; -1.6053282E+01;  0.0000000E+00; -1.3134996E+00;0;  9.2190176E-01;  3.9896488E+04;  0.0000000E+00;  2.4904488E-03;  4.0000000E+04;  0.0000000E+00;  3.9995250E+04;  8.2482278E-01;  0.0000000E+00;  9.7078994E-02;  4.5831534E+02;
  1.9159000E-01;  9.9999998E-03;  4.0049084E-02;3639;  2.5452584E-01;  0.0000000E+00;  1.8382510E-02;  9.9872955E+02;  1.0000000E-01; -1.0525627E+03;3; -1.7794811E+01;  0.0000000E+00; -1.7910200E+00;0;  9.0318537E-01;  3.9901582E+04;  0.0000000E+00;  4.4096983E-03;  4.0000000E+04;  0.0000000E+00;  3.9994262E+04;  8.1248391E-01;  0.0000000E+00;  9.0701446E-02;  5.9824896E+02;
  1.9159968E-01;  9.9999998E-03;  5.0048389E-02;3640;  2.5034946E-01;  0.0000000E+00;  1.8511925E-02;  9.9878632E+02;  1.0000000E-01; -1.0055024E+03;3; -1.9663519E+01;  0.0000000E+00; -2.0097363E+00;0;  8.8065964E-01;  3.9907957E+04;  0.0000000E+00;  6.7552831E-03;  4.0000000E+04;  0.0000000E+00;  3.9992488E+04;  7.9593623E-01;  0.0000000E+00;  8.4723398E-02;  8.1962659E+02;
  1.9161372E-01;  9.9999998E-03;  6.0046680E-02;3641;  2.4628879E-01;  0.0000000E+00;  1.8426783E-02;  9.9884448E+02;  1.0000000E-01; -9.5730621E+02;3; -2.1418570E+01;  0.0000000E+00; -2.0175810E+00;0;  8.5470486E-01;  3.9914988E+04;  0.0000000E+00;  9.2760734E-03;  4.0000000E+04;  0.0000000E+00;  3.9989898E+04;  7.7474397E-01;  0.0000000E+00;  7.9960905E-02;  1.1233431E+03;
  2.0170347E-01;  9.9999998E-03; -1.0004209E-01;3686;  2.3606604E-01;  0.0000000E+00; -1.8699309E-02;  9.9873077E+02;  1.0000000E-01; -1.0515258E+03;3; -2.2812067E+01;  0.0000000E+00;  2.2333503E+00;0;  8.0066806E-01;  3.9919320E+04;  0.0000000E+00;  1.8442268E-02;  4.0000000E+04;  0.0000000E+00;  3.9976660E+04;  7.2066140E-01;  0.0000000E+00;  8.0006652E-02;  2.7817981E+03;
  2.0167510E-01;  9.9999998E-03; -9.0039119E-02;3687;  2.4117154E-01;  0.0000000E+00; -1.8432293E-02;  9.9872778E+02;  1.0000000E-01; -1.0539948E+03;3; -2.1083862E+01;  0.0000000E+00;  2.3592525E+00;0;  8.3400929E-01;  3.9915992E+04;  0.0000000E+00;  2.0812407E-02;  4.0000000E+04;  0.0000000E+00;  3.9979730E+04;  7.5825161E-01;  0.0000000E+00;  7.5757675E-02;  2.4066077E+03;
  2.0165446E-01;  9.9999998E-03; -8.0037192E-02;3688;  2.4795111E-01;  0.0000000E+00; -1.7808560E-02;  9.9870972E+02;  1.0000000E-01; -1.0689574E+03;3; -1.8363916E+01;  0.0000000E+00;  2.3428798E+00;0;  8.6276627E-01;  3.9910715E+04;  0.0000000E+00;  1.9920785E-02;  4.0000000E+04;  0.0000000E+00;  3.9983547E+04;  7.8970760E-01;  0.0000000E+00;  7.3058665E-02;  1.9413983E+03;
  2.0164239E-01;  9.9999998E-03; -7.0035435E-02;3689;  2.5668222E-01;  0.0000000E+00; -1.6577316E-02;  9.9867877E+02;  1.0000000E-01; -1.0946356E+03;3; -1.5634672E+01;  0.0000000E+00;  2.5217352E+00;0;  8.8755810E-01;  3.9904457E+04;  0.0000000E+00;  1.7106390E-02;  4.0000000E+04;  0.0000000E+00;  3.9987203E+04;  8.1519985E-01;  0.0000000E+00;  7.2358228E-02;  1.4613947E+03;
  2.0163825E-01;  9.9999998E-03; -6.0033575E-02;3690;  2.6623601E-01;  0.0000000E+00; -1.4796185E-02;  9.9864044E+02;  1.0000000E-01; -1.1263878E+03;3; -1.3155721E+01;  0.0000000E+00;  2.6073058E+00;0;  9.0891004E-01;  3.9897973E+04;  0.0000000E+00;  1.3441969E-02;  4.0000000E+04;  0.0000000E+00;  3.9990723E+04;  8.3514547E-01;  0.0000000E+00;  7.3764540E-02;  1.0243988E+03;
  2.0163958E-01;  9.9999998E-03; -5.0031416E-02;3691;  2.7575722E-01;  0.0000000E+00; -1.3015706E-02;  9.9860052E+02;  1.0000000E-01; -1.1594240E+03;3; -1.0834291E+01;  0.0000000E+00;  2.6551313E+00;0;  9.2722237E-01;  3.9891895E+04;  0.0000000E+00;  9.6883476E-03;  4.0000000E+04;  0.0000000E+00;  3.9993512E+04;  8.5017276E-01;  0.0000000E+00;  7.7049613E-02;  6.6725409E+02;
  2.0164406E-01;  9.9999998E-03; -4.0028997E-02;3692;  2.8459483E-01;  0.0000000E+00; -1.1134282E-02;  9.9855975E+02;  1.0000000E-01; -1.1932007E+03;3; -8.7803097E+00;  0.0000000E+00;  2.6259494E+00;0;  9.4271302E-01;  3.9886660E+04;  0.0000000E+00;  6.3185673E-03;  4.0000000E+04;  0.0000000E+00;  3.9995555E+04;  8.6102861E-01;  0.0000000E+00;  8.1684403E-02;  4.0531812E+02;
  2.0164990E-01;  9.9999998E-03; -3.0026224E-02;3693;  2.9241168E-01;  0.0000000E+00; -9.3153045E-03;  9.9852112E+02;  1.0000000E-01; -1.2252491E+03;3; -6.9269996E+00;  0.0000000E+00;  2.4703856E+00;0;  9.5537001E-01;  3.9882297E+04;  0.0000000E+00;  3.5847996E-03;  4.0000000E+04;  0.0000000E+00;  3.9997016E+04;  8.6848962E-01;  0.0000000E+00;  8.6880408E-02;  2.3516760E+02;
  2.0165624E-01;  9.9999998E-03; -2.0022694E-02;3694;  2.9901180E-01;  0.0000000E+00; -7.6085818E-03;  9.9849158E+02;  1.0000000E-01; -1.2496930E+03;3; -5.3556476E+00;  0.0000000E+00;  2.2807355E+00;0;  9.6494508E-01;  3.9879188E+04;  0.0000000E+00;  1.5990438E-03;  4.0000000E+04;  0.0000000E+00;  3.9997746E+04;  8.7326354E-01;  0.0000000E+00;  9.1681510E-02;  1.3986009E+02;
  2.0166151E-01;  9.9999998E-03; -1.0015446E-02;3695;  3.0394593E-01;  0.0000000E+00; -5.4643448E-03;  9.9847272E+02;  1.0000000E-01; -1.2653468E+03;3; -4.0233693E+00;  0.0000000E+00;  1.6480848E+00;0;  9.7100985E-01;  3.9877223E+04;  0.0000000E+00;  4.0034601E-04;  4.0000000E+04;  0.0000000E+00;  3.9997980E+04;  8.7590361E-01;  0.0000000E+00;  9.5106237E-02;  9.6446083E+01;
  2.0166367E-01;  9.9999998E-03; -9.7436656E-11;3696;  3.0611676E-01;  0.0000000E+00; -3.0334583E-08;  9.9846545E+02;  1.0000000E-01; -1.2713220E+03;3; -3.0245574E+00;  0.0000000E+00;  1.1265178E-05;0;  9.7310954E-01;  3.9876547E+04;  0.0000000E+00;  1.4469849E-14;  4.0000000E+04;  0.0000000E+00;  3.9998051E+04;  8.7675118E-01;  0.0000000E+00;  9.6358337E-02;  8.4737411E+01;
  2.0166151E-01;  9.9999998E-03;  1.0015445E-02;3697;  3.0394593E-01;  0.0000000E+00;  5.4643373E-03;  9.9847272E+02;  1.0000000E-01; -1.2653468E+03;3; -4.0233607E+00;  0.0000000E+00; -1.6480678E+00;0;  9.7100967E-01;  3.9877223E+04;  0.0000000E+00;  4.0024679E-04;  4.0000000E+04;  0.0000000E+00;  3.9997980E+04;  8.7590337E-01;  0.0000000E+00;  9.5106319E-02;  9.6444580E+01;
  2.0165624E-01;  9.9999998E-03;  2.0022694E-02;3698;  2.9901183E-01;  0.0000000E+00;  7.6085832E-03;  9.9849158E+02;  1.0000000E-01; -1.2496930E+03;3; -5.3556452E+00;  0.0000000E+00; -2.2807329E+00;0;  9.6494460E-01;  3.9879188E+04;  0.0000000E+00;  1.5990182E-03;  4.0000000E+04;  0.0000000E+00;  3.9997746E+04;  8.7326312E-01;  0.0000000E+00;  9.1681510E-02;  1.3985780E+02;
  2.0164990E-01;  9.9999998E-03;  3.0026224E-02;3699;  2.9241163E-01;  0.0000000E+00;  9.3153343E-03;  9.9852112E+02;  1.0000000E-01; -1.2252491E+03;3; -6.9270096E+00;  0.0000000E+00; -2.4703720E+00;0;  9.5537055E-01;  3.9882297E+04;  0.0000000E+00;  3.5848981E-03;  4.0000000E+04;  0.0000000E+00;  3.9997016E+04;  8.6849016E-01;  0.0000000E+00;  8.6880416E-02;  2.3516318E+02;
  2.0164406E-01;  9.9999998E-03;  4.0028997E-02;3700;  2.8459480E-01;  0.0000000E+00;  1.1134308E-02;  9.9855981E+02;  1.0000000E-01; -1.1931514E+03;3; -8.7803621E+00;  0.0000000E+00; -2.6259546E+00;0;  9.4271380E-01;  3.9886664E+04;  0.0000000E+00;  6.3188691E-03;  4.0000000E+04;  0.0000000E+00;  3.9995555E+04;  8.6102927E-01;  0.0000000E+00;  8.1684522E-02;  4.0531699E+02;
  2.0163958E-01;  9.9999998E-03;  5.0031416E-02;3701;  2.7575722E-01;  0.0000000E+00;  1.3015727E-02;  9.9860052E+02;  1.0000000E-01; -1.1594240E+03;3; -1.0834308E+01;  0.0000000E+00; -2.6550937E+00;0;  9.2722285E-01;  3.9891895E+04;  0.0000000E+00;  9.6880822E-03;  4.0000000E+04;  0.0000000E+00;  3.9993512E+04;  8.5017312E-01;  0.0000000E+00;  7.7049702E-02;  6.6725275E+02;
  2.0163825E-01;  9.9999998E-03;  6.0033575E-02;3702;  2.6623601E-01;  0.0000000E+00;  1.4796203E-02;  9.9864044E+02;  1.0000000E-01; -1.1263878E+03;3; -1.3155711E+01;  0.0000000E+00; -2.6073041E+00;0;  9.0890962E-01;  3.9897969E+04;  0.0000000E+00;  1.3443153E-02;  4.0000000E+04;  0.0000000E+00;  3.9990727E+04;  8.3514494E-01;  0.0000000E+00;  7.3764667E-02;  1.0243981E+03;
  2.1173304E-01;  9.9999998E-03; -1.0001340E-01;3747;  2.5695851E-01;  0.0000000E+00; -1.2594056E-02;  9.9841840E+02;  1.0000000E-01; -1.3103333E+03;3; -1.6712589E+01;  0.0000000E+00;  2.6963241E+00;0;  8.6004722E-01;  3.9895199E+04;  0.0000000E+00;  3.0419786E-02;  4.0000000E+04;  0.0000000E+00;  3.9975566E+04;  7.8147864E-01;  0.0000000E+00;  7.8568578E-02;  2.8912463E+03;
  2.1172801E-01;  9.9999998E-03; -9.0004690E-02;3748;  2.7051437E-01;  0.0000000E+00; -9.6542183E-03;  9.9843652E+02;  1.0000000E-01; -1.2953213E+03;3; -1.3701274E+01;  0.0000000E+00;  2.9324384E+00;0;  8.8307583E-01;  3.9892598E+04;  0.0000000E+00;  3.0624323E-02;  4.0000000E+04;  0.0000000E+00;  3.9979645E+04;  8.1087738E-01;  0.0000000E+00;  7.2198428E-02;  2.3919236E+03;
  2.1172522E-01;  9.9999998E-03; -7.9999231E-02;3749;  2.8307465E-01;  0.0000000E+00; -7.1223434E-03;  9.9844196E+02;  1.0000000E-01; -1.2908276E+03;3; -1.0841032E+01;  0.0000000E+00;  3.1067379E+00;0;  9.0084320E-01;  3.9888590E+04;  0.0000000E+00;  2.7562756E-02;  4.0000000E+04;  0.0000000E+00;  3.9984219E+04;  8.3335692E-01;  0.0000000E+00;  6.7486309E-02;  1.8258899E+03;
  2.1172431E-01;  9.9999998E-03; -6.9996640E-02;3750;  2.9461724E-01;  0.0000000E+00; -5.0693047E-03;  9.9843829E+02;  1.0000000E-01; -1.2938398E+03;3; -8.0589485E+00;  0.0000000E+00;  3.2168596E+00;0;  9.1443634E-01;  3.9883887E+04;  0.0000000E+00;  2.2796063E-02;  4.0000000E+04;  0.0000000E+00;  3.9988766E+04;  8.4954709E-01;  0.0000000E+00;  6.4889222E-02;  1.2661655E+03;
  2.1172523E-01;  9.9999998E-03; -5.9995625E-02;3751;  3.0523705E-01;  0.0000000E+00; -3.3631104E-03;  9.9842871E+02;  1.0000000E-01; -1.3017903E+03;3; -5.4016032E+00;  0.0000000E+00;  3.3324826E+00;0;  9.2488438E-01;  3.9879172E+04;  0.0000000E+00;  1.7490460E-02;  4.0000000E+04;  0.0000000E+00;  3.9992703E+04;  8.6036623E-01;  0.0000000E+00;  6.4518131E-02;  7.6720441E+02;
  2.1172768E-01;  9.9999998E-03; -4.9995806E-02;3752;  3.1471482E-01;  0.0000000E+00; -1.7994927E-03;  9.9841486E+02;  1.0000000E-01; -1.3132467E+03;3; -3.1453097E+00;  0.0000000E+00;  3.5350184E+00;0;  9.3303221E-01;  3.9874828E+04;  0.0000000E+00;  1.2419976E-02;  4.0000000E+04;  0.0000000E+00;  3.9995859E+04;  8.6688507E-01;  0.0000000E+00;  6.6147149E-02;  3.6205164E+02;
  2.1173120E-01;  9.9999998E-03; -3.9996658E-02;3753;  3.2305253E-01;  0.0000000E+00; -5.8916700E-04;  9.9839771E+02;  1.0000000E-01; -1.3274685E+03;3; -1.2113580E+00;  0.0000000E+00;  3.4439073E+00;0;  9.3949485E-01;  3.9871090E+04;  0.0000000E+00;  8.0277519E-03;  4.0000000E+04;  0.0000000E+00;  3.9998344E+04;  8.7024182E-01;  0.0000000E+00;  6.9252998E-02;  6.3301998E+01;
  2.1173517E-01;  9.9999998E-03; -2.9997503E-02;3754;  3.3015072E-01;  0.0000000E+00;  2.6503191E-04;  9.9838062E+02;  1.0000000E-01; -1.3416410E+03;3;  2.8389829E-01;  0.0000000E+00;  2.5635941E+00;0;  9.4460249E-01;  3.9868188E+04;  0.0000000E+00;  4.5328378E-03;  4.0000000E+04;  0.0000000E+00;  3.9999879E+04;  8.7151676E-01;  0.0000000E+00;  7.3085733E-02;  1.3706445E+02;
  2.1173906E-01;  9.9999998E-03; -1.9998433E-02;3755;  3.3568832E-01;  0.0000000E+00;  5.5867044E-04;  9.9836578E+02;  1.0000000E-01; -1.3539369E+03;3;  1.1104709E+00;  0.0000000E+00;  1.4890041E+00;0;  9.4843352E-01;  3.9865992E+04;  0.0000000E+00;  2.0173346E-03;  4.0000000E+04;  0.0000000E+00;  4.0000805E+04;  8.7166750E-01;  0.0000000E+00;  7.6765992E-02;  2.5395451E+02;
  2.1174186E-01;  9.9999998E-03; -9.9992976E-03;3756;  3.3910128E-01;  0.0000000E+00;  3.8696514E-04;  9.9835547E+02;  1.0000000E-01; -1.3624799E+03;3;  1.3979479E+00;  0.0000000E+00;  6.0956699E-01;0;  9.5086271E-01;  3.9864789E+04;  0.0000000E+00;  5.0467538E-04;  4.0000000E+04;  0.0000000E+00;  4.0001172E+04;  8.7143517E-01;  0.0000000E+00;  7.9427540E-02;  3.1136398E+02;
  2.1174285E-01;  9.9999998E-03; -3.9840031E-11;3757;  3.4021109E-01;  0.0000000E+00;  1.1028121E-08;  9.9835278E+02;  1.0000000E-01; -1.3647020E+03;3;  1.4360846E+00;  0.0000000E+00;  1.1055066E-05;0;  9.5170248E-01;  3.9864406E+04;  0.0000000E+00;  4.8896510E-13;  4.0000000E+04;  0.0000000E+00;  4.0001348E+04;  8.7130147E-01;  0.0000000E+00;  8.0401026E-02;  3.2803165E+02;
  2.1174186E-01;  9.9999998E-03;  9.9992976E-03;3758;  3.3910128E-01;  0.0000000E+00; -3.8694433E-04;  9.9835547E+02;  1.0000000E-01; -1.3624799E+03;3;  1.3979406E+00;  0.0000000E+00; -6.0954291E-01;0;  9.5086193E-01;  3.9864793E+04;  0.0000000E+00;  5.0471531E-04;  4.0000000E+04;  0.0000000E+00;  4.0001172E+04;  8.7143445E-01;  0.0000000E+00;  7.9427481E-02;  3.1136661E+02;
  2.1173906E-01;  9.9999998E-03;  1.9998433E-02;3759;  3.3568826E-01;  0.0000000E+00; -5.5864151E-04;  9.9836578E+02;  1.0000000E-01; -1.3539369E+03;3;  1.1104925E+00;  0.0000000E+00; -1.4889915E+00;0;  9.4843322E-01;  3.9865988E+04;  0.0000000E+00;  2.0173232E-03;  4.0000000E+04;  0.0000000E+00;  4.0000805E+04;  8.7166715E-01;  0.0000000E+00;  7.6766051E-02;  2.5395830E+02;
  2.1173517E-01;  9.9999998E-03;  2.9997503E-02;3760;  3.3015066E-01;  0.0000000E+00; -2.6499681E-04;  9.9838068E+02;  1.0000000E-01; -1.3415916E+03;3;  2.8392047E-01;  0.0000000E+00; -2.5635879E+00;0;  9.4460368E-01;  3.9868188E+04;  0.0000000E+00;  4.5327116E-03;  4.0000000E+04;  0.0000000E+00;  3.9999879E+04;  8.7151796E-01;  0.0000000E+00;  7.3085718E-02;  1.3706963E+02;
  2.1173120E-01;  9.9999998E-03;  3.9996658E-02;3761;  3.2305250E-01;  0.0000000E+00;  5.8919477E-04;  9.9839771E+02;  1.0000000E-01; -1.3274685E+03;3; -1.2113874E+00;  0.0000000E+00; -3.4438887E+00;0;  9.3949485E-01;  3.9871086E+04;  0.0000000E+00;  8.0282846E-03;  4.0000000E+04;  0.0000000E+00;  3.9998344E+04;  8.7024182E-01;  0.0000000E+00;  6.9253005E-02;  6.3301842E+01;
  2.1172768E-01;  9.9999998E-03;  4.9995806E-02;3762;  3.1471476E-01;  0.0000000E+00;  1.7995365E-03;  9.9841492E+02;  1.0000000E-01; -1.3131974E+03;3; -3.1453178E+00;  0.0000000E+00; -3.5349989E+00;0;  9.3303281E-01;  3.9874828E+04;  0.0000000E+00;  1.2419223E-02;  4.0000000E+04;  0.0000000E+00;  3.9995859E+04;  8.6688560E-01;  0.0000000E+00;  6.6147223E-02;  3.6204971E+02;
  2.1172523E-01;  9.9999998E-03;  5.9995625E-02;3763;  3.0523708E-01;  0.0000000E+00;  3.3631385E-03;  9.9842871E+02;  1.0000000E-01; -1.3017903E+03;3; -5.4015288E+00;  0.0000000E+00; -3.3324826E+00;0;  9.2488414E-01;  3.9879172E+04;  0.0000000E+00;  1.7490087E-02;  4.0000000E+04;  0.0000000E+00;  3.9992703E+04;  8.6036593E-01;  0.0000000E+00;  6.4518191E-02;  7.6720013E+02;
  2.2179915E-01;  9.9999998E-03; -9.9973880E-02;3808;  2.8899777E-01;  0.0000000E+00; -1.9143904E-03;  9.9809039E+02;  1.0000000E-01; -1.5820786E+03;3; -1.0489047E+01;  0.0000000E+00;  3.1851783E+00;0;  8.8741571E-01;  3.9868738E+04;  0.0000000E+00;  4.1198865E-02;  4.0000000E+04;  0.0000000E+00;  3.9975934E+04;  8.1333184E-01;  0.0000000E+00;  7.4083850E-02;  2.8198633E+03;
  2.2179595E-01;  9.9999998E-03; -8.9968495E-02;3809;  3.0262107E-01;  0.0000000E+00;  3.5342021E-04;  9.9813989E+02;  1.0000000E-01; -1.5410427E+03;3; -7.5109553E+00;  0.0000000E+00;  3.1756499E+00;0;  8.9656323E-01;  3.9867891E+04;  0.0000000E+00;  3.8411252E-02;  4.0000000E+04;  0.0000000E+00;  3.9980895E+04;  8.3090764E-01;  0.0000000E+00;  6.5655597E-02;  2.2124719E+03;
  2.2179276E-01;  9.9999998E-03; -7.9966806E-02;3810;  3.1478795E-01;  0.0000000E+00;  1.8969347E-03;  9.9818164E+02;  1.0000000E-01; -1.5064758E+03;3; -4.8341765E+00;  0.0000000E+00;  3.0287707E+00;0;  9.0063310E-01;  3.9865957E+04;  0.0000000E+00;  3.2900099E-02;  4.0000000E+04;  0.0000000E+00;  3.9986246E+04;  8.4159482E-01;  0.0000000E+00;  5.9038311E-02;  1.5631566E+03;
  2.2178963E-01;  9.9999998E-03; -6.9967881E-02;3811;  3.2526749E-01;  0.0000000E+00;  2.8053203E-03;  9.9821405E+02;  1.0000000E-01; -1.4796123E+03;3; -2.7105575E+00;  0.0000000E+00;  2.6452062E+00;0;  9.0116185E-01;  3.9863594E+04;  0.0000000E+00;  2.6274269E-02;  4.0000000E+04;  0.0000000E+00;  3.9991176E+04;  8.4648830E-01;  0.0000000E+00;  5.4673534E-02;  9.4081409E+02;
  2.2178669E-01;  9.9999998E-03; -5.9971079E-02;3812;  3.3397949E-01;  0.0000000E+00;  3.0749906E-03;  9.9823962E+02;  1.0000000E-01; -1.4584277E+03;3; -1.2237992E+00;  0.0000000E+00;  2.2197564E+00;0;  8.9953792E-01;  3.9861203E+04;  0.0000000E+00;  1.9641258E-02;  4.0000000E+04;  0.0000000E+00;  3.9995520E+04;  8.4688693E-01;  0.0000000E+00;  5.2651010E-02;  3.9515604E+02;
  2.2178340E-01;  9.9999998E-03; -4.9975354E-02;3813;  3.4066954E-01;  0.0000000E+00;  2.9708974E-03;  9.9825464E+02;  1.0000000E-01; -1.4459836E+03;3; -5.6440651E-01;  0.0000000E+00;  1.7194172E+00;0;  8.9691627E-01;  3.9858973E+04;  0.0000000E+00;  1.3673741E-02;  4.0000000E+04;  0.0000000E+00;  3.9998996E+04;  8.4418231E-01;  0.0000000E+00;  5.2733958E-02;  5.0409836E+01;
  2.2177932E-01;  9.9999998E-03; -3.9980456E-02;3814;  3.4511185E-01;  0.0000000E+00;  2.5424613E-03;  9.9826373E+02;  1.0000000E-01; -1.4384778E+03;3; -9.3587196E-01;  0.0000000E+00;  1.2265571E+00;0;  8.9415610E-01;  3.9857301E+04;  0.0000000E+00;  8.7067187E-03;  4.0000000E+04;  0.0000000E+00;  4.0001734E+04;  8.3974636E-01;  0.0000000E+00;  5.4409757E-02;  3.7399896E+02;
  2.2177440E-01;  9.9999998E-03; -2.9985933E-02;3815;  3.4744397E-01;  0.0000000E+00;  1.9031728E-03;  9.9827069E+02;  1.0000000E-01; -1.4327001E+03;3; -1.8986475E+00;  0.0000000E+00;  8.8221997E-01;0;  8.9180917E-01;  3.9855828E+04;  0.0000000E+00;  4.8607267E-03;  4.0000000E+04;  0.0000000E+00;  4.0003453E+04;  8.3483952E-01;  0.0000000E+00;  5.6969617E-02;  5.9519312E+02;
  2.2176926E-01;  9.9999998E-03; -1.9991277E-02;3816;  3.4845951E-01;  0.0000000E+00;  1.2159845E-03;  9.9827106E+02;  1.0000000E-01; -1.4324038E+03;3; -2.3331749E+00;  0.0000000E+00;  5.9444612E-01;0;  8.9013541E-01;  3.9854922E+04;  0.0000000E+00;  2.1460422E-03;  4.0000000E+04;  0.0000000E+00;  4.0004625E+04;  8.3052307E-01;  0.0000000E+00;  5.9612349E-02;  7.2916711E+02;
  2.2176558E-01;  9.9999998E-03; -9.9959970E-03;3817;  3.4889832E-01;  0.0000000E+00;  5.9086730E-04;  9.9827179E+02;  1.0000000E-01; -1.4318113E+03;3; -2.4650259E+00;  0.0000000E+00;  2.9747474E-01;0;  8.8917649E-01;  3.9854340E+04;  0.0000000E+00;  5.3428247E-04;  4.0000000E+04;  0.0000000E+00;  4.0005059E+04;  8.2759988E-01;  0.0000000E+00;  6.1576623E-02;  7.9768903E+02;
  2.2176427E-01;  9.9999998E-03;  8.1323446E-12;3818;  3.4902635E-01;  0.0000000E+00;  1.3413971E-08;  9.9827081E+02;  1.0000000E-01; -1.4326013E+03;3; -2.4958534E+00;  0.0000000E+00;  3.9778652E-06;0;  8.8886911E-01;  3.9854195E+04;  0.0000000E+00;  9.0528090E-13;  4.0000000E+04;  0.0000000E+00;  4.0005199E+04;  8.2656777E-01;  0.0000000E+00;  6.2301327E-02;  8.1828772E+02;
  2.2176558E-01;  9.9999998E-03;  9.9959970E-03;3819;  3.4889832E-01;  0.0000000E+00; -5.9083989E-04;  9.9827173E+02;  1.0000000E-01; -1.4318606E+03;3; -2.4650033E+00;  0.0000000E+00; -2.9745412E-01;0;  8.8917589E-01;  3.9854340E+04;  0.0000000E+00;  5.3422956E-04;  4.0000000E+04;  0.0000000E+00;  4.0005059E+04;  8.2759917E-01;  0.0000000E+00;  6.1576698E-02;  7.9768781E+02;
  2.2176926E-01;  9.9999998E-03;  1.9991277E-02;3820;  3.4845951E-01;  0.0000000E+00; -1.2159578E-03;  9.9827106E+02;  1.0000000E-01; -1.4324038E+03;3; -2.3331511E+00;  0.0000000E+00; -5.9443474E-01;0;  8.9013553E-01;  3.9854922E+04;  0.0000000E+00;  2.1460722E-03;  4.0000000E+04;  0.0000000E+00;  4.0004625E+04;  8.3052319E-01;  0.0000000E+00;  5.9612341E-02;  7.2916815E+02;
  2.2177440E-01;  9.9999998E-03;  2.9985933E-02;3821;  3.4744397E-01;  0.0000000E+00; -1.9031450E-03;  9.9827069E+02;  1.0000000E-01; -1.4327001E+03;3; -1.8986484E+00;  0.0000000E+00; -8.8219875E-01;0;  8.9180946E-01;  3.9855828E+04;  0.0000000E+00;  4.8609092E-03;  4.0000000E+04;  0.0000000E+00;  4.0003453E+04;  8.3483994E-01;  0.0000000E+00;  5.6969553E-02;  5.9519360E+02;
  2.2177932E-01;  9.9999998E-03;  3.9980456E-02;3822;  3.4511188E-01;  0.0000000E+00; -2.5424340E-03;  9.9826373E+02;  1.0000000E-01; -1.4384778E+03;3; -9.3587065E-01;  0.0000000E+00; -1.2265464E+00;0;  8.9415598E-01;  3.9857301E+04;  0.0000000E+00;  8.7068798E-03;  4.0000000E+04;  0.0000000E+00;  4.0001734E+04;  8.3974618E-01;  0.0000000E+00;  5.4409787E-02;  3.7400015E+02;
  2.2178340E-01;  9.9999998E-03;  4.9975354E-02;3823;  3.4066957E-01;  0.0000000E+00; -2.9708713E-03;  9.9825464E+02;  1.0000000E-01; -1.4459836E+03;3; -5.6439477E-01;  0.0000000E+00; -1.7193964E+00;0;  8.9691603E-01;  3.9858973E+04;  0.0000000E+00;  1.3673897E-02;  4.0000000E+04;  0.0000000E+00;  3.9998996E+04;  8.4418207E-01;  0.0000000E+00;  5.2733976E-02;  5.0410446E+01;
  2.2178669E-01;  9.9999998E-03;  5.9971079E-02;3824;  3.3397958E-01;  0.0000000E+00; -3.0749766E-03;  9.9823962E+02;  1.0000000E-01; -1.4584277E+03;3; -1.2237741E+00;  0.0000000E+00; -2.2197425E+00;0;  8.9953876E-01;  3.9861203E+04;  0.0000000E+00;  1.9642344E-02;  4.0000000E+04;  0.0000000E+00;  3.9995516E+04;  8.4688777E-01;  0.0000000E+00;  5.2650973E-02;  3.9514951E+02;
  2.3185177E-01;  9.9999998E-03; -9.9949896E-02;3869;  3.1378439E-01;  0.0000000E+00;  4.2033009E-03;  9.9778137E+02;  1.0000000E-01; -1.8380713E+03;3; -6.0106053E+00;  0.0000000E+00;  2.7383397E+00;0;  8.7940526E-01;  3.9842441E+04;  0.0000000E+00;  4.7428146E-02;  4.0000000E+04;  0.0000000E+00;  3.9977613E+04;  8.1304991E-01;  0.0000000E+00;  6.6355318E-02;  2.5899719E+03;
  2.3184358E-01;  9.9999998E-03; -8.9949816E-02;3870;  3.2500359E-01;  0.0000000E+00;  4.7855903E-03;  9.9786926E+02;  1.0000000E-01; -1.7652833E+03;3; -4.0306783E+00;  0.0000000E+00;  2.3820660E+00;0;  8.7345701E-01;  3.9843969E+04;  0.0000000E+00;  4.1504845E-02;  4.0000000E+04;  0.0000000E+00;  3.9983301E+04;  8.1720549E-01;  0.0000000E+00;  5.6251522E-02;  1.9005801E+03;
  2.3183411E-01;  9.9999998E-03; -7.9952918E-02;3871;  3.3407030E-01;  0.0000000E+00;  4.7754091E-03;  9.9794922E+02;  1.0000000E-01; -1.6990135E+03;3; -2.6644406E+00;  0.0000000E+00;  2.0770714E+00;0;  8.6337358E-01;  3.9844824E+04;  0.0000000E+00;  3.3943105E-02;  4.0000000E+04;  0.0000000E+00;  3.9988957E+04;  8.1524992E-01;  0.0000000E+00;  4.8123639E-02;  1.1937318E+03;
  2.3182327E-01;  9.9999998E-03; -6.9958031E-02;3872;  3.4080556E-01;  0.0000000E+00;  4.3776631E-03;  9.9802075E+02;  1.0000000E-01; -1.6397560E+03;3; -2.1780360E+00;  0.0000000E+00;  1.7421654E+00;0;  8.5101187E-01;  3.9845113E+04;  0.0000000E+00;  2.6149010E-02;  4.0000000E+04;  0.0000000E+00;  3.9994324E+04;  8.0864185E-01;  0.0000000E+00;  4.2370040E-02;  5.3257782E+02;
  2.3181087E-01;  9.9999998E-03; -5.9964404E-02;3873;  3.4500828E-01;  0.0000000E+00;  3.7062739E-03;  9.9807874E+02;  1.0000000E-01; -1.5917080E+03;3; -2.5372863E+00;  0.0000000E+00;  1.3905734E+00;0;  8.3798015E-01;  3.9845215E+04;  0.0000000E+00;  1.8988958E-02;  4.0000000E+04;  0.0000000E+00;  3.9998859E+04;  7.9893672E-01;  0.0000000E+00;  3.9043449E-02;  4.8883144E+01;
  2.3179749E-01;  9.9999998E-03; -4.9971346E-02;3874;  3.4724766E-01;  0.0000000E+00;  2.9204735E-03;  9.9812531E+02;  1.0000000E-01; -1.5531411E+03;3; -2.9362633E+00;  0.0000000E+00;  1.1389347E+00;0;  8.2556295E-01;  3.9845305E+04;  0.0000000E+00;  1.2907591E-02;  4.0000000E+04;  0.0000000E+00;  4.0002582E+04;  7.8767532E-01;  0.0000000E+00;  3.7887618E-02;  5.0080832E+02;
  2.3178476E-01;  9.9999998E-03; -3.9978143E-02;3875;  3.4842488E-01;  0.0000000E+00;  2.1599911E-03;  9.9816119E+02;  1.0000000E-01; -1.5234136E+03;3; -3.0563579E+00;  0.0000000E+00;  9.2018276E-01;0;  8.1468165E-01;  3.9845391E+04;  0.0000000E+00;  8.0595436E-03;  4.0000000E+04;  0.0000000E+00;  4.0005348E+04;  7.7628481E-01;  0.0000000E+00;  3.8396824E-02;  8.4203345E+02;
  2.3177415E-01;  9.9999998E-03; -2.9984470E-02;3876;  3.4908044E-01;  0.0000000E+00;  1.4990075E-03;  9.9818597E+02;  1.0000000E-01; -1.5028710E+03;3; -3.0092928E+00;  0.0000000E+00;  6.6118795E-01;0;  8.0591840E-01;  3.9845566E+04;  0.0000000E+00;  4.4300985E-03;  4.0000000E+04;  0.0000000E+00;  4.0007215E+04;  7.6601672E-01;  0.0000000E+00;  3.9901700E-02;  1.0751525E+03;
  2.3176630E-01;  9.9999998E-03; -1.9990228E-02;3877;  3.4947056E-01;  0.0000000E+00;  9.2472933E-04;  9.9820337E+02;  1.0000000E-01; -1.4884517E+03;3; -2.9589484E+00;  0.0000000E+00;  3.9897263E-01;0;  7.9957581E-01;  3.9845805E+04;  0.0000000E+00;  1.9334635E-03;  4.0000000E+04;  0.0000000E+00;  4.0008402E+04;  7.5790000E-01;  0.0000000E+00;  4.1675799E-02;  1.2188093E+03;
  2.3176147E-01;  9.9999998E-03; -9.9953888E-03;3878;  3.4968576E-01;  0.0000000E+00;  4.3014574E-04;  9.9821240E+02;  1.0000000E-01; -1.4809950E+03;3; -2.8703282E+00;  0.0000000E+00;  2.1554992E-01;0;  7.9576683E-01;  3.9845918E+04;  0.0000000E+00;  4.7787445E-04;  4.0000000E+04;  0.0000000E+00;  4.0009055E+04;  7.5270993E-01;  0.0000000E+00;  4.3056875E-02;  1.2939824E+03;
  2.3175985E-01;  9.9999998E-03; -2.7523928E-11;3879;  3.4976116E-01;  0.0000000E+00;  1.2618515E-08;  9.9821625E+02;  1.0000000E-01; -1.4777853E+03;3; -2.8416266E+00;  0.0000000E+00;  1.2319069E-05;0;  7.9449791E-01;  3.9845945E+04;  0.0000000E+00;  5.3239580E-13;  4.0000000E+04;  0.0000000E+00;  4.0009160E+04;  7.5092357E-01;  0.0000000E+00;  4.3574344E-02;  1.3169915E+03;
  2.3176147E-01;  9.9999998E-03;  9.9953888E-03;3880;  3.4968576E-01;  0.0000000E+00; -4.3012120E-04;  9.9821240E+02;  1.0000000E-01; -1.4809950E+03;3; -2.8702812E+00;  0.0000000E+00; -2.1552977E-01;0;  7.9576647E-01;  3.9845918E+04;  0.0000000E+00;  4.7789898E-04;  4.0000000E+04;  0.0000000E+00;  4.0009055E+04;  7.5270963E-01;  0.0000000E+00;  4.3056857E-02;  1.2939845E+03;
  2.3176630E-01;  9.9999998E-03;  1.9990228E-02;3881;  3.4947062E-01;  0.0000000E+00; -9.2470465E-04;  9.9820337E+02;  1.0000000E-01; -1.4884517E+03;3; -2.9588504E+00;  0.0000000E+00; -3.9894378E-01;0;  7.9957592E-01;  3.9845805E+04;  0.0000000E+00;  1.9333059E-03;  4.0000000E+04;  0.0000000E+00;  4.0008402E+04;  7.5790012E-01;  0.0000000E+00;  4.1675806E-02;  1.2188088E+03;
  2.3177415E-01;  9.9999998E-03;  2.9984469E-02;3882;  3.4908044E-01;  0.0000000E+00; -1.4989832E-03;  9.9818597E+02;  1.0000000E-01; -1.5028710E+03;3; -3.0091965E+00;  0.0000000E+00; -6.6117954E-01;0;  8.0591822E-01;  3.9845570E+04;  0.0000000E+00;  4.4299811E-03;  4.0000000E+04;  0.0000000E+00;  4.0007215E+04;  7.6601654E-01;  0.0000000E+00;  3.9901666E-02;  1.0751561E+03;
  2.3178476E-01;  9.9999998E-03;  3.9978143E-02;3883;  3.4842491E-01;  0.0000000E+00; -2.1599678E-03;  9.9816125E+02;  1.0000000E-01; -1.5233643E+03;3; -3.0564134E+00;  0.0000000E+00; -9.2017144E-01;0;  8.1468117E-01;  3.9845391E+04;  0.0000000E+00;  8.0595221E-03;  4.0000000E+04;  0.0000000E+00;  4.0005348E+04;  7.7628440E-01;  0.0000000E+00;  3.8396765E-02;  8.4203894E+02;
  2.3179749E-01;  9.9999998E-03;  4.9971346E-02;3884;  3.4724766E-01;  0.0000000E+00; -2.9204472E-03;  9.9812531E+02;  1.0000000E-01; -1.5531411E+03;3; -2.9361482E+00;  0.0000000E+00; -1.1389068E+00;0;  8.2556260E-01;  3.9845305E+04;  0.0000000E+00;  1.2908422E-02;  4.0000000E+04;  0.0000000E+00;  4.0002582E+04;  7.8767502E-01;  0.0000000E+00;  3.7887599E-02;  5.0081207E+02;
  2.3181087E-01;  9.9999998E-03;  5.9964404E-02;3885;  3.4500834E-01;  0.0000000E+00; -3.7062522E-03;  9.9807874E+02;  1.0000000E-01; -1.5917080E+03;3; -2.5372281E+00;  0.0000000E+00; -1.3905511E+00;0;  8.3797908E-01;  3.9845215E+04;  0.0000000E+00;  1.8989267E-02;  4.0000000E+04;  0.0000000E+00;  3.9998859E+04;  7.9893565E-01;  0.0000000E+00;  3.9043438E-02;  4.8885120E+01;
  2.4188845E-01;  9.9999998E-03; -9.9941939E-02;3930;  3.2938746E-01;  0.0000000E+00;  6.0761445E-03;  9.9750562E+02;  1.0000000E-01; -2.0665586E+03;3; -3.7898765E+00;  0.0000000E+00;  2.2206697E+00;0;  8.3874303E-01;  3.9818098E+04;  0.0000000E+00;  4.7241535E-02;  4.0000000E+04;  0.0000000E+00;  3.9980336E+04;  7.8295177E-01;  0.0000000E+00;  5.5791277E-02;  2.2361702E+03;
  2.4187306E-01;  9.9999998E-03; -8.9944929E-02;3931;  3.3728641E-01;  0.0000000E+00;  5.6819925E-03;  9.9763214E+02;  1.0000000E-01; -1.9617222E+03;3; -3.2243493E+00;  0.0000000E+00;  1.9272147E+00;0;  8.1843191E-01;  3.9822375E+04;  0.0000000E+00;  3.8908560E-02;  4.0000000E+04;  0.0000000E+00;  3.9986309E+04;  7.7384764E-01;  0.0000000E+00;  4.4584263E-02;  1.4970244E+03;
  2.4185525E-01;  9.9999998E-03; -7.9950362E-02;3932;  3.4249794E-01;  0.0000000E+00;  4.9521942E-03;  9.9775031E+02;  1.0000000E-01; -1.8638484E+03;3; -3.2881598E+00;  0.0000000E+00;  1.6022782E+00;0;  7.9547995E-01;  3.9825875E+04;  0.0000000E+00;  3.0311946E-02;  4.0000000E+04;  0.0000000E+00;  3.9992289E+04;  7.5999057E-01;  0.0000000E+00;  3.5489365E-02;  7.6280377E+02;
  2.4183583E-01;  9.9999998E-03; -6.9957249E-02;3933;  3.4560075E-01;  0.0000000E+00;  4.0746173E-03;  9.9785400E+02;  1.0000000E-01; -1.7779249E+03;3; -3.4740603E+00;  0.0000000E+00;  1.3620515E+00;0;  7.7187037E-01;  3.9828812E+04;  0.0000000E+00;  2.2428486E-02;  4.0000000E+04;  0.0000000E+00;  3.9997848E+04;  7.4302953E-01;  0.0000000E+00;  2.8840847E-02;  9.3202797E+01;
  2.4181668E-01;  9.9999998E-03; -5.9964597E-02;3934;  3.4738046E-01;  0.0000000E+00;  3.2033219E-03;  9.9794385E+02;  1.0000000E-01; -1.7035072E+03;3; -3.5514574E+00;  0.0000000E+00;  1.1902212E+00;0;  7.4921960E-01;  3.9831309E+04;  0.0000000E+00;  1.5737327E-02;  4.0000000E+04;  0.0000000E+00;  4.0002477E+04;  7.2457606E-01;  0.0000000E+00;  2.4643516E-02;  4.8885873E+02;
  2.4179949E-01;  9.9999998E-03; -4.9971718E-02;3935;  3.4840959E-01;  0.0000000E+00;  2.4107955E-03;  9.9801819E+02;  1.0000000E-01; -1.6418794E+03;3; -3.4800749E+00;  0.0000000E+00;  9.6951497E-01;0;  7.2875303E-01;  3.9833457E+04;  0.0000000E+00;  1.0385172E-02;  4.0000000E+04;  0.0000000E+00;  4.0006164E+04;  7.0613366E-01;  0.0000000E+00;  2.2619367E-02;  9.4800378E+02;
  2.4178497E-01;  9.9999998E-03; -3.9978389E-02;3936;  3.4904909E-01;  0.0000000E+00;  1.7423510E-03;  9.9807526E+02;  1.0000000E-01; -1.5946215E+03;3; -3.3455880E+00;  0.0000000E+00;  7.5551468E-01;0;  7.1132976E-01;  3.9835293E+04;  0.0000000E+00;  6.3224756E-03;  4.0000000E+04;  0.0000000E+00;  4.0009016E+04;  6.8905371E-01;  0.0000000E+00;  2.2276033E-02;  1.2889231E+03;
  2.4177343E-01;  9.9999998E-03; -2.9984539E-02;3937;  3.4949750E-01;  0.0000000E+00;  1.2199495E-03;  9.9811932E+02;  1.0000000E-01; -1.5581287E+03;3; -3.1863122E+00;  0.0000000E+00;  5.8931446E-01;0;  6.9749033E-01;  3.9836883E+04;  0.0000000E+00;  3.4037882E-03;  4.0000000E+04;  0.0000000E+00;  4.0010828E+04;  6.7450052E-01;  0.0000000E+00;  2.2989796E-02;  1.5225059E+03;
  2.4176505E-01;  9.9999998E-03; -1.9990144E-02;3938;  3.4978524E-01;  0.0000000E+00;  7.8149867E-04;  9.9814844E+02;  1.0000000E-01; -1.5339812E+03;3; -3.0796454E+00;  0.0000000E+00;  3.8847643E-01;0;  6.8751633E-01;  3.9838059E+04;  0.0000000E+00;  1.4624778E-03;  4.0000000E+04;  0.0000000E+00;  4.0012047E+04;  6.6341060E-01;  0.0000000E+00;  2.4105748E-02;  1.6675771E+03;
  2.4175994E-01;  9.9999998E-03; -9.9952649E-03;3939;  3.4993941E-01;  0.0000000E+00;  3.8390880E-04;  9.9816418E+02;  1.0000000E-01; -1.5209446E+03;3; -3.0162163E+00;  0.0000000E+00;  1.6811952E-01;0;  6.8151790E-01;  3.9838773E+04;  0.0000000E+00;  3.5791646E-04;  4.0000000E+04;  0.0000000E+00;  4.0012613E+04;  6.5647346E-01;  0.0000000E+00;  2.5044467E-02;  1.7443033E+03;
  2.4175821E-01;  9.9999998E-03; -4.4354475E-11;3940;  3.4998032E-01;  0.0000000E+00;  1.1023896E-08;  9.9817029E+02;  1.0000000E-01; -1.5158583E+03;3; -3.0023463E+00;  0.0000000E+00;  1.6360136E-05;0;  6.7951912E-01;  3.9839047E+04;  0.0000000E+00;  1.7828801E-13;  4.0000000E+04;  0.0000000E+00;  4.0012805E+04;  6.5411383E-01;  0.0000000E+00;  2.5405288E-02;  1.7679769E+03;
  2.4175994E-01;  9.9999998E-03;  9.9952649E-03;3941;  3.4993941E-01;  0.0000000E+00; -3.8388689E-04;  9.9816418E+02;  1.0000000E-01; -1.5209446E+03;3; -3.0161366E+00;  0.0000000E+00; -1.6808808E-01;0;  6.8151796E-01;  3.9838773E+04;  0.0000000E+00;  3.5796760E-04;  4.0000000E+04;  0.0000000E+00;  4.0012613E+04;  6.5647352E-01;  0.0000000E+00;  2.5044465E-02;  1.7443026E+03;
  2.4176505E-01;  9.9999998E-03;  1.9990144E-02;3942;  3.4978524E-01;  0.0000000E+00; -7.8147731E-04;  9.9814844E+02;  1.0000000E-01; -1.5339812E+03;3; -3.0798626E+00;  0.0000000E+00; -3.8846448E-01;0;  6.8751585E-01;  3.9838059E+04;  0.0000000E+00;  1.4625832E-03;  4.0000000E+04;  0.0000000E+00;  4.0012047E+04;  6.6341019E-01;  0.0000000E+00;  2.4105692E-02;  1.6675781E+03;
  2.4177343E-01;  9.9999998E-03;  2.9984539E-02;3943;  3.4949750E-01;  0.0000000E+00; -1.2199286E-03;  9.9811932E+02;  1.0000000E-01; -1.5581287E+03;3; -3.1861541E+00;  0.0000000E+00; -5.8931041E-01;0;  6.9748926E-01;  3.9836883E+04;  0.0000000E+00;  3.4037679E-03;  4.0000000E+04;  0.0000000E+00;  4.0010828E+04;  6.7449951E-01;  0.0000000E+00;  2.2989765E-02;  1.5225066E+03;
  2.4178497E-01;  9.9999998E-03;  3.9978389E-02;3944;  3.4904912E-01;  0.0000000E+00; -1.7423304E-03;  9.9807526E+02;  1.0000000E-01; -1.5946215E+03;3; -3.3457012E+00;  0.0000000E+00; -7.5550860E-01;0;  7.1132940E-01;  3.9835297E+04;  0.0000000E+00;  6.3229646E-03;  4.0000000E+04;  0.0000000E+00;  4.0009020E+04;  6.8905342E-01;  0.0000000E+00;  2.2276003E-02;  1.2889218E+03;
  2.4179949E-01;  9.9999998E-03;  4.9971718E-02;3945;  3.4840962E-01;  0.0000000E+00; -2.4107739E-03;  9.9801825E+02;  1.0000000E-01; -1.6418300E+03;3; -3.4801116E+00;  0.0000000E+00; -9.6950239E-01;0;  7.2875202E-01;  3.9833461E+04;  0.0000000E+00;  1.0385253E-02;  4.0000000E+04;  0.0000000E+00;  4.0006164E+04;  7.0613265E-01;  0.0000000E+00;  2.2619344E-02;  9.4800549E+02;
  2.4181667E-01;  9.9999998E-03;  5.9964597E-02;3946;  3.4738052E-01;  0.0000000E+00; -3.2032996E-03;  9.9794385E+02;  1.0000000E-01; -1.7035072E+03;3; -3.5513690E+00;  0.0000000E+00; -1.1902102E+00;0;  7.4921912E-01;  3.9831309E+04;  0.0000000E+00;  1.5738511E-02;  4.0000000E+04;  0.0000000E+00;  4.0002477E+04;  7.2457570E-01;  0.0000000E+00;  2.4643449E-02;  4.8886096E+02;
  2.5191545E-01;  9.9999998E-03; -9.9942930E-02;3991;  3.3806789E-01;  0.0000000E+00;  6.3952957E-03;  9.9727087E+02;  1.0000000E-01; -2.2610222E+03;3; -3.8321199E+00;  0.0000000E+00;  1.8566470E+00;0;  7.7155083E-01;  3.9796395E+04;  0.0000000E+00;  4.0818740E-02;  4.0000000E+04;  0.0000000E+00;  3.9983746E+04;  7.2844732E-01;  0.0000000E+00;  4.3103501E-02;  1.7963428E+03;
  2.5189203E-01;  9.9999998E-03; -8.9947134E-02;3992;  3.4257707E-01;  0.0000000E+00;  5.4818271E-03;  9.9743408E+02;  1.0000000E-01; -2.1258162E+03;3; -4.0198145E+00;  0.0000000E+00;  1.5954055E+00;0;  7.3897964E-01;  3.9803223E+04;  0.0000000E+00;  3.1438354E-02;  4.0000000E+04;  0.0000000E+00;  3.9989867E+04;  7.0755202E-01;  0.0000000E+00;  3.1427614E-02;  1.0417002E+03;
  2.5186777E-01;  9.9999998E-03; -7.9953097E-02;3993;  3.4534711E-01;  0.0000000E+00;  4.4964161E-03;  9.9758112E+02;  1.0000000E-01; -2.0039926E+03;3; -4.0681529E+00;  0.0000000E+00;  1.3831431E+00;0;  7.0550895E-01;  3.9809270E+04;  0.0000000E+00;  2.3113256E-02;  4.0000000E+04;  0.0000000E+00;  3.9995797E+04;  6.8356687E-01;  0.0000000E+00;  2.1942079E-02;  3.1139212E+02;
  2.5184447E-01;  9.9999998E-03; -6.9959857E-02;3994;  3.4704986E-01;  0.0000000E+00;  3.5665284E-03;  9.9771356E+02;  1.0000000E-01; -1.8942672E+03;3; -4.0326114E+00;  0.0000000E+00;  1.2372396E+00;0;  6.7303878E-01;  3.9814508E+04;  0.0000000E+00;  1.6251376E-02;  4.0000000E+04;  0.0000000E+00;  4.0001195E+04;  6.5812957E-01;  0.0000000E+00;  1.4909225E-02;  3.5064429E+02;
  2.5182343E-01;  9.9999998E-03; -5.9966762E-02;3995;  3.4807476E-01;  0.0000000E+00;  2.7358988E-03;  9.9782800E+02;  1.0000000E-01; -1.7994552E+03;3; -3.8632736E+00;  0.0000000E+00;  1.0417356E+00;0;  6.4305764E-01;  3.9819035E+04;  0.0000000E+00;  1.0894405E-02;  4.0000000E+04;  0.0000000E+00;  4.0005707E+04;  6.3277000E-01;  0.0000000E+00;  1.0287620E-02;  9.0740192E+02;
  2.5180519E-01;  9.9999998E-03; -4.9973384E-02;3996;  3.4877884E-01;  0.0000000E+00;  2.0604504E-03;  9.9792206E+02;  1.0000000E-01; -1.7215314E+03;3; -3.6367354E+00;  0.0000000E+00;  8.8953030E-01;0;  6.1665481E-01;  3.9822957E+04;  0.0000000E+00;  6.9018160E-03;  4.0000000E+04;  0.0000000E+00;  4.0009336E+04;  6.0887021E-01;  0.0000000E+00;  7.7845976E-03;  1.3484562E+03;
  2.5178999E-01;  9.9999998E-03; -3.9979544E-02;3997;  3.4927890E-01;  0.0000000E+00;  1.5271992E-03;  9.9799591E+02;  1.0000000E-01; -1.6603480E+03;3; -3.4521091E+00;  0.0000000E+00;  7.0677847E-01;0;  5.9455484E-01;  3.9826281E+04;  0.0000000E+00;  4.0529687E-03;  4.0000000E+04;  0.0000000E+00;  4.0011973E+04;  5.8763105E-01;  0.0000000E+00;  6.9237780E-03;  1.6742035E+03;
  2.5177792E-01;  9.9999998E-03; -2.9985284E-02;3998;  3.4962007E-01;  0.0000000E+00;  1.0736511E-03;  9.9805328E+02;  1.0000000E-01; -1.6127938E+03;3; -3.2983398E+00;  0.0000000E+00;  5.1260954E-01;0;  5.7717919E-01;  3.9828938E+04;  0.0000000E+00;  2.1166315E-03;  4.0000000E+04;  0.0000000E+00;  4.0013781E+04;  5.7005286E-01;  0.0000000E+00;  7.1263611E-03;  1.8968772E+03;
  2.5176913E-01;  9.9999998E-03; -1.9990599E-02;3999;  3.4984380E-01;  0.0000000E+00;  6.8154355E-04;  9.9809210E+02;  1.0000000E-01; -1.5806465E+03;3; -3.1710415E+00;  0.0000000E+00;  3.4936175E-01;0;  5.6472725E-01;  3.9830930E+04;  0.0000000E+00;  8.8836567E-04;  4.0000000E+04;  0.0000000E+00;  4.0014926E+04;  5.5692559E-01;  0.0000000E+00;  7.8016724E-03;  2.0351674E+03;
  2.5176379E-01;  9.9999998E-03; -9.9954605E-03;4000;  3.4997615E-01;  0.0000000E+00;  3.3875235E-04;  9.9811456E+02;  1.0000000E-01; -1.5620298E+03;3; -3.1236553E+00;  0.0000000E+00;  1.8770251E-01;0;  5.5725819E-01;  3.9832148E+04;  0.0000000E+00;  2.1424120E-04;  4.0000000E+04;  0.0000000E+00;  4.0015547E+04;  5.4881877E-01;  0.0000000E+00;  8.4393965E-03;  2.1084321E+03;
  2.5176200E-01;  9.9999998E-03; -7.4479430E-11;4001;  3.5002285E-01;  0.0000000E+00;  9.3617105E-09;  9.9812225E+02;  1.0000000E-01; -1.5556595E+03;3; -3.1101100E+00;  0.0000000E+00;  1.1650464E-05;0;  5.5477107E-01;  3.9832543E+04;  0.0000000E+00;  3.1620003E-13;  4.0000000E+04;  0.0000000E+00;  4.0015676E+04;  5.4607815E-01;  0.0000000E+00;  8.6929351E-03;  2.1310786E+03;
  2.5176379E-01;  9.9999998E-03;  9.9954596E-03;4002;  3.4997615E-01;  0.0000000E+00; -3.3873378E-04;  9.9811456E+02;  1.0000000E-01; -1.5620298E+03;3; -3.1235330E+00;  0.0000000E+00; -1.8767753E-01;0;  5.5725843E-01;  3.9832148E+04;  0.0000000E+00;  2.1416227E-04;  4.0000000E+04;  0.0000000E+00;  4.0015547E+04;  5.4881901E-01;  0.0000000E+00;  8.4394040E-03;  2.1084312E+03;
  2.5176913E-01;  9.9999998E-03;  1.9990599E-02;4003;  3.4984377E-01;  0.0000000E+00; -6.8152644E-04;  9.9809210E+02;  1.0000000E-01; -1.5806465E+03;3; -3.1712463E+00;  0.0000000E+00; -3.4936193E-01;0;  5.6472695E-01;  3.9830934E+04;  0.0000000E+00;  8.8848319E-04;  4.0000000E+04;  0.0000000E+00;  4.0014930E+04;  5.5692530E-01;  0.0000000E+00;  7.8016692E-03;  2.0351698E+03;
  2.5177792E-01;  9.9999998E-03;  2.9985284E-02;4004;  3.4962010E-01;  0.0000000E+00; -1.0736332E-03;  9.9805328E+02;  1.0000000E-01; -1.6127938E+03;3; -3.2984972E+00;  0.0000000E+00; -5.1258790E-01;0;  5.7717878E-01;  3.9828938E+04;  0.0000000E+00;  2.1167940E-03;  4.0000000E+04;  0.0000000E+00;  4.0013781E+04;  5.7005244E-01;  0.0000000E+00;  7.1263406E-03;  1.8968798E+03;
  2.5178999E-01;  9.9999998E-03;  3.9979544E-02;4005;  3.4927893E-01;  0.0000000E+00; -1.5271830E-03;  9.9799597E+02;  1.0000000E-01; -1.6602986E+03;3; -3.4522412E+00;  0.0000000E+00; -7.0679849E-01;0;  5.9455377E-01;  3.9826289E+04;  0.0000000E+00;  4.0529724E-03;  4.0000000E+04;  0.0000000E+00;  4.0011973E+04;  5.8763003E-01;  0.0000000E+00;  6.9237226E-03;  1.6742050E+03;
  2.5180519E-01;  9.9999998E-03;  4.9973384E-02;4006;  3.4877887E-01;  0.0000000E+00; -2.0604320E-03;  9.9792194E+02;  1.0000000E-01; -1.7216302E+03;3; -3.6367769E+00;  0.0000000E+00; -8.8950872E-01;0;  6.1665475E-01;  3.9822957E+04;  0.0000000E+00;  6.9015278E-03;  4.0000000E+04;  0.0000000E+00;  4.0009336E+04;  6.0887021E-01;  0.0000000E+00;  7.7845552E-03;  1.3484570E+03;
  2.5182343E-01;  9.9999998E-03;  5.9966762E-02;4007;  3.4807479E-01;  0.0000000E+00; -2.7358793E-03;  9.9782806E+02;  1.0000000E-01; -1.7994058E+03;3; -3.8632472E+00;  0.0000000E+00; -1.0417057E+00;0;  6.4305806E-01;  3.9819035E+04;  0.0000000E+00;  1.0893317E-02;  4.0000000E+04;  0.0000000E+00;  4.0005707E+04;  6.3277054E-01;  0.0000000E+00;  1.0287542E-02;  9.0740527E+02;
  2.6193759E-01;  9.9999998E-03; -9.9949233E-02;4052;  3.4201300E-01;  0.0000000E+00;  6.1039999E-03;  9.9707227E+02;  1.0000000E-01; -2.4255608E+03;3; -4.5975537E+00;  0.0000000E+00;  1.6319382E+00;0;  6.8540996E-01;  3.9777207E+04;  0.0000000E+00;  3.0032665E-02;  4.0000000E+04;  0.0000000E+00;  3.9987559E+04;  6.5628749E-01;  0.0000000E+00;  2.9122459E-02;  1.3052592E+03;
  2.6190844E-01;  9.9999998E-03; -8.9953259E-02;4053;  3.4470013E-01;  0.0000000E+00;  5.0403220E-03;  9.9726324E+02;  1.0000000E-01; -2.2673430E+03;3; -4.5993361E+00;  0.0000000E+00;  1.4405752E+00;0;  6.4345616E-01;  3.9786309E+04;  0.0000000E+00;  2.1165786E-02;  4.0000000E+04;  0.0000000E+00;  3.9993637E+04;  6.2587374E-01;  0.0000000E+00;  1.7582390E-02;  5.6804059E+02;
  2.6188117E-01;  9.9999998E-03; -7.9958342E-02;4054;  3.4642681E-01;  0.0000000E+00;  4.0582921E-03;  9.9743561E+02;  1.0000000E-01; -2.1245322E+03;3; -4.5123887E+00;  0.0000000E+00;  1.2997308E+00;0;  6.0232013E-01;  3.9794508E+04;  0.0000000E+00;  1.4304777E-02;  4.0000000E+04;  0.0000000E+00;  3.9999332E+04;  5.9407407E-01;  0.0000000E+00;  8.2460353E-03;  1.3305048E+02;
  2.6185638E-01;  9.9999998E-03; -6.9964111E-02;4055;  3.4754223E-01;  0.0000000E+00;  3.1719189E-03;  9.9758771E+02;  1.0000000E-01; -1.9985607E+03;3; -4.2694693E+00;  0.0000000E+00;  1.1373646E+00;0;  5.6372529E-01;  3.9801465E+04;  0.0000000E+00;  9.2881648E-03;  4.0000000E+04;  0.0000000E+00;  4.0004359E+04;  5.6241977E-01;  0.0000000E+00;  1.3054950E-03;  7.5205829E+02;
  2.6183459E-01;  9.9999998E-03; -5.9969980E-02;4056;  3.4833184E-01;  0.0000000E+00;  2.4653946E-03;  9.9771838E+02;  1.0000000E-01; -1.8902673E+03;3; -3.9977331E+00;  0.0000000E+00;  9.8068106E-01;0;  5.2895045E-01;  3.9807695E+04;  0.0000000E+00;  5.7761860E-03;  4.0000000E+04;  0.0000000E+00;  4.0008504E+04;  5.3227305E-01;  0.0000000E+00; -3.3225927E-03;  1.2698479E+03;
  2.6181570E-01;  9.9999998E-03; -4.9975798E-02;4057;  3.4889385E-01;  0.0000000E+00;  1.8842740E-03;  9.9782385E+02;  1.0000000E-01; -1.8029119E+03;3; -3.7661545E+00;  0.0000000E+00;  8.1575233E-01;0;  4.9887818E-01;  3.9812992E+04;  0.0000000E+00;  3.4109196E-03;  4.0000000E+04;  0.0000000E+00;  4.0011926E+04;  5.0481969E-01;  0.0000000E+00; -5.9414962E-03;  1.6756292E+03;
  2.6179987E-01;  9.9999998E-03; -3.9981384E-02;4058;  3.4929398E-01;  0.0000000E+00;  1.3906916E-03;  9.9791010E+02;  1.0000000E-01; -1.7314570E+03;3; -3.5505672E+00;  0.0000000E+00;  6.4977461E-01;0;  4.7403890E-01;  3.9817262E+04;  0.0000000E+00;  1.8784517E-03;  4.0000000E+04;  0.0000000E+00;  4.0014383E+04;  4.8104763E-01;  0.0000000E+00; -7.0087318E-03;  1.9726954E+03;
  2.6178733E-01;  9.9999998E-03; -2.9986575E-02;4059;  3.4958604E-01;  0.0000000E+00;  9.8936714E-04;  9.9797290E+02;  1.0000000E-01; -1.6794092E+03;3; -3.3873765E+00;  0.0000000E+00;  4.9097502E-01;0;  4.5469096E-01;  3.9820789E+04;  0.0000000E+00;  9.2765939E-04;  4.0000000E+04;  0.0000000E+00;  4.0015930E+04;  4.6175092E-01;  0.0000000E+00; -7.0599560E-03;  2.1741331E+03;
  2.6177821E-01;  9.9999998E-03; -1.9991366E-02;4060;  3.4977064E-01;  0.0000000E+00;  6.3388684E-04;  9.9801825E+02;  1.0000000E-01; -1.6418300E+03;3; -3.2874997E+00;  0.0000000E+00;  3.2742205E-01;0;  4.4091183E-01;  3.9823355E+04;  0.0000000E+00;  3.7253398E-04;  4.0000000E+04;  0.0000000E+00;  4.0017008E+04;  4.4754001E-01;  0.0000000E+00; -6.6281832E-03;  2.2983025E+03;
  2.6177263E-01;  9.9999998E-03; -9.9958088E-03;4061;  3.4988225E-01;  0.0000000E+00;  3.0767030E-04;  9.9804462E+02;  1.0000000E-01; -1.6200034E+03;3; -3.2190080E+00;  0.0000000E+00;  1.7578478E-01;0;  4.3267784E-01;  3.9824805E+04;  0.0000000E+00;  8.7305809E-05;  4.0000000E+04;  0.0000000E+00;  4.0017551E+04;  4.3884355E-01;  0.0000000E+00; -6.1657149E-03;  2.3636523E+03;
  2.6177076E-01;  9.9999998E-03; -8.8044766E-11;4062;  3.4992296E-01;  0.0000000E+00;  7.6821483E-09;  9.9805377E+02;  1.0000000E-01; -1.6123987E+03;3; -3.1852636E+00;  0.0000000E+00;  6.0652555E-06;0;  4.2994016E-01;  3.9825340E+04;  0.0000000E+00; -4.2167572E-13;  4.0000000E+04;  0.0000000E+00;  4.0017738E+04;  4.3591610E-01;  0.0000000E+00; -5.9759282E-03;  2.3837788E+03;
  2.6177263E-01;  9.9999998E-03;  9.9958088E-03;4063;  3.4988225E-01;  0.0000000E+00; -3.0765496E-04;  9.9804462E+02;  1.0000000E-01; -1.6200034E+03;3; -3.2189267E+00;  0.0000000E+00; -1.7577444E-01;0;  4.3267789E-01;  3.9824805E+04;  0.0000000E+00;  8.7232977E-05;  4.0000000E+04;  0.0000000E+00;  4.0017551E+04;  4.3884361E-01;  0.0000000E+00; -6.1657219E-03;  2.3636521E+03;
  2.6177821E-01;  9.9999998E-03;  1.9991366E-02;4064;  3.4977067E-01;  0.0000000E+00; -6.3387066E-04;  9.9801825E+02;  1.0000000E-01; -1.6418300E+03;3; -3.2877610E+00;  0.0000000E+00; -3.2740846E-01;0;  4.4091201E-01;  3.9823355E+04;  0.0000000E+00;  3.7263343E-04;  4.0000000E+04;  0.0000000E+00;  4.0017008E+04;  4.4754022E-01;  0.0000000E+00; -6.6282046E-03;  2.2983032E+03;
  2.6178733E-01;  9.9999998E-03;  2.9986575E-02;4065;  3.4958604E-01;  0.0000000E+00; -9.8935212E-04;  9.9797284E+02;  1.0000000E-01; -1.6794585E+03;3; -3.3875239E+00;  0.0000000E+00; -4.9095225E-01;0;  4.5469105E-01;  3.9820789E+04;  0.0000000E+00;  9.2769193E-04;  4.0000000E+04;  0.0000000E+00;  4.0015930E+04;  4.6175104E-01;  0.0000000E+00; -7.0599960E-03;  2.1741362E+03;
  2.6179987E-01;  9.9999998E-03;  3.9981384E-02;4066;  3.4929401E-01;  0.0000000E+00; -1.3906771E-03;  9.9791010E+02;  1.0000000E-01; -1.7314570E+03;3; -3.5506554E+00;  0.0000000E+00; -6.4975268E-01;0;  4.7403857E-01;  3.9817262E+04;  0.0000000E+00;  1.8782828E-03;  4.0000000E+04;  0.0000000E+00;  4.0014383E+04;  4.8104733E-01;  0.0000000E+00; -7.0087682E-03;  1.9726975E+03;
  2.6181570E-01;  9.9999998E-03;  4.9975798E-02;4067;  3.4889385E-01;  0.0000000E+00; -1.8842591E-03;  9.9782385E+02;  1.0000000E-01; -1.8029119E+03;3; -3.7658191E+00;  0.0000000E+00; -8.1572282E-01;0;  4.9887779E-01;  3.9812992E+04;  0.0000000E+00;  3.4110702E-03;  4.0000000E+04;  0.0000000E+00;  4.0011926E+04;  5.0481933E-01;  0.0000000E+00; -5.9415339E-03;  1.6756310E+03;
  2.6183459E-01;  9.9999998E-03;  5.9969980E-02;4068;  3.4833190E-01;  0.0000000E+00; -2.4653813E-03;  9.9771838E+02;  1.0000000E-01; -1.8902673E+03;3; -3.9980595E+00;  0.0000000E+00; -9.8070210E-01;0;  5.2894986E-01;  3.9807695E+04;  0.0000000E+00;  5.7764524E-03;  4.0000000E+04;  0.0000000E+00;  4.0008504E+04;  5.3227252E-01;  0.0000000E+00; -3.3226493E-03;  1.2698474E+03;
  2.7195990E-01;  9.9999998E-03; -9.9958174E-02;4113;  3.4373468E-01;  0.0000000E+00;  5.7273014E-03;  9.9690784E+02;  1.0000000E-01; -2.5618040E+03;3; -5.2071438E+00;  0.0000000E+00;  1.5163581E+00;0;  5.8807206E-01;  3.9760352E+04;  0.0000000E+00;  1.7578371E-02;  4.0000000E+04;  0.0000000E+00;  3.9991469E+04;  5.7339156E-01;  0.0000000E+00;  1.4680487E-02;  7.9150739E+02;
  2.7192762E-01;  9.9999998E-03; -8.9961551E-02;4114;  3.4557426E-01;  0.0000000E+00;  4.6809264E-03;  9.9711578E+02;  1.0000000E-01; -2.3895125E+03;3; -4.9647875E+00;  0.0000000E+00;  1.3615167E+00;0;  5.3991067E-01;  3.9771352E+04;  0.0000000E+00;  1.0534919E-02;  4.0000000E+04;  0.0000000E+00;  3.9997352E+04;  5.3611583E-01;  0.0000000E+00;  3.7948505E-03;  1.0123477E+02;
  2.7189854E-01;  9.9999998E-03; -7.9965211E-02;4115;  3.4685096E-01;  0.0000000E+00;  3.7425091E-03;  9.9730225E+02;  1.0000000E-01; -2.2350479E+03;3; -4.7047467E+00;  0.0000000E+00;  1.2303548E+00;0;  4.9414125E-01;  3.9780875E+04;  0.0000000E+00;  5.9203538E-03;  4.0000000E+04;  0.0000000E+00;  4.0002449E+04;  4.9907428E-01;  0.0000000E+00; -4.9330215E-03;  5.4120892E+02;
  2.7187288E-01;  9.9999998E-03; -6.9969416E-02;4116;  3.4774548E-01;  0.0000000E+00;  2.9760324E-03;  9.9746393E+02;  1.0000000E-01; -2.1010762E+03;3; -4.4131298E+00;  0.0000000E+00;  1.0823375E+00;0;  4.5222658E-01;  3.9789316E+04;  0.0000000E+00;  3.1176538E-03;  4.0000000E+04;  0.0000000E+00;  4.0007180E+04;  4.6360633E-01;  0.0000000E+00; -1.1379751E-02;  1.1010377E+03;
  2.7185023E-01;  9.9999998E-03; -5.9974108E-02;4117;  3.4838283E-01;  0.0000000E+00;  2.3271772E-03;  9.9760193E+02;  1.0000000E-01; -1.9867584E+03;3; -4.1359444E+00;  0.0000000E+00;  9.1984123E-01;0;  4.1518942E-01;  3.9796508E+04;  0.0000000E+00;  1.5309984E-03;  4.0000000E+04;  0.0000000E+00;  4.0010934E+04;  4.3085349E-01;  0.0000000E+00; -1.5664082E-02;  1.5616108E+03;
  2.7183059E-01;  9.9999998E-03; -4.9978949E-02;4118;  3.4885684E-01;  0.0000000E+00;  1.7851120E-03;  9.9771454E+02;  1.0000000E-01; -1.8934772E+03;3; -3.8713362E+00;  0.0000000E+00;  7.7734250E-01;0;  3.8365322E-01;  3.9802609E+04;  0.0000000E+00;  6.9390394E-04;  4.0000000E+04;  0.0000000E+00;  4.0013887E+04;  4.0174887E-01;  0.0000000E+00; -1.8095637E-02;  1.9176158E+03;
  2.7181411E-01;  9.9999998E-03; -3.9983682E-02;4119;  3.4920964E-01;  0.0000000E+00;  1.3404527E-03;  9.9780334E+02;  1.0000000E-01; -1.8198990E+03;3; -3.6580191E+00;  0.0000000E+00;  6.2018615E-01;0;  3.5792291E-01;  3.9807637E+04;  0.0000000E+00;  2.8503660E-04;  4.0000000E+04;  0.0000000E+00;  4.0015953E+04;  3.7703338E-01;  0.0000000E+00; -1.9110475E-02;  2.1745906E+03;
  2.7180097E-01;  9.9999998E-03; -2.9988190E-02;4120;  3.4945148E-01;  0.0000000E+00;  9.5163204E-04;  9.9787030E+02;  1.0000000E-01; -1.7643944E+03;3; -3.4866676E+00;  0.0000000E+00;  4.5949939E-01;0;  3.3807307E-01;  3.9811500E+04;  0.0000000E+00;  1.0241457E-04;  4.0000000E+04;  0.0000000E+00;  4.0017398E+04;  3.5727519E-01;  0.0000000E+00; -1.9202106E-02;  2.3461782E+03;
  2.7179137E-01;  9.9999998E-03; -1.9992387E-02;4121;  3.4961945E-01;  0.0000000E+00;  6.1324454E-04;  9.9791528E+02;  1.0000000E-01; -1.7271609E+03;3; -3.3734879E+00;  0.0000000E+00;  3.1142721E-01;0;  3.2403514E-01;  3.9814293E+04;  0.0000000E+00;  3.0084731E-05;  4.0000000E+04;  0.0000000E+00;  4.0018184E+04;  3.4288701E-01;  0.0000000E+00; -1.8851880E-02;  2.4501599E+03;
  2.7178553E-01;  9.9999998E-03; -9.9962847E-03;4122;  3.4971491E-01;  0.0000000E+00;  2.9772017E-04;  9.9794318E+02;  1.0000000E-01; -1.7040504E+03;3; -3.3069055E+00;  0.0000000E+00;  1.5677385E-01;0;  3.1568483E-01;  3.9815996E+04;  0.0000000E+00;  5.4469369E-06;  4.0000000E+04;  0.0000000E+00;  4.0018695E+04;  3.3414721E-01;  0.0000000E+00; -1.8462392E-02;  2.5039980E+03;
  2.7178356E-01;  9.9999998E-03; -8.3331543E-11;4123;  3.4974849E-01;  0.0000000E+00;  6.7639290E-09;  9.9795294E+02;  1.0000000E-01; -1.6959519E+03;3; -3.2718096E+00;  0.0000000E+00; -1.9252038E-06;0;  3.1291535E-01;  3.9816621E+04;  0.0000000E+00; -6.0583553E-13;  4.0000000E+04;  0.0000000E+00;  4.0018844E+04;  3.3121657E-01;  0.0000000E+00; -1.8301228E-02;  2.5204043E+03;
  2.7178553E-01;  9.9999998E-03;  9.9962847E-03;4124;  3.4971491E-01;  0.0000000E+00; -2.9770701E-04;  9.9794318E+02;  1.0000000E-01; -1.7040504E+03;3; -3.3068180E+00;  0.0000000E+00; -1.5676932E-01;0;  3.1568477E-01;  3.9815992E+04;  0.0000000E+00;  5.4354446E-06;  4.0000000E+04;  0.0000000E+00;  4.0018695E+04;  3.3414716E-01;  0.0000000E+00; -1.8462393E-02;  2.5039944E+03;
  2.7179137E-01;  9.9999998E-03;  1.9992387E-02;4125;  3.4961948E-01;  0.0000000E+00; -6.1323098E-04;  9.9791528E+02;  1.0000000E-01; -1.7271609E+03;3; -3.3733048E+00;  0.0000000E+00; -3.1140316E-01;0;  3.2403490E-01;  3.9814297E+04;  0.0000000E+00;  3.0104595E-05;  4.0000000E+04;  0.0000000E+00;  4.0018184E+04;  3.4288678E-01;  0.0000000E+00; -1.8851880E-02;  2.4501621E+03;
  2.7180097E-01;  9.9999998E-03;  2.9988190E-02;4126;  3.4945151E-01;  0.0000000E+00; -9.5162069E-04;  9.9787030E+02;  1.0000000E-01; -1.7643944E+03;3; -3.4868526E+00;  0.0000000E+00; -4.5950300E-01;0;  3.3807307E-01;  3.9811500E+04;  0.0000000E+00;  1.0263920E-04;  4.0000000E+04;  0.0000000E+00;  4.0017398E+04;  3.5727522E-01;  0.0000000E+00; -1.9202143E-02;  2.3461765E+03;
  2.7181411E-01;  9.9999998E-03;  3.9983682E-02;4127;  3.4920964E-01;  0.0000000E+00; -1.3404433E-03;  9.9780334E+02;  1.0000000E-01; -1.8198990E+03;3; -3.6581416E+00;  0.0000000E+00; -6.2017840E-01;0;  3.5792288E-01;  3.9807637E+04;  0.0000000E+00;  2.8497394E-04;  4.0000000E+04;  0.0000000E+00;  4.0015953E+04;  3.7703338E-01;  0.0000000E+00; -1.9110510E-02;  2.1745969E+03;
  2.7183059E-01;  9.9999998E-03;  4.9978949E-02;4128;  3.4885687E-01;  0.0000000E+00; -1.7850982E-03;  9.9771454E+02;  1.0000000E-01; -1.8934772E+03;3; -3.8713729E+00;  0.0000000E+00; -7.7735585E-01;0;  3.8365284E-01;  3.9802609E+04;  0.0000000E+00;  6.9395872E-04;  4.0000000E+04;  0.0000000E+00;  4.0013887E+04;  4.0174854E-01;  0.0000000E+00; -1.8095704E-02;  1.9176179E+03;
  2.7185023E-01;  9.9999998E-03;  5.9974108E-02;4129;  3.4838286E-01;  0.0000000E+00; -2.3271667E-03;  9.9760181E+02;  1.0000000E-01; -1.9868572E+03;3; -4.1355166E+00;  0.0000000E+00; -9.1977596E-01;0;  4.1518980E-01;  3.9796508E+04;  0.0000000E+00;  1.5311023E-03;  4.0000000E+04;  0.0000000E+00;  4.0010934E+04;  4.3085393E-01;  0.0000000E+00; -1.5664142E-02;  1.5616145E+03;
  2.8198516E-01;  9.9999998E-03; -9.9967949E-02;4174;  3.4452730E-01;  0.0000000E+00;  5.4236604E-03;  9.9676550E+02;  1.0000000E-01; -2.6797266E+03;3; -5.4754057E+00;  0.0000000E+00;  1.4328290E+00;0;  4.8666617E-01;  3.9745352E+04;  0.0000000E+00;  6.0258801E-03;  4.0000000E+04;  0.0000000E+00;  3.9995652E+04;  4.8613209E-01;  0.0000000E+00;  5.3407892E-04;  2.7679819E+02;
  2.8195086E-01;  9.9999998E-03; -8.9970656E-02;4175;  3.4597659E-01;  0.0000000E+00;  4.4383002E-03;  9.9697986E+02;  1.0000000E-01; -2.5021514E+03;3; -5.2158623E+00;  0.0000000E+00;  1.3120366E+00;0;  4.3545789E-01;  3.9757426E+04;  0.0000000E+00;  1.5622871E-03;  4.0000000E+04;  0.0000000E+00;  4.0000695E+04;  4.4475517E-01;  0.0000000E+00; -9.2972666E-03;  3.4457315E+02;
  2.8192046E-01;  9.9999998E-03; -7.9973102E-02;4176;  3.4701368E-01;  0.0000000E+00;  3.6036987E-03;  9.9717078E+02;  1.0000000E-01; -2.3439336E+03;3; -4.8832040E+00;  0.0000000E+00;  1.1723958E+00;0;  3.8798207E-01;  3.9768008E+04;  0.0000000E+00; -5.5945379E-04;  4.0000000E+04;  0.0000000E+00;  4.0005402E+04;  4.0505123E-01;  0.0000000E+00; -1.7069152E-02;  9.0831555E+02;
  2.8189355E-01;  9.9999998E-03; -6.9975846E-02;4177;  3.4775892E-01;  0.0000000E+00;  2.8806413E-03;  9.9733319E+02;  1.0000000E-01; -2.2094189E+03;3; -4.5610571E+00;  0.0000000E+00;  1.0258701E+00;0;  3.4539396E-01;  3.9776961E+04;  0.0000000E+00; -1.2364653E-03;  4.0000000E+04;  0.0000000E+00;  4.0009383E+04;  3.6811447E-01;  0.0000000E+00; -2.2720518E-02;  1.3908112E+03;
  2.8186986E-01;  9.9999998E-03; -5.9979044E-02;4178;  3.4831700E-01;  0.0000000E+00;  2.2758113E-03;  9.9747028E+02;  1.0000000E-01; -2.0958418E+03;3; -4.2484431E+00;  0.0000000E+00;  8.9054388E-01;0;  3.0841774E-01;  3.9784711E+04;  0.0000000E+00; -1.1788658E-03;  4.0000000E+04;  0.0000000E+00;  4.0012578E+04;  3.3481875E-01;  0.0000000E+00; -2.6401024E-02;  1.7802203E+03;
  2.8184932E-01;  9.9999998E-03; -4.9982660E-02;4179;  3.4874177E-01;  0.0000000E+00;  1.7732067E-03;  9.9757910E+02;  1.0000000E-01; -2.0056715E+03;3; -3.9921751E+00;  0.0000000E+00;  7.4469393E-01;0;  2.7740443E-01;  3.9791105E+04;  0.0000000E+00; -8.5189275E-04;  4.0000000E+04;  0.0000000E+00;  4.0014996E+04;  3.0582511E-01;  0.0000000E+00; -2.8420696E-02;  2.0752324E+03;
  2.8183198E-01;  9.9999998E-03; -3.9986432E-02;4180;  3.4904787E-01;  0.0000000E+00;  1.3358678E-03;  9.9766766E+02;  1.0000000E-01; -1.9322909E+03;3; -3.7702253E+00;  0.0000000E+00;  5.9672201E-01;0;  2.5242355E-01;  3.9796273E+04;  0.0000000E+00; -5.0924718E-04;  4.0000000E+04;  0.0000000E+00;  4.0016762E+04;  2.8161499E-01;  0.0000000E+00; -2.9191425E-02;  2.2833760E+03;
  2.8181812E-01;  9.9999998E-03; -2.9990103E-02;4181;  3.4927192E-01;  0.0000000E+00;  9.5954631E-04;  9.9773181E+02;  1.0000000E-01; -1.8791566E+03;3; -3.5967138E+00;  0.0000000E+00;  4.4642824E-01;0;  2.3335531E-01;  3.9800324E+04;  0.0000000E+00; -2.5267902E-04;  4.0000000E+04;  0.0000000E+00;  4.0017852E+04;  2.6252154E-01;  0.0000000E+00; -2.9166220E-02;  2.4186052E+03;
  2.8180799E-01;  9.9999998E-03; -1.9993585E-02;4182;  3.4942049E-01;  0.0000000E+00;  6.1935972E-04;  9.9777545E+02;  1.0000000E-01; -1.8430095E+03;3; -3.4713168E+00;  0.0000000E+00;  3.0134961E-01;0;  2.1998169E-01;  3.9803113E+04;  0.0000000E+00; -9.7397518E-05;  4.0000000E+04;  0.0000000E+00;  4.0018551E+04;  2.4876040E-01;  0.0000000E+00; -2.8778719E-02;  2.4979094E+03;
  2.8180179E-01;  9.9999998E-03; -9.9968547E-03;4183;  3.4950900E-01;  0.0000000E+00;  3.0264031E-04;  9.9780225E+02;  1.0000000E-01; -1.8207878E+03;3; -3.4021358E+00;  0.0000000E+00;  1.5125239E-01;0;  2.1207249E-01;  3.9804785E+04;  0.0000000E+00; -2.1707861E-05;  4.0000000E+04;  0.0000000E+00;  4.0018895E+04;  2.4045999E-01;  0.0000000E+00; -2.8387509E-02;  2.5376194E+03;
  2.8179970E-01;  9.9999998E-03; -9.6985073E-11;4184;  3.4953916E-01;  0.0000000E+00;  6.3651791E-09;  9.9781012E+02;  1.0000000E-01; -1.8142695E+03;3; -3.3706892E+00;  0.0000000E+00;  5.6669987E-06;0;  2.0945686E-01;  3.9805441E+04;  0.0000000E+00;  4.5025623E-13;  4.0000000E+04;  0.0000000E+00;  4.0018918E+04;  2.3768635E-01;  0.0000000E+00; -2.8229484E-02;  2.5494319E+03;
  2.8180179E-01;  9.9999998E-03;  9.9968547E-03;4185;  3.4950906E-01;  0.0000000E+00; -3.0262786E-04;  9.9780225E+02;  1.0000000E-01; -1.8207878E+03;3; -3.4020679E+00;  0.0000000E+00; -1.5123826E-01;0;  2.1207254E-01;  3.9804789E+04;  0.0000000E+00; -2.1718421E-05;  4.0000000E+04;  0.0000000E+00;  4.0018895E+04;  2.4046004E-01;  0.0000000E+00; -2.8387507E-02;  2.5376152E+03;
  2.8180799E-01;  9.9999998E-03;  1.9993585E-02;4186;  3.4942052E-01;  0.0000000E+00; -6.1934936E-04;  9.9777545E+02;  1.0000000E-01; -1.8430095E+03;3; -3.4716647E+00;  0.0000000E+00; -3.0135345E-01;0;  2.1998146E-01;  3.9803113E+04;  0.0000000E+00; -9.7464675E-05;  4.0000000E+04;  0.0000000E+00;  4.0018551E+04;  2.4876019E-01;  0.0000000E+00; -2.8778737E-02;  2.4979089E+03;
  2.8181812E-01;  9.9999998E-03;  2.9990103E-02;4187;  3.4927198E-01;  0.0000000E+00; -9.5953484E-04;  9.9773181E+02;  1.0000000E-01; -1.8791566E+03;3; -3.5969517E+00;  0.0000000E+00; -4.4642654E-01;0;  2.3335512E-01;  3.9800324E+04;  0.0000000E+00; -2.5261485E-04;  4.0000000E+04;  0.0000000E+00;  4.0017852E+04;  2.6252139E-01;  0.0000000E+00; -2.9166264E-02;  2.4186042E+03;
  2.8183198E-01;  9.9999998E-03;  3.9986432E-02;4188;  3.4904787E-01;  0.0000000E+00; -1.3358566E-03;  9.9766766E+02;  1.0000000E-01; -1.9322909E+03;3; -3.7708228E+00;  0.0000000E+00; -5.9674662E-01;0;  2.5242293E-01;  3.9796273E+04;  0.0000000E+00; -5.0940696E-04;  4.0000000E+04;  0.0000000E+00;  4.0016762E+04;  2.8161442E-01;  0.0000000E+00; -2.9191481E-02;  2.2833784E+03;
  2.8184929E-01;  9.9999998E-03;  4.9982660E-02;4189;  3.4874180E-01;  0.0000000E+00; -1.7731979E-03;  9.9757910E+02;  1.0000000E-01; -2.0056715E+03;3; -3.9922616E+00;  0.0000000E+00; -7.4470121E-01;0;  2.7740359E-01;  3.9791102E+04;  0.0000000E+00; -8.5187366E-04;  4.0000000E+04;  0.0000000E+00;  4.0014996E+04;  3.0582428E-01;  0.0000000E+00; -2.8420685E-02;  2.0752346E+03;
  2.8186986E-01;  9.9999998E-03;  5.9979044E-02;4190;  3.4831703E-01;  0.0000000E+00; -2.2758015E-03;  9.9747028E+02;  1.0000000E-01; -2.0958418E+03;3; -4.2484374E+00;  0.0000000E+00; -8.9054537E-01;0;  3.0841741E-01;  3.9784711E+04;  0.0000000E+00; -1.1792566E-03;  4.0000000E+04;  0.0000000E+00;  4.0012578E+04;  3.3481845E-01;  0.0000000E+00; -2.6401047E-02;  1.7802144E+03;
  2.9201326E-01;  9.9999998E-03; -9.9977396E-02;4235;  3.4488931E-01;  0.0000000E+00;  5.2227713E-03;  9.9663770E+02;  1.0000000E-01; -2.7856001E+03;3; -5.7532554E+00;  0.0000000E+00;  1.3782594E+00;0;  3.8724574E-01;  3.9731727E+04;  0.0000000E+00; -2.8874737E-03;  4.0000000E+04;  0.0000000E+00;  3.9999586E+04;  3.9993072E-01;  0.0000000E+00; -1.2684979E-02;  2.2305951E+02;
  2.9197767E-01;  9.9999998E-03; -8.9979410E-02;4236;  3.4612027E-01;  0.0000000E+00;  4.3387571E-03;  9.9684943E+02;  1.0000000E-01; -2.6101975E+03;3; -5.4279261E+00;  0.0000000E+00;  1.2658393E+00;0;  3.3588600E-01;  3.9744281E+04;  0.0000000E+00; -4.6302411E-03;  4.0000000E+04;  0.0000000E+00;  4.0003969E+04;  3.5708505E-01;  0.0000000E+00; -2.1199042E-02;  7.5754944E+02;
  2.9194593E-01;  9.9999998E-03; -7.9981163E-02;4237;  3.4700108E-01;  0.0000000E+00;  3.5474394E-03;  9.9703436E+02;  1.0000000E-01; -2.4569673E+03;3; -5.0577612E+00;  0.0000000E+00;  1.1303078E+00;0;  2.8931412E-01;  3.9755070E+04;  0.0000000E+00; -4.4970307E-03;  4.0000000E+04;  0.0000000E+00;  4.0007906E+04;  3.1710550E-01;  0.0000000E+00; -2.7791379E-02;  1.2297175E+03;
  2.9191777E-01;  9.9999998E-03; -6.9982886E-02;4238;  3.4767082E-01;  0.0000000E+00;  2.8733381E-03;  9.9719012E+02;  1.0000000E-01; -2.3279341E+03;3; -4.7030172E+00;  0.0000000E+00;  1.0078956E+00;0;  2.4835283E-01;  3.9764219E+04;  0.0000000E+00; -3.4797913E-03;  4.0000000E+04;  0.0000000E+00;  4.0011203E+04;  2.8081110E-01;  0.0000000E+00; -3.2458276E-02;  1.6232991E+03;
  2.9189286E-01;  9.9999998E-03; -5.9984863E-02;4239;  3.4818324E-01;  0.0000000E+00;  2.3054925E-03;  9.9731873E+02;  1.0000000E-01; -2.2213691E+03;3; -4.3893242E+00;  0.0000000E+00;  8.6148620E-01;0;  2.1341519E-01;  3.9771836E+04;  0.0000000E+00; -2.2686096E-03;  4.0000000E+04;  0.0000000E+00;  4.0013711E+04;  2.4878851E-01;  0.0000000E+00; -3.5373319E-02;  1.9321940E+03;
  2.9187119E-01;  9.9999998E-03; -4.9987167E-02;4240;  3.4856430E-01;  0.0000000E+00;  1.8097984E-03;  9.9742047E+02;  1.0000000E-01; -2.1370752E+03;3; -4.1200819E+00;  0.0000000E+00;  7.2326505E-01;0;  1.8458159E-01;  3.9778141E+04;  0.0000000E+00; -1.2502808E-03;  4.0000000E+04;  0.0000000E+00;  4.0015605E+04;  2.2142383E-01;  0.0000000E+00; -3.6842238E-02;  2.1588245E+03;
  2.9185286E-01;  9.9999998E-03; -3.9989714E-02;4241;  3.4885174E-01;  0.0000000E+00;  1.3818232E-03;  9.9749854E+02;  1.0000000E-01; -2.0724351E+03;3; -3.8886585E+00;  0.0000000E+00;  5.7908034E-01;0;  1.6169254E-01;  3.9783121E+04;  0.0000000E+00; -5.6380092E-04;  4.0000000E+04;  0.0000000E+00;  4.0016883E+04;  1.9894357E-01;  0.0000000E+00; -3.7251022E-02;  2.3124937E+03;
  2.9183817E-01;  9.9999998E-03; -2.9992364E-02;4242;  3.4905747E-01;  0.0000000E+00;  9.9888560E-04;  9.9755670E+02;  1.0000000E-01; -2.0242389E+03;3; -3.7121353E+00;  0.0000000E+00;  4.3933934E-01;0;  1.4444095E-01;  3.9786914E+04;  0.0000000E+00; -1.9145870E-04;  4.0000000E+04;  0.0000000E+00;  4.0017699E+04;  1.8145324E-01;  0.0000000E+00; -3.7012298E-02;  2.4072354E+03;
  2.9182741E-01;  9.9999998E-03; -1.9995002E-02;4243;  3.4919676E-01;  0.0000000E+00;  6.4888241E-04;  9.9759711E+02;  1.0000000E-01; -1.9907583E+03;3; -3.5855002E+00;  0.0000000E+00;  2.9603192E-01;0;  1.3246539E-01;  3.9789562E+04;  0.0000000E+00; -4.0071143E-05;  4.0000000E+04;  0.0000000E+00;  4.0018188E+04;  1.6898012E-01;  0.0000000E+00; -3.6514733E-02;  2.4591479E+03;
  2.9182082E-01;  9.9999998E-03; -9.9975439E-03;4244;  3.4927964E-01;  0.0000000E+00;  3.1941489E-04;  9.9761884E+02;  1.0000000E-01; -1.9727341E+03;3; -3.5092237E+00;  0.0000000E+00;  1.4890045E-01;0;  1.2543540E-01;  3.9791148E+04;  0.0000000E+00; -2.7606543E-06;  4.0000000E+04;  0.0000000E+00;  4.0018344E+04;  1.6151163E-01;  0.0000000E+00; -3.6076229E-02;  2.4831382E+03;
  2.9181862E-01;  9.9999998E-03; -1.1112442E-10;4245;  3.4930775E-01;  0.0000000E+00;  5.6089164E-09;  9.9762585E+02;  1.0000000E-01; -1.9669565E+03;3; -3.4793046E+00;  0.0000000E+00;  9.0913481E-06;0;  1.2311986E-01;  3.9791672E+04;  0.0000000E+00;  2.3092983E-13;  4.0000000E+04;  0.0000000E+00;  4.0018363E+04;  1.5902562E-01;  0.0000000E+00; -3.5905760E-02;  2.4898499E+03;
  2.9182082E-01;  9.9999998E-03;  9.9975439E-03;4246;  3.4927964E-01;  0.0000000E+00; -3.1940485E-04;  9.9761884E+02;  1.0000000E-01; -1.9727341E+03;3; -3.5091436E+00;  0.0000000E+00; -1.4889903E-01;0;  1.2543565E-01;  3.9791148E+04;  0.0000000E+00; -2.8231082E-06;  4.0000000E+04;  0.0000000E+00;  4.0018344E+04;  1.6151190E-01;  0.0000000E+00; -3.6076251E-02;  2.4831367E+03;
  2.9182741E-01;  9.9999998E-03;  1.9995002E-02;4247;  3.4919679E-01;  0.0000000E+00; -6.4887246E-04;  9.9759711E+02;  1.0000000E-01; -1.9907583E+03;3; -3.5858591E+00;  0.0000000E+00; -2.9603747E-01;0;  1.3246524E-01;  3.9789562E+04;  0.0000000E+00; -4.0106035E-05;  4.0000000E+04;  0.0000000E+00;  4.0018188E+04;  1.6898002E-01;  0.0000000E+00; -3.6514770E-02;  2.4591470E+03;
  2.9183817E-01;  9.9999998E-03;  2.9992364E-02;4248;  3.4905747E-01;  0.0000000E+00; -9.9887687E-04;  9.9755670E+02;  1.0000000E-01; -2.0242389E+03;3; -3.7123787E+00;  0.0000000E+00; -4.3934259E-01;0;  1.4444083E-01;  3.9786914E+04;  0.0000000E+00; -1.9147769E-04;  4.0000000E+04;  0.0000000E+00;  4.0017699E+04;  1.8145320E-01;  0.0000000E+00; -3.7012368E-02;  2.4072380E+03;
  2.9185286E-01;  9.9999998E-03;  3.9989714E-02;4249;  3.4885177E-01;  0.0000000E+00; -1.3818145E-03;  9.9749854E+02;  1.0000000E-01; -2.0724351E+03;3; -3.8888545E+00;  0.0000000E+00; -5.7906455E-01;0;  1.6169226E-01;  3.9783121E+04;  0.0000000E+00; -5.6340714E-04;  4.0000000E+04;  0.0000000E+00;  4.0016883E+04;  1.9894330E-01;  0.0000000E+00; -3.7251040E-02;  2.3124939E+03;
  2.9187119E-01;  9.9999998E-03;  4.9987167E-02;4250;  3.4856433E-01;  0.0000000E+00; -1.8097907E-03;  9.9742041E+02;  1.0000000E-01; -2.1371245E+03;3; -4.1201754E+00;  0.0000000E+00; -7.2324938E-01;0;  1.8458161E-01;  3.9778141E+04;  0.0000000E+00; -1.2501241E-03;  4.0000000E+04;  0.0000000E+00;  4.0015605E+04;  2.2142389E-01;  0.0000000E+00; -3.6842294E-02;  2.1588311E+03;
  2.9189286E-01;  9.9999998E-03;  5.9984863E-02;4251;  3.4818327E-01;  0.0000000E+00; -2.3054834E-03;  9.9731873E+02;  1.0000000E-01; -2.2213691E+03;3; -4.3893623E+00;  0.0000000E+00; -8.6149228E-01;0;  2.1341486E-01;  3.9771836E+04;  0.0000000E+00; -2.2692317E-03;  4.0000000E+04;  0.0000000E+00;  4.0013711E+04;  2.4878819E-01;  0.0000000E+00; -3.5373334E-02;  1.9321959E+03;
  3.0204257E-01;  9.9999998E-03; -9.9985458E-02;4296;  3.4501311E-01;  0.0000000E+00;  5.1478627E-03;  9.9651794E+02;  1.0000000E-01; -2.8848071E+03;3; -6.0000577E+00;  0.0000000E+00;  1.3400249E+00;0;  2.9453775E-01;  3.9718906E+04;  0.0000000E+00; -8.4704794E-03;  4.0000000E+04;  0.0000000E+00;  4.0003328E+04;  3.1903672E-01;  0.0000000E+00; -2.4498977E-02;  6.9636420E+02;
  3.0200672E-01;  9.9999998E-03; -8.9987233E-02;4297;  3.4608582E-01;  0.0000000E+00;  4.3102098E-03;  9.9672186E+02;  1.0000000E-01; -2.7158735E+03;3; -5.6480079E+00;  0.0000000E+00;  1.2150015E+00;0;  2.4547544E-01;  3.9731402E+04;  0.0000000E+00; -7.8886664E-03;  4.0000000E+04;  0.0000000E+00;  4.0006977E+04;  2.7704418E-01;  0.0000000E+00; -3.1568736E-02;  1.1337554E+03;
  3.0197397E-01;  9.9999998E-03; -7.9988591E-02;4298;  3.4689030E-01;  0.0000000E+00;  3.5700565E-03;  9.9689172E+02;  1.0000000E-01; -2.5751370E+03;3; -5.2318420E+00;  0.0000000E+00;  1.1069223E+00;0;  2.0195365E-01;  3.9741930E+04;  0.0000000E+00; -6.0658487E-03;  4.0000000E+04;  0.0000000E+00;  4.0010012E+04;  2.3883660E-01;  0.0000000E+00; -3.6882944E-02;  1.5065353E+03;
  3.0194455E-01;  9.9999998E-03; -6.9989696E-02;4299;  3.4751627E-01;  0.0000000E+00;  2.9396445E-03;  9.9703290E+02;  1.0000000E-01; -2.4582019E+03;3; -4.8805652E+00;  0.0000000E+00;  9.7336650E-01;0;  1.6445415E-01;  3.9750789E+04;  0.0000000E+00; -3.9479258E-03;  4.0000000E+04;  0.0000000E+00;  4.0012551E+04;  2.0494136E-01;  0.0000000E+00; -4.0487211E-02;  1.8053171E+03;
  3.0191848E-01;  9.9999998E-03; -5.9990797E-02;4300;  3.4798998E-01;  0.0000000E+00;  2.3822996E-03;  9.9714648E+02;  1.0000000E-01; -2.3640811E+03;3; -4.5489097E+00;  0.0000000E+00;  8.4551060E-01;0;  1.3309015E-01;  3.9757922E+04;  0.0000000E+00; -2.1196646E-03;  4.0000000E+04;  0.0000000E+00;  4.0014375E+04;  1.7566307E-01;  0.0000000E+00; -4.2572919E-02;  2.0292874E+03;
  3.0189565E-01;  9.9999998E-03; -4.9992047E-02;4301;  3.4835404E-01;  0.0000000E+00;  1.8982057E-03;  9.9723511E+02;  1.0000000E-01; -2.2906511E+03;3; -4.2666636E+00;  0.0000000E+00;  7.1440607E-01;0;  1.0768788E-01;  3.9763641E+04;  0.0000000E+00; -8.4406917E-04;  4.0000000E+04;  0.0000000E+00;  4.0015723E+04;  1.5112534E-01;  0.0000000E+00; -4.3437459E-02;  2.1842957E+03;
  3.0187628E-01;  9.9999998E-03; -3.9993484E-02;4302;  3.4862641E-01;  0.0000000E+00;  1.4627619E-03;  9.9730176E+02;  1.0000000E-01; -2.2354429E+03;3; -4.0304170E+00;  0.0000000E+00;  5.7530636E-01;0;  8.7875858E-02;  3.9768074E+04;  0.0000000E+00; -1.3927254E-04;  4.0000000E+04;  0.0000000E+00;  4.0016488E+04;  1.3131486E-01;  0.0000000E+00; -4.3439001E-02;  2.2811770E+03;
  3.0186072E-01;  9.9999998E-03; -2.9995052E-02;4303;  3.4882438E-01;  0.0000000E+00;  1.0667905E-03;  9.9734961E+02;  1.0000000E-01; -2.1957896E+03;3; -3.8395057E+00;  0.0000000E+00;  4.3621895E-01;0;  7.3180541E-02;  3.9771465E+04;  0.0000000E+00;  1.2133937E-04;  4.0000000E+04;  0.0000000E+00;  4.0017020E+04;  1.1613034E-01;  0.0000000E+00; -4.2949792E-02;  2.3339304E+03;
  3.0184925E-01;  9.9999998E-03; -1.9996697E-02;4304;  3.4895873E-01;  0.0000000E+00;  6.9753762E-04;  9.9738049E+02;  1.0000000E-01; -2.1702100E+03;3; -3.7040100E+00;  0.0000000E+00;  2.9301664E-01;0;  6.3117161E-02;  3.9773738E+04;  0.0000000E+00;  1.2296204E-04;  4.0000000E+04;  0.0000000E+00;  4.0017184E+04;  1.0543140E-01;  0.0000000E+00; -4.2314239E-02;  2.3575208E+03;
  3.0184224E-01;  9.9999998E-03; -9.9983523E-03;4305;  3.4903687E-01;  0.0000000E+00;  3.4495452E-04;  9.9739886E+02;  1.0000000E-01; -2.1550007E+03;3; -3.6277936E+00;  0.0000000E+00;  1.4891458E-01;0;  5.7267968E-02;  3.9775109E+04;  0.0000000E+00;  4.1671148E-05;  4.0000000E+04;  0.0000000E+00;  4.0017285E+04;  9.9079020E-02;  0.0000000E+00; -4.1811053E-02;  2.3653479E+03;
  3.0183989E-01;  9.9999998E-03; -1.1013412E-10;4306;  3.4906322E-01;  0.0000000E+00;  4.8369726E-09;  9.9740521E+02;  1.0000000E-01; -2.1497168E+03;3; -3.6014206E+00;  0.0000000E+00;  6.2592726E-06;0;  5.5351444E-02;  3.9775559E+04;  0.0000000E+00;  4.9296152E-13;  4.0000000E+04;  0.0000000E+00;  4.0017270E+04;  9.6973635E-02;  0.0000000E+00; -4.1622192E-02;  2.3668230E+03;
  3.0184224E-01;  9.9999998E-03;  9.9983523E-03;4307;  3.4903684E-01;  0.0000000E+00; -3.4494617E-04;  9.9739886E+02;  1.0000000E-01; -2.1550007E+03;3; -3.6282237E+00;  0.0000000E+00; -1.4892077E-01;0;  5.7267964E-02;  3.9775105E+04;  0.0000000E+00;  4.1636140E-05;  4.0000000E+04;  0.0000000E+00;  4.0017285E+04;  9.9079005E-02;  0.0000000E+00; -4.1811042E-02;  2.3653484E+03;
  3.0184925E-01;  9.9999998E-03;  1.9996697E-02;4308;  3.4895870E-01;  0.0000000E+00; -6.9752976E-04;  9.9738049E+02;  1.0000000E-01; -2.1702100E+03;3; -3.7038000E+00;  0.0000000E+00; -2.9303494E-01;0;  6.3117094E-02;  3.9773738E+04;  0.0000000E+00;  1.2297936E-04;  4.0000000E+04;  0.0000000E+00;  4.0017184E+04;  1.0543135E-01;  0.0000000E+00; -4.2314254E-02;  2.3575232E+03;
  3.0186072E-01;  9.9999998E-03;  2.9995052E-02;4309;  3.4882441E-01;  0.0000000E+00; -1.0667817E-03;  9.9734961E+02;  1.0000000E-01; -2.1957896E+03;3; -3.8392241E+00;  0.0000000E+00; -4.3621060E-01;0;  7.3180489E-02;  3.9771465E+04;  0.0000000E+00;  1.2119349E-04;  4.0000000E+04;  0.0000000E+00;  4.0017020E+04;  1.1613030E-01;  0.0000000E+00; -4.2949811E-02;  2.3339338E+03;
  3.0187628E-01;  9.9999998E-03;  3.9993484E-02;4310;  3.4862641E-01;  0.0000000E+00; -1.4627548E-03;  9.9730176E+02;  1.0000000E-01; -2.2354429E+03;3; -4.0305867E+00;  0.0000000E+00; -5.7531369E-01;0;  8.7875560E-02;  3.9768074E+04;  0.0000000E+00; -1.3930723E-04;  4.0000000E+04;  0.0000000E+00;  4.0016488E+04;  1.3131458E-01;  0.0000000E+00; -4.3439019E-02;  2.2811748E+03;
  3.0189565E-01;  9.9999998E-03;  4.9992047E-02;4311;  3.4835404E-01;  0.0000000E+00; -1.8981962E-03;  9.9723499E+02;  1.0000000E-01; -2.2907498E+03;3; -4.2668014E+00;  0.0000000E+00; -7.1438372E-01;0;  1.0768762E-01;  3.9763641E+04;  0.0000000E+00; -8.4471190E-04;  4.0000000E+04;  0.0000000E+00;  4.0015723E+04;  1.5112515E-01;  0.0000000E+00; -4.3437529E-02;  2.1842927E+03;
  3.0191848E-01;  9.9999998E-03;  5.9990797E-02;4312;  3.4799001E-01;  0.0000000E+00; -2.3822922E-03;  9.9714648E+02;  1.0000000E-01; -2.3640811E+03;3; -4.5488806E+00;  0.0000000E+00; -8.4553397E-01;0;  1.3309003E-01;  3.9757922E+04;  0.0000000E+00; -2.1199982E-03;  4.0000000E+04;  0.0000000E+00;  4.0014375E+04;  1.7566295E-01;  0.0000000E+00; -4.2572912E-02;  2.0292814E+03;
  3.1207123E-01;  9.9999998E-03; -9.9991478E-02;4357;  3.4495860E-01;  0.0000000E+00;  5.1344470E-03;  9.9640509E+02;  1.0000000E-01; -2.9783352E+03;3; -6.2723546E+00;  0.0000000E+00;  1.2750119E+00;0;  2.1184680E-01;  3.9706824E+04;  0.0000000E+00; -1.0968015E-02;  4.0000000E+04;  0.0000000E+00;  4.0006691E+04;  2.4643761E-01;  0.0000000E+00; -3.4590818E-02;  1.1337595E+03;
  3.1203616E-01;  9.9999998E-03; -8.9993335E-02;4358;  3.4594724E-01;  0.0000000E+00;  4.3483479E-03;  9.9658990E+02;  1.0000000E-01; -2.8252039E+03;3; -5.8701668E+00;  0.0000000E+00;  1.1868739E+00;0;  1.6698149E-01;  3.9718805E+04;  0.0000000E+00; -8.7874252E-03;  4.0000000E+04;  0.0000000E+00;  4.0009578E+04;  2.0719576E-01;  0.0000000E+00; -4.0214270E-02;  1.4699567E+03;
  3.1200331E-01;  9.9999998E-03; -7.9994604E-02;4359;  3.4671584E-01;  0.0000000E+00;  3.6617389E-03;  9.9674316E+02;  1.0000000E-01; -2.6982444E+03;3; -5.4481444E+00;  0.0000000E+00;  1.0649123E+00;0;  1.2809956E-01;  3.9728730E+04;  0.0000000E+00; -5.9789065E-03;  4.0000000E+04;  0.0000000E+00;  4.0011840E+04;  1.7236494E-01;  0.0000000E+00; -4.4265382E-02;  1.7414512E+03;
  3.1197312E-01;  9.9999998E-03; -6.9995470E-02;4360;  3.4730372E-01;  0.0000000E+00;  3.0477897E-03;  9.9686566E+02;  1.0000000E-01; -2.5967166E+03;3; -5.0772872E+00;  0.0000000E+00;  9.5403987E-01;0;  9.5364571E-02;  3.9736707E+04;  0.0000000E+00; -3.3513058E-03;  4.0000000E+04;  0.0000000E+00;  4.0013539E+04;  1.4219484E-01;  0.0000000E+00; -4.6830270E-02;  1.9450676E+03;
  3.1194609E-01;  9.9999998E-03; -5.9996065E-02;4361;  3.4776494E-01;  0.0000000E+00;  2.5079295E-03;  9.9696033E+02;  1.0000000E-01; -2.5182991E+03;3; -4.7311072E+00;  0.0000000E+00;  8.3760524E-01;0;  6.8614393E-02;  3.9743133E+04;  0.0000000E+00; -1.3509134E-03;  4.0000000E+04;  0.0000000E+00;  4.0014676E+04;  1.1672664E-01;  0.0000000E+00; -4.8112243E-02;  2.0846309E+03;
  3.1192231E-01;  9.9999998E-03; -4.9996603E-02;4362;  3.4811598E-01;  0.0000000E+00;  2.0180978E-03;  9.9703168E+02;  1.0000000E-01; -2.4591895E+03;3; -4.4344463E+00;  0.0000000E+00;  7.0765924E-01;0;  4.7446635E-02;  3.9748055E+04;  0.0000000E+00; -1.1782498E-04;  4.0000000E+04;  0.0000000E+00;  4.0015457E+04;  9.5843390E-02;  0.0000000E+00; -4.8396755E-02;  2.1690120E+03;
  3.1190205E-01;  9.9999998E-03; -3.9997160E-02;4363;  3.4838358E-01;  0.0000000E+00;  1.5725362E-03;  9.9708264E+02;  1.0000000E-01; -2.4169685E+03;3; -4.1849418E+00;  0.0000000E+00;  5.7493526E-01;0;  3.1310204E-02;  3.9751793E+04;  0.0000000E+00;  4.2659571E-04;  4.0000000E+04;  0.0000000E+00;  4.0015859E+04;  7.9321995E-02;  0.0000000E+00; -4.8011791E-02;  2.2103035E+03;
  3.1188565E-01;  9.9999998E-03; -2.9997794E-02;4364;  3.4857947E-01;  0.0000000E+00;  1.1563598E-03;  9.9711847E+02;  1.0000000E-01; -2.3872903E+03;3; -3.9880362E+00;  0.0000000E+00;  4.3754312E-01;0;  1.9596025E-02;  3.9754539E+04;  0.0000000E+00;  4.8419929E-04;  4.0000000E+04;  0.0000000E+00;  4.0015965E+04;  6.6885017E-02;  0.0000000E+00; -4.7288992E-02;  2.2222400E+03;
  3.1187358E-01;  9.9999998E-03; -1.9998495E-02;4365;  3.4871244E-01;  0.0000000E+00;  7.6061231E-04;  9.9714209E+02;  1.0000000E-01; -2.3677354E+03;3; -3.8400116E+00;  0.0000000E+00;  2.9417798E-01;0;  1.1722464E-02;  3.9756281E+04;  0.0000000E+00;  2.9863554E-04;  4.0000000E+04;  0.0000000E+00;  4.0015953E+04;  5.8250703E-02;  0.0000000E+00; -4.6528239E-02;  2.2185215E+03;
  3.1186619E-01;  9.9999998E-03; -9.9992417E-03;4366;  3.4878984E-01;  0.0000000E+00;  3.7733055E-04;  9.9715424E+02;  1.0000000E-01; -2.3576616E+03;3; -3.7541327E+00;  0.0000000E+00;  1.4674655E-01;0;  7.2103068E-03;  3.9757371E+04;  0.0000000E+00;  8.7758337E-05;  4.0000000E+04;  0.0000000E+00;  4.0015887E+04;  5.3178642E-02;  0.0000000E+00; -4.5968335E-02;  2.2108738E+03;
  3.1186369E-01;  9.9999998E-03; -1.1716915E-10;4367;  3.4881511E-01;  0.0000000E+00;  4.1308907E-09;  9.9715826E+02;  1.0000000E-01; -2.3543037E+03;3; -3.7265794E+00;  0.0000000E+00; -1.7815619E-06;0;  5.7431981E-03;  3.9757684E+04;  0.0000000E+00; -2.6138266E-14;  4.0000000E+04;  0.0000000E+00;  4.0015910E+04;  5.1507048E-02;  0.0000000E+00; -4.5763850E-02;  2.2073750E+03;
  3.1186619E-01;  9.9999998E-03;  9.9992407E-03;4368;  3.4878984E-01;  0.0000000E+00; -3.7732223E-04;  9.9715417E+02;  1.0000000E-01; -2.3577109E+03;3; -3.7546084E+00;  0.0000000E+00; -1.4675835E-01;0;  7.2102770E-03;  3.9757371E+04;  0.0000000E+00;  8.7767796E-05;  4.0000000E+04;  0.0000000E+00;  4.0015887E+04;  5.3178620E-02;  0.0000000E+00; -4.5968343E-02;  2.2108738E+03;
  3.1187358E-01;  9.9999998E-03;  1.9998493E-02;4369;  3.4871250E-01;  0.0000000E+00; -7.6060317E-04;  9.9714215E+02;  1.0000000E-01; -2.3676860E+03;3; -3.8397470E+00;  0.0000000E+00; -2.9416218E-01;0;  1.1722405E-02;  3.9756285E+04;  0.0000000E+00;  2.9865582E-04;  4.0000000E+04;  0.0000000E+00;  4.0015953E+04;  5.8250654E-02;  0.0000000E+00; -4.6528250E-02;  2.2185210E+03;
  3.1188565E-01;  9.9999998E-03;  2.9997794E-02;4370;  3.4857947E-01;  0.0000000E+00; -1.1563511E-03;  9.9711847E+02;  1.0000000E-01; -2.3872903E+03;3; -3.9877524E+00;  0.0000000E+00; -4.3752900E-01;0;  1.9595962E-02;  3.9754539E+04;  0.0000000E+00;  4.8404292E-04;  4.0000000E+04;  0.0000000E+00;  4.0015965E+04;  6.6884965E-02;  0.0000000E+00; -4.7289003E-02;  2.2222405E+03;
  3.1190205E-01;  9.9999998E-03;  3.9997160E-02;4371;  3.4838355E-01;  0.0000000E+00; -1.5725301E-03;  9.9708270E+02;  1.0000000E-01; -2.4169192E+03;3; -4.1845555E+00;  0.0000000E+00; -5.7492024E-01;0;  3.1310085E-02;  3.9751793E+04;  0.0000000E+00;  4.2621113E-04;  4.0000000E+04;  0.0000000E+00;  4.0015859E+04;  7.9321906E-02;  0.0000000E+00; -4.8011821E-02;  2.2103018E+03;
  3.1192231E-01;  9.9999998E-03;  4.9996603E-02;4372;  3.4811601E-01;  0.0000000E+00; -2.0180913E-03;  9.9703162E+02;  1.0000000E-01; -2.4592390E+03;3; -4.4339819E+00;  0.0000000E+00; -7.0767653E-01;0;  4.7446467E-02;  3.9748055E+04;  0.0000000E+00; -1.1778976E-04;  4.0000000E+04;  0.0000000E+00;  4.0015457E+04;  9.5843211E-02;  0.0000000E+00; -4.8396744E-02;  2.1690132E+03;
  3.1194609E-01;  9.9999998E-03;  5.9996065E-02;4373;  3.4776497E-01;  0.0000000E+00; -2.5079211E-03;  9.9696033E+02;  1.0000000E-01; -2.5182991E+03;3; -4.7311387E+00;  0.0000000E+00; -8.3759141E-01;0;  6.8614297E-02;  3.9743129E+04;  0.0000000E+00; -1.3512527E-03;  4.0000000E+04;  0.0000000E+00;  4.0014676E+04;  1.1672652E-01;  0.0000000E+00; -4.8112221E-02;  2.0846299E+03;
  3.2189348E-01;  9.9999998E-03; -1.0000068E-02;4427;  3.4854287E-01;  0.0000000E+00;  4.1488610E-04;  9.9690173E+02;  1.0000000E-01; -2.5668408E+03;3; -3.9056320E+00;  0.0000000E+00;  1.5050773E-01;0; -2.6583761E-02;  3.9739148E+04;  0.0000000E+00;  1.1657237E-04;  4.0000000E+04;  0.0000000E+00;  4.0014340E+04;  2.2380520E-02;  0.0000000E+00; -4.8964281E-02;  2.0441362E+03;
  3.2189092E-01;  9.9999998E-03; -1.4237909E-10;4428;  3.4856904E-01;  0.0000000E+00;  3.8380761E-09;  9.9690424E+02;  1.0000000E-01; -2.5647668E+03;3; -3.8685033E+00;  0.0000000E+00;  1.1674028E-06;0; -2.7600162E-02;  3.9739363E+04;  0.0000000E+00; -1.2202918E-14;  4.0000000E+04;  0.0000000E+00;  4.0014293E+04;  2.1153919E-02;  0.0000000E+00; -4.8754081E-02;  2.0362484E+03;
  3.2189348E-01;  9.9999998E-03;  1.0000068E-02;4429;  3.4854287E-01;  0.0000000E+00; -4.1487810E-04;  9.9690173E+02;  1.0000000E-01; -2.5668408E+03;3; -3.9054813E+00;  0.0000000E+00; -1.5050653E-01;0; -2.6583856E-02;  3.9739148E+04;  0.0000000E+00;  1.1657872E-04;  4.0000000E+04;  0.0000000E+00;  4.0014340E+04;  2.2380503E-02;  0.0000000E+00; -4.8964359E-02;  2.0441348E+03;
  3.2190117E-01;  9.9999998E-03; -2.0000111E-02;4426;  3.4846389E-01;  0.0000000E+00;  8.3344086E-04;  9.9689410E+02;  1.0000000E-01; -2.5731616E+03;3; -3.9977551E+00;  0.0000000E+00;  2.9817781E-01;0; -2.3421217E-02;  3.9738465E+04;  0.0000000E+00;  4.1170800E-04;  4.0000000E+04;  0.0000000E+00;  4.0014547E+04;  2.6130989E-02;  0.0000000E+00; -4.9552206E-02;  2.0654631E+03;
  3.2190117E-01;  9.9999998E-03;  2.0000109E-02;4430;  3.4846389E-01;  0.0000000E+00; -8.3343446E-04;  9.9689410E+02;  1.0000000E-01; -2.5731616E+03;3; -3.9975300E+00;  0.0000000E+00; -2.9817638E-01;0; -2.3421273E-02;  3.9738465E+04;  0.0000000E+00;  4.1169397E-04;  4.0000000E+04;  0.0000000E+00;  4.0014547E+04;  2.6130941E-02;  0.0000000E+00; -4.9552213E-02;  2.0654624E+03;
  3.2191366E-01;  9.9999998E-03; -3.0000133E-02;4425;  3.4832901E-01;  0.0000000E+00;  1.2606012E-03;  9.9688086E+02;  1.0000000E-01; -2.5841243E+03;3; -4.1472731E+00;  0.0000000E+00;  4.4105026E-01;0; -1.7783340E-02;  3.9737156E+04;  0.0000000E+00;  7.3017401E-04;  4.0000000E+04;  0.0000000E+00;  4.0014812E+04;  3.2609038E-02;  0.0000000E+00; -5.0392378E-02;  2.0936406E+03;
  3.2191366E-01;  9.9999998E-03;  3.0000132E-02;4431;  3.4832901E-01;  0.0000000E+00; -1.2605949E-03;  9.9688086E+02;  1.0000000E-01; -2.5841243E+03;3; -4.1475492E+00;  0.0000000E+00; -4.4106066E-01;0; -1.7783381E-02;  3.9737152E+04;  0.0000000E+00;  7.3004758E-04;  4.0000000E+04;  0.0000000E+00;  4.0014812E+04;  3.2608937E-02;  0.0000000E+00; -5.0392319E-02;  2.0936404E+03;
  3.2193053E-01;  9.9999998E-03; -4.0000122E-02;4424;  3.4813115E-01;  0.0000000E+00;  1.7020645E-03;  9.9685730E+02;  1.0000000E-01; -2.6036792E+03;3; -4.3638878E+00;  0.0000000E+00;  5.7865816E-01;0; -9.1597214E-03;  3.9735090E+04;  0.0000000E+00;  8.4263913E-04;  4.0000000E+04;  0.0000000E+00;  4.0014914E+04;  4.2127371E-02;  0.0000000E+00; -5.1287092E-02;  2.1187175E+03;
  3.2193053E-01;  9.9999998E-03;  4.0000122E-02;4432;  3.4813118E-01;  0.0000000E+00; -1.7020558E-03;  9.9685730E+02;  1.0000000E-01; -2.6036792E+03;3; -4.3640971E+00;  0.0000000E+00; -5.7865739E-01;0; -9.1598406E-03;  3.9735094E+04;  0.0000000E+00;  8.4234291E-04;  4.0000000E+04;  0.0000000E+00;  4.0014914E+04;  4.2127308E-02;  0.0000000E+00; -5.1287148E-02;  2.1187205E+03;
  3.2195133E-01;  9.9999998E-03; -5.0000045E-02;4423;  3.4786311E-01;  0.0000000E+00;  2.1657660E-03;  9.9682202E+02;  1.0000000E-01; -2.6329131E+03;3; -4.6210899E+00;  0.0000000E+00;  7.0801854E-01;0;  3.0905195E-03;  3.9732211E+04;  0.0000000E+00;  4.8718040E-04;  4.0000000E+04;  0.0000000E+00;  4.0015008E+04;  5.5072740E-02;  0.0000000E+00; -5.1982220E-02;  2.1284670E+03;
  3.2195133E-01;  9.9999998E-03;  5.0000045E-02;4433;  3.4786314E-01;  0.0000000E+00; -2.1657583E-03;  9.9682202E+02;  1.0000000E-01; -2.6329131E+03;3; -4.6211648E+00;  0.0000000E+00; -7.0801562E-01;0;  3.0903779E-03;  3.9732211E+04;  0.0000000E+00;  4.8789472E-04;  4.0000000E+04;  0.0000000E+00;  4.0015012E+04;  5.5072542E-02;  0.0000000E+00; -5.1982164E-02;  2.1284692E+03;
  3.2197562E-01;  9.9999998E-03; -5.9999831E-02;4422;  3.4750995E-01;  0.0000000E+00;  2.6598526E-03;  9.9676929E+02;  1.0000000E-01; -2.6765662E+03;3; -4.9386473E+00;  0.0000000E+00;  8.2553917E-01;0;  1.9672733E-02;  3.9728172E+04;  0.0000000E+00; -5.6875742E-04;  4.0000000E+04;  0.0000000E+00;  4.0014781E+04;  7.1860678E-02;  0.0000000E+00; -5.2187946E-02;  2.1096978E+03;
  3.2197562E-01;  9.9999998E-03;  5.9999831E-02;4434;  3.4751001E-01;  0.0000000E+00; -2.6598405E-03;  9.9676929E+02;  1.0000000E-01; -2.6765662E+03;3; -4.9381118E+00;  0.0000000E+00; -8.2545024E-01;0;  1.9672621E-02;  3.9728172E+04;  0.0000000E+00; -5.6799990E-04;  4.0000000E+04;  0.0000000E+00;  4.0014781E+04;  7.1860582E-02;  0.0000000E+00; -5.2187961E-02;  2.1096968E+03;
  3.2200298E-01;  9.9999998E-03; -6.9999345E-02;4421;  3.4705612E-01;  0.0000000E+00;  3.1967706E-03;  9.9669403E+02;  1.0000000E-01; -2.7389346E+03;3; -5.2929478E+00;  0.0000000E+00;  9.3888825E-01;0;  4.1278388E-02;  3.9722684E+04;  0.0000000E+00; -2.4566548E-03;  4.0000000E+04;  0.0000000E+00;  4.0014297E+04;  9.2886858E-02;  0.0000000E+00; -5.1608469E-02;  2.0494712E+03;
  3.2203290E-01;  9.9999998E-03; -7.9998448E-02;4420;  3.4648052E-01;  0.0000000E+00;  3.7878854E-03;  9.9659222E+02;  1.0000000E-01; -2.8232781E+03;3; -5.6924810E+00;  0.0000000E+00;  1.0380261E+00;0;  6.8497986E-02;  3.9715617E+04;  0.0000000E+00; -5.1244651E-03;  4.0000000E+04;  0.0000000E+00;  4.0013270E+04;  1.1847198E-01;  0.0000000E+00; -4.9973998E-02;  1.9365035E+03;
  3.2206479E-01;  9.9999998E-03; -8.9996971E-02;4419;  3.4574354E-01;  0.0000000E+00;  4.4464744E-03;  9.9646143E+02;  1.0000000E-01; -2.9316206E+03;3; -6.1245828E+00;  0.0000000E+00;  1.1363413E+00;0;  1.0173082E-01;  3.9706570E+04;  0.0000000E+00; -8.2556168E-03;  4.0000000E+04;  0.0000000E+00;  4.0011812E+04;  1.4880665E-01;  0.0000000E+00; -4.7075823E-02;  1.7630077E+03;
  3.2209858E-01;  9.9999998E-03; -9.9994898E-02;4418;  3.4478801E-01;  0.0000000E+00;  5.1662270E-03;  9.9629816E+02;  1.0000000E-01; -3.0669253E+03;3; -6.5463715E+00;  0.0000000E+00;  1.2284168E+00;0;  1.4109562E-01;  3.9695508E+04;  0.0000000E+00; -1.1189460E-02;  4.0000000E+04;  0.0000000E+00;  4.0009781E+04;  1.8389280E-01;  0.0000000E+00; -4.2797182E-02;  1.5266964E+03;
  3.3212569E-01;  9.9999998E-03; -9.9995241E-02;4479;  3.4454951E-01;  0.0000000E+00;  5.2521424E-03;  9.9619897E+02;  1.0000000E-01; -3.1490957E+03;3; -6.8460436E+00;  0.0000000E+00;  1.1777076E+00;0;  8.2970612E-02;  3.9685371E+04;  0.0000000E+00; -1.0084847E-02;  4.0000000E+04;  0.0000000E+00;  4.0012504E+04;  1.3205948E-01;  0.0000000E+00; -4.9088873E-02;  1.8669286E+03;
  3.3209312E-01;  9.9999998E-03; -8.9997672E-02;4480;  3.4547830E-01;  0.0000000E+00;  4.5738686E-03;  9.9634027E+02;  1.0000000E-01; -3.0320125E+03;3; -6.4136930E+00;  0.0000000E+00;  1.0857832E+00;0;  4.9823776E-02;  3.9695410E+04;  0.0000000E+00; -7.1742488E-03;  4.0000000E+04;  0.0000000E+00;  4.0013703E+04;  1.0202542E-01;  0.0000000E+00; -5.2201644E-02;  2.0088964E+03;
  3.3206278E-01;  9.9999998E-03; -7.9999529E-02;4481;  3.4620327E-01;  0.0000000E+00;  3.9430545E-03;  9.9645020E+02;  1.0000000E-01; -2.9409534E+03;3; -5.9699941E+00;  0.0000000E+00;  1.0084604E+00;0;  2.2688970E-02;  3.9703371E+04;  0.0000000E+00; -4.2447522E-03;  4.0000000E+04;  0.0000000E+00;  4.0014457E+04;  7.6817714E-02;  0.0000000E+00; -5.4128744E-02;  2.0918787E+03;
  3.3203429E-01;  9.9999998E-03; -7.0000738E-02;4482;  3.4678212E-01;  0.0000000E+00;  3.3684124E-03;  9.9653009E+02;  1.0000000E-01; -2.8747332E+03;3; -5.5488229E+00;  0.0000000E+00;  9.1841996E-01;0;  1.2093410E-03;  3.9709488E+04;  0.0000000E+00; -1.8344126E-03;  4.0000000E+04;  0.0000000E+00;  4.0014773E+04;  5.6216251E-02;  0.0000000E+00; -5.5006910E-02;  2.1226897E+03;
  3.3200765E-01;  9.9999998E-03; -6.0001425E-02;4483;  3.4723771E-01;  0.0000000E+00;  2.8307901E-03;  9.9658575E+02;  1.0000000E-01; -2.8286604E+03;3; -5.1754880E+00;  0.0000000E+00;  8.1829721E-01;0; -1.5200295E-02;  3.9714000E+04;  0.0000000E+00; -1.8060896E-04;  4.0000000E+04;  0.0000000E+00;  4.0014684E+04;  3.9842676E-02;  0.0000000E+00; -5.5042971E-02;  2.1123733E+03;
  3.3198363E-01;  9.9999998E-03; -5.0001714E-02;4484;  3.4759778E-01;  0.0000000E+00;  2.3260862E-03;  9.9662305E+02;  1.0000000E-01; -2.7977476E+03;3; -4.8298106E+00;  0.0000000E+00;  7.0870405E-01;0; -2.7269393E-02;  3.9717188E+04;  0.0000000E+00;  7.0050190E-04;  4.0000000E+04;  0.0000000E+00;  4.0014422E+04;  2.7217001E-02;  0.0000000E+00; -5.4486394E-02;  2.0738850E+03;
  3.3196288E-01;  9.9999998E-03; -4.0001739E-02;4485;  3.4787425E-01;  0.0000000E+00;  1.8430651E-03;  9.9664484E+02;  1.0000000E-01; -2.7796741E+03;3; -4.5526676E+00;  0.0000000E+00;  5.8517927E-01;0; -3.5781689E-02;  3.9719348E+04;  0.0000000E+00;  9.4398315E-04;  4.0000000E+04;  0.0000000E+00;  4.0014031E+04;  1.7817317E-02;  0.0000000E+00; -5.3599007E-02;  2.0204915E+03;
  3.3194599E-01;  9.9999998E-03; -3.0001562E-02;4486;  3.4807929E-01;  0.0000000E+00;  1.3731975E-03;  9.9665637E+02;  1.0000000E-01; -2.7701436E+03;3; -4.3233085E+00;  0.0000000E+00;  4.4972664E-01;0; -4.1492436E-02;  3.9720750E+04;  0.0000000E+00;  7.7097531E-04;  4.0000000E+04;  0.0000000E+00;  4.0013570E+04;  1.1133757E-02;  0.0000000E+00; -5.2626193E-02;  1.9644708E+03;
  3.3193350E-01;  9.9999998E-03; -2.0001197E-02;4487;  3.4821966E-01;  0.0000000E+00;  9.1198314E-04;  9.9666284E+02;  1.0000000E-01; -2.7647610E+03;3; -4.1562963E+00;  0.0000000E+00;  3.0464837E-01;0; -4.5059793E-02;  3.9721559E+04;  0.0000000E+00;  4.2438140E-04;  4.0000000E+04;  0.0000000E+00;  4.0013164E+04;  6.7160474E-03;  0.0000000E+00; -5.1775839E-02;  1.9163158E+03;
  3.3192578E-01;  9.9999998E-03; -1.0000662E-02;4488;  3.4830162E-01;  0.0000000E+00;  4.5514616E-04;  9.9666473E+02;  1.0000000E-01; -2.7631807E+03;3; -4.0637307E+00;  0.0000000E+00;  1.5457906E-01;0; -4.6988945E-02;  3.9722062E+04;  0.0000000E+00;  1.1892503E-04;  4.0000000E+04;  0.0000000E+00;  4.0012953E+04;  4.2136149E-03;  0.0000000E+00; -5.1202562E-02;  1.8840505E+03;
  3.3192319E-01;  9.9999998E-03; -1.8170658E-10;4489;  3.4832925E-01;  0.0000000E+00;  3.7212498E-09;  9.9666528E+02;  1.0000000E-01; -2.7627363E+03;3; -4.0187201E+00;  0.0000000E+00;  3.7401260E-06;0; -4.7596306E-02;  3.9722137E+04;  0.0000000E+00;  4.6140674E-13;  4.0000000E+04;  0.0000000E+00;  4.0012836E+04;  3.4046865E-03;  0.0000000E+00; -5.1000994E-02;  1.8727198E+03;
  3.3192578E-01;  9.9999998E-03;  1.0000662E-02;4490;  3.4830162E-01;  0.0000000E+00; -4.5513932E-04;  9.9666473E+02;  1.0000000E-01; -2.7631807E+03;3; -4.0642352E+00;  0.0000000E+00; -1.5457417E-01;0; -4.6988949E-02;  3.9722062E+04;  0.0000000E+00;  1.1893191E-04;  4.0000000E+04;  0.0000000E+00;  4.0012953E+04;  4.2136088E-03;  0.0000000E+00; -5.1202558E-02;  1.8840537E+03;
  3.3193350E-01;  9.9999998E-03;  2.0001197E-02;4491;  3.4821966E-01;  0.0000000E+00; -9.1197685E-04;  9.9666278E+02;  1.0000000E-01; -2.7648103E+03;3; -4.1560788E+00;  0.0000000E+00; -3.0464908E-01;0; -4.5059770E-02;  3.9721559E+04;  0.0000000E+00;  4.2432745E-04;  4.0000000E+04;  0.0000000E+00;  4.0013164E+04;  6.7160265E-03;  0.0000000E+00; -5.1775798E-02;  1.9163145E+03;
  3.3194599E-01;  9.9999998E-03;  3.0001560E-02;4492;  3.4807932E-01;  0.0000000E+00; -1.3731904E-03;  9.9665637E+02;  1.0000000E-01; -2.7701436E+03;3; -4.3229485E+00;  0.0000000E+00; -4.4971925E-01;0; -4.1492470E-02;  3.9720750E+04;  0.0000000E+00;  7.7083660E-04;  4.0000000E+04;  0.0000000E+00;  4.0013570E+04;  1.1133717E-02;  0.0000000E+00; -5.2626185E-02;  1.9644705E+03;
  3.3196288E-01;  9.9999998E-03;  4.0001739E-02;4493;  3.4787428E-01;  0.0000000E+00; -1.8430575E-03;  9.9664484E+02;  1.0000000E-01; -2.7796741E+03;3; -4.5522614E+00;  0.0000000E+00; -5.8515114E-01;0; -3.5781737E-02;  3.9719348E+04;  0.0000000E+00;  9.4377046E-04;  4.0000000E+04;  0.0000000E+00;  4.0014031E+04;  1.7817251E-02;  0.0000000E+00; -5.3598989E-02;  2.0204880E+03;
  3.3198363E-01;  9.9999998E-03;  5.0001714E-02;4494;  3.4759778E-01;  0.0000000E+00; -2.3260803E-03;  9.9662311E+02;  1.0000000E-01; -2.7976982E+03;3; -4.8293667E+00;  0.0000000E+00; -7.0868558E-01;0; -2.7269507E-02;  3.9717188E+04;  0.0000000E+00;  7.0023991E-04;  4.0000000E+04;  0.0000000E+00;  4.0014422E+04;  2.7216891E-02;  0.0000000E+00; -5.4486398E-02;  2.0738853E+03;
  3.3200765E-01;  9.9999998E-03;  6.0001425E-02;4495;  3.4723774E-01;  0.0000000E+00; -2.8307857E-03;  9.9658582E+02;  1.0000000E-01; -2.8286108E+03;3; -5.1755128E+00;  0.0000000E+00; -8.1827396E-01;0; -1.5200358E-02;  3.9714000E+04;  0.0000000E+00; -1.8100951E-04;  4.0000000E+04;  0.0000000E+00;  4.0014684E+04;  3.9842561E-02;  0.0000000E+00; -5.5042919E-02;  2.1123679E+03;
  3.4215522E-01;  9.9999998E-03; -9.9992499E-02;4540;  3.4424916E-01;  0.0000000E+00;  5.3635910E-03;  9.9611926E+02;  1.0000000E-01; -3.2151184E+03;3; -7.1979389E+00;  0.0000000E+00;  1.0973817E+00;0;  3.7145074E-02;  3.9677020E+04;  0.0000000E+00; -8.4323687E-03;  4.0000000E+04;  0.0000000E+00;  4.0014672E+04;  9.0692267E-02;  0.0000000E+00; -5.3547192E-02;  2.1469158E+03;
  3.4212357E-01;  9.9999998E-03; -8.9995168E-02;4541;  3.4516883E-01;  0.0000000E+00;  4.7206096E-03;  9.9623975E+02;  1.0000000E-01; -3.1153188E+03;3; -6.7199755E+00;  0.0000000E+00;  1.0372322E+00;0;  1.0396618E-02;  3.9686043E+04;  0.0000000E+00; -6.1460310E-03;  4.0000000E+04;  0.0000000E+00;  4.0015199E+04;  6.6119142E-02;  0.0000000E+00; -5.5722523E-02;  2.2031470E+03;
  3.4209466E-01;  9.9999998E-03; -7.9997353E-02;4542;  3.4590164E-01;  0.0000000E+00;  4.1177017E-03;  9.9632831E+02;  1.0000000E-01; -3.0419382E+03;3; -6.2637005E+00;  0.0000000E+00;  9.7964442E-01;0; -1.0691632E-02;  3.9693168E+04;  0.0000000E+00; -3.7561108E-03;  4.0000000E+04;  0.0000000E+00;  4.0015301E+04;  4.6214134E-02;  0.0000000E+00; -5.6905765E-02;  2.2059773E+03;
  3.4206799E-01;  9.9999998E-03; -6.9999039E-02;4543;  3.4648821E-01;  0.0000000E+00;  3.5485984E-03;  9.9639111E+02;  1.0000000E-01; -2.9898904E+03;3; -5.8153133E+00;  0.0000000E+00;  8.9721262E-01;0; -2.6662823E-02;  3.9698465E+04;  0.0000000E+00; -1.7410980E-03;  4.0000000E+04;  0.0000000E+00;  4.0015023E+04;  3.0579679E-02;  0.0000000E+00; -5.7242502E-02;  2.1659700E+03;
  3.4204316E-01;  9.9999998E-03; -6.0000263E-02;4544;  3.4695831E-01;  0.0000000E+00;  3.0113065E-03;  9.9643158E+02;  1.0000000E-01; -2.9563604E+03;3; -5.4251485E+00;  0.0000000E+00;  8.1045836E-01;0; -3.8235724E-02;  3.9702129E+04;  0.0000000E+00; -3.2534072E-04;  4.0000000E+04;  0.0000000E+00;  4.0014512E+04;  1.8694738E-02;  0.0000000E+00; -5.6930464E-02;  2.0964937E+03;
  3.4202051E-01;  9.9999998E-03; -5.0001062E-02;4545;  3.4733123E-01;  0.0000000E+00;  2.4928905E-03;  9.9645447E+02;  1.0000000E-01; -2.9373979E+03;3; -5.0646467E+00;  0.0000000E+00;  7.0871365E-01;0; -4.6221994E-02;  3.9704648E+04;  0.0000000E+00;  4.5950525E-04;  4.0000000E+04;  0.0000000E+00;  4.0013840E+04;  9.9717844E-03;  0.0000000E+00; -5.6193776E-02;  2.0114944E+03;
  3.4200069E-01;  9.9999998E-03; -4.0001512E-02;4546;  3.4761983E-01;  0.0000000E+00;  1.9872277E-03;  9.9646497E+02;  1.0000000E-01; -2.9287068E+03;3; -4.7636099E+00;  0.0000000E+00;  5.8669442E-01;0; -5.1442329E-02;  3.9706168E+04;  0.0000000E+00;  7.1107800E-04;  4.0000000E+04;  0.0000000E+00;  4.0013195E+04;  3.8135599E-03;  0.0000000E+00; -5.5255890E-02;  1.9239010E+03;
  3.4198439E-01;  9.9999998E-03; -3.0001638E-02;4547;  3.4783581E-01;  0.0000000E+00;  1.4880038E-03;  9.9646851E+02;  1.0000000E-01; -2.9257935E+03;3; -4.5171752E+00;  0.0000000E+00;  4.5932269E-01;0; -5.4651979E-02;  3.9707156E+04;  0.0000000E+00;  6.0375599E-04;  4.0000000E+04;  0.0000000E+00;  4.0012480E+04; -3.3512918E-04;  0.0000000E+00; -5.4316849E-02;  1.8445927E+03;
  3.4197232E-01;  9.9999998E-03; -2.0001441E-02;4548;  3.4798560E-01;  0.0000000E+00;  9.9162769E-04;  9.9646710E+02;  1.0000000E-01; -2.9269292E+03;3; -4.3187866E+00;  0.0000000E+00;  3.1058815E-01;0; -5.6480296E-02;  3.9707566E+04;  0.0000000E+00;  3.3835258E-04;  4.0000000E+04;  0.0000000E+00;  4.0011922E+04; -2.9441232E-03;  0.0000000E+00; -5.3536173E-02;  1.7820675E+03;
  3.4196490E-01;  9.9999998E-03; -1.0000872E-02;4549;  3.4807172E-01;  0.0000000E+00;  4.9588713E-04;  9.9646674E+02;  1.0000000E-01; -2.9272253E+03;3; -4.2274876E+00;  0.0000000E+00;  1.5819564E-01;0; -5.7390906E-02;  3.9707867E+04;  0.0000000E+00;  9.5629206E-05;  4.0000000E+04;  0.0000000E+00;  4.0011691E+04; -4.3656300E-03;  0.0000000E+00; -5.3025275E-02;  1.7422241E+03;
  3.4196240E-01;  9.9999998E-03; -2.1279699E-10;4550;  3.4810150E-01;  0.0000000E+00;  3.8594741E-09;  9.9646637E+02;  1.0000000E-01; -2.9275217E+03;3; -4.1713696E+00;  0.0000000E+00;  1.1431125E-05;0; -5.7663575E-02;  3.9707863E+04;  0.0000000E+00;  6.9145866E-13;  4.0000000E+04;  0.0000000E+00;  4.0011551E+04; -4.8154043E-03;  0.0000000E+00; -5.2848171E-02;  1.7285627E+03;
  3.4196490E-01;  9.9999998E-03;  1.0000871E-02;4551;  3.4807172E-01;  0.0000000E+00; -4.9588049E-04;  9.9646674E+02;  1.0000000E-01; -2.9272253E+03;3; -4.2273512E+00;  0.0000000E+00; -1.5819249E-01;0; -5.7390947E-02;  3.9707867E+04;  0.0000000E+00;  9.5609917E-05;  4.0000000E+04;  0.0000000E+00;  4.0011691E+04; -4.3656402E-03;  0.0000000E+00; -5.3025305E-02;  1.7422266E+03;
  3.4197232E-01;  9.9999998E-03;  2.0001439E-02;4552;  3.4798563E-01;  0.0000000E+00; -9.9162071E-04;  9.9646710E+02;  1.0000000E-01; -2.9269292E+03;3; -4.3185325E+00;  0.0000000E+00; -3.1057209E-01;0; -5.6480292E-02;  3.9707566E+04;  0.0000000E+00;  3.3824382E-04;  4.0000000E+04;  0.0000000E+00;  4.0011922E+04; -2.9441305E-03;  0.0000000E+00; -5.3536162E-02;  1.7820657E+03;
  3.4198439E-01;  9.9999998E-03;  3.0001638E-02;4553;  3.4783584E-01;  0.0000000E+00; -1.4879974E-03;  9.9646857E+02;  1.0000000E-01; -2.9257439E+03;3; -4.5168719E+00;  0.0000000E+00; -4.5932406E-01;0; -5.4651987E-02;  3.9707160E+04;  0.0000000E+00;  6.0377340E-04;  4.0000000E+04;  0.0000000E+00;  4.0012480E+04; -3.3515412E-04;  0.0000000E+00; -5.4316834E-02;  1.8445938E+03;
  3.4200069E-01;  9.9999998E-03;  4.0001512E-02;4554;  3.4761989E-01;  0.0000000E+00; -1.9872207E-03;  9.9646490E+02;  1.0000000E-01; -2.9287563E+03;3; -4.7638392E+00;  0.0000000E+00; -5.8670121E-01;0; -5.1442306E-02;  3.9706168E+04;  0.0000000E+00;  7.1116973E-04;  4.0000000E+04;  0.0000000E+00;  4.0013195E+04;  3.8135324E-03;  0.0000000E+00; -5.5255838E-02;  1.9238990E+03;
  3.4202051E-01;  9.9999998E-03;  5.0001062E-02;4555;  3.4733126E-01;  0.0000000E+00; -2.4928839E-03;  9.9645447E+02;  1.0000000E-01; -2.9373979E+03;3; -5.0641370E+00;  0.0000000E+00; -7.0868337E-01;0; -4.6221998E-02;  3.9704648E+04;  0.0000000E+00;  4.5954974E-04;  4.0000000E+04;  0.0000000E+00;  4.0013840E+04;  9.9717276E-03;  0.0000000E+00; -5.6193724E-02;  2.0114957E+03;
  3.4204316E-01;  9.9999998E-03;  6.0000263E-02;4556;  3.4695834E-01;  0.0000000E+00; -3.0112991E-03;  9.9643158E+02;  1.0000000E-01; -2.9563604E+03;3; -5.4251375E+00;  0.0000000E+00; -8.1039840E-01;0; -3.8235858E-02;  3.9702129E+04;  0.0000000E+00; -3.2531837E-04;  4.0000000E+04;  0.0000000E+00;  4.0014512E+04;  1.8694660E-02;  0.0000000E+00; -5.6930520E-02;  2.0964851E+03;
  3.5219121E-01;  9.9999998E-03; -9.9987797E-02;4601;  3.4390715E-01;  0.0000000E+00;  5.4914909E-03;  9.9606854E+02;  1.0000000E-01; -3.2571418E+03;3; -7.5978961E+00;  0.0000000E+00;  9.8543841E-01;0;  2.5250837E-03;  3.9671398E+04;  0.0000000E+00; -6.6753849E-03;  4.0000000E+04;  0.0000000E+00;  4.0016328E+04;  5.8866579E-02;  0.0000000E+00; -5.6341495E-02;  2.3609277E+03;
  3.5216030E-01;  9.9999998E-03; -8.9990593E-02;4602;  3.4483111E-01;  0.0000000E+00;  4.8785182E-03;  9.9617126E+02;  1.0000000E-01; -3.1720579E+03;3; -7.0654540E+00;  0.0000000E+00;  9.7276270E-01;0; -1.8088434E-02;  3.9679750E+04;  0.0000000E+00; -5.3951908E-03;  4.0000000E+04;  0.0000000E+00;  4.0016309E+04;  3.9739814E-02;  0.0000000E+00; -5.7828248E-02;  2.3419614E+03;
  3.5213250E-01;  9.9999998E-03; -7.9992853E-02;4603;  3.4558326E-01;  0.0000000E+00;  4.2961729E-03;  9.9624561E+02;  1.0000000E-01; -3.1104302E+03;3; -6.6059070E+00;  0.0000000E+00;  9.2902935E-01;0; -3.3583663E-02;  3.9686129E+04;  0.0000000E+00; -3.7168553E-03;  4.0000000E+04;  0.0000000E+00;  4.0015840E+04;  2.4928918E-02;  0.0000000E+00; -5.8512580E-02;  2.2767827E+03;
  3.5210720E-01;  9.9999998E-03; -6.9994710E-02;4604;  3.4618700E-01;  0.0000000E+00;  3.7315220E-03;  9.9629456E+02;  1.0000000E-01; -3.0698879E+03;3; -6.1206465E+00;  0.0000000E+00;  8.6816573E-01;0; -4.4634789E-02;  3.9690805E+04;  0.0000000E+00; -2.1315997E-03;  4.0000000E+04;  0.0000000E+00;  4.0015105E+04;  1.3903874E-02;  0.0000000E+00; -5.8538664E-02;  2.1788083E+03;
  3.5208410E-01;  9.9999998E-03; -5.9996299E-02;4605;  3.4667656E-01;  0.0000000E+00;  3.1885181E-03;  9.9632233E+02;  1.0000000E-01; -3.0468762E+03;3; -5.7124314E+00;  0.0000000E+00;  7.9428560E-01;0; -5.2035950E-02;  3.9694047E+04;  0.0000000E+00; -9.0434140E-04;  4.0000000E+04;  0.0000000E+00;  4.0014090E+04;  6.0503120E-03;  0.0000000E+00; -5.8086261E-02;  2.0629607E+03;
  3.5206321E-01;  9.9999998E-03; -4.9997695E-02;4606;  3.4707013E-01;  0.0000000E+00;  2.6561858E-03;  9.9633600E+02;  1.0000000E-01; -3.0355681E+03;3; -5.3166618E+00;  0.0000000E+00;  7.0622957E-01;0; -5.6624278E-02;  3.9696098E+04;  0.0000000E+00; -1.2652067E-04;  4.0000000E+04;  0.0000000E+00;  4.0013242E+04;  7.2392583E-04;  0.0000000E+00; -5.7348203E-02;  1.9432908E+03;
  3.5204500E-01;  9.9999998E-03; -3.9998915E-02;4607;  3.4737656E-01;  0.0000000E+00;  2.1275086E-03;  9.9633966E+02;  1.0000000E-01; -3.0325063E+03;3; -4.9769659E+00;  0.0000000E+00;  5.8472943E-01;0; -5.9202101E-02;  3.9697309E+04;  0.0000000E+00;  2.3472265E-04;  4.0000000E+04;  0.0000000E+00;  4.0012281E+04; -2.6957579E-03;  0.0000000E+00; -5.6506343E-02;  1.8317836E+03;
  3.5203004E-01;  9.9999998E-03; -2.9999895E-02;4608;  3.4760618E-01;  0.0000000E+00;  1.5994839E-03;  9.9633832E+02;  1.0000000E-01; -3.0336421E+03;3; -4.7355752E+00;  0.0000000E+00;  4.6598956E-01;0; -6.0472172E-02;  3.9697953E+04;  0.0000000E+00;  2.8962758E-04;  4.0000000E+04;  0.0000000E+00;  4.0011586E+04; -4.7594355E-03;  0.0000000E+00; -5.5712737E-02;  1.7374679E+03;
  3.5201886E-01;  9.9999998E-03; -2.0000482E-02;4609;  3.4776729E-01;  0.0000000E+00;  1.0684362E-03;  9.9633307E+02;  1.0000000E-01; -3.0379878E+03;3; -4.5075631E+00;  0.0000000E+00;  3.1251425E-01;0; -6.0991760E-02;  3.9698172E+04;  0.0000000E+00;  1.8363410E-04;  4.0000000E+04;  0.0000000E+00;  4.0011086E+04; -5.9131901E-03;  0.0000000E+00; -5.5078570E-02;  1.6665497E+03;
  3.5201198E-01;  9.9999998E-03; -1.0000492E-02;4610;  3.4786054E-01;  0.0000000E+00;  5.3535413E-04;  9.9633057E+02;  1.0000000E-01; -3.0400618E+03;3; -4.3957148E+00;  0.0000000E+00;  1.6007009E-01;0; -6.1152130E-02;  3.9698297E+04;  0.0000000E+00;  5.4648721E-05;  4.0000000E+04;  0.0000000E+00;  4.0010656E+04; -6.4781806E-03;  0.0000000E+00; -5.4673951E-02;  1.6227118E+03;
  3.5200965E-01;  9.9999998E-03; -2.3362226E-10;4611;  3.4789181E-01;  0.0000000E+00;  3.5209964E-09;  9.9632947E+02;  1.0000000E-01; -3.0409507E+03;3; -4.3551106E+00;  0.0000000E+00;  8.2242523E-06;0; -6.1180953E-02;  3.9698336E+04;  0.0000000E+00;  3.1260102E-13;  4.0000000E+04;  0.0000000E+00;  4.0010551E+04; -6.6454797E-03;  0.0000000E+00; -5.4535475E-02;  1.6078876E+03;
  3.5201198E-01;  9.9999998E-03;  1.0000492E-02;4612;  3.4786054E-01;  0.0000000E+00; -5.3534721E-04;  9.9633057E+02;  1.0000000E-01; -3.0400618E+03;3; -4.3956170E+00;  0.0000000E+00; -1.6005786E-01;0; -6.1152115E-02;  3.9698297E+04;  0.0000000E+00;  5.4634114E-05;  4.0000000E+04;  0.0000000E+00;  4.0010656E+04; -6.4781886E-03;  0.0000000E+00; -5.4673929E-02;  1.6227133E+03;
  3.5201886E-01;  9.9999998E-03;  2.0000482E-02;4613;  3.4776729E-01;  0.0000000E+00; -1.0684292E-03;  9.9633307E+02;  1.0000000E-01; -3.0379878E+03;3; -4.5079761E+00;  0.0000000E+00; -3.1249741E-01;0; -6.0991731E-02;  3.9698168E+04;  0.0000000E+00;  1.8360669E-04;  4.0000000E+04;  0.0000000E+00;  4.0011086E+04; -5.9131929E-03;  0.0000000E+00; -5.5078536E-02;  1.6665519E+03;
  3.5203004E-01;  9.9999998E-03;  2.9999895E-02;4614;  3.4760624E-01;  0.0000000E+00; -1.5994764E-03;  9.9633832E+02;  1.0000000E-01; -3.0336421E+03;3; -4.7353115E+00;  0.0000000E+00; -4.6597964E-01;0; -6.0472161E-02;  3.9697953E+04;  0.0000000E+00;  2.8960375E-04;  4.0000000E+04;  0.0000000E+00;  4.0011586E+04; -4.7594439E-03;  0.0000000E+00; -5.5712719E-02;  1.7374662E+03;
  3.5204500E-01;  9.9999998E-03;  3.9998915E-02;4615;  3.4737656E-01;  0.0000000E+00; -2.1275035E-03;  9.9633972E+02;  1.0000000E-01; -3.0324570E+03;3; -4.9772000E+00;  0.0000000E+00; -5.8470953E-01;0; -5.9202153E-02;  3.9697305E+04;  0.0000000E+00;  2.3462743E-04;  4.0000000E+04;  0.0000000E+00;  4.0012281E+04; -2.6957686E-03;  0.0000000E+00; -5.6506384E-02;  1.8317786E+03;
  3.5206321E-01;  9.9999998E-03;  4.9997695E-02;4616;  3.4707013E-01;  0.0000000E+00; -2.6561832E-03;  9.9633594E+02;  1.0000000E-01; -3.0356174E+03;3; -5.3161922E+00;  0.0000000E+00; -7.0620131E-01;0; -5.6624327E-02;  3.9696094E+04;  0.0000000E+00; -1.2582545E-04;  4.0000000E+04;  0.0000000E+00;  4.0013242E+04;  7.2388933E-04;  0.0000000E+00; -5.7348218E-02;  1.9432869E+03;
  3.5208410E-01;  9.9999998E-03;  5.9996296E-02;4617;  3.4667659E-01;  0.0000000E+00; -3.1885142E-03;  9.9632233E+02;  1.0000000E-01; -3.0468762E+03;3; -5.7124572E+00;  0.0000000E+00; -7.9427302E-01;0; -5.2036073E-02;  3.9694047E+04;  0.0000000E+00; -9.0422749E-04;  4.0000000E+04;  0.0000000E+00;  4.0014090E+04;  6.0502472E-03;  0.0000000E+00; -5.8086321E-02;  2.0629619E+03;
  3.6223674E-01;  9.9999998E-03; -9.9982694E-02;4662;  3.4354323E-01;  0.0000000E+00;  5.6301281E-03;  9.9606110E+02;  1.0000000E-01; -3.2633147E+03;3; -7.9599872E+00;  0.0000000E+00;  8.5639632E-01;0; -2.2488277E-02;  3.9669801E+04;  0.0000000E+00; -4.9216994E-03;  4.0000000E+04;  0.0000000E+00;  4.0017555E+04;  3.5213765E-02;  0.0000000E+00; -5.7702042E-02;  2.5069875E+03;
  3.6220613E-01;  9.9999998E-03; -8.9985535E-02;4663;  3.4448865E-01;  0.0000000E+00;  5.0436361E-03;  9.9615057E+02;  1.0000000E-01; -3.1891934E+03;3; -7.4553781E+00;  0.0000000E+00;  8.7119758E-01;0; -3.7560944E-02;  3.9677543E+04;  0.0000000E+00; -4.8256707E-03;  4.0000000E+04;  0.0000000E+00;  4.0016949E+04;  2.1186028E-02;  0.0000000E+00; -5.8746971E-02;  2.4243831E+03;
  3.6217907E-01;  9.9999998E-03; -7.9987831E-02;4664;  3.4525892E-01;  0.0000000E+00;  4.4701509E-03;  9.9621399E+02;  1.0000000E-01; -3.1366516E+03;3; -6.9524055E+00;  0.0000000E+00;  8.4936541E-01;0; -4.8194919E-02;  3.9683629E+04;  0.0000000E+00; -3.9206990E-03;  4.0000000E+04;  0.0000000E+00;  4.0016062E+04;  1.0975775E-02;  0.0000000E+00; -5.9170693E-02;  2.3039858E+03;
  3.6215487E-01;  9.9999998E-03; -6.9989778E-02;4665;  3.4589005E-01;  0.0000000E+00;  3.9079790E-03;  9.9625500E+02;  1.0000000E-01; -3.1026772E+03;3; -6.4676876E+00;  0.0000000E+00;  8.1628668E-01;0; -5.5138577E-02;  3.9688062E+04;  0.0000000E+00; -2.7575768E-03;  4.0000000E+04;  0.0000000E+00;  4.0014973E+04;  3.9676605E-03;  0.0000000E+00; -5.9106238E-02;  2.1613337E+03;
  3.6213306E-01;  9.9999998E-03; -5.9991512E-02;4666;  3.4640479E-01;  0.0000000E+00;  3.3557659E-03;  9.9627942E+02;  1.0000000E-01; -3.0824309E+03;3; -5.9932323E+00;  0.0000000E+00;  7.5828409E-01;0; -5.9205946E-02;  3.9691113E+04;  0.0000000E+00; -1.6794155E-03;  4.0000000E+04;  0.0000000E+00;  4.0013609E+04; -4.9772410E-04;  0.0000000E+00; -5.8708221E-02;  2.0118889E+03;
  3.6211357E-01;  9.9999998E-03; -4.9993172E-02;4667;  3.4682325E-01;  0.0000000E+00;  2.8085446E-03;  9.9628833E+02;  1.0000000E-01; -3.0750237E+03;3; -5.5871634E+00;  0.0000000E+00;  6.8356574E-01;0; -6.1203923E-02;  3.9693105E+04;  0.0000000E+00; -8.5867272E-04;  4.0000000E+04;  0.0000000E+00;  4.0012602E+04; -3.0714558E-03;  0.0000000E+00; -5.8132466E-02;  1.8692572E+03;
  3.6209670E-01;  9.9999998E-03; -3.9994821E-02;4668;  3.4715268E-01;  0.0000000E+00;  2.2581730E-03;  9.9628973E+02;  1.0000000E-01; -3.0738879E+03;3; -5.2043824E+00;  0.0000000E+00;  5.7452387E-01;0; -6.1864115E-02;  3.9694273E+04;  0.0000000E+00; -3.4036839E-04;  4.0000000E+04;  0.0000000E+00;  4.0011594E+04; -4.3488671E-03;  0.0000000E+00; -5.7515249E-02;  1.7437429E+03;
  3.6208293E-01;  9.9999998E-03; -2.9996468E-02;4669;  3.4739956E-01;  0.0000000E+00;  1.7025110E-03;  9.9628735E+02;  1.0000000E-01; -3.0758633E+03;3; -4.9526529E+00;  0.0000000E+00;  4.5901361E-01;0; -6.1792061E-02;  3.9694773E+04;  0.0000000E+00; -8.2419254E-05;  4.0000000E+04;  0.0000000E+00;  4.0010766E+04; -4.8323697E-03;  0.0000000E+00; -5.6959692E-02;  1.6422537E+03;
  3.6207274E-01;  9.9999998E-03; -1.9998021E-02;4670;  3.4757450E-01;  0.0000000E+00;  1.1394249E-03;  9.9628168E+02;  1.0000000E-01; -3.0805544E+03;3; -4.6875076E+00;  0.0000000E+00;  3.1148818E-01;0; -6.1441660E-02;  3.9695070E+04;  0.0000000E+00;  2.2868653E-06;  4.0000000E+04;  0.0000000E+00;  4.0010199E+04; -4.9102795E-03;  0.0000000E+00; -5.6531381E-02;  1.5684067E+03;
  3.6206651E-01;  9.9999998E-03; -9.9992184E-03;4671;  3.4767517E-01;  0.0000000E+00;  5.7144579E-04;  9.9627954E+02;  1.0000000E-01; -3.0823320E+03;3; -4.5729594E+00;  0.0000000E+00;  1.5905856E-01;0; -6.1117329E-02;  3.9695180E+04;  0.0000000E+00;  6.8240233E-06;  4.0000000E+04;  0.0000000E+00;  4.0009777E+04; -4.8524337E-03;  0.0000000E+00; -5.6264896E-02;  1.5238315E+03;
  3.6206442E-01;  9.9999998E-03; -2.5311189E-10;4672;  3.4770870E-01;  0.0000000E+00;  2.8970217E-09;  9.9627789E+02;  1.0000000E-01; -3.0837148E+03;3; -4.5271692E+00;  0.0000000E+00;  4.1690428E-06;0; -6.0990822E-02;  3.9695133E+04;  0.0000000E+00; -5.3529945E-14;  4.0000000E+04;  0.0000000E+00;  4.0009641E+04; -4.8160166E-03;  0.0000000E+00; -5.6174804E-02;  1.5089521E+03;
  3.6206651E-01;  9.9999998E-03;  9.9992175E-03;4673;  3.4767517E-01;  0.0000000E+00; -5.7143916E-04;  9.9627954E+02;  1.0000000E-01; -3.0823320E+03;3; -4.5734258E+00;  0.0000000E+00; -1.5903765E-01;0; -6.1117362E-02;  3.9695180E+04;  0.0000000E+00;  6.7918254E-06;  4.0000000E+04;  0.0000000E+00;  4.0009777E+04; -4.8524300E-03;  0.0000000E+00; -5.6264933E-02;  1.5238312E+03;
  3.6207274E-01;  9.9999998E-03;  1.9998021E-02;4674;  3.4757450E-01;  0.0000000E+00; -1.1394176E-03;  9.9628168E+02;  1.0000000E-01; -3.0805544E+03;3; -4.6873088E+00;  0.0000000E+00; -3.1146199E-01;0; -6.1441641E-02;  3.9695066E+04;  0.0000000E+00;  2.2983550E-06;  4.0000000E+04;  0.0000000E+00;  4.0010199E+04; -4.9102716E-03;  0.0000000E+00; -5.6531370E-02;  1.5684097E+03;
  3.6208293E-01;  9.9999998E-03;  2.9996468E-02;4675;  3.4739953E-01;  0.0000000E+00; -1.7025052E-03;  9.9628729E+02;  1.0000000E-01; -3.0759126E+03;3; -4.9529662E+00;  0.0000000E+00; -4.5899373E-01;0; -6.1792038E-02;  3.9694773E+04;  0.0000000E+00; -8.2583232E-05;  4.0000000E+04;  0.0000000E+00;  4.0010766E+04; -4.8323656E-03;  0.0000000E+00; -5.6959674E-02;  1.6422567E+03;
  3.6209670E-01;  9.9999998E-03;  3.9994817E-02;4676;  3.4715265E-01;  0.0000000E+00; -2.2581695E-03;  9.9628973E+02;  1.0000000E-01; -3.0738879E+03;3; -5.2046132E+00;  0.0000000E+00; -5.7450211E-01;0; -6.1864130E-02;  3.9694273E+04;  0.0000000E+00; -3.3998085E-04;  4.0000000E+04;  0.0000000E+00;  4.0011594E+04; -4.3488648E-03;  0.0000000E+00; -5.7515267E-02;  1.7437416E+03;
  3.6211357E-01;  9.9999998E-03;  4.9993172E-02;4677;  3.4682330E-01;  0.0000000E+00; -2.8085390E-03;  9.9628833E+02;  1.0000000E-01; -3.0750237E+03;3; -5.5867143E+00;  0.0000000E+00; -6.8351364E-01;0; -6.1203957E-02;  3.9693109E+04;  0.0000000E+00; -8.5894513E-04;  4.0000000E+04;  0.0000000E+00;  4.0012602E+04; -3.0714630E-03;  0.0000000E+00; -5.8132492E-02;  1.8692600E+03;
  3.6213306E-01;  9.9999998E-03;  5.9991512E-02;4678;  3.4640482E-01;  0.0000000E+00; -3.3557622E-03;  9.9627942E+02;  1.0000000E-01; -3.0824309E+03;3; -5.9932237E+00;  0.0000000E+00; -7.5826812E-01;0; -5.9205968E-02;  3.9691113E+04;  0.0000000E+00; -1.6794755E-03;  4.0000000E+04;  0.0000000E+00;  4.0013609E+04; -4.9773580E-04;  0.0000000E+00; -5.8708232E-02;  2.0118822E+03;
  3.7229156E-01;  9.9999998E-03; -9.9979140E-02;4723;  3.4318885E-01;  0.0000000E+00;  5.7813139E-03;  9.9610907E+02;  1.0000000E-01; -3.2235627E+03;3; -8.5204582E+00;  0.0000000E+00;  6.2725949E-01;0; -3.9744608E-02;  3.9673074E+04;  0.0000000E+00; -3.0562570E-03;  4.0000000E+04;  0.0000000E+00;  4.0018168E+04;  1.8143326E-02;  0.0000000E+00; -5.7887934E-02;  2.5884424E+03;
  3.7226090E-01;  9.9999998E-03; -8.9981996E-02;4724;  3.4415108E-01;  0.0000000E+00;  5.2071111E-03;  9.9619159E+02;  1.0000000E-01; -3.1552190E+03;3; -7.9647985E+00;  0.0000000E+00;  6.9184911E-01;0; -5.0082143E-02;  3.9680656E+04;  0.0000000E+00; -4.1556591E-03;  4.0000000E+04;  0.0000000E+00;  4.0017199E+04;  8.6368918E-03;  0.0000000E+00; -5.8719035E-02;  2.4541885E+03;
  3.7223387E-01;  9.9999998E-03; -7.9984225E-02;4725;  3.4494933E-01;  0.0000000E+00;  4.6383478E-03;  9.9625208E+02;  1.0000000E-01; -3.1050969E+03;3; -7.3470154E+00;  0.0000000E+00;  7.1678507E-01;0; -5.6732085E-02;  3.9686863E+04;  0.0000000E+00; -4.0288358E-03;  4.0000000E+04;  0.0000000E+00;  4.0015906E+04;  2.3623093E-03;  0.0000000E+00; -5.9094395E-02;  2.2914163E+03;
  3.7221012E-01;  9.9999998E-03; -6.9986135E-02;4726;  3.4560591E-01;  0.0000000E+00;  4.0711598E-03;  9.9629205E+02;  1.0000000E-01; -3.0719622E+03;3; -6.8509359E+00;  0.0000000E+00;  7.2118998E-01;0; -6.0463727E-02;  3.9691379E+04;  0.0000000E+00; -3.2895606E-03;  4.0000000E+04;  0.0000000E+00;  4.0014570E+04; -1.3352714E-03;  0.0000000E+00; -5.9128456E-02;  2.1167498E+03;
  3.7218910E-01;  9.9999998E-03; -5.9987932E-02;4727;  3.4615397E-01;  0.0000000E+00;  3.5092270E-03;  9.9631567E+02;  1.0000000E-01; -3.0524070E+03;3; -6.2958679E+00;  0.0000000E+00;  6.9699574E-01;0; -6.2058195E-02;  3.9694586E+04;  0.0000000E+00; -2.3693684E-03;  4.0000000E+04;  0.0000000E+00;  4.0013219E+04; -3.1138186E-03;  0.0000000E+00; -5.8944378E-02;  1.9456241E+03;
  3.7217057E-01;  9.9999998E-03; -4.9989723E-02;4728;  3.4659973E-01;  0.0000000E+00;  2.9455295E-03;  9.9632733E+02;  1.0000000E-01; -3.0427283E+03;3; -5.9127045E+00;  0.0000000E+00;  6.3017422E-01;0; -6.2244102E-02;  3.9696832E+04;  0.0000000E+00; -1.5212839E-03;  4.0000000E+04;  0.0000000E+00;  4.0011973E+04; -3.5875877E-03;  0.0000000E+00; -5.8656514E-02;  1.7904060E+03;
  3.7215465E-01;  9.9999998E-03; -3.9991606E-02;4729;  3.4695792E-01;  0.0000000E+00;  2.3745717E-03;  9.9633112E+02;  1.0000000E-01; -3.0396172E+03;3; -5.4580350E+00;  0.0000000E+00;  5.4786438E-01;0; -6.1643019E-02;  3.9698234E+04;  0.0000000E+00; -8.6536951E-04;  4.0000000E+04;  0.0000000E+00;  4.0010930E+04; -3.2885484E-03;  0.0000000E+00; -5.8354471E-02;  1.6594110E+03;
  3.7214169E-01;  9.9999998E-03; -2.9993592E-02;4730;  3.4722584E-01;  0.0000000E+00;  1.7935712E-03;  9.9633118E+02;  1.0000000E-01; -3.0395679E+03;3; -5.1695099E+00;  0.0000000E+00;  4.2779678E-01;0; -6.0738858E-02;  3.9698977E+04;  0.0000000E+00; -4.2402232E-04;  4.0000000E+04;  0.0000000E+00;  4.0010090E+04; -2.6439007E-03;  0.0000000E+00; -5.8094956E-02;  1.5570857E+03;
  3.7213206E-01;  9.9999998E-03; -1.9995684E-02;4731;  3.4741533E-01;  0.0000000E+00;  1.2022539E-03;  9.9632855E+02;  1.0000000E-01; -3.0417407E+03;3; -4.9060283E+00;  0.0000000E+00;  3.0471823E-01;0; -5.9876177E-02;  3.9699430E+04;  0.0000000E+00; -1.6487225E-04;  4.0000000E+04;  0.0000000E+00;  4.0009570E+04; -1.9712772E-03;  0.0000000E+00; -5.7904899E-02;  1.4847528E+03;
  3.7212613E-01;  9.9999998E-03; -9.9978326E-03;4732;  3.4752566E-01;  0.0000000E+00;  6.0340448E-04;  9.9632666E+02;  1.0000000E-01; -3.0432715E+03;3; -4.7778950E+00;  0.0000000E+00;  1.5489137E-01;0; -5.9277471E-02;  3.9699625E+04;  0.0000000E+00; -3.7308298E-05;  4.0000000E+04;  0.0000000E+00;  4.0009109E+04; -1.4857539E-03;  0.0000000E+00; -5.7791717E-02;  1.4419327E+03;
  3.7212411E-01;  9.9999998E-03; -2.5088215E-10;4733;  3.4756252E-01;  0.0000000E+00;  2.6342479E-09;  9.9632513E+02;  1.0000000E-01; -3.0445554E+03;3; -4.7049527E+00;  0.0000000E+00;  7.6271590E-06;0; -5.9065010E-02;  3.9699668E+04;  0.0000000E+00; -8.4728923E-14;  4.0000000E+04;  0.0000000E+00;  4.0009012E+04; -1.3105618E-03;  0.0000000E+00; -5.7754450E-02;  1.4277856E+03;
  3.7212613E-01;  9.9999998E-03;  9.9978326E-03;4734;  3.4752569E-01;  0.0000000E+00; -6.0339924E-04;  9.9632666E+02;  1.0000000E-01; -3.0432715E+03;3; -4.7783146E+00;  0.0000000E+00; -1.5487255E-01;0; -5.9277441E-02;  3.9699625E+04;  0.0000000E+00; -3.7341550E-05;  4.0000000E+04;  0.0000000E+00;  4.0009109E+04; -1.4857475E-03;  0.0000000E+00; -5.7791695E-02;  1.4419308E+03;
  3.7213206E-01;  9.9999998E-03;  1.9995684E-02;4735;  3.4741530E-01;  0.0000000E+00; -1.2022498E-03;  9.9632861E+02;  1.0000000E-01; -3.0416914E+03;3; -4.9058619E+00;  0.0000000E+00; -3.0471358E-01;0; -5.9876099E-02;  3.9699430E+04;  0.0000000E+00; -1.6495649E-04;  4.0000000E+04;  0.0000000E+00;  4.0009570E+04; -1.9712665E-03;  0.0000000E+00; -5.7904832E-02;  1.4847466E+03;
  3.7214169E-01;  9.9999998E-03;  2.9993590E-02;4736;  3.4722582E-01;  0.0000000E+00; -1.7935681E-03;  9.9633118E+02;  1.0000000E-01; -3.0395679E+03;3; -5.1697550E+00;  0.0000000E+00; -4.2777538E-01;0; -6.0738858E-02;  3.9698977E+04;  0.0000000E+00; -4.2399328E-04;  4.0000000E+04;  0.0000000E+00;  4.0010090E+04; -2.6438937E-03;  0.0000000E+00; -5.8094963E-02;  1.5570811E+03;
  3.7215465E-01;  9.9999998E-03;  3.9991606E-02;4737;  3.4695795E-01;  0.0000000E+00; -2.3745673E-03;  9.9633112E+02;  1.0000000E-01; -3.0396172E+03;3; -5.4576960E+00;  0.0000000E+00; -5.4780698E-01;0; -6.1643042E-02;  3.9698234E+04;  0.0000000E+00; -8.6514885E-04;  4.0000000E+04;  0.0000000E+00;  4.0010930E+04; -3.2885401E-03;  0.0000000E+00; -5.8354501E-02;  1.6594065E+03;
  3.7217057E-01;  9.9999998E-03;  4.9989723E-02;4738;  3.4659976E-01;  0.0000000E+00; -2.9455265E-03;  9.9632739E+02;  1.0000000E-01; -3.0426790E+03;3; -5.9127698E+00;  0.0000000E+00; -6.3017601E-01;0; -6.2244128E-02;  3.9696828E+04;  0.0000000E+00; -1.5214534E-03;  4.0000000E+04;  0.0000000E+00;  4.0011973E+04; -3.5875754E-03;  0.0000000E+00; -5.8656555E-02;  1.7904020E+03;
  3.7218910E-01;  9.9999998E-03;  5.9987932E-02;4739;  3.4615400E-01;  0.0000000E+00; -3.5092237E-03;  9.9631567E+02;  1.0000000E-01; -3.0524070E+03;3; -6.2963719E+00;  0.0000000E+00; -6.9705373E-01;0; -6.2058192E-02;  3.9694586E+04;  0.0000000E+00; -2.3690437E-03;  4.0000000E+04;  0.0000000E+00;  4.0013219E+04; -3.1138214E-03;  0.0000000E+00; -5.8944371E-02;  1.9456173E+03;
  3.8235140E-01;  9.9999998E-03; -9.9978656E-02;4784;  3.4287030E-01;  0.0000000E+00;  5.9443489E-03;  9.9622290E+02;  1.0000000E-01; -3.1292441E+03;3; -9.1810865E+00;  0.0000000E+00;  3.0865097E-01;0; -5.1121648E-02;  3.9681828E+04;  0.0000000E+00; -8.9426595E-04;  4.0000000E+04;  0.0000000E+00;  4.0018520E+04;  6.0327044E-03;  0.0000000E+00; -5.7154354E-02;  2.6155066E+03;
  3.8232005E-01;  9.9999998E-03; -8.9981534E-02;4785;  3.4385428E-01;  0.0000000E+00;  5.3748782E-03;  9.9630524E+02;  1.0000000E-01; -3.0610486E+03;3; -8.5261297E+00;  0.0000000E+00;  4.1837829E-01;0; -5.7618435E-02;  3.9689695E+04;  0.0000000E+00; -3.0832971E-03;  4.0000000E+04;  0.0000000E+00;  4.0017129E+04;  3.4754808E-04;  0.0000000E+00; -5.7965983E-02;  2.4415671E+03;
  3.8229260E-01;  9.9999998E-03; -7.9983704E-02;4786;  3.4467810E-01;  0.0000000E+00;  4.8026079E-03;  9.9636774E+02;  1.0000000E-01; -3.0092476E+03;3; -7.8587990E+00;  0.0000000E+00;  4.9531734E-01;0; -6.1181679E-02;  3.9696109E+04;  0.0000000E+00; -3.7055451E-03;  4.0000000E+04;  0.0000000E+00;  4.0015641E+04; -2.7167553E-03;  0.0000000E+00; -5.8464926E-02;  2.2485554E+03;
  3.8226855E-01;  9.9999998E-03; -6.9985561E-02;4787;  3.4536284E-01;  0.0000000E+00;  4.2262371E-03;  9.9641101E+02;  1.0000000E-01; -2.9733967E+03;3; -7.3297629E+00;  0.0000000E+00;  5.6337899E-01;0; -6.2548548E-02;  3.9701191E+04;  0.0000000E+00; -3.4217252E-03;  4.0000000E+04;  0.0000000E+00;  4.0014129E+04; -3.8083657E-03;  0.0000000E+00; -5.8740184E-02;  2.0534971E+03;
  3.8224760E-01;  9.9999998E-03; -5.9987299E-02;4788;  3.4593865E-01;  0.0000000E+00;  3.6461728E-03;  9.9644098E+02;  1.0000000E-01; -2.9485579E+03;3; -6.7045588E+00;  0.0000000E+00;  5.5406421E-01;0; -6.2422823E-02;  3.9705066E+04;  0.0000000E+00; -2.7220314E-03;  4.0000000E+04;  0.0000000E+00;  4.0012711E+04; -3.5436067E-03;  0.0000000E+00; -5.8879215E-02;  1.8709821E+03;
  3.8222948E-01;  9.9999998E-03; -4.9989074E-02;4789;  3.4641537E-01;  0.0000000E+00;  3.0663246E-03;  9.9645996E+02;  1.0000000E-01; -2.9328547E+03;3; -6.2648125E+00;  0.0000000E+00;  5.4950428E-01;0; -6.1422594E-02;  3.9707762E+04;  0.0000000E+00; -1.9263248E-03;  4.0000000E+04;  0.0000000E+00;  4.0011488E+04; -2.4687652E-03;  0.0000000E+00; -5.8953829E-02;  1.7116942E+03;
  3.8221413E-01;  9.9999998E-03; -3.9990969E-02;4790;  3.4680492E-01;  0.0000000E+00;  2.4759595E-03;  9.9646899E+02;  1.0000000E-01; -2.9253486E+03;3; -5.7848921E+00;  0.0000000E+00;  4.7123373E-01;0; -6.0045265E-02;  3.9709684E+04;  0.0000000E+00; -1.2141460E-03;  4.0000000E+04;  0.0000000E+00;  4.0010363E+04; -1.0356160E-03;  0.0000000E+00; -5.9009649E-02;  1.5817937E+03;
  3.8220173E-01;  9.9999998E-03; -2.9993031E-02;4791;  3.4709674E-01;  0.0000000E+00;  1.8729180E-03;  9.9647504E+02;  1.0000000E-01; -2.9203611E+03;3; -5.4552441E+00;  0.0000000E+00;  3.7969473E-01;0; -5.8659390E-02;  3.9710863E+04;  0.0000000E+00; -6.6163711E-04;  4.0000000E+04;  0.0000000E+00;  4.0009629E+04;  4.0581662E-04;  0.0000000E+00; -5.9065208E-02;  1.4833210E+03;
  3.8219258E-01;  9.9999998E-03; -1.9995248E-02;4792;  3.4730303E-01;  0.0000000E+00;  1.2556560E-03;  9.9647852E+02;  1.0000000E-01; -2.9174971E+03;3; -5.1740913E+00;  0.0000000E+00;  2.6014239E-01;0; -5.7516459E-02;  3.9711680E+04;  0.0000000E+00; -2.8427158E-04;  4.0000000E+04;  0.0000000E+00;  4.0009082E+04;  1.6018403E-03;  0.0000000E+00; -5.9118301E-02;  1.4154434E+03;
  3.8218695E-01;  9.9999998E-03; -9.9975867E-03;4793;  3.4742504E-01;  0.0000000E+00;  6.3075556E-04;  9.9647736E+02;  1.0000000E-01; -2.9184353E+03;3; -5.0212417E+00;  0.0000000E+00;  1.4676256E-01;0; -5.6774288E-02;  3.9712000E+04;  0.0000000E+00; -6.9302921E-05;  4.0000000E+04;  0.0000000E+00;  4.0008805E+04;  2.3833797E-03;  0.0000000E+00; -5.9157670E-02;  1.3760211E+03;
  3.8218504E-01;  9.9999998E-03; -2.2635685E-10;4794;  3.4746617E-01;  0.0000000E+00;  2.0639657E-09;  9.9647858E+02;  1.0000000E-01; -2.9174478E+03;3; -4.9369559E+00;  0.0000000E+00;  9.1727215E-06;0; -5.6517981E-02;  3.9712156E+04;  0.0000000E+00;  7.1105323E-13;  4.0000000E+04;  0.0000000E+00;  4.0008645E+04;  2.6542800E-03;  0.0000000E+00; -5.9172262E-02;  1.3631367E+03;
  3.8218695E-01;  9.9999998E-03;  9.9975858E-03;4795;  3.4742504E-01;  0.0000000E+00; -6.3075160E-04;  9.9647736E+02;  1.0000000E-01; -2.9184353E+03;3; -5.0211496E+00;  0.0000000E+00; -1.4675057E-01;0; -5.6774251E-02;  3.9712004E+04;  0.0000000E+00; -6.9335554E-05;  4.0000000E+04;  0.0000000E+00;  4.0008805E+04;  2.3833960E-03;  0.0000000E+00; -5.9157647E-02;  1.3760176E+03;
  3.8219258E-01;  9.9999998E-03;  1.9995248E-02;4796;  3.4730303E-01;  0.0000000E+00; -1.2556515E-03;  9.9647852E+02;  1.0000000E-01; -2.9174971E+03;3; -5.1739507E+00;  0.0000000E+00; -2.6012179E-01;0; -5.7516452E-02;  3.9711680E+04;  0.0000000E+00; -2.8436104E-04;  4.0000000E+04;  0.0000000E+00;  4.0009082E+04;  1.6018604E-03;  0.0000000E+00; -5.9118312E-02;  1.4154429E+03;
  3.8220173E-01;  9.9999998E-03;  2.9993029E-02;4797;  3.4709677E-01;  0.0000000E+00; -1.8729141E-03;  9.9647504E+02;  1.0000000E-01; -2.9203611E+03;3; -5.4554615E+00;  0.0000000E+00; -3.7968278E-01;0; -5.8659375E-02;  3.9710863E+04;  0.0000000E+00; -6.6165067E-04;  4.0000000E+04;  0.0000000E+00;  4.0009629E+04;  4.0584456E-04;  0.0000000E+00; -5.9065219E-02;  1.4833130E+03;
  3.8221413E-01;  9.9999998E-03;  3.9990969E-02;4798;  3.4680492E-01;  0.0000000E+00; -2.4759562E-03;  9.9646893E+02;  1.0000000E-01; -2.9253982E+03;3; -5.7845688E+00;  0.0000000E+00; -4.7121188E-01;0; -6.0045276E-02;  3.9709684E+04;  0.0000000E+00; -1.2142439E-03;  4.0000000E+04;  0.0000000E+00;  4.0010363E+04; -1.0355855E-03;  0.0000000E+00; -5.9009690E-02;  1.5817850E+03;
  3.8222948E-01;  9.9999998E-03;  4.9989074E-02;4799;  3.4641540E-01;  0.0000000E+00; -3.0663218E-03;  9.9645990E+02;  1.0000000E-01; -2.9329041E+03;3; -6.2648864E+00;  0.0000000E+00; -5.4950660E-01;0; -6.1422586E-02;  3.9707762E+04;  0.0000000E+00; -1.9262928E-03;  4.0000000E+04;  0.0000000E+00;  4.0011488E+04; -2.4687396E-03;  0.0000000E+00; -5.8953848E-02;  1.7116921E+03;
  3.8224760E-01;  9.9999998E-03;  5.9987295E-02;4800;  3.4593868E-01;  0.0000000E+00; -3.6461705E-03;  9.9644098E+02;  1.0000000E-01; -2.9485579E+03;3; -6.7045698E+00;  0.0000000E+00; -5.5404675E-01;0; -6.2422872E-02;  3.9705074E+04;  0.0000000E+00; -2.7215891E-03;  4.0000000E+04;  0.0000000E+00;  4.0012711E+04; -3.5435844E-03;  0.0000000E+00; -5.8879286E-02;  1.8709807E+03;
  3.9241230E-01;  9.9999998E-03; -9.9981464E-02;4845;  3.4260064E-01;  0.0000000E+00;  6.1143232E-03;  9.9640424E+02;  1.0000000E-01; -2.9790261E+03;3; -9.9627552E+00;  0.0000000E+00; -1.6189454E-01;0; -5.8354184E-02;  3.9696012E+04;  0.0000000E+00;  1.6587208E-03;  4.0000000E+04;  0.0000000E+00;  4.0018555E+04; -2.6308538E-03;  0.0000000E+00; -5.5723332E-02;  2.6053953E+03;
  3.9237988E-01;  9.9999998E-03; -8.9983970E-02;4846;  3.4361663E-01;  0.0000000E+00;  5.5471845E-03;  9.9648938E+02;  1.0000000E-01; -2.9084602E+03;3; -9.2109652E+00;  0.0000000E+00;  2.3450746E-05;0; -6.1883017E-02;  3.9704445E+04;  0.0000000E+00; -1.4190356E-03;  4.0000000E+04;  0.0000000E+00;  4.0016980E+04; -5.2196365E-03;  0.0000000E+00; -5.6663383E-02;  2.4032092E+03;
  3.9235139E-01;  9.9999998E-03; -7.9985805E-02;4847;  3.4447089E-01;  0.0000000E+00;  4.9694707E-03;  9.9655878E+02;  1.0000000E-01; -2.8509805E+03;3; -8.5371313E+00;  0.0000000E+00;  1.5467726E-01;0; -6.3172057E-02;  3.9711695E+04;  0.0000000E+00; -2.7371256E-03;  4.0000000E+04;  0.0000000E+00;  4.0015340E+04; -5.7662320E-03;  0.0000000E+00; -5.7405826E-02;  2.1911919E+03;
  3.9232650E-01;  9.9999998E-03; -6.9987334E-02;4848;  3.4518647E-01;  0.0000000E+00;  4.3778215E-03;  9.9661237E+02;  1.0000000E-01; -2.8065867E+03;3; -7.9217339E+00;  0.0000000E+00;  2.7707148E-01;0; -6.2883951E-02;  3.9717539E+04;  0.0000000E+00; -2.9504662E-03;  4.0000000E+04;  0.0000000E+00;  4.0013699E+04; -4.8741107E-03;  0.0000000E+00; -5.8009837E-02;  1.9858774E+03;
  3.9230517E-01;  9.9999998E-03; -5.9988778E-02;4849;  3.4578863E-01;  0.0000000E+00;  3.7769184E-03;  9.9665332E+02;  1.0000000E-01; -2.7726616E+03;3; -7.2181234E+00;  0.0000000E+00;  3.3889627E-01;0; -6.1617058E-02;  3.9722160E+04;  0.0000000E+00; -2.5688121E-03;  4.0000000E+04;  0.0000000E+00;  4.0012273E+04; -3.0907569E-03;  0.0000000E+00; -5.8526300E-02;  1.8004835E+03;
  3.9228696E-01;  9.9999998E-03; -4.9990281E-02;4850;  3.4629139E-01;  0.0000000E+00;  3.1745378E-03;  9.9668048E+02;  1.0000000E-01; -2.7501438E+03;3; -6.7398553E+00;  0.0000000E+00;  3.8148311E-01;0; -5.9870046E-02;  3.9725715E+04;  0.0000000E+00; -1.9452302E-03;  4.0000000E+04;  0.0000000E+00;  4.0011047E+04; -8.8292250E-04;  0.0000000E+00; -5.8987122E-02;  1.6437982E+03;
  3.9227179E-01;  9.9999998E-03; -3.9991930E-02;4851;  3.4671062E-01;  0.0000000E+00;  2.5633306E-03;  9.9670166E+02;  1.0000000E-01; -2.7326135E+03;3; -6.1935115E+00;  0.0000000E+00;  3.2360464E-01;0; -5.8027115E-02;  3.9728266E+04;  0.0000000E+00; -1.2982407E-03;  4.0000000E+04;  0.0000000E+00;  4.0010070E+04;  1.3748511E-03;  0.0000000E+00; -5.9401967E-02;  1.5197350E+03;
  3.9225978E-01;  9.9999998E-03; -2.9993743E-02;4852;  3.4702837E-01;  0.0000000E+00;  1.9407391E-03;  9.9671509E+02;  1.0000000E-01; -2.7215027E+03;3; -5.8352251E+00;  0.0000000E+00;  3.0176955E-01;0; -5.6363039E-02;  3.9730168E+04;  0.0000000E+00; -7.4291654E-04;  4.0000000E+04;  0.0000000E+00;  4.0009324E+04;  3.3973558E-03;  0.0000000E+00; -5.9760395E-02;  1.4282463E+03;
  3.9225101E-01;  9.9999998E-03; -1.9995717E-02;4853;  3.4725630E-01;  0.0000000E+00;  1.3015766E-03;  9.9672321E+02;  1.0000000E-01; -2.7147373E+03;3; -5.5165625E+00;  0.0000000E+00;  1.9507939E-01;0; -5.5062044E-02;  3.9731398E+04;  0.0000000E+00; -3.3183192E-04;  4.0000000E+04;  0.0000000E+00;  4.0008852E+04;  4.9787466E-03;  0.0000000E+00; -6.0040791E-02;  1.3666896E+03;
  3.9224565E-01;  9.9999998E-03; -9.9978242E-03;4854;  3.4739089E-01;  0.0000000E+00;  6.5551361E-04;  9.9672839E+02;  1.0000000E-01; -2.7104412E+03;3; -5.3377008E+00;  0.0000000E+00;  1.1842339E-01;0; -5.4239713E-02;  3.9731953E+04;  0.0000000E+00; -8.2992214E-05;  4.0000000E+04;  0.0000000E+00;  4.0008578E+04;  5.9805405E-03;  0.0000000E+00; -6.0220253E-02;  1.3316322E+03;
  3.9224383E-01;  9.9999998E-03; -1.9774923E-10;4855;  3.4743312E-01;  0.0000000E+00;  1.6810526E-09;  9.9673029E+02;  1.0000000E-01; -2.7089104E+03;3; -5.3608174E+00;  0.0000000E+00;  1.2757693E-05;0; -5.3958975E-02;  3.9732172E+04;  0.0000000E+00;  4.9977107E-13;  4.0000000E+04;  0.0000000E+00;  4.0008512E+04;  6.3231098E-03;  0.0000000E+00; -6.0282085E-02;  1.3202991E+03;
  3.9224565E-01;  9.9999998E-03;  9.9978242E-03;4856;  3.4739092E-01;  0.0000000E+00; -6.5551058E-04;  9.9672839E+02;  1.0000000E-01; -2.7104412E+03;3; -5.3376060E+00;  0.0000000E+00; -1.1840505E-01;0; -5.4239731E-02;  3.9731949E+04;  0.0000000E+00; -8.2983330E-05;  4.0000000E+04;  0.0000000E+00;  4.0008578E+04;  5.9805615E-03;  0.0000000E+00; -6.0220294E-02;  1.3316295E+03;
  3.9225098E-01;  9.9999998E-03;  1.9995717E-02;4857;  3.4725627E-01;  0.0000000E+00; -1.3015752E-03;  9.9672327E+02;  1.0000000E-01; -2.7146880E+03;3; -5.5163918E+00;  0.0000000E+00; -1.9506207E-01;0; -5.5062074E-02;  3.9731395E+04;  0.0000000E+00; -3.3185608E-04;  4.0000000E+04;  0.0000000E+00;  4.0008855E+04;  4.9787685E-03;  0.0000000E+00; -6.0040843E-02;  1.3666930E+03;
  3.9225978E-01;  9.9999998E-03;  2.9993743E-02;4858;  3.4702840E-01;  0.0000000E+00; -1.9407356E-03;  9.9671509E+02;  1.0000000E-01; -2.7215027E+03;3; -5.8354454E+00;  0.0000000E+00; -3.0176026E-01;0; -5.6363046E-02;  3.9730168E+04;  0.0000000E+00; -7.4308098E-04;  4.0000000E+04;  0.0000000E+00;  4.0009324E+04;  3.3973979E-03;  0.0000000E+00; -5.9760444E-02;  1.4282379E+03;
  3.9227179E-01;  9.9999998E-03;  3.9991926E-02;4859;  3.4671062E-01;  0.0000000E+00; -2.5633262E-03;  9.9670166E+02;  1.0000000E-01; -2.7326135E+03;3; -6.1931887E+00;  0.0000000E+00; -3.2359001E-01;0; -5.8027174E-02;  3.9728266E+04;  0.0000000E+00; -1.2983424E-03;  4.0000000E+04;  0.0000000E+00;  4.0010070E+04;  1.3748964E-03;  0.0000000E+00; -5.9402071E-02;  1.5197330E+03;
  3.9228696E-01;  9.9999998E-03;  4.9990281E-02;4860;  3.4629142E-01;  0.0000000E+00; -3.1745357E-03;  9.9668048E+02;  1.0000000E-01; -2.7501438E+03;3; -6.7399387E+00;  0.0000000E+00; -3.8150495E-01;0; -5.9870109E-02;  3.9725715E+04;  0.0000000E+00; -1.9455762E-03;  4.0000000E+04;  0.0000000E+00;  4.0011047E+04; -8.8287302E-04;  0.0000000E+00; -5.8987238E-02;  1.6437861E+03;
  3.9230517E-01;  9.9999998E-03;  5.9988774E-02;4861;  3.4578866E-01;  0.0000000E+00; -3.7769161E-03;  9.9665326E+02;  1.0000000E-01; -2.7727112E+03;3; -7.2181258E+00;  0.0000000E+00; -3.3889017E-01;0; -6.1617002E-02;  3.9722160E+04;  0.0000000E+00; -2.5685921E-03;  4.0000000E+04;  0.0000000E+00;  4.0012273E+04; -3.0907153E-03;  0.0000000E+00; -5.8526285E-02;  1.8004778E+03;
  4.0246883E-01;  9.9999998E-03; -9.9987313E-02;4906;  3.4239751E-01;  0.0000000E+00;  6.2875701E-03;  9.9664111E+02;  1.0000000E-01; -2.7827849E+03;3; -1.0974964E+01;  0.0000000E+00; -8.9791363E-01;0; -6.2934667E-02;  3.9714875E+04;  0.0000000E+00;  4.5011728E-03;  4.0000000E+04;  0.0000000E+00;  4.0018453E+04; -9.1683408E-03;  0.0000000E+00; -5.3766325E-02;  2.5811792E+03;
  4.0243459E-01;  9.9999998E-03; -8.9988999E-02;4907;  3.4345397E-01;  0.0000000E+00;  5.7260222E-03;  9.9673743E+02;  1.0000000E-01; -2.7029846E+03;3; -1.0195097E+01;  0.0000000E+00; -6.4892370E-01;0; -6.4274259E-02;  3.9724059E+04;  0.0000000E+00;  8.1657479E-04;  4.0000000E+04;  0.0000000E+00;  4.0016848E+04; -9.3453471E-03;  0.0000000E+00; -5.4928910E-02;  2.3616743E+03;
  4.0240464E-01;  9.9999998E-03; -7.9990119E-02;4908;  3.4435055E-01;  0.0000000E+00;  5.1438645E-03;  9.9681677E+02;  1.0000000E-01; -2.6372581E+03;3; -9.4971476E+00;  0.0000000E+00; -4.0268359E-01;0; -6.3965514E-02;  3.9732211E+04;  0.0000000E+00; -1.0991809E-03;  4.0000000E+04;  0.0000000E+00;  4.0015168E+04; -7.9875477E-03;  0.0000000E+00; -5.5977967E-02;  2.1407510E+03;
  4.0237889E-01;  9.9999998E-03; -6.9991000E-02;4909;  3.4510723E-01;  0.0000000E+00;  4.5407475E-03;  9.9688409E+02;  1.0000000E-01; -2.5814573E+03;3; -8.8134050E+00;  0.0000000E+00; -2.0244940E-01;0; -6.2571250E-02;  3.9739090E+04;  0.0000000E+00; -1.8297087E-03;  4.0000000E+04;  0.0000000E+00;  4.0013473E+04; -5.6286124E-03;  0.0000000E+00; -5.6942634E-02;  1.9338431E+03;
  4.0235689E-01;  9.9999998E-03; -5.9991859E-02;4910;  3.4574074E-01;  0.0000000E+00;  3.9160233E-03;  9.9693683E+02;  1.0000000E-01; -2.5377549E+03;3; -8.0269814E+00;  0.0000000E+00; -7.4685030E-02;0; -6.0576774E-02;  3.9744781E+04;  0.0000000E+00; -1.8570508E-03;  4.0000000E+04;  0.0000000E+00;  4.0012078E+04; -2.7366420E-03;  0.0000000E+00; -5.7840131E-02;  1.7525505E+03;
  4.0233839E-01;  9.9999998E-03; -4.9992830E-02;4911;  3.4625962E-01;  0.0000000E+00;  3.2816948E-03;  9.9697888E+02;  1.0000000E-01; -2.5029409E+03;3; -7.4523430E+00;  0.0000000E+00;  8.7732956E-02;0; -5.8371805E-02;  3.9749332E+04;  0.0000000E+00; -1.5310155E-03;  4.0000000E+04;  0.0000000E+00;  4.0010926E+04;  2.9801842E-04;  0.0000000E+00; -5.8669824E-02;  1.6035431E+03;
  4.0232325E-01;  9.9999998E-03; -3.9993968E-02;4912;  3.4670037E-01;  0.0000000E+00;  2.6441964E-03;  9.9701086E+02;  1.0000000E-01; -2.4764233E+03;3; -6.7993431E+00;  0.0000000E+00;  9.5437378E-02;0; -5.6248751E-02;  3.9752781E+04;  0.0000000E+00; -1.0809614E-03;  4.0000000E+04;  0.0000000E+00;  4.0009996E+04;  3.1646753E-03;  0.0000000E+00; -5.9413426E-02;  1.4887614E+03;
  4.0231138E-01;  9.9999998E-03; -2.9995279E-02;4913;  3.4704676E-01;  0.0000000E+00;  2.0021074E-03;  9.9703448E+02;  1.0000000E-01; -2.4568682E+03;3; -6.4710326E+00;  0.0000000E+00;  1.3222982E-01;0; -5.4415811E-02;  3.9755363E+04;  0.0000000E+00; -6.4390182E-04;  4.0000000E+04;  0.0000000E+00;  4.0009418E+04;  5.6251227E-03;  0.0000000E+00; -6.0040932E-02;  1.4063206E+03;
  4.0230283E-01;  9.9999998E-03; -1.9996744E-02;4914;  3.4729898E-01;  0.0000000E+00;  1.3420742E-03;  9.9704950E+02;  1.0000000E-01; -2.4444241E+03;3; -6.0406647E+00;  0.0000000E+00;  9.6093088E-02;0; -5.3015150E-02;  3.9757094E+04;  0.0000000E+00; -2.9583884E-04;  4.0000000E+04;  0.0000000E+00;  4.0008969E+04;  7.5040716E-03;  0.0000000E+00; -6.0519222E-02;  1.3522257E+03;
  4.0229762E-01;  9.9999998E-03; -9.9983355E-03;4915;  3.4744447E-01;  0.0000000E+00;  6.7388697E-04;  9.9706036E+02;  1.0000000E-01; -2.4354368E+03;3; -5.8622165E+00;  0.0000000E+00;  1.9165060E-02;0; -5.2139826E-02;  3.9757984E+04;  0.0000000E+00; -7.5239986E-05;  4.0000000E+04;  0.0000000E+00;  4.0008699E+04;  8.6794849E-03;  0.0000000E+00; -6.0819313E-02;  1.3220164E+03;
  4.0229589E-01;  9.9999998E-03; -1.7540658E-10;4916;  3.4749320E-01;  0.0000000E+00;  1.5785878E-09;  9.9706360E+02;  1.0000000E-01; -2.4327703E+03;3; -5.8267136E+00;  0.0000000E+00;  1.2450728E-06;0; -5.1842354E-02;  3.9758352E+04;  0.0000000E+00;  3.2265786E-14;  4.0000000E+04;  0.0000000E+00;  4.0008574E+04;  9.0792757E-03;  0.0000000E+00; -6.0921632E-02;  1.3123534E+03;
  4.0229762E-01;  9.9999998E-03;  9.9983355E-03;4917;  3.4744447E-01;  0.0000000E+00; -6.7388423E-04;  9.9706036E+02;  1.0000000E-01; -2.4354368E+03;3; -5.8621731E+00;  0.0000000E+00; -1.9165546E-02;0; -5.2139848E-02;  3.9757980E+04;  0.0000000E+00; -7.5206466E-05;  4.0000000E+04;  0.0000000E+00;  4.0008699E+04;  8.6794887E-03;  0.0000000E+00; -6.0819339E-02;  1.3220115E+03;
  4.0230283E-01;  9.9999998E-03;  1.9996744E-02;4918;  3.4729901E-01;  0.0000000E+00; -1.3420716E-03;  9.9704944E+02;  1.0000000E-01; -2.4444736E+03;3; -6.0413394E+00;  0.0000000E+00; -9.6094355E-02;0; -5.3015154E-02;  3.9757094E+04;  0.0000000E+00; -2.9588831E-04;  4.0000000E+04;  0.0000000E+00;  4.0008969E+04;  7.5041046E-03;  0.0000000E+00; -6.0519259E-02;  1.3522240E+03;
  4.0231138E-01;  9.9999998E-03;  2.9995279E-02;4919;  3.4704679E-01;  0.0000000E+00; -2.0021044E-03;  9.9703442E+02;  1.0000000E-01; -2.4569177E+03;3; -6.4708042E+00;  0.0000000E+00; -1.3220297E-01;0; -5.4415785E-02;  3.9755363E+04;  0.0000000E+00; -6.4411480E-04;  4.0000000E+04;  0.0000000E+00;  4.0009418E+04;  5.6251693E-03;  0.0000000E+00; -6.0040955E-02;  1.4063245E+03;
  4.0232325E-01;  9.9999998E-03;  3.9993964E-02;4920;  3.4670037E-01;  0.0000000E+00; -2.6441945E-03;  9.9701086E+02;  1.0000000E-01; -2.4764233E+03;3; -6.7994571E+00;  0.0000000E+00; -9.5422179E-02;0; -5.6248713E-02;  3.9752781E+04;  0.0000000E+00; -1.0812508E-03;  4.0000000E+04;  0.0000000E+00;  4.0009996E+04;  3.1647286E-03;  0.0000000E+00; -5.9413441E-02;  1.4887678E+03;
  4.0233839E-01;  9.9999998E-03;  4.9992830E-02;4921;  3.4625962E-01;  0.0000000E+00; -3.2816939E-03;  9.9697882E+02;  1.0000000E-01; -2.5029905E+03;3; -7.4523878E+00;  0.0000000E+00; -8.7729096E-02;0; -5.8371779E-02;  3.9749328E+04;  0.0000000E+00; -1.5308242E-03;  4.0000000E+04;  0.0000000E+00;  4.0010926E+04;  2.9807515E-04;  0.0000000E+00; -5.8669854E-02;  1.6035465E+03;
  4.0235689E-01;  9.9999998E-03;  5.9991859E-02;4922;  3.4574077E-01;  0.0000000E+00; -3.9160219E-03;  9.9693683E+02;  1.0000000E-01; -2.5377549E+03;3; -8.0269651E+00;  0.0000000E+00;  7.4680023E-02;0; -6.0576718E-02;  3.9744781E+04;  0.0000000E+00; -1.8562184E-03;  4.0000000E+04;  0.0000000E+00;  4.0012074E+04; -2.7365796E-03;  0.0000000E+00; -5.7840139E-02;  1.7525472E+03;
  4.1251442E-01;  9.9999998E-03; -9.9995449E-02;4967;  3.4226003E-01;  0.0000000E+00;  6.4506792E-03;  9.9691833E+02;  1.0000000E-01; -2.5531121E+03;3; -1.2455070E+01;  0.0000000E+00; -2.0263410E+00;0; -6.6080220E-02;  3.9736516E+04;  0.0000000E+00;  7.2989268E-03;  4.0000000E+04;  0.0000000E+00;  4.0018562E+04; -1.4676287E-02;  0.0000000E+00; -5.1403936E-02;  2.5697119E+03;
  4.1247833E-01;  9.9999998E-03; -8.9995980E-02;4968;  3.4338197E-01;  0.0000000E+00;  5.9103845E-03;  9.9702576E+02;  1.0000000E-01; -2.4641270E+03;3; -1.1746030E+01;  0.0000000E+00; -1.6776990E+00;0; -6.5887131E-02;  3.9746855E+04;  0.0000000E+00;  3.3583567E-03;  4.0000000E+04;  0.0000000E+00;  4.0016902E+04; -1.3058580E-02;  0.0000000E+00; -5.2828554E-02;  2.3431938E+03;
  4.1244730E-01;  9.9999998E-03; -7.9996079E-02;4969;  3.4434304E-01;  0.0000000E+00;  5.3326814E-03;  9.9711975E+02;  1.0000000E-01; -2.3862527E+03;3; -1.1080729E+01;  0.0000000E+00; -1.4013970E+00;0; -6.4516261E-02;  3.9756047E+04;  0.0000000E+00;  1.0142500E-03;  4.0000000E+04;  0.0000000E+00;  4.0015074E+04; -1.0323178E-02;  0.0000000E+00; -5.4193079E-02;  2.1224614E+03;
  4.1242024E-01;  9.9999998E-03; -6.9996104E-02;4970;  3.4515986E-01;  0.0000000E+00;  4.7237445E-03;  9.9720148E+02;  1.0000000E-01; -2.3185015E+03;3; -1.0365010E+01;  0.0000000E+00; -1.0289506E+00;0; -6.2423993E-02;  3.9764109E+04;  0.0000000E+00; -1.9462172E-04;  4.0000000E+04;  0.0000000E+00;  4.0013598E+04; -6.9233477E-03;  0.0000000E+00; -5.5500645E-02;  1.9215165E+03;
  4.1239747E-01;  9.9999998E-03; -5.9996195E-02;4971;  3.4584478E-01;  0.0000000E+00;  4.0826378E-03;  9.9727002E+02;  1.0000000E-01; -2.2617129E+03;3; -9.4410858E+00;  0.0000000E+00; -7.9295367E-01;0; -5.9990432E-02;  3.9771008E+04;  0.0000000E+00; -6.7406753E-04;  4.0000000E+04;  0.0000000E+00;  4.0012285E+04; -3.2497547E-03;  0.0000000E+00; -5.6740679E-02;  1.7500162E+03;
  4.1237870E-01;  9.9999998E-03; -4.9996436E-02;4972;  3.4639829E-01;  0.0000000E+00;  3.4222822E-03;  9.9732800E+02;  1.0000000E-01; -2.2137144E+03;3; -8.7742710E+00;  0.0000000E+00; -5.1842749E-01;0; -5.7515480E-02;  3.9776543E+04;  0.0000000E+00; -7.3424046E-04;  4.0000000E+04;  0.0000000E+00;  4.0011223E+04;  3.7265287E-04;  0.0000000E+00; -5.7888132E-02;  1.6126686E+03;
  4.1236350E-01;  9.9999998E-03; -3.9996859E-02;4973;  3.4684357E-01;  0.0000000E+00;  2.7440889E-03;  9.9737225E+02;  1.0000000E-01; -2.1770239E+03;3; -7.9895520E+00;  0.0000000E+00; -3.8475221E-01;0; -5.5224769E-02;  3.9781020E+04;  0.0000000E+00; -5.8931002E-04;  4.0000000E+04;  0.0000000E+00;  4.0010461E+04;  3.6815291E-03;  0.0000000E+00; -5.8906298E-02;  1.5096371E+03;
  4.1235176E-01;  9.9999998E-03; -2.9997446E-02;4974;  3.4719005E-01;  0.0000000E+00;  2.0653089E-03;  9.9740900E+02;  1.0000000E-01; -2.1466052E+03;3; -7.4762926E+00;  0.0000000E+00; -1.9207835E-01;0; -5.3285681E-02;  3.9784293E+04;  0.0000000E+00; -3.7726897E-04;  4.0000000E+04;  0.0000000E+00;  4.0009840E+04;  6.4682984E-03;  0.0000000E+00; -5.9753980E-02;  1.4375881E+03;
  4.1234338E-01;  9.9999998E-03; -1.9998200E-02;4975;  3.4745893E-01;  0.0000000E+00;  1.3854621E-03;  9.9743195E+02;  1.0000000E-01; -2.1275933E+03;3; -7.0590811E+00;  0.0000000E+00; -1.2891434E-01;0; -5.1818736E-02;  3.9786633E+04;  0.0000000E+00; -1.8067702E-04;  4.0000000E+04;  0.0000000E+00;  4.0009547E+04;  8.5730543E-03;  0.0000000E+00; -6.0391791E-02;  1.3915652E+03;
  4.1233829E-01;  9.9999998E-03; -9.9990703E-03;4976;  3.4761894E-01;  0.0000000E+00;  6.9661427E-04;  9.9744843E+02;  1.0000000E-01; -2.1139148E+03;3; -6.8984065E+00;  0.0000000E+00;  1.0353613E-02;0; -5.0906360E-02;  3.9787980E+04;  0.0000000E+00; -4.6988283E-05;  4.0000000E+04;  0.0000000E+00;  4.0009371E+04;  9.8818699E-03;  0.0000000E+00; -6.0788229E-02;  1.3664303E+03;
  4.1233659E-01;  9.9999998E-03; -1.7086975E-10;4977;  3.4768015E-01;  0.0000000E+00;  2.2056348E-09;  9.9745117E+02;  1.0000000E-01; -2.1116431E+03;3; -6.7288909E+00;  0.0000000E+00; -1.5105688E-06;0; -5.0596904E-02;  3.9788465E+04;  0.0000000E+00; -5.1218686E-13;  4.0000000E+04;  0.0000000E+00;  4.0009324E+04;  1.0325857E-02;  0.0000000E+00; -6.0922761E-02;  1.3585022E+03;
  4.1233829E-01;  9.9999998E-03;  9.9990694E-03;4978;  3.4761894E-01;  0.0000000E+00; -6.9660990E-04;  9.9744836E+02;  1.0000000E-01; -2.1139641E+03;3; -6.8983564E+00;  0.0000000E+00; -1.0352790E-02;0; -5.0906371E-02;  3.9787977E+04;  0.0000000E+00; -4.6921239E-05;  4.0000000E+04;  0.0000000E+00;  4.0009371E+04;  9.8818904E-03;  0.0000000E+00; -6.0788263E-02;  1.3664282E+03;
  4.1234338E-01;  9.9999998E-03;  1.9998200E-02;4979;  3.4745893E-01;  0.0000000E+00; -1.3854586E-03;  9.9743201E+02;  1.0000000E-01; -2.1275439E+03;3; -7.0589995E+00;  0.0000000E+00;  1.2892185E-01;0; -5.1818740E-02;  3.9786629E+04;  0.0000000E+00; -1.8072662E-04;  4.0000000E+04;  0.0000000E+00;  4.0009547E+04;  8.5730823E-03;  0.0000000E+00; -6.0391821E-02;  1.3915638E+03;
  4.1235176E-01;  9.9999998E-03;  2.9997446E-02;4980;  3.4719008E-01;  0.0000000E+00; -2.0653054E-03;  9.9740900E+02;  1.0000000E-01; -2.1466052E+03;3; -7.4761052E+00;  0.0000000E+00;  1.9205506E-01;0; -5.3285621E-02;  3.9784293E+04;  0.0000000E+00; -3.7697842E-04;  4.0000000E+04;  0.0000000E+00;  4.0009840E+04;  6.4683631E-03;  0.0000000E+00; -5.9753984E-02;  1.4375890E+03;
  4.1236350E-01;  9.9999998E-03;  3.9996855E-02;4981;  3.4684360E-01;  0.0000000E+00; -2.7440875E-03;  9.9737225E+02;  1.0000000E-01; -2.1770239E+03;3; -7.9896402E+00;  0.0000000E+00;  3.8475120E-01;0; -5.5224765E-02;  3.9781016E+04;  0.0000000E+00; -5.8926182E-04;  4.0000000E+04;  0.0000000E+00;  4.0010461E+04;  3.6815838E-03;  0.0000000E+00; -5.8906350E-02;  1.5096362E+03;
  4.1237870E-01;  9.9999998E-03;  4.9996436E-02;4982;  3.4639832E-01;  0.0000000E+00; -3.4222824E-03;  9.9732800E+02;  1.0000000E-01; -2.2137144E+03;3; -8.7742853E+00;  0.0000000E+00;  5.1842731E-01;0; -5.7515454E-02;  3.9776547E+04;  0.0000000E+00; -7.3393533E-04;  4.0000000E+04;  0.0000000E+00;  4.0011223E+04;  3.7272036E-04;  0.0000000E+00; -5.7888173E-02;  1.6126704E+03;
  4.1239747E-01;  9.9999998E-03;  5.9996195E-02;4983;  3.4584481E-01;  0.0000000E+00; -4.0826355E-03;  9.9727002E+02;  1.0000000E-01; -2.2617129E+03;3; -9.4410620E+00;  0.0000000E+00;  7.9295510E-01;0; -5.9990432E-02;  3.9771008E+04;  0.0000000E+00; -6.7403761E-04;  4.0000000E+04;  0.0000000E+00;  4.0012285E+04; -3.2496848E-03;  0.0000000E+00; -5.6740746E-02;  1.7500078E+03;
  4.2254412E-01;  9.9999998E-03; -1.0000428E-01;5028;  3.4217897E-01;  0.0000000E+00;  6.5889875E-03;  9.9720929E+02;  1.0000000E-01; -2.3120325E+03;3; -1.4727254E+01;  0.0000000E+00; -3.7281065E+00;0; -6.8725139E-02;  3.9758871E+04;  0.0000000E+00;  9.5299147E-03;  4.0000000E+04;  0.0000000E+00;  4.0018969E+04; -2.0007951E-02;  0.0000000E+00; -4.8717190E-02;  2.5977380E+03;
  4.2250702E-01;  9.9999998E-03; -9.0003647E-02;5029;  3.4339121E-01;  0.0000000E+00;  6.0768798E-03;  9.9732928E+02;  1.0000000E-01; -2.2126279E+03;3; -1.4210492E+01;  0.0000000E+00; -3.3918152E+00;0; -6.7529850E-02;  3.9770168E+04;  0.0000000E+00;  5.7408791E-03;  4.0000000E+04;  0.0000000E+00;  4.0017277E+04; -1.7137129E-02;  0.0000000E+00; -5.0392721E-02;  2.3741233E+03;
  4.2247412E-01;  9.9999998E-03; -8.0002740E-02;5030;  3.4445184E-01;  0.0000000E+00;  5.5237827E-03;  9.9743799E+02;  1.0000000E-01; -2.1225564E+03;3; -1.3633748E+01;  0.0000000E+00; -2.9603002E+00;0; -6.5508485E-02;  3.9780508E+04;  0.0000000E+00;  3.2143805E-03;  4.0000000E+04;  0.0000000E+00;  4.0015723E+04; -1.3474070E-02;  0.0000000E+00; -5.2034419E-02;  2.1620457E+03;
  4.2244646E-01;  9.9999998E-03; -7.0001826E-02;5031;  3.4536609E-01;  0.0000000E+00;  4.9263635E-03;  9.9753717E+02;  1.0000000E-01; -2.0403860E+03;3; -1.2996025E+01;  0.0000000E+00; -2.4819574E+00;0; -6.3017480E-02;  3.9789844E+04;  0.0000000E+00;  1.6505705E-03;  4.0000000E+04;  0.0000000E+00;  4.0014203E+04; -9.3932524E-03;  0.0000000E+00; -5.3624228E-02;  1.9736677E+03;
  4.2242292E-01;  9.9999998E-03; -6.0001045E-02;5032;  3.4613550E-01;  0.0000000E+00;  4.2848801E-03;  9.9762286E+02;  1.0000000E-01; -1.9694250E+03;3; -1.2207690E+01;  0.0000000E+00; -2.0933588E+00;0; -6.0348950E-02;  3.9797855E+04;  0.0000000E+00;  7.5667055E-04;  4.0000000E+04;  0.0000000E+00;  4.0013070E+04; -5.2160863E-03;  0.0000000E+00; -5.5132862E-02;  1.8167377E+03;
  4.2240354E-01;  9.9999998E-03; -5.0000481E-02;5033;  3.4677017E-01;  0.0000000E+00;  3.6119542E-03;  9.9769379E+02;  1.0000000E-01; -1.9106613E+03;3; -1.1456526E+01;  0.0000000E+00; -1.7326000E+00;0; -5.7735328E-02;  3.9804594E+04;  0.0000000E+00;  2.9181916E-04;  4.0000000E+04;  0.0000000E+00;  4.0012090E+04; -1.2152913E-03;  0.0000000E+00; -5.6520037E-02;  1.6942269E+03;
  4.2238811E-01;  9.9999998E-03; -4.0000126E-02;5034;  3.4726071E-01;  0.0000000E+00;  2.9112201E-03;  9.9775464E+02;  1.0000000E-01; -1.8602430E+03;3; -1.0878950E+01;  0.0000000E+00; -1.2520260E+00;0; -5.5359367E-02;  3.9809977E+04;  0.0000000E+00;  8.0004313E-05;  4.0000000E+04;  0.0000000E+00;  4.0011461E+04;  2.3803175E-03;  0.0000000E+00; -5.7739686E-02;  1.6047867E+03;
  4.2237645E-01;  9.9999998E-03; -2.9999921E-02;5035;  3.4763819E-01;  0.0000000E+00;  2.1892332E-03;  9.9779858E+02;  1.0000000E-01; -1.8238490E+03;3; -1.0160172E+01;  0.0000000E+00; -9.2514360E-01;0; -5.3364102E-02;  3.9814117E+04;  0.0000000E+00;  3.6300951E-06;  4.0000000E+04;  0.0000000E+00;  4.0010973E+04;  5.3814217E-03;  0.0000000E+00; -5.8745522E-02;  1.5441157E+03;
  4.2236823E-01;  9.9999998E-03; -1.9999873E-02;5036;  3.4788531E-01;  0.0000000E+00;  1.4567745E-03;  9.9783344E+02;  1.0000000E-01; -1.7949609E+03;3; -9.7374601E+00;  0.0000000E+00; -6.2695777E-01;0; -5.1859610E-02;  3.9817020E+04;  0.0000000E+00; -1.0236647E-05;  4.0000000E+04;  0.0000000E+00;  4.0010723E+04;  7.6367497E-03;  0.0000000E+00; -5.9496358E-02;  1.5065093E+03;
  4.2236343E-01;  9.9999998E-03; -9.9999141E-03;5037;  3.4803987E-01;  0.0000000E+00;  7.2540785E-04;  9.9785144E+02;  1.0000000E-01; -1.7800477E+03;3; -9.2939577E+00;  0.0000000E+00; -3.2406920E-01;0; -5.0925080E-02;  3.9818836E+04;  0.0000000E+00; -4.2360120E-06;  4.0000000E+04;  0.0000000E+00;  4.0010629E+04;  9.0353126E-03;  0.0000000E+00; -5.9960391E-02;  1.4865602E+03;
  4.2236188E-01;  9.9999998E-03; -1.7221072E-10;5038;  3.4809017E-01;  0.0000000E+00;  2.2575335E-09;  9.9785797E+02;  1.0000000E-01; -1.7746158E+03;3; -9.1676607E+00;  0.0000000E+00; -1.8603190E-05;0; -5.0608333E-02;  3.9819371E+04;  0.0000000E+00; -2.5173537E-13;  4.0000000E+04;  0.0000000E+00;  4.0010574E+04;  9.5090456E-03;  0.0000000E+00; -6.0117379E-02;  1.4803726E+03;
  4.2236343E-01;  9.9999998E-03;  9.9999141E-03;5039;  3.4803987E-01;  0.0000000E+00; -7.2540552E-04;  9.9785144E+02;  1.0000000E-01; -1.7800477E+03;3; -9.2939262E+00;  0.0000000E+00;  3.2405868E-01;0; -5.0925091E-02;  3.9818836E+04;  0.0000000E+00; -4.2304896E-06;  4.0000000E+04;  0.0000000E+00;  4.0010629E+04;  9.0353359E-03;  0.0000000E+00; -5.9960429E-02;  1.4865585E+03;
  4.2236823E-01;  9.9999998E-03;  1.9999871E-02;5040;  3.4788534E-01;  0.0000000E+00; -1.4567755E-03;  9.9783337E+02;  1.0000000E-01; -1.7950103E+03;3; -9.7375898E+00;  0.0000000E+00;  6.2691802E-01;0; -5.1859636E-02;  3.9817020E+04;  0.0000000E+00; -1.0237872E-05;  4.0000000E+04;  0.0000000E+00;  4.0010723E+04;  7.6367934E-03;  0.0000000E+00; -5.9496429E-02;  1.5065118E+03;
  4.2237645E-01;  9.9999998E-03;  2.9999921E-02;5041;  3.4763822E-01;  0.0000000E+00; -2.1892292E-03;  9.9779858E+02;  1.0000000E-01; -1.8238490E+03;3; -1.0160019E+01;  0.0000000E+00;  9.2511588E-01;0; -5.3364076E-02;  3.9814117E+04;  0.0000000E+00;  3.7072798E-06;  4.0000000E+04;  0.0000000E+00;  4.0010973E+04;  5.3814636E-03;  0.0000000E+00; -5.8745541E-02;  1.5441157E+03;
  4.2238811E-01;  9.9999998E-03;  4.0000122E-02;5042;  3.4726074E-01;  0.0000000E+00; -2.9112194E-03;  9.9775464E+02;  1.0000000E-01; -1.8602430E+03;3; -1.0879032E+01;  0.0000000E+00;  1.2520137E+00;0; -5.5359401E-02;  3.9809977E+04;  0.0000000E+00;  7.9647783E-05;  4.0000000E+04;  0.0000000E+00;  4.0011461E+04;  2.3803916E-03;  0.0000000E+00; -5.7739791E-02;  1.6047874E+03;
  4.2240354E-01;  9.9999998E-03;  5.0000481E-02;5043;  3.4677023E-01;  0.0000000E+00; -3.6119528E-03;  9.9769385E+02;  1.0000000E-01; -1.9106119E+03;3; -1.1456894E+01;  0.0000000E+00;  1.7324672E+00;0; -5.7735376E-02;  3.9804598E+04;  0.0000000E+00;  2.9226104E-04;  4.0000000E+04;  0.0000000E+00;  4.0012090E+04; -1.2152364E-03;  0.0000000E+00; -5.6520138E-02;  1.6942280E+03;
  4.2242292E-01;  9.9999998E-03;  6.0001045E-02;5044;  3.4613553E-01;  0.0000000E+00; -4.2848797E-03;  9.9762286E+02;  1.0000000E-01; -1.9694250E+03;3; -1.2207664E+01;  0.0000000E+00;  2.0933199E+00;0; -6.0348924E-02;  3.9797852E+04;  0.0000000E+00;  7.5741450E-04;  4.0000000E+04;  0.0000000E+00;  4.0013070E+04; -5.2160090E-03;  0.0000000E+00; -5.5132914E-02;  1.8167512E+03;
  4.3255907E-01;  9.9999998E-03; -1.0001127E-01;5089;  3.4209558E-01;  0.0000000E+00;  6.6363872E-03;  9.9747949E+02;  1.0000000E-01; -2.0881870E+03;3; -1.7874903E+01;  0.0000000E+00; -6.1909428E+00;0; -7.1515694E-02;  3.9779273E+04;  0.0000000E+00;  1.0573782E-02;  4.0000000E+04;  0.0000000E+00;  4.0019941E+04; -2.5758293E-02;  0.0000000E+00; -4.5757405E-02;  2.6873760E+03;
  4.3251884E-01;  9.9999998E-03; -9.0009846E-02;5090;  3.4342864E-01;  0.0000000E+00;  6.1730300E-03;  9.9761139E+02;  1.0000000E-01; -1.9789061E+03;3; -1.7860313E+01;  0.0000000E+00; -5.9152718E+00;0; -6.9729850E-02;  3.9791441E+04;  0.0000000E+00;  7.3747477E-03;  4.0000000E+04;  0.0000000E+00;  4.0018305E+04; -2.2099264E-02;  0.0000000E+00; -4.7630589E-02;  2.4765781E+03;
  4.3248475E-01;  9.9999998E-03; -8.0008171E-02;5091;  3.4462520E-01;  0.0000000E+00;  5.6597730E-03;  9.9773608E+02;  1.0000000E-01; -1.8756005E+03;3; -1.7825645E+01;  0.0000000E+00; -5.6056128E+00;0; -6.7365944E-02;  3.9802871E+04;  0.0000000E+00;  4.9841586E-03;  4.0000000E+04;  0.0000000E+00;  4.0016805E+04; -1.7894907E-02;  0.0000000E+00; -4.9471036E-02;  2.2811118E+03;
  4.3245560E-01;  9.9999998E-03; -7.0006527E-02;5092;  3.4568965E-01;  0.0000000E+00;  5.1012584E-03;  9.9784961E+02;  1.0000000E-01; -1.7815785E+03;3; -1.7771204E+01;  0.0000000E+00; -5.1276016E+00;0; -6.4695343E-02;  3.9813184E+04;  0.0000000E+00;  3.2813358E-03;  4.0000000E+04;  0.0000000E+00;  4.0015574E+04; -1.3446704E-02;  0.0000000E+00; -5.1248636E-02;  2.1113120E+03;
  4.3243122E-01;  9.9999998E-03; -6.0005091E-02;5093;  3.4662181E-01;  0.0000000E+00;  4.4950019E-03;  9.9795050E+02;  1.0000000E-01; -1.6979760E+03;3; -1.7817427E+01;  0.0000000E+00; -4.5152760E+00;0; -6.1943464E-02;  3.9822266E+04;  0.0000000E+00;  2.1066566E-03;  4.0000000E+04;  0.0000000E+00;  4.0014484E+04; -9.0195816E-03;  0.0000000E+00; -5.2923881E-02;  1.9731985E+03;
  4.3241143E-01;  9.9999998E-03; -5.0003897E-02;5094;  3.4742320E-01;  0.0000000E+00;  3.8364148E-03;  9.9803790E+02;  1.0000000E-01; -1.6255829E+03;3; -1.7706369E+01;  0.0000000E+00; -3.8860459E+00;0; -5.9296407E-02;  3.9830109E+04;  0.0000000E+00;  1.3078646E-03;  4.0000000E+04;  0.0000000E+00;  4.0013730E+04; -4.8455559E-03;  0.0000000E+00; -5.4450851E-02;  1.8681427E+03;
  4.3239579E-01;  9.9999998E-03; -4.0002871E-02;5095;  3.4809142E-01;  0.0000000E+00;  3.1322627E-03;  9.9811237E+02;  1.0000000E-01; -1.5638563E+03;3; -1.7433472E+01;  0.0000000E+00; -3.2452629E+00;0; -5.6909721E-02;  3.9836523E+04;  0.0000000E+00;  7.6805253E-04;  4.0000000E+04;  0.0000000E+00;  4.0013152E+04; -1.1278725E-03;  0.0000000E+00; -5.5781849E-02;  1.7937457E+03;
  4.3238395E-01;  9.9999998E-03; -3.0002050E-02;5096;  3.4860274E-01;  0.0000000E+00;  2.3869253E-03;  9.9817017E+02;  1.0000000E-01; -1.5160059E+03;3; -1.7348574E+01;  0.0000000E+00; -2.3752222E+00;0; -5.4913003E-02;  3.9841516E+04;  0.0000000E+00;  4.0656072E-04;  4.0000000E+04;  0.0000000E+00;  4.0012844E+04;  1.9582766E-03;  0.0000000E+00; -5.6871280E-02;  1.7450944E+03;
  4.3237582E-01;  9.9999998E-03; -2.0001331E-02;5097;  3.4897557E-01;  0.0000000E+00;  1.6121772E-03;  9.9821246E+02;  1.0000000E-01; -1.4809451E+03;3; -1.7129372E+01;  0.0000000E+00; -1.5932190E+00;0; -5.3410109E-02;  3.9844980E+04;  0.0000000E+00;  1.7376346E-04;  4.0000000E+04;  0.0000000E+00;  4.0012637E+04;  4.2698276E-03;  0.0000000E+00; -5.7679936E-02;  1.7161027E+03;
  4.3237090E-01;  9.9999998E-03; -1.0000630E-02;5098;  3.4918988E-01;  0.0000000E+00;  8.1033696E-04;  9.9823553E+02;  1.0000000E-01; -1.4618346E+03;3; -1.6925882E+01;  0.0000000E+00; -7.8092039E-01;0; -5.2476723E-02;  3.9847129E+04;  0.0000000E+00;  4.2519358E-05;  4.0000000E+04;  0.0000000E+00;  4.0012539E+04;  5.7009389E-03;  0.0000000E+00; -5.8177661E-02;  1.7013608E+03;
  4.3236929E-01;  9.9999998E-03; -1.5924422E-10;5099;  3.4926319E-01;  0.0000000E+00;  3.0473366E-09;  9.9824487E+02;  1.0000000E-01; -1.4540817E+03;3; -1.6872795E+01;  0.0000000E+00; -1.0514040E-05;0; -5.2160464E-02;  3.9847871E+04;  0.0000000E+00;  1.0746474E-13;  4.0000000E+04;  0.0000000E+00;  4.0012555E+04;  6.1852466E-03;  0.0000000E+00; -5.8345709E-02;  1.6968873E+03;
  4.3237090E-01;  9.9999998E-03;  1.0000630E-02;5100;  3.4918988E-01;  0.0000000E+00; -8.1033225E-04;  9.9823553E+02;  1.0000000E-01; -1.4618346E+03;3; -1.6925810E+01;  0.0000000E+00;  7.8087229E-01;0; -5.2476719E-02;  3.9847129E+04;  0.0000000E+00;  4.2497501E-05;  4.0000000E+04;  0.0000000E+00;  4.0012539E+04;  5.7009659E-03;  0.0000000E+00; -5.8177684E-02;  1.7013661E+03;
  4.3237582E-01;  9.9999998E-03;  2.0001331E-02;5101;  3.4897557E-01;  0.0000000E+00; -1.6121723E-03;  9.9821240E+02;  1.0000000E-01; -1.4809945E+03;3; -1.7129547E+01;  0.0000000E+00;  1.5931367E+00;0; -5.3410117E-02;  3.9844980E+04;  0.0000000E+00;  1.7377218E-04;  4.0000000E+04;  0.0000000E+00;  4.0012637E+04;  4.2698933E-03;  0.0000000E+00; -5.7680011E-02;  1.7161035E+03;
  4.3238395E-01;  9.9999998E-03;  3.0002050E-02;5102;  3.4860277E-01;  0.0000000E+00; -2.3869227E-03;  9.9817017E+02;  1.0000000E-01; -1.5160059E+03;3; -1.7348690E+01;  0.0000000E+00;  2.3751867E+00;0; -5.4913018E-02;  3.9841516E+04;  0.0000000E+00;  4.0692679E-04;  4.0000000E+04;  0.0000000E+00;  4.0012844E+04;  1.9583357E-03;  0.0000000E+00; -5.6871355E-02;  1.7450909E+03;
  4.3239579E-01;  9.9999998E-03;  4.0002871E-02;5103;  3.4809142E-01;  0.0000000E+00; -3.1322576E-03;  9.9811224E+02;  1.0000000E-01; -1.5639551E+03;3; -1.7433264E+01;  0.0000000E+00;  3.2452502E+00;0; -5.6909729E-02;  3.9836523E+04;  0.0000000E+00;  7.6834054E-04;  4.0000000E+04;  0.0000000E+00;  4.0013152E+04; -1.1278071E-03;  0.0000000E+00; -5.5781923E-02;  1.7937419E+03;
  4.3241143E-01;  9.9999998E-03;  5.0003897E-02;5104;  3.4742323E-01;  0.0000000E+00; -3.8364122E-03;  9.9803790E+02;  1.0000000E-01; -1.6255829E+03;3; -1.7706352E+01;  0.0000000E+00;  3.8860512E+00;0; -5.9296358E-02;  3.9830109E+04;  0.0000000E+00;  1.3079531E-03;  4.0000000E+04;  0.0000000E+00;  4.0013730E+04; -4.8454781E-03;  0.0000000E+00; -5.4450881E-02;  1.8681356E+03;
  4.3243122E-01;  9.9999998E-03;  6.0005091E-02;5105;  3.4662184E-01;  0.0000000E+00; -4.4950005E-03;  9.9795050E+02;  1.0000000E-01; -1.6979760E+03;3; -1.7817385E+01;  0.0000000E+00;  4.5152459E+00;0; -6.1943423E-02;  3.9822270E+04;  0.0000000E+00;  2.1061720E-03;  4.0000000E+04;  0.0000000E+00;  4.0014484E+04; -9.0194857E-03;  0.0000000E+00; -5.2923936E-02;  1.9731965E+03;
  4.4256347E-01;  9.9999998E-03; -1.0001344E-01;5150;  3.4192112E-01;  0.0000000E+00;  6.4918217E-03;  9.9769916E+02;  1.0000000E-01; -1.9062167E+03;3; -2.1327040E+01;  0.0000000E+00; -8.9304790E+00;0; -7.4822180E-02;  3.9795164E+04;  0.0000000E+00;  9.8597091E-03;  4.0000000E+04;  0.0000000E+00;  4.0021348E+04; -3.2265954E-02;  0.0000000E+00; -4.2556226E-02;  2.8521653E+03;
  4.4252044E-01;  9.9999998E-03; -9.0011828E-02;5151;  3.4336838E-01;  0.0000000E+00;  6.0713561E-03;  9.9784235E+02;  1.0000000E-01; -1.7875535E+03;3; -2.2181356E+01;  0.0000000E+00; -8.8669796E+00;0; -7.2748974E-02;  3.9807934E+04;  0.0000000E+00;  7.6786969E-03;  4.0000000E+04;  0.0000000E+00;  4.0019918E+04; -2.8210545E-02;  0.0000000E+00; -4.4538427E-02;  2.6637979E+03;
  4.4248357E-01;  9.9999998E-03; -8.0009848E-02;5152;  3.4471047E-01;  0.0000000E+00;  5.6051295E-03;  9.9797949E+02;  1.0000000E-01; -1.6739271E+03;3; -2.3105440E+01;  0.0000000E+00; -8.7555466E+00;0; -7.0261091E-02;  3.9820141E+04;  0.0000000E+00;  5.7837204E-03;  4.0000000E+04;  0.0000000E+00;  4.0018684E+04; -2.3791777E-02;  0.0000000E+00; -4.6469316E-02;  2.4925874E+03;
  4.4245249E-01;  9.9999998E-03; -7.0007920E-02;5153;  3.4594113E-01;  0.0000000E+00;  5.0953398E-03;  9.9810736E+02;  1.0000000E-01; -1.5680042E+03;3; -2.4309547E+01;  0.0000000E+00; -8.3024549E+00;0; -6.7565188E-02;  3.9831379E+04;  0.0000000E+00;  4.2315563E-03;  4.0000000E+04;  0.0000000E+00;  4.0017574E+04; -1.9251093E-02;  0.0000000E+00; -4.8314091E-02;  2.3470356E+03;
  4.4242695E-01;  9.9999998E-03; -6.0006261E-02;5154;  3.4706119E-01;  0.0000000E+00;  4.5287237E-03;  9.9822156E+02;  1.0000000E-01; -1.4733896E+03;3; -2.5564066E+01;  0.0000000E+00; -7.5985889E+00;0; -6.4839646E-02;  3.9841461E+04;  0.0000000E+00;  2.9978279E-03;  4.0000000E+04;  0.0000000E+00;  4.0016770E+04; -1.4806980E-02;  0.0000000E+00; -5.0032664E-02;  2.2314529E+03;
  4.4240659E-01;  9.9999998E-03; -5.0004855E-02;5155;  3.4806517E-01;  0.0000000E+00;  3.9016749E-03;  9.9832385E+02;  1.0000000E-01; -1.3886514E+03;3; -2.6666332E+01;  0.0000000E+00; -6.6650047E+00;0; -6.2241118E-02;  3.9850180E+04;  0.0000000E+00;  2.0308853E-03;  4.0000000E+04;  0.0000000E+00;  4.0016180E+04; -1.0659016E-02;  0.0000000E+00; -5.1582102E-02;  2.1461265E+03;
  4.4239071E-01;  9.9999998E-03; -4.0003654E-02;5156;  3.4892482E-01;  0.0000000E+00;  3.2127060E-03;  9.9841040E+02;  1.0000000E-01; -1.3169497E+03;3; -2.7547907E+01;  0.0000000E+00; -5.5603943E+00;0; -5.9907928E-02;  3.9857492E+04;  0.0000000E+00;  1.2816467E-03;  4.0000000E+04;  0.0000000E+00;  4.0015680E+04; -6.9880132E-03;  0.0000000E+00; -5.2919917E-02;  2.0879854E+03;
  4.4237849E-01;  9.9999998E-03; -3.0002616E-02;5157;  3.4961957E-01;  0.0000000E+00;  2.4712509E-03;  9.9847766E+02;  1.0000000E-01; -1.2612476E+03;3; -2.8290047E+01;  0.0000000E+00; -4.1717677E+00;0; -5.7959773E-02;  3.9863121E+04;  0.0000000E+00;  7.1672990E-04;  4.0000000E+04;  0.0000000E+00;  4.0015477E+04; -3.9530313E-03;  0.0000000E+00; -5.4006740E-02;  2.0517834E+03;
  4.4236994E-01;  9.9999998E-03; -2.0001689E-02;5158;  3.5013592E-01;  0.0000000E+00;  1.6773607E-03;  9.9852765E+02;  1.0000000E-01; -1.2198167E+03;3; -2.8686897E+01;  0.0000000E+00; -2.8079019E+00;0; -5.6494597E-02;  3.9867188E+04;  0.0000000E+00;  3.1824046E-04;  4.0000000E+04;  0.0000000E+00;  4.0015375E+04; -1.6857847E-03;  0.0000000E+00; -5.4808814E-02;  2.0315391E+03;
  4.4236493E-01;  9.9999998E-03; -1.0000831E-02;5159;  3.5045457E-01;  0.0000000E+00;  8.4919791E-04;  9.9855859E+02;  1.0000000E-01; -1.1941879E+03;3; -2.8964737E+01;  0.0000000E+00; -1.3766695E+00;0; -5.5585522E-02;  3.9869742E+04;  0.0000000E+00;  7.9613936E-05;  4.0000000E+04;  0.0000000E+00;  4.0015270E+04; -2.8479160E-04;  0.0000000E+00; -5.5300731E-02;  2.0218972E+03;
  4.4236329E-01;  9.9999998E-03; -1.3870780E-10;5160;  3.5056376E-01;  0.0000000E+00;  5.4175127E-09;  9.9856830E+02;  1.0000000E-01; -1.1861387E+03;3; -2.8983463E+01;  0.0000000E+00; -2.3701477E-05;0; -5.5277176E-02;  3.9870566E+04;  0.0000000E+00; -4.6713859E-13;  4.0000000E+04;  0.0000000E+00;  4.0015336E+04;  1.8913034E-04;  0.0000000E+00; -5.5466305E-02;  2.0191210E+03;
  4.4236493E-01;  9.9999998E-03;  1.0000830E-02;5161;  3.5045457E-01;  0.0000000E+00; -8.4918755E-04;  9.9855859E+02;  1.0000000E-01; -1.1941879E+03;3; -2.8964695E+01;  0.0000000E+00;  1.3765842E+00;0; -5.5585526E-02;  3.9869742E+04;  0.0000000E+00;  7.9677535E-05;  4.0000000E+04;  0.0000000E+00;  4.0015270E+04; -2.8476559E-04;  0.0000000E+00; -5.5300761E-02;  2.0218955E+03;
  4.4236994E-01;  9.9999998E-03;  2.0001687E-02;5162;  3.5013595E-01;  0.0000000E+00; -1.6773526E-03;  9.9852765E+02;  1.0000000E-01; -1.2198167E+03;3; -2.8687065E+01;  0.0000000E+00;  2.8078263E+00;0; -5.6494605E-02;  3.9867188E+04;  0.0000000E+00;  3.1825059E-04;  4.0000000E+04;  0.0000000E+00;  4.0015375E+04; -1.6857325E-03;  0.0000000E+00; -5.4808874E-02;  2.0315358E+03;
  4.4237849E-01;  9.9999998E-03;  3.0002616E-02;5163;  3.4961963E-01;  0.0000000E+00; -2.4712447E-03;  9.9847766E+02;  1.0000000E-01; -1.2612476E+03;3; -2.8289816E+01;  0.0000000E+00;  4.1717052E+00;0; -5.7959761E-02;  3.9863121E+04;  0.0000000E+00;  7.1676198E-04;  4.0000000E+04;  0.0000000E+00;  4.0015477E+04; -3.9529763E-03;  0.0000000E+00; -5.4006785E-02;  2.0517905E+03;
  4.4239071E-01;  9.9999998E-03;  4.0003654E-02;5164;  3.4892485E-01;  0.0000000E+00; -3.2127029E-03;  9.9841040E+02;  1.0000000E-01; -1.3169497E+03;3; -2.7547964E+01;  0.0000000E+00;  5.5603566E+00;0; -5.9907913E-02;  3.9857488E+04;  0.0000000E+00;  1.2815489E-03;  4.0000000E+04;  0.0000000E+00;  4.0015680E+04; -6.9879349E-03;  0.0000000E+00; -5.2919980E-02;  2.0879902E+03;
  4.4240659E-01;  9.9999998E-03;  5.0004855E-02;5165;  3.4806520E-01;  0.0000000E+00; -3.9016725E-03;  9.9832391E+02;  1.0000000E-01; -1.3886019E+03;3; -2.6666330E+01;  0.0000000E+00;  6.6649752E+00;0; -6.2241070E-02;  3.9850180E+04;  0.0000000E+00;  2.0309812E-03;  4.0000000E+04;  0.0000000E+00;  4.0016180E+04; -1.0658925E-02;  0.0000000E+00; -5.1582143E-02;  2.1461274E+03;
  4.4242695E-01;  9.9999998E-03;  6.0006261E-02;5166;  3.4706125E-01;  0.0000000E+00; -4.5287274E-03;  9.9822156E+02;  1.0000000E-01; -1.4733896E+03;3; -2.5564356E+01;  0.0000000E+00;  7.5984726E+00;0; -6.4839676E-02;  3.9841461E+04;  0.0000000E+00;  2.9981160E-03;  4.0000000E+04;  0.0000000E+00;  4.0016770E+04; -1.4806890E-02;  0.0000000E+00; -5.0032787E-02;  2.2314482E+03;
  4.5256427E-01;  9.9999998E-03; -1.0000809E-01;5211;  3.4157807E-01;  0.0000000E+00;  6.0763420E-03;  9.9784338E+02;  1.0000000E-01; -1.7867140E+03;3; -2.3603621E+01;  0.0000000E+00; -1.0508029E+01;0; -7.8777067E-02;  3.9804227E+04;  0.0000000E+00;  7.0332927E-03;  4.0000000E+04;  0.0000000E+00;  4.0023371E+04; -3.9647862E-02;  0.0000000E+00; -3.9129205E-02;  3.0940649E+03;
  4.5251885E-01;  9.9999998E-03; -9.0006977E-02;5212;  3.4310094E-01;  0.0000000E+00;  5.6735761E-03;  9.9799182E+02;  1.0000000E-01; -1.6637545E+03;3; -2.4867643E+01;  0.0000000E+00; -1.0352048E+01;0; -7.6621853E-02;  3.9817398E+04;  0.0000000E+00;  6.2267026E-03;  4.0000000E+04;  0.0000000E+00;  4.0022246E+04; -3.5515986E-02;  0.0000000E+00; -4.1105866E-02;  2.9373789E+03;
  4.5248023E-01;  9.9999998E-03; -8.0005459E-02;5213;  3.4452900E-01;  0.0000000E+00;  5.2308384E-03;  9.9813770E+02;  1.0000000E-01; -1.5428691E+03;3; -2.6169333E+01;  0.0000000E+00; -1.0011715E+01;0; -7.4151188E-02;  3.9829906E+04;  0.0000000E+00;  5.1794592E-03;  4.0000000E+04;  0.0000000E+00;  4.0021242E+04; -3.1154759E-02;  0.0000000E+00; -4.2996429E-02;  2.7974468E+03;
  4.5244846E-01;  9.9999998E-03; -7.0003971E-02;5214;  3.4585002E-01;  0.0000000E+00;  4.7451518E-03;  9.9827582E+02;  1.0000000E-01; -1.4284526E+03;3; -2.7745918E+01;  0.0000000E+00; -9.3949423E+00;0; -7.1526252E-02;  3.9841824E+04;  0.0000000E+00;  4.0996880E-03;  4.0000000E+04;  0.0000000E+00;  4.0020379E+04; -2.6756497E-02;  0.0000000E+00; -4.4769756E-02;  2.6811365E+03;
  4.5242271E-01;  9.9999998E-03; -6.0002699E-02;5215;  3.4706739E-01;  0.0000000E+00;  4.2108367E-03;  9.9840179E+02;  1.0000000E-01; -1.3240607E+03;3; -2.9266056E+01;  0.0000000E+00; -8.4645061E+00;0; -6.8895377E-02;  3.9852594E+04;  0.0000000E+00;  3.0896459E-03;  4.0000000E+04;  0.0000000E+00;  4.0019727E+04; -2.2501811E-02;  0.0000000E+00; -4.6393566E-02;  2.5914539E+03;
  4.5240223E-01;  9.9999998E-03; -5.0001755E-02;5216;  3.4816071E-01;  0.0000000E+00;  3.6227896E-03;  9.9851489E+02;  1.0000000E-01; -1.2303843E+03;3; -3.0716465E+01;  0.0000000E+00; -7.2514763E+00;0; -6.6396840E-02;  3.9862000E+04;  0.0000000E+00;  2.1947848E-03;  4.0000000E+04;  0.0000000E+00;  4.0019277E+04; -1.8561317E-02;  0.0000000E+00; -4.7835525E-02;  2.5278433E+03;
  4.5238644E-01;  9.9999998E-03; -4.0001091E-02;5217;  3.4911275E-01;  0.0000000E+00;  2.9782052E-03;  9.9861182E+02;  1.0000000E-01; -1.1500903E+03;3; -3.1757059E+01;  0.0000000E+00; -5.9472980E+00;0; -6.4157613E-02;  3.9870066E+04;  0.0000000E+00;  1.4348241E-03;  4.0000000E+04;  0.0000000E+00;  4.0019062E+04; -1.5092853E-02;  0.0000000E+00; -4.9064763E-02;  2.4868625E+03;
  4.5237505E-01;  9.9999998E-03; -3.0000633E-02;5218;  3.4988597E-01;  0.0000000E+00;  2.2827203E-03;  9.9869037E+02;  1.0000000E-01; -1.0850057E+03;3; -3.2604115E+01;  0.0000000E+00; -4.4919353E+00;0; -6.2289651E-02;  3.9876266E+04;  0.0000000E+00;  8.2281267E-04;  4.0000000E+04;  0.0000000E+00;  4.0018934E+04; -1.2236687E-02;  0.0000000E+00; -5.0052963E-02;  2.4633896E+03;
  4.5236737E-01;  9.9999998E-03; -2.0000331E-02;5219;  3.5045817E-01;  0.0000000E+00;  1.5441822E-03;  9.9874628E+02;  1.0000000E-01; -1.0386862E+03;3; -3.3162685E+01;  0.0000000E+00; -3.0439801E+00;0; -6.0885347E-02;  3.9880934E+04;  0.0000000E+00;  3.7138019E-04;  4.0000000E+04;  0.0000000E+00;  4.0018867E+04; -1.0108753E-02;  0.0000000E+00; -5.0776593E-02;  2.4518022E+03;
  4.5236290E-01;  9.9999998E-03; -1.0000143E-02;5220;  3.5081279E-01;  0.0000000E+00;  7.8165648E-04;  9.9878027E+02;  1.0000000E-01; -1.0105388E+03;3; -3.3434448E+01;  0.0000000E+00; -1.4640932E+00;0; -6.0013860E-02;  3.9883707E+04;  0.0000000E+00;  9.3772149E-05;  4.0000000E+04;  0.0000000E+00;  4.0018867E+04; -8.7958742E-03;  0.0000000E+00; -5.1217988E-02;  2.4471326E+03;
  4.5236140E-01;  9.9999998E-03; -1.1140658E-10;5221;  3.5093084E-01;  0.0000000E+00;  3.7932515E-09;  9.9879260E+02;  1.0000000E-01; -1.0003168E+03;3; -3.3512859E+01;  0.0000000E+00; -2.5533973E-05;0; -5.9718449E-02;  3.9884605E+04;  0.0000000E+00; -5.1634386E-13;  4.0000000E+04;  0.0000000E+00;  4.0018852E+04; -8.3521260E-03;  0.0000000E+00; -5.1366322E-02;  2.4459746E+03;
  4.5236290E-01;  9.9999998E-03;  1.0000143E-02;5222;  3.5081279E-01;  0.0000000E+00; -7.8164757E-04;  9.9878015E+02;  1.0000000E-01; -1.0106376E+03;3; -3.3434429E+01;  0.0000000E+00;  1.4640553E+00;0; -6.0013819E-02;  3.9883707E+04;  0.0000000E+00;  9.3821734E-05;  4.0000000E+04;  0.0000000E+00;  4.0018867E+04; -8.7958639E-03;  0.0000000E+00; -5.1217955E-02;  2.4471299E+03;
  4.5236737E-01;  9.9999998E-03;  2.0000331E-02;5223;  3.5045817E-01;  0.0000000E+00; -1.5441739E-03;  9.9874628E+02;  1.0000000E-01; -1.0386862E+03;3; -3.3162460E+01;  0.0000000E+00;  3.0439515E+00;0; -6.0885295E-02;  3.9880934E+04;  0.0000000E+00;  3.7141537E-04;  4.0000000E+04;  0.0000000E+00;  4.0018871E+04; -1.0108696E-02;  0.0000000E+00; -5.0776597E-02;  2.4517961E+03;
  4.5237505E-01;  9.9999998E-03;  3.0000631E-02;5224;  3.4988600E-01;  0.0000000E+00; -2.2827161E-03;  9.9869037E+02;  1.0000000E-01; -1.0850057E+03;3; -3.2604206E+01;  0.0000000E+00;  4.4919524E+00;0; -6.2289629E-02;  3.9876270E+04;  0.0000000E+00;  8.2267827E-04;  4.0000000E+04;  0.0000000E+00;  4.0018934E+04; -1.2236632E-02;  0.0000000E+00; -5.0052997E-02;  2.4633945E+03;
  4.5238644E-01;  9.9999998E-03;  4.0001091E-02;5225;  3.4911278E-01;  0.0000000E+00; -2.9782038E-03;  9.9861182E+02;  1.0000000E-01; -1.1500903E+03;3; -3.1757423E+01;  0.0000000E+00;  5.9472222E+00;0; -6.4157538E-02;  3.9870066E+04;  0.0000000E+00;  1.4356519E-03;  4.0000000E+04;  0.0000000E+00;  4.0019062E+04; -1.5092758E-02;  0.0000000E+00; -4.9064778E-02;  2.4868618E+03;
  4.5240223E-01;  9.9999998E-03;  5.0001752E-02;5226;  3.4816074E-01;  0.0000000E+00; -3.6227885E-03;  9.9851495E+02;  1.0000000E-01; -1.2303350E+03;3; -3.0715977E+01;  0.0000000E+00;  7.2514224E+00;0; -6.6396818E-02;  3.9862000E+04;  0.0000000E+00;  2.1950612E-03;  4.0000000E+04;  0.0000000E+00;  4.0019277E+04; -1.8561216E-02;  0.0000000E+00; -4.7835600E-02;  2.5278433E+03;
  4.5242271E-01;  9.9999998E-03;  6.0002699E-02;5227;  3.4706745E-01;  0.0000000E+00; -4.2108432E-03;  9.9840179E+02;  1.0000000E-01; -1.3240607E+03;3; -2.9265888E+01;  0.0000000E+00;  8.4644308E+00;0; -6.8895340E-02;  3.9852594E+04;  0.0000000E+00;  3.0910901E-03;  4.0000000E+04;  0.0000000E+00;  4.0019727E+04; -2.2501726E-02;  0.0000000E+00; -4.6393611E-02;  2.5914492E+03;
  4.6257064E-01;  9.9999998E-03; -9.9994414E-02;5272;  3.4108528E-01;  0.0000000E+00;  5.4370230E-03;  9.9788934E+02;  1.0000000E-01; -1.7486409E+03;3; -2.4758732E+01;  0.0000000E+00; -1.0475522E+01;0; -8.3339229E-02;  3.9805332E+04;  0.0000000E+00;  2.1123679E-03;  4.0000000E+04;  0.0000000E+00;  4.0025805E+04; -4.7858916E-02;  0.0000000E+00; -3.5480317E-02;  3.4022419E+03;
  4.6252435E-01;  9.9999998E-03; -8.9994453E-02;5273;  3.4267890E-01;  0.0000000E+00;  5.0528171E-03;  9.9803979E+02;  1.0000000E-01; -1.6240024E+03;3; -2.5772932E+01;  0.0000000E+00; -1.0157753E+01;0; -8.1226766E-02;  3.9818207E+04;  0.0000000E+00;  2.8960721E-03;  4.0000000E+04;  0.0000000E+00;  4.0025012E+04; -4.3906461E-02;  0.0000000E+00; -3.7320301E-02;  3.2854075E+03;
  4.6248555E-01;  9.9999998E-03; -7.9994239E-02;5274;  3.4416041E-01;  0.0000000E+00;  4.6352767E-03;  9.9819012E+02;  1.0000000E-01; -1.4994629E+03;3; -2.7209171E+01;  0.0000000E+00; -9.7032394E+00;0; -7.8851067E-02;  3.9830758E+04;  0.0000000E+00;  2.9742927E-03;  4.0000000E+04;  0.0000000E+00;  4.0024285E+04; -3.9824393E-02;  0.0000000E+00; -3.9026674E-02;  3.1829827E+03;
  4.6245354E-01;  9.9999998E-03; -6.9994107E-02;5275;  3.4554288E-01;  0.0000000E+00;  4.1866284E-03;  9.9833295E+02;  1.0000000E-01; -1.3811453E+03;3; -2.8841642E+01;  0.0000000E+00; -8.9814186E+00;0; -7.6345414E-02;  3.9842816E+04;  0.0000000E+00;  2.6639185E-03;  4.0000000E+04;  0.0000000E+00;  4.0023754E+04; -3.5765149E-02;  0.0000000E+00; -4.0580265E-02;  3.1002473E+03;
  4.6242762E-01;  9.9999998E-03; -5.9994239E-02;5276;  3.4682316E-01;  0.0000000E+00;  3.6987951E-03;  9.9846655E+02;  1.0000000E-01; -1.2704325E+03;3; -3.0478559E+01;  0.0000000E+00; -8.0134468E+00;0; -7.3840529E-02;  3.9853914E+04;  0.0000000E+00;  2.1733625E-03;  4.0000000E+04;  0.0000000E+00;  4.0023371E+04; -3.1876817E-02;  0.0000000E+00; -4.1963708E-02;  3.0391479E+03;
  4.6240723E-01;  9.9999998E-03; -4.9994688E-02;5277;  3.4797478E-01;  0.0000000E+00;  3.1714311E-03;  9.9858752E+02;  1.0000000E-01; -1.1701885E+03;3; -3.1931629E+01;  0.0000000E+00; -6.8076229E+00;0; -7.1463704E-02;  3.9863762E+04;  0.0000000E+00;  1.6280810E-03;  4.0000000E+04;  0.0000000E+00;  4.0023109E+04; -2.8301962E-02;  0.0000000E+00; -4.3161742E-02;  2.9986621E+03;
  4.6239170E-01;  9.9999998E-03; -3.9995424E-02;5278;  3.4897831E-01;  0.0000000E+00;  2.5975641E-03;  9.9869226E+02;  1.0000000E-01; -1.0834255E+03;3; -3.3037159E+01;  0.0000000E+00; -5.5109143E+00;0; -6.9333628E-02;  3.9872195E+04;  0.0000000E+00;  1.1030874E-03;  4.0000000E+04;  0.0000000E+00;  4.0022996E+04; -2.5172761E-02;  0.0000000E+00; -4.4160869E-02;  2.9754043E+03;
  4.6238020E-01;  9.9999998E-03; -2.9996382E-02;5279;  3.4979722E-01;  0.0000000E+00;  1.9839942E-03;  9.9877576E+02;  1.0000000E-01; -1.0142423E+03;3; -3.3840290E+01;  0.0000000E+00; -4.1409020E+00;0; -6.7556009E-02;  3.9878992E+04;  0.0000000E+00;  6.4788514E-04;  4.0000000E+04;  0.0000000E+00;  4.0023027E+04; -2.2606175E-02;  0.0000000E+00; -4.4949837E-02;  2.9646780E+03;
  4.6237239E-01;  9.9999998E-03; -1.9997500E-02;5280;  3.5040310E-01;  0.0000000E+00;  1.3393301E-03;  9.9883801E+02;  1.0000000E-01; -9.6268823E+02;3; -3.4364758E+01;  0.0000000E+00; -2.7863433E+00;0; -6.6219062E-02;  3.9883898E+04;  0.0000000E+00;  2.9712846E-04;  4.0000000E+04;  0.0000000E+00;  4.0022957E+04; -2.0699445E-02;  0.0000000E+00; -4.5519616E-02;  2.9615234E+03;
  4.6236786E-01;  9.9999998E-03; -9.9987313E-03;5281;  3.5077408E-01;  0.0000000E+00;  6.7616912E-04;  9.9887585E+02;  1.0000000E-01; -9.3133112E+02;3; -3.4715286E+01;  0.0000000E+00; -1.3487945E+00;0; -6.5389171E-02;  3.9886953E+04;  0.0000000E+00;  7.5664408E-05;  4.0000000E+04;  0.0000000E+00;  4.0022996E+04; -1.9525304E-02;  0.0000000E+00; -4.5863863E-02;  2.9616052E+03;
  4.6236643E-01;  9.9999998E-03; -7.0122512E-11;5282;  3.5089824E-01;  0.0000000E+00;  2.3065314E-09;  9.9888843E+02;  1.0000000E-01; -9.2091168E+02;3; -3.4818623E+01;  0.0000000E+00; -3.6668858E-05;0; -6.5107822E-02;  3.9887898E+04;  0.0000000E+00; -1.3932067E-13;  4.0000000E+04;  0.0000000E+00;  4.0023035E+04; -1.9128837E-02;  0.0000000E+00; -4.5978986E-02;  2.9619719E+03;
  4.6236786E-01;  9.9999998E-03;  9.9987313E-03;5283;  3.5077405E-01;  0.0000000E+00; -6.7616475E-04;  9.9887585E+02;  1.0000000E-01; -9.3133112E+02;3; -3.4715622E+01;  0.0000000E+00;  1.3487494E+00;0; -6.5389149E-02;  3.9886953E+04;  0.0000000E+00;  7.5797230E-05;  4.0000000E+04;  0.0000000E+00;  4.0022996E+04; -1.9525288E-02;  0.0000000E+00; -4.5863863E-02;  2.9616064E+03;
  4.6237239E-01;  9.9999998E-03;  1.9997500E-02;5284;  3.5040316E-01;  0.0000000E+00; -1.3393266E-03;  9.9883801E+02;  1.0000000E-01; -9.6268823E+02;3; -3.4364964E+01;  0.0000000E+00;  2.7862530E+00;0; -6.6219091E-02;  3.9883902E+04;  0.0000000E+00;  2.9705995E-04;  4.0000000E+04;  0.0000000E+00;  4.0022953E+04; -2.0699417E-02;  0.0000000E+00; -4.5519672E-02;  2.9615205E+03;
  4.6238020E-01;  9.9999998E-03;  2.9996382E-02;5285;  3.4979725E-01;  0.0000000E+00; -1.9839921E-03;  9.9877576E+02;  1.0000000E-01; -1.0142423E+03;3; -3.3840317E+01;  0.0000000E+00;  4.1408663E+00;0; -6.7556031E-02;  3.9878992E+04;  0.0000000E+00;  6.4825668E-04;  4.0000000E+04;  0.0000000E+00;  4.0023027E+04; -2.2606116E-02;  0.0000000E+00; -4.4949915E-02;  2.9646855E+03;
  4.6239170E-01;  9.9999998E-03;  3.9995424E-02;5286;  3.4897834E-01;  0.0000000E+00; -2.5975648E-03;  9.9869226E+02;  1.0000000E-01; -1.0834255E+03;3; -3.3037132E+01;  0.0000000E+00;  5.5108929E+00;0; -6.9333628E-02;  3.9872191E+04;  0.0000000E+00;  1.1032510E-03;  4.0000000E+04;  0.0000000E+00;  4.0022992E+04; -2.5172701E-02;  0.0000000E+00; -4.4160925E-02;  2.9754023E+03;
  4.6240723E-01;  9.9999998E-03;  4.9994688E-02;5287;  3.4797481E-01;  0.0000000E+00; -3.1714372E-03;  9.9858752E+02;  1.0000000E-01; -1.1701885E+03;3; -3.1931961E+01;  0.0000000E+00;  6.8074608E+00;0; -7.1463659E-02;  3.9863762E+04;  0.0000000E+00;  1.6279166E-03;  4.0000000E+04;  0.0000000E+00;  4.0023109E+04; -2.8301882E-02;  0.0000000E+00; -4.3161780E-02;  2.9986670E+03;
  4.6242762E-01;  9.9999998E-03;  5.9994239E-02;5288;  3.4682322E-01;  0.0000000E+00; -3.6988030E-03;  9.9846649E+02;  1.0000000E-01; -1.2704818E+03;3; -3.0478809E+01;  0.0000000E+00;  8.0132551E+00;0; -7.3840469E-02;  3.9853918E+04;  0.0000000E+00;  2.1740990E-03;  4.0000000E+04;  0.0000000E+00;  4.0023371E+04; -3.1876732E-02;  0.0000000E+00; -4.1963737E-02;  3.0391545E+03;
  4.7258127E-01;  9.9999998E-03; -9.9975772E-02;5333;  3.4051779E-01;  0.0000000E+00;  4.6739615E-03;  9.9783020E+02;  1.0000000E-01; -1.7976267E+03;3; -2.5409798E+01;  0.0000000E+00; -9.8143969E+00;0; -8.8353366E-02;  3.9797625E+04;  0.0000000E+00; -4.4393591E-03;  4.0000000E+04;  0.0000000E+00;  4.0028547E+04; -5.6742832E-02;  0.0000000E+00; -3.1610537E-02;  3.7534788E+03;
  4.7253263E-01;  9.9999998E-03; -8.9977652E-02;5334;  3.4216210E-01;  0.0000000E+00;  4.3149935E-03;  9.9797717E+02;  1.0000000E-01; -1.6758524E+03;3; -2.6516510E+01;  0.0000000E+00; -9.4213200E+00;0; -8.6341396E-02;  3.9809797E+04;  0.0000000E+00; -2.0298832E-03;  4.0000000E+04;  0.0000000E+00;  4.0028105E+04; -5.3165827E-02;  0.0000000E+00; -3.3175569E-02;  3.6828938E+03;
  4.7249126E-01;  9.9999998E-03; -7.9979390E-02;5335;  3.4369874E-01;  0.0000000E+00;  3.9324127E-03;  9.9812274E+02;  1.0000000E-01; -1.5552633E+03;3; -2.7884398E+01;  0.0000000E+00; -8.9004374E+00;0; -8.4086582E-02;  3.9821926E+04;  0.0000000E+00; -6.8119698E-04;  4.0000000E+04;  0.0000000E+00;  4.0027789E+04; -4.9535230E-02;  0.0000000E+00; -3.4551349E-02;  3.6227563E+03;
  4.7245672E-01;  9.9999998E-03; -6.9981225E-02;5336;  3.4513211E-01;  0.0000000E+00;  3.5294748E-03;  9.9826642E+02;  1.0000000E-01; -1.4362546E+03;3; -2.9589622E+01;  0.0000000E+00; -8.2262344E+00;0; -8.1706867E-02;  3.9833625E+04;  0.0000000E+00; -7.1858894E-06;  4.0000000E+04;  0.0000000E+00;  4.0027488E+04; -4.5970481E-02;  0.0000000E+00; -3.5736382E-02;  3.5768975E+03;
  4.7242856E-01;  9.9999998E-03; -5.9983287E-02;5337;  3.4645241E-01;  0.0000000E+00;  3.1004236E-03;  9.9840155E+02;  1.0000000E-01; -1.3243073E+03;3; -3.1311411E+01;  0.0000000E+00; -7.2891130E+00;0; -7.9323769E-02;  3.9844621E+04;  0.0000000E+00;  2.6874981E-04;  4.0000000E+04;  0.0000000E+00;  4.0027359E+04; -4.2589515E-02;  0.0000000E+00; -3.6734257E-02;  3.5463879E+03;
  4.7240630E-01;  9.9999998E-03; -4.9985610E-02;5338;  3.4764558E-01;  0.0000000E+00;  2.6447813E-03;  9.9852686E+02;  1.0000000E-01; -1.2204584E+03;3; -3.2782013E+01;  0.0000000E+00; -6.1807408E+00;0; -7.7058122E-02;  3.9854535E+04;  0.0000000E+00;  3.2559180E-04;  4.0000000E+04;  0.0000000E+00;  4.0027281E+04; -3.9505638E-02;  0.0000000E+00; -3.7552480E-02;  3.5299624E+03;
  4.7238913E-01;  9.9999998E-03; -3.9988164E-02;5339;  3.4868205E-01;  0.0000000E+00;  2.1562751E-03;  9.9863342E+02;  1.0000000E-01; -1.1321647E+03;3; -3.3929298E+01;  0.0000000E+00; -4.9561901E+00;0; -7.5023606E-02;  3.9863051E+04;  0.0000000E+00;  2.7359065E-04;  4.0000000E+04;  0.0000000E+00;  4.0027359E+04; -3.6822908E-02;  0.0000000E+00; -3.8200695E-02;  3.5246160E+03;
  4.7237629E-01;  9.9999998E-03; -2.9990934E-02;5340;  3.4952480E-01;  0.0000000E+00;  1.6412270E-03;  9.9872150E+02;  1.0000000E-01; -1.0592285E+03;3; -3.4723610E+01;  0.0000000E+00; -3.7229555E+00;0; -7.3322922E-02;  3.9870004E+04;  0.0000000E+00;  1.8112177E-04;  4.0000000E+04;  0.0000000E+00;  4.0027379E+04; -3.4633081E-02;  0.0000000E+00; -3.8689837E-02;  3.5264026E+03;
  4.7236741E-01;  9.9999998E-03; -1.9993873E-02;5341;  3.5014769E-01;  0.0000000E+00;  1.1057035E-03;  9.9878564E+02;  1.0000000E-01; -1.0060942E+03;3; -3.5263321E+01;  0.0000000E+00; -2.4786520E+00;0; -7.2042048E-02;  3.9874988E+04;  0.0000000E+00;  8.9041991E-05;  4.0000000E+04;  0.0000000E+00;  4.0027492E+04; -3.3011802E-02;  0.0000000E+00; -3.9030246E-02;  3.5312732E+03;
  4.7236225E-01;  9.9999998E-03; -9.9968985E-03;5342;  3.5053027E-01;  0.0000000E+00;  5.5556977E-04;  9.9882611E+02;  1.0000000E-01; -9.7256433E+02;3; -3.5558586E+01;  0.0000000E+00; -1.2372265E+00;0; -7.1246214E-02;  3.9878328E+04;  0.0000000E+00;  2.3535229E-05;  4.0000000E+04;  0.0000000E+00;  4.0027535E+04; -3.2015748E-02;  0.0000000E+00; -3.9230466E-02;  3.5357576E+03;
  4.7236052E-01;  9.9999998E-03; -1.8999207E-11;5343;  3.5065788E-01;  0.0000000E+00; -2.5584132E-10;  9.9883868E+02;  1.0000000E-01; -9.6214490E+02;3; -3.5680141E+01;  0.0000000E+00; -3.4119843E-05;0; -7.0976257E-02;  3.9879234E+04;  0.0000000E+00; -5.3762073E-13;  4.0000000E+04;  0.0000000E+00;  4.0027562E+04; -3.1679746E-02;  0.0000000E+00; -3.9296508E-02;  3.5375186E+03;
  4.7236225E-01;  9.9999998E-03;  9.9968985E-03;5344;  3.5053027E-01;  0.0000000E+00; -5.5556814E-04;  9.9882605E+02;  1.0000000E-01; -9.7261371E+02;3; -3.5558445E+01;  0.0000000E+00;  1.2372162E+00;0; -7.1246147E-02;  3.9878328E+04;  0.0000000E+00;  2.3589168E-05;  4.0000000E+04;  0.0000000E+00;  4.0027535E+04; -3.2015704E-02;  0.0000000E+00; -3.9230440E-02;  3.5357542E+03;
  4.7236741E-01;  9.9999998E-03;  1.9993873E-02;5345;  3.5014769E-01;  0.0000000E+00; -1.1057053E-03;  9.9878564E+02;  1.0000000E-01; -1.0060942E+03;3; -3.5262974E+01;  0.0000000E+00;  2.4785924E+00;0; -7.2041988E-02;  3.9874988E+04;  0.0000000E+00;  8.9223649E-05;  4.0000000E+04;  0.0000000E+00;  4.0027492E+04; -3.3011742E-02;  0.0000000E+00; -3.9030243E-02;  3.5312766E+03;
  4.7237629E-01;  9.9999998E-03;  2.9990934E-02;5346;  3.4952480E-01;  0.0000000E+00; -1.6412289E-03;  9.9872150E+02;  1.0000000E-01; -1.0592285E+03;3; -3.4723713E+01;  0.0000000E+00;  3.7229300E+00;0; -7.3322944E-02;  3.9870004E+04;  0.0000000E+00;  1.8145995E-04;  4.0000000E+04;  0.0000000E+00;  4.0027379E+04; -3.4633022E-02;  0.0000000E+00; -3.8689923E-02;  3.5264021E+03;
  4.7238913E-01;  9.9999998E-03;  3.9988164E-02;5347;  3.4868208E-01;  0.0000000E+00; -2.1562790E-03;  9.9863342E+02;  1.0000000E-01; -1.1321647E+03;3; -3.3929195E+01;  0.0000000E+00;  4.9561749E+00;0; -7.5023636E-02;  3.9863051E+04;  0.0000000E+00;  2.7379926E-04;  4.0000000E+04;  0.0000000E+00;  4.0027359E+04; -3.6822885E-02;  0.0000000E+00; -3.8200755E-02;  3.5246152E+03;
  4.7240630E-01;  9.9999998E-03;  4.9985610E-02;5348;  3.4764564E-01;  0.0000000E+00; -2.6447866E-03;  9.9852686E+02;  1.0000000E-01; -1.2204584E+03;3; -3.2781830E+01;  0.0000000E+00;  6.1806340E+00;0; -7.7058062E-02;  3.9854535E+04;  0.0000000E+00;  3.2497250E-04;  4.0000000E+04;  0.0000000E+00;  4.0027281E+04; -3.9505549E-02;  0.0000000E+00; -3.7552509E-02;  3.5299680E+03;
  4.7242856E-01;  9.9999998E-03;  5.9983287E-02;5349;  3.4645244E-01;  0.0000000E+00; -3.1004315E-03;  9.9840155E+02;  1.0000000E-01; -1.3243073E+03;3; -3.1311672E+01;  0.0000000E+00;  7.2890635E+00;0; -7.9323739E-02;  3.9844621E+04;  0.0000000E+00;  2.6955915E-04;  4.0000000E+04;  0.0000000E+00;  4.0027359E+04; -4.2589407E-02;  0.0000000E+00; -3.6734328E-02;  3.5463894E+03;
  4.8258880E-01;  9.9999998E-03; -9.9956222E-02;5394;  3.3986473E-01;  0.0000000E+00;  3.8314518E-03;  9.9768030E+02;  1.0000148E-01; -1.9218204E+03;3; -2.6256317E+01;  0.0000000E+00; -9.0156012E+00;0; -9.3605042E-02;  3.9781637E+04;  0.0000000E+00; -1.1738660E-02;  4.0000000E+04;  0.0000000E+00;  4.0031402E+04; -6.6084936E-02;  0.0000000E+00; -2.7520105E-02;  4.1155190E+03;
  4.8253599E-01;  9.9999998E-03; -8.9960113E-02;5395;  3.4156078E-01;  0.0000000E+00;  3.5049834E-03;  9.9781610E+02;  1.0000148E-01; -1.8093300E+03;3; -2.7309835E+01;  0.0000000E+00; -8.5211926E+00;0; -9.1703415E-02;  3.9792656E+04;  0.0000000E+00; -7.8743640E-03;  4.0000000E+04;  0.0000000E+00;  4.0031246E+04; -6.3031524E-02;  0.0000000E+00; -2.8671889E-02;  4.0950764E+03;
  4.8249078E-01;  9.9999998E-03; -7.9963945E-02;5396;  3.4314829E-01;  0.0000000E+00;  3.1681086E-03;  9.9795367E+02;  1.0000142E-01; -1.6953579E+03;3; -2.8586679E+01;  0.0000000E+00; -7.9728379E+00;0; -8.9558564E-02;  3.9803598E+04;  0.0000000E+00; -5.2788518E-03;  4.0000000E+04;  0.0000000E+00;  4.0031312E+04; -5.9985463E-02;  0.0000000E+00; -2.9573100E-02;  4.0801318E+03;
  4.8245242E-01;  9.9999998E-03; -6.9967896E-02;5397;  3.4461638E-01;  0.0000000E+00;  2.8176620E-03;  9.9809131E+02;  1.0000142E-01; -1.5813365E+03;3; -3.0168911E+01;  0.0000000E+00; -7.3187795E+00;0; -8.7280922E-02;  3.9814523E+04;  0.0000000E+00; -3.5383883E-03;  4.0000000E+04;  0.0000000E+00;  4.0031305E+04; -5.7036187E-02;  0.0000000E+00; -3.0244734E-02;  4.0730532E+03;
  4.8242036E-01;  9.9999998E-03; -5.9972037E-02;5398;  3.4596300E-01;  0.0000000E+00;  2.4563447E-03;  9.9822205E+02;  1.0000145E-01; -1.4729940E+03;3; -3.1876501E+01;  0.0000000E+00; -6.5051389E+00;0; -8.4987529E-02;  3.9824883E+04;  0.0000000E+00; -2.3546119E-03;  4.0000000E+04;  0.0000000E+00;  4.0031434E+04; -5.4271132E-02;  0.0000000E+00; -3.0716395E-02;  4.0741531E+03;
  4.8239425E-01;  9.9999998E-03; -4.9976420E-02;5399;  3.4717661E-01;  0.0000000E+00;  2.0806231E-03;  9.9834430E+02;  1.0000148E-01; -1.3717130E+03;3; -3.3394547E+01;  0.0000000E+00; -5.4864154E+00;0; -8.2796633E-02;  3.9834398E+04;  0.0000000E+00; -1.5261334E-03;  4.0000000E+04;  0.0000000E+00;  4.0031574E+04; -5.1773172E-02;  0.0000000E+00; -3.1023458E-02;  4.0820928E+03;
  4.8237363E-01;  9.9999998E-03; -3.9981019E-02;5400;  3.4822804E-01;  0.0000000E+00;  1.6892570E-03;  9.9844879E+02;  1.0000148E-01; -1.2851477E+03;3; -3.4487732E+01;  0.0000000E+00; -4.3943362E+00;0; -8.0821410E-02;  3.9842738E+04;  0.0000000E+00; -9.3301857E-04;  4.0000000E+04;  0.0000000E+00;  4.0031723E+04; -4.9617346E-02;  0.0000000E+00; -3.1204062E-02;  4.0944524E+03;
  4.8235792E-01;  9.9999998E-03; -2.9985754E-02;5401;  3.4908465E-01;  0.0000000E+00;  1.2802692E-03;  9.9853668E+02;  1.0000148E-01; -1.2123103E+03;3; -3.5279011E+01;  0.0000000E+00; -3.2832367E+00;0; -7.9164557E-02;  3.9849602E+04;  0.0000000E+00; -5.0985423E-04;  4.0000000E+04;  0.0000000E+00;  4.0031914E+04; -4.7868438E-02;  0.0000000E+00; -3.1296119E-02;  4.1082949E+03;
  4.8234692E-01;  9.9999998E-03; -1.9990508E-02;5402;  3.4971607E-01;  0.0000000E+00;  8.5975981E-04;  9.9860260E+02;  1.0000151E-01; -1.1576946E+03;3; -3.5798717E+01;  0.0000000E+00; -2.1817999E+00;0; -7.7913418E-02;  3.9854594E+04;  0.0000000E+00; -2.2247157E-04;  4.0000000E+04;  0.0000000E+00;  4.0032055E+04; -4.6579652E-02;  0.0000000E+00; -3.1333767E-02;  4.1206895E+03;
  4.8234048E-01;  9.9999998E-03; -9.9952593E-03;5403;  3.5010257E-01;  0.0000000E+00;  4.3151173E-04;  9.9864075E+02;  1.0000148E-01; -1.1260906E+03;3; -3.6077213E+01;  0.0000000E+00; -1.0959507E+00;0; -7.7134699E-02;  3.9857734E+04;  0.0000000E+00; -5.5051380E-05;  4.0000000E+04;  0.0000000E+00;  4.0032168E+04; -4.5790337E-02;  0.0000000E+00; -3.1344365E-02;  4.1292295E+03;
  4.8233834E-01;  9.9999998E-03;  2.2110480E-11;5404;  3.5023367E-01;  0.0000000E+00; -1.1535625E-09;  9.9865411E+02;  1.0000145E-01; -1.1150292E+03;3; -3.6198128E+01;  0.0000000E+00; -1.6664242E-05;0; -7.6870367E-02;  3.9858754E+04;  0.0000000E+00; -7.0622266E-14;  4.0000000E+04;  0.0000000E+00;  4.0032230E+04; -4.5524482E-02;  0.0000000E+00; -3.1345882E-02;  4.1322427E+03;
  4.8234048E-01;  9.9999998E-03;  9.9952593E-03;5405;  3.5010254E-01;  0.0000000E+00; -4.3151568E-04;  9.9864069E+02;  1.0000148E-01; -1.1261893E+03;3; -3.6077034E+01;  0.0000000E+00;  1.0958942E+00;0; -7.7134743E-02;  3.9857734E+04;  0.0000000E+00; -5.5108099E-05;  4.0000000E+04;  0.0000000E+00;  4.0032168E+04; -4.5790341E-02;  0.0000000E+00; -3.1344406E-02;  4.1292241E+03;
  4.8234692E-01;  9.9999998E-03;  1.9990508E-02;5406;  3.4971613E-01;  0.0000000E+00; -8.5976353E-04;  9.9860260E+02;  1.0000151E-01; -1.1576946E+03;3; -3.5798985E+01;  0.0000000E+00;  2.1817462E+00;0; -7.7913418E-02;  3.9854594E+04;  0.0000000E+00; -2.2243171E-04;  4.0000000E+04;  0.0000000E+00;  4.0032055E+04; -4.6579607E-02;  0.0000000E+00; -3.1333812E-02;  4.1206938E+03;
  4.8235792E-01;  9.9999998E-03;  2.9985754E-02;5407;  3.4908468E-01;  0.0000000E+00; -1.2802770E-03;  9.9853668E+02;  1.0000148E-01; -1.2123103E+03;3; -3.5279045E+01;  0.0000000E+00;  3.2831483E+00;0; -7.9164535E-02;  3.9849598E+04;  0.0000000E+00; -5.1008741E-04;  4.0000000E+04;  0.0000000E+00;  4.0031914E+04; -4.7868386E-02;  0.0000000E+00; -3.1296153E-02;  4.1082964E+03;
  4.8237363E-01;  9.9999998E-03;  3.9981019E-02;5408;  3.4822807E-01;  0.0000000E+00; -1.6892629E-03;  9.9844879E+02;  1.0000148E-01; -1.2851477E+03;3; -3.4487679E+01;  0.0000000E+00;  4.3942833E+00;0; -8.0821395E-02;  3.9842738E+04;  0.0000000E+00; -9.3281415E-04;  4.0000000E+04;  0.0000000E+00;  4.0031723E+04; -4.9617283E-02;  0.0000000E+00; -3.1204114E-02;  4.0944597E+03;
  4.8239425E-01;  9.9999998E-03;  4.9976420E-02;5409;  3.4717664E-01;  0.0000000E+00; -2.0806349E-03;  9.9834430E+02;  1.0000148E-01; -1.3717130E+03;3; -3.3394363E+01;  0.0000000E+00;  5.4862971E+00;0; -8.2796544E-02;  3.9834395E+04;  0.0000000E+00; -1.5244448E-03;  4.0000000E+04;  0.0000000E+00;  4.0031578E+04; -5.1773075E-02;  0.0000000E+00; -3.1023465E-02;  4.0820891E+03;
  4.8242036E-01;  9.9999998E-03;  5.9972037E-02;5410;  3.4596303E-01;  0.0000000E+00; -2.4563542E-03;  9.9822205E+02;  1.0000145E-01; -1.4729940E+03;3; -3.1876280E+01;  0.0000000E+00;  6.5051284E+00;0; -8.4987469E-02;  3.9824875E+04;  0.0000000E+00; -2.3540061E-03;  4.0000000E+04;  0.0000000E+00;  4.0031434E+04; -5.4271001E-02;  0.0000000E+00; -3.0716470E-02;  4.0741519E+03;
  4.9231461E-01;  9.9999998E-03; -9.9938894E-03;5464;  3.4950805E-01;  0.0000000E+00;  3.0617847E-04;  9.9831531E+02;  1.0000206E-01; -1.3957123E+03;3; -3.6547283E+01;  0.0000000E+00; -9.6822762E-01;0; -8.2673497E-02;  3.9826801E+04;  0.0000000E+00; -1.4486507E-04;  4.0000000E+04;  0.0000000E+00;  4.0036477E+04; -6.0430042E-02;  0.0000000E+00; -2.2243457E-02;  4.6953594E+03;
  4.9231207E-01;  9.9999998E-03;  6.0580457E-11;5465;  3.4963951E-01;  0.0000000E+00; -4.5527977E-09;  9.9832788E+02;  1.0000201E-01; -1.3853422E+03;3; -3.6640747E+01;  0.0000000E+00; -1.9063811E-05;0; -8.2406849E-02;  3.9827707E+04;  0.0000000E+00; -4.2849943E-14;  4.0000000E+04;  0.0000000E+00;  4.0036512E+04; -6.0241599E-02;  0.0000000E+00; -2.2165246E-02;  4.6994995E+03;
  4.9231461E-01;  9.9999998E-03;  9.9938894E-03;5466;  3.4950802E-01;  0.0000000E+00; -3.0618598E-04;  9.9831525E+02;  1.0000206E-01; -1.3957616E+03;3; -3.6547112E+01;  0.0000000E+00;  9.6817917E-01;0; -8.2673475E-02;  3.9826805E+04;  0.0000000E+00; -1.4487917E-04;  4.0000000E+04;  0.0000000E+00;  4.0036477E+04; -6.0430024E-02;  0.0000000E+00; -2.2243449E-02;  4.6953623E+03;
  4.9232218E-01;  9.9999998E-03; -1.9987758E-02;5463;  3.4911928E-01;  0.0000000E+00;  6.1077933E-04;  9.9827777E+02;  1.0000205E-01; -1.4268224E+03;3; -3.6249134E+01;  0.0000000E+00; -1.9326434E+00;0; -8.3458081E-02;  3.9823828E+04;  0.0000000E+00; -5.7774648E-04;  4.0000000E+04;  0.0000000E+00;  4.0036277E+04; -6.0991179E-02;  0.0000000E+00; -2.2466902E-02;  4.6832197E+03;
  4.9232218E-01;  9.9999998E-03;  1.9987758E-02;5467;  3.4911934E-01;  0.0000000E+00; -6.1078742E-04;  9.9827765E+02;  1.0000205E-01; -1.4269213E+03;3; -3.6249290E+01;  0.0000000E+00;  1.9326394E+00;0; -8.3458103E-02;  3.9823828E+04;  0.0000000E+00; -5.7759316E-04;  4.0000000E+04;  0.0000000E+00;  4.0036277E+04; -6.0991146E-02;  0.0000000E+00; -2.2466956E-02;  4.6832285E+03;
  4.9233514E-01;  9.9999998E-03; -2.9981542E-02;5462;  3.4848422E-01;  0.0000000E+00;  9.1220607E-04;  9.9821503E+02;  1.0000210E-01; -1.4788209E+03;3; -3.5727924E+01;  0.0000000E+00; -2.9078214E+00;0; -8.4715575E-02;  3.9819125E+04;  0.0000000E+00; -1.2948829E-03;  4.0000000E+04;  0.0000000E+00;  4.0036062E+04; -6.1912384E-02;  0.0000000E+00; -2.2803195E-02;  4.6638696E+03;
  4.9233514E-01;  9.9999998E-03;  2.9981542E-02;5468;  3.4848425E-01;  0.0000000E+00; -9.1221643E-04;  9.9821503E+02;  1.0000210E-01; -1.4788209E+03;3; -3.5727982E+01;  0.0000000E+00;  2.9078066E+00;0; -8.4715568E-02;  3.9819125E+04;  0.0000000E+00; -1.2946262E-03;  4.0000000E+04;  0.0000000E+00;  4.0036062E+04; -6.1912365E-02;  0.0000000E+00; -2.2803200E-02;  4.6638716E+03;
  4.9235356E-01;  9.9999998E-03; -3.9975207E-02;5461;  3.4762499E-01;  0.0000000E+00;  1.2098410E-03;  9.9813190E+02;  1.0000205E-01; -1.5477078E+03;3; -3.4902725E+01;  0.0000000E+00; -3.8493490E+00;0; -8.6374536E-02;  3.9812832E+04;  0.0000000E+00; -2.2957602E-03;  4.0000000E+04;  0.0000000E+00;  4.0035867E+04; -6.3172139E-02;  0.0000000E+00; -2.3202395E-02;  4.6386514E+03;
  4.9235356E-01;  9.9999998E-03;  3.9975207E-02;5469;  3.4762502E-01;  0.0000000E+00; -1.2098543E-03;  9.9813196E+02;  1.0000205E-01; -1.5476584E+03;3; -3.4902615E+01;  0.0000000E+00;  3.8493488E+00;0; -8.6374491E-02;  3.9812832E+04;  0.0000000E+00; -2.2956219E-03;  4.0000000E+04;  0.0000000E+00;  4.0035867E+04; -6.3172042E-02;  0.0000000E+00; -2.3202449E-02;  4.6386528E+03;
  4.9237779E-01;  9.9999998E-03; -4.9968775E-02;5460;  3.4657061E-01;  0.0000000E+00;  1.5018038E-03;  9.9803302E+02;  1.0000209E-01; -1.6295819E+03;3; -3.3750298E+01;  0.0000000E+00; -4.8340354E+00;0; -8.8342547E-02;  3.9805129E+04;  0.0000000E+00; -3.5949268E-03;  4.0000000E+04;  0.0000000E+00;  4.0035516E+04; -6.4740807E-02;  0.0000000E+00; -2.3601744E-02;  4.6092236E+03;
  4.9237779E-01;  9.9999998E-03;  4.9968775E-02;5470;  3.4657067E-01;  0.0000000E+00; -1.5018106E-03;  9.9803302E+02;  1.0000209E-01; -1.6295819E+03;3; -3.3751221E+01;  0.0000000E+00;  4.8340206E+00;0; -8.8342547E-02;  3.9805129E+04;  0.0000000E+00; -3.5955126E-03;  4.0000000E+04;  0.0000000E+00;  4.0035516E+04; -6.4740762E-02;  0.0000000E+00; -2.3601782E-02;  4.6092266E+03;
  4.9240819E-01;  9.9999998E-03; -5.9962291E-02;5459;  3.4535038E-01;  0.0000000E+00;  1.7897417E-03;  9.9792059E+02;  1.0000206E-01; -1.7227644E+03;3; -3.2257778E+01;  0.0000000E+00; -5.7013631E+00;0; -9.0512425E-02;  3.9796426E+04;  0.0000000E+00; -5.2405619E-03;  4.0000000E+04;  0.0000000E+00;  4.0035227E+04; -6.6581368E-02;  0.0000000E+00; -2.3931056E-02;  4.5773833E+03;
  4.9240819E-01;  9.9999998E-03;  5.9962291E-02;5471;  3.4535044E-01;  0.0000000E+00; -1.7897551E-03;  9.9792059E+02;  1.0000206E-01; -1.7227644E+03;3; -3.2258091E+01;  0.0000000E+00;  5.7013769E+00;0; -9.0512365E-02;  3.9796426E+04;  0.0000000E+00; -5.2415910E-03;  4.0000000E+04;  0.0000000E+00;  4.0035227E+04; -6.6581242E-02;  0.0000000E+00; -2.3931121E-02;  4.5773906E+03;
  4.9244496E-01;  9.9999998E-03; -6.9955938E-02;5458;  3.4398544E-01;  0.0000000E+00;  2.0777564E-03;  9.9779950E+02;  1.0000208E-01; -1.8230577E+03;3; -3.0682835E+01;  0.0000000E+00; -6.4187398E+00;0; -9.2767835E-02;  3.9787023E+04;  0.0000000E+00; -7.3384792E-03;  4.0000000E+04;  0.0000000E+00;  4.0034859E+04; -6.8648800E-02;  0.0000000E+00; -2.4119033E-02;  4.5449092E+03;
  4.9248832E-01;  9.9999998E-03; -7.9949863E-02;5457;  3.4248564E-01;  0.0000000E+00;  2.3658120E-03;  9.9767535E+02;  1.0000210E-01; -1.9259189E+03;3; -2.9354328E+01;  0.0000000E+00; -7.0427861E+00;0; -9.4989225E-02;  3.9777492E+04;  0.0000000E+00; -1.0072097E-02;  4.0000000E+04;  0.0000000E+00;  4.0034426E+04; -7.0891410E-02;  0.0000000E+00; -2.4097817E-02;  4.5130356E+03;
  4.9253854E-01;  9.9999998E-03; -8.9944050E-02;5456;  3.4085825E-01;  0.0000000E+00;  2.6502579E-03;  9.9755109E+02;  1.0000204E-01; -2.0288789E+03;3; -2.8221004E+01;  0.0000000E+00; -7.6398301E+00;0; -9.7060308E-02;  3.9767973E+04;  0.0000000E+00; -1.3726255E-02;  4.0000000E+04;  0.0000000E+00;  4.0034219E+04; -7.3252082E-02;  0.0000000E+00; -2.3808230E-02;  4.4822422E+03;
  4.9259612E-01;  9.9999998E-03; -9.9938400E-02;5455;  3.3911633E-01;  0.0000000E+00;  2.9319585E-03;  9.9743335E+02;  1.0000208E-01; -2.1264070E+03;3; -2.7237106E+01;  0.0000000E+00; -8.2172699E+00;0; -9.8873466E-02;  3.9758918E+04;  0.0000000E+00; -1.8673396E-02;  4.0000000E+04;  0.0000000E+00;  4.0033938E+04; -7.5670123E-02;  0.0000000E+00; -2.3203347E-02;  4.4517295E+03;
  5.0260937E-01;  9.9999998E-03; -9.9924177E-02;5516;  3.3826053E-01;  0.0000000E+00;  1.9860910E-03;  9.9713812E+02;  1.0000372E-01; -2.3709917E+03;3; -2.8285498E+01;  0.0000000E+00; -7.5324798E+00;0; -1.0395866E-01;  3.9732008E+04;  0.0000000E+00; -2.4128936E-02;  4.0000000E+04;  0.0000000E+00;  4.0035887E+04; -8.5309230E-02;  0.0000000E+00; -1.8649429E-02;  4.7263882E+03;
  5.0254703E-01;  9.9999998E-03; -8.9931242E-02;5517;  3.4003767E-01;  0.0000000E+00;  1.7560669E-03;  9.9723444E+02;  1.0000387E-01; -2.2911917E+03;3; -2.9245186E+01;  0.0000000E+00; -6.9061193E+00;0; -1.0219239E-01;  3.9738949E+04;  0.0000000E+00; -1.8639503E-02;  4.0000000E+04;  0.0000000E+00;  4.0036559E+04; -8.3610229E-02;  0.0000000E+00; -1.8582162E-02;  4.8051797E+03;
  5.0249147E-01;  9.9999998E-03; -7.9938680E-02;5518;  3.4169537E-01;  0.0000000E+00;  1.5336749E-03;  9.9733752E+02;  1.0000373E-01; -2.2058115E+03;3; -3.0281412E+01;  0.0000000E+00; -6.2682452E+00;0; -1.0014364E-01;  3.9746359E+04;  0.0000000E+00; -1.4278818E-02;  4.0000000E+04;  0.0000000E+00;  4.0037203E+04; -8.2010970E-02;  0.0000000E+00; -1.8132674E-02;  4.8794209E+03;
  5.0244296E-01;  9.9999998E-03; -6.9946446E-02;5519;  3.4322283E-01;  0.0000000E+00;  1.3187443E-03;  9.9744360E+02;  1.0000388E-01; -2.1179128E+03;3; -3.1375523E+01;  0.0000000E+00; -5.5992050E+00;0; -9.7919464E-02;  3.9754312E+04;  0.0000000E+00; -1.0769060E-02;  4.0000000E+04;  0.0000000E+00;  4.0037867E+04; -8.0543540E-02;  0.0000000E+00; -1.7375922E-02;  4.9483120E+03;
  5.0240177E-01;  9.9999998E-03; -5.9954371E-02;5520;  3.4460631E-01;  0.0000000E+00;  1.1120074E-03;  9.9754822E+02;  1.0000376E-01; -2.0312488E+03;3; -3.2625175E+01;  0.0000000E+00; -4.9508462E+00;0; -9.5638588E-02;  3.9762074E+04;  0.0000000E+00; -7.8921169E-03;  4.0000000E+04;  0.0000000E+00;  4.0038363E+04; -7.9234920E-02;  0.0000000E+00; -1.6403668E-02;  5.0105176E+03;
  5.0236785E-01;  9.9999998E-03; -4.9962305E-02;5521;  3.4582973E-01;  0.0000000E+00;  9.1487559E-04;  9.9764685E+02;  1.0000374E-01; -1.9495227E+03;3; -3.3998837E+01;  0.0000000E+00; -4.2260842E+00;0; -9.3425095E-02;  3.9769461E+04;  0.0000000E+00; -5.5128471E-03;  4.0000000E+04;  0.0000000E+00;  4.0038828E+04; -7.8105144E-02;  0.0000000E+00; -1.5319953E-02;  5.0647915E+03;
  5.0234067E-01;  9.9999998E-03; -3.9970141E-02;5522;  3.4688163E-01;  0.0000000E+00;  7.2689465E-04;  9.9773560E+02;  1.0000377E-01; -1.8759940E+03;3; -3.5158249E+01;  0.0000000E+00; -3.4037492E+00;0; -9.1402650E-02;  3.9776074E+04;  0.0000000E+00; -3.5641838E-03;  4.0000000E+04;  0.0000000E+00;  4.0039297E+04; -7.7168114E-02;  0.0000000E+00; -1.4234536E-02;  5.1100503E+03;
  5.0231993E-01;  9.9999998E-03; -2.9977823E-02;5523;  3.4773761E-01;  0.0000000E+00;  5.4238481E-04;  9.9780853E+02;  1.0000386E-01; -1.8156008E+03;3; -3.5992229E+01;  0.0000000E+00; -2.5664647E+00;0; -8.9687616E-02;  3.9781715E+04;  0.0000000E+00; -2.0266213E-03;  4.0000000E+04;  0.0000000E+00;  4.0039629E+04; -7.6433003E-02;  0.0000000E+00; -1.3254615E-02;  5.1455981E+03;
  5.0230533E-01;  9.9999998E-03; -1.9985354E-02;5524;  3.4836936E-01;  0.0000000E+00;  3.6059431E-04;  9.9786426E+02;  1.0000373E-01; -1.7694293E+03;3; -3.6565063E+01;  0.0000000E+00; -1.7137043E+00;0; -8.8381469E-02;  3.9785852E+04;  0.0000000E+00; -9.0895913E-04;  4.0000000E+04;  0.0000000E+00;  4.0039883E+04; -7.5905040E-02;  0.0000000E+00; -1.2476431E-02;  5.1710264E+03;
  5.0229675E-01;  9.9999998E-03; -9.9927122E-03;5525;  3.4875625E-01;  0.0000000E+00;  1.7977842E-04;  9.9789893E+02;  1.0000381E-01; -1.7406895E+03;3; -3.6899849E+01;  0.0000000E+00; -8.6176002E-01;0; -8.7563820E-02;  3.9788430E+04;  0.0000000E+00; -2.2854313E-04;  4.0000000E+04;  0.0000000E+00;  4.0039984E+04; -7.5587437E-02;  0.0000000E+00; -1.1976385E-02;  5.1863003E+03;
  5.0229383E-01;  9.9999998E-03;  9.6067015E-11;5526;  3.4888721E-01;  0.0000000E+00; -6.2902701E-09;  9.9791022E+02;  1.0000373E-01; -1.7313563E+03;3; -3.6998135E+01;  0.0000000E+00; -1.7962291E-05;0; -8.7285399E-02;  3.9789281E+04;  0.0000000E+00;  7.2684296E-13;  4.0000000E+04;  0.0000000E+00;  4.0040047E+04; -7.5481243E-02;  0.0000000E+00; -1.1804153E-02;  5.1913672E+03;
  5.0229675E-01;  9.9999998E-03;  9.9927131E-03;5527;  3.4875628E-01;  0.0000000E+00; -1.7978954E-04;  9.9789893E+02;  1.0000381E-01; -1.7406895E+03;3; -3.6899731E+01;  0.0000000E+00;  8.6172456E-01;0; -8.7563768E-02;  3.9788430E+04;  0.0000000E+00; -2.2858857E-04;  4.0000000E+04;  0.0000000E+00;  4.0039988E+04; -7.5587355E-02;  0.0000000E+00; -1.1976412E-02;  5.1863047E+03;
  5.0230533E-01;  9.9999998E-03;  1.9985354E-02;5528;  3.4836936E-01;  0.0000000E+00; -3.6060982E-04;  9.9786426E+02;  1.0000373E-01; -1.7694293E+03;3; -3.6565880E+01;  0.0000000E+00;  1.7136630E+00;0; -8.8381432E-02;  3.9785852E+04;  0.0000000E+00; -9.0903504E-04;  4.0000000E+04;  0.0000000E+00;  4.0039883E+04; -7.5904988E-02;  0.0000000E+00; -1.2476441E-02;  5.1710283E+03;
  5.0231993E-01;  9.9999998E-03;  2.9977823E-02;5529;  3.4773764E-01;  0.0000000E+00; -5.4240134E-04;  9.9780853E+02;  1.0000386E-01; -1.8156008E+03;3; -3.5991741E+01;  0.0000000E+00;  2.5664151E+00;0; -8.9687541E-02;  3.9781715E+04;  0.0000000E+00; -2.0266960E-03;  4.0000000E+04;  0.0000000E+00;  4.0039629E+04; -7.6432899E-02;  0.0000000E+00; -1.3254641E-02;  5.1456040E+03;
  5.0234067E-01;  9.9999998E-03;  3.9970141E-02;5530;  3.4688169E-01;  0.0000000E+00; -7.2690856E-04;  9.9773560E+02;  1.0000377E-01; -1.8759940E+03;3; -3.5158813E+01;  0.0000000E+00;  3.4037449E+00;0; -9.1402717E-02;  3.9776070E+04;  0.0000000E+00; -3.5637652E-03;  4.0000000E+04;  0.0000000E+00;  4.0039297E+04; -7.7168152E-02;  0.0000000E+00; -1.4234562E-02;  5.1100620E+03;
  5.0236785E-01;  9.9999998E-03;  4.9962305E-02;5531;  3.4582976E-01;  0.0000000E+00; -9.1488991E-04;  9.9764685E+02;  1.0000374E-01; -1.9495227E+03;3; -3.3999207E+01;  0.0000000E+00;  4.2260323E+00;0; -9.3425043E-02;  3.9769461E+04;  0.0000000E+00; -5.5118147E-03;  4.0000000E+04;  0.0000000E+00;  4.0038828E+04; -7.8105025E-02;  0.0000000E+00; -1.5320017E-02;  5.0647920E+03;
  5.0240177E-01;  9.9999998E-03;  5.9954371E-02;5532;  3.4460637E-01;  0.0000000E+00; -1.1120347E-03;  9.9754822E+02;  1.0000376E-01; -2.0312488E+03;3; -3.2625469E+01;  0.0000000E+00;  4.9508219E+00;0; -9.5638543E-02;  3.9762070E+04;  0.0000000E+00; -7.8916959E-03;  4.0000000E+04;  0.0000000E+00;  4.0038363E+04; -7.9234809E-02;  0.0000000E+00; -1.6403737E-02;  5.0105205E+03;
  5.1263469E-01;  9.9999998E-03; -9.9914744E-02;5577;  3.3729368E-01;  0.0000000E+00;  9.8972570E-04;  9.9683368E+02;  1.0000619E-01; -2.6232310E+03;3; -2.9350790E+01;  0.0000000E+00; -7.0062771E+00;0; -1.0869856E-01;  3.9704434E+04;  0.0000000E+00; -2.7195139E-02;  4.0000000E+04;  0.0000000E+00;  4.0037094E+04; -9.4858423E-02;  0.0000000E+00; -1.3840138E-02;  4.9091475E+03;
  5.1256853E-01;  9.9999998E-03; -8.9922674E-02;5578;  3.3909103E-01;  0.0000000E+00;  8.1230252E-04;  9.9690399E+02;  1.0000612E-01; -2.5649609E+03;3; -3.0312586E+01;  0.0000000E+00; -6.3789992E+00;0; -1.0692696E-01;  3.9708867E+04;  0.0000000E+00; -2.1850087E-02;  4.0000000E+04;  0.0000000E+00;  4.0038039E+04; -9.3940720E-02;  0.0000000E+00; -1.2986242E-02;  5.0300029E+03;
  5.1250881E-01;  9.9999998E-03; -7.9930991E-02;5579;  3.4076604E-01;  0.0000000E+00;  6.5260043E-04;  9.9698083E+02;  1.0000617E-01; -2.5013086E+03;3; -3.1335514E+01;  0.0000000E+00; -5.7712288E+00;0; -1.0484188E-01;  3.9714145E+04;  0.0000000E+00; -1.7273054E-02;  4.0000000E+04;  0.0000000E+00;  4.0039023E+04; -9.3160570E-02;  0.0000000E+00; -1.1681313E-02;  5.1426245E+03;
  5.1245630E-01;  9.9999998E-03; -6.9939621E-02;5580;  3.4230977E-01;  0.0000000E+00;  5.1456277E-04;  9.9706366E+02;  1.0000610E-01; -2.4327180E+03;3; -3.2343853E+01;  0.0000000E+00; -5.1436887E+00;0; -1.0255090E-01;  3.9719863E+04;  0.0000000E+00; -1.3324256E-02;  4.0000000E+04;  0.0000000E+00;  4.0039895E+04; -9.2520699E-02;  0.0000000E+00; -1.0030200E-02;  5.2443560E+03;
  5.1241136E-01;  9.9999998E-03; -5.9948437E-02;5581;  3.4370852E-01;  0.0000000E+00;  4.0145474E-04;  9.9714734E+02;  1.0000613E-01; -2.3633867E+03;3; -3.3334969E+01;  0.0000000E+00; -4.5113568E+00;0; -1.0017641E-01;  3.9725762E+04;  0.0000000E+00; -9.9139875E-03;  4.0000000E+04;  0.0000000E+00;  4.0040652E+04; -9.2016280E-02;  0.0000000E+00; -8.1601255E-03;  5.3329600E+03;
  5.1237392E-01;  9.9999998E-03; -4.9957309E-02;5582;  3.4494525E-01;  0.0000000E+00;  3.1079215E-04;  9.9722839E+02;  1.0000623E-01; -2.2962283E+03;3; -3.4341492E+01;  0.0000000E+00; -3.8275728E+00;0; -9.7850651E-02;  3.9731578E+04;  0.0000000E+00; -6.9902162E-03;  4.0000000E+04;  0.0000000E+00;  4.0041285E+04; -9.1635726E-02;  0.0000000E+00; -6.2149209E-03;  5.4069858E+03;
  5.1234376E-01;  9.9999998E-03; -3.9966125E-02;5583;  3.4599662E-01;  0.0000000E+00;  2.3620909E-04;  9.9730096E+02;  1.0000616E-01; -2.2360818E+03;3; -3.5359955E+01;  0.0000000E+00; -3.0215938E+00;0; -9.5708802E-02;  3.9736887E+04;  0.0000000E+00; -4.5421105E-03;  4.0000000E+04;  0.0000000E+00;  4.0041855E+04; -9.1362417E-02;  0.0000000E+00; -4.3463837E-03;  5.4659458E+03;
  5.1232070E-01;  9.9999998E-03; -2.9974800E-02;5584;  3.4684348E-01;  0.0000000E+00;  1.6905725E-04;  9.9736285E+02;  1.0000622E-01; -2.1848242E+03;3; -3.6211231E+01;  0.0000000E+00; -2.2514205E+00;0; -9.3880296E-02;  3.9741344E+04;  0.0000000E+00; -2.5893399E-03;  4.0000000E+04;  0.0000000E+00;  4.0042266E+04; -9.1176741E-02;  0.0000000E+00; -2.7035549E-03;  5.5101816E+03;
  5.1230454E-01;  9.9999998E-03; -1.9983310E-02;5585;  3.4747252E-01;  0.0000000E+00;  1.0901779E-04;  9.9740936E+02;  1.0000621E-01; -2.1463066E+03;3; -3.6733330E+01;  0.0000000E+00; -1.4940286E+00;0; -9.2480965E-02;  3.9744812E+04;  0.0000000E+00; -1.1624537E-03;  4.0000000E+04;  0.0000000E+00;  4.0042520E+04; -9.1060534E-02;  0.0000000E+00; -1.4204294E-03;  5.5405747E+03;
  5.1229501E-01;  9.9999998E-03; -9.9916952E-03;5586;  3.4786093E-01;  0.0000000E+00;  5.3567241E-05;  9.9743781E+02;  1.0000639E-01; -2.1227026E+03;3; -3.7017315E+01;  0.0000000E+00; -7.4837708E-01;0; -9.1601729E-02;  3.9746934E+04;  0.0000000E+00; -2.9241518E-04;  4.0000000E+04;  0.0000000E+00;  4.0042645E+04; -9.0997539E-02;  0.0000000E+00; -6.0418964E-04;  5.5582612E+03;
  5.1229197E-01;  9.9999998E-03;  1.1874554E-10;5587;  3.4799191E-01;  0.0000000E+00; -9.0101020E-09;  9.9744800E+02;  1.0000618E-01; -2.1142583E+03;3; -3.7108242E+01;  0.0000000E+00; -1.1094708E-06;0; -9.1302134E-02;  3.9747691E+04;  0.0000000E+00;  1.3002657E-12;  4.0000000E+04;  0.0000000E+00;  4.0042684E+04; -9.0978168E-02;  0.0000000E+00; -3.2396714E-04;  5.5640327E+03;
  5.1229501E-01;  9.9999998E-03;  9.9916952E-03;5588;  3.4786093E-01;  0.0000000E+00; -5.3583368E-05;  9.9743787E+02;  1.0000639E-01; -2.1226531E+03;3; -3.7017166E+01;  0.0000000E+00;  7.4832511E-01;0; -9.1601729E-02;  3.9746934E+04;  0.0000000E+00; -2.9265843E-04;  4.0000000E+04;  0.0000000E+00;  4.0042645E+04; -9.0997532E-02;  0.0000000E+00; -6.0419820E-04;  5.5582642E+03;
  5.1230454E-01;  9.9999998E-03;  1.9983310E-02;5589;  3.4747255E-01;  0.0000000E+00; -1.0903717E-04;  9.9740930E+02;  1.0000621E-01; -2.1463562E+03;3; -3.6733589E+01;  0.0000000E+00;  1.4940044E+00;0; -9.2480816E-02;  3.9744812E+04;  0.0000000E+00; -1.1625417E-03;  4.0000000E+04;  0.0000000E+00;  4.0042520E+04; -9.1060370E-02;  0.0000000E+00; -1.4204427E-03;  5.5405859E+03;
  5.1232070E-01;  9.9999998E-03;  2.9974800E-02;5590;  3.4684348E-01;  0.0000000E+00; -1.6907528E-04;  9.9736285E+02;  1.0000622E-01; -2.1848242E+03;3; -3.6211315E+01;  0.0000000E+00;  2.2513816E+00;0; -9.3880370E-02;  3.9741344E+04;  0.0000000E+00; -2.5896039E-03;  4.0000000E+04;  0.0000000E+00;  4.0042266E+04; -9.1176786E-02;  0.0000000E+00; -2.7035840E-03;  5.5101841E+03;
  5.1234376E-01;  9.9999998E-03;  3.9966125E-02;5591;  3.4599665E-01;  0.0000000E+00; -2.3623194E-04;  9.9730103E+02;  1.0000611E-01; -2.2360325E+03;3; -3.5359875E+01;  0.0000000E+00;  3.0215666E+00;0; -9.5708698E-02;  3.9736887E+04;  0.0000000E+00; -4.5426101E-03;  4.0000000E+04;  0.0000000E+00;  4.0041855E+04; -9.1362283E-02;  0.0000000E+00; -4.3464135E-03;  5.4659556E+03;
  5.1237392E-01;  9.9999998E-03;  4.9957309E-02;5592;  3.4494531E-01;  0.0000000E+00; -3.1081488E-04;  9.9722839E+02;  1.0000623E-01; -2.2962283E+03;3; -3.4341228E+01;  0.0000000E+00;  3.8275511E+00;0; -9.7850636E-02;  3.9731578E+04;  0.0000000E+00; -6.9901263E-03;  4.0000000E+04;  0.0000000E+00;  4.0041285E+04; -9.1635697E-02;  0.0000000E+00; -6.2149423E-03;  5.4069868E+03;
  5.1241136E-01;  9.9999998E-03;  5.9948437E-02;5593;  3.4370857E-01;  0.0000000E+00; -4.0147599E-04;  9.9714734E+02;  1.0000613E-01; -2.3633867E+03;3; -3.3334538E+01;  0.0000000E+00;  4.5113053E+00;0; -1.0017624E-01;  3.9725762E+04;  0.0000000E+00; -9.9116284E-03;  4.0000000E+04;  0.0000000E+00;  4.0040652E+04; -9.2016101E-02;  0.0000000E+00; -8.1601450E-03;  5.3329531E+03;
  5.2267736E-01;  9.9999998E-03; -9.9910662E-02;5638;  3.3622232E-01;  0.0000000E+00; -6.2046536E-05;  9.9658008E+02;  1.0001040E-01; -2.8333472E+03;3; -3.0367214E+01;  0.0000000E+00; -6.6145349E+00;0; -1.1297723E-01;  3.9680078E+04;  0.0000000E+00; -2.7360210E-02;  4.0000000E+04;  0.0000000E+00;  4.0037398E+04; -1.0423142E-01;  0.0000000E+00; -8.7458054E-03;  4.9792036E+03;
  5.2260923E-01;  9.9999998E-03; -8.9918688E-02;5639;  3.3802453E-01;  0.0000000E+00; -1.9362081E-04;  9.9662146E+02;  1.0001049E-01; -2.7990273E+03;3; -3.1342802E+01;  0.0000000E+00; -6.0240736E+00;0; -1.1114562E-01;  3.9682121E+04;  0.0000000E+00; -2.2937231E-02;  4.0000000E+04;  0.0000000E+00;  4.0038656E+04; -1.0414197E-01;  0.0000000E+00; -7.0036566E-03;  5.1326851E+03;
  5.2254719E-01;  9.9999998E-03; -7.9927191E-02;5640;  3.3970198E-01;  0.0000000E+00; -2.9764191E-04;  9.9667102E+02;  1.0001046E-01; -2.7579915E+03;3; -3.2354462E+01;  0.0000000E+00; -5.4884501E+00;0; -1.0896572E-01;  3.9685023E+04;  0.0000000E+00; -1.8713225E-02;  4.0000000E+04;  0.0000000E+00;  4.0039824E+04; -1.0422485E-01;  0.0000000E+00; -4.7408738E-03;  5.2758091E+03;
  5.2249175E-01;  9.9999998E-03; -6.9936082E-02;5641;  3.4124619E-01;  0.0000000E+00; -3.6890470E-04;  9.9672839E+02;  1.0001037E-01; -2.7104375E+03;3; -3.3338444E+01;  0.0000000E+00; -4.9576588E+00;0; -1.0654555E-01;  3.9688504E+04;  0.0000000E+00; -1.4752496E-02;  4.0000000E+04;  0.0000000E+00;  4.0040906E+04; -1.0445185E-01;  0.0000000E+00; -2.0937009E-03;  5.4040703E+03;
  5.2244365E-01;  9.9999998E-03; -5.9945218E-02;5642;  3.4264424E-01;  0.0000000E+00; -4.0430189E-04;  9.9678796E+02;  1.0001051E-01; -2.6611057E+03;3; -3.4274719E+01;  0.0000000E+00; -4.4496169E+00;0; -1.0401293E-01;  3.9692375E+04;  0.0000000E+00; -1.1125744E-02;  4.0000000E+04;  0.0000000E+00;  4.0041840E+04; -1.0478633E-01;  0.0000000E+00;  7.7339757E-04;  5.5139956E+03;
  5.2240306E-01;  9.9999998E-03; -4.9954478E-02;5643;  3.4388143E-01;  0.0000000E+00; -4.0067991E-04;  9.9684760E+02;  1.0001035E-01; -2.6117244E+03;3; -3.5120663E+01;  0.0000000E+00; -3.9145012E+00;0; -1.0151063E-01;  3.9696273E+04;  0.0000000E+00; -7.9015587E-03;  4.0000000E+04;  0.0000000E+00;  4.0042605E+04; -1.0518478E-01;  0.0000000E+00;  3.6741474E-03;  5.6038496E+03;
  5.2236992E-01;  9.9999998E-03; -3.9963763E-02;5644;  3.4493878E-01;  0.0000000E+00; -3.5922421E-04;  9.9690240E+02;  1.0001035E-01; -2.5662937E+03;3; -3.5854702E+01;  0.0000000E+00; -3.3245497E+00;0; -9.9188358E-02;  3.9700047E+04;  0.0000000E+00; -5.1499978E-03;  4.0000000E+04;  0.0000000E+00;  4.0043129E+04; -1.0559931E-01;  0.0000000E+00;  6.4109568E-03;  5.6734727E+03;
  5.2234453E-01;  9.9999998E-03; -2.9972984E-02;5645;  3.4579551E-01;  0.0000000E+00; -2.8613003E-04;  9.9694928E+02;  1.0001040E-01; -2.5274800E+03;3; -3.6549763E+01;  0.0000000E+00; -2.6336563E+00;0; -9.7193122E-02;  3.9703402E+04;  0.0000000E+00; -2.9373709E-03;  4.0000000E+04;  0.0000000E+00;  4.0043648E+04; -1.0598257E-01;  0.0000000E+00;  8.7894462E-03;  5.7241436E+03;
  5.2232671E-01;  9.9999998E-03; -1.9982085E-02;5646;  3.4642604E-01;  0.0000000E+00; -1.9335454E-04;  9.9698529E+02;  1.0001042E-01; -2.4976045E+03;3; -3.7091572E+01;  0.0000000E+00; -1.8248227E+00;0; -9.5658548E-02;  3.9706055E+04;  0.0000000E+00; -1.3178173E-03;  4.0000000E+04;  0.0000000E+00;  4.0043863E+04; -1.0629181E-01;  0.0000000E+00;  1.0633259E-02;  5.7579204E+03;
  5.2231616E-01;  9.9999998E-03; -9.9910777E-03;5647;  3.4681094E-01;  0.0000000E+00; -9.8402437E-05;  9.9700787E+02;  1.0001042E-01; -2.4789382E+03;3; -3.7401184E+01;  0.0000000E+00; -9.4773960E-01;0; -9.4690844E-02;  3.9707602E+04;  0.0000000E+00; -3.3112837E-04;  4.0000000E+04;  0.0000000E+00;  4.0044016E+04; -1.0649183E-01;  0.0000000E+00;  1.1800982E-02;  5.7770562E+03;
  5.2231270E-01;  9.9999998E-03;  1.2340595E-10;5648;  3.4694093E-01;  0.0000000E+00; -1.1434939E-08;  9.9701556E+02;  1.0001050E-01; -2.4725681E+03;3; -3.7493355E+01;  0.0000000E+00; -1.3323108E-05;0; -9.4360344E-02;  3.9708199E+04;  0.0000000E+00;  2.0735228E-12;  4.0000000E+04;  0.0000000E+00;  4.0044074E+04; -1.0656121E-01;  0.0000000E+00;  1.2200865E-02;  5.7831948E+03;
  5.2231616E-01;  9.9999998E-03;  9.9910786E-03;5649;  3.4681094E-01;  0.0000000E+00;  9.8379678E-05;  9.9700787E+02;  1.0001042E-01; -2.4789382E+03;3; -3.7400948E+01;  0.0000000E+00;  9.4768232E-01;0; -9.4690859E-02;  3.9707602E+04;  0.0000000E+00; -3.3157921E-04;  4.0000000E+04;  0.0000000E+00;  4.0044016E+04; -1.0649183E-01;  0.0000000E+00;  1.1800972E-02;  5.7770537E+03;
  5.2232671E-01;  9.9999998E-03;  1.9982085E-02;5650;  3.4642604E-01;  0.0000000E+00;  1.9333122E-04;  9.9698529E+02;  1.0001042E-01; -2.4976045E+03;3; -3.7091080E+01;  0.0000000E+00;  1.8247865E+00;0; -9.5658481E-02;  3.9706055E+04;  0.0000000E+00; -1.3183622E-03;  4.0000000E+04;  0.0000000E+00;  4.0043863E+04; -1.0629174E-01;  0.0000000E+00;  1.0633256E-02;  5.7579302E+03;
  5.2234453E-01;  9.9999998E-03;  2.9972984E-02;5651;  3.4579554E-01;  0.0000000E+00;  2.8610553E-04;  9.9694922E+02;  1.0001040E-01; -2.5275295E+03;3; -3.6549843E+01;  0.0000000E+00;  2.6336350E+00;0; -9.7193137E-02;  3.9703406E+04;  0.0000000E+00; -2.9375998E-03;  4.0000000E+04;  0.0000000E+00;  4.0043648E+04; -1.0598256E-01;  0.0000000E+00;  8.7894192E-03;  5.7241499E+03;
  5.2236992E-01;  9.9999998E-03;  3.9963763E-02;5652;  3.4493881E-01;  0.0000000E+00;  3.5919863E-04;  9.9690228E+02;  1.0001045E-01; -2.5663926E+03;3; -3.5854584E+01;  0.0000000E+00;  3.3245051E+00;0; -9.9188223E-02;  3.9700047E+04;  0.0000000E+00; -5.1501426E-03;  4.0000000E+04;  0.0000000E+00;  4.0043129E+04; -1.0559916E-01;  0.0000000E+00;  6.4109392E-03;  5.6734858E+03;
  5.2240306E-01;  9.9999998E-03;  4.9954478E-02;5653;  3.4388146E-01;  0.0000000E+00;  4.0065296E-04;  9.9684760E+02;  1.0001035E-01; -2.6117244E+03;3; -3.5120373E+01;  0.0000000E+00;  3.9144301E+00;0; -1.0151058E-01;  3.9696273E+04;  0.0000000E+00; -7.9007875E-03;  4.0000000E+04;  0.0000000E+00;  4.0042605E+04; -1.0518471E-01;  0.0000000E+00;  3.6741309E-03;  5.6038477E+03;
  5.2244365E-01;  9.9999998E-03;  5.9945218E-02;5654;  3.4264427E-01;  0.0000000E+00;  4.0427296E-04;  9.9678796E+02;  1.0001051E-01; -2.6611057E+03;3; -3.4274963E+01;  0.0000000E+00;  4.4495883E+00;0; -1.0401288E-01;  3.9692367E+04;  0.0000000E+00; -1.1125092E-02;  4.0000000E+04;  0.0000000E+00;  4.0041840E+04; -1.0478625E-01;  0.0000000E+00;  7.7337230E-04;  5.5140034E+03;
  5.3274089E-01;  9.9999998E-03; -9.9912025E-02;5699;  3.3506086E-01;  0.0000000E+00; -1.1727944E-03;  9.9643030E+02;  1.0001730E-01; -2.9574417E+03;3; -3.1300110E+01;  0.0000000E+00; -6.2950358E+00;0; -1.1672692E-01;  3.9663078E+04;  0.0000000E+00; -2.4656720E-02;  4.0000000E+04;  0.0000000E+00;  4.0036797E+04; -1.1340515E-01;  0.0000000E+00; -3.3217638E-03;  4.9277329E+03;
  5.3267252E-01;  9.9999998E-03; -8.9919575E-02;5700;  3.3685556E-01;  0.0000000E+00; -1.2626180E-03;  9.9644501E+02;  1.0001747E-01; -2.9452444E+03;3; -3.2281540E+01;  0.0000000E+00; -5.7741699E+00;0; -1.1478491E-01;  3.9662832E+04;  0.0000000E+00; -2.1911277E-02;  4.0000000E+04;  0.0000000E+00;  4.0038277E+04; -1.1417931E-01;  0.0000000E+00; -6.0560368E-04;  5.1018799E+03;
  5.3260958E-01;  9.9999998E-03; -7.9927735E-02;5701;  3.3852202E-01;  0.0000000E+00; -1.3190674E-03;  9.9646796E+02;  1.0001741E-01; -2.9262327E+03;3; -3.3278698E+01;  0.0000000E+00; -5.2925363E+00;0; -1.1245831E-01;  3.9663402E+04;  0.0000000E+00; -1.8645190E-02;  4.0000000E+04;  0.0000000E+00;  4.0039527E+04; -1.1515831E-01;  0.0000000E+00;  2.7000038E-03;  5.2655215E+03;
  5.3255272E-01;  9.9999998E-03; -6.9936387E-02;5702;  3.4005290E-01;  0.0000000E+00; -1.3347786E-03;  9.9649951E+02;  1.0001725E-01; -2.9000605E+03;3; -3.4240643E+01;  0.0000000E+00; -4.8187385E+00;0; -1.0985596E-01;  3.9664773E+04;  0.0000000E+00; -1.5130603E-02;  4.0000000E+04;  0.0000000E+00;  4.0040766E+04; -1.1628291E-01;  0.0000000E+00;  6.4269505E-03;  5.4120728E+03;
  5.3250259E-01;  9.9999998E-03; -5.9945334E-02;5703;  3.4143773E-01;  0.0000000E+00; -1.3015398E-03;  9.9653577E+02;  1.0001735E-01; -2.8700369E+03;3; -3.5147530E+01;  0.0000000E+00; -4.3370256E+00;0; -1.0711183E-01;  3.9666586E+04;  0.0000000E+00; -1.1620939E-02;  4.0000000E+04;  0.0000000E+00;  4.0041734E+04; -1.1748391E-01;  0.0000000E+00;  1.0372071E-02;  5.5368242E+03;
  5.3245938E-01;  9.9999998E-03; -4.9954504E-02;5704;  3.4266180E-01;  0.0000000E+00; -1.2149466E-03;  9.9657306E+02;  1.0001732E-01; -2.8391736E+03;3; -3.5962231E+01;  0.0000000E+00; -3.8460732E+00;0; -1.0438047E-01;  3.9668691E+04;  0.0000000E+00; -8.3420454E-03;  4.0000000E+04;  0.0000000E+00;  4.0042562E+04; -1.1868498E-01;  0.0000000E+00;  1.4304519E-02;  5.6374087E+03;
  5.3242373E-01;  9.9999998E-03; -3.9963752E-02;5705;  3.4370929E-01;  0.0000000E+00; -1.0716469E-03;  9.9660919E+02;  1.0001732E-01; -2.8091992E+03;3; -3.6661911E+01;  0.0000000E+00; -3.3228097E+00;0; -1.0182875E-01;  3.9670898E+04;  0.0000000E+00; -5.4651732E-03;  4.0000000E+04;  0.0000000E+00;  4.0043191E+04; -1.1980754E-01;  0.0000000E+00;  1.7978793E-02;  5.7139292E+03;
  5.3239638E-01;  9.9999998E-03; -2.9972946E-02;5706;  3.4455994E-01;  0.0000000E+00; -8.7092328E-04;  9.9664087E+02;  1.0001733E-01; -2.7829778E+03;3; -3.7210342E+01;  0.0000000E+00; -2.7378216E+00;0; -9.9624284E-02;  3.9672926E+04;  0.0000000E+00; -3.1221232E-03;  4.0000000E+04;  0.0000000E+00;  4.0043664E+04; -1.2077620E-01;  0.0000000E+00;  2.1151917E-02;  5.7682573E+03;
  5.3237689E-01;  9.9999998E-03; -1.9982066E-02;5707;  3.4519222E-01;  0.0000000E+00; -6.1503449E-04;  9.9666534E+02;  1.0001739E-01; -2.7626821E+03;3; -3.7604858E+01;  0.0000000E+00; -1.9568365E+00;0; -9.7920991E-02;  3.9674703E+04;  0.0000000E+00; -1.4005358E-03;  4.0000000E+04;  0.0000000E+00;  4.0043984E+04; -1.2152271E-01;  0.0000000E+00;  2.3601720E-02;  5.8035029E+03;
  5.3236538E-01;  9.9999998E-03; -9.9910730E-03;5708;  3.4558433E-01;  0.0000000E+00; -3.1839008E-04;  9.9668164E+02;  1.0001720E-01; -2.7492009E+03;3; -3.7830910E+01;  0.0000000E+00; -1.0441855E+00;0; -9.6843988E-02;  3.9675762E+04;  0.0000000E+00; -3.5171141E-04;  4.0000000E+04;  0.0000000E+00;  4.0044117E+04; -1.2199377E-01;  0.0000000E+00;  2.5149778E-02;  5.8229551E+03;
  5.3236163E-01;  9.9999998E-03;  1.0181810E-10;5709;  3.4571722E-01;  0.0000000E+00; -1.3253671E-08;  9.9668604E+02;  1.0001738E-01; -2.7455469E+03;3; -3.7929035E+01;  0.0000000E+00; -1.2365555E-05;0; -9.6475415E-02;  3.9676109E+04;  0.0000000E+00;  2.5691296E-12;  4.0000000E+04;  0.0000000E+00;  4.0044145E+04; -1.2215477E-01;  0.0000000E+00;  2.5679357E-02;  5.8291084E+03;
  5.3236538E-01;  9.9999998E-03;  9.9910730E-03;5710;  3.4558433E-01;  0.0000000E+00;  3.1836252E-04;  9.9668164E+02;  1.0001720E-01; -2.7492009E+03;3; -3.7830700E+01;  0.0000000E+00;  1.0441586E+00;0; -9.6844092E-02;  3.9675762E+04;  0.0000000E+00; -3.5211418E-04;  4.0000000E+04;  0.0000000E+00;  4.0044117E+04; -1.2199385E-01;  0.0000000E+00;  2.5149766E-02;  5.8229502E+03;
  5.3237689E-01;  9.9999998E-03;  1.9982066E-02;5711;  3.4519225E-01;  0.0000000E+00;  6.1500631E-04;  9.9666534E+02;  1.0001739E-01; -2.7626821E+03;3; -3.7604504E+01;  0.0000000E+00;  1.9568217E+00;0; -9.7920924E-02;  3.9674703E+04;  0.0000000E+00; -1.4011271E-03;  4.0000000E+04;  0.0000000E+00;  4.0043984E+04; -1.2152267E-01;  0.0000000E+00;  2.3601744E-02;  5.8034980E+03;
  5.3239638E-01;  9.9999998E-03;  2.9972946E-02;5712;  3.4455997E-01;  0.0000000E+00;  8.7089353E-04;  9.9664087E+02;  1.0001733E-01; -2.7829778E+03;3; -3.7210411E+01;  0.0000000E+00;  2.7377980E+00;0; -9.9624291E-02;  3.9672930E+04;  0.0000000E+00; -3.1229162E-03;  4.0000000E+04;  0.0000000E+00;  4.0043664E+04; -1.2077621E-01;  0.0000000E+00;  2.1151923E-02;  5.7682563E+03;
  5.3242373E-01;  9.9999998E-03;  3.9963752E-02;5713;  3.4370932E-01;  0.0000000E+00;  1.0716149E-03;  9.9660913E+02;  1.0001726E-01; -2.8092485E+03;3; -3.6662445E+01;  0.0000000E+00;  3.3227651E+00;0; -1.0182875E-01;  3.9670898E+04;  0.0000000E+00; -5.4663410E-03;  4.0000000E+04;  0.0000000E+00;  4.0043191E+04; -1.1980753E-01;  0.0000000E+00;  1.7978787E-02;  5.7139409E+03;
  5.3245938E-01;  9.9999998E-03;  4.9954504E-02;5714;  3.4266186E-01;  0.0000000E+00;  1.2149157E-03;  9.9657306E+02;  1.0001732E-01; -2.8391736E+03;3; -3.5961960E+01;  0.0000000E+00;  3.8460531E+00;0; -1.0438048E-01;  3.9668691E+04;  0.0000000E+00; -8.3419783E-03;  4.0000000E+04;  0.0000000E+00;  4.0042562E+04; -1.1868498E-01;  0.0000000E+00;  1.4304498E-02;  5.6374141E+03;
  5.3250259E-01;  9.9999998E-03;  5.9945334E-02;5715;  3.4143776E-01;  0.0000000E+00;  1.3015036E-03;  9.9653571E+02;  1.0001728E-01; -2.8700862E+03;3; -3.5147724E+01;  0.0000000E+00;  4.3370328E+00;0; -1.0711183E-01;  3.9666582E+04;  0.0000000E+00; -1.1621932E-02;  4.0000000E+04;  0.0000000E+00;  4.0041734E+04; -1.1748389E-01;  0.0000000E+00;  1.0372065E-02;  5.5368262E+03;
  5.4282594E-01;  9.9999998E-03; -9.9918798E-02;5760;  3.3382720E-01;  0.0000000E+00; -2.3454679E-03;  9.9644580E+02;  1.0002934E-01; -2.9446013E+03;3; -3.2142975E+01;  0.0000000E+00; -6.0341301E+00;0; -1.1991818E-01;  3.9655836E+04;  0.0000000E+00; -1.9648574E-02;  4.0000000E+04;  0.0000000E+00;  4.0035375E+04; -1.2241083E-01;  0.0000000E+00;  2.4926490E-03;  4.7590068E+03;
  5.4275841E-01;  9.9999998E-03; -8.9925379E-02;5761;  3.3560339E-01;  0.0000000E+00; -2.3982045E-03;  9.9643909E+02;  1.0002936E-01; -2.9501321E+03;3; -3.3121243E+01;  0.0000000E+00; -5.5760603E+00;0; -1.1782669E-01;  3.9653789E+04;  0.0000000E+00; -1.9257620E-02;  4.0000000E+04;  0.0000000E+00;  4.0036820E+04; -1.2407622E-01;  0.0000000E+00;  6.2495419E-03;  4.9405625E+03;
  5.4269594E-01;  9.9999998E-03; -7.9932734E-02;5762;  3.3724707E-01;  0.0000000E+00; -2.4137623E-03;  9.9643909E+02;  1.0002926E-01; -2.9501321E+03;3; -3.4096245E+01;  0.0000000E+00; -5.1328635E+00;0; -1.1531538E-01;  3.9652422E+04;  0.0000000E+00; -1.7521033E-02;  4.0000000E+04;  0.0000000E+00;  4.0038230E+04; -1.2597729E-01;  0.0000000E+00;  1.0661915E-02;  5.1133433E+03;
  5.4263908E-01;  9.9999998E-03; -6.9940709E-02;5763;  3.3875421E-01;  0.0000000E+00; -2.3758770E-03;  9.9644708E+02;  1.0002947E-01; -2.9435151E+03;3; -3.5030781E+01;  0.0000000E+00; -4.6861134E+00;0; -1.1249414E-01;  3.9651898E+04;  0.0000000E+00; -1.4888174E-02;  4.0000000E+04;  0.0000000E+00;  4.0039492E+04; -1.2802386E-01;  0.0000000E+00;  1.5529719E-02;  5.2688096E+03;
  5.4258829E-01;  9.9999998E-03; -5.9949081E-02;5764;  3.4011331E-01;  0.0000000E+00; -2.2786877E-03;  9.9646136E+02;  1.0002933E-01; -2.9316641E+03;3; -3.5907055E+01;  0.0000000E+00; -4.2306948E+00;0; -1.0950291E-01;  3.9651910E+04;  0.0000000E+00; -1.1804465E-02;  4.0000000E+04;  0.0000000E+00;  4.0040504E+04; -1.3011347E-01;  0.0000000E+00;  2.0610560E-02;  5.4009106E+03;
  5.4254377E-01;  9.9999998E-03; -4.9957752E-02;5765;  3.4131178E-01;  0.0000000E+00; -2.1139346E-03;  9.9647937E+02;  1.0002938E-01; -2.9167507E+03;3; -3.6697273E+01;  0.0000000E+00; -3.7622306E+00;0; -1.0650872E-01;  3.9652434E+04;  0.0000000E+00; -8.6561339E-03;  4.0000000E+04;  0.0000000E+00;  4.0041383E+04; -1.3213654E-01;  0.0000000E+00;  2.5627818E-02;  5.5066250E+03;
  5.4250669E-01;  9.9999998E-03; -3.9966505E-02;5766;  3.4233660E-01;  0.0000000E+00; -1.8713160E-03;  9.9649609E+02;  1.0002935E-01; -2.9029241E+03;3; -3.7381664E+01;  0.0000000E+00; -3.2572737E+00;0; -1.0369680E-01;  3.9653258E+04;  0.0000000E+00; -5.7509253E-03;  4.0000000E+04;  0.0000000E+00;  4.0042020E+04; -1.3398358E-01;  0.0000000E+00;  3.0286780E-02;  5.5858105E+03;
  5.4247767E-01;  9.9999998E-03; -2.9975172E-02;5767;  3.4316760E-01;  0.0000000E+00; -1.5334677E-03;  9.9651410E+02;  1.0002936E-01; -2.8880110E+03;3; -3.7947021E+01;  0.0000000E+00; -2.5923319E+00;0; -1.0125681E-01;  3.9654203E+04;  0.0000000E+00; -3.3136522E-03;  4.0000000E+04;  0.0000000E+00;  4.0042445E+04; -1.3555031E-01;  0.0000000E+00;  3.4293495E-02;  5.6408540E+03;
  5.4245675E-01;  9.9999998E-03; -1.9983677E-02;5768;  3.4378469E-01;  0.0000000E+00; -1.1033380E-03;  9.9652814E+02;  1.0002936E-01; -2.8763569E+03;3; -3.8382988E+01;  0.0000000E+00; -1.8734320E+00;0; -9.9364728E-02;  3.9655035E+04;  0.0000000E+00; -1.4934855E-03;  4.0000000E+04;  0.0000000E+00;  4.0042738E+04; -1.3674363E-01;  0.0000000E+00;  3.7378911E-02;  5.6755806E+03;
  5.4244435E-01;  9.9999998E-03; -9.9919438E-03;5769;  3.4416655E-01;  0.0000000E+00; -5.8025424E-04;  9.9653552E+02;  1.0002940E-01; -2.8702336E+03;3; -3.8662586E+01;  0.0000000E+00; -9.8303121E-01;0; -9.8165467E-02;  3.9655551E+04;  0.0000000E+00; -3.7588831E-04;  4.0000000E+04;  0.0000000E+00;  4.0042875E+04; -1.3749105E-01;  0.0000000E+00;  3.9325576E-02;  5.6941992E+03;
  5.4244024E-01;  9.9999998E-03;  5.1399732E-11;5770;  3.4429675E-01;  0.0000000E+00; -1.6442147E-08;  9.9653925E+02;  1.0002925E-01; -2.8671721E+03;3; -3.8753193E+01;  0.0000000E+00; -1.4073248E-05;0; -9.7754791E-02;  3.9655742E+04;  0.0000000E+00;  3.2513358E-12;  4.0000000E+04;  0.0000000E+00;  4.0042910E+04; -1.3774589E-01;  0.0000000E+00;  3.9991096E-02;  5.6999731E+03;
  5.4244435E-01;  9.9999998E-03;  9.9919438E-03;5771;  3.4416655E-01;  0.0000000E+00;  5.8022159E-04;  9.9653552E+02;  1.0002940E-01; -2.8702336E+03;3; -3.8662411E+01;  0.0000000E+00;  9.8301250E-01;0; -9.8165594E-02;  3.9655551E+04;  0.0000000E+00; -3.7631593E-04;  4.0000000E+04;  0.0000000E+00;  4.0042875E+04; -1.3749117E-01;  0.0000000E+00;  3.9325573E-02;  5.6942056E+03;
  5.4245675E-01;  9.9999998E-03;  1.9983677E-02;5772;  3.4378472E-01;  0.0000000E+00;  1.1033042E-03;  9.9652814E+02;  1.0002936E-01; -2.8763569E+03;3; -3.8383179E+01;  0.0000000E+00;  1.8733953E+00;0; -9.9364668E-02;  3.9655039E+04;  0.0000000E+00; -1.4942666E-03;  4.0000000E+04;  0.0000000E+00;  4.0042738E+04; -1.3674353E-01;  0.0000000E+00;  3.7378863E-02;  5.6755835E+03;
  5.4247767E-01;  9.9999998E-03;  2.9975172E-02;5773;  3.4316766E-01;  0.0000000E+00;  1.5334334E-03;  9.9651404E+02;  1.0002931E-01; -2.8880603E+03;3; -3.7947124E+01;  0.0000000E+00;  2.5923078E+00;0; -1.0125668E-01;  3.9654203E+04;  0.0000000E+00; -3.3141996E-03;  4.0000000E+04;  0.0000000E+00;  4.0042445E+04; -1.3555019E-01;  0.0000000E+00;  3.4293510E-02;  5.6408657E+03;
  5.4250669E-01;  9.9999998E-03;  3.9966505E-02;5774;  3.4233668E-01;  0.0000000E+00;  1.8712813E-03;  9.9649615E+02;  1.0002930E-01; -2.9028748E+03;3; -3.7381596E+01;  0.0000000E+00;  3.2572808E+00;0; -1.0369685E-01;  3.9653258E+04;  0.0000000E+00; -5.7517421E-03;  4.0000000E+04;  0.0000000E+00;  4.0042016E+04; -1.3398363E-01;  0.0000000E+00;  3.0286772E-02;  5.5858140E+03;
  5.4254377E-01;  9.9999998E-03;  4.9957752E-02;5775;  3.4131181E-01;  0.0000000E+00;  2.1138955E-03;  9.9647937E+02;  1.0002938E-01; -2.9167507E+03;3; -3.6696930E+01;  0.0000000E+00;  3.7622700E+00;0; -1.0650853E-01;  3.9652434E+04;  0.0000000E+00; -8.6557474E-03;  4.0000000E+04;  0.0000000E+00;  4.0041383E+04; -1.3213636E-01;  0.0000000E+00;  2.5627831E-02;  5.5066348E+03;
  5.4258829E-01;  9.9999998E-03;  5.9949081E-02;5776;  3.4011334E-01;  0.0000000E+00;  2.2786476E-03;  9.9646136E+02;  1.0002933E-01; -2.9316641E+03;3; -3.5907280E+01;  0.0000000E+00;  4.2307196E+00;0; -1.0950274E-01;  3.9651910E+04;  0.0000000E+00; -1.1805082E-02;  4.0000000E+04;  0.0000000E+00;  4.0040504E+04; -1.3011330E-01;  0.0000000E+00;  2.0610562E-02;  5.4009160E+03;
  5.5292791E-01;  9.9999998E-03; -9.9929921E-02;5821;  3.3253878E-01;  0.0000000E+00; -3.5840957E-03;  9.9663928E+02;  1.0004845E-01; -2.7842600E+03;3; -3.2893646E+01;  0.0000000E+00; -5.7835784E+00;0; -1.2254032E-01;  3.9657828E+04;  0.0000000E+00; -1.2794085E-02;  4.0000000E+04;  0.0000000E+00;  4.0033188E+04; -1.3131145E-01;  0.0000000E+00;  8.7711308E-03;  4.4904272E+03;
  5.5286324E-01;  9.9999998E-03; -8.9935459E-02;5822;  3.3428511E-01;  0.0000000E+00; -3.6068324E-03;  9.9661450E+02;  1.0004840E-01; -2.8048025E+03;3; -3.3866413E+01;  0.0000000E+00; -5.3885999E+00;0; -1.2027840E-01;  3.9654602E+04;  0.0000000E+00; -1.5272513E-02;  4.0000000E+04;  0.0000000E+00;  4.0034590E+04; -1.3389182E-01;  0.0000000E+00;  1.3613426E-02;  4.6660845E+03;
  5.5280274E-01;  9.9999998E-03; -7.9941757E-02;5823;  3.3589682E-01;  0.0000000E+00; -3.5806797E-03;  9.9660010E+02;  1.0004842E-01; -2.8167529E+03;3; -3.4815136E+01;  0.0000000E+00; -4.9795499E+00;0; -1.1756556E-01;  3.9651883E+04;  0.0000000E+00; -1.5582471E-02;  4.0000000E+04;  0.0000000E+00;  4.0035984E+04; -1.3673672E-01;  0.0000000E+00;  1.9171163E-02;  4.8364297E+03;
  5.5274683E-01;  9.9999998E-03; -6.9948688E-02;5824;  3.3736926E-01;  0.0000000E+00; -3.4909360E-03;  9.9659082E+02;  1.0004834E-01; -2.8244563E+03;3; -3.5722046E+01;  0.0000000E+00; -4.5547614E+00;0; -1.1451046E-01;  3.9650047E+04;  0.0000000E+00; -1.4274731E-02;  4.0000000E+04;  0.0000000E+00;  4.0037250E+04; -1.3972314E-01;  0.0000000E+00;  2.5212677E-02;  4.9912910E+03;
  5.5269635E-01;  9.9999998E-03; -5.9956096E-02;5825;  3.3868951E-01;  0.0000000E+00; -3.3342461E-03;  9.9658685E+02;  1.0004846E-01; -2.8277156E+03;3; -3.6571487E+01;  0.0000000E+00; -4.1171174E+00;0; -1.1125927E-01;  3.9648816E+04;  0.0000000E+00; -1.1927071E-02;  4.0000000E+04;  0.0000000E+00;  4.0038285E+04; -1.4271621E-01;  0.0000000E+00;  3.1456944E-02;  5.1232583E+03;
  5.5265182E-01;  9.9999998E-03; -4.9963899E-02;5826;  3.3985174E-01;  0.0000000E+00; -3.0887607E-03;  9.9658972E+02;  1.0004857E-01; -2.8253452E+03;3; -3.7348564E+01;  0.0000000E+00; -3.6555619E+00;0; -1.0799216E-01;  3.9648137E+04;  0.0000000E+00; -9.0842415E-03;  4.0000000E+04;  0.0000000E+00;  4.0039059E+04; -1.4557420E-01;  0.0000000E+00;  3.7582032E-02;  5.2283691E+03;
  5.5261433E-01;  9.9999998E-03; -3.9971758E-02;5827;  3.4083977E-01;  0.0000000E+00; -2.7299239E-03;  9.9659302E+02;  1.0004835E-01; -2.8226292E+03;3; -3.8030472E+01;  0.0000000E+00; -3.0756886E+00;0; -1.0491237E-01;  3.9647793E+04;  0.0000000E+00; -6.2043592E-03;  4.0000000E+04;  0.0000000E+00;  4.0039594E+04; -1.4815593E-01;  0.0000000E+00;  4.3243553E-02;  5.3062695E+03;
  5.5258435E-01;  9.9999998E-03; -2.9979441E-02;5828;  3.4163558E-01;  0.0000000E+00; -2.2505594E-03;  9.9660083E+02;  1.0004839E-01; -2.8161602E+03;3; -3.8617451E+01;  0.0000000E+00; -2.4504859E+00;0; -1.0223065E-01;  3.9647801E+04;  0.0000000E+00; -3.6463917E-03;  4.0000000E+04;  0.0000000E+00;  4.0040016E+04; -1.5032712E-01;  0.0000000E+00;  4.8096467E-02;  5.3593394E+03;
  5.5256230E-01;  9.9999998E-03; -1.9986821E-02;5829;  3.4221908E-01;  0.0000000E+00; -1.6227466E-03;  9.9660443E+02;  1.0004836E-01; -2.8131479E+03;3; -3.9073769E+01;  0.0000000E+00; -1.6885244E+00;0; -1.0014533E-01;  3.9647934E+04;  0.0000000E+00; -1.6655879E-03;  4.0000000E+04;  0.0000000E+00;  4.0040406E+04; -1.5197042E-01;  0.0000000E+00;  5.1825095E-02;  5.3918936E+03;
  5.5254865E-01;  9.9999998E-03; -9.9936770E-03;5830;  3.4257528E-01;  0.0000000E+00; -8.5672009E-04;  9.9660693E+02;  1.0004847E-01; -2.8110740E+03;3; -3.9377983E+01;  0.0000000E+00; -8.4498662E-01;0; -9.8820925E-02;  3.9648023E+04;  0.0000000E+00; -4.2240892E-04;  4.0000000E+04;  0.0000000E+00;  4.0040422E+04; -1.5299481E-01;  0.0000000E+00;  5.4173891E-02;  5.4087842E+03;
  5.5254406E-01;  9.9999998E-03; -2.1801623E-11;5831;  3.4269503E-01;  0.0000000E+00; -1.9165498E-08;  9.9660901E+02;  1.0004861E-01; -2.8093457E+03;3; -3.9481689E+01;  0.0000000E+00;  9.6225449E-07;0; -9.8367043E-02;  3.9648094E+04;  0.0000000E+00;  3.6942107E-12;  4.0000000E+04;  0.0000000E+00;  4.0040520E+04; -1.5334330E-01;  0.0000000E+00;  5.4976262E-02;  5.4139009E+03;
  5.5254865E-01;  9.9999998E-03;  9.9936770E-03;5832;  3.4257528E-01;  0.0000000E+00;  8.5668277E-04;  9.9660699E+02;  1.0004843E-01; -2.8110247E+03;3; -3.9377796E+01;  0.0000000E+00;  8.4497458E-01;0; -9.8821059E-02;  3.9648023E+04;  0.0000000E+00; -4.2288203E-04;  4.0000000E+04;  0.0000000E+00;  4.0040422E+04; -1.5299498E-01;  0.0000000E+00;  5.4173920E-02;  5.4087896E+03;
  5.5256230E-01;  9.9999998E-03;  1.9986821E-02;5833;  3.4221908E-01;  0.0000000E+00;  1.6227087E-03;  9.9660449E+02;  1.0004843E-01; -2.8130986E+03;3; -3.9073994E+01;  0.0000000E+00;  1.6885071E+00;0; -1.0014502E-01;  3.9647934E+04;  0.0000000E+00; -1.6664846E-03;  4.0000000E+04;  0.0000000E+00;  4.0040406E+04; -1.5197015E-01;  0.0000000E+00;  5.1825128E-02;  5.3918984E+03;
  5.5258435E-01;  9.9999998E-03;  2.9979441E-02;5834;  3.4163561E-01;  0.0000000E+00;  2.2505217E-03;  9.9660083E+02;  1.0004839E-01; -2.8161602E+03;3; -3.8617527E+01;  0.0000000E+00;  2.4504821E+00;0; -1.0223062E-01;  3.9647805E+04;  0.0000000E+00; -3.6473232E-03;  4.0000000E+04;  0.0000000E+00;  4.0040016E+04; -1.5032718E-01;  0.0000000E+00;  4.8096549E-02;  5.3593472E+03;
  5.5261433E-01;  9.9999998E-03;  3.9971758E-02;5835;  3.4083980E-01;  0.0000000E+00;  2.7298825E-03;  9.9659302E+02;  1.0004835E-01; -2.8226292E+03;3; -3.8030296E+01;  0.0000000E+00;  3.0756598E+00;0; -1.0491228E-01;  3.9647793E+04;  0.0000000E+00; -6.2046652E-03;  4.0000000E+04;  0.0000000E+00;  4.0039594E+04; -1.4815579E-01;  0.0000000E+00;  4.3243516E-02;  5.3062866E+03;
  5.5265182E-01;  9.9999998E-03;  4.9963899E-02;5836;  3.3985174E-01;  0.0000000E+00;  3.0887218E-03;  9.9658972E+02;  1.0004857E-01; -2.8253452E+03;3; -3.7348263E+01;  0.0000000E+00;  3.6556377E+00;0; -1.0799219E-01;  3.9648137E+04;  0.0000000E+00; -9.0844957E-03;  4.0000000E+04;  0.0000000E+00;  4.0039059E+04; -1.4557420E-01;  0.0000000E+00;  3.7582006E-02;  5.2283735E+03;
  5.5269635E-01;  9.9999998E-03;  5.9956096E-02;5837;  3.3868954E-01;  0.0000000E+00;  3.3342021E-03;  9.9658691E+02;  1.0004842E-01; -2.8276660E+03;3; -3.6571743E+01;  0.0000000E+00;  4.1170974E+00;0; -1.1125926E-01;  3.9648816E+04;  0.0000000E+00; -1.1926451E-02;  4.0000000E+04;  0.0000000E+00;  4.0038285E+04; -1.4271614E-01;  0.0000000E+00;  3.1456880E-02;  5.1232612E+03;
  5.6303394E-01;  9.9999998E-03; -9.9943198E-02;5882;  3.3120888E-01;  0.0000000E+00; -4.8928047E-03;  9.9697754E+02;  1.0007910E-01; -2.5040205E+03;3; -3.3562569E+01;  0.0000000E+00; -5.5329542E+00;0; -1.2458207E-01;  3.9662891E+04;  0.0000000E+00; -3.9324607E-03;  4.0000000E+04;  0.0000000E+00;  4.0030582E+04; -1.4017437E-01;  0.0000000E+00;  1.5592310E-02;  4.1511978E+03;
  5.6297433E-01;  9.9999998E-03; -8.9947663E-02;5883;  3.3291644E-01;  0.0000000E+00; -4.8868540E-03;  9.9694806E+02;  1.0007905E-01; -2.5284641E+03;3; -3.4524727E+01;  0.0000000E+00; -5.1793485E+00;0; -1.2215417E-01;  3.9659152E+04;  0.0000000E+00; -9.5439851E-03;  4.0000000E+04;  0.0000000E+00;  4.0031770E+04; -1.4369121E-01;  0.0000000E+00;  2.1537043E-02;  4.3091865E+03;
  5.6291789E-01;  9.9999998E-03; -7.9952836E-02;5884;  3.3448654E-01;  0.0000000E+00; -4.8198001E-03;  9.9692322E+02;  1.0007913E-01; -2.5490559E+03;3; -3.5452065E+01;  0.0000000E+00; -4.8055749E+00;0; -1.1924926E-01;  3.9656051E+04;  0.0000000E+00; -1.2335939E-02;  4.0000000E+04;  0.0000000E+00;  4.0033008E+04; -1.4749737E-01;  0.0000000E+00;  2.8248109E-02;  4.4665312E+03;
  5.6286466E-01;  9.9999998E-03; -6.9958627E-02;5885;  3.3591047E-01;  0.0000000E+00; -4.6837959E-03;  9.9690509E+02;  1.0007910E-01; -2.5640679E+03;3; -3.6335030E+01;  0.0000000E+00; -4.4121914E+00;0; -1.1597413E-01;  3.9653582E+04;  0.0000000E+00; -1.2821413E-02;  4.0000000E+04;  0.0000000E+00;  4.0034113E+04; -1.5143685E-01;  0.0000000E+00;  3.5462726E-02;  4.6119922E+03;
  5.6281555E-01;  9.9999998E-03; -5.9964858E-02;5886;  3.3718237E-01;  0.0000000E+00; -4.4587883E-03;  9.9689355E+02;  1.0007899E-01; -2.5736479E+03;3; -3.7176529E+01;  0.0000000E+00; -3.9543927E+00;0; -1.1248039E-01;  3.9651562E+04;  0.0000000E+00; -1.1615606E-02;  4.0000000E+04;  0.0000000E+00;  4.0035078E+04; -1.5534249E-01;  0.0000000E+00;  4.2862095E-02;  4.7369878E+03;
  5.6277168E-01;  9.9999998E-03; -4.9971469E-02;5887;  3.3829525E-01;  0.0000000E+00; -4.1194935E-03;  9.9688641E+02;  1.0007892E-01; -2.5795242E+03;3; -3.7931896E+01;  0.0000000E+00; -3.4587522E+00;0; -1.0895954E-01;  3.9650219E+04;  0.0000000E+00; -9.3636643E-03;  4.0000000E+04;  0.0000000E+00;  4.0035836E+04; -1.5904008E-01;  0.0000000E+00;  5.0080542E-02;  4.8366768E+03;
  5.6273431E-01;  9.9999998E-03; -3.9978180E-02;5888;  3.3922940E-01;  0.0000000E+00; -3.6387474E-03;  9.9688171E+02;  1.0007887E-01; -2.5834253E+03;3; -3.8643509E+01;  0.0000000E+00; -2.8629324E+00;0; -1.0563092E-01;  3.9649336E+04;  0.0000000E+00; -6.6665881E-03;  4.0000000E+04;  0.0000000E+00;  4.0036527E+04; -1.6235676E-01;  0.0000000E+00;  5.6725845E-02;  4.9100137E+03;
  5.6270415E-01;  9.9999998E-03; -2.9984711E-02;5889;  3.3997017E-01;  0.0000000E+00; -2.9813468E-03;  9.9687909E+02;  1.0007900E-01; -2.5855981E+03;3; -3.9228680E+01;  0.0000000E+00; -2.1937342E+00;0; -1.0272476E-01;  3.9648754E+04;  0.0000000E+00; -4.0389667E-03;  4.0000000E+04;  0.0000000E+00;  4.0036820E+04; -1.6512999E-01;  0.0000000E+00;  6.2405232E-02;  4.9592163E+03;
  5.6268185E-01;  9.9999998E-03; -1.9990792E-02;5890;  3.4050545E-01;  0.0000000E+00; -2.1294418E-03;  9.9687769E+02;  1.0007905E-01; -2.5867832E+03;3; -3.9685459E+01;  0.0000000E+00; -1.4510293E+00;0; -1.0046043E-01;  3.9648426E+04;  0.0000000E+00; -1.8843421E-03;  4.0000000E+04;  0.0000000E+00;  4.0037074E+04; -1.6721995E-01;  0.0000000E+00;  6.6759519E-02;  4.9886147E+03;
  5.6266773E-01;  9.9999998E-03; -9.9960556E-03;5891;  3.4082541E-01;  0.0000000E+00; -1.1097968E-03;  9.9687964E+02;  1.0007912E-01; -2.5851536E+03;3; -3.9980019E+01;  0.0000000E+00; -7.1283025E-01;0; -9.9020079E-02;  3.9648305E+04;  0.0000000E+00; -4.8392851E-04;  4.0000000E+04;  0.0000000E+00;  4.0037156E+04; -1.6851811E-01;  0.0000000E+00;  6.9498032E-02;  5.0033657E+03;
  5.6266278E-01;  9.9999998E-03; -9.3677337E-11;5892;  3.4093037E-01;  0.0000000E+00; -2.1567979E-08;  9.9687854E+02;  1.0007896E-01; -2.5860425E+03;3; -4.0082916E+01;  0.0000000E+00;  3.4636032E-06;0; -9.8525509E-02;  3.9648266E+04;  0.0000000E+00;  3.7712468E-12;  4.0000000E+04;  0.0000000E+00;  4.0037238E+04; -1.6895816E-01;  0.0000000E+00;  7.0432648E-02;  5.0077217E+03;
  5.6266773E-01;  9.9999998E-03;  9.9960556E-03;5893;  3.4082541E-01;  0.0000000E+00;  1.1097534E-03;  9.9687964E+02;  1.0007912E-01; -2.5851536E+03;3; -3.9980373E+01;  0.0000000E+00;  7.1282578E-01;0; -9.9020302E-02;  3.9648305E+04;  0.0000000E+00; -4.8441309E-04;  4.0000000E+04;  0.0000000E+00;  4.0037156E+04; -1.6851825E-01;  0.0000000E+00;  6.9497943E-02;  5.0033657E+03;
  5.6268185E-01;  9.9999998E-03;  1.9990792E-02;5894;  3.4050545E-01;  0.0000000E+00;  2.1293990E-03;  9.9687769E+02;  1.0007905E-01; -2.5867832E+03;3; -3.9685654E+01;  0.0000000E+00;  1.4510252E+00;0; -1.0046044E-01;  3.9648422E+04;  0.0000000E+00; -1.8852673E-03;  4.0000000E+04;  0.0000000E+00;  4.0037078E+04; -1.6721997E-01;  0.0000000E+00;  6.6759527E-02;  4.9886162E+03;
  5.6270415E-01;  9.9999998E-03;  2.9984711E-02;5895;  3.3997017E-01;  0.0000000E+00;  2.9813033E-03;  9.9687909E+02;  1.0007900E-01; -2.5855981E+03;3; -3.9228107E+01;  0.0000000E+00;  2.1937454E+00;0; -1.0272467E-01;  3.9648754E+04;  0.0000000E+00; -4.0403698E-03;  4.0000000E+04;  0.0000000E+00;  4.0036820E+04; -1.6512990E-01;  0.0000000E+00;  6.2405232E-02;  4.9592197E+03;
  5.6273431E-01;  9.9999998E-03;  3.9978180E-02;5896;  3.3922946E-01;  0.0000000E+00;  3.6387050E-03;  9.9688171E+02;  1.0007887E-01; -2.5834253E+03;3; -3.8643341E+01;  0.0000000E+00;  2.8629506E+00;0; -1.0563090E-01;  3.9649332E+04;  0.0000000E+00; -6.6673262E-03;  4.0000000E+04;  0.0000000E+00;  4.0036527E+04; -1.6235670E-01;  0.0000000E+00;  5.6725796E-02;  4.9100234E+03;
  5.6277162E-01;  9.9999998E-03;  4.9971469E-02;5897;  3.3829528E-01;  0.0000000E+00;  4.1194502E-03;  9.9688641E+02;  1.0007892E-01; -2.5795242E+03;3; -3.7932175E+01;  0.0000000E+00;  3.4587350E+00;0; -1.0895960E-01;  3.9650219E+04;  0.0000000E+00; -9.3638301E-03;  4.0000000E+04;  0.0000000E+00;  4.0035836E+04; -1.5904005E-01;  0.0000000E+00;  5.0080448E-02;  4.8366826E+03;
  5.6281555E-01;  9.9999998E-03;  5.9964858E-02;5898;  3.3718243E-01;  0.0000000E+00;  4.4587483E-03;  9.9689349E+02;  1.0007904E-01; -2.5736973E+03;3; -3.7176010E+01;  0.0000000E+00;  3.9544396E+00;0; -1.1248018E-01;  3.9651562E+04;  0.0000000E+00; -1.1613929E-02;  4.0000000E+04;  0.0000000E+00;  4.0035078E+04; -1.5534228E-01;  0.0000000E+00;  4.2862099E-02;  4.7370000E+03;
  5.7312638E-01;  9.9999998E-03; -9.9957541E-02;5943;  3.2984358E-01;  0.0000000E+00; -6.2766173E-03;  9.9737854E+02;  1.0012959E-01; -2.1718323E+03;3; -3.4164288E+01;  0.0000000E+00; -5.2583733E+00;0; -1.2601961E-01;  3.9657918E+04;  0.0000000E+00;  7.3762643E-03;  4.0000000E+04;  0.0000000E+00;  4.0027496E+04; -1.4905152E-01;  0.0000000E+00;  2.3031911E-02;  3.7789858E+03;
  5.7307363E-01;  9.9999998E-03; -8.9960694E-02;5944;  3.3150512E-01;  0.0000000E+00; -6.2389742E-03;  9.9735120E+02;  1.0012970E-01; -2.1944983E+03;3; -3.5112011E+01;  0.0000000E+00; -4.9474850E+00;0; -1.2346198E-01;  3.9654496E+04;  0.0000000E+00; -1.2383674E-03;  4.0000000E+04;  0.0000000E+00;  4.0028457E+04; -1.5352540E-01;  0.0000000E+00;  3.0063424E-02;  3.9103481E+03;
  5.7302272E-01;  9.9999998E-03; -7.9964593E-02;5945;  3.3302310E-01;  0.0000000E+00; -6.1288634E-03;  9.9732703E+02;  1.0012975E-01; -2.2144976E+03;3; -3.6020443E+01;  0.0000000E+00; -4.5981140E+00;0; -1.2040918E-01;  3.9651711E+04;  0.0000000E+00; -6.7650420E-03;  4.0000000E+04;  0.0000000E+00;  4.0029586E+04; -1.5830776E-01;  0.0000000E+00;  3.7898585E-02;  4.0464719E+03;
  5.7297397E-01;  9.9999998E-03; -6.9969133E-02;5946;  3.3438754E-01;  0.0000000E+00; -5.9417519E-03;  9.9730957E+02;  1.0012960E-01; -2.2289663E+03;3; -3.6892750E+01;  0.0000000E+00; -4.1970611E+00;0; -1.1696406E-01;  3.9649281E+04;  0.0000000E+00; -9.4990171E-03;  4.0000000E+04;  0.0000000E+00;  4.0030527E+04; -1.6321014E-01;  0.0000000E+00;  4.6246082E-02;  4.1755327E+03;
  5.7292807E-01;  9.9999998E-03; -5.9974097E-02;5947;  3.3559865E-01;  0.0000000E+00; -5.6412690E-03;  9.9729773E+02;  1.0012952E-01; -2.2387932E+03;3; -3.7719967E+01;  0.0000000E+00; -3.7404923E+00;0; -1.1328222E-01;  3.9647426E+04;  0.0000000E+00; -9.9479752E-03;  4.0000000E+04;  0.0000000E+00;  4.0031438E+04; -1.6803323E-01;  0.0000000E+00;  5.4751012E-02;  4.2881606E+03;
  5.7288629E-01;  9.9999998E-03; -4.9979348E-02;5948;  3.3664444E-01;  0.0000000E+00; -5.1922626E-03;  9.9728827E+02;  1.0012968E-01; -2.2465952E+03;3; -3.8486305E+01;  0.0000000E+00; -3.2200737E+00;0; -1.0956235E-01;  3.9645926E+04;  0.0000000E+00; -8.7584294E-03;  4.0000000E+04;  0.0000000E+00;  4.0032105E+04; -1.7256941E-01;  0.0000000E+00;  6.3007057E-02;  4.3787354E+03;
  5.7284981E-01;  9.9999998E-03; -3.9984673E-02;5949;  3.3750618E-01;  0.0000000E+00; -4.5539187E-03;  9.9728290E+02;  1.0012950E-01; -2.2510396E+03;3; -3.9179585E+01;  0.0000000E+00; -2.5896943E+00;0; -1.0603626E-01;  3.9644914E+04;  0.0000000E+00; -6.6162101E-03;  4.0000000E+04;  0.0000000E+00;  4.0032637E+04; -1.7661367E-01;  0.0000000E+00;  7.0577413E-02;  4.4454741E+03;
  5.7282007E-01;  9.9999998E-03; -2.9989826E-02;5950;  3.3817831E-01;  0.0000000E+00; -3.6877620E-03;  9.9727679E+02;  1.0012951E-01; -2.2561260E+03;3; -3.9771725E+01;  0.0000000E+00; -1.9139169E+00;0; -1.0295242E-01;  3.9644125E+04;  0.0000000E+00; -4.1767736E-03;  4.0000000E+04;  0.0000000E+00;  4.0032898E+04; -1.7998014E-01;  0.0000000E+00;  7.7027723E-02;  4.4899634E+03;
  5.7279789E-01;  9.9999998E-03; -1.9994523E-02;5951;  3.3865374E-01;  0.0000000E+00; -2.5940561E-03;  9.9727399E+02;  1.0012944E-01; -2.2584468E+03;3; -4.0220554E+01;  0.0000000E+00; -1.2484471E+00;0; -1.0054673E-01;  3.9643699E+04;  0.0000000E+00; -2.0034122E-03;  4.0000000E+04;  0.0000000E+00;  4.0033160E+04; -1.8250814E-01;  0.0000000E+00;  8.1961408E-02;  4.5161489E+03;
  5.7278359E-01;  9.9999998E-03; -9.9982042E-03;5952;  3.3893588E-01;  0.0000000E+00; -1.3411803E-03;  9.9727283E+02;  1.0012960E-01; -2.2593850E+03;3; -4.0485737E+01;  0.0000000E+00; -6.1544323E-01;0; -9.9015161E-02;  3.9643484E+04;  0.0000000E+00; -5.2294816E-04;  4.0000000E+04;  0.0000000E+00;  4.0033250E+04; -1.8407436E-01;  0.0000000E+00;  8.5059196E-02;  4.5289805E+03;
  5.7277852E-01;  9.9999998E-03; -1.3057723E-10;5953;  3.3903053E-01;  0.0000000E+00; -2.4201089E-08;  9.9727203E+02;  1.0012943E-01; -2.2600764E+03;3; -4.0576435E+01;  0.0000000E+00; -1.0776326E-05;0; -9.8489545E-02;  3.9643414E+04;  0.0000000E+00;  2.3190445E-12;  4.0000000E+04;  0.0000000E+00;  4.0033230E+04; -1.8460514E-01;  0.0000000E+00;  8.6115591E-02;  4.5326958E+03;
  5.7278359E-01;  9.9999998E-03;  9.9982033E-03;5954;  3.3893588E-01;  0.0000000E+00;  1.3411311E-03;  9.9727283E+02;  1.0012960E-01; -2.2593850E+03;3; -4.0485504E+01;  0.0000000E+00;  6.1543351E-01;0; -9.9015102E-02;  3.9643484E+04;  0.0000000E+00; -5.2328513E-04;  4.0000000E+04;  0.0000000E+00;  4.0033250E+04; -1.8407433E-01;  0.0000000E+00;  8.5059226E-02;  4.5289805E+03;
  5.7279789E-01;  9.9999998E-03;  1.9994523E-02;5955;  3.3865377E-01;  0.0000000E+00;  2.5940072E-03;  9.9727399E+02;  1.0012944E-01; -2.2584468E+03;3; -4.0220169E+01;  0.0000000E+00;  1.2484496E+00;0; -1.0054667E-01;  3.9643699E+04;  0.0000000E+00; -2.0040406E-03;  4.0000000E+04;  0.0000000E+00;  4.0033160E+04; -1.8250804E-01;  0.0000000E+00;  8.1961371E-02;  4.5161543E+03;
  5.7282001E-01;  9.9999998E-03;  2.9989826E-02;5956;  3.3817834E-01;  0.0000000E+00;  3.6877156E-03;  9.9727679E+02;  1.0012951E-01; -2.2561260E+03;3; -3.9771111E+01;  0.0000000E+00;  1.9139128E+00;0; -1.0295261E-01;  3.9644121E+04;  0.0000000E+00; -4.1776430E-03;  4.0000000E+04;  0.0000000E+00;  4.0032898E+04; -1.7998026E-01;  0.0000000E+00;  7.7027656E-02;  4.4899727E+03;
  5.7284981E-01;  9.9999998E-03;  3.9984673E-02;5957;  3.3750620E-01;  0.0000000E+00;  4.5538745E-03;  9.9728290E+02;  1.0012950E-01; -2.2510396E+03;3; -3.9180080E+01;  0.0000000E+00;  2.5896788E+00;0; -1.0603601E-01;  3.9644918E+04;  0.0000000E+00; -6.6168243E-03;  4.0000000E+04;  0.0000000E+00;  4.0032637E+04; -1.7661352E-01;  0.0000000E+00;  7.0577510E-02;  4.4454854E+03;
  5.7288629E-01;  9.9999998E-03;  4.9979348E-02;5958;  3.3664447E-01;  0.0000000E+00;  5.1922174E-03;  9.9728815E+02;  1.0012954E-01; -2.2466941E+03;3; -3.8485977E+01;  0.0000000E+00;  3.2200432E+00;0; -1.0956243E-01;  3.9645922E+04;  0.0000000E+00; -8.7595880E-03;  4.0000000E+04;  0.0000000E+00;  4.0032105E+04; -1.7256942E-01;  0.0000000E+00;  6.3006990E-02;  4.3787441E+03;
  5.7292807E-01;  9.9999998E-03;  5.9974097E-02;5959;  3.3559871E-01;  0.0000000E+00;  5.6412299E-03;  9.9729773E+02;  1.0012952E-01; -2.2387932E+03;3; -3.7720165E+01;  0.0000000E+00;  3.7405050E+00;0; -1.1328208E-01;  3.9647430E+04;  0.0000000E+00; -9.9492194E-03;  4.0000000E+04;  0.0000000E+00;  4.0031438E+04; -1.6803315E-01;  0.0000000E+00;  5.4751072E-02;  4.2881768E+03;
  5.8318335E-01;  9.9999998E-03; -9.9973306E-02;6004;  3.2844320E-01;  0.0000000E+00; -7.7334959E-03;  9.9770374E+02;  1.0021164E-01; -1.9024077E+03;3; -3.4703594E+01;  0.0000000E+00; -4.9476857E+00;0; -1.2679589E-01;  3.9622363E+04;  0.0000000E+00;  2.0568419E-02;  4.0000000E+04;  0.0000000E+00;  4.0024207E+04; -1.5794928E-01;  0.0000000E+00;  3.1153399E-02;  3.4141450E+03;
  5.8313966E-01;  9.9999998E-03; -8.9974880E-02;6005;  3.3004978E-01;  0.0000000E+00; -7.6574930E-03;  9.9768237E+02;  1.0021170E-01; -1.9200862E+03;3; -3.5640953E+01;  0.0000000E+00; -4.6642451E+00;0; -1.2418292E-01;  3.9620059E+04;  0.0000000E+00;  9.7135929E-03;  4.0000000E+04;  0.0000000E+00;  4.0025043E+04; -1.6340193E-01;  0.0000000E+00;  3.9219011E-02;  3.5142378E+03;
  5.8309662E-01;  9.9999998E-03; -7.9977147E-02;6006;  3.3150300E-01;  0.0000000E+00; -7.5056073E-03;  9.9766803E+02;  1.0021155E-01; -1.9319871E+03;3; -3.6545998E+01;  0.0000000E+00; -4.3168645E+00;0; -1.2106642E-01;  3.9618035E+04;  0.0000000E+00;  1.6211802E-03;  4.0000000E+04;  0.0000000E+00;  4.0025844E+04; -1.6917540E-01;  0.0000000E+00;  4.8108980E-02;  3.6241948E+03;
  5.8305424E-01;  9.9999998E-03; -6.9980048E-02;6007;  3.3279845E-01;  0.0000000E+00; -7.2542275E-03;  9.9765906E+02;  1.0021161E-01; -1.9393942E+03;3; -3.7404781E+01;  0.0000000E+00; -3.9502466E+00;0; -1.1754448E-01;  3.9616508E+04;  0.0000000E+00; -3.5960064E-03;  4.0000000E+04;  0.0000000E+00;  4.0026617E+04; -1.7504984E-01;  0.0000000E+00;  5.7505362E-02;  3.7325095E+03;
  5.8301330E-01;  9.9999998E-03; -5.9983388E-02;6008;  3.3393270E-01;  0.0000000E+00; -6.8545202E-03;  9.9765271E+02;  1.0021155E-01; -1.9446780E+03;3; -3.8222801E+01;  0.0000000E+00; -3.4764884E+00;0; -1.1377040E-01;  3.9615105E+04;  0.0000000E+00; -6.1674956E-03;  4.0000000E+04;  0.0000000E+00;  4.0027422E+04; -1.8079197E-01;  0.0000000E+00;  6.7021579E-02;  3.8295149E+03;
  5.8297521E-01;  9.9999998E-03; -4.9986988E-02;6009;  3.3489075E-01;  0.0000000E+00; -6.2619760E-03;  9.9764764E+02;  1.0021136E-01; -1.9488755E+03;3; -3.8994289E+01;  0.0000000E+00; -2.8954794E+00;0; -1.0994642E-01;  3.9614203E+04;  0.0000000E+00; -6.5892250E-03;  4.0000000E+04;  0.0000000E+00;  4.0028012E+04; -1.8616138E-01;  0.0000000E+00;  7.6214962E-02;  3.9089146E+03;
  5.8294088E-01;  9.9999998E-03; -3.9990701E-02;6010;  3.3566564E-01;  0.0000000E+00; -5.4273657E-03;  9.9764410E+02;  1.0021155E-01; -1.9517889E+03;3; -3.9690308E+01;  0.0000000E+00; -2.2669754E+00;0; -1.0631386E-01;  3.9613453E+04;  0.0000000E+00; -5.5319257E-03;  4.0000000E+04;  0.0000000E+00;  4.0028418E+04; -1.9092533E-01;  0.0000000E+00;  8.4611468E-02;  3.9682874E+03;
  5.8291179E-01;  9.9999998E-03; -2.9994233E-02;6011;  3.3625758E-01;  0.0000000E+00; -4.3283934E-03;  9.9764331E+02;  1.0021155E-01; -1.9524802E+03;3; -4.0252663E+01;  0.0000000E+00; -1.6877836E+00;0; -1.0313188E-01;  3.9613000E+04;  0.0000000E+00; -3.7255418E-03;  4.0000000E+04;  0.0000000E+00;  4.0028750E+04; -1.9487385E-01;  0.0000000E+00;  9.1741972E-02;  4.0083210E+03;
  5.8288997E-01;  9.9999998E-03; -1.9997373E-02;6012;  3.3667114E-01;  0.0000000E+00; -3.0188325E-03;  9.9764166E+02;  1.0021152E-01; -1.9538135E+03;3; -4.0668892E+01;  0.0000000E+00; -1.1477281E+00;0; -1.0064771E-01;  3.9612699E+04;  0.0000000E+00; -1.8602514E-03;  4.0000000E+04;  0.0000000E+00;  4.0028969E+04; -1.9783033E-01;  0.0000000E+00;  9.7182624E-02;  4.0320493E+03;
  5.8287591E-01;  9.9999998E-03; -9.9996142E-03;6013;  3.3691800E-01;  0.0000000E+00; -1.5465317E-03;  9.9764050E+02;  1.0021130E-01; -1.9548011E+03;3; -4.0921352E+01;  0.0000000E+00; -5.6754732E-01;0; -9.9066854E-02;  3.9612512E+04;  0.0000000E+00; -4.9664581E-04;  4.0000000E+04;  0.0000000E+00;  4.0028961E+04; -1.9966008E-01;  0.0000000E+00;  1.0059322E-01;  4.0437861E+03;
  5.8287078E-01;  9.9999998E-03; -1.3876995E-10;6014;  3.3699885E-01;  0.0000000E+00; -2.7037744E-08;  9.9763953E+02;  1.0021145E-01; -1.9555912E+03;3; -4.1012531E+01;  0.0000000E+00; -3.7985687E-06;0; -9.8523855E-02;  3.9612449E+04;  0.0000000E+00;  1.5535061E-12;  4.0000000E+04;  0.0000000E+00;  4.0029051E+04; -2.0027892E-01;  0.0000000E+00;  1.0175507E-01;  4.0471885E+03;
  5.8287591E-01;  9.9999998E-03;  9.9996142E-03;6015;  3.3691797E-01;  0.0000000E+00;  1.5464781E-03;  9.9764050E+02;  1.0021130E-01; -1.9548011E+03;3; -4.0921741E+01;  0.0000000E+00;  5.6754589E-01;0; -9.9066846E-02;  3.9612508E+04;  0.0000000E+00; -4.9698207E-04;  4.0000000E+04;  0.0000000E+00;  4.0028961E+04; -1.9966015E-01;  0.0000000E+00;  1.0059331E-01;  4.0437896E+03;
  5.8288997E-01;  9.9999998E-03;  1.9997371E-02;6016;  3.3667117E-01;  0.0000000E+00;  3.0187808E-03;  9.9764166E+02;  1.0021152E-01; -1.9538135E+03;3; -4.0669075E+01;  0.0000000E+00;  1.1477265E+00;0; -1.0064756E-01;  3.9612699E+04;  0.0000000E+00; -1.8603280E-03;  4.0000000E+04;  0.0000000E+00;  4.0028969E+04; -1.9783014E-01;  0.0000000E+00;  9.7182579E-02;  4.0320554E+03;
  5.8291179E-01;  9.9999998E-03;  2.9994233E-02;6017;  3.3625761E-01;  0.0000000E+00;  4.3283459E-03;  9.9764331E+02;  1.0021145E-01; -1.9524802E+03;3; -4.0252628E+01;  0.0000000E+00;  1.6877857E+00;0; -1.0313158E-01;  3.9612996E+04;  0.0000000E+00; -3.7261043E-03;  4.0000000E+04;  0.0000000E+00;  4.0028750E+04; -1.9487360E-01;  0.0000000E+00;  9.1742024E-02;  4.0083306E+03;
  5.8294088E-01;  9.9999998E-03;  3.9990701E-02;6018;  3.3566567E-01;  0.0000000E+00;  5.4273182E-03;  9.9764410E+02;  1.0021155E-01; -1.9517889E+03;3; -3.9690174E+01;  0.0000000E+00;  2.2669487E+00;0; -1.0631377E-01;  3.9613449E+04;  0.0000000E+00; -5.5320882E-03;  4.0000000E+04;  0.0000000E+00;  4.0028418E+04; -1.9092545E-01;  0.0000000E+00;  8.4611684E-02;  3.9682983E+03;
  5.8297521E-01;  9.9999998E-03;  4.9986988E-02;6019;  3.3489084E-01;  0.0000000E+00;  6.2619331E-03;  9.9764764E+02;  1.0021136E-01; -1.9488755E+03;3; -3.8994011E+01;  0.0000000E+00;  2.8954816E+00;0; -1.0994621E-01;  3.9614199E+04;  0.0000000E+00; -6.5910369E-03;  4.0000000E+04;  0.0000000E+00;  4.0028012E+04; -1.8616122E-01;  0.0000000E+00;  7.6215006E-02;  3.9089324E+03;
  5.8301330E-01;  9.9999998E-03;  5.9983384E-02;6020;  3.3393279E-01;  0.0000000E+00;  6.8544778E-03;  9.9765271E+02;  1.0021155E-01; -1.9446780E+03;3; -3.8222294E+01;  0.0000000E+00;  3.4764822E+00;0; -1.1377049E-01;  3.9615109E+04;  0.0000000E+00; -6.1669513E-03;  4.0000000E+04;  0.0000000E+00;  4.0027422E+04; -1.8079205E-01;  0.0000000E+00;  6.7021556E-02;  3.8295269E+03;
  5.9319496E-01;  9.9999998E-03; -9.9988982E-02;6065;  3.2699758E-01;  0.0000000E+00; -9.2602391E-03;  9.9780182E+02;  1.0034414E-01; -1.8211251E+03;3; -3.5192654E+01;  0.0000000E+00; -4.5813541E+00;0; -1.2679496E-01;  3.9530152E+04;  0.0000000E+00;  3.3036936E-02;  4.0000000E+04;  0.0000000E+00;  4.0020777E+04; -1.6681196E-01;  0.0000000E+00;  4.0016998E-02;  3.0913936E+03;
  5.9315485E-01;  9.9999998E-03; -8.9989826E-02;6066;  3.2853958E-01;  0.0000000E+00; -9.1415783E-03;  9.9779266E+02;  1.0034394E-01; -1.8287299E+03;3; -3.6127888E+01;  0.0000000E+00; -4.3274345E+00;0; -1.2424127E-01;  3.9528863E+04;  0.0000000E+00;  2.1557510E-02;  4.0000000E+04;  0.0000000E+00;  4.0021281E+04; -1.7325750E-01;  0.0000000E+00;  4.9016230E-02;  3.1615554E+03;
  5.9311855E-01;  9.9999998E-03; -7.9990886E-02;6067;  3.2991681E-01;  0.0000000E+00; -8.9329965E-03;  9.9779022E+02;  1.0034391E-01; -1.8307545E+03;3; -3.7021210E+01;  0.0000000E+00; -4.0029950E+00;0; -1.2118904E-01;  3.9528059E+04;  0.0000000E+00;  1.1821584E-02;  4.0000000E+04;  0.0000000E+00;  4.0021973E+04; -1.8003307E-01;  0.0000000E+00;  5.8844037E-02;  3.2452041E+03;
  5.9308523E-01;  9.9999998E-03; -6.9991976E-02;6068;  3.3112681E-01;  0.0000000E+00; -8.5913511E-03;  9.9779126E+02;  1.0034383E-01; -1.8299150E+03;3; -3.7887455E+01;  0.0000000E+00; -3.5919960E+00;0; -1.1772621E-01;  3.9527543E+04;  0.0000000E+00;  4.4489279E-03;  4.0000000E+04;  0.0000000E+00;  4.0022574E+04; -1.8688701E-01;  0.0000000E+00;  6.9160804E-02;  3.3318032E+03;
  5.9305221E-01;  9.9999998E-03; -5.9993099E-02;6069;  3.3216381E-01;  0.0000000E+00; -8.0541866E-03;  9.9779456E+02;  1.0034374E-01; -1.8271498E+03;3; -3.8713600E+01;  0.0000000E+00; -3.0807855E+00;0; -1.1399967E-01;  3.9527254E+04;  0.0000000E+00; -3.4232414E-04;  4.0000000E+04;  0.0000000E+00;  4.0023270E+04; -1.9354939E-01;  0.0000000E+00;  7.9549722E-02;  3.4124521E+03;
  5.9301949E-01;  9.9999998E-03; -4.9994487E-02;6070;  3.3301866E-01;  0.0000000E+00; -7.2768759E-03;  9.9780078E+02;  1.0034379E-01; -1.8220142E+03;3; -3.9477116E+01;  0.0000000E+00; -2.5341628E+00;0; -1.1020980E-01;  3.9527137E+04;  0.0000000E+00; -2.7357545E-03;  4.0000000E+04;  0.0000000E+00;  4.0023762E+04; -1.9974744E-01;  0.0000000E+00;  8.9537643E-02;  3.4806958E+03;
  5.9298891E-01;  9.9999998E-03; -3.9996110E-02;6071;  3.3369467E-01;  0.0000000E+00; -6.2188990E-03;  9.9780518E+02;  1.0034349E-01; -1.8183600E+03;3; -4.0137508E+01;  0.0000000E+00; -2.0218902E+00;0; -1.0660052E-01;  3.9527141E+04;  0.0000000E+00; -3.2377727E-03;  4.0000000E+04;  0.0000000E+00;  4.0024207E+04; -2.0522442E-01;  0.0000000E+00;  9.8623909E-02;  3.5332385E+03;
  5.9296209E-01;  9.9999998E-03; -2.9997684E-02;6072;  3.3420360E-01;  0.0000000E+00; -4.9128812E-03;  9.9780933E+02;  1.0034350E-01; -1.8149033E+03;3; -4.0678360E+01;  0.0000000E+00; -1.5418820E+00;0; -1.0343461E-01;  3.9527117E+04;  0.0000000E+00; -2.5389821E-03;  4.0000000E+04;  0.0000000E+00;  4.0024449E+04; -2.0974959E-01;  0.0000000E+00;  1.0631499E-01;  3.5698875E+03;
  5.9294093E-01;  9.9999998E-03; -1.9999113E-02;6073;  3.3455795E-01;  0.0000000E+00; -3.4011572E-03;  9.9780981E+02;  1.0034355E-01; -1.8145082E+03;3; -4.1076515E+01;  0.0000000E+00; -1.0364972E+00;0; -1.0096122E-01;  3.9527156E+04;  0.0000000E+00; -1.3733566E-03;  4.0000000E+04;  0.0000000E+00;  4.0024672E+04; -2.1312952E-01;  0.0000000E+00;  1.1216830E-01;  3.5925081E+03;
  5.9292728E-01;  9.9999998E-03; -1.0000088E-02;6074;  3.3476585E-01;  0.0000000E+00; -1.7403958E-03;  9.9781213E+02;  1.0034333E-01; -1.8125824E+03;3; -4.1323368E+01;  0.0000000E+00; -5.3520119E-01;0; -9.9386439E-02;  3.9527160E+04;  0.0000000E+00; -3.8188670E-04;  4.0000000E+04;  0.0000000E+00;  4.0024668E+04; -2.1521793E-01;  0.0000000E+00;  1.1583149E-01;  3.6042031E+03;
  5.9292227E-01;  9.9999998E-03; -9.8049235E-11;6075;  3.3483487E-01;  0.0000000E+00; -2.9275585E-08;  9.9781335E+02;  1.0034347E-01; -1.8115947E+03;3; -4.1400021E+01;  0.0000000E+00; -1.0253279E-06;0; -9.8845616E-02;  3.9527164E+04;  0.0000000E+00;  1.1544117E-12;  4.0000000E+04;  0.0000000E+00;  4.0024676E+04; -2.1592396E-01;  0.0000000E+00;  1.1707835E-01;  3.6077180E+03;
  5.9292728E-01;  9.9999998E-03;  1.0000088E-02;6076;  3.3476588E-01;  0.0000000E+00;  1.7403380E-03;  9.9781219E+02;  1.0034329E-01; -1.8125330E+03;3; -4.1323212E+01;  0.0000000E+00;  5.3519833E-01;0; -9.9386245E-02;  3.9527160E+04;  0.0000000E+00; -3.8191403E-04;  4.0000000E+04;  0.0000000E+00;  4.0024672E+04; -2.1521778E-01;  0.0000000E+00;  1.1583154E-01;  3.6041990E+03;
  5.9294093E-01;  9.9999998E-03;  1.9999113E-02;6077;  3.3455798E-01;  0.0000000E+00;  3.4011023E-03;  9.9780988E+02;  1.0034348E-01; -1.8144589E+03;3; -4.1076157E+01;  0.0000000E+00;  1.0364921E+00;0; -1.0096108E-01;  3.9527156E+04;  0.0000000E+00; -1.3732677E-03;  4.0000000E+04;  0.0000000E+00;  4.0024672E+04; -2.1312942E-01;  0.0000000E+00;  1.1216833E-01;  3.5925085E+03;
  5.9296209E-01;  9.9999998E-03;  2.9997684E-02;6078;  3.3420360E-01;  0.0000000E+00;  4.9128300E-03;  9.9780933E+02;  1.0034350E-01; -1.8149033E+03;3; -4.0678398E+01;  0.0000000E+00;  1.5418847E+00;0; -1.0343449E-01;  3.9527117E+04;  0.0000000E+00; -2.5390573E-03;  4.0000000E+04;  0.0000000E+00;  4.0024449E+04; -2.0974945E-01;  0.0000000E+00;  1.0631496E-01;  3.5698872E+03;
  5.9298891E-01;  9.9999998E-03;  3.9996110E-02;6079;  3.3369470E-01;  0.0000000E+00;  6.2188520E-03;  9.9780518E+02;  1.0034349E-01; -1.8183600E+03;3; -4.0137371E+01;  0.0000000E+00;  2.0218747E+00;0; -1.0660049E-01;  3.9527137E+04;  0.0000000E+00; -3.2378223E-03;  4.0000000E+04;  0.0000000E+00;  4.0024207E+04; -2.0522445E-01;  0.0000000E+00;  9.8623961E-02;  3.5332373E+03;
  5.9301949E-01;  9.9999998E-03;  4.9994487E-02;6080;  3.3301875E-01;  0.0000000E+00;  7.2768326E-03;  9.9780078E+02;  1.0034379E-01; -1.8220142E+03;3; -3.9476799E+01;  0.0000000E+00;  2.5341556E+00;0; -1.1020959E-01;  3.9527137E+04;  0.0000000E+00; -2.7358136E-03;  4.0000000E+04;  0.0000000E+00;  4.0023758E+04; -1.9974728E-01;  0.0000000E+00;  8.9537688E-02;  3.4807043E+03;
  5.9305221E-01;  9.9999998E-03;  5.9993099E-02;6081;  3.3216387E-01;  0.0000000E+00;  8.0541456E-03;  9.9779449E+02;  1.0034379E-01; -1.8271992E+03;3; -3.8713661E+01;  0.0000000E+00;  3.0807803E+00;0; -1.1399946E-01;  3.9527250E+04;  0.0000000E+00; -3.4184373E-04;  4.0000000E+04;  0.0000000E+00;  4.0023270E+04; -1.9354920E-01;  0.0000000E+00;  7.9549737E-02;  3.4124617E+03;
  6.0317588E-01;  9.9999998E-03; -9.9999376E-02;6126;  3.2548624E-01;  0.0000000E+00; -1.0857491E-02;  9.9757526E+02;  1.0055458E-01; -2.0088212E+03;3; -3.5636784E+01;  0.0000000E+00; -4.1852674E+00;0; -1.2581779E-01;  3.9351762E+04;  0.0000000E+00;  4.0507898E-02;  4.0000000E+04;  0.0000000E+00;  4.0017113E+04; -1.7551316E-01;  0.0000000E+00;  4.9695373E-02;  2.8317000E+03;
  6.0313308E-01;  9.9999998E-03; -9.0000100E-02;6127;  3.2695022E-01;  0.0000000E+00; -1.0681136E-02;  9.9757111E+02;  1.0055451E-01; -2.0122780E+03;3; -3.6571270E+01;  0.0000000E+00; -3.9286418E+00;0; -1.2347971E-01;  3.9351199E+04;  0.0000000E+00;  3.0744892E-02;  4.0000000E+04;  0.0000000E+00;  4.0017480E+04; -1.8296577E-01;  0.0000000E+00;  5.9486061E-02;  2.8785791E+03;
  6.0309517E-01;  9.9999998E-03; -8.0001049E-02;6128;  3.2823735E-01;  0.0000000E+00; -1.0384241E-02;  9.9757538E+02;  1.0055446E-01; -2.0087225E+03;3; -3.7475445E+01;  0.0000000E+00; -3.5780659E+00;0; -1.2066183E-01;  3.9351184E+04;  0.0000000E+00;  2.1126596E-02;  4.0000000E+04;  0.0000000E+00;  4.0017992E+04; -1.9074520E-01;  0.0000000E+00;  7.0083372E-02;  2.9414380E+03;
  6.0306168E-01;  9.9999998E-03; -7.0001967E-02;6129;  3.2934380E-01;  0.0000000E+00; -9.9056624E-03;  9.9758508E+02;  1.0055419E-01; -2.0007228E+03;3; -3.8342594E+01;  0.0000000E+00; -3.1565094E+00;0; -1.1743734E-01;  3.9351480E+04;  0.0000000E+00;  1.2731297E-02;  4.0000000E+04;  0.0000000E+00;  4.0018539E+04; -1.9856964E-01;  0.0000000E+00;  8.1132300E-02;  3.0109578E+03;
  6.0303235E-01;  9.9999998E-03; -6.0002431E-02;6130;  3.3026376E-01;  0.0000000E+00; -9.1866152E-03;  9.9759821E+02;  1.0055416E-01; -1.9898096E+03;3; -3.9166988E+01;  0.0000000E+00; -2.6943257E+00;0; -1.1394005E-01;  3.9352094E+04;  0.0000000E+00;  6.2988494E-03;  4.0000000E+04;  0.0000000E+00;  4.0019086E+04; -2.0614184E-01;  0.0000000E+00;  9.2201799E-02;  3.0785686E+03;
  6.0300654E-01;  9.9999998E-03; -5.0002169E-02;6131;  3.3100283E-01;  0.0000000E+00; -8.1929266E-03;  9.9761237E+02;  1.0055399E-01; -1.9781063E+03;3; -3.9901886E+01;  0.0000000E+00; -2.2580137E+00;0; -1.1036366E-01;  3.9352906E+04;  0.0000000E+00;  2.0832384E-03;  4.0000000E+04;  0.0000000E+00;  4.0019445E+04; -2.1316506E-01;  0.0000000E+00;  1.0280140E-01;  3.1378794E+03;
  6.0298264E-01;  9.9999998E-03; -4.0001325E-02;6132;  3.3157820E-01;  0.0000000E+00; -6.9405222E-03;  9.9762579E+02;  1.0055391E-01; -1.9669956E+03;3; -4.0539280E+01;  0.0000000E+00; -1.8554082E+00;0; -1.0694475E-01;  3.9353613E+04;  0.0000000E+00; -1.0787636E-04;  4.0000000E+04;  0.0000000E+00;  4.0019816E+04; -2.1935503E-01;  0.0000000E+00;  1.1241028E-01;  3.1855444E+03;
  6.0296023E-01;  9.9999998E-03; -3.0000556E-02;6133;  3.3200282E-01;  0.0000000E+00; -5.4541938E-03;  9.9763586E+02;  1.0055369E-01; -1.9586501E+03;3; -4.1056965E+01;  0.0000000E+00; -1.4331013E+00;0; -1.0393742E-01;  3.9354199E+04;  0.0000000E+00; -7.8360509E-04;  4.0000000E+04;  0.0000000E+00;  4.0020113E+04; -2.2445598E-01;  0.0000000E+00;  1.2051857E-01;  3.2205667E+03;
  6.0294193E-01;  9.9999998E-03; -2.0000160E-02;6134;  3.3229473E-01;  0.0000000E+00; -3.7536554E-03;  9.9764447E+02;  1.0055374E-01; -1.9514899E+03;3; -4.1441120E+01;  0.0000000E+00; -9.8061001E-01;0; -1.0158384E-01;  3.9354574E+04;  0.0000000E+00; -6.0192548E-04;  4.0000000E+04;  0.0000000E+00;  4.0020297E+04; -2.2825849E-01;  0.0000000E+00;  1.2667465E-01;  3.2435215E+03;
  6.0292983E-01;  9.9999998E-03; -1.0000070E-02;6135;  3.3246300E-01;  0.0000000E+00; -1.9156234E-03;  9.9764856E+02;  1.0055381E-01; -1.9481320E+03;3; -4.1680122E+01;  0.0000000E+00; -4.9365661E-01;0; -1.0008313E-01;  3.9354953E+04;  0.0000000E+00; -1.9114344E-04;  4.0000000E+04;  0.0000000E+00;  4.0020371E+04; -2.3060462E-01;  0.0000000E+00;  1.3052149E-01;  3.2561248E+03;
  6.0292560E-01;  9.9999998E-03; -8.1502097E-12;6136;  3.3251897E-01;  0.0000000E+00; -3.0983134E-08;  9.9765057E+02;  1.0055383E-01; -1.9464530E+03;3; -4.1761860E+01;  0.0000000E+00;  2.4275801E-06;0; -9.9567696E-02;  3.9355027E+04;  0.0000000E+00;  4.5376821E-13;  4.0000000E+04;  0.0000000E+00;  4.0020363E+04; -2.3139758E-01;  0.0000000E+00;  1.3182989E-01;  3.2600933E+03;
  6.0292983E-01;  9.9999998E-03;  1.0000070E-02;6137;  3.3246300E-01;  0.0000000E+00;  1.9155629E-03;  9.9764856E+02;  1.0055381E-01; -1.9481320E+03;3; -4.1680492E+01;  0.0000000E+00;  4.9366185E-01;0; -1.0008276E-01;  3.9354953E+04;  0.0000000E+00; -1.9092094E-04;  4.0000000E+04;  0.0000000E+00;  4.0020371E+04; -2.3060416E-01;  0.0000000E+00;  1.3052140E-01;  3.2561262E+03;
  6.0294193E-01;  9.9999998E-03;  2.0000160E-02;6138;  3.3229476E-01;  0.0000000E+00;  3.7535981E-03;  9.9764453E+02;  1.0055367E-01; -1.9514406E+03;3; -4.1441345E+01;  0.0000000E+00;  9.8060840E-01;0; -1.0158372E-01;  3.9354574E+04;  0.0000000E+00; -6.0169888E-04;  4.0000000E+04;  0.0000000E+00;  4.0020293E+04; -2.2825836E-01;  0.0000000E+00;  1.2667464E-01;  3.2435249E+03;
  6.0296023E-01;  9.9999998E-03;  3.0000556E-02;6139;  3.3200285E-01;  0.0000000E+00;  5.4541421E-03;  9.9763580E+02;  1.0055373E-01; -1.9586996E+03;3; -4.1056988E+01;  0.0000000E+00;  1.4331043E+00;0; -1.0393711E-01;  3.9354199E+04;  0.0000000E+00; -7.8368280E-04;  4.0000000E+04;  0.0000000E+00;  4.0020113E+04; -2.2445582E-01;  0.0000000E+00;  1.2051871E-01;  3.2205691E+03;
  6.0298264E-01;  9.9999998E-03;  4.0001325E-02;6140;  3.3157828E-01;  0.0000000E+00;  6.9404733E-03;  9.9762585E+02;  1.0055409E-01; -1.9669462E+03;3; -4.0539761E+01;  0.0000000E+00;  1.8554204E+00;0; -1.0694449E-01;  3.9353613E+04;  0.0000000E+00; -1.0759129E-04;  4.0000000E+04;  0.0000000E+00;  4.0019816E+04; -2.1935491E-01;  0.0000000E+00;  1.1241043E-01;  3.1855471E+03;
  6.0300654E-01;  9.9999998E-03;  5.0002169E-02;6141;  3.3100289E-01;  0.0000000E+00;  8.1928810E-03;  9.9761243E+02;  1.0055404E-01; -1.9780569E+03;3; -3.9901527E+01;  0.0000000E+00;  2.2580116E+00;0; -1.1036332E-01;  3.9352918E+04;  0.0000000E+00;  2.0839714E-03;  4.0000000E+04;  0.0000000E+00;  4.0019449E+04; -2.1316476E-01;  0.0000000E+00;  1.0280144E-01;  3.1378943E+03;
  6.0303235E-01;  9.9999998E-03;  6.0002431E-02;6142;  3.3026379E-01;  0.0000000E+00;  9.1865724E-03;  9.9759821E+02;  1.0055416E-01; -1.9898096E+03;3; -3.9167038E+01;  0.0000000E+00;  2.6943479E+00;0; -1.1393984E-01;  3.9352090E+04;  0.0000000E+00;  6.2981187E-03;  4.0000000E+04;  0.0000000E+00;  4.0019086E+04; -2.0614165E-01;  0.0000000E+00;  9.2201807E-02;  3.0785776E+03;
  6.1314219E-01;  9.9999998E-03; -1.0000356E-01;6187;  3.2387751E-01;  0.0000000E+00; -1.2515493E-02;  9.9701111E+02;  1.0088339E-01; -2.4762107E+03;3; -3.6041061E+01;  0.0000000E+00; -3.7191567E+00;0; -1.2356729E-01;  3.9057250E+04;  0.0000000E+00;  3.8869843E-02;  4.0000000E+04;  0.0000000E+00;  4.0013008E+04; -1.8381812E-01;  0.0000000E+00;  6.0250826E-02;  2.6422112E+03;
  6.1309546E-01;  9.9999998E-03; -9.0004399E-02;6188;  3.2524723E-01;  0.0000000E+00; -1.2246529E-02;  9.9700500E+02;  1.0088317E-01; -2.4812971E+03;3; -3.6985458E+01;  0.0000000E+00; -3.4418640E+00;0; -1.2164538E-01;  3.9056801E+04;  0.0000000E+00;  3.3373877E-02;  4.0000000E+04;  0.0000000E+00;  4.0013160E+04; -1.9229646E-01;  0.0000000E+00;  7.0651077E-02;  2.6756570E+03;
  6.1305350E-01;  9.9999998E-03; -8.0005363E-02;6189;  3.2642156E-01;  0.0000000E+00; -1.1810778E-02;  9.9701007E+02;  1.0088295E-01; -2.4770996E+03;3; -3.7901310E+01;  0.0000000E+00; -3.0966344E+00;0; -1.1927364E-01;  3.9056879E+04;  0.0000000E+00;  2.6162039E-02;  4.0000000E+04;  0.0000000E+00;  4.0013688E+04; -2.0108637E-01;  0.0000000E+00;  8.1812732E-02;  2.7263738E+03;
  6.1301625E-01;  9.9999998E-03; -7.0006125E-02;6190;  3.2740071E-01;  0.0000000E+00; -1.1134784E-02;  9.9702045E+02;  1.0088252E-01; -2.4685076E+03;3; -3.8764759E+01;  0.0000000E+00; -2.7267952E+00;0; -1.1650633E-01;  3.9057500E+04;  0.0000000E+00;  1.8573748E-02;  4.0000000E+04;  0.0000000E+00;  4.0014113E+04; -2.0987858E-01;  0.0000000E+00;  9.3372248E-02;  2.7863501E+03;
  6.1298388E-01;  9.9999998E-03; -6.0006455E-02;6191;  3.2819331E-01;  0.0000000E+00; -1.0209743E-02;  9.9703577E+02;  1.0088245E-01; -2.4558167E+03;3; -3.9561829E+01;  0.0000000E+00; -2.3834114E+00;0; -1.1346098E-01;  3.9058438E+04;  0.0000000E+00;  1.1792583E-02;  4.0000000E+04;  0.0000000E+00;  4.0014484E+04; -2.1835168E-01;  0.0000000E+00;  1.0489070E-01;  2.8477690E+03;
  6.1295635E-01;  9.9999998E-03; -5.0006207E-02;6192;  3.2881674E-01;  0.0000000E+00; -9.0310192E-03;  9.9705359E+02;  1.0088237E-01; -2.4410518E+03;3; -4.0275799E+01;  0.0000000E+00; -2.0611734E+00;0; -1.1031263E-01;  3.9059473E+04;  0.0000000E+00;  6.5454827E-03;  4.0000000E+04;  0.0000000E+00;  4.0014969E+04; -2.2618584E-01;  0.0000000E+00;  1.1587322E-01;  2.9042815E+03;
  6.1293352E-01;  9.9999998E-03; -4.0005367E-02;6193;  3.2928637E-01;  0.0000000E+00; -7.6017203E-03;  9.9707019E+02;  1.0088209E-01; -2.4272744E+03;3; -4.0891281E+01;  0.0000000E+00; -1.7112098E+00;0; -1.0727756E-01;  3.9060539E+04;  0.0000000E+00;  3.0510032E-03;  4.0000000E+04;  0.0000000E+00;  4.0015312E+04; -2.3307505E-01;  0.0000000E+00;  1.2579750E-01;  2.9517380E+03;
  6.1291534E-01;  9.9999998E-03; -3.0004019E-02;6194;  3.2962406E-01;  0.0000000E+00; -5.9354352E-03;  9.9708533E+02;  1.0088211E-01; -2.4147317E+03;3; -4.1400925E+01;  0.0000000E+00; -1.3267716E+00;0; -1.0459217E-01;  3.9061477E+04;  0.0000000E+00;  1.1094374E-03;  4.0000000E+04;  0.0000000E+00;  4.0015582E+04; -2.3874611E-01;  0.0000000E+00;  1.3415393E-01;  2.9880947E+03;
  6.1290157E-01;  9.9999998E-03; -2.0002451E-02;6195;  3.2984892E-01;  0.0000000E+00; -4.0760301E-03;  9.9709650E+02;  1.0088198E-01; -2.4054973E+03;3; -4.1777294E+01;  0.0000000E+00; -9.1491455E-01;0; -1.0248198E-01;  3.9062270E+04;  0.0000000E+00;  2.7174538E-04;  4.0000000E+04;  0.0000000E+00;  4.0015898E+04; -2.4296995E-01;  0.0000000E+00;  1.4048797E-01;  3.0131851E+03;
  6.1289239E-01;  9.9999998E-03; -1.0001070E-02;6196;  3.2997811E-01;  0.0000000E+00; -2.0727140E-03;  9.9710406E+02;  1.0088193E-01; -2.3992258E+03;3; -4.2006485E+01;  0.0000000E+00; -4.6119595E-01;0; -1.0113344E-01;  3.9062746E+04;  0.0000000E+00;  3.1564905E-05;  4.0000000E+04;  0.0000000E+00;  4.0015914E+04; -2.4557413E-01;  0.0000000E+00;  1.4444070E-01;  3.0277395E+03;
  6.1288899E-01;  9.9999998E-03;  8.7431465E-11;6197;  3.3001941E-01;  0.0000000E+00; -3.1703564E-08;  9.9710541E+02;  1.0088190E-01; -2.3980901E+03;3; -4.2085411E+01;  0.0000000E+00;  3.1588033E-06;0; -1.0066935E-01;  3.9062844E+04;  0.0000000E+00; -2.3205317E-13;  4.0000000E+04;  0.0000000E+00;  4.0016008E+04; -2.4645339E-01;  0.0000000E+00;  1.4578404E-01;  3.0325205E+03;
  6.1289239E-01;  9.9999998E-03;  1.0001071E-02;6198;  3.2997811E-01;  0.0000000E+00;  2.0726521E-03;  9.9710406E+02;  1.0088193E-01; -2.3992258E+03;3; -4.2006851E+01;  0.0000000E+00;  4.6118683E-01;0; -1.0113341E-01;  3.9062746E+04;  0.0000000E+00;  3.1826021E-05;  4.0000000E+04;  0.0000000E+00;  4.0015918E+04; -2.4557418E-01;  0.0000000E+00;  1.4444077E-01;  3.0277488E+03;
  6.1290157E-01;  9.9999998E-03;  2.0002451E-02;6199;  3.2984895E-01;  0.0000000E+00;  4.0759700E-03;  9.9709650E+02;  1.0088198E-01; -2.4054973E+03;3; -4.1776901E+01;  0.0000000E+00;  9.1491878E-01;0; -1.0248172E-01;  3.9062273E+04;  0.0000000E+00;  2.7191566E-04;  4.0000000E+04;  0.0000000E+00;  4.0015898E+04; -2.4296983E-01;  0.0000000E+00;  1.4048810E-01;  3.0131821E+03;
  6.1291534E-01;  9.9999998E-03;  3.0004019E-02;6200;  3.2962409E-01;  0.0000000E+00;  5.9353788E-03;  9.9708533E+02;  1.0088211E-01; -2.4147317E+03;3; -4.1400928E+01;  0.0000000E+00;  1.3267775E+00;0; -1.0459204E-01;  3.9061480E+04;  0.0000000E+00;  1.1103232E-03;  4.0000000E+04;  0.0000000E+00;  4.0015582E+04; -2.3874612E-01;  0.0000000E+00;  1.3415408E-01;  2.9880972E+03;
  6.1293352E-01;  9.9999998E-03;  4.0005367E-02;6201;  3.2928640E-01;  0.0000000E+00;  7.6016709E-03;  9.9707019E+02;  1.0088209E-01; -2.4272744E+03;3; -4.0891655E+01;  0.0000000E+00;  1.7112172E+00;0; -1.0727751E-01;  3.9060539E+04;  0.0000000E+00;  3.0524055E-03;  4.0000000E+04;  0.0000000E+00;  4.0015312E+04; -2.3307501E-01;  0.0000000E+00;  1.2579750E-01;  2.9517354E+03;
  6.1295635E-01;  9.9999998E-03;  5.0006207E-02;6202;  3.2881683E-01;  0.0000000E+00;  9.0309707E-03;  9.9705365E+02;  1.0088240E-01; -2.4410022E+03;3; -4.0275406E+01;  0.0000000E+00;  2.0611618E+00;0; -1.1031244E-01;  3.9059473E+04;  0.0000000E+00;  6.5458869E-03;  4.0000000E+04;  0.0000000E+00;  4.0014969E+04; -2.2618568E-01;  0.0000000E+00;  1.1587324E-01;  2.9042859E+03;
  6.1298388E-01;  9.9999998E-03;  6.0006455E-02;6203;  3.2819334E-01;  0.0000000E+00;  1.0209699E-02;  9.9703583E+02;  1.0088240E-01; -2.4557671E+03;3; -3.9562477E+01;  0.0000000E+00;  2.3834419E+00;0; -1.1346082E-01;  3.9058438E+04;  0.0000000E+00;  1.1791999E-02;  4.0000000E+04;  0.0000000E+00;  4.0014484E+04; -2.1835142E-01;  0.0000000E+00;  1.0489060E-01;  2.8477764E+03;
  6.2310410E-01;  9.9999998E-03; -1.0000157E-01;6248;  3.2213864E-01;  0.0000000E+00; -1.4196101E-02;  9.9622766E+02;  1.0138156E-01; -3.1252717E+03;3; -3.6405437E+01;  0.0000000E+00; -3.1811769E+00;0; -1.1964664E-01;  3.8619492E+04;  0.0000000E+00;  2.5741694E-02;  4.0000000E+04;  0.0000000E+00;  4.0008098E+04; -1.9137506E-01;  0.0000000E+00;  7.1728423E-02;  2.5187781E+03;
  6.2305319E-01;  9.9999998E-03; -9.0002716E-02;6249;  3.2338449E-01;  0.0000000E+00; -1.3769962E-02;  9.9620807E+02;  1.0138086E-01; -3.1415181E+03;3; -3.7376690E+01;  0.0000000E+00; -2.8881009E+00;0; -1.1839084E-01;  3.8618184E+04;  0.0000000E+00;  2.6587259E-02;  4.0000000E+04;  0.0000000E+00;  4.0008348E+04; -2.0090081E-01;  0.0000000E+00;  8.2509965E-02;  2.5504395E+03;
  6.2300712E-01;  9.9999998E-03; -8.0003865E-02;6250;  3.2441974E-01;  0.0000000E+00; -1.3120100E-02;  9.9619928E+02;  1.0138052E-01; -3.1488264E+03;3; -3.8287441E+01;  0.0000000E+00; -2.6416261E+00;0; -1.1672300E-01;  3.8617562E+04;  0.0000000E+00;  2.4026494E-02;  4.0000000E+04;  0.0000000E+00;  4.0008723E+04; -2.1071064E-01;  0.0000000E+00;  9.3987644E-02;  2.5996807E+03;
  6.2296599E-01;  9.9999998E-03; -7.0004821E-02;6251;  3.2525903E-01;  0.0000000E+00; -1.2257803E-02;  9.9620117E+02;  1.0138033E-01; -3.1472463E+03;3; -3.9134155E+01;  0.0000000E+00; -2.3875027E+00;0; -1.1467481E-01;  3.8617586E+04;  0.0000000E+00;  1.9369893E-02;  4.0000000E+04;  0.0000000E+00;  4.0009129E+04; -2.2047357E-01;  0.0000000E+00;  1.0579876E-01;  2.6594719E+03;
  6.2292993E-01;  9.9999998E-03; -6.0005374E-02;6252;  3.2591954E-01;  0.0000000E+00; -1.1149433E-02;  9.9620959E+02;  1.0137995E-01; -3.1402341E+03;3; -3.9904236E+01;  0.0000000E+00; -2.1481836E+00;0; -1.1233672E-01;  3.8618000E+04;  0.0000000E+00;  1.4024039E-02;  4.0000000E+04;  0.0000000E+00;  4.0009652E+04; -2.2984461E-01;  0.0000000E+00;  1.1750789E-01;  2.7226965E+03;
  6.2289929E-01;  9.9999998E-03; -5.0005455E-02;6253;  3.2641783E-01;  0.0000000E+00; -9.7960196E-03;  9.9622174E+02;  1.0137963E-01; -3.1302097E+03;3; -4.0606495E+01;  0.0000000E+00; -1.8665606E+00;0; -1.0985538E-01;  3.8618750E+04;  0.0000000E+00;  9.0938332E-03;  4.0000000E+04;  0.0000000E+00;  4.0010160E+04; -2.3848154E-01;  0.0000000E+00;  1.2862615E-01;  2.7831035E+03;
  6.2287414E-01;  9.9999998E-03; -4.0005077E-02;6254;  3.2677683E-01;  0.0000000E+00; -8.1990352E-03;  9.9623425E+02;  1.0137940E-01; -3.1198398E+03;3; -4.1209545E+01;  0.0000000E+00; -1.5696274E+00;0; -1.0741776E-01;  3.8619574E+04;  0.0000000E+00;  5.2115088E-03;  4.0000000E+04;  0.0000000E+00;  4.0010543E+04; -2.4605803E-01;  0.0000000E+00;  1.3864027E-01;  2.8359810E+03;
  6.2285447E-01;  9.9999998E-03; -3.0004257E-02;6255;  3.2702512E-01;  0.0000000E+00; -6.3664727E-03;  9.9624652E+02;  1.0137925E-01; -3.1096672E+03;3; -4.1701084E+01;  0.0000000E+00; -1.2239910E+00;0; -1.0523283E-01;  3.8620430E+04;  0.0000000E+00;  2.5569745E-03;  4.0000000E+04;  0.0000000E+00;  4.0010855E+04; -2.5228408E-01;  0.0000000E+00;  1.4705124E-01;  2.8783860E+03;
  6.2284064E-01;  9.9999998E-03; -2.0003084E-02;6256;  3.2718131E-01;  0.0000000E+00; -4.3588085E-03;  9.9625555E+02;  1.0137895E-01; -3.1021614E+03;3; -4.2072399E+01;  0.0000000E+00; -8.4854668E-01;0; -1.0350052E-01;  3.8621004E+04;  0.0000000E+00;  9.8860182E-04;  4.0000000E+04;  0.0000000E+00;  4.0011039E+04; -2.5691608E-01;  0.0000000E+00;  1.5341556E-01;  2.9088418E+03;
  6.2283236E-01;  9.9999998E-03; -1.0001620E-02;6257;  3.2726851E-01;  0.0000000E+00; -2.2127489E-03;  9.9626245E+02;  1.0137908E-01; -3.0964827E+03;3; -4.2299488E+01;  0.0000000E+00; -4.3205249E-01;0; -1.0238729E-01;  3.8621465E+04;  0.0000000E+00;  2.2173589E-04;  4.0000000E+04;  0.0000000E+00;  4.0011191E+04; -2.5977099E-01;  0.0000000E+00;  1.5738370E-01;  2.9270339E+03;
  6.2282962E-01;  9.9999998E-03;  1.7752340E-10;6258;  3.2729566E-01;  0.0000000E+00; -3.1804696E-08;  9.9626489E+02;  1.0137891E-01; -3.0944580E+03;3; -4.2374065E+01;  0.0000000E+00; -4.2499996E-06;0; -1.0200308E-01;  3.8621652E+04;  0.0000000E+00; -1.3443885E-12;  4.0000000E+04;  0.0000000E+00;  4.0011293E+04; -2.6073524E-01;  0.0000000E+00;  1.5873216E-01;  2.9330537E+03;
  6.2283236E-01;  9.9999998E-03;  1.0001620E-02;6259;  3.2726851E-01;  0.0000000E+00;  2.2126860E-03;  9.9626245E+02;  1.0137908E-01; -3.0964827E+03;3; -4.2299313E+01;  0.0000000E+00;  4.3205923E-01;0; -1.0238674E-01;  3.8621461E+04;  0.0000000E+00;  2.2219477E-04;  4.0000000E+04;  0.0000000E+00;  4.0011191E+04; -2.5977060E-01;  0.0000000E+00;  1.5738386E-01;  2.9270305E+03;
  6.2284064E-01;  9.9999998E-03;  2.0003084E-02;6260;  3.2718134E-01;  0.0000000E+00;  4.3587480E-03;  9.9625555E+02;  1.0137895E-01; -3.1021614E+03;3; -4.2072552E+01;  0.0000000E+00;  8.4856367E-01;0; -1.0350037E-01;  3.8621008E+04;  0.0000000E+00;  9.8942057E-04;  4.0000000E+04;  0.0000000E+00;  4.0011039E+04; -2.5691605E-01;  0.0000000E+00;  1.5341568E-01;  2.9088416E+03;
  6.2285447E-01;  9.9999998E-03;  3.0004257E-02;6261;  3.2702515E-01;  0.0000000E+00;  6.3664159E-03;  9.9624652E+02;  1.0137925E-01; -3.1096672E+03;3; -4.1701046E+01;  0.0000000E+00;  1.2239991E+00;0; -1.0523279E-01;  3.8620426E+04;  0.0000000E+00;  2.5575750E-03;  4.0000000E+04;  0.0000000E+00;  4.0010855E+04; -2.5228405E-01;  0.0000000E+00;  1.4705126E-01;  2.8783958E+03;
  6.2287414E-01;  9.9999998E-03;  4.0005077E-02;6262;  3.2677689E-01;  0.0000000E+00;  8.1989812E-03;  9.9623425E+02;  1.0137940E-01; -3.1198398E+03;3; -4.1209354E+01;  0.0000000E+00;  1.5696498E+00;0; -1.0741800E-01;  3.8619574E+04;  0.0000000E+00;  5.2120197E-03;  4.0000000E+04;  0.0000000E+00;  4.0010543E+04; -2.4605809E-01;  0.0000000E+00;  1.3864009E-01;  2.8359890E+03;
  6.2289929E-01;  9.9999998E-03;  5.0005455E-02;6263;  3.2641789E-01;  0.0000000E+00;  9.7959703E-03;  9.9622174E+02;  1.0137963E-01; -3.1302097E+03;3; -4.0606079E+01;  0.0000000E+00;  1.8665606E+00;0; -1.0985513E-01;  3.8618750E+04;  0.0000000E+00;  9.0939403E-03;  4.0000000E+04;  0.0000000E+00;  4.0010160E+04; -2.3848118E-01;  0.0000000E+00;  1.2862605E-01;  2.7831174E+03;
  6.2292993E-01;  9.9999998E-03;  6.0005374E-02;6264;  3.2591960E-01;  0.0000000E+00;  1.1149385E-02;  9.9620959E+02;  1.0137995E-01; -3.1402341E+03;3; -3.9904243E+01;  0.0000000E+00;  2.1481695E+00;0; -1.1233640E-01;  3.8618000E+04;  0.0000000E+00;  1.4023991E-02;  4.0000000E+04;  0.0000000E+00;  4.0009652E+04; -2.2984433E-01;  0.0000000E+00;  1.1750793E-01;  2.7227092E+03;
  6.3307083E-01;  9.9999998E-03; -9.9994414E-02;6309;  3.2022443E-01;  0.0000000E+00; -1.5784690E-02;  9.9544037E+02;  1.0210540E-01; -3.7775403E+03;3; -3.6750275E+01;  0.0000000E+00; -2.5828714E+00;0; -1.1354727E-01;  3.8019051E+04;  0.0000000E+00;  1.2561837E-03;  4.0000000E+04;  0.0000000E+00;  4.0002203E+04; -1.9771034E-01;  0.0000000E+00;  8.4163070E-02;  2.4473752E+03;
  6.3301545E-01;  9.9999998E-03; -8.9995734E-02;6310;  3.2132122E-01;  0.0000000E+00; -1.5149288E-02;  9.9539166E+02;  1.0210431E-01; -3.8178845E+03;3; -3.7702179E+01;  0.0000000E+00; -2.4432893E+00;0; -1.1328469E-01;  3.8015805E+04;  0.0000000E+00;  9.5077287E-03;  4.0000000E+04;  0.0000000E+00;  4.0002469E+04; -2.0833305E-01;  0.0000000E+00;  9.5048353E-02;  2.4892153E+03;
  6.3296509E-01;  9.9999998E-03; -7.9997204E-02;6311;  3.2220659E-01;  0.0000000E+00; -1.4325143E-02;  9.9535895E+02;  1.0210352E-01; -3.8449946E+03;3; -3.8606804E+01;  0.0000000E+00; -2.2746391E+00;0; -1.1263479E-01;  3.8013477E+04;  0.0000000E+00;  1.3199065E-02;  4.0000000E+04;  0.0000000E+00;  4.0002902E+04; -2.1918452E-01;  0.0000000E+00;  1.0654972E-01;  2.5483464E+03;
  6.3292003E-01;  9.9999998E-03; -6.9998637E-02;6312;  3.2289556E-01;  0.0000000E+00; -1.3281759E-02;  9.9533649E+02;  1.0210316E-01; -3.8636111E+03;3; -3.9437946E+01;  0.0000000E+00; -2.0959032E+00;0; -1.1160604E-01;  3.8011863E+04;  0.0000000E+00;  1.3350303E-02;  4.0000000E+04;  0.0000000E+00;  4.0003383E+04; -2.2992046E-01;  0.0000000E+00;  1.1831442E-01;  2.6182336E+03;
  6.3288039E-01;  9.9999998E-03; -5.9999861E-02;6313;  3.2340971E-01;  0.0000000E+00; -1.1999680E-02;  9.9532367E+02;  1.0210245E-01; -3.8742283E+03;3; -4.0202446E+01;  0.0000000E+00; -1.9125847E+00;0; -1.1025916E-01;  3.8010816E+04;  0.0000000E+00;  1.1301612E-02;  4.0000000E+04;  0.0000000E+00;  4.0003934E+04; -2.4018094E-01;  0.0000000E+00;  1.2992178E-01;  2.6919790E+03;
  6.3284653E-01;  9.9999998E-03; -5.0000738E-02;6314;  3.2377324E-01;  0.0000000E+00; -1.0475944E-02;  9.9531738E+02;  1.0210192E-01; -3.8794133E+03;3; -4.0880249E+01;  0.0000000E+00; -1.6881621E+00;0; -1.0870554E-01;  3.8010316E+04;  0.0000000E+00;  8.3265854E-03;  4.0000000E+04;  0.0000000E+00;  4.0004457E+04; -2.4960652E-01;  0.0000000E+00;  1.4090098E-01;  2.7633992E+03;
  6.3281858E-01;  9.9999998E-03; -4.0001240E-02;6315;  3.2401496E-01;  0.0000000E+00; -8.7174643E-03;  9.9531702E+02;  1.0210153E-01; -3.8797097E+03;3; -4.1477364E+01;  0.0000000E+00; -1.4252303E+00;0; -1.0709524E-01;  3.8010164E+04;  0.0000000E+00;  5.3632678E-03;  4.0000000E+04;  0.0000000E+00;  4.0004988E+04; -2.5785518E-01;  0.0000000E+00;  1.5075994E-01;  2.8273130E+03;
  6.3279688E-01;  9.9999998E-03; -3.0001368E-02;6316;  3.2416645E-01;  0.0000000E+00; -6.7419522E-03;  9.9531836E+02;  1.0210126E-01; -3.8786233E+03;3; -4.1965401E+01;  0.0000000E+00; -1.1106879E+00;0; -1.0559903E-01;  3.8010188E+04;  0.0000000E+00;  2.9437505E-03;  4.0000000E+04;  0.0000000E+00;  4.0005398E+04; -2.6462045E-01;  0.0000000E+00;  1.5902142E-01;  2.8799163E+03;
  6.3278133E-01;  9.9999998E-03; -2.0001145E-02;6317;  3.2425171E-01;  0.0000000E+00; -4.5993449E-03;  9.9532159E+02;  1.0210104E-01; -3.8759568E+03;3; -4.2327286E+01;  0.0000000E+00; -7.6771241E-01;0; -1.0438575E-01;  3.8010371E+04;  0.0000000E+00;  1.2614023E-03;  4.0000000E+04;  0.0000000E+00;  4.0005723E+04; -2.6964757E-01;  0.0000000E+00;  1.6526182E-01;  2.9186482E+03;
  6.3277203E-01;  9.9999998E-03; -1.0000662E-02;6318;  3.2429418E-01;  0.0000000E+00; -2.3312031E-03;  9.9532593E+02;  1.0210101E-01; -3.8723518E+03;3; -4.2552235E+01;  0.0000000E+00; -3.9052477E-01;0; -1.0359563E-01;  3.8010418E+04;  0.0000000E+00;  3.0566839E-04;  4.0000000E+04;  0.0000000E+00;  4.0005859E+04; -2.7274331E-01;  0.0000000E+00;  1.6914769E-01;  2.9422454E+03;
  6.3276887E-01;  9.9999998E-03;  2.5425723E-10;6319;  3.2430673E-01;  0.0000000E+00; -3.2274961E-08;  9.9532562E+02;  1.0210098E-01; -3.8725989E+03;3; -4.2626816E+01;  0.0000000E+00; -6.1336368E-06;0; -1.0332102E-01;  3.8010496E+04;  0.0000000E+00; -1.0613316E-12;  4.0000000E+04;  0.0000000E+00;  4.0005957E+04; -2.7378848E-01;  0.0000000E+00;  1.7046747E-01;  2.9501672E+03;
  6.3277203E-01;  9.9999998E-03;  1.0000662E-02;6320;  3.2429421E-01;  0.0000000E+00;  2.3311405E-03;  9.9532593E+02;  1.0210101E-01; -3.8723518E+03;3; -4.2552063E+01;  0.0000000E+00;  3.9051908E-01;0; -1.0359494E-01;  3.8010414E+04;  0.0000000E+00;  3.0606322E-04;  4.0000000E+04;  0.0000000E+00;  4.0005855E+04; -2.7274296E-01;  0.0000000E+00;  1.6914801E-01;  2.9422412E+03;
  6.3278133E-01;  9.9999998E-03;  2.0001147E-02;6321;  3.2425177E-01;  0.0000000E+00;  4.5992830E-03;  9.9532166E+02;  1.0210101E-01; -3.8759072E+03;3; -4.2327381E+01;  0.0000000E+00;  7.6773232E-01;0; -1.0438585E-01;  3.8010367E+04;  0.0000000E+00;  1.2621345E-03;  4.0000000E+04;  0.0000000E+00;  4.0005727E+04; -2.6964766E-01;  0.0000000E+00;  1.6526181E-01;  2.9186453E+03;
  6.3279688E-01;  9.9999998E-03;  3.0001370E-02;6322;  3.2416651E-01;  0.0000000E+00;  6.7418963E-03;  9.9531836E+02;  1.0210126E-01; -3.8786233E+03;3; -4.1965321E+01;  0.0000000E+00;  1.1106974E+00;0; -1.0559918E-01;  3.8010188E+04;  0.0000000E+00;  2.9445630E-03;  4.0000000E+04;  0.0000000E+00;  4.0005398E+04; -2.6462084E-01;  0.0000000E+00;  1.5902166E-01;  2.8799148E+03;
  6.3281858E-01;  9.9999998E-03;  4.0001240E-02;6323;  3.2401499E-01;  0.0000000E+00;  8.7174121E-03;  9.9531702E+02;  1.0210153E-01; -3.8797097E+03;3; -4.1477695E+01;  0.0000000E+00;  1.4252372E+00;0; -1.0709476E-01;  3.8010164E+04;  0.0000000E+00;  5.3648758E-03;  4.0000000E+04;  0.0000000E+00;  4.0004988E+04; -2.5785485E-01;  0.0000000E+00;  1.5076008E-01;  2.8273147E+03;
  6.3284653E-01;  9.9999998E-03;  5.0000738E-02;6324;  3.2377329E-01;  0.0000000E+00;  1.0475894E-02;  9.9531738E+02;  1.0210192E-01; -3.8794133E+03;3; -4.0879780E+01;  0.0000000E+00;  1.6881493E+00;0; -1.0870507E-01;  3.8010320E+04;  0.0000000E+00;  8.3261169E-03;  4.0000000E+04;  0.0000000E+00;  4.0004457E+04; -2.4960615E-01;  0.0000000E+00;  1.4090107E-01;  2.7634058E+03;
  6.3288039E-01;  9.9999998E-03;  5.9999861E-02;6325;  3.2340974E-01;  0.0000000E+00;  1.1999631E-02;  9.9532361E+02;  1.0210248E-01; -3.8742778E+03;3; -4.0202408E+01;  0.0000000E+00;  1.9125712E+00;0; -1.1025915E-01;  3.8010816E+04;  0.0000000E+00;  1.1300509E-02;  4.0000000E+04;  0.0000000E+00;  4.0003934E+04; -2.4018091E-01;  0.0000000E+00;  1.2992176E-01;  2.6919744E+03;
  6.4305180E-01;  9.9999998E-03; -9.9983931E-02;6370;  3.1812283E-01;  0.0000000E+00; -1.7227273E-02;  9.9488007E+02;  1.0310160E-01; -4.2417148E+03;3; -3.7010944E+01;  0.0000000E+00; -2.1270230E+00;0; -1.0461434E-01;  3.7248723E+04;  0.0000000E+00; -3.1586573E-02;  4.0000000E+04;  0.0000000E+00;  3.9994863E+04; -2.0220469E-01;  0.0000000E+00;  9.7590350E-02;  2.4055237E+03;
  6.4299184E-01;  9.9999998E-03; -8.9985542E-02;6371;  3.1905708E-01;  0.0000000E+00; -1.6426422E-02;  9.9478656E+02;  1.0309982E-01; -4.3191934E+03;3; -3.7973133E+01;  0.0000000E+00; -2.0174124E+00;0; -1.0578628E-01;  3.7242633E+04;  0.0000000E+00; -1.6278954E-02;  4.0000000E+04;  0.0000000E+00;  3.9995246E+04; -2.1403736E-01;  0.0000000E+00;  1.0825108E-01;  2.4684326E+03;
  6.4293706E-01;  9.9999998E-03; -7.9987459E-02;6372;  3.1977323E-01;  0.0000000E+00; -1.5419977E-02;  9.9470996E+02;  1.0309856E-01; -4.3826479E+03;3; -3.8862370E+01;  0.0000000E+00; -1.9440552E+00;0; -1.0654970E-01;  3.7237297E+04;  0.0000000E+00; -5.8390144E-03;  4.0000000E+04;  0.0000000E+00;  3.9995789E+04; -2.2598770E-01;  0.0000000E+00;  1.1943801E-01;  2.5481992E+03;
  6.4288789E-01;  9.9999998E-03; -6.9989562E-02;6373;  3.2029453E-01;  0.0000000E+00; -1.4203880E-02;  9.9464722E+02;  1.0309757E-01; -4.4346460E+03;3; -3.9683792E+01;  0.0000000E+00; -1.8375919E+00;0; -1.0689688E-01;  3.7232992E+04;  0.0000000E+00;  2.5288519E-04;  4.0000000E+04;  0.0000000E+00;  3.9996465E+04; -2.3771453E-01;  0.0000000E+00;  1.3081765E-01;  2.6379922E+03;
  6.4284462E-01;  9.9999998E-03; -5.9991598E-02;6374;  3.2064778E-01;  0.0000000E+00; -1.2751079E-02;  9.9459875E+02;  1.0309659E-01; -4.4747925E+03;3; -4.0436863E+01;  0.0000000E+00; -1.6929466E+00;0; -1.0686117E-01;  3.7229602E+04;  0.0000000E+00;  2.9821992E-03;  4.0000000E+04;  0.0000000E+00;  3.9997121E+04; -2.4885717E-01;  0.0000000E+00;  1.4199600E-01;  2.7307734E+03;
  6.4280754E-01;  9.9999998E-03; -4.9993489E-02;6375;  3.2086447E-01;  0.0000000E+00; -1.1064069E-02;  9.9456281E+02;  1.0309564E-01; -4.5045693E+03;3; -4.1112816E+01;  0.0000000E+00; -1.4886364E+00;0; -1.0651836E-01;  3.7226984E+04;  0.0000000E+00;  3.5098500E-03;  4.0000000E+04;  0.0000000E+00;  3.9997793E+04; -2.5905037E-01;  0.0000000E+00;  1.5253201E-01;  2.8200566E+03;
  6.4277685E-01;  9.9999998E-03; -3.9995171E-02;6376;  3.2097840E-01;  0.0000000E+00; -9.1578970E-03;  9.9453754E+02;  1.0309497E-01; -4.5255068E+03;3; -4.1703926E+01;  0.0000000E+00; -1.2753769E+00;0; -1.0597815E-01;  3.7225113E+04;  0.0000000E+00;  2.8742554E-03;  4.0000000E+04;  0.0000000E+00;  3.9998414E+04; -2.6794508E-01;  0.0000000E+00;  1.6196693E-01;  2.9001531E+03;
  6.4275271E-01;  9.9999998E-03; -2.9996596E-02;6377;  3.2102606E-01;  0.0000000E+00; -7.0550628E-03;  9.9452020E+02;  1.0309426E-01; -4.5398765E+03;3; -4.2179035E+01;  0.0000000E+00; -9.7409546E-01;0; -1.0536867E-01;  3.7223750E+04;  0.0000000E+00;  1.8377092E-03;  4.0000000E+04;  0.0000000E+00;  3.9998969E+04; -2.7522510E-01;  0.0000000E+00;  1.6985643E-01;  2.9665354E+03;
  6.4273566E-01;  9.9999998E-03; -1.9997861E-02;6378;  3.2103500E-01;  0.0000000E+00; -4.7971942E-03;  9.9450928E+02;  1.0309386E-01; -4.5489131E+03;3; -4.2538963E+01;  0.0000000E+00; -6.8466407E-01;0; -1.0482022E-01;  3.7222895E+04;  0.0000000E+00;  8.7192719E-04;  4.0000000E+04;  0.0000000E+00;  3.9999293E+04; -2.8062665E-01;  0.0000000E+00;  1.7580643E-01;  3.0158916E+03;
  6.4272547E-01;  9.9999998E-03; -9.9989465E-03;6379;  3.2103041E-01;  0.0000000E+00; -2.4273728E-03;  9.9450208E+02;  1.0309350E-01; -4.5548882E+03;3; -4.2756237E+01;  0.0000000E+00; -3.4684208E-01;0; -1.0444193E-01;  3.7222500E+04;  0.0000000E+00;  2.2439517E-04;  4.0000000E+04;  0.0000000E+00;  3.9999602E+04; -2.8395033E-01;  0.0000000E+00;  1.7950840E-01;  3.0462036E+03;
  6.4272201E-01;  9.9999998E-03;  3.2072894E-10;6380;  3.2102710E-01;  0.0000000E+00; -3.1693936E-08;  9.9450055E+02;  1.0309348E-01; -4.5561226E+03;3; -4.2828094E+01;  0.0000000E+00; -2.3317625E-06;0; -1.0430764E-01;  3.7222301E+04;  0.0000000E+00; -1.3574835E-12;  4.0000000E+04;  0.0000000E+00;  3.9999574E+04; -2.8507254E-01;  0.0000000E+00;  1.8076490E-01;  3.0563857E+03;
  6.4272547E-01;  9.9999998E-03;  9.9989474E-03;6381;  3.2103041E-01;  0.0000000E+00;  2.4273107E-03;  9.9450208E+02;  1.0309350E-01; -4.5548882E+03;3; -4.2756596E+01;  0.0000000E+00;  3.4684780E-01;0; -1.0444175E-01;  3.7222500E+04;  0.0000000E+00;  2.2486557E-04;  4.0000000E+04;  0.0000000E+00;  3.9999602E+04; -2.8395018E-01;  0.0000000E+00;  1.7950843E-01;  3.0462007E+03;
  6.4273566E-01;  9.9999998E-03;  1.9997863E-02;6382;  3.2103503E-01;  0.0000000E+00;  4.7971313E-03;  9.9450928E+02;  1.0309386E-01; -4.5489131E+03;3; -4.2538506E+01;  0.0000000E+00;  6.8468547E-01;0; -1.0482018E-01;  3.7222898E+04;  0.0000000E+00;  8.7229587E-04;  4.0000000E+04;  0.0000000E+00;  3.9999293E+04; -2.8062677E-01;  0.0000000E+00;  1.7580660E-01;  3.0158904E+03;
  6.4275271E-01;  9.9999998E-03;  2.9996596E-02;6383;  3.2102609E-01;  0.0000000E+00;  7.0550023E-03;  9.9452020E+02;  1.0309426E-01; -4.5398765E+03;3; -4.2179024E+01;  0.0000000E+00;  9.7410965E-01;0; -1.0536885E-01;  3.7223750E+04;  0.0000000E+00;  1.8383400E-03;  4.0000000E+04;  0.0000000E+00;  3.9998969E+04; -2.7522528E-01;  0.0000000E+00;  1.6985643E-01;  2.9665381E+03;
  6.4277685E-01;  9.9999998E-03;  3.9995171E-02;6384;  3.2097843E-01;  0.0000000E+00;  9.1578448E-03;  9.9453766E+02;  1.0309488E-01; -4.5254077E+03;3; -4.1703655E+01;  0.0000000E+00;  1.2753936E+00;0; -1.0597794E-01;  3.7225109E+04;  0.0000000E+00;  2.8749157E-03;  4.0000000E+04;  0.0000000E+00;  3.9998414E+04; -2.6794493E-01;  0.0000000E+00;  1.6196699E-01;  2.9001582E+03;
  6.4280754E-01;  9.9999998E-03;  4.9993489E-02;6385;  3.2086453E-01;  0.0000000E+00;  1.1064016E-02;  9.9456281E+02;  1.0309564E-01; -4.5045693E+03;3; -4.1112358E+01;  0.0000000E+00;  1.4886454E+00;0; -1.0651816E-01;  3.7226984E+04;  0.0000000E+00;  3.5100153E-03;  4.0000000E+04;  0.0000000E+00;  3.9997793E+04; -2.5905016E-01;  0.0000000E+00;  1.5253200E-01;  2.8200698E+03;
  6.4284462E-01;  9.9999998E-03;  5.9991598E-02;6386;  3.2064784E-01;  0.0000000E+00;  1.2751029E-02;  9.9459875E+02;  1.0309659E-01; -4.4747925E+03;3; -4.0436794E+01;  0.0000000E+00;  1.6929559E+00;0; -1.0686128E-01;  3.7229605E+04;  0.0000000E+00;  2.9833759E-03;  4.0000000E+04;  0.0000000E+00;  3.9997121E+04; -2.4885724E-01;  0.0000000E+00;  1.4199597E-01;  2.7307822E+03;
  6.5305787E-01;  9.9999998E-03; -9.9972114E-02;6431;  3.1585997E-01;  0.0000000E+00; -1.8561633E-02;  9.9463702E+02;  1.0438836E-01; -4.4430830E+03;3; -3.7204399E+01;  0.0000000E+00; -1.6836364E+00;0; -9.1950797E-02;  3.6317496E+04;  0.0000000E+00; -6.6858791E-02;  4.0000000E+04;  0.0000000E+00;  3.9985676E+04; -2.0401318E-01;  0.0000000E+00;  1.1206239E-01;  2.3626248E+03;
  6.5299308E-01;  9.9999998E-03; -8.9973800E-02;6432;  3.1660891E-01;  0.0000000E+00; -1.7582593E-02;  9.9448187E+02;  1.0438575E-01; -4.5716211E+03;3; -3.8163067E+01;  0.0000000E+00; -1.6637356E+00;0; -9.5181279E-02;  3.6307465E+04;  0.0000000E+00; -4.6339259E-02;  4.0000000E+04;  0.0000000E+00;  3.9986387E+04; -2.1729696E-01;  0.0000000E+00;  1.2211568E-01;  2.4562251E+03;
  6.5293354E-01;  9.9999998E-03; -7.9975992E-02;6433;  3.1713378E-01;  0.0000000E+00; -1.6401980E-02;  9.9434607E+02;  1.0438330E-01; -4.6841104E+03;3; -3.9056461E+01;  0.0000000E+00; -1.6286947E+00;0; -9.7887143E-02;  3.6298609E+04;  0.0000000E+00; -2.9993676E-02;  4.0000000E+04;  0.0000000E+00;  3.9987273E+04; -2.3048910E-01;  0.0000000E+00;  1.3260196E-01;  2.5659556E+03;
  6.5287989E-01;  9.9999998E-03; -6.9978572E-02;6434;  3.1746423E-01;  0.0000000E+00; -1.5002764E-02;  9.9422949E+02;  1.0438142E-01; -4.7806997E+03;3; -3.9874519E+01;  0.0000000E+00; -1.5559652E+00;0; -1.0005979E-01;  3.6290867E+04;  0.0000000E+00; -1.7965788E-02;  4.0000000E+04;  0.0000000E+00;  3.9988012E+04; -2.4327508E-01;  0.0000000E+00;  1.4321528E-01;  2.6842915E+03;
  6.5283257E-01;  9.9999998E-03; -5.9981436E-02;6435;  3.1763795E-01;  0.0000000E+00; -1.3382223E-02;  9.9413196E+02;  1.0437975E-01; -4.8614868E+03;3; -4.0623272E+01;  0.0000000E+00; -1.4442879E+00;0; -1.0171595E-01;  3.6284285E+04;  0.0000000E+00; -9.8273810E-03;  4.0000000E+04;  0.0000000E+00;  3.9988953E+04; -2.5531417E-01;  0.0000000E+00;  1.5359822E-01;  2.8033557E+03;
  6.5279204E-01;  9.9999998E-03; -4.9984436E-02;6436;  3.1769219E-01;  0.0000000E+00; -1.1551542E-02;  9.9405133E+02;  1.0437819E-01; -4.9282988E+03;3; -4.1295986E+01;  0.0000000E+00; -1.2937924E+00;0; -1.0290493E-01;  3.6278785E+04;  0.0000000E+00; -4.8117074E-03;  4.0000000E+04;  0.0000000E+00;  3.9989785E+04; -2.6625815E-01;  0.0000000E+00;  1.6335322E-01;  2.9160701E+03;
  6.5275836E-01;  9.9999998E-03; -3.9987471E-02;6437;  3.1766960E-01;  0.0000000E+00; -9.5116999E-03;  9.9398975E+02;  1.0437673E-01; -4.9793096E+03;3; -4.1876598E+01;  0.0000000E+00; -1.1046438E+00;0; -1.0369806E-01;  3.6274586E+04;  0.0000000E+00; -2.0380653E-03;  4.0000000E+04;  0.0000000E+00;  3.9990461E+04; -2.7576503E-01;  0.0000000E+00;  1.7206697E-01;  3.0162544E+03;
  6.5273207E-01;  9.9999998E-03; -2.9990625E-02;6438;  3.1760493E-01;  0.0000000E+00; -7.3033045E-03;  9.9394403E+02;  1.0437584E-01; -5.0171846E+03;3; -4.2340061E+01;  0.0000000E+00; -8.5809320E-01;0; -1.0418434E-01;  3.6271457E+04;  0.0000000E+00; -7.0114987E-04;  4.0000000E+04;  0.0000000E+00;  3.9991086E+04; -2.8352398E-01;  0.0000000E+00;  1.7933963E-01;  3.0988635E+03;
  6.5271330E-01;  9.9999998E-03; -1.9993842E-02;6439;  3.1753185E-01;  0.0000000E+00; -4.9507916E-03;  9.9391364E+02;  1.0437551E-01; -5.0423687E+03;3; -4.2686634E+01;  0.0000000E+00; -5.8948708E-01;0; -1.0445176E-01;  3.6269258E+04;  0.0000000E+00; -1.7336797E-04;  4.0000000E+04;  0.0000000E+00;  3.9991598E+04; -2.8926945E-01;  0.0000000E+00;  1.8481769E-01;  3.1601482E+03;
  6.5270197E-01;  9.9999998E-03; -9.9969916E-03;6440;  3.1747678E-01;  0.0000000E+00; -2.4990821E-03;  9.9389569E+02;  1.0437502E-01; -5.0572324E+03;3; -4.2908878E+01;  0.0000000E+00; -3.0773443E-01;0; -1.0457739E-01;  3.6267926E+04;  0.0000000E+00; -2.3038096E-05;  4.0000000E+04;  0.0000000E+00;  3.9991895E+04; -2.9280037E-01;  0.0000000E+00;  1.8822297E-01;  3.1977380E+03;
  6.5269804E-01;  9.9999998E-03;  3.7219156E-10;6441;  3.1745493E-01;  0.0000000E+00; -3.1669767E-08;  9.9389008E+02;  1.0437489E-01; -5.0619233E+03;3; -4.2982086E+01;  0.0000000E+00;  1.1434373E-05;0; -1.0461409E-01;  3.6267508E+04;  0.0000000E+00; -1.9138463E-12;  4.0000000E+04;  0.0000000E+00;  3.9991969E+04; -2.9399186E-01;  0.0000000E+00;  1.8937777E-01;  3.2103843E+03;
  6.5270197E-01;  9.9999998E-03;  9.9969925E-03;6442;  3.1747675E-01;  0.0000000E+00;  2.4990188E-03;  9.9389569E+02;  1.0437502E-01; -5.0572324E+03;3; -4.2908623E+01;  0.0000000E+00;  3.0776790E-01;0; -1.0457732E-01;  3.6267926E+04;  0.0000000E+00; -2.2702097E-05;  4.0000000E+04;  0.0000000E+00;  3.9991895E+04; -2.9280013E-01;  0.0000000E+00;  1.8822281E-01;  3.1977354E+03;
  6.5271330E-01;  9.9999998E-03;  1.9993844E-02;6443;  3.1753188E-01;  0.0000000E+00;  4.9507301E-03;  9.9391364E+02;  1.0437551E-01; -5.0423687E+03;3; -4.2686779E+01;  0.0000000E+00;  5.8949411E-01;0; -1.0445161E-01;  3.6269262E+04;  0.0000000E+00; -1.7289743E-04;  4.0000000E+04;  0.0000000E+00;  3.9991602E+04; -2.8926936E-01;  0.0000000E+00;  1.8481775E-01;  3.1601558E+03;
  6.5273207E-01;  9.9999998E-03;  2.9990625E-02;6444;  3.1760496E-01;  0.0000000E+00;  7.3032482E-03;  9.9394403E+02;  1.0437584E-01; -5.0171846E+03;3; -4.2340015E+01;  0.0000000E+00;  8.5810113E-01;0; -1.0418381E-01;  3.6271457E+04;  0.0000000E+00; -7.0037856E-04;  4.0000000E+04;  0.0000000E+00;  3.9991082E+04; -2.8352362E-01;  0.0000000E+00;  1.7933981E-01;  3.0988740E+03;
  6.5275836E-01;  9.9999998E-03;  3.9987471E-02;6445;  3.1766963E-01;  0.0000000E+00;  9.5116468E-03;  9.9398975E+02;  1.0437673E-01; -4.9793096E+03;3; -4.1877003E+01;  0.0000000E+00;  1.1046835E+00;0; -1.0369790E-01;  3.6274586E+04;  0.0000000E+00; -2.0383680E-03;  4.0000000E+04;  0.0000000E+00;  3.9990461E+04; -2.7576503E-01;  0.0000000E+00;  1.7206714E-01;  3.0162563E+03;
  6.5279204E-01;  9.9999998E-03;  4.9984436E-02;6446;  3.1769222E-01;  0.0000000E+00;  1.1551492E-02;  9.9405133E+02;  1.0437819E-01; -4.9282988E+03;3; -4.1296032E+01;  0.0000000E+00;  1.2937958E+00;0; -1.0290506E-01;  3.6278793E+04;  0.0000000E+00; -4.8122541E-03;  4.0000000E+04;  0.0000000E+00;  3.9989785E+04; -2.6625836E-01;  0.0000000E+00;  1.6335329E-01;  2.9160713E+03;
  6.5283257E-01;  9.9999998E-03;  5.9981436E-02;6447;  3.1763798E-01;  0.0000000E+00;  1.3382179E-02;  9.9413196E+02;  1.0437975E-01; -4.8614868E+03;3; -4.0623711E+01;  0.0000000E+00;  1.4442995E+00;0; -1.0171607E-01;  3.6284285E+04;  0.0000000E+00; -9.8280208E-03;  4.0000000E+04;  0.0000000E+00;  3.9988953E+04; -2.5531435E-01;  0.0000000E+00;  1.5359828E-01;  2.8033621E+03;
  6.6271335E-01;  9.9999998E-03; -9.9943867E-03;6501;  3.1366071E-01;  0.0000000E+00; -2.5520767E-03;  9.9343225E+02;  1.0592438E-01; -5.4412065E+03;3; -4.3001221E+01;  0.0000000E+00; -2.6439229E-01;0; -1.0355811E-01;  3.5176609E+04;  0.0000000E+00; -3.5002970E-04;  4.0000000E+04;  0.0000000E+00;  3.9982602E+04; -2.9859540E-01;  0.0000000E+00;  1.9503729E-01;  3.3437366E+03;
  6.6270924E-01;  9.9999998E-03;  4.1909418E-10;6502;  3.1362188E-01;  0.0000000E+00; -3.2415116E-08;  9.9342175E+02;  1.0592419E-01; -5.4498979E+03;3; -4.3069466E+01;  0.0000000E+00; -1.3885656E-05;0; -1.0379833E-01;  3.5175887E+04;  0.0000000E+00; -5.8660618E-13;  4.0000000E+04;  0.0000000E+00;  3.9982699E+04; -2.9984710E-01;  0.0000000E+00;  1.9604877E-01;  3.3586462E+03;
  6.6271335E-01;  9.9999998E-03;  9.9943876E-03;6503;  3.1366071E-01;  0.0000000E+00;  2.5520141E-03;  9.9343225E+02;  1.0592438E-01; -5.4412065E+03;3; -4.3001595E+01;  0.0000000E+00;  2.6441267E-01;0; -1.0355769E-01;  3.5176617E+04;  0.0000000E+00; -3.4990339E-04;  4.0000000E+04;  0.0000000E+00;  3.9982602E+04; -2.9859525E-01;  0.0000000E+00;  1.9503756E-01;  3.3437361E+03;
  6.6272569E-01;  9.9999998E-03; -1.9988913E-02;6500;  3.1377071E-01;  0.0000000E+00; -5.0598606E-03;  9.9346741E+02;  1.0592511E-01; -5.4120723E+03;3; -4.2792301E+01;  0.0000000E+00; -4.9072087E-01;0; -1.0282646E-01;  3.5178871E+04;  0.0000000E+00; -1.5228798E-03;  4.0000000E+04;  0.0000000E+00;  3.9982285E+04; -2.9488170E-01;  0.0000000E+00;  1.9205524E-01;  3.2992424E+03;
  6.6272569E-01;  9.9999998E-03;  1.9988913E-02;6504;  3.1377074E-01;  0.0000000E+00;  5.0597987E-03;  9.9346741E+02;  1.0592511E-01; -5.4120723E+03;3; -4.2792404E+01;  0.0000000E+00;  4.9075702E-01;0; -1.0282582E-01;  3.5178875E+04;  0.0000000E+00; -1.5228654E-03;  4.0000000E+04;  0.0000000E+00;  3.9982285E+04; -2.9488111E-01;  0.0000000E+00;  1.9205528E-01;  3.2992412E+03;
  6.6274649E-01;  9.9999998E-03; -2.9983789E-02;6499;  3.1393301E-01;  0.0000000E+00; -7.4816337E-03;  9.9352435E+02;  1.0592622E-01; -5.3648643E+03;3; -4.2455933E+01;  0.0000000E+00; -7.2965264E-01;0; -1.0157311E-01;  3.5182434E+04;  0.0000000E+00; -3.8660001E-03;  4.0000000E+04;  0.0000000E+00;  3.9981684E+04; -2.8882718E-01;  0.0000000E+00;  1.8725407E-01;  3.2262490E+03;
  6.6274649E-01;  9.9999998E-03;  2.9983791E-02;6505;  3.1393307E-01;  0.0000000E+00;  7.4815778E-03;  9.9352429E+02;  1.0592625E-01; -5.3649136E+03;3; -4.2455860E+01;  0.0000000E+00;  7.2967970E-01;0; -1.0157323E-01;  3.5182434E+04;  0.0000000E+00; -3.8655282E-03;  4.0000000E+04;  0.0000000E+00;  3.9981684E+04; -2.8882715E-01;  0.0000000E+00;  1.8725392E-01;  3.2262554E+03;
  6.6277558E-01;  9.9999998E-03; -3.9979037E-02;6498;  3.1411895E-01;  0.0000000E+00; -9.7796628E-03;  9.9360638E+02;  1.0592784E-01; -5.2969165E+03;3; -4.1994373E+01;  0.0000000E+00; -9.0969712E-01;0; -9.9753737E-02;  3.5187719E+04;  0.0000000E+00; -7.9021668E-03;  4.0000000E+04;  0.0000000E+00;  3.9980949E+04; -2.8062499E-01;  0.0000000E+00;  1.8087125E-01;  3.1268884E+03;
  6.6277558E-01;  9.9999998E-03;  3.9979037E-02;6506;  3.1411898E-01;  0.0000000E+00;  9.7796042E-03;  9.9360638E+02;  1.0592784E-01; -5.2969165E+03;3; -4.1994633E+01;  0.0000000E+00;  9.0973413E-01;0; -9.9753767E-02;  3.5187719E+04;  0.0000000E+00; -7.9011135E-03;  4.0000000E+04;  0.0000000E+00;  3.9980953E+04; -2.8062505E-01;  0.0000000E+00;  1.8087128E-01;  3.1268779E+03;
  6.6281265E-01;  9.9999998E-03; -4.9974665E-02;6497;  3.1429115E-01;  0.0000000E+00; -1.1931262E-02;  9.9371088E+02;  1.0592962E-01; -5.2103521E+03;3; -4.1418182E+01;  0.0000000E+00; -1.1020488E+00;0; -9.7313613E-02;  3.5194680E+04;  0.0000000E+00; -1.4271544E-02;  4.0000000E+04;  0.0000000E+00;  3.9980031E+04; -2.7052402E-01;  0.0000000E+00;  1.7321041E-01;  3.0047944E+03;
  6.6281265E-01;  9.9999998E-03;  4.9974669E-02;6507;  3.1429121E-01;  0.0000000E+00;  1.1931206E-02;  9.9371088E+02;  1.0592962E-01; -5.2103521E+03;3; -4.1418175E+01;  0.0000000E+00;  1.1020461E+00;0; -9.7313195E-02;  3.5194680E+04;  0.0000000E+00; -1.4271120E-02;  4.0000000E+04;  0.0000000E+00;  3.9980031E+04; -2.7052364E-01;  0.0000000E+00;  1.7321044E-01;  3.0047993E+03;
  6.6285717E-01;  9.9999998E-03; -5.9970718E-02;6496;  3.1441316E-01;  0.0000000E+00; -1.3894350E-02;  9.9384430E+02;  1.0593226E-01; -5.0998384E+03;3; -4.0743046E+01;  0.0000000E+00; -1.2273648E+00;0; -9.4195366E-02;  3.5203145E+04;  0.0000000E+00; -2.3637474E-02;  4.0000000E+04;  0.0000000E+00;  3.9979086E+04; -2.5880828E-01;  0.0000000E+00;  1.6461292E-01;  2.8651287E+03;
  6.6285717E-01;  9.9999998E-03;  5.9970722E-02;6508;  3.1441325E-01;  0.0000000E+00;  1.3894299E-02;  9.9384430E+02;  1.0593226E-01; -5.0998384E+03;3; -4.0743492E+01;  0.0000000E+00;  1.2274045E+00;0; -9.4195217E-02;  3.5203152E+04;  0.0000000E+00; -2.3638621E-02;  4.0000000E+04;  0.0000000E+00;  3.9979086E+04; -2.5880826E-01;  0.0000000E+00;  1.6461304E-01;  2.8651350E+03;
  6.6290897E-01;  9.9999998E-03; -6.9967285E-02;6495;  3.1443703E-01;  0.0000000E+00; -1.5658388E-02;  9.9400330E+02;  1.0593525E-01; -4.9680903E+03;3; -3.9992603E+01;  0.0000000E+00; -1.3134236E+00;0; -9.0351894E-02;  3.5213359E+04;  0.0000000E+00; -3.6528386E-02;  4.0000000E+04;  0.0000000E+00;  3.9977953E+04; -2.4578539E-01;  0.0000000E+00;  1.5543349E-01;  2.7145513E+03;
  6.6296750E-01;  9.9999998E-03; -7.9964451E-02;6494;  3.1431645E-01;  0.0000000E+00; -1.7219910E-02;  9.9418683E+02;  1.0593858E-01; -4.8160474E+03;3; -3.9175041E+01;  0.0000000E+00; -1.3433806E+00;0; -8.5747749E-02;  3.5225047E+04;  0.0000000E+00; -5.3146392E-02;  4.0000000E+04;  0.0000000E+00;  3.9976836E+04; -2.3176153E-01;  0.0000000E+00;  1.4601378E-01;  2.5609751E+03;
  6.6303211E-01;  9.9999998E-03; -8.9962378E-02;6493;  3.1400731E-01;  0.0000000E+00; -1.8580372E-02;  9.9439655E+02;  1.0594235E-01; -4.6422769E+03;3; -3.8289562E+01;  0.0000000E+00; -1.3311554E+00;0; -8.0361962E-02;  3.5238211E+04;  0.0000000E+00; -7.3193744E-02;  4.0000000E+04;  0.0000000E+00;  3.9975750E+04; -2.1702731E-01;  0.0000000E+00;  1.3666534E-01;  2.4133789E+03;
  6.6310191E-01;  9.9999998E-03; -9.9960998E-02;6492;  3.1347114E-01;  0.0000000E+00; -1.9744987E-02;  9.9462543E+02;  1.0594645E-01; -4.4526553E+03;3; -3.7314480E+01;  0.0000000E+00; -1.2844954E+00;0; -7.4186474E-02;  3.5252387E+04;  0.0000000E+00; -9.5793828E-02;  4.0000000E+04;  0.0000000E+00;  3.9974852E+04; -2.0184371E-01;  0.0000000E+00;  1.2765723E-01;  2.2806177E+03;
  6.7320263E-01;  9.9999998E-03; -9.9952534E-02;6553;  3.1101543E-01;  0.0000000E+00; -2.0757135E-02;  9.9472321E+02;  1.0773163E-01; -4.3716611E+03;3; -3.7354515E+01;  0.0000000E+00; -8.1790400E-01;0; -4.8998669E-02;  3.4096703E+04;  0.0000000E+00; -1.0736146E-01;  4.0000000E+04;  0.0000000E+00;  3.9961992E+04; -1.9347626E-01;  0.0000000E+00;  1.4447759E-01;  2.1160081E+03;
  6.7312789E-01;  9.9999998E-03; -8.9952931E-02;6554;  3.1131673E-01;  0.0000000E+00; -1.9416278E-02;  9.9440973E+02;  1.0772525E-01; -4.6313535E+03;3; -3.8324249E+01;  0.0000000E+00; -9.8401284E-01;0; -5.9316128E-02;  3.4078230E+04;  0.0000000E+00; -8.6740173E-02;  4.0000000E+04;  0.0000000E+00;  3.9963219E+04; -2.1127267E-01;  0.0000000E+00;  1.5195654E-01;  2.2957368E+03;
  6.7305791E-01;  9.9999998E-03; -7.9954222E-02;6555;  3.1138903E-01;  0.0000000E+00; -1.7889908E-02;  9.9412054E+02;  1.0771937E-01; -4.8709482E+03;3; -3.9216118E+01;  0.0000000E+00; -1.0725781E+00;0; -6.8380013E-02;  3.4061023E+04;  0.0000000E+00; -6.6490442E-02;  4.0000000E+04;  0.0000000E+00;  3.9964707E+04; -2.2806108E-01;  0.0000000E+00;  1.5968107E-01;  2.4875767E+03;
  6.7299402E-01;  9.9999998E-03; -6.9956735E-02;6556;  3.1127849E-01;  0.0000000E+00; -1.6173752E-02;  9.9385950E+02;  1.0771400E-01; -5.0872349E+03;3; -4.0052624E+01;  0.0000000E+00; -1.0732304E+00;0; -7.6235324E-02;  3.4045383E+04;  0.0000000E+00; -4.8156843E-02;  4.0000000E+04;  0.0000000E+00;  3.9966070E+04; -2.4366710E-01;  0.0000000E+00;  1.6743177E-01;  2.6811030E+03;
  6.7293721E-01;  9.9999998E-03; -5.9960544E-02;6557;  3.1104055E-01;  0.0000000E+00; -1.4274875E-02;  9.9363428E+02;  1.0770941E-01; -5.2737949E+03;3; -4.0815105E+01;  0.0000000E+00; -1.0210661E+00;0; -8.2927272E-02;  3.4031719E+04;  0.0000000E+00; -3.2756571E-02;  4.0000000E+04;  0.0000000E+00;  3.9967453E+04; -2.5788149E-01;  0.0000000E+00;  1.7495422E-01;  2.8659709E+03;
  6.7288840E-01;  9.9999998E-03; -4.9965441E-02;6558;  3.1072691E-01;  0.0000000E+00; -1.2195999E-02;  9.9344177E+02;  1.0770543E-01; -5.4332939E+03;3; -4.1488857E+01;  0.0000000E+00; -8.9942551E-01;0; -8.8499740E-02;  3.4020199E+04;  0.0000000E+00; -2.0725410E-02;  4.0000000E+04;  0.0000000E+00;  3.9968625E+04; -2.7047461E-01;  0.0000000E+00;  1.8197487E-01;  3.0333997E+03;
  6.7284793E-01;  9.9999998E-03; -3.9971258E-02;6559;  3.1038958E-01;  0.0000000E+00; -9.9632153E-03;  9.9328558E+02;  1.0770224E-01; -5.5626714E+03;3; -4.2059715E+01;  0.0000000E+00; -7.2257805E-01;0; -9.2994347E-02;  3.4010773E+04;  0.0000000E+00; -1.1980538E-02;  4.0000000E+04;  0.0000000E+00;  3.9969684E+04; -2.8120646E-01;  0.0000000E+00;  1.8821211E-01;  3.1765405E+03;
  6.7281622E-01;  9.9999998E-03; -2.9977858E-02;6560;  3.1007376E-01;  0.0000000E+00; -7.5987838E-03;  9.9316656E+02;  1.0770011E-01; -5.6612847E+03;3; -4.2512207E+01;  0.0000000E+00; -5.7357746E-01;0; -9.6448869E-02;  3.4003477E+04;  0.0000000E+00; -6.0940576E-03;  4.0000000E+04;  0.0000000E+00;  3.9970504E+04; -2.8984448E-01;  0.0000000E+00;  1.9339561E-01;  3.2907371E+03;
  6.7279339E-01;  9.9999998E-03; -1.9984983E-02;6561;  3.0981615E-01;  0.0000000E+00; -5.1202602E-03;  9.9307996E+02;  1.0769808E-01; -5.7330347E+03;3; -4.2833447E+01;  0.0000000E+00; -3.8201895E-01;0; -9.8896384E-02;  3.3998398E+04;  0.0000000E+00; -2.4826229E-03;  4.0000000E+04;  0.0000000E+00;  3.9971102E+04; -2.9618424E-01;  0.0000000E+00;  1.9728786E-01;  3.3733396E+03;
  6.7277974E-01;  9.9999998E-03; -9.9924570E-03;6562;  3.0964747E-01;  0.0000000E+00; -2.5767819E-03;  9.9303094E+02;  1.0769707E-01; -5.7736255E+03;3; -4.3041183E+01;  0.0000000E+00; -1.7971976E-01;0; -1.0035670E-01;  3.3995281E+04;  0.0000000E+00; -5.8453286E-04;  4.0000000E+04;  0.0000000E+00;  3.9971492E+04; -3.0005974E-01;  0.0000000E+00;  1.9970304E-01;  3.4230723E+03;
  6.7277509E-01;  9.9999998E-03;  4.4601581E-10;6563;  3.0958974E-01;  0.0000000E+00; -3.2032105E-08;  9.9301373E+02;  1.0769664E-01; -5.7878965E+03;3; -4.3113934E+01;  0.0000000E+00;  2.8705676E-05;0; -1.0084297E-01;  3.3994238E+04;  0.0000000E+00;  3.1763463E-12;  4.0000000E+04;  0.0000000E+00;  3.9971645E+04; -3.0136433E-01;  0.0000000E+00;  2.0052136E-01;  3.4396816E+03;
  6.7277974E-01;  9.9999998E-03;  9.9924579E-03;6564;  3.0964747E-01;  0.0000000E+00;  2.5767155E-03;  9.9303088E+02;  1.0769722E-01; -5.7736748E+03;3; -4.3040981E+01;  0.0000000E+00;  1.7974427E-01;0; -1.0035673E-01;  3.3995277E+04;  0.0000000E+00; -5.8460125E-04;  4.0000000E+04;  0.0000000E+00;  3.9971492E+04; -3.0005983E-01;  0.0000000E+00;  1.9970310E-01;  3.4230864E+03;
  6.7279339E-01;  9.9999998E-03;  1.9984985E-02;6565;  3.0981621E-01;  0.0000000E+00;  5.1201982E-03;  9.9307983E+02;  1.0769811E-01; -5.7331333E+03;3; -4.2833694E+01;  0.0000000E+00;  3.8208279E-01;0; -9.8896146E-02;  3.3998398E+04;  0.0000000E+00; -2.4826524E-03;  4.0000000E+04;  0.0000000E+00;  3.9971102E+04; -2.9618412E-01;  0.0000000E+00;  1.9728798E-01;  3.3733413E+03;
  6.7281622E-01;  9.9999998E-03;  2.9977858E-02;6566;  3.1007379E-01;  0.0000000E+00;  7.5987265E-03;  9.9316663E+02;  1.0770016E-01; -5.6612349E+03;3; -4.2512074E+01;  0.0000000E+00;  5.7358694E-01;0; -9.6448943E-02;  3.4003477E+04;  0.0000000E+00; -6.0942164E-03;  4.0000000E+04;  0.0000000E+00;  3.9970504E+04; -2.8984439E-01;  0.0000000E+00;  1.9339545E-01;  3.2907515E+03;
  6.7284793E-01;  9.9999998E-03;  3.9971262E-02;6567;  3.1038967E-01;  0.0000000E+00;  9.9631557E-03;  9.9328558E+02;  1.0770224E-01; -5.5626714E+03;3; -4.2059952E+01;  0.0000000E+00;  7.2259516E-01;0; -9.2994198E-02;  3.4010773E+04;  0.0000000E+00; -1.1980002E-02;  4.0000000E+04;  0.0000000E+00;  3.9969684E+04; -2.8120616E-01;  0.0000000E+00;  1.8821196E-01;  3.1765410E+03;
  6.7288840E-01;  9.9999998E-03;  4.9965441E-02;6568;  3.1072697E-01;  0.0000000E+00;  1.2195935E-02;  9.9344177E+02;  1.0770543E-01; -5.4332939E+03;3; -4.1488834E+01;  0.0000000E+00;  8.9940608E-01;0; -8.8499442E-02;  3.4020199E+04;  0.0000000E+00; -2.0724511E-02;  4.0000000E+04;  0.0000000E+00;  3.9968625E+04; -2.7047446E-01;  0.0000000E+00;  1.8197502E-01;  3.0333940E+03;
  6.7293721E-01;  9.9999998E-03;  5.9960544E-02;6569;  3.1104064E-01;  0.0000000E+00;  1.4274819E-02;  9.9363428E+02;  1.0770941E-01; -5.2737949E+03;3; -4.0815964E+01;  0.0000000E+00;  1.0210861E+00;0; -8.2926884E-02;  3.4031719E+04;  0.0000000E+00; -3.2757051E-02;  4.0000000E+04;  0.0000000E+00;  3.9967453E+04; -2.5788110E-01;  0.0000000E+00;  1.7495422E-01;  2.8659675E+03;
  6.8340623E-01;  9.9999998E-03; -9.9953361E-02;6614;  3.0856121E-01;  0.0000000E+00; -2.1562790E-02;  9.9496875E+02;  1.0969654E-01; -4.1682026E+03;3; -3.7271778E+01;  0.0000000E+00; -4.0622845E-01;0; -1.2332872E-02;  3.2903391E+04;  0.0000000E+00; -9.0781219E-02;  4.0000000E+04;  0.0000000E+00;  3.9947434E+04; -1.7498994E-01;  0.0000000E+00;  1.6265707E-01;  1.8239839E+03;
  6.8332660E-01;  9.9999998E-03; -8.9952141E-02;6615;  3.0861226E-01;  0.0000000E+00; -2.0046744E-02;  9.9457098E+02;  1.0968712E-01; -4.4977676E+03;3; -3.8271069E+01;  0.0000000E+00; -6.9782627E-01;0; -2.8284162E-02;  3.2881445E+04;  0.0000000E+00; -7.6286696E-02;  4.0000000E+04;  0.0000000E+00;  3.9949172E+04; -1.9637556E-01;  0.0000000E+00;  1.6809140E-01;  2.0583408E+03;
  6.8325108E-01;  9.9999998E-03; -7.9951912E-02;6616;  3.0843127E-01;  0.0000000E+00; -1.8362733E-02;  9.9420160E+02;  1.0967819E-01; -4.8037783E+03;3; -3.9201786E+01;  0.0000000E+00; -8.5320908E-01;0; -4.2282298E-02;  3.2860766E+04;  0.0000000E+00; -6.0173612E-02;  4.0000000E+04;  0.0000000E+00;  3.9950812E+04; -2.1594691E-01;  0.0000000E+00;  1.7366461E-01;  2.2999324E+03;
  6.8318123E-01;  9.9999998E-03; -6.9953039E-02;6617;  3.0807739E-01;  0.0000000E+00; -1.6511228E-02;  9.9386871E+02;  1.0967050E-01; -5.0795679E+03;3; -4.0070618E+01;  0.0000000E+00; -8.6108053E-01;0; -5.4428339E-02;  3.2842086E+04;  0.0000000E+00; -4.4384591E-02;  4.0000000E+04;  0.0000000E+00;  3.9952508E+04; -2.3365045E-01;  0.0000000E+00;  1.7922211E-01;  2.5362385E+03;
  6.8311834E-01;  9.9999998E-03; -5.9955925E-02;6618;  3.0761176E-01;  0.0000000E+00; -1.4494917E-02;  9.9357568E+02;  1.0966356E-01; -5.3223228E+03;3; -4.0836578E+01;  0.0000000E+00; -7.9750937E-01;0; -6.4815179E-02;  3.2825602E+04;  0.0000000E+00; -3.0432658E-02;  4.0000000E+04;  0.0000000E+00;  3.9954137E+04; -2.4939838E-01;  0.0000000E+00;  1.8458320E-01;  2.7555652E+03;
  6.8306339E-01;  9.9999998E-03; -4.9960598E-02;6619;  3.0709514E-01;  0.0000000E+00; -1.2327451E-02;  9.9332513E+02;  1.0965780E-01; -5.5299180E+03;3; -4.1513508E+01;  0.0000000E+00; -6.7310077E-01;0; -7.3518008E-02;  3.2811723E+04;  0.0000000E+00; -1.9200675E-02;  4.0000000E+04;  0.0000000E+00;  3.9955637E+04; -2.6307455E-01;  0.0000000E+00;  1.8955654E-01;  2.9485969E+03;
  6.8301743E-01;  9.9999998E-03; -3.9966770E-02;6620;  3.0658650E-01;  0.0000000E+00; -1.0029879E-02;  9.9312335E+02;  1.0965288E-01; -5.6970708E+03;3; -4.2078117E+01;  0.0000000E+00; -5.1266760E-01;0; -8.0589384E-02;  3.2800332E+04;  0.0000000E+00; -1.0955304E-02;  4.0000000E+04;  0.0000000E+00;  3.9956719E+04; -2.7454033E-01;  0.0000000E+00;  1.9395095E-01;  3.1090510E+03;
  6.8298090E-01;  9.9999998E-03; -2.9974118E-02;6621;  3.0613390E-01;  0.0000000E+00; -7.6255980E-03;  9.9296143E+02;  1.0964928E-01; -5.8312373E+03;3; -4.2520596E+01;  0.0000000E+00; -4.1274559E-01;0; -8.6066470E-02;  3.2791586E+04;  0.0000000E+00; -5.4599755E-03;  4.0000000E+04;  0.0000000E+00;  3.9957664E+04; -2.8365374E-01;  0.0000000E+00;  1.9758727E-01;  3.2336675E+03;
  6.8295419E-01;  9.9999998E-03; -1.9982347E-02;6622;  3.0577400E-01;  0.0000000E+00; -5.1304274E-03;  9.9285150E+02;  1.0964631E-01; -5.9222949E+03;3; -4.2830410E+01;  0.0000000E+00; -2.8092670E-01;0; -8.9974761E-02;  3.2785359E+04;  0.0000000E+00; -2.1752075E-03;  4.0000000E+04;  0.0000000E+00;  3.9958246E+04; -2.9028317E-01;  0.0000000E+00;  2.0030841E-01;  3.3215984E+03;
  6.8293774E-01;  9.9999998E-03; -9.9910628E-03;6623;  3.0554241E-01;  0.0000000E+00; -2.5775458E-03;  9.9278522E+02;  1.0964508E-01; -5.9772061E+03;3; -4.3026203E+01;  0.0000000E+00; -1.4132202E-01;0; -9.2319861E-02;  3.2781676E+04;  0.0000000E+00; -5.0327566E-04;  4.0000000E+04;  0.0000000E+00;  3.9958633E+04; -2.9431283E-01;  0.0000000E+00;  2.0199297E-01;  3.3735918E+03;
  6.8293238E-01;  9.9999998E-03;  4.2697074E-10;6624;  3.0546322E-01;  0.0000000E+00; -3.4216971E-08;  9.9276099E+02;  1.0964439E-01; -5.9972544E+03;3; -4.3093868E+01;  0.0000000E+00;  3.4334716E-05;0; -9.3100578E-02;  3.2780465E+04;  0.0000000E+00;  5.8231931E-12;  4.0000000E+04;  0.0000000E+00;  3.9958770E+04; -2.9566425E-01;  0.0000000E+00;  2.0256367E-01;  3.3907581E+03;
  6.8293774E-01;  9.9999998E-03;  9.9910637E-03;6625;  3.0554244E-01;  0.0000000E+00;  2.5774755E-03;  9.9278522E+02;  1.0964508E-01; -5.9772061E+03;3; -4.3025948E+01;  0.0000000E+00;  1.4134750E-01;0; -9.2319474E-02;  3.2781672E+04;  0.0000000E+00; -5.0342339E-04;  4.0000000E+04;  0.0000000E+00;  3.9958633E+04; -2.9431269E-01;  0.0000000E+00;  2.0199321E-01;  3.3735879E+03;
  6.8295419E-01;  9.9999998E-03;  1.9982347E-02;6626;  3.0577403E-01;  0.0000000E+00;  5.1303604E-03;  9.9285156E+02;  1.0964639E-01; -5.9222456E+03;3; -4.2830467E+01;  0.0000000E+00;  2.8096941E-01;0; -8.9974359E-02;  3.2785359E+04;  0.0000000E+00; -2.1751535E-03;  4.0000000E+04;  0.0000000E+00;  3.9958250E+04; -2.9028273E-01;  0.0000000E+00;  2.0030837E-01;  3.3216006E+03;
  6.8298090E-01;  9.9999998E-03;  2.9974120E-02;6627;  3.0613393E-01;  0.0000000E+00;  7.6255379E-03;  9.9296143E+02;  1.0964928E-01; -5.8312373E+03;3; -4.2521027E+01;  0.0000000E+00;  4.1277537E-01;0; -8.6066782E-02;  3.2791590E+04;  0.0000000E+00; -5.4610274E-03;  4.0000000E+04;  0.0000000E+00;  3.9957664E+04; -2.8365400E-01;  0.0000000E+00;  1.9758722E-01;  3.2336604E+03;
  6.8301743E-01;  9.9999998E-03;  3.9966773E-02;6628;  3.0658656E-01;  0.0000000E+00;  1.0029816E-02;  9.9312335E+02;  1.0965288E-01; -5.6970708E+03;3; -4.2077717E+01;  0.0000000E+00;  5.1269472E-01;0; -8.0588654E-02;  3.2800328E+04;  0.0000000E+00; -1.0955846E-02;  4.0000000E+04;  0.0000000E+00;  3.9956719E+04; -2.7453995E-01;  0.0000000E+00;  1.9395129E-01;  3.1090391E+03;
  6.8306339E-01;  9.9999998E-03;  4.9960598E-02;6629;  3.0709520E-01;  0.0000000E+00;  1.2327384E-02;  9.9332520E+02;  1.0965778E-01; -5.5298687E+03;3; -4.1513412E+01;  0.0000000E+00;  6.7312032E-01;0; -7.3517397E-02;  3.2811727E+04;  0.0000000E+00; -1.9201159E-02;  4.0000000E+04;  0.0000000E+00;  3.9955637E+04; -2.6307422E-01;  0.0000000E+00;  1.8955682E-01;  2.9486003E+03;
  6.8311834E-01;  9.9999998E-03;  5.9955928E-02;6630;  3.0761182E-01;  0.0000000E+00;  1.4494861E-02;  9.9357568E+02;  1.0966356E-01; -5.3223228E+03;3; -4.0836342E+01;  0.0000000E+00;  7.9745394E-01;0; -6.4815089E-02;  3.2825598E+04;  0.0000000E+00; -3.0433558E-02;  4.0000000E+04;  0.0000000E+00;  3.9954137E+04; -2.4939829E-01;  0.0000000E+00;  1.8458320E-01;  2.7555737E+03;
  6.9424039E-01;  9.9999998E-03; -9.9998675E-02;6675;  3.0609721E-01;  0.0000000E+00; -2.2140961E-02;  9.9559332E+02;  1.1186014E-01; -3.6507830E+03;3; -3.7081150E+01;  0.0000000E+00;  1.1971626E-01;0;  4.5564458E-02;  3.1693457E+04;  0.0000000E+00; -3.6704641E-02;  4.0000000E+04;  0.0000000E+00;  3.9930734E+04; -1.3762860E-01;  0.0000000E+00;  1.8319306E-01;  1.3437539E+03;
  6.9414711E-01;  9.9999998E-03; -8.9992158E-02;6676;  3.0587912E-01;  0.0000000E+00; -2.0432707E-02;  9.9512518E+02;  1.1184620E-01; -4.0386160E+03;3; -3.8132366E+01;  0.0000000E+00; -3.5424513E-01;0;  2.1840274E-02;  3.1669717E+04;  0.0000000E+00; -3.2074463E-02;  4.0000000E+04;  0.0000000E+00;  3.9932887E+04; -1.6408694E-01;  0.0000000E+00;  1.8592721E-01;  1.6453623E+03;
  6.9405168E-01;  9.9999998E-03; -7.9986602E-02;6677;  3.0542839E-01;  0.0000000E+00; -1.8602008E-02;  9.9468817E+02;  1.1183242E-01; -4.4006724E+03;3; -3.9108391E+01;  0.0000000E+00; -5.4093736E-01;0;  1.0516644E-03;  3.1647973E+04;  0.0000000E+00; -2.4888217E-02;  4.0000000E+04;  0.0000000E+00;  3.9935086E+04; -1.8759687E-01;  0.0000000E+00;  1.8864854E-01;  1.9457059E+03;
  6.9395685E-01;  9.9999998E-03; -6.9981813E-02;6678;  3.0482036E-01;  0.0000000E+00; -1.6637858E-02;  9.9429419E+02;  1.1181935E-01; -4.7270757E+03;3; -3.9989189E+01;  0.0000000E+00; -6.0376990E-01;0; -1.6964704E-02;  3.1628736E+04;  0.0000000E+00; -1.7051283E-02;  4.0000000E+04;  0.0000000E+00;  3.9937109E+04; -2.0826502E-01;  0.0000000E+00;  1.9130032E-01;  2.2296064E+03;
  6.9386625E-01;  9.9999998E-03; -5.9978496E-02;6679;  3.0411747E-01;  0.0000000E+00; -1.4532126E-02;  9.9394818E+02;  1.1180709E-01; -5.0137285E+03;3; -4.0770683E+01;  0.0000000E+00; -5.5186743E-01;0; -3.2363266E-02;  3.1612176E+04;  0.0000000E+00; -1.0063373E-02;  4.0000000E+04;  0.0000000E+00;  3.9939043E+04; -2.2617091E-01;  0.0000000E+00;  1.9380765E-01;  2.4839358E+03;
  6.9378310E-01;  9.9999998E-03; -4.9977336E-02;6680;  3.0339286E-01;  0.0000000E+00; -1.2310972E-02;  9.9365240E+02;  1.1179597E-01; -5.2587539E+03;3; -4.1461483E+01;  0.0000000E+00; -4.4256955E-01;0; -4.5262888E-02;  3.1598482E+04;  0.0000000E+00; -4.8229080E-03;  4.0000000E+04;  0.0000000E+00;  3.9940645E+04; -2.4135436E-01;  0.0000000E+00;  1.9609147E-01;  2.6996990E+03;
  6.9371098E-01;  9.9999998E-03; -3.9978568E-02;6681;  3.0270439E-01;  0.0000000E+00; -9.9817757E-03;  9.9340717E+02;  1.1178648E-01; -5.4619043E+03;3; -4.2033062E+01;  0.0000000E+00; -3.0570054E-01;0; -5.5750117E-02;  3.1587572E+04;  0.0000000E+00; -1.5934894E-03;  4.0000000E+04;  0.0000000E+00;  3.9941863E+04; -2.5382870E-01;  0.0000000E+00;  1.9807859E-01;  2.8722651E+03;
  6.9365239E-01;  9.9999998E-03; -2.9981881E-02;6682;  3.0211323E-01;  0.0000000E+00; -7.5695897E-03;  9.9321820E+02;  1.1177875E-01; -5.6184893E+03;3; -4.2469364E+01;  0.0000000E+00; -2.1526515E-01;0; -6.3874125E-02;  3.1579289E+04;  0.0000000E+00; -1.0250031E-04;  4.0000000E+04;  0.0000000E+00;  3.9942832E+04; -2.6357681E-01;  0.0000000E+00;  1.9970268E-01;  3.0011204E+03;
  6.9360930E-01;  9.9999998E-03; -1.9986805E-02;6683;  3.0165276E-01;  0.0000000E+00; -5.0742752E-03;  9.9308228E+02;  1.1177334E-01; -5.7310762E+03;3; -4.2762062E+01;  0.0000000E+00; -1.3603842E-01;0; -6.9668546E-02;  3.1573443E+04;  0.0000000E+00;  2.4324513E-04;  4.0000000E+04;  0.0000000E+00;  3.9943410E+04; -2.7057639E-01;  0.0000000E+00;  2.0090784E-01;  3.0887610E+03;
  6.9358295E-01;  9.9999998E-03; -9.9930158E-03;6684;  3.0136210E-01;  0.0000000E+00; -2.5454301E-03;  9.9300232E+02;  1.1176990E-01; -5.7973447E+03;3; -4.2949558E+01;  0.0000000E+00; -5.4526281E-02;0; -7.3142916E-02;  3.1570018E+04;  0.0000000E+00;  1.0828769E-04;  4.0000000E+04;  0.0000000E+00;  3.9943797E+04; -2.7479273E-01;  0.0000000E+00;  2.0164981E-01;  3.1391072E+03;
  6.9357395E-01;  9.9999998E-03;  4.8608517E-10;6685;  3.0126539E-01;  0.0000000E+00; -3.6751924E-08;  9.9297522E+02;  1.1176876E-01; -5.8197632E+03;3; -4.3010300E+01;  0.0000000E+00;  3.4063785E-05;0; -7.4300021E-02;  3.1568902E+04;  0.0000000E+00;  1.1704420E-11;  4.0000000E+04;  0.0000000E+00;  3.9943957E+04; -2.7620018E-01;  0.0000000E+00;  2.0190015E-01;  3.1554409E+03;
  6.9358295E-01;  9.9999998E-03;  9.9930167E-03;6686;  3.0136213E-01;  0.0000000E+00;  2.5453549E-03;  9.9300220E+02;  1.1176997E-01; -5.7974434E+03;3; -4.2949421E+01;  0.0000000E+00;  5.4607756E-02;0; -7.3143080E-02;  3.1570021E+04;  0.0000000E+00;  1.0818458E-04;  4.0000000E+04;  0.0000000E+00;  3.9943797E+04; -2.7479285E-01;  0.0000000E+00;  2.0164977E-01;  3.1391086E+03;
  6.9360930E-01;  9.9999998E-03;  1.9986805E-02;6687;  3.0165279E-01;  0.0000000E+00;  5.0742030E-03;  9.9308221E+02;  1.1177335E-01; -5.7311255E+03;3; -4.2762150E+01;  0.0000000E+00;  1.3607748E-01;0; -6.9668621E-02;  3.1573447E+04;  0.0000000E+00;  2.4293685E-04;  4.0000000E+04;  0.0000000E+00;  3.9943410E+04; -2.7057657E-01;  0.0000000E+00;  2.0090795E-01;  3.0887576E+03;
  6.9365239E-01;  9.9999998E-03;  2.9981881E-02;6688;  3.0211329E-01;  0.0000000E+00;  7.5695184E-03;  9.9321814E+02;  1.1177879E-01; -5.6185386E+03;3; -4.2469162E+01;  0.0000000E+00;  2.1532147E-01;0; -6.3874036E-02;  3.1579293E+04;  0.0000000E+00; -1.0307087E-04;  4.0000000E+04;  0.0000000E+00;  3.9942832E+04; -2.6357678E-01;  0.0000000E+00;  1.9970274E-01;  3.0011274E+03;
  6.9371092E-01;  9.9999998E-03;  3.9978571E-02;6689;  3.0270445E-01;  0.0000000E+00;  9.9817058E-03;  9.9340717E+02;  1.1178648E-01; -5.4619043E+03;3; -4.2033253E+01;  0.0000000E+00;  3.0572954E-01;0; -5.5749968E-02;  3.1587574E+04;  0.0000000E+00; -1.5927756E-03;  4.0000000E+04;  0.0000000E+00;  3.9941859E+04; -2.5382876E-01;  0.0000000E+00;  1.9807880E-01;  2.8722405E+03;
  6.9378310E-01;  9.9999998E-03;  4.9977336E-02;6690;  3.0339289E-01;  0.0000000E+00;  1.2310907E-02;  9.9365240E+02;  1.1179597E-01; -5.2587539E+03;3; -4.1461937E+01;  0.0000000E+00;  4.4260523E-01;0; -4.5262501E-02;  3.1598484E+04;  0.0000000E+00; -4.8231445E-03;  4.0000000E+04;  0.0000000E+00;  3.9940645E+04; -2.4135424E-01;  0.0000000E+00;  1.9609174E-01;  2.6996970E+03;
  6.9386625E-01;  9.9999998E-03;  5.9978496E-02;6691;  3.0411753E-01;  0.0000000E+00;  1.4532062E-02;  9.9394818E+02;  1.1180709E-01; -5.0137285E+03;3; -4.0770393E+01;  0.0000000E+00;  5.5188292E-01;0; -3.2363266E-02;  3.1612178E+04;  0.0000000E+00; -1.0064297E-02;  4.0000000E+04;  0.0000000E+00;  3.9939047E+04; -2.2617109E-01;  0.0000000E+00;  1.9380783E-01;  2.4839446E+03;
  7.0665288E-01;  9.9999998E-03; -1.0016201E-01;6736;  3.0355918E-01;  0.0000000E+00; -2.2476394E-02;  9.9720612E+02;  1.1430525E-01; -2.3146414E+03;3; -3.6711895E+01;  0.0000000E+00;  9.7258443E-01;0;  1.4875376E-01;  3.0473945E+04;  0.0000000E+00;  6.4298451E-02;  4.0000000E+04;  0.0000000E+00;  3.9910887E+04; -5.9215497E-02;  0.0000000E+00;  2.0796926E-01;  5.6577570E+02;
  7.0660692E-01;  9.9999998E-03; -9.0145625E-02;6737;  3.0303013E-01;  0.0000000E+00; -2.0489192E-02;  9.9671234E+02;  1.1429593E-01; -2.7237058E+03;3; -3.7848385E+01;  0.0000000E+00;  2.2972199E-01;0;  1.1449333E-01;  3.0446520E+04;  0.0000000E+00;  5.7066280E-02;  4.0000000E+04;  0.0000000E+00;  3.9913672E+04; -9.2696816E-02;  0.0000000E+00;  2.0719014E-01;  9.4385590E+02;
  7.0655280E-01;  9.9999998E-03; -8.0130048E-02;6738;  3.0227682E-01;  0.0000000E+00; -1.8507676E-02;  9.9625110E+02;  1.1428625E-01; -3.1058088E+03;3; -3.8893051E+01;  0.0000000E+00; -1.7766076E-01;0;  8.4462509E-02;  3.0421604E+04;  0.0000000E+00;  5.0781846E-02;  4.0000000E+04;  0.0000000E+00;  3.9916328E+04; -1.2164241E-01;  0.0000000E+00;  2.0610492E-01;  1.3090568E+03;
  7.0649230E-01;  9.9999998E-03; -7.0115291E-02;6739;  3.0135962E-01;  0.0000000E+00; -1.6431365E-02;  9.9582990E+02;  1.1427618E-01; -3.4547776E+03;3; -3.9813591E+01;  0.0000000E+00; -3.2017654E-01;0;  5.8399737E-02;  3.0399625E+04;  0.0000000E+00;  4.4325553E-02;  4.0000000E+04;  0.0000000E+00;  3.9918754E+04; -1.4639507E-01;  0.0000000E+00;  2.0479481E-01;  1.6418016E+03;
  7.0642841E-01;  9.9999998E-03; -6.0100853E-02;6740;  3.0036843E-01;  0.0000000E+00; -1.4267983E-02;  9.9545905E+02;  1.1426635E-01; -3.7620210E+03;3; -4.0634483E+01;  0.0000000E+00; -2.7833307E-01;0;  3.6086559E-02;  3.0380842E+04;  0.0000000E+00;  3.7092417E-02;  4.0000000E+04;  0.0000000E+00;  3.9920828E+04; -1.6725557E-01;  0.0000000E+00;  2.0334212E-01;  1.9276471E+03;
  7.0636481E-01;  9.9999998E-03; -5.0086401E-02;6741;  2.9938093E-01;  0.0000000E+00; -1.2009483E-02;  9.9514252E+02;  1.1425713E-01; -4.0242292E+03;3; -4.1313438E+01;  0.0000000E+00; -1.6641001E-01;0;  1.7352998E-02;  3.0365393E+04;  0.0000000E+00;  2.9034747E-02;  4.0000000E+04;  0.0000000E+00;  3.9922598E+04; -1.8449090E-01;  0.0000000E+00;  2.0184390E-01;  2.1588503E+03;
  7.0630527E-01;  9.9999998E-03; -4.0071819E-02;6742;  2.9847631E-01;  0.0000000E+00; -9.6906917E-03;  9.9487988E+02;  1.1424847E-01; -4.2417979E+03;3; -4.1853657E+01;  0.0000000E+00; -4.4416562E-02;0;  2.0932555E-03;  3.0353158E+04;  0.0000000E+00;  2.0605715E-02;  4.0000000E+04;  0.0000000E+00;  3.9923789E+04; -1.9831859E-01;  0.0000000E+00;  2.0041184E-01;  2.3340574E+03;
  7.0625412E-01;  9.9999998E-03; -3.0056270E-02;6743;  2.9770964E-01;  0.0000000E+00; -7.3198895E-03;  9.9467407E+02;  1.1424157E-01; -4.4123071E+03;3; -4.2256985E+01;  0.0000000E+00;  4.7765005E-02;0; -9.7506642E-03;  3.0343982E+04;  0.0000000E+00;  1.2598106E-02;  4.0000000E+04;  0.0000000E+00;  3.9924750E+04; -2.0890971E-01;  0.0000000E+00;  1.9915904E-01;  2.4573845E+03;
  7.0621473E-01;  9.9999998E-03; -2.0038914E-02;6744;  2.9712698E-01;  0.0000000E+00; -4.9009044E-03;  9.9452502E+02;  1.1423600E-01; -4.5358066E+03;3; -4.2515579E+01;  0.0000000E+00;  4.3698315E-02;0; -1.8207327E-02;  3.0337643E+04;  0.0000000E+00;  5.9519028E-03;  4.0000000E+04;  0.0000000E+00;  3.9925277E+04; -2.1639287E-01;  0.0000000E+00;  1.9818555E-01;  2.5363955E+03;
  7.0619005E-01;  9.9999998E-03; -1.0019924E-02;6745;  2.9676092E-01;  0.0000000E+00; -2.4520161E-03;  9.9443726E+02;  1.1423254E-01; -4.6084941E+03;3; -4.2683659E+01;  0.0000000E+00;  3.1845775E-02;0; -2.3281783E-02;  3.0333918E+04;  0.0000000E+00;  1.5447007E-03;  4.0000000E+04;  0.0000000E+00;  3.9925570E+04; -2.2085033E-01;  0.0000000E+00;  1.9756855E-01;  2.5794954E+03;
  7.0618165E-01;  9.9999998E-03;  3.4742115E-10;6746;  2.9664066E-01;  0.0000000E+00; -4.2233143E-08;  9.9440692E+02;  1.1423144E-01; -4.6336289E+03;3; -4.2734562E+01;  0.0000000E+00;  4.7808957E-05;0; -2.4971738E-02;  3.0332666E+04;  0.0000000E+00;  1.5184179E-11;  4.0000000E+04;  0.0000000E+00;  3.9925695E+04; -2.2232911E-01;  0.0000000E+00;  1.9735737E-01;  2.5930288E+03;
  7.0619005E-01;  9.9999998E-03;  1.0019924E-02;6747;  2.9676095E-01;  0.0000000E+00;  2.4519332E-03;  9.9443732E+02;  1.1423253E-01; -4.6084448E+03;3; -4.2683449E+01;  0.0000000E+00; -3.1753413E-02;0; -2.3281813E-02;  3.0333916E+04;  0.0000000E+00;  1.5445468E-03;  4.0000000E+04;  0.0000000E+00;  3.9925574E+04; -2.2085050E-01;  0.0000000E+00;  1.9756868E-01;  2.5794958E+03;
  7.0621473E-01;  9.9999998E-03;  2.0038914E-02;6748;  2.9712698E-01;  0.0000000E+00;  4.9008247E-03;  9.9452502E+02;  1.1423600E-01; -4.5358066E+03;3; -4.2514912E+01;  0.0000000E+00; -4.3640275E-02;0; -1.8206969E-02;  3.0337645E+04;  0.0000000E+00;  5.9514474E-03;  4.0000000E+04;  0.0000000E+00;  3.9925277E+04; -2.1639261E-01;  0.0000000E+00;  1.9818564E-01;  2.5363867E+03;
  7.0625407E-01;  9.9999998E-03;  3.0056272E-02;6749;  2.9770973E-01;  0.0000000E+00;  7.3198136E-03;  9.9467407E+02;  1.1424157E-01; -4.4123071E+03;3; -4.2256664E+01;  0.0000000E+00; -4.7698759E-02;0; -9.7503960E-03;  3.0343979E+04;  0.0000000E+00;  1.2597661E-02;  4.0000000E+04;  0.0000000E+00;  3.9924750E+04; -2.0890956E-01;  0.0000000E+00;  1.9915916E-01;  2.4573630E+03;
  7.0630527E-01;  9.9999998E-03;  4.0071819E-02;6750;  2.9847634E-01;  0.0000000E+00;  9.6906200E-03;  9.9487988E+02;  1.1424847E-01; -4.2417979E+03;3; -4.1854164E+01;  0.0000000E+00;  4.4475142E-02;0;  2.0937324E-03;  3.0353160E+04;  0.0000000E+00;  2.0604482E-02;  4.0000000E+04;  0.0000000E+00;  3.9923789E+04; -1.9831844E-01;  0.0000000E+00;  2.0041217E-01;  2.3340583E+03;
  7.0636475E-01;  9.9999998E-03;  5.0086401E-02;6751;  2.9938099E-01;  0.0000000E+00;  1.2009411E-02;  9.9514240E+02;  1.1425714E-01; -4.0243279E+03;3; -4.1312878E+01;  0.0000000E+00;  1.6642626E-01;0;  1.7353162E-02;  3.0365395E+04;  0.0000000E+00;  2.9034823E-02;  4.0000000E+04;  0.0000000E+00;  3.9922594E+04; -1.8449113E-01;  0.0000000E+00;  2.0184429E-01;  2.1588433E+03;
  7.0642841E-01;  9.9999998E-03;  6.0100857E-02;6752;  3.0036849E-01;  0.0000000E+00;  1.4267917E-02;  9.9545898E+02;  1.1426619E-01; -3.7620703E+03;3; -4.0634220E+01;  0.0000000E+00;  2.7838033E-01;0;  3.6086768E-02;  3.0380844E+04;  0.0000000E+00;  3.7092432E-02;  4.0000000E+04;  0.0000000E+00;  3.9920828E+04; -1.6725546E-01;  0.0000000E+00;  2.0334223E-01;  1.9276389E+03;
  7.1976501E-01;  9.9999998E-03; -1.0027499E-01;6797;  3.0118394E-01;  0.0000000E+00; -2.2421740E-02;  9.9990448E+02;  1.1676246E-01; -7.9155815E+01;3; -3.6139927E+01;  0.0000000E+00;  2.1539178E+00;0;  3.2061180E-01;  2.9392785E+04;  0.0000000E+00;  1.8229996E-01;  4.0000000E+04;  0.0000000E+00;  3.9889707E+04;  8.5892431E-02;  0.0000000E+00;  2.3471938E-01;  6.2136224E+02;
  7.1978825E-01;  9.9999998E-03; -9.0251923E-02;6798;  3.0036208E-01;  0.0000000E+00; -2.0066243E-02;  9.9947870E+02;  1.1676019E-01; -4.3187570E+02;3; -3.7366028E+01;  0.0000000E+00;  1.0888860E+00;0;  2.7427652E-01;  2.9366287E+04;  0.0000000E+00;  1.6575719E-01;  4.0000000E+04;  0.0000000E+00;  3.9892973E+04;  4.4369869E-02;  0.0000000E+00;  2.2990666E-01;  3.1629083E+02;
  7.1980447E-01;  9.9999998E-03; -8.0228165E-02;6799;  2.9929292E-01;  0.0000000E+00; -1.7854430E-02;  9.9908795E+02;  1.1675805E-01; -7.5560962E+02;3; -3.8549732E+01;  0.0000000E+00;  3.9558160E-01;0;  2.3371078E-01;  2.9342240E+04;  0.0000000E+00;  1.4601140E-01;  4.0000000E+04;  0.0000000E+00;  3.9896020E+04;  9.3754232E-03;  0.0000000E+00;  2.2433536E-01;  4.3120853E+02;
  7.1981317E-01;  9.9999998E-03; -7.0204005E-02;6800;  2.9805878E-01;  0.0000000E+00; -1.5677698E-02;  9.9873737E+02;  1.1675595E-01; -1.0460122E+03;3; -3.9550465E+01;  0.0000000E+00;  8.4577575E-02;0;  1.9852847E-01;  2.9321109E+04;  0.0000000E+00;  1.2329891E-01;  4.0000000E+04;  0.0000000E+00;  3.9898617E+04; -1.9719759E-02;  0.0000000E+00;  2.1824823E-01;  7.2676306E+02;
  7.1981454E-01;  9.9999998E-03; -6.0179498E-02;6801;  2.9676908E-01;  0.0000000E+00; -1.3487573E-02;  9.9843304E+02;  1.1675344E-01; -1.2981455E+03;3; -4.0409431E+01;  0.0000000E+00;  5.5272296E-02;0;  1.6840109E-01;  2.9303027E+04;  0.0000000E+00;  9.8646954E-02;  4.0000000E+04;  0.0000000E+00;  3.9900797E+04; -4.3529250E-02;  0.0000000E+00;  2.1193033E-01;  9.9254596E+02;
  7.1981066E-01;  9.9999998E-03; -5.0154574E-02;6802;  2.9550621E-01;  0.0000000E+00; -1.1251881E-02;  9.9817236E+02;  1.1675110E-01; -1.5141327E+03;3; -4.1083469E+01;  0.0000000E+00;  1.0461964E-01;0;  1.4309898E-01;  2.9288137E+04;  0.0000000E+00;  7.3596567E-02;  4.0000000E+04;  0.0000000E+00;  3.9902262E+04; -6.2616192E-02;  0.0000000E+00;  2.0571516E-01;  1.1966674E+03;
  7.1980107E-01;  9.9999998E-03; -4.0127750E-02;6803;  2.9436427E-01;  0.0000000E+00; -9.0080434E-03;  9.9795819E+02;  1.1674847E-01; -1.6915543E+03;3; -4.1612419E+01;  0.0000000E+00;  2.2905971E-01;0;  1.2244614E-01;  2.9276334E+04;  0.0000000E+00;  4.9910448E-02;  4.0000000E+04;  0.0000000E+00;  3.9903262E+04; -7.7518277E-02;  0.0000000E+00;  1.9996442E-01;  1.3378990E+03;
  7.1978676E-01;  9.9999998E-03; -3.0098174E-02;6804;  2.9341432E-01;  0.0000000E+00; -6.7631765E-03;  9.9779004E+02;  1.1674581E-01; -1.8308547E+03;3; -4.1977852E+01;  0.0000000E+00;  2.7962887E-01;0;  1.0635921E-01;  2.9267557E+04;  0.0000000E+00;  2.9345488E-02;  4.0000000E+04;  0.0000000E+00;  3.9903930E+04; -8.8682346E-02;  0.0000000E+00;  1.9504155E-01;  1.4256997E+03;
  7.1977121E-01;  9.9999998E-03; -2.0066690E-02;6805;  2.9269940E-01;  0.0000000E+00; -4.5072758E-03;  9.9767059E+02;  1.1674380E-01; -1.9298118E+03;3; -4.2205833E+01;  0.0000000E+00;  2.3649146E-01;0;  9.4827786E-02;  2.9261582E+04;  0.0000000E+00;  1.3451761E-02;  4.0000000E+04;  0.0000000E+00;  3.9904281E+04; -9.6443355E-02;  0.0000000E+00;  1.9127114E-01;  1.4738418E+03;
  7.1975929E-01;  9.9999998E-03; -1.0034025E-02;6806;  2.9225489E-01;  0.0000000E+00; -2.2441023E-03;  9.9759863E+02;  1.1674222E-01; -1.9894132E+03;3; -4.2344673E+01;  0.0000000E+00;  1.3333586E-01;0;  8.7885909E-02;  2.9258145E+04;  0.0000000E+00;  3.4244612E-03;  4.0000000E+04;  0.0000000E+00;  3.9904453E+04; -1.0101721E-01;  0.0000000E+00;  1.8890312E-01;  1.4959183E+03;
  7.1975493E-01;  9.9999998E-03; -4.0595402E-10;6807;  2.9210708E-01;  0.0000000E+00; -4.8814719E-08;  9.9757440E+02;  1.1674166E-01; -2.0095107E+03;3; -4.2374104E+01;  0.0000000E+00;  5.1312360E-05;0;  8.5568756E-02;  2.9257023E+04;  0.0000000E+00;  1.2956748E-11;  4.0000000E+04;  0.0000000E+00;  3.9904414E+04; -1.0252708E-01;  0.0000000E+00;  1.8809584E-01;  1.5020247E+03;
  7.1975929E-01;  9.9999998E-03;  1.0034025E-02;6808;  2.9225489E-01;  0.0000000E+00;  2.2440061E-03;  9.9759875E+02;  1.1674197E-01; -1.9893145E+03;3; -4.2344479E+01;  0.0000000E+00; -1.3321207E-01;0;  8.7886468E-02;  2.9258146E+04;  0.0000000E+00;  3.4242577E-03;  4.0000000E+04;  0.0000000E+00;  3.9904449E+04; -1.0101709E-01;  0.0000000E+00;  1.8890356E-01;  1.4959150E+03;
  7.1977121E-01;  9.9999998E-03;  2.0066688E-02;6809;  2.9269943E-01;  0.0000000E+00;  4.5071845E-03;  9.9767065E+02;  1.1674379E-01; -1.9297625E+03;3; -4.2206383E+01;  0.0000000E+00; -2.3638478E-01;0;  9.4827808E-02;  2.9261586E+04;  0.0000000E+00;  1.3451706E-02;  4.0000000E+04;  0.0000000E+00;  3.9904281E+04; -9.6443422E-02;  0.0000000E+00;  1.9127123E-01;  1.4738417E+03;
  7.1978676E-01;  9.9999998E-03;  3.0098174E-02;6810;  2.9341441E-01;  0.0000000E+00;  6.7630876E-03;  9.9779010E+02;  1.1674586E-01; -1.8308053E+03;3; -4.1978168E+01;  0.0000000E+00; -2.7955753E-01;0;  1.0635959E-01;  2.9267559E+04;  0.0000000E+00;  2.9344613E-02;  4.0000000E+04;  0.0000000E+00;  3.9903930E+04; -8.8682309E-02;  0.0000000E+00;  1.9504189E-01;  1.4257024E+03;
  7.1980107E-01;  9.9999998E-03;  4.0127747E-02;6811;  2.9436430E-01;  0.0000000E+00;  9.0079606E-03;  9.9795819E+02;  1.1674847E-01; -1.6915543E+03;3; -4.1612442E+01;  0.0000000E+00; -2.2897981E-01;0;  1.2244630E-01;  2.9276334E+04;  0.0000000E+00;  4.9908821E-02;  4.0000000E+04;  0.0000000E+00;  3.9903258E+04; -7.7518314E-02;  0.0000000E+00;  1.9996461E-01;  1.3378969E+03;
  7.1981066E-01;  9.9999998E-03;  5.0154574E-02;6812;  2.9550627E-01;  0.0000000E+00;  1.1251802E-02;  9.9817230E+02;  1.1675114E-01; -1.5141820E+03;3; -4.1083424E+01;  0.0000000E+00; -1.0456558E-01;0;  1.4309937E-01;  2.9288131E+04;  0.0000000E+00;  7.3594898E-02;  4.0000000E+04;  0.0000000E+00;  3.9902262E+04; -6.2616147E-02;  0.0000000E+00;  2.0571551E-01;  1.1966547E+03;
  7.1981454E-01;  9.9999998E-03;  6.0179498E-02;6813;  2.9676914E-01;  0.0000000E+00;  1.3487498E-02;  9.9843292E+02;  1.1675338E-01; -1.2982443E+03;3; -4.0409218E+01;  0.0000000E+00; -5.5254858E-02;0;  1.6840161E-01;  2.9303021E+04;  0.0000000E+00;  9.8646373E-02;  4.0000000E+04;  0.0000000E+00;  3.9900797E+04; -4.3529108E-02;  0.0000000E+00;  2.1193072E-01;  9.9254205E+02;
  7.3197365E-01;  9.9999998E-03; -1.0024747E-01;6858;  2.9917556E-01;  0.0000000E+00; -2.2223266E-02;  1.0021979E+03;  1.1877829E-01;  1.8209180E+03;3; -3.5569988E+01;  0.0000000E+00;  3.3633232E+00;0;  5.6156862E-01;  2.8562787E+04;  0.0000000E+00;  2.5254267E-01;  4.0000000E+04;  0.0000000E+00;  3.9869957E+04;  3.0287853E-01;  0.0000000E+00;  2.5869006E-01;  1.8008551E+03;
  7.3200417E-01;  9.9999998E-03; -9.0221189E-02;6859;  2.9812372E-01;  0.0000000E+00; -1.9290136E-02;  1.0018986E+03;  1.1877346E-01;  1.5728354E+03;3; -3.6793663E+01;  0.0000000E+00;  2.3899465E+00;0;  5.0332057E-01;  2.8545098E+04;  0.0000000E+00;  2.3138651E-01;  4.0000000E+04;  0.0000000E+00;  3.9873629E+04;  2.5331876E-01;  0.0000000E+00;  2.5000185E-01;  1.3417322E+03;
  7.3203111E-01;  9.9999998E-03; -8.0196254E-02;6860;  2.9679251E-01;  0.0000000E+00; -1.6664868E-02;  1.0016390E+03;  1.1876938E-01;  1.3578372E+03;3; -3.8084995E+01;  0.0000000E+00;  1.2829597E+00;0;  4.5245498E-01;  2.8529846E+04;  0.0000000E+00;  2.0325464E-01;  4.0000000E+04;  0.0000000E+00;  3.9876707E+04;  2.1241207E-01;  0.0000000E+00;  2.4004290E-01;  9.4587860E+02;
  7.3205227E-01;  9.9999998E-03; -7.0172958E-02;6861;  2.9531947E-01;  0.0000000E+00; -1.4401898E-02;  1.0014172E+03;  1.1876571E-01;  1.1740466E+03;3; -3.9204182E+01;  0.0000000E+00;  6.5412360E-01;0;  4.0840244E-01;  2.8517201E+04;  0.0000000E+00;  1.6991641E-01;  4.0000000E+04;  0.0000000E+00;  3.9879141E+04;  1.7918317E-01;  0.0000000E+00;  2.2921926E-01;  6.2974927E+02;
  7.3206818E-01;  9.9999998E-03; -6.0150765E-02;6862;  2.9376820E-01;  0.0000000E+00; -1.2201742E-02;  1.0012325E+03;  1.1876258E-01;  1.0210690E+03;3; -4.0113277E+01;  0.0000000E+00;  3.8703990E-01;0;  3.7073377E-01;  2.8506912E+04;  0.0000000E+00;  1.3400666E-01;  4.0000000E+04;  0.0000000E+00;  3.9881039E+04;  1.5269482E-01;  0.0000000E+00;  2.1803895E-01;  3.9868085E+02;
  7.3207891E-01;  9.9999998E-03; -5.0129477E-02;6863;  2.9228473E-01;  0.0000000E+00; -1.0092178E-02;  1.0010822E+03;  1.1875957E-01;  8.9653394E+02;3; -4.0815063E+01;  0.0000000E+00;  3.6473304E-01;0;  3.3912206E-01;  2.8499018E+04;  0.0000000E+00;  9.8381914E-02;  4.0000000E+04;  0.0000000E+00;  3.9882293E+04;  1.3203913E-01;  0.0000000E+00;  2.0708294E-01;  2.4446718E+02;
  7.3208576E-01;  9.9999998E-03; -4.0108442E-02;6864;  2.9095125E-01;  0.0000000E+00; -7.9880785E-03;  1.0009636E+03;  1.1875720E-01;  7.9826880E+02;3; -4.1287971E+01;  0.0000000E+00;  4.4379583E-01;0;  3.1337571E-01;  2.8493049E+04;  0.0000000E+00;  6.5683350E-02;  4.0000000E+04;  0.0000000E+00;  3.9882844E+04;  1.1639669E-01;  0.0000000E+00;  1.9697902E-01;  1.4696579E+02;
  7.3208845E-01;  9.9999998E-03; -3.0085502E-02;6865;  2.8985387E-01;  0.0000000E+00; -5.9526986E-03;  1.0008747E+03;  1.1875548E-01;  7.2459460E+02;3; -4.1625568E+01;  0.0000000E+00;  4.5603988E-01;0;  2.9335904E-01;  2.8488846E+04;  0.0000000E+00;  3.8093232E-02;  4.0000000E+04;  0.0000000E+00;  3.9883105E+04;  1.0501507E-01;  0.0000000E+00;  1.8834399E-01;  8.2576935E+01;
  7.3208749E-01;  9.9999998E-03; -2.0059975E-02;6866;  2.8903145E-01;  0.0000000E+00; -3.9347685E-03;  1.0008112E+03;  1.1875365E-01;  6.7205481E+02;3; -4.1792160E+01;  0.0000000E+00;  3.5824820E-01;0;  2.7902356E-01;  2.8486137E+04;  0.0000000E+00;  1.7280145E-02;  4.0000000E+04;  0.0000000E+00;  3.9883117E+04;  9.7291149E-02;  0.0000000E+00;  1.8173240E-01;  3.7726509E+01;
  7.3208511E-01;  9.9999998E-03; -1.0031539E-02;6867;  2.8852618E-01;  0.0000000E+00; -1.9603120E-03;  1.0007729E+03;  1.1875252E-01;  6.4035321E+02;3; -4.1898617E+01;  0.0000000E+00;  2.1457712E-01;0;  2.7038974E-01;  2.8484598E+04;  0.0000000E+00;  4.3710996E-03;  4.0000000E+04;  0.0000000E+00;  3.9883062E+04;  9.2810616E-02;  0.0000000E+00;  1.7757913E-01;  1.6127432E+01;
  7.3208427E-01;  9.9999998E-03; -2.5201236E-10;6868;  2.8835800E-01;  0.0000000E+00; -5.4954636E-08;  1.0007609E+03;  1.1875220E-01;  6.3037854E+02;3; -4.1933113E+01;  0.0000000E+00;  8.0097401E-05;0;  2.6750946E-01;  2.8484125E+04;  0.0000000E+00;  8.6752463E-12;  4.0000000E+04;  0.0000000E+00;  3.9883008E+04;  9.1346800E-02;  0.0000000E+00;  1.7616266E-01;  1.7348637E+01;
  7.3208511E-01;  9.9999998E-03;  1.0031539E-02;6869;  2.8852621E-01;  0.0000000E+00;  1.9602005E-03;  1.0007730E+03;  1.1875252E-01;  6.4035321E+02;3; -4.1898327E+01;  0.0000000E+00; -2.1445477E-01;0;  2.7038997E-01;  2.8484596E+04;  0.0000000E+00;  4.3709930E-03;  4.0000000E+04;  0.0000000E+00;  3.9883062E+04;  9.2810571E-02;  0.0000000E+00;  1.7757940E-01;  1.6129171E+01;
  7.3208749E-01;  9.9999998E-03;  2.0059973E-02;6870;  2.8903148E-01;  0.0000000E+00;  3.9346614E-03;  1.0008112E+03;  1.1875365E-01;  6.7205481E+02;3; -4.1791992E+01;  0.0000000E+00; -3.5812786E-01;0;  2.7902359E-01;  2.8486139E+04;  0.0000000E+00;  1.7279813E-02;  4.0000000E+04;  0.0000000E+00;  3.9883117E+04;  9.7291097E-02;  0.0000000E+00;  1.8173248E-01;  3.7726326E+01;
  7.3208845E-01;  9.9999998E-03;  3.0085500E-02;6871;  2.8985393E-01;  0.0000000E+00;  5.9525999E-03;  1.0008748E+03;  1.1875531E-01;  7.2469336E+02;3; -4.1625244E+01;  0.0000000E+00; -4.5593679E-01;0;  2.9335946E-01;  2.8488846E+04;  0.0000000E+00;  3.8092308E-02;  4.0000000E+04;  0.0000000E+00;  3.9883102E+04;  1.0501508E-01;  0.0000000E+00;  1.8834437E-01;  8.2573723E+01;
  7.3208576E-01;  9.9999998E-03;  4.0108442E-02;6872;  2.9095131E-01;  0.0000000E+00;  7.9879882E-03;  1.0009636E+03;  1.1875720E-01;  7.9826880E+02;3; -4.1288525E+01;  0.0000000E+00; -4.4367179E-01;0;  3.1337622E-01;  2.8493047E+04;  0.0000000E+00;  6.5682225E-02;  4.0000000E+04;  0.0000000E+00;  3.9882840E+04;  1.1639687E-01;  0.0000000E+00;  1.9697934E-01;  1.4696153E+02;
  7.3207891E-01;  9.9999998E-03;  5.0129477E-02;6873;  2.9228485E-01;  0.0000000E+00;  1.0092091E-02;  1.0010822E+03;  1.1875965E-01;  8.9653394E+02;3; -4.0815403E+01;  0.0000000E+00; -3.6465052E-01;0;  3.3912295E-01;  2.8499010E+04;  0.0000000E+00;  9.8381191E-02;  4.0000000E+04;  0.0000000E+00;  3.9882293E+04;  1.3203944E-01;  0.0000000E+00;  2.0708352E-01;  2.4446344E+02;
  7.3206818E-01;  9.9999998E-03;  6.0150765E-02;6874;  2.9376829E-01;  0.0000000E+00;  1.2201658E-02;  1.0012325E+03;  1.1876237E-01;  1.0210690E+03;3; -4.0113094E+01;  0.0000000E+00; -3.8700846E-01;0;  3.7073439E-01;  2.8506912E+04;  0.0000000E+00;  1.3400625E-01;  4.0000000E+04;  0.0000000E+00;  3.9881039E+04;  1.5269519E-01;  0.0000000E+00;  2.1803918E-01;  3.9868948E+02;
  7.4398309E-01;  9.9999998E-03; -1.0018072E-01;6919;  2.9741213E-01;  0.0000000E+00; -2.1327524E-02;  1.0034457E+03;  1.2032700E-01;  2.8546074E+03;3; -3.4999462E+01;  0.0000000E+00;  4.0425653E+00;0;  8.9797676E-01;  2.7927494E+04;  0.0000000E+00;  2.4752587E-01;  4.0000000E+04;  0.0000000E+00;  3.9851617E+04;  6.1815530E-01;  0.0000000E+00;  2.7982146E-01;  3.0718508E+03;
  7.4402946E-01;  9.9999998E-03; -9.0152800E-02;6920;  2.9608810E-01;  0.0000000E+00; -1.8079123E-02;  1.0033336E+03;  1.2032100E-01;  2.7616758E+03;3; -3.6112915E+01;  0.0000000E+00;  3.2405424E+00;0;  8.2979834E-01;  2.7921008E+04;  0.0000000E+00;  2.2612801E-01;  4.0000000E+04;  0.0000000E+00;  3.9855129E+04;  5.6216031E-01;  0.0000000E+00;  2.6763800E-01;  2.6379841E+03;
  7.4407953E-01;  9.9999998E-03; -8.0130525E-02;6921;  2.9459471E-01;  0.0000000E+00; -1.5118772E-02;  1.0032649E+03;  1.2031594E-01;  2.7047910E+03;3; -3.7415497E+01;  0.0000000E+00;  2.4047887E+00;0;  7.7053094E-01;  2.7916992E+04;  0.0000000E+00;  1.9633359E-01;  4.0000000E+04;  0.0000000E+00;  3.9857867E+04;  5.1697356E-01;  0.0000000E+00;  2.5355741E-01;  2.2933782E+03;
  7.4413043E-01;  9.9999998E-03; -7.0112154E-02;6922;  2.9289421E-01;  0.0000000E+00; -1.2507108E-02;  1.0032313E+03;  1.2031198E-01;  2.6769412E+03;3; -3.8686935E+01;  0.0000000E+00;  1.4125149E+00;0;  7.1943390E-01;  2.7915260E+04;  0.0000000E+00;  1.6122067E-01;  4.0000000E+04;  0.0000000E+00;  3.9859672E+04;  4.8128724E-01;  0.0000000E+00;  2.3814663E-01;  2.0510425E+03;
  7.4418199E-01;  9.9999998E-03; -6.0097072E-02;6923;  2.9113871E-01;  0.0000000E+00; -1.0347804E-02;  1.0032256E+03;  1.2030892E-01;  2.6722993E+03;3; -3.9668804E+01;  0.0000000E+00;  8.1325060E-01;0;  6.7596638E-01;  2.7915203E+04;  0.0000000E+00;  1.2441370E-01;  4.0000000E+04;  0.0000000E+00;  3.9860715E+04;  4.5383388E-01;  0.0000000E+00;  2.2213252E-01;  1.9115696E+03;
  7.4422854E-01;  9.9999998E-03; -5.0083481E-02;6924;  2.8944251E-01;  0.0000000E+00; -8.3860382E-03;  1.0032399E+03;  1.2030686E-01;  2.6840515E+03;3; -4.0423981E+01;  0.0000000E+00;  7.0817673E-01;0;  6.3957071E-01;  2.7916502E+04;  0.0000000E+00;  8.9234859E-02;  4.0000000E+04;  0.0000000E+00;  3.9861070E+04;  4.3320650E-01;  0.0000000E+00;  2.0636424E-01;  1.8619916E+03;
  7.4426848E-01;  9.9999998E-03; -4.0070090E-02;6925;  2.8794929E-01;  0.0000000E+00; -6.5450580E-03;  1.0032657E+03;  1.2030541E-01;  2.7054822E+03;3; -4.0833805E+01;  0.0000000E+00;  5.7779413E-01;0;  6.0996103E-01;  2.7918500E+04;  0.0000000E+00;  5.8238178E-02;  4.0000000E+04;  0.0000000E+00;  3.9861016E+04;  4.1819561E-01;  0.0000000E+00;  1.9176540E-01;  1.8789033E+03;
  7.4430072E-01;  9.9999998E-03; -3.0056238E-02;6926;  2.8671506E-01;  0.0000000E+00; -4.8259366E-03;  1.0032928E+03;  1.2030404E-01;  2.7279001E+03;3; -4.1145130E+01;  0.0000000E+00;  5.8272660E-01;0;  5.8699244E-01;  2.7920783E+04;  0.0000000E+00;  3.3115361E-02;  4.0000000E+04;  0.0000000E+00;  3.9860551E+04;  4.0774089E-01;  0.0000000E+00;  1.7925155E-01;  1.9333391E+03;
  7.4432558E-01;  9.9999998E-03; -2.0041065E-02;6927;  2.8580049E-01;  0.0000000E+00; -3.1590709E-03;  1.0033179E+03;  1.2030287E-01;  2.7486392E+03;3; -4.1297306E+01;  0.0000000E+00;  4.2792985E-01;0;  5.7062912E-01;  2.7922750E+04;  0.0000000E+00;  1.4800453E-02;  4.0000000E+04;  0.0000000E+00;  3.9860129E+04;  4.0098536E-01;  0.0000000E+00;  1.6964376E-01;  1.9971284E+03;
  7.4434114E-01;  9.9999998E-03; -1.0022583E-02;6928;  2.8524286E-01;  0.0000000E+00; -1.5633398E-03;  1.0033350E+03;  1.2030263E-01;  2.7628604E+03;3; -4.1326916E+01;  0.0000000E+00;  1.9122580E-01;0;  5.6081682E-01;  2.7924113E+04;  0.0000000E+00;  3.7111379E-03;  4.0000000E+04;  0.0000000E+00;  3.9859656E+04;  3.9722207E-01;  0.0000000E+00;  1.6359475E-01;  2.0464404E+03;
  7.4434644E-01;  9.9999998E-03; -2.3723071E-10;6929;  2.8505376E-01;  0.0000000E+00; -6.2693722E-08;  1.0033409E+03;  1.2030247E-01;  2.7677983E+03;3; -4.1356216E+01;  0.0000000E+00;  6.9721806E-05;0;  5.5754399E-01;  2.7924613E+04;  0.0000000E+00;  1.1041299E-12;  4.0000000E+04;  0.0000000E+00;  3.9859645E+04;  3.9601520E-01;  0.0000000E+00;  1.6152883E-01;  2.0648054E+03;
  7.4434114E-01;  9.9999998E-03;  1.0022583E-02;6930;  2.8524289E-01;  0.0000000E+00;  1.5632155E-03;  1.0033350E+03;  1.2030254E-01;  2.7628604E+03;3; -4.1327110E+01;  0.0000000E+00; -1.9107616E-01;0;  5.6081659E-01;  2.7924109E+04;  0.0000000E+00;  3.7111258E-03;  4.0000000E+04;  0.0000000E+00;  3.9859656E+04;  3.9722183E-01;  0.0000000E+00;  1.6359477E-01;  2.0464319E+03;
  7.4432558E-01;  9.9999998E-03;  2.0041065E-02;6931;  2.8580052E-01;  0.0000000E+00;  3.1589526E-03;  1.0033179E+03;  1.2030287E-01;  2.7486392E+03;3; -4.1297314E+01;  0.0000000E+00; -4.2777425E-01;0;  5.7062936E-01;  2.7922750E+04;  0.0000000E+00;  1.4800100E-02;  4.0000000E+04;  0.0000000E+00;  3.9860125E+04;  4.0098533E-01;  0.0000000E+00;  1.6964406E-01;  1.9971211E+03;
  7.4430072E-01;  9.9999998E-03;  3.0056238E-02;6932;  2.8671512E-01;  0.0000000E+00;  4.8258249E-03;  1.0032928E+03;  1.2030385E-01;  2.7279001E+03;3; -4.1145229E+01;  0.0000000E+00; -5.8259922E-01;0;  5.8699232E-01;  2.7920787E+04;  0.0000000E+00;  3.3115454E-02;  4.0000000E+04;  0.0000000E+00;  3.9860551E+04;  4.0774050E-01;  0.0000000E+00;  1.7925182E-01;  1.9333416E+03;
  7.4426848E-01;  9.9999998E-03;  4.0070090E-02;6933;  2.8794935E-01;  0.0000000E+00;  6.5449504E-03;  1.0032657E+03;  1.2030517E-01;  2.7054822E+03;3; -4.0833843E+01;  0.0000000E+00; -5.7768524E-01;0;  6.0996139E-01;  2.7918504E+04;  0.0000000E+00;  5.8238178E-02;  4.0000000E+04;  0.0000000E+00;  3.9861016E+04;  4.1819569E-01;  0.0000000E+00;  1.9176573E-01;  1.8789020E+03;
  7.4422854E-01;  9.9999998E-03;  5.0083481E-02;6934;  2.8944257E-01;  0.0000000E+00;  8.3859432E-03;  1.0032399E+03;  1.2030686E-01;  2.6840515E+03;3; -4.0423946E+01;  0.0000000E+00; -7.0808905E-01;0;  6.3957161E-01;  2.7916500E+04;  0.0000000E+00;  8.9231633E-02;  4.0000000E+04;  0.0000000E+00;  3.9861070E+04;  4.3320695E-01;  0.0000000E+00;  2.0636465E-01;  1.8619803E+03;
  7.4418199E-01;  9.9999998E-03;  6.0097072E-02;6935;  2.9113880E-01;  0.0000000E+00;  1.0347712E-02;  1.0032256E+03;  1.2030880E-01;  2.6722993E+03;3; -3.9668850E+01;  0.0000000E+00; -8.1320304E-01;0;  6.7596698E-01;  2.7915205E+04;  0.0000000E+00;  1.2441330E-01;  4.0000000E+04;  0.0000000E+00;  3.9860715E+04;  4.5383409E-01;  0.0000000E+00;  2.2213292E-01;  1.9115840E+03;
  7.5622219E-01;  9.9999998E-03; -1.0016601E-01;6980;  2.9599214E-01;  0.0000000E+00; -1.9361779E-02;  1.0036971E+03;  1.2144814E-01;  3.0627627E+03;3; -3.4238560E+01;  0.0000000E+00;  5.3396134E+00;0;  1.3624861E+00;  2.7449697E+04;  0.0000000E+00;  1.6656722E-01;  4.0000000E+04;  0.0000000E+00;  3.9834191E+04;  1.0651740E+00;  0.0000000E+00;  2.9731217E-01;  4.4477681E+03;
  7.5626612E-01;  9.9999998E-03; -9.0142138E-02;6981;  2.9438829E-01;  0.0000000E+00; -1.5919406E-02;  1.0038016E+03;  1.2144113E-01;  3.1493728E+03;3; -3.5448078E+01;  0.0000000E+00;  4.3475266E+00;0;  1.2871990E+00;  2.7455766E+04;  0.0000000E+00;  1.4805932E-01;  4.0000000E+04;  0.0000000E+00;  3.9836844E+04;  1.0049789E+00;  0.0000000E+00;  2.8222016E-01;  4.1320952E+03;
  7.5631148E-01;  9.9999998E-03; -8.0123350E-02;6982;  2.9262125E-01;  0.0000000E+00; -1.2771341E-02;  1.0039489E+03;  1.2143467E-01;  3.2714365E+03;3; -3.6647736E+01;  0.0000000E+00;  3.4333715E+00;0;  1.2215859E+00;  2.7464596E+04;  0.0000000E+00;  1.2306064E-01;  4.0000000E+04;  0.0000000E+00;  3.9838559E+04;  9.5712042E-01;  0.0000000E+00;  2.6446548E-01;  3.9417798E+03;
  7.5634933E-01;  9.9999998E-03; -7.0109069E-02;6983;  2.9079324E-01;  0.0000000E+00; -1.0054047E-02;  1.0041218E+03;  1.2142863E-01;  3.4146345E+03;3; -3.7879059E+01;  0.0000000E+00;  2.4585879E+00;0;  1.1645287E+00;  2.7475311E+04;  0.0000000E+00;  9.5409408E-02;  4.0000000E+04;  0.0000000E+00;  3.9839090E+04;  9.1974837E-01;  0.0000000E+00;  2.4478038E-01;  3.8784514E+03;
  7.5637800E-01;  9.9999998E-03; -6.0097929E-02;6984;  2.8888178E-01;  0.0000000E+00; -7.8870868E-03;  1.0043073E+03;  1.2142366E-01;  3.5683010E+03;3; -3.9110470E+01;  0.0000000E+00;  1.5760517E+00;0;  1.1154189E+00;  2.7487113E+04;  0.0000000E+00;  6.8729758E-02;  4.0000000E+04;  0.0000000E+00;  3.9838824E+04;  8.9128613E-01;  0.0000000E+00;  2.2413282E-01;  3.9253474E+03;
  7.5640029E-01;  9.9999998E-03; -5.0086163E-02;6985;  2.8702623E-01;  0.0000000E+00; -6.1355080E-03;  1.0044905E+03;  1.2141944E-01;  3.7200908E+03;3; -3.9828068E+01;  0.0000000E+00;  1.0000383E+00;0;  1.0739865E+00;  2.7498977E+04;  0.0000000E+00;  4.5605056E-02;  4.0000000E+04;  0.0000000E+00;  3.9838070E+04;  8.7031960E-01;  0.0000000E+00;  2.0366697E-01;  4.0505437E+03;
  7.5641882E-01;  9.9999998E-03; -4.0071879E-02;6986;  2.8539988E-01;  0.0000000E+00; -4.6796864E-03;  1.0046606E+03;  1.2141614E-01;  3.8610176E+03;3; -4.0320297E+01;  0.0000000E+00;  7.4578989E-01;0;  1.0401139E+00;  2.7510057E+04;  0.0000000E+00;  2.7399259E-02;  4.0000000E+04;  0.0000000E+00;  3.9836961E+04;  8.5548753E-01;  0.0000000E+00;  1.8462645E-01;  4.2153726E+03;
  7.5643474E-01;  9.9999998E-03; -3.0056637E-02;6987;  2.8407949E-01;  0.0000000E+00; -3.3757745E-03;  1.0048073E+03;  1.2141393E-01;  3.9825879E+03;3; -4.0495914E+01;  0.0000000E+00;  5.4828936E-01;0;  1.0137787E+00;  2.7519578E+04;  0.0000000E+00;  1.4379183E-02;  4.0000000E+04;  0.0000000E+00;  3.9835707E+04;  8.4552920E-01;  0.0000000E+00;  1.6824944E-01;  4.3833018E+03;
  7.5644791E-01;  9.9999998E-03; -2.0040851E-02;6988;  2.8310657E-01;  0.0000000E+00; -2.1709355E-03;  1.0049197E+03;  1.2141225E-01;  4.0757161E+03;3; -4.0649406E+01;  0.0000000E+00;  3.8638654E-01;0;  9.9498963E-01;  2.7526938E+04;  0.0000000E+00;  6.0092960E-03;  4.0000000E+04;  0.0000000E+00;  3.9834664E+04;  8.3934230E-01;  0.0000000E+00;  1.5564737E-01;  4.5250776E+03;
  7.5645691E-01;  9.9999998E-03; -1.0022545E-02;6989;  2.8251731E-01;  0.0000000E+00; -1.0721945E-03;  1.0049907E+03;  1.2141139E-01;  4.1344766E+03;3; -4.0723988E+01;  0.0000000E+00;  2.0191124E-01;0;  9.8372650E-01;  2.7531539E+04;  0.0000000E+00;  1.4420586E-03;  4.0000000E+04;  0.0000000E+00;  3.9834035E+04;  8.3602405E-01;  0.0000000E+00;  1.4770249E-01;  4.6193799E+03;
  7.5646037E-01;  9.9999998E-03; -6.5843403E-10;6990;  2.8232008E-01;  0.0000000E+00; -6.8491211E-08;  1.0050151E+03;  1.2141112E-01;  4.1547222E+03;3; -4.0733921E+01;  0.0000000E+00;  8.4567917E-05;0;  9.7998118E-01;  2.7533137E+04;  0.0000000E+00; -6.0946452E-12;  4.0000000E+04;  0.0000000E+00;  3.9833711E+04;  8.3499473E-01;  0.0000000E+00;  1.4498648E-01;  4.6525259E+03;
  7.5645691E-01;  9.9999998E-03;  1.0022544E-02;6991;  2.8251731E-01;  0.0000000E+00;  1.0720572E-03;  1.0049907E+03;  1.2141139E-01;  4.1344766E+03;3; -4.0723286E+01;  0.0000000E+00; -2.0174703E-01;0;  9.8372626E-01;  2.7531539E+04;  0.0000000E+00;  1.4420772E-03;  4.0000000E+04;  0.0000000E+00;  3.9834035E+04;  8.3602381E-01;  0.0000000E+00;  1.4770247E-01;  4.6193677E+03;
  7.5644791E-01;  9.9999998E-03;  2.0040849E-02;6992;  2.8310660E-01;  0.0000000E+00;  2.1708026E-03;  1.0049198E+03;  1.2141193E-01;  4.0757161E+03;3; -4.0649403E+01;  0.0000000E+00; -3.8624051E-01;0;  9.9498969E-01;  2.7526939E+04;  0.0000000E+00;  6.0096006E-03;  4.0000000E+04;  0.0000000E+00;  3.9834668E+04;  8.3934206E-01;  0.0000000E+00;  1.5564762E-01;  4.5250942E+03;
  7.5643474E-01;  9.9999998E-03;  3.0056635E-02;6993;  2.8407958E-01;  0.0000000E+00;  3.3756467E-03;  1.0048073E+03;  1.2141393E-01;  3.9824893E+03;3; -4.0496113E+01;  0.0000000E+00; -5.4815120E-01;0;  1.0137787E+00;  2.7519582E+04;  0.0000000E+00;  1.4379295E-02;  4.0000000E+04;  0.0000000E+00;  3.9835707E+04;  8.4552908E-01;  0.0000000E+00;  1.6824965E-01;  4.3833145E+03;
  7.5641882E-01;  9.9999998E-03;  4.0071879E-02;6994;  2.8539994E-01;  0.0000000E+00;  4.6795672E-03;  1.0046606E+03;  1.2141614E-01;  3.8610176E+03;3; -4.0320271E+01;  0.0000000E+00; -7.4563670E-01;0;  1.0401137E+00;  2.7510057E+04;  0.0000000E+00;  2.7399234E-02;  4.0000000E+04;  0.0000000E+00;  3.9836957E+04;  8.5548705E-01;  0.0000000E+00;  1.8462670E-01;  4.2153687E+03;
  7.5640029E-01;  9.9999998E-03;  5.0086163E-02;6995;  2.8702629E-01;  0.0000000E+00;  6.1353971E-03;  1.0044907E+03;  1.2141926E-01;  3.7201897E+03;3; -3.9828026E+01;  0.0000000E+00; -9.9995667E-01;0;  1.0739877E+00;  2.7498973E+04;  0.0000000E+00;  4.5604438E-02;  4.0000000E+04;  0.0000000E+00;  3.9838070E+04;  8.7032014E-01;  0.0000000E+00;  2.0366754E-01;  4.0505317E+03;
  7.5637800E-01;  9.9999998E-03;  6.0097929E-02;6996;  2.8888184E-01;  0.0000000E+00;  7.8869890E-03;  1.0043074E+03;  1.2142366E-01;  3.5683999E+03;3; -3.9110588E+01;  0.0000000E+00; -1.5760068E+00;0;  1.1154190E+00;  2.7487111E+04;  0.0000000E+00;  6.8728730E-02;  4.0000000E+04;  0.0000000E+00;  3.9838828E+04;  8.9128566E-01;  0.0000000E+00;  2.2413342E-01;  3.9253457E+03;
  7.6868778E-01;  9.9999998E-03; -1.0009230E-01;7041;  2.9500452E-01;  0.0000000E+00; -1.6789680E-02;  1.0032748E+03;  1.2219258E-01;  2.7129343E+03;3; -3.3372406E+01;  0.0000000E+00;  8.3563976E+00;0;  1.9717170E+00;  2.7109570E+04;  0.0000000E+00;  3.8099539E-02;  4.0000000E+04;  0.0000000E+00;  3.9817320E+04;  1.6625597E+00;  0.0000000E+00;  3.0915722E-01;  5.9581050E+03;
  7.6873523E-01;  9.9999998E-03; -9.0087071E-02;7042;  2.9303363E-01;  0.0000000E+00; -1.3008194E-02;  1.0035646E+03;  1.2218745E-01;  2.9530105E+03;3; -3.4343208E+01;  0.0000000E+00;  7.1314135E+00;0;  1.8956593E+00;  2.7125820E+04;  0.0000000E+00;  2.5806453E-02;  4.0000000E+04;  0.0000000E+00;  3.9818219E+04;  1.6035455E+00;  0.0000000E+00;  2.9211381E-01;  5.8762896E+03;
  7.6876992E-01;  9.9999998E-03; -8.0085099E-02;7043;  2.9106194E-01;  0.0000000E+00; -9.5901722E-03;  1.0038951E+03;  1.2218287E-01;  3.2267629E+03;3; -3.5549480E+01;  0.0000000E+00;  5.7293739E+00;0;  1.8283291E+00;  2.7144889E+04;  0.0000000E+00;  1.1223635E-02;  4.0000000E+04;  0.0000000E+00;  3.9817910E+04;  1.5567974E+00;  0.0000000E+00;  2.7153173E-01;  5.9455498E+03;
  7.6879478E-01;  9.9999998E-03; -7.0083030E-02;7044;  2.8907228E-01;  0.0000000E+00; -6.7924368E-03;  1.0042429E+03;  1.2217801E-01;  3.5149338E+03;3; -3.6875122E+01;  0.0000000E+00;  4.2826676E+00;0;  1.7691742E+00;  2.7165689E+04;  0.0000000E+00; -2.0351650E-03;  4.0000000E+04;  0.0000000E+00;  3.9816574E+04;  1.5208901E+00;  0.0000000E+00;  2.4828413E-01;  6.1488599E+03;
  7.6881272E-01;  9.9999998E-03; -6.0078122E-02;7045;  2.8704175E-01;  0.0000000E+00; -4.6895994E-03;  1.0045924E+03;  1.2217375E-01;  3.8044868E+03;3; -3.8188007E+01;  0.0000000E+00;  2.7937198E+00;0;  1.7178649E+00;  2.7186977E+04;  0.0000000E+00; -1.1346241E-02;  4.0000000E+04;  0.0000000E+00;  3.9814574E+04;  1.4943242E+00;  0.0000000E+00;  2.2354065E-01;  6.4482266E+03;
  7.6882660E-01;  9.9999998E-03; -5.0068270E-02;7046;  2.8506905E-01;  0.0000000E+00; -3.3721058E-03;  1.0049271E+03;  1.2216996E-01;  4.0816956E+03;3; -3.9024780E+01;  0.0000000E+00;  1.3794354E+00;0;  1.6742749E+00;  2.7207400E+04;  0.0000000E+00; -1.5534820E-02;  4.0000000E+04;  0.0000000E+00;  3.9812113E+04;  1.4755400E+00;  0.0000000E+00;  1.9873483E-01;  6.7928535E+03;
  7.6883560E-01;  9.9999998E-03; -4.0053546E-02;7047;  2.8334451E-01;  0.0000000E+00; -2.3927193E-03;  1.0052262E+03;  1.2216700E-01;  4.3295737E+03;3; -3.9528557E+01;  0.0000000E+00;  7.3741937E-01;0;  1.6382405E+00;  2.7225990E+04;  0.0000000E+00; -1.4914160E-02;  4.0000000E+04;  0.0000000E+00;  3.9809574E+04;  1.4627867E+00;  0.0000000E+00;  1.7545375E-01;  7.1312622E+03;
  7.6884055E-01;  9.9999998E-03; -3.0037438E-02;7048;  2.8196201E-01;  0.0000000E+00; -1.6633776E-03;  1.0054776E+03;  1.2216476E-01;  4.5377520E+03;3; -3.9810749E+01;  0.0000000E+00;  4.0657303E-01;0;  1.6098716E+00;  2.7241516E+04;  0.0000000E+00; -1.0939563E-02;  4.0000000E+04;  0.0000000E+00;  3.9807562E+04;  1.4545633E+00;  0.0000000E+00;  1.5530832E-01;  7.4239727E+03;
  7.6884633E-01;  9.9999998E-03; -2.0023953E-02;7049;  2.8095528E-01;  0.0000000E+00; -1.0464780E-03;  1.0056671E+03;  1.2216295E-01;  4.6947744E+03;3; -3.9928810E+01;  0.0000000E+00;  1.9544552E-01;0;  1.5895857E+00;  2.7253299E+04;  0.0000000E+00; -5.7603931E-03;  4.0000000E+04;  0.0000000E+00;  3.9805918E+04;  1.4498383E+00;  0.0000000E+00;  1.3974734E-01;  7.6475674E+03;
  7.6885194E-01;  9.9999998E-03; -1.0012289E-02;7050;  2.8034705E-01;  0.0000000E+00; -5.0400256E-04;  1.0057875E+03;  1.2216176E-01;  4.7945186E+03;3; -4.0011097E+01;  0.0000000E+00;  7.6376848E-02;0;  1.5774578E+00;  2.7260637E+04;  0.0000000E+00; -1.5826438E-03;  4.0000000E+04;  0.0000000E+00;  3.9804953E+04;  1.4475422E+00;  0.0000000E+00;  1.2991555E-01;  7.7873726E+03;
  7.6885498E-01;  9.9999998E-03; -1.0121837E-09;7051;  2.8014278E-01;  0.0000000E+00; -7.4048359E-08;  1.0058282E+03;  1.2216144E-01;  4.8281943E+03;3; -4.0031609E+01;  0.0000000E+00;  1.0279061E-04;0;  1.5734675E+00;  2.7263156E+04;  0.0000000E+00; -6.3710495E-12;  4.0000000E+04;  0.0000000E+00;  3.9804562E+04;  1.4469161E+00;  0.0000000E+00;  1.2655140E-01;  7.8351758E+03;
  7.6885194E-01;  9.9999998E-03;  1.0012287E-02;7052;  2.8034705E-01;  0.0000000E+00;  5.0385616E-04;  1.0057875E+03;  1.2216175E-01;  4.7945186E+03;3; -4.0011272E+01;  0.0000000E+00; -7.6194137E-02;0;  1.5774579E+00;  2.7260639E+04;  0.0000000E+00; -1.5820084E-03;  4.0000000E+04;  0.0000000E+00;  3.9804953E+04;  1.4475423E+00;  0.0000000E+00;  1.2991560E-01;  7.7873706E+03;
  7.6884633E-01;  9.9999998E-03;  2.0023951E-02;7053;  2.8095528E-01;  0.0000000E+00;  1.0463331E-03;  1.0056671E+03;  1.2216295E-01;  4.6947744E+03;3; -3.9928928E+01;  0.0000000E+00; -1.9527659E-01;0;  1.5895844E+00;  2.7253295E+04;  0.0000000E+00; -5.7593365E-03;  4.0000000E+04;  0.0000000E+00;  3.9805918E+04;  1.4498369E+00;  0.0000000E+00;  1.3974744E-01;  7.6475527E+03;
  7.6884055E-01;  9.9999998E-03;  3.0037437E-02;7054;  2.8196204E-01;  0.0000000E+00;  1.6632379E-03;  1.0054775E+03;  1.2216473E-01;  4.5377520E+03;3; -3.9810715E+01;  0.0000000E+00; -4.0640280E-01;0;  1.6098731E+00;  2.7241516E+04;  0.0000000E+00; -1.0938087E-02;  4.0000000E+04;  0.0000000E+00;  3.9807562E+04;  1.4545646E+00;  0.0000000E+00;  1.5530851E-01;  7.4239756E+03;
  7.6883560E-01;  9.9999998E-03;  4.0053543E-02;7055;  2.8334457E-01;  0.0000000E+00;  2.3925845E-03;  1.0052263E+03;  1.2216701E-01;  4.3295737E+03;3; -3.9528740E+01;  0.0000000E+00; -7.3728329E-01;0;  1.6382415E+00;  2.7225990E+04;  0.0000000E+00; -1.4911453E-02;  4.0000000E+04;  0.0000000E+00;  3.9809574E+04;  1.4627874E+00;  0.0000000E+00;  1.7545408E-01;  7.1312700E+03;
  7.6882660E-01;  9.9999998E-03;  5.0068267E-02;7056;  2.8506914E-01;  0.0000000E+00;  3.3719786E-03;  1.0049270E+03;  1.2216996E-01;  4.0816956E+03;3; -3.9025005E+01;  0.0000000E+00; -1.3793132E+00;0;  1.6742748E+00;  2.7207398E+04;  0.0000000E+00; -1.5533975E-02;  4.0000000E+04;  0.0000000E+00;  3.9812117E+04;  1.4755393E+00;  0.0000000E+00;  1.9873548E-01;  6.7928706E+03;
  7.6881272E-01;  9.9999998E-03;  6.0078118E-02;7057;  2.8704184E-01;  0.0000000E+00;  4.6894872E-03;  1.0045926E+03;  1.2217384E-01;  3.8045854E+03;3; -3.8188194E+01;  0.0000000E+00; -2.7936766E+00;0;  1.7178652E+00;  2.7186975E+04;  0.0000000E+00; -1.1344515E-02;  4.0000000E+04;  0.0000000E+00;  3.9814570E+04;  1.4943240E+00;  0.0000000E+00;  2.2354126E-01;  6.4482192E+03;
  7.8107166E-01;  9.9999998E-03; -1.0009976E-01;7102;  2.9470235E-01;  0.0000000E+00; -1.4203095E-02;  1.0027701E+03;  1.2263590E-01;  2.2948687E+03;3; -3.1692646E+01;  0.0000000E+00;  1.3894670E+01;0;  2.7081130E+00;  2.6896395E+04;  0.0000000E+00; -8.9675762E-02;  4.0000000E+04;  0.0000000E+00;  3.9801168E+04;  2.3943298E+00;  0.0000000E+00;  3.1378326E-01;  7.5905723E+03;
  7.8095478E-01;  9.9999998E-03; -9.0092324E-02;7103;  2.9237509E-01;  0.0000000E+00; -9.9744555E-03;  1.0031409E+03;  1.2262952E-01;  2.6019971E+03;3; -3.2969837E+01;  0.0000000E+00;  1.2270844E+01;0;  2.6283813E+00;  2.6918420E+04;  0.0000000E+00; -8.9963749E-02;  4.0000000E+04;  0.0000000E+00;  3.9799758E+04;  2.3323901E+00;  0.0000000E+00;  2.9599109E-01;  7.8141191E+03;
  7.8086346E-01;  9.9999998E-03; -8.0090351E-02;7104;  2.9008192E-01;  0.0000000E+00; -6.2206248E-03;  1.0035566E+03;  1.2262382E-01;  2.9463562E+03;3; -3.4225288E+01;  0.0000000E+00;  1.0157870E+01;0;  2.5582285E+00;  2.6943633E+04;  0.0000000E+00; -8.9272104E-02;  4.0000000E+04;  0.0000000E+00;  3.9796969E+04;  2.2844570E+00;  0.0000000E+00;  2.7377164E-01;  8.1998193E+03;
  7.8086007E-01;  9.9999998E-03; -7.0089042E-02;7105;  2.8790301E-01;  0.0000000E+00; -3.2112428E-03;  1.0040129E+03;  1.2261929E-01;  3.3243904E+03;3; -3.5557262E+01;  0.0000000E+00;  7.5619640E+00;0;  2.5012259E+00;  2.6971328E+04;  0.0000000E+00; -8.5476235E-02;  4.0000000E+04;  0.0000000E+00;  3.9793176E+04;  2.2531483E+00;  0.0000000E+00;  2.4807753E-01;  8.7264346E+03;
  7.8087085E-01;  9.9999998E-03; -6.0084134E-02;7106;  2.8582543E-01;  0.0000000E+00; -1.2535685E-03;  1.0044655E+03;  1.2261520E-01;  3.6992644E+03;3; -3.7074242E+01;  0.0000000E+00;  4.1759787E+00;0;  2.4522347E+00;  2.6999227E+04;  0.0000000E+00; -7.6830529E-02;  4.0000000E+04;  0.0000000E+00;  3.9788738E+04;  2.2320170E+00;  0.0000000E+00;  2.2021782E-01;  9.3200928E+03;
  7.8087944E-01;  9.9999998E-03; -5.0071619E-02;7107;  2.8373823E-01;  0.0000000E+00; -5.1985733E-04;  1.0048936E+03;  1.2261179E-01;  4.0539924E+03;3; -3.8177822E+01;  0.0000000E+00;  1.3184487E+00;0;  2.4101315E+00;  2.7025582E+04;  0.0000000E+00; -6.3465655E-02;  4.0000000E+04;  0.0000000E+00;  3.9784469E+04;  2.2182639E+00;  0.0000000E+00;  1.9186756E-01;  9.9080283E+03;
  7.8088742E-01;  9.9999998E-03; -4.0054627E-02;7108;  2.8195769E-01;  0.0000000E+00; -2.1757737E-04;  1.0052788E+03;  1.2260889E-01;  4.3730698E+03;3; -3.8706921E+01;  0.0000000E+00;  4.7229812E-01;0;  2.3750570E+00;  2.7049248E+04;  0.0000000E+00; -4.6846036E-02;  4.0000000E+04;  0.0000000E+00;  3.9780645E+04;  2.2101142E+00;  0.0000000E+00;  1.6494264E-01;  1.0432432E+04;
  7.8089780E-01;  9.9999998E-03; -3.0037735E-02;7109;  2.8054881E-01;  0.0000000E+00; -7.2340852E-05;  1.0056016E+03;  1.2260639E-01;  4.6404985E+03;3; -3.9078850E+01;  0.0000000E+00;  7.1976542E-02;0;  2.3475235E+00;  2.7068939E+04;  0.0000000E+00; -2.9433941E-02;  4.0000000E+04;  0.0000000E+00;  3.9777520E+04;  2.2060876E+00;  0.0000000E+00;  1.4143588E-01;  1.0857263E+04;
  7.8090906E-01;  9.9999998E-03; -2.0022864E-02;7110;  2.7952483E-01;  0.0000000E+00; -3.0001334E-05;  1.0058437E+03;  1.2260488E-01;  4.8409707E+03;3; -3.9260056E+01;  0.0000000E+00; -7.7692829E-02;0;  2.3278015E+00;  2.7083764E+04;  0.0000000E+00; -1.4153414E-02;  4.0000000E+04;  0.0000000E+00;  3.9775309E+04;  2.2046330E+00;  0.0000000E+00;  1.2316843E-01;  1.1165009E+04;
  7.8091776E-01;  9.9999998E-03; -1.0010590E-02;7111;  2.7891335E-01;  0.0000000E+00; -4.8335546E-06;  1.0059962E+03;  1.2260368E-01;  4.9673774E+03;3; -3.9361572E+01;  0.0000000E+00; -9.4954491E-02;0;  2.3159564E+00;  2.7092977E+04;  0.0000000E+00; -3.7089824E-03;  4.0000000E+04;  0.0000000E+00;  3.9773930E+04;  2.2043679E+00;  0.0000000E+00;  1.1158844E-01;  1.1349891E+04;
  7.8092086E-01;  9.9999998E-03; -1.5270334E-09;7112;  2.7870634E-01;  0.0000000E+00; -7.7121719E-08;  1.0060482E+03;  1.2260339E-01;  5.0104346E+03;3; -3.9434944E+01;  0.0000000E+00;  9.9882251E-05;0;  2.3119984E+00;  2.7096088E+04;  0.0000000E+00; -3.7813841E-12;  4.0000000E+04;  0.0000000E+00;  3.9773484E+04;  2.2043757E+00;  0.0000000E+00;  1.0762262E-01;  1.1411374E+04;
  7.8091776E-01;  9.9999998E-03;  1.0010586E-02;7113;  2.7891335E-01;  0.0000000E+00;  4.6777809E-06;  1.0059962E+03;  1.2260389E-01;  4.9673774E+03;3; -3.9361515E+01;  0.0000000E+00;  9.5135726E-02;0;  2.3159583E+00;  2.7092986E+04;  0.0000000E+00; -3.7078629E-03;  4.0000000E+04;  0.0000000E+00;  3.9773930E+04;  2.2043698E+00;  0.0000000E+00;  1.1158855E-01;  1.1349891E+04;
  7.8090906E-01;  9.9999998E-03;  2.0022860E-02;7114;  2.7952486E-01;  0.0000000E+00;  2.9845696E-05;  1.0058436E+03;  1.2260488E-01;  4.8409707E+03;3; -3.9260204E+01;  0.0000000E+00;  7.7889435E-02;0;  2.3278008E+00;  2.7083762E+04;  0.0000000E+00; -1.4151137E-02;  4.0000000E+04;  0.0000000E+00;  3.9775309E+04;  2.2046320E+00;  0.0000000E+00;  1.2316871E-01;  1.1165004E+04;
  7.8089780E-01;  9.9999998E-03;  3.0037731E-02;7115;  2.8054884E-01;  0.0000000E+00;  7.2184172E-05;  1.0056015E+03;  1.2260638E-01;  4.6403999E+03;3; -3.9078728E+01;  0.0000000E+00; -7.1812101E-02;0;  2.3475266E+00;  2.7068939E+04;  0.0000000E+00; -2.9431134E-02;  4.0000000E+04;  0.0000000E+00;  3.9777520E+04;  2.2060905E+00;  0.0000000E+00;  1.4143620E-01;  1.0857240E+04;
  7.8088742E-01;  9.9999998E-03;  4.0054623E-02;7116;  2.8195775E-01;  0.0000000E+00;  2.1742651E-04;  1.0052788E+03;  1.2260889E-01;  4.3730698E+03;3; -3.8707150E+01;  0.0000000E+00; -4.7217742E-01;0;  2.3750558E+00;  2.7049252E+04;  0.0000000E+00; -4.6842419E-02;  4.0000000E+04;  0.0000000E+00;  3.9780645E+04;  2.2101128E+00;  0.0000000E+00;  1.6494301E-01;  1.0432412E+04;
  7.8087944E-01;  9.9999998E-03;  5.0071616E-02;7117;  2.8373826E-01;  0.0000000E+00;  5.1970925E-04;  1.0048935E+03;  1.2261179E-01;  4.0538938E+03;3; -3.8178051E+01;  0.0000000E+00; -1.3182890E+00;0;  2.4101315E+00;  2.7025582E+04;  0.0000000E+00; -6.3462839E-02;  4.0000000E+04;  0.0000000E+00;  3.9784469E+04;  2.2182634E+00;  0.0000000E+00;  1.9186795E-01;  9.9080146E+03;
  7.8087085E-01;  9.9999998E-03;  6.0084131E-02;7118;  2.8582549E-01;  0.0000000E+00;  1.2534350E-03;  1.0044656E+03;  1.2261520E-01;  3.6993633E+03;3; -3.7074562E+01;  0.0000000E+00; -4.1759515E+00;0;  2.4522347E+00;  2.6999229E+04;  0.0000000E+00; -7.6827526E-02;  4.0000000E+04;  0.0000000E+00;  3.9788742E+04;  2.2320163E+00;  0.0000000E+00;  2.2021851E-01;  9.3200889E+03;
  7.9362679E-01;  9.9999998E-03; -1.0020055E-01;7163;  2.9546002E-01;  0.0000000E+00; -1.3626060E-02;  1.0024789E+03;  1.2289020E-01;  2.0535771E+03;3; -2.9585781E+01;  0.0000000E+00;  2.1865570E+01;0;  3.5580459E+00;  2.6775736E+04;  0.0000000E+00; -1.8610369E-01;  4.0000000E+04;  0.0000000E+00;  3.9785387E+04;  3.2477806E+00;  0.0000000E+00;  3.1026530E-01;  9.3264316E+03;
  7.9358041E-01;  9.9999998E-03; -9.0187646E-02;7164;  2.9249108E-01;  0.0000000E+00; -8.4477970E-03;  1.0029287E+03;  1.2288617E-01;  2.4261741E+03;3; -3.1390181E+01;  0.0000000E+00;  2.0416828E+01;0;  3.4990785E+00;  2.6803484E+04;  0.0000000E+00; -1.6916296E-01;  4.0000000E+04;  0.0000000E+00;  3.9780488E+04;  3.2059462E+00;  0.0000000E+00;  2.9313239E-01;  9.9762812E+03;
  7.9352486E-01;  9.9999998E-03; -8.0177717E-02;7165;  2.8980786E-01;  0.0000000E+00; -3.9927354E-03;  1.0034065E+03;  1.2288203E-01;  2.8219780E+03;3; -3.2680931E+01;  0.0000000E+00;  1.8012228E+01;0;  3.4444625E+00;  2.6833377E+04;  0.0000000E+00; -1.5008125E-01;  4.0000000E+04;  0.0000000E+00;  3.9774430E+04;  3.1738532E+00;  0.0000000E+00;  2.7060932E-01;  1.0779661E+04;
  7.9346776E-01;  9.9999998E-03; -7.0167333E-02;7166;  2.8743938E-01;  0.0000000E+00; -5.0551409E-04;  1.0038916E+03;  1.2287759E-01;  3.2238062E+03;3; -3.3858467E+01;  0.0000000E+00;  1.4497759E+01;0;  3.3943527E+00;  2.6864107E+04;  0.0000000E+00; -1.2842658E-01;  4.0000000E+04;  0.0000000E+00;  3.9767785E+04;  3.1506894E+00;  0.0000000E+00;  2.4366336E-01;  1.1675549E+04;
  7.9340482E-01;  9.9999998E-03; -6.0148228E-02;7167;  2.8525931E-01;  0.0000000E+00;  1.4786455E-03;  1.0043630E+03;  1.2287334E-01;  3.6143765E+03;3; -3.5360451E+01;  0.0000000E+00;  7.3439083E+00;0;  3.3482811E+00;  2.6894086E+04;  0.0000000E+00; -1.0456081E-01;  4.0000000E+04;  0.0000000E+00;  3.9761004E+04;  3.1346035E+00;  0.0000000E+00;  2.1367770E-01;  1.2577564E+04;
  7.9333925E-01;  9.9999998E-03; -5.0113693E-02;7168;  2.8323919E-01;  0.0000000E+00;  1.8449813E-03;  1.0048030E+03;  1.2286943E-01;  3.9787769E+03;3; -3.6880157E+01;  0.0000000E+00;  1.5645441E+00;0;  3.3066692E+00;  2.6921883E+04;  0.0000000E+00; -7.9542965E-02;  4.0000000E+04;  0.0000000E+00;  3.9754797E+04;  3.1241550E+00;  0.0000000E+00;  1.8251422E-01;  1.3400044E+04;
  7.9328346E-01;  9.9999998E-03; -4.0080979E-02;7169;  2.8143746E-01;  0.0000000E+00;  1.5251250E-03;  1.0051945E+03;  1.2286635E-01;  4.3030835E+03;3; -3.7727867E+01;  0.0000000E+00;  3.3066282E-01;0;  3.2710259E+00;  2.6946428E+04;  0.0000000E+00; -5.5050448E-02;  4.0000000E+04;  0.0000000E+00;  3.9749625E+04;  3.1185434E+00;  0.0000000E+00;  1.5248246E-01;  1.4089674E+04;
  7.9323965E-01;  9.9999998E-03; -3.0053707E-02;7170;  2.8002542E-01;  0.0000000E+00;  1.1321147E-03;  1.0055216E+03;  1.2286359E-01;  4.5741616E+03;3; -3.8162846E+01;  0.0000000E+00;  4.4330649E-02;0;  3.2422152E+00;  2.6966670E+04;  0.0000000E+00; -3.2997046E-02;  4.0000000E+04;  0.0000000E+00;  3.9745672E+04;  3.1162100E+00;  0.0000000E+00;  1.2600525E-01;  1.4619586E+04;
  7.9320854E-01;  9.9999998E-03; -2.0031815E-02;7171;  2.7899739E-01;  0.0000000E+00;  7.3283538E-04;  1.0057686E+03;  1.2286158E-01;  4.7786802E+03;3; -3.8423332E+01;  0.0000000E+00;  6.4450532E-02;0;  3.2210400E+00;  2.6981691E+04;  0.0000000E+00; -1.5369806E-02;  4.0000000E+04;  0.0000000E+00;  3.9742969E+04;  3.1157293E+00;  0.0000000E+00;  1.0531065E-01;  1.4986645E+04;
  7.9318953E-01;  9.9999998E-03; -1.0014581E-02;7172;  2.7838209E-01;  0.0000000E+00;  3.6266699E-04;  1.0059213E+03;  1.2286032E-01;  4.9052832E+03;3; -3.8601177E+01;  0.0000000E+00;  6.4459331E-02;0;  3.2080576E+00;  2.6990975E+04;  0.0000000E+00; -3.9550504E-03;  4.0000000E+04;  0.0000000E+00;  3.9741449E+04;  3.1159046E+00;  0.0000000E+00;  9.2153177E-02;  1.5199675E+04;
  7.9318327E-01;  9.9999998E-03; -2.1249993E-09;7173;  2.7817079E-01;  0.0000000E+00; -7.8966430E-08;  1.0059731E+03;  1.2285999E-01;  4.9481421E+03;3; -3.8647659E+01;  0.0000000E+00;  9.6661795E-05;0;  3.2036951E+00;  2.6994152E+04;  0.0000000E+00; -3.9879168E-13;  4.0000000E+04;  0.0000000E+00;  3.9740902E+04;  3.1160541E+00;  0.0000000E+00;  8.7641105E-02;  1.5269275E+04;
  7.9318953E-01;  9.9999998E-03;  1.0014577E-02;7174;  2.7838212E-01;  0.0000000E+00; -3.6282453E-04;  1.0059213E+03;  1.2286029E-01;  4.9052832E+03;3; -3.8601116E+01;  0.0000000E+00; -6.4271219E-02;0;  3.2080593E+00;  2.6990975E+04;  0.0000000E+00; -3.9535384E-03;  4.0000000E+04;  0.0000000E+00;  3.9741453E+04;  3.1159060E+00;  0.0000000E+00;  9.2153221E-02;  1.5199668E+04;
  7.9320854E-01;  9.9999998E-03;  2.0031810E-02;7175;  2.7899742E-01;  0.0000000E+00; -7.3298969E-04;  1.0057686E+03;  1.2286159E-01;  4.7787788E+03;3; -3.8423058E+01;  0.0000000E+00; -6.4262964E-02;0;  3.2210374E+00;  2.6981689E+04;  0.0000000E+00; -1.5367162E-02;  4.0000000E+04;  0.0000000E+00;  3.9742973E+04;  3.1157267E+00;  0.0000000E+00;  1.0531077E-01;  1.4986627E+04;
  7.9323965E-01;  9.9999998E-03;  3.0053701E-02;7176;  2.8002542E-01;  0.0000000E+00; -1.1322679E-03;  1.0055217E+03;  1.2286361E-01;  4.5742607E+03;3; -3.8163006E+01;  0.0000000E+00; -4.4170827E-02;0;  3.2422149E+00;  2.6966670E+04;  0.0000000E+00; -3.2993551E-02;  4.0000000E+04;  0.0000000E+00;  3.9745672E+04;  3.1162093E+00;  0.0000000E+00;  1.2600569E-01;  1.4619595E+04;
  7.9328346E-01;  9.9999998E-03;  4.0080972E-02;7177;  2.8143749E-01;  0.0000000E+00; -1.5252799E-03;  1.0051944E+03;  1.2286638E-01;  4.3030835E+03;3; -3.7727741E+01;  0.0000000E+00; -3.3055422E-01;0;  3.2710257E+00;  2.6946432E+04;  0.0000000E+00; -5.5047069E-02;  4.0000000E+04;  0.0000000E+00;  3.9749625E+04;  3.1185429E+00;  0.0000000E+00;  1.5248282E-01;  1.4089675E+04;
  7.9333925E-01;  9.9999998E-03;  5.0113689E-02;7178;  2.8323925E-01;  0.0000000E+00; -1.8451270E-03;  1.0048030E+03;  1.2286969E-01;  3.9788757E+03;3; -3.6880188E+01;  0.0000000E+00; -1.5644307E+00;0;  3.3066697E+00;  2.6921879E+04;  0.0000000E+00; -7.9538696E-02;  4.0000000E+04;  0.0000000E+00;  3.9754793E+04;  3.1241548E+00;  0.0000000E+00;  1.8251489E-01;  1.3400028E+04;
  7.9340482E-01;  9.9999998E-03;  6.0148224E-02;7179;  2.8525940E-01;  0.0000000E+00; -1.4787544E-03;  1.0043629E+03;  1.2287340E-01;  3.6142776E+03;3; -3.5360645E+01;  0.0000000E+00; -7.3440027E+00;0;  3.3482831E+00;  2.6894082E+04;  0.0000000E+00; -1.0455803E-01;  4.0000000E+04;  0.0000000E+00;  3.9761004E+04;  3.1346047E+00;  0.0000000E+00;  2.1367835E-01;  1.2577555E+04;
  8.0595189E-01;  9.9999998E-03; -1.0034589E-01;7224;  3.0013722E-01;  0.0000000E+00; -1.9925442E-02;  1.0022928E+03;  1.2302936E-01;  1.8992885E+03;3; -2.5908403E+01;  0.0000000E+00;  3.0047228E+01;0;  4.4362698E+00;  2.6708289E+04;  0.0000000E+00; -2.4311432E-01;  4.0000000E+04;  0.0000000E+00;  3.9771027E+04;  4.1378841E+00;  0.0000000E+00;  2.9838553E-01;  1.0957252E+04;
  8.0597305E-01;  9.9999998E-03; -9.0332396E-02;7225;  2.9528525E-01;  0.0000000E+00; -1.3372219E-02;  1.0027513E+03;  1.2302663E-01;  2.2791855E+03;3; -3.0947018E+01;  0.0000000E+00;  2.9829208E+01;0;  4.4083538E+00;  2.6738787E+04;  0.0000000E+00; -2.0252681E-01;  4.0000000E+04;  0.0000000E+00;  3.9762484E+04;  4.1253200E+00;  0.0000000E+00;  2.8303361E-01;  1.2073129E+04;
  8.0599380E-01;  9.9999998E-03; -8.0323175E-02;7226;  2.9170588E-01;  0.0000000E+00; -8.2481401E-03;  1.0032191E+03;  1.2302326E-01;  2.6666865E+03;3; -3.3718037E+01;  0.0000000E+00;  2.9028011E+01;0;  4.3812628E+00;  2.6770447E+04;  0.0000000E+00; -1.6210908E-01;  4.0000000E+04;  0.0000000E+00;  3.9752840E+04;  4.1197863E+00;  0.0000000E+00;  2.6147664E-01;  1.3324241E+04;
  8.0600178E-01;  9.9999998E-03; -7.0317417E-02;7227;  2.8876105E-01;  0.0000000E+00; -4.3734778E-03;  1.0036758E+03;  1.2302017E-01;  3.0450037E+03;3; -3.5476788E+01;  0.0000000E+00;  2.7467731E+01;0;  4.3540125E+00;  2.6801582E+04;  0.0000000E+00; -1.2412605E-01;  4.0000000E+04;  0.0000000E+00;  3.9742906E+04;  4.1194029E+00;  0.0000000E+00;  2.3460947E-01;  1.4619674E+04;
  8.0584413E-01;  9.9999998E-03; -6.0291372E-02;7228;  2.8598931E-01;  0.0000000E+00;  7.6849565E-06;  1.0040965E+03;  1.2301640E-01;  3.3934988E+03;3; -3.5843826E+01;  0.0000000E+00;  2.3234974E+01;0;  4.3144917E+00;  2.6830521E+04;  0.0000000E+00; -9.0415418E-02;  4.0000000E+04;  0.0000000E+00;  3.9733816E+04;  4.1107283E+00;  0.0000000E+00;  2.0376363E-01;  1.5813589E+04;
  8.0567420E-01;  9.9999998E-03; -5.0234914E-02;7229;  2.8377908E-01;  0.0000000E+00;  3.0831459E-03;  1.0044832E+03;  1.2301287E-01;  3.7138499E+03;3; -3.4987926E+01;  0.0000000E+00;  9.5446587E+00;0;  4.2747574E+00;  2.6856742E+04;  0.0000000E+00; -6.1959486E-02;  4.0000000E+04;  0.0000000E+00;  3.9725891E+04;  4.1039972E+00;  0.0000000E+00;  1.7076010E-01;  1.6842211E+04;
  8.0552179E-01;  9.9999998E-03; -4.0178437E-02;7230;  2.8215075E-01;  0.0000000E+00;  3.0951214E-03;  1.0048254E+03;  1.2300956E-01;  3.9973667E+03;3; -3.6102844E+01;  0.0000000E+00;  1.5570586E+00;0;  4.2384458E+00;  2.6879416E+04;  0.0000000E+00; -3.9234716E-02;  4.0000000E+04;  0.0000000E+00;  3.9719645E+04;  4.1000595E+00;  0.0000000E+00;  1.3838635E-01;  1.7662785E+04;
  8.0539799E-01;  9.9999998E-03; -3.0127967E-02;7231;  2.8077310E-01;  0.0000000E+00;  2.3560168E-03;  1.0051106E+03;  1.2300686E-01;  4.2335815E+03;3; -3.6932247E+01;  0.0000000E+00;  1.9150795E-01;0;  4.2079268E+00;  2.6897859E+04;  0.0000000E+00; -2.1966757E-02;  4.0000000E+04;  0.0000000E+00;  3.9715145E+04;  4.0984154E+00;  0.0000000E+00;  1.0951136E-01;  1.8266930E+04;
  8.0530721E-01;  9.9999998E-03; -2.0082325E-02;7232;  2.7978262E-01;  0.0000000E+00;  1.5818136E-03;  1.0053262E+03;  1.2300505E-01;  4.4121255E+03;3; -3.7212749E+01;  0.0000000E+00;  1.6465895E-01;0;  4.1848950E+00;  2.6911488E+04;  0.0000000E+00; -9.7625889E-03;  4.0000000E+04;  0.0000000E+00;  3.9712074E+04;  4.0981112E+00;  0.0000000E+00;  8.6784095E-02;  1.8670289E+04;
  8.0525118E-01;  9.9999998E-03; -1.0039923E-02;7233;  2.7918142E-01;  0.0000000E+00;  7.9089240E-04;  1.0054598E+03;  1.2300382E-01;  4.5228262E+03;3; -3.7360397E+01;  0.0000000E+00;  1.9252785E-01;0;  4.1705194E+00;  2.6919781E+04;  0.0000000E+00; -2.4442489E-03;  4.0000000E+04;  0.0000000E+00;  3.9710434E+04;  4.0982370E+00;  0.0000000E+00;  7.2282545E-02;  1.8897689E+04;
  8.0523276E-01;  9.9999998E-03; -1.2572129E-09;7234;  2.7897832E-01;  0.0000000E+00; -8.2206277E-08;  1.0055050E+03;  1.2300333E-01;  4.5602529E+03;3; -3.7435932E+01;  0.0000000E+00;  5.0821494E-05;0;  4.1656828E+00;  2.6922646E+04;  0.0000000E+00;  1.6267794E-12;  4.0000000E+04;  0.0000000E+00;  3.9709891E+04;  4.0983806E+00;  0.0000000E+00;  6.7302018E-02;  1.8970953E+04;
  8.0525118E-01;  9.9999998E-03;  1.0039920E-02;7235;  2.7918142E-01;  0.0000000E+00; -7.9105271E-04;  1.0054599E+03;  1.2300378E-01;  4.5229248E+03;3; -3.7360573E+01;  0.0000000E+00; -1.9236362E-01;0;  4.1705198E+00;  2.6919777E+04;  0.0000000E+00; -2.4429222E-03;  4.0000000E+04;  0.0000000E+00;  3.9710434E+04;  4.0982370E+00;  0.0000000E+00;  7.2282694E-02;  1.8897670E+04;
  8.0530721E-01;  9.9999998E-03;  2.0082323E-02;7236;  2.7978262E-01;  0.0000000E+00; -1.5819649E-03;  1.0053261E+03;  1.2300505E-01;  4.4121255E+03;3; -3.7212948E+01;  0.0000000E+00; -1.6446328E-01;0;  4.1848898E+00;  2.6911486E+04;  0.0000000E+00; -9.7598257E-03;  4.0000000E+04;  0.0000000E+00;  3.9712074E+04;  4.0981054E+00;  0.0000000E+00;  8.6784400E-02;  1.8670285E+04;
  8.0539793E-01;  9.9999998E-03;  3.0127965E-02;7237;  2.8077313E-01;  0.0000000E+00; -2.3561504E-03;  1.0051106E+03;  1.2300686E-01;  4.2335815E+03;3; -3.6932247E+01;  0.0000000E+00; -1.9128032E-01;0;  4.2079220E+00;  2.6897854E+04;  0.0000000E+00; -2.1963475E-02;  4.0000000E+04;  0.0000000E+00;  3.9715145E+04;  4.0984101E+00;  0.0000000E+00;  1.0951165E-01;  1.8266926E+04;
  8.0552179E-01;  9.9999998E-03;  4.0178437E-02;7238;  2.8215078E-01;  0.0000000E+00; -3.0952534E-03;  1.0048254E+03;  1.2300956E-01;  3.9973667E+03;3; -3.6102692E+01;  0.0000000E+00; -1.5570542E+00;0;  4.2384453E+00;  2.6879416E+04;  0.0000000E+00; -3.9230213E-02;  4.0000000E+04;  0.0000000E+00;  3.9719645E+04;  4.1000586E+00;  0.0000000E+00;  1.3838696E-01;  1.7662750E+04;
  8.0567420E-01;  9.9999998E-03;  5.0234906E-02;7239;  2.8377914E-01;  0.0000000E+00; -3.0832747E-03;  1.0044832E+03;  1.2301288E-01;  3.7137510E+03;3; -3.4988388E+01;  0.0000000E+00; -9.5447416E+00;0;  4.2747631E+00;  2.6856738E+04;  0.0000000E+00; -6.1955970E-02;  4.0000000E+04;  0.0000000E+00;  3.9725891E+04;  4.1040025E+00;  0.0000000E+00;  1.7076041E-01;  1.6842203E+04;
  8.0584413E-01;  9.9999998E-03;  6.0291369E-02;7240;  2.8598940E-01;  0.0000000E+00; -7.6654396E-06;  1.0040964E+03;  1.2301639E-01;  3.3934001E+03;3; -3.5843952E+01;  0.0000000E+00; -2.3235006E+01;0;  4.3144941E+00;  2.6830529E+04;  0.0000000E+00; -9.0411879E-02;  4.0000000E+04;  0.0000000E+00;  3.9733820E+04;  4.1107297E+00;  0.0000000E+00;  2.0376426E-01;  1.5813579E+04;
  8.1807894E-01;  9.9999998E-03; -1.0044594E-01;7285;  3.5372677E-01;  0.0000000E+00; -2.4301244E-02;  1.0020957E+03;  1.2310571E-01;  1.7360133E+03;3; -1.0783205E+01;  0.0000000E+00;  3.6848591E+01;0;  5.2603822E+00;  2.6666453E+04;  0.0000000E+00; -2.7101985E-01;  4.0000000E+04;  0.0000000E+00;  3.9759098E+04;  4.9818234E+00;  0.0000000E+00;  2.7855894E-01;  1.2318401E+04;
  8.1792337E-01;  9.9999998E-03; -9.0462178E-02;7286;  3.3958450E-01;  0.0000000E+00; -2.0982737E-02;  1.0024924E+03;  1.2310332E-01;  2.0646519E+03;3; -2.0581573E+01;  0.0000000E+00;  3.6636402E+01;0;  5.2539921E+00;  2.6696312E+04;  0.0000000E+00; -2.0647086E-01;  4.0000000E+04;  0.0000000E+00;  3.9747137E+04;  4.9877849E+00;  0.0000000E+00;  2.6620731E-01;  1.3856767E+04;
  8.1775534E-01;  9.9999998E-03; -8.0458120E-02;7287;  3.2870880E-01;  0.0000000E+00; -1.9521426E-02;  1.0028762E+03;  1.2310055E-01;  2.3825269E+03;3; -2.9283056E+01;  0.0000000E+00;  3.5487705E+01;0;  5.2414093E+00;  2.6725656E+04;  0.0000000E+00; -1.4682204E-01;  4.0000000E+04;  0.0000000E+00;  3.9734492E+04;  4.9944997E+00;  0.0000000E+00;  2.4690942E-01;  1.5477333E+04;
  8.1759048E-01;  9.9999998E-03; -7.0436075E-02;7288;  3.2028192E-01;  0.0000000E+00; -1.9154198E-02;  1.0032333E+03;  1.2309774E-01;  2.6783809E+03;3; -3.6802715E+01;  0.0000000E+00;  3.3398571E+01;0;  5.2240014E+00;  2.6753463E+04;  0.0000000E+00; -9.6706644E-02;  4.0000000E+04;  0.0000000E+00;  3.9722172E+04;  5.0026541E+00;  0.0000000E+00;  2.2134754E-01;  1.7071236E+04;
  8.1743395E-01;  9.9999998E-03; -6.0367431E-02;7289;  3.1259659E-01;  0.0000000E+00; -1.0655479E-02;  1.0035618E+03;  1.2309531E-01;  2.9504363E+03;3; -4.3134171E+01;  0.0000000E+00;  3.0396105E+01;0;  5.2025466E+00;  2.6778834E+04;  0.0000000E+00; -5.8123481E-02;  4.0000000E+04;  0.0000000E+00;  3.9710875E+04;  5.0121083E+00;  0.0000000E+00;  1.9043842E-01;  1.8517068E+04;
  8.1729251E-01;  9.9999998E-03; -5.0288249E-02;7290;  3.0647823E-01;  0.0000000E+00; -1.3658182E-03;  1.0038598E+03;  1.2309285E-01;  3.1973110E+03;3; -4.8215874E+01;  0.0000000E+00;  2.6113922E+01;0;  5.1786804E+00;  2.6801164E+04;  0.0000000E+00; -3.1508114E-02;  4.0000000E+04;  0.0000000E+00;  3.9701508E+04;  5.0222349E+00;  0.0000000E+00;  1.5644570E-01;  1.9728414E+04;
  8.1717396E-01;  9.9999998E-03; -4.0217984E-02;7291;  3.0232742E-01;  0.0000000E+00;  3.6736976E-03;  1.0041188E+03;  1.2309060E-01;  3.4118945E+03;3; -5.1884090E+01;  0.0000000E+00;  1.5980886E+01;0;  5.1549025E+00;  2.6820027E+04;  0.0000000E+00; -1.5163124E-02;  4.0000000E+04;  0.0000000E+00;  3.9694348E+04;  5.0324254E+00;  0.0000000E+00;  1.2247691E-01;  2.0667154E+04;
  8.1707579E-01;  9.9999998E-03; -3.0156640E-02;7292;  2.9980296E-01;  0.0000000E+00;  4.5458158E-03;  1.0043308E+03;  1.2308891E-01;  3.5874717E+03;3; -5.4375919E+01;  0.0000000E+00;  6.1934018E+00;0;  5.1332526E+00;  2.6834910E+04;  0.0000000E+00; -6.2830215E-03;  4.0000000E+04;  0.0000000E+00;  3.9689230E+04;  5.0413704E+00;  0.0000000E+00;  9.1882341E-02;  2.1338033E+04;
  8.1700510E-01;  9.9999998E-03; -2.0101517E-02;7293;  2.9856849E-01;  0.0000000E+00;  3.5441390E-03;  1.0044903E+03;  1.2308761E-01;  3.7195991E+03;3; -5.6408577E+01;  0.0000000E+00;  1.7405910E+00;0;  5.1162305E+00;  2.6845734E+04;  0.0000000E+00; -2.0795297E-03;  4.0000000E+04;  0.0000000E+00;  3.9685918E+04;  5.0485601E+00;  0.0000000E+00;  6.7670368E-02;  2.1774592E+04;
  8.1696200E-01;  9.9999998E-03; -1.0049781E-02;7294;  2.9799819E-01;  0.0000000E+00;  1.8920727E-03;  1.0045905E+03;  1.2308687E-01;  3.8026479E+03;3; -5.7746201E+01;  0.0000000E+00;  5.4035461E-01;0;  5.1053615E+00;  2.6852258E+04;  0.0000000E+00; -4.1396808E-04;  4.0000000E+04;  0.0000000E+00;  3.9684188E+04;  5.0531869E+00;  0.0000000E+00;  5.2174397E-02;  2.2016055E+04;
  8.1694746E-01;  9.9999998E-03; -1.0211405E-09;7295;  2.9783556E-01;  0.0000000E+00; -2.9415887E-08;  1.0046249E+03;  1.2308645E-01;  3.8310876E+03;3; -5.8250549E+01;  0.0000000E+00;  2.1586395E-04;0;  5.1016240E+00;  2.6854471E+04;  0.0000000E+00;  2.1245143E-12;  4.0000000E+04;  0.0000000E+00;  3.9683512E+04;  5.0547781E+00;  0.0000000E+00;  4.6846092E-02;  2.2092828E+04;
  8.1696200E-01;  9.9999998E-03;  1.0049779E-02;7296;  2.9799813E-01;  0.0000000E+00; -1.8921304E-03;  1.0045906E+03;  1.2308688E-01;  3.8027466E+03;3; -5.7746193E+01;  0.0000000E+00; -5.3993070E-01;0;  5.1053662E+00;  2.6852262E+04;  0.0000000E+00; -4.1318731E-04;  4.0000000E+04;  0.0000000E+00;  3.9684188E+04;  5.0531917E+00;  0.0000000E+00;  5.2174542E-02;  2.2016055E+04;
  8.1700510E-01;  9.9999998E-03;  2.0101516E-02;7297;  2.9856884E-01;  0.0000000E+00; -3.5441450E-03;  1.0044905E+03;  1.2308764E-01;  3.7197966E+03;3; -5.6408577E+01;  0.0000000E+00; -1.7404932E+00;0;  5.1162271E+00;  2.6845736E+04;  0.0000000E+00; -2.0778377E-03;  4.0000000E+04;  0.0000000E+00;  3.9685918E+04;  5.0485563E+00;  0.0000000E+00;  6.7670673E-02;  2.1774576E+04;
  8.1707579E-01;  9.9999998E-03;  3.0156638E-02;7298;  2.9980305E-01;  0.0000000E+00; -4.5456956E-03;  1.0043307E+03;  1.2308883E-01;  3.5874717E+03;3; -5.4376057E+01;  0.0000000E+00; -6.1936011E+00;0;  5.1332469E+00;  2.6834908E+04;  0.0000000E+00; -6.2808343E-03;  4.0000000E+04;  0.0000000E+00;  3.9689230E+04;  5.0413642E+00;  0.0000000E+00;  9.1882698E-02;  2.1338016E+04;
  8.1717396E-01;  9.9999998E-03;  4.0217984E-02;7299;  3.0232748E-01;  0.0000000E+00; -3.6734978E-03;  1.0041189E+03;  1.2309063E-01;  3.4119934E+03;3; -5.1884224E+01;  0.0000000E+00; -1.5981175E+01;0;  5.1549048E+00;  2.6820020E+04;  0.0000000E+00; -1.5160363E-02;  4.0000000E+04;  0.0000000E+00;  3.9694348E+04;  5.0324273E+00;  0.0000000E+00;  1.2247748E-01;  2.0667117E+04;
  8.1729251E-01;  9.9999998E-03;  5.0288245E-02;7300;  3.0647841E-01;  0.0000000E+00;  1.3659166E-03;  1.0038598E+03;  1.2309273E-01;  3.1973110E+03;3; -4.8215767E+01;  0.0000000E+00; -2.6113817E+01;0;  5.1786766E+00;  2.6801172E+04;  0.0000000E+00; -3.1504478E-02;  4.0000000E+04;  0.0000000E+00;  3.9701512E+04;  5.0222306E+00;  0.0000000E+00;  1.5644616E-01;  1.9728396E+04;
  8.1743395E-01;  9.9999998E-03;  6.0367431E-02;7301;  3.1259704E-01;  0.0000000E+00;  1.0655487E-02;  1.0035619E+03;  1.2309527E-01;  2.9505352E+03;3; -4.3134247E+01;  0.0000000E+00; -3.0396044E+01;0;  5.2025557E+00;  2.6778834E+04;  0.0000000E+00; -5.8118377E-02;  4.0000000E+04;  0.0000000E+00;  3.9710871E+04;  5.0121164E+00;  0.0000000E+00;  1.9043912E-01;  1.8517072E+04;
  8.2872307E-01;  9.9999998E-03; -6.3046879E-10;7356;  4.1772062E-01;  0.0000000E+00; -1.4519487E-08;  1.0034027E+03;  1.2314053E-01;  2.8186355E+03;3; -2.9516758E+01;  0.0000000E+00;  1.4788500E-04;0;  5.9621396E+00;  2.6780758E+04;  0.0000000E+00;  6.2741842E-13;  4.0000000E+04;  0.0000000E+00;  3.9662973E+04;  5.9363728E+00;  0.0000000E+00;  2.5766836E-02;  2.4463486E+04;
  8.2873333E-01;  9.9999998E-03; -1.0052502E-02;7355;  4.1737738E-01;  0.0000000E+00;  2.3175916E-03;  1.0033839E+03;  1.2314064E-01;  2.8030334E+03;3; -2.9284237E+01;  0.0000000E+00;  9.0000397E-01;0;  5.9644308E+00;  2.6779436E+04;  0.0000000E+00;  1.0185463E-03;  4.0000000E+04;  0.0000000E+00;  3.9663555E+04;  5.9331446E+00;  0.0000000E+00;  3.1286076E-02;  2.4388580E+04;
  8.2873333E-01;  9.9999998E-03;  1.0052500E-02;7357;  4.1737750E-01;  0.0000000E+00; -2.3176079E-03;  1.0033840E+03;  1.2314066E-01;  2.8031321E+03;3; -2.9284092E+01;  0.0000000E+00; -8.9970624E-01;0;  5.9644270E+00;  2.6779438E+04;  0.0000000E+00;  1.0187662E-03;  4.0000000E+04;  0.0000000E+00;  3.9663555E+04;  5.9331408E+00;  0.0000000E+00;  3.1286187E-02;  2.4388572E+04;
  8.2876432E-01;  9.9999998E-03; -2.0106059E-02;7354;  4.1646671E-01;  0.0000000E+00;  4.5970557E-03;  1.0033320E+03;  1.2314098E-01;  2.7600781E+03;3; -2.8564013E+01;  0.0000000E+00;  2.0092645E+00;0;  5.9709616E+00;  2.6775375E+04;  0.0000000E+00;  3.3768606E-03;  4.0000000E+04;  0.0000000E+00;  3.9665453E+04;  5.9236465E+00;  0.0000000E+00;  4.7315087E-02;  2.4149834E+04;
  8.2876432E-01;  9.9999998E-03;  2.0106059E-02;7358;  4.1646662E-01;  0.0000000E+00; -4.5970785E-03;  1.0033321E+03;  1.2314115E-01;  2.7601768E+03;3; -2.8564039E+01;  0.0000000E+00; -2.0091138E+00;0;  5.9709644E+00;  2.6775375E+04;  0.0000000E+00;  3.3777279E-03;  4.0000000E+04;  0.0000000E+00;  3.9665453E+04;  5.9236493E+00;  0.0000000E+00;  4.7315348E-02;  2.4149826E+04;
  8.2881695E-01;  9.9999998E-03; -3.0161966E-02;7353;  4.1537100E-01;  0.0000000E+00;  6.6057756E-03;  1.0032460E+03;  1.2314168E-01;  2.6887822E+03;3; -2.7300886E+01;  0.0000000E+00;  5.5438552E+00;0;  5.9806948E+00;  2.6768484E+04;  0.0000000E+00;  4.9931877E-03;  4.0000000E+04;  0.0000000E+00;  3.9668816E+04;  5.9084105E+00;  0.0000000E+00;  7.2284371E-02;  2.3708912E+04;
  8.2881689E-01;  9.9999998E-03;  3.0161964E-02;7359;  4.1537085E-01;  0.0000000E+00; -6.6057704E-03;  1.0032458E+03;  1.2314153E-01;  2.6886836E+03;3; -2.7300970E+01;  0.0000000E+00; -5.5437164E+00;0;  5.9806943E+00;  2.6768486E+04;  0.0000000E+00;  4.9940664E-03;  4.0000000E+04;  0.0000000E+00;  3.9668820E+04;  5.9084096E+00;  0.0000000E+00;  7.2284780E-02;  2.3708898E+04;
  8.2889163E-01;  9.9999998E-03; -4.0222254E-02;7352;  4.1471097E-01;  0.0000000E+00;  7.4138958E-03;  1.0031305E+03;  1.2314230E-01;  2.5930962E+03;3; -2.5408154E+01;  0.0000000E+00;  1.2826168E+01;0;  5.9918408E+00;  2.6758607E+04;  0.0000000E+00;  2.5090696E-03;  4.0000000E+04;  0.0000000E+00;  3.9674195E+04;  5.8881812E+00;  0.0000000E+00;  1.0365983E-01;  2.3013207E+04;
  8.2889163E-01;  9.9999998E-03;  4.0222254E-02;7360;  4.1471112E-01;  0.0000000E+00; -7.4138320E-03;  1.0031305E+03;  1.2314230E-01;  2.5930962E+03;3; -2.5408186E+01;  0.0000000E+00; -1.2826169E+01;0;  5.9918342E+00;  2.6758609E+04;  0.0000000E+00;  2.5097048E-03;  4.0000000E+04;  0.0000000E+00;  3.9674195E+04;  5.8881741E+00;  0.0000000E+00;  1.0366025E-01;  2.3013221E+04;
  8.2898784E-01;  9.9999998E-03; -5.0289270E-02;7351;  4.1505215E-01;  0.0000000E+00;  5.1991348E-03;  1.0029860E+03;  1.2314319E-01;  2.4735129E+03;3; -2.2770971E+01;  0.0000000E+00;  2.4648952E+01;0;  6.0018735E+00;  2.6745559E+04;  0.0000000E+00; -8.3616767E-03;  4.0000000E+04;  0.0000000E+00;  3.9681883E+04;  5.8637276E+00;  0.0000000E+00;  1.3814573E-01;  2.2013041E+04;
  8.2898784E-01;  9.9999998E-03;  5.0289270E-02;7361;  4.1505194E-01;  0.0000000E+00; -5.1990072E-03;  1.0029858E+03;  1.2314322E-01;  2.4733154E+03;3; -2.2771141E+01;  0.0000000E+00; -2.4648785E+01;0;  6.0018711E+00;  2.6745555E+04;  0.0000000E+00; -8.3600618E-03;  4.0000000E+04;  0.0000000E+00;  3.9681883E+04;  5.8637247E+00;  0.0000000E+00;  1.3814646E-01;  2.2013055E+04;
  8.2910359E-01;  9.9999998E-03; -6.0363796E-02;7350;  4.1695353E-01;  0.0000000E+00; -1.8736809E-03;  1.0028163E+03;  1.2314429E-01;  2.3328965E+03;3; -1.9240911E+01;  0.0000000E+00;  3.4606026E+01;0;  6.0079212E+00;  2.6729213E+04;  0.0000000E+00; -3.2071467E-02;  4.0000000E+04;  0.0000000E+00;  3.9692234E+04;  5.8357983E+00;  0.0000000E+00;  1.7212299E-01;  2.0683783E+04;
  8.2910359E-01;  9.9999998E-03;  6.0363796E-02;7362;  4.1695353E-01;  0.0000000E+00;  1.8736864E-03;  1.0028161E+03;  1.2314431E-01;  2.3326990E+03;3; -1.9241152E+01;  0.0000000E+00; -3.4605831E+01;0;  6.0079193E+00;  2.6729213E+04;  0.0000000E+00; -3.2069057E-02;  4.0000000E+04;  0.0000000E+00;  3.9692234E+04;  5.8357954E+00;  0.0000000E+00;  1.7212369E-01;  2.0683756E+04;
  8.2923996E-01;  9.9999998E-03; -7.0437893E-02;7349;  4.2081723E-01;  0.0000000E+00; -1.1938107E-02;  1.0026141E+03;  1.2314551E-01;  2.1654209E+03;3; -1.4673859E+01;  0.0000000E+00;  3.8732319E+01;0;  6.0075831E+00;  2.6709635E+04;  0.0000000E+00; -7.2083823E-02;  4.0000000E+04;  0.0000000E+00;  3.9705062E+04;  5.8052545E+00;  0.0000000E+00;  2.0232882E-01;  1.9048939E+04;
  8.2939517E-01;  9.9999998E-03; -8.0481783E-02;7348;  4.2662510E-01;  0.0000000E+00; -1.4678632E-02;  1.0023771E+03;  1.2314695E-01;  1.9691115E+03;3; -9.0148411E+00;  0.0000000E+00;  4.1167492E+01;0;  5.9991550E+00;  2.6686781E+04;  0.0000000E+00; -1.2950760E-01;  4.0000000E+04;  0.0000000E+00;  3.9719637E+04;  5.7726679E+00;  0.0000000E+00;  2.2648701E-01;  1.7189885E+04;
  8.2956707E-01;  9.9999998E-03; -9.0505332E-02;7347;  4.3487412E-01;  0.0000000E+00; -1.5357622E-02;  1.0021009E+03;  1.2314828E-01;  1.7403141E+03;3; -2.2239974E+00;  0.0000000E+00;  4.2463211E+01;0;  5.9817772E+00;  2.6661213E+04;  0.0000000E+00; -2.0187801E-01;  4.0000000E+04;  0.0000000E+00;  3.9734988E+04;  5.7382307E+00;  0.0000000E+00;  2.4354638E-01;  1.5229587E+04;
  8.2975334E-01;  9.9999998E-03; -1.0051580E-01;7346;  4.4641745E-01;  0.0000000E+00; -1.7952884E-02;  1.0017808E+03;  1.2314959E-01;  1.4750796E+03;3;  5.6896954E+00;  0.0000000E+00;  4.2611355E+01;0;  5.9548383E+00;  2.6633369E+04;  0.0000000E+00; -2.8292671E-01;  4.0000000E+04;  0.0000000E+00;  3.9750156E+04;  5.7018180E+00;  0.0000000E+00;  2.5302020E-01;  1.3296407E+04;
  8.4067410E-01;  9.9999998E-03; -1.0050738E-02;7416;  5.4906392E-01;  0.0000000E+00;  2.6687942E-03;  1.0020020E+03;  1.2317955E-01;  1.6583062E+03;3; -1.4468155E+00;  0.0000000E+00;  1.0108980E+00;0;  6.6768990E+00;  2.6703223E+04;  0.0000000E+00;  1.3592551E-03;  4.0000000E+04;  0.0000000E+00;  3.9650230E+04;  6.6670828E+00;  0.0000000E+00;  9.8162685E-03;  2.5835424E+04;
  8.4066486E-01;  9.9999998E-03; -4.4811174E-10;7417;  5.4967111E-01;  0.0000000E+00; -4.0671519E-08;  1.0020037E+03;  1.2317938E-01;  1.6596887E+03;3; -1.5400461E+00;  0.0000000E+00;  1.1533073E-05;0;  6.6757994E+00;  2.6703709E+04;  0.0000000E+00; -8.5841246E-13;  4.0000000E+04;  0.0000000E+00;  3.9649699E+04;  6.6715131E+00;  0.0000000E+00;  4.2861523E-03;  2.5902080E+04;
  8.4067410E-01;  9.9999998E-03;  1.0050737E-02;7418;  5.4906374E-01;  0.0000000E+00; -2.6688713E-03;  1.0020019E+03;  1.2317955E-01;  1.6582074E+03;3; -1.4468120E+00;  0.0000000E+00; -1.0108699E+00;0;  6.6769023E+00;  2.6703221E+04;  0.0000000E+00;  1.3592144E-03;  4.0000000E+04;  0.0000000E+00;  3.9650230E+04;  6.6670856E+00;  0.0000000E+00;  9.8164221E-03;  2.5835416E+04;
  8.4070230E-01;  9.9999998E-03; -2.0102542E-02;7415;  5.4736292E-01;  0.0000000E+00;  5.3517390E-03;  1.0019955E+03;  1.2317923E-01;  1.6528752E+03;3; -1.1438843E+00;  0.0000000E+00;  1.9016174E+00;0;  6.6797705E+00;  2.6701693E+04;  0.0000000E+00;  4.6779006E-03;  4.0000000E+04;  0.0000000E+00;  3.9651926E+04;  6.6539059E+00;  0.0000000E+00;  2.5864586E-02;  2.5619066E+04;
  8.4070230E-01;  9.9999998E-03;  2.0102540E-02;7419;  5.4736298E-01;  0.0000000E+00; -5.3518214E-03;  1.0019957E+03;  1.2317926E-01;  1.6530728E+03;3; -1.1438460E+00;  0.0000000E+00; -1.9015491E+00;0;  6.6797686E+00;  2.6701691E+04;  0.0000000E+00;  4.6775881E-03;  4.0000000E+04;  0.0000000E+00;  3.9651930E+04;  6.6539040E+00;  0.0000000E+00;  2.5864827E-02;  2.5619055E+04;
  8.4075046E-01;  9.9999998E-03; -3.0156840E-02;7414;  5.4491669E-01;  0.0000000E+00;  7.9735061E-03;  1.0019828E+03;  1.2317916E-01;  1.6424081E+03;3; -6.1057657E-01;  0.0000000E+00;  3.8998466E+00;0;  6.6831803E+00;  2.6698812E+04;  0.0000000E+00;  7.7298186E-03;  4.0000000E+04;  0.0000000E+00;  3.9655082E+04;  6.6323571E+00;  0.0000000E+00;  5.0823253E-02;  2.5207125E+04;
  8.4075046E-01;  9.9999998E-03;  3.0156840E-02;7420;  5.4491663E-01;  0.0000000E+00; -7.9736169E-03;  1.0019828E+03;  1.2317916E-01;  1.6424081E+03;3; -6.1058009E-01;  0.0000000E+00; -3.8998709E+00;0;  6.6831765E+00;  2.6698809E+04;  0.0000000E+00;  7.7303154E-03;  4.0000000E+04;  0.0000000E+00;  3.9655082E+04;  6.6323528E+00;  0.0000000E+00;  5.0823607E-02;  2.5207102E+04;
  8.4081864E-01;  9.9999998E-03; -4.0216085E-02;7413;  5.4226017E-01;  0.0000000E+00;  1.0045284E-02;  1.0019650E+03;  1.2317910E-01;  1.6275962E+03;3;  2.6520902E-01;  0.0000000E+00;  8.5348530E+00;0;  6.6849599E+00;  2.6694166E+04;  0.0000000E+00;  6.9950684E-03;  4.0000000E+04;  0.0000000E+00;  3.9660309E+04;  6.6028595E+00;  0.0000000E+00;  8.2100496E-02;  2.4534832E+04;
  8.4081864E-01;  9.9999998E-03;  4.0216085E-02;7421;  5.4225999E-01;  0.0000000E+00; -1.0045395E-02;  1.0019650E+03;  1.2317921E-01;  1.6276949E+03;3;  2.6520169E-01;  0.0000000E+00; -8.5345612E+00;0;  6.6849566E+00;  2.6694168E+04;  0.0000000E+00;  6.9963038E-03;  4.0000000E+04;  0.0000000E+00;  3.9660309E+04;  6.6028557E+00;  0.0000000E+00;  8.2100876E-02;  2.4534852E+04;
  8.4090644E-01;  9.9999998E-03; -5.0282706E-02;7412;  5.4005295E-01;  0.0000000E+00;  1.0325977E-02;  1.0019385E+03;  1.2317904E-01;  1.6056746E+03;3;  1.6541803E+00;  0.0000000E+00;  1.8499821E+01;0;  6.6822047E+00;  2.6687271E+04;  0.0000000E+00; -1.9763811E-03;  4.0000000E+04;  0.0000000E+00;  3.9668184E+04;  6.5658951E+00;  0.0000000E+00;  1.1630971E-01;  2.3536062E+04;
  8.4090644E-01;  9.9999998E-03;  5.0282706E-02;7422;  5.4005277E-01;  0.0000000E+00; -1.0325994E-02;  1.0019384E+03;  1.2317903E-01;  1.6056746E+03;3;  1.6541938E+00;  0.0000000E+00; -1.8499887E+01;0;  6.6822133E+00;  2.6687260E+04;  0.0000000E+00; -1.9749303E-03;  4.0000000E+04;  0.0000000E+00;  3.9668184E+04;  6.5659032E+00;  0.0000000E+00;  1.1631030E-01;  2.3536078E+04;
  8.4101290E-01;  9.9999998E-03; -6.0357749E-02;7411;  5.3896189E-01;  0.0000000E+00;  6.5718726E-03;  1.0018978E+03;  1.2317877E-01;  1.5720024E+03;3;  3.6798162E+00;  0.0000000E+00;  3.2741554E+01;0;  6.6715784E+00;  2.6677467E+04;  0.0000000E+00; -2.3884837E-02;  4.0000000E+04;  0.0000000E+00;  3.9678973E+04;  6.5219030E+00;  0.0000000E+00;  1.4967555E-01;  2.2166301E+04;
  8.4101290E-01;  9.9999998E-03;  6.0357749E-02;7423;  5.3896171E-01;  0.0000000E+00; -6.5719378E-03;  1.0018978E+03;  1.2317877E-01;  1.5720024E+03;3;  3.6797576E+00;  0.0000000E+00; -3.2741470E+01;0;  6.6715698E+00;  2.6677467E+04;  0.0000000E+00; -2.3881134E-02;  4.0000000E+04;  0.0000000E+00;  3.9678969E+04;  6.5218935E+00;  0.0000000E+00;  1.4967611E-01;  2.2166336E+04;
  8.4114063E-01;  9.9999998E-03; -7.0438914E-02;7410;  5.3976977E-01;  0.0000000E+00; -2.3338641E-03;  1.0018290E+03;  1.2317854E-01;  1.5150266E+03;3;  6.4474602E+00;  0.0000000E+00;  4.2272331E+01;0;  6.6501384E+00;  2.6664344E+04;  0.0000000E+00; -6.2609747E-02;  4.0000000E+04;  0.0000000E+00;  3.9692652E+04;  6.4714046E+00;  0.0000000E+00;  1.7873372E-01;  2.0428244E+04;
  8.4128934E-01;  9.9999998E-03; -8.0506250E-02;7409;  5.4285121E-01;  0.0000000E+00; -8.7909326E-03;  1.0017244E+03;  1.2317836E-01;  1.4283290E+03;3;  1.0096668E+01;  0.0000000E+00;  4.5577629E+01;0;  6.6158700E+00;  2.6647459E+04;  0.0000000E+00; -1.1997817E-01;  4.0000000E+04;  0.0000000E+00;  3.9708777E+04;  6.4147062E+00;  0.0000000E+00;  2.0116389E-01;  1.8389795E+04;
  8.4145290E-01;  9.9999998E-03; -9.0546653E-02;7408;  5.4848731E-01;  0.0000000E+00; -9.4115715E-03;  1.0015649E+03;  1.2317795E-01;  1.2963080E+03;3;  1.4696310E+01;  0.0000000E+00;  4.6987740E+01;0;  6.5675187E+00;  2.6626715E+04;  0.0000000E+00; -1.9392073E-01;  4.0000000E+04;  0.0000000E+00;  3.9726262E+04;  6.3516159E+00;  0.0000000E+00;  2.1590276E-01;  1.6171691E+04;
  8.4162229E-01;  9.9999998E-03; -1.0057449E-01;7407;  5.5725157E-01;  0.0000000E+00; -1.1320834E-02;  1.0013422E+03;  1.2317756E-01;  1.1117554E+03;3;  2.0278021E+01;  0.0000000E+00;  4.7080822E+01;0;  6.5041933E+00;  2.6602131E+04;  0.0000000E+00; -2.7757186E-01;  4.0000000E+04;  0.0000000E+00;  3.9744129E+04;  6.2815599E+00;  0.0000000E+00;  2.2263357E-01;  1.3913359E+04;
  8.5291898E-01;  9.9999998E-03; -1.0046558E-02;7477;  6.8318331E-01;  0.0000000E+00;  2.9204201E-03;  1.0007097E+03;  1.2320042E-01;  5.8780048E+02;3;  2.3612215E+01;  0.0000000E+00;  1.0329952E+00;0;  7.1629252E+00;  2.6637254E+04;  0.0000000E+00;  9.8554848E-04;  4.0000000E+04;  0.0000000E+00;  3.9645406E+04;  7.1746769E+00;  0.0000000E+00; -1.1751452E-02;  2.6210463E+04;
  8.5291231E-01;  9.9999998E-03; -2.7676114E-10;7478;  6.8387687E-01;  0.0000000E+00; -7.1010696E-08;  1.0006996E+03;  1.2320061E-01;  5.7950629E+02;3;  2.3640589E+01;  0.0000000E+00; -1.1502605E-05;0;  7.1627789E+00;  2.6636979E+04;  0.0000000E+00;  1.3570098E-14;  4.0000000E+04;  0.0000000E+00;  3.9645031E+04;  7.1799088E+00;  0.0000000E+00; -1.7129764E-02;  2.6262967E+04;
  8.5291898E-01;  9.9999998E-03;  1.0046557E-02;7479;  6.8318313E-01;  0.0000000E+00; -2.9205554E-03;  1.0007097E+03;  1.2320042E-01;  5.8780048E+02;3;  2.3612074E+01;  0.0000000E+00; -1.0331213E+00;0;  7.1629267E+00;  2.6637254E+04;  0.0000000E+00;  9.8536559E-04;  4.0000000E+04;  0.0000000E+00;  3.9645402E+04;  7.1746778E+00;  0.0000000E+00; -1.1751336E-02;  2.6210461E+04;
  8.5293907E-01;  9.9999998E-03; -2.0094439E-02;7476;  6.8118834E-01;  0.0000000E+00;  5.8688140E-03;  1.0007401E+03;  1.2320012E-01;  6.1297913E+02;3;  2.3531961E+01;  0.0000000E+00;  2.0813949E+00;0;  7.1628389E+00;  2.6637754E+04;  0.0000000E+00;  3.3242325E-03;  4.0000000E+04;  0.0000000E+00;  3.9646824E+04;  7.1589875E+00;  0.0000000E+00;  3.8512517E-03;  2.6034303E+04;
  8.5293907E-01;  9.9999998E-03;  2.0094438E-02;7480;  6.8118817E-01;  0.0000000E+00; -5.8689504E-03;  1.0007399E+03;  1.2320010E-01;  6.1288043E+02;3;  2.3531979E+01;  0.0000000E+00; -2.0814524E+00;0;  7.1628399E+00;  2.6637754E+04;  0.0000000E+00;  3.3240209E-03;  4.0000000E+04;  0.0000000E+00;  3.9646824E+04;  7.1589885E+00;  0.0000000E+00;  3.8514850E-03;  2.6034273E+04;
  8.5297287E-01;  9.9999998E-03; -3.0145584E-02;7475;  6.7817414E-01;  0.0000000E+00;  8.7693017E-03;  1.0007872E+03;  1.2319928E-01;  6.5198151E+02;3;  2.3386215E+01;  0.0000000E+00;  3.3119566E+00;0;  7.1610112E+00;  2.6638188E+04;  0.0000000E+00;  5.2102613E-03;  4.0000000E+04;  0.0000000E+00;  3.9649633E+04;  7.1329093E+00;  0.0000000E+00;  2.8101748E-02;  2.5682006E+04;
  8.5297287E-01;  9.9999998E-03;  3.0145582E-02;7481;  6.7817396E-01;  0.0000000E+00; -8.7694488E-03;  1.0007871E+03;  1.2319928E-01;  6.5198151E+02;3;  2.3386232E+01;  0.0000000E+00; -3.3117509E+00;0;  7.1610103E+00;  2.6638186E+04;  0.0000000E+00;  5.2101808E-03;  4.0000000E+04;  0.0000000E+00;  3.9649633E+04;  7.1329083E+00;  0.0000000E+00;  2.8102100E-02;  2.5681977E+04;
  8.5302061E-01;  9.9999998E-03; -4.0202506E-02;7474;  6.7460054E-01;  0.0000000E+00;  1.1413957E-02;  1.0008474E+03;  1.2319811E-01;  7.0184515E+02;3;  2.3402050E+01;  0.0000000E+00;  5.8593278E+00;0;  7.1549711E+00;  2.6637963E+04;  0.0000000E+00;  3.7957178E-03;  4.0000000E+04;  0.0000000E+00;  3.9654422E+04;  7.0965080E+00;  0.0000000E+00;  5.8462881E-02;  2.5078076E+04;
  8.5302061E-01;  9.9999998E-03;  4.0202506E-02;7482;  6.7460030E-01;  0.0000000E+00; -1.1414174E-02;  1.0008473E+03;  1.2319813E-01;  7.0184515E+02;3;  2.3402004E+01;  0.0000000E+00; -5.8592248E+00;0;  7.1549735E+00;  2.6637957E+04;  0.0000000E+00;  3.7955639E-03;  4.0000000E+04;  0.0000000E+00;  3.9654426E+04;  7.0965099E+00;  0.0000000E+00;  5.8463402E-02;  2.5078068E+04;
  8.5308212E-01;  9.9999998E-03; -5.0267547E-02;7473;  6.7106581E-01;  0.0000000E+00;  1.3049859E-02;  1.0009152E+03;  1.2319686E-01;  7.5802814E+02;3;  2.3692188E+01;  0.0000000E+00;  1.3106075E+01;0;  7.1414323E+00;  2.6636178E+04;  0.0000000E+00; -4.5326068E-03;  4.0000000E+04;  0.0000000E+00;  3.9661785E+04;  7.0498180E+00;  0.0000000E+00;  9.1614150E-02;  2.4141525E+04;
  8.5308212E-01;  9.9999998E-03;  5.0267551E-02;7483;  6.7106575E-01;  0.0000000E+00; -1.3050055E-02;  1.0009153E+03;  1.2319685E-01;  7.5812689E+02;3;  2.3692186E+01;  0.0000000E+00; -1.3105866E+01;0;  7.1414323E+00;  2.6636182E+04;  0.0000000E+00; -4.5317262E-03;  4.0000000E+04;  0.0000000E+00;  3.9661785E+04;  7.0498176E+00;  0.0000000E+00;  9.1614768E-02;  2.4141498E+04;
  8.5315770E-01;  9.9999998E-03; -6.0341824E-02;7472;  6.6822928E-01;  0.0000000E+00;  1.1869506E-02;  1.0009810E+03;  1.2319507E-01;  8.1253247E+02;3;  2.4251661E+01;  0.0000000E+00;  2.6776930E+01;0;  7.1166573E+00;  2.6632061E+04;  0.0000000E+00; -2.3628619E-02;  4.0000000E+04;  0.0000000E+00;  3.9672340E+04;  6.9928622E+00;  0.0000000E+00;  1.2379505E-01;  2.2809197E+04;
  8.5315770E-01;  9.9999998E-03;  6.0341828E-02;7484;  6.6822904E-01;  0.0000000E+00; -1.1869599E-02;  1.0009809E+03;  1.2319507E-01;  8.1243372E+02;3;  2.4251768E+01;  0.0000000E+00; -2.6776936E+01;0;  7.1166506E+00;  2.6632055E+04;  0.0000000E+00; -2.3627073E-02;  4.0000000E+04;  0.0000000E+00;  3.9672344E+04;  6.9928551E+00;  0.0000000E+00;  1.2379573E-01;  2.2809232E+04;
  8.5325134E-01;  9.9999998E-03; -7.0423253E-02;7471;  6.6684455E-01;  0.0000000E+00;  5.3884429E-03;  1.0010251E+03;  1.2319329E-01;  8.4906610E+02;3;  2.5241415E+01;  0.0000000E+00;  4.1557117E+01;0;  7.0770907E+00;  2.6624572E+04;  0.0000000E+00; -5.6706641E-02;  4.0000000E+04;  0.0000000E+00;  3.9686164E+04;  6.9256759E+00;  0.0000000E+00;  1.5141490E-01;  2.1062574E+04;
  8.5337377E-01;  9.9999998E-03; -8.0499910E-02;7470;  6.6765571E-01;  0.0000000E+00; -3.2380437E-03;  1.0010312E+03;  1.2319163E-01;  8.5410144E+02;3;  2.6863245E+01;  0.0000000E+00;  4.7732971E+01;0;  7.0204411E+00;  2.6612990E+04;  0.0000000E+00; -1.0526094E-01;  4.0000000E+04;  0.0000000E+00;  3.9702926E+04;  6.8484554E+00;  0.0000000E+00;  1.7198542E-01;  1.8950602E+04;
  8.5353750E-01;  9.9999998E-03; -9.0552792E-02;7469;  6.7126906E-01;  0.0000000E+00; -5.1517738E-03;  1.0009719E+03;  1.2318984E-01;  8.0502722E+02;3;  2.9201775E+01;  0.0000000E+00;  4.9494167E+01;0;  6.9458947E+00;  2.6596664E+04;  0.0000000E+00; -1.6775890E-01;  4.0000000E+04;  0.0000000E+00;  3.9721648E+04;  6.7613516E+00;  0.0000000E+00;  1.8454297E-01;  1.6588762E+04;
  8.5372323E-01;  9.9999998E-03; -1.0058745E-01;7468;  6.7788690E-01;  0.0000000E+00; -6.5796017E-03;  1.0008312E+03;  1.2318805E-01;  6.8841479E+02;3;  3.2297062E+01;  0.0000000E+00;  4.9719051E+01;0;  6.8523464E+00;  2.6575270E+04;  0.0000000E+00; -2.3828250E-01;  4.0000000E+04;  0.0000000E+00;  3.9741203E+04;  6.6634545E+00;  0.0000000E+00;  1.8889190E-01;  1.4121261E+04;
  8.6617368E-01;  9.9999998E-03; -1.0058039E-01;7529;  8.0093837E-01;  0.0000000E+00; -4.4740629E-03;  1.0003230E+03;  1.2315878E-01;  2.6757260E+02;3;  4.1848095E+01;  0.0000000E+00;  5.0114376E+01;0;  6.9572382E+00;  2.6565428E+04;  0.0000000E+00; -1.5075117E-01;  4.0000000E+04;  0.0000000E+00;  3.9742066E+04;  6.8042102E+00;  0.0000000E+00;  1.5302812E-01;  1.3860243E+04;
  8.6601615E-01;  9.9999998E-03; -9.0539686E-02;7530;  7.9666167E-01;  0.0000000E+00; -3.4165960E-03;  1.0004171E+03;  1.2316175E-01;  3.4547495E+02;3;  4.1380795E+01;  0.0000000E+00;  4.9682980E+01;0;  7.0730724E+00;  2.6584830E+04;  0.0000000E+00; -1.0350674E-01;  4.0000000E+04;  0.0000000E+00;  3.9721906E+04;  6.9228249E+00;  0.0000000E+00;  1.5024762E-01;  1.6398480E+04;
  8.6586958E-01;  9.9999998E-03; -8.0467120E-02;7531;  7.9481483E-01;  0.0000000E+00;  4.7193917E-05;  1.0004184E+03;  1.2316505E-01;  3.4656125E+02;3;  4.1338604E+01;  0.0000000E+00;  4.7444290E+01;0;  7.1665173E+00;  2.6598410E+04;  0.0000000E+00; -6.2077466E-02;  4.0000000E+04;  0.0000000E+00;  3.9703098E+04;  7.0269899E+00;  0.0000000E+00;  1.3952748E-01;  1.8778014E+04;
  8.6574066E-01;  9.9999998E-03; -7.0375644E-02;7532;  7.9510629E-01;  0.0000000E+00;  9.1157323E-03;  1.0003530E+03;  1.2316803E-01;  2.9235568E+02;3;  4.1684509E+01;  0.0000000E+00;  3.8445560E+01;0;  7.2379508E+00;  2.6606791E+04;  0.0000000E+00; -3.0317251E-02;  4.0000000E+04;  0.0000000E+00;  3.9686480E+04;  7.1170292E+00;  0.0000000E+00;  1.2092146E-01;  2.0851904E+04;
  8.6563092E-01;  9.9999998E-03; -6.0291030E-02;7533;  7.9707557E-01;  0.0000000E+00;  1.3831950E-02;  1.0002516E+03;  1.2317090E-01;  2.0843063E+02;3;  4.2311737E+01;  0.0000000E+00;  2.2221655E+01;0;  7.2885914E+00;  2.6610812E+04;  0.0000000E+00; -9.2744920E-03;  4.0000000E+04;  0.0000000E+00;  3.9673242E+04;  7.1933455E+00;  0.0000000E+00;  9.5245652E-02;  2.2515334E+04;
  8.6553913E-01;  9.9999998E-03; -5.0220311E-02;7534;  8.0008554E-01;  0.0000000E+00;  1.3811043E-02;  1.0001348E+03;  1.2317350E-01;  1.1166989E+02;3;  4.3008144E+01;  0.0000000E+00;  1.0414671E+01;0;  7.3215737E+00;  2.6611717E+04;  0.0000000E+00;  2.1105313E-03;  4.0000000E+04;  0.0000000E+00;  3.9663539E+04;  7.2565193E+00;  0.0000000E+00;  6.5054260E-02;  2.3739814E+04;
  8.6546361E-01;  9.9999998E-03; -4.0162787E-02;7535;  8.0349332E-01;  0.0000000E+00;  1.1707367E-02;  1.0000214E+03;  1.2317602E-01;  1.7772404E+01;3;  4.3675762E+01;  0.0000000E+00;  4.9764423E+00;0;  7.3410521E+00;  2.6610553E+04;  0.0000000E+00;  6.1659017E-03;  4.0000000E+04;  0.0000000E+00;  3.9656984E+04;  7.3071775E+00;  0.0000000E+00;  3.3874281E-02;  2.4562951E+04;
  8.6540419E-01;  9.9999998E-03; -3.0115129E-02;7536;  8.0676347E-01;  0.0000000E+00;  8.9555299E-03;  9.9992224E+02;  1.2317771E-01; -6.4424973E+01;3;  4.4299732E+01;  0.0000000E+00;  2.9226415E+00;0;  7.3512025E+00;  2.6608338E+04;  0.0000000E+00;  5.6768055E-03;  4.0000000E+04;  0.0000000E+00;  3.9652977E+04;  7.3459077E+00;  0.0000000E+00;  5.2948268E-03;  2.5063213E+04;
  8.6536121E-01;  9.9999998E-03; -2.0073874E-02;7537;  8.0944628E-01;  0.0000000E+00;  5.9939930E-03;  9.9984711E+02;  1.2317867E-01; -1.2662842E+02;3;  4.4892689E+01;  0.0000000E+00;  2.2679698E+00;0;  7.3556652E+00;  2.6606014E+04;  0.0000000E+00;  3.2461858E-03;  4.0000000E+04;  0.0000000E+00;  3.9650883E+04;  7.3732114E+00;  0.0000000E+00; -1.7546102E-02;  2.5333242E+04;
  8.6533517E-01;  9.9999998E-03; -1.0036190E-02;7538;  8.1119084E-01;  0.0000000E+00;  2.9928633E-03;  9.9979968E+02;  1.2317964E-01; -1.6592520E+02;3;  4.5243000E+01;  0.0000000E+00;  1.2198853E+00;0;  7.3571997E+00;  2.6604348E+04;  0.0000000E+00;  9.2218950E-04;  4.0000000E+04;  0.0000000E+00;  3.9649926E+04;  7.3894472E+00;  0.0000000E+00; -3.2247506E-02;  2.5456791E+04;
  8.6532646E-01;  9.9999998E-03; -3.1599279E-10;7539;  8.1179523E-01;  0.0000000E+00; -9.6572435E-08;  9.9978400E+02;  1.2317996E-01; -1.7890895E+02;3;  4.5360100E+01;  0.0000000E+00; -3.1612995E-05;0;  7.3575096E+00;  2.6603740E+04;  0.0000000E+00;  2.8217465E-12;  4.0000000E+04;  0.0000000E+00;  3.9649645E+04;  7.3948259E+00;  0.0000000E+00; -3.7316516E-02;  2.5491178E+04;
  8.6533517E-01;  9.9999998E-03;  1.0036190E-02;7540;  8.1119055E-01;  0.0000000E+00; -2.9930559E-03;  9.9979987E+02;  1.2317947E-01; -1.6577710E+02;3;  4.5243023E+01;  0.0000000E+00; -1.2198355E+00;0;  7.3571954E+00;  2.6604354E+04;  0.0000000E+00;  9.2209096E-04;  4.0000000E+04;  0.0000000E+00;  3.9649926E+04;  7.3894429E+00;  0.0000000E+00; -3.2247368E-02;  2.5456795E+04;
  8.6536121E-01;  9.9999998E-03;  2.0073874E-02;7541;  8.0944574E-01;  0.0000000E+00; -5.9941877E-03;  9.9984705E+02;  1.2317866E-01; -1.2667779E+02;3;  4.4892563E+01;  0.0000000E+00; -2.2679751E+00;0;  7.3556609E+00;  2.6606012E+04;  0.0000000E+00;  3.2461160E-03;  4.0000000E+04;  0.0000000E+00;  3.9650883E+04;  7.3732071E+00;  0.0000000E+00; -1.7545940E-02;  2.5333230E+04;
  8.6540419E-01;  9.9999998E-03;  3.0115128E-02;7542;  8.0676293E-01;  0.0000000E+00; -8.9557273E-03;  9.9992224E+02;  1.2317771E-01; -6.4424973E+01;3;  4.4299702E+01;  0.0000000E+00; -2.9226484E+00;0;  7.3512015E+00;  2.6608338E+04;  0.0000000E+00;  5.6769848E-03;  4.0000000E+04;  0.0000000E+00;  3.9652977E+04;  7.3459063E+00;  0.0000000E+00;  5.2951286E-03;  2.5063186E+04;
  8.6546361E-01;  9.9999998E-03;  4.0162783E-02;7543;  8.0349302E-01;  0.0000000E+00; -1.1707591E-02;  1.0000215E+03;  1.2317570E-01;  1.7772404E+01;3;  4.3675613E+01;  0.0000000E+00; -4.9762549E+00;0;  7.3410511E+00;  2.6610553E+04;  0.0000000E+00;  6.1660223E-03;  4.0000000E+04;  0.0000000E+00;  3.9656992E+04;  7.3071761E+00;  0.0000000E+00;  3.3874787E-02;  2.4562941E+04;
  8.6553913E-01;  9.9999998E-03;  5.0220307E-02;7544;  8.0008513E-01;  0.0000000E+00; -1.3811281E-02;  1.0001349E+03;  1.2317347E-01;  1.1176862E+02;3;  4.3008183E+01;  0.0000000E+00; -1.0414393E+01;0;  7.3215656E+00;  2.6611719E+04;  0.0000000E+00;  2.1094687E-03;  4.0000000E+04;  0.0000000E+00;  3.9663539E+04;  7.2565107E+00;  0.0000000E+00;  6.5054744E-02;  2.3739828E+04;
  8.6563092E-01;  9.9999998E-03;  6.0291030E-02;7545;  7.9707509E-01;  0.0000000E+00; -1.3832236E-02;  1.0002517E+03;  1.2317090E-01;  2.0843063E+02;3;  4.2311554E+01;  0.0000000E+00; -2.2221292E+01;0;  7.2885895E+00;  2.6610814E+04;  0.0000000E+00; -9.2730960E-03;  4.0000000E+04;  0.0000000E+00;  3.9673238E+04;  7.1933436E+00;  0.0000000E+00;  9.5246077E-02;  2.2515322E+04;
  8.7868047E-01;  9.9999998E-03; -1.0057441E-01;7590;  9.1684854E-01;  0.0000000E+00; -4.2665433E-03;  1.0000847E+03;  1.2307080E-01;  7.0098045E+01;3;  4.9458691E+01;  0.0000000E+00;  4.8361946E+01;0;  6.8023643E+00;  2.6591781E+04;  0.0000000E+00; -3.0069835E-02;  4.0000000E+04;  0.0000000E+00;  3.9747293E+04;  6.6848950E+00;  0.0000000E+00;  1.1746918E-01;  1.3097659E+04;
  8.7855625E-01;  9.9999998E-03; -9.0535752E-02;7591;  9.1507053E-01;  0.0000000E+00; -3.7421968E-03;  1.0001956E+03;  1.2307507E-01;  1.6201543E+02;3;  5.1609104E+01;  0.0000000E+00;  4.7699497E+01;0;  6.9272056E+00;  2.6611602E+04;  0.0000000E+00; -5.7140905E-03;  4.0000000E+04;  0.0000000E+00;  3.9727828E+04;  6.8118024E+00;  0.0000000E+00;  1.1540295E-01;  1.5551216E+04;
  8.7844610E-01;  9.9999998E-03; -8.0463305E-02;7592;  9.1506779E-01;  0.0000000E+00; -2.5653330E-04;  1.0002095E+03;  1.2307921E-01;  1.7356691E+02;3;  5.3816692E+01;  0.0000000E+00;  4.5287510E+01;0;  7.0280738E+00;  2.6625102E+04;  0.0000000E+00;  1.3370240E-02;  4.0000000E+04;  0.0000000E+00;  3.9709848E+04;  6.9220610E+00;  0.0000000E+00;  1.0601290E-01;  1.7813834E+04;
  8.7835306E-01;  9.9999998E-03; -7.0370935E-02;7593;  9.1659236E-01;  0.0000000E+00;  8.7448088E-03;  1.0001550E+03;  1.2308335E-01;  1.2834874E+02;3;  5.6055893E+01;  0.0000000E+00;  3.6529606E+01;0;  7.1053395E+00;  2.6633230E+04;  0.0000000E+00;  2.5351210E-02;  4.0000000E+04;  0.0000000E+00;  3.9694434E+04;  7.0160646E+00;  0.0000000E+00;  8.9275017E-02;  1.9745814E+04;
  8.7827557E-01;  9.9999998E-03; -6.0284778E-02;7594;  9.1920245E-01;  0.0000000E+00;  1.3202422E-02;  1.0000607E+03;  1.2308720E-01;  5.0253487E+01;3;  5.8218727E+01;  0.0000000E+00;  2.0992277E+01;0;  7.1603055E+00;  2.6636928E+04;  0.0000000E+00;  2.9926332E-02;  4.0000000E+04;  0.0000000E+00;  3.9682441E+04;  7.0944157E+00;  0.0000000E+00;  6.5889858E-02;  2.1254281E+04;
  8.7821120E-01;  9.9999998E-03; -5.0212763E-02;7595;  9.2237902E-01;  0.0000000E+00;  1.3122453E-02;  9.9995020E+02;  1.2309063E-01; -4.1269085E+01;3;  6.0140965E+01;  0.0000000E+00;  9.8350954E+00;0;  7.1964011E+00;  2.6637379E+04;  0.0000000E+00;  2.8234214E-02;  4.0000000E+04;  0.0000000E+00;  3.9673938E+04;  7.1581378E+00;  0.0000000E+00;  3.8263135E-02;  2.2323758E+04;
  8.7815815E-01;  9.9999998E-03; -4.0155057E-02;7596;  9.2564058E-01;  0.0000000E+00;  1.1094850E-02;  9.9984290E+02;  1.2309353E-01; -1.3012601E+02;3;  6.1764969E+01;  0.0000000E+00;  4.7059941E+00;0;  7.2180467E+00;  2.6635771E+04;  0.0000000E+00;  2.2307729E-02;  4.0000000E+04;  0.0000000E+00;  3.9668539E+04;  7.2083583E+00;  0.0000000E+00;  9.6883299E-03;  2.3003340E+04;
  8.7811607E-01;  9.9999998E-03; -3.0108385E-02;7597;  9.2858249E-01;  0.0000000E+00;  8.4882826E-03;  9.9974890E+02;  1.2309601E-01; -2.0797455E+02;3;  6.3081970E+01;  0.0000000E+00;  2.8297861E+00;0;  7.2296162E+00;  2.6633260E+04;  0.0000000E+00;  1.4515796E-02;  4.0000000E+04;  0.0000000E+00;  3.9665543E+04;  7.2461295E+00;  0.0000000E+00; -1.6513426E-02;  2.3381309E+04;
  8.7808537E-01;  9.9999998E-03; -2.0068927E-02;7598;  9.3090469E-01;  0.0000000E+00;  5.6789475E-03;  9.9967792E+02;  1.2309745E-01; -2.6676825E+02;3;  6.4083618E+01;  0.0000000E+00;  2.3099954E+00;0;  7.2349286E+00;  2.6630711E+04;  0.0000000E+00;  7.1032261E-03;  4.0000000E+04;  0.0000000E+00;  3.9664090E+04;  7.2723842E+00;  0.0000000E+00; -3.7455712E-02;  2.3558184E+04;
  8.7806666E-01;  9.9999998E-03; -1.0033547E-02;7599;  9.3238842E-01;  0.0000000E+00;  2.8316833E-03;  9.9963275E+02;  1.2309843E-01; -3.0413757E+02;3;  6.4691597E+01;  0.0000000E+00;  1.2032990E+00;0;  7.2369027E+00;  2.6628922E+04;  0.0000000E+00;  1.8763279E-03;  4.0000000E+04;  0.0000000E+00;  3.9663609E+04;  7.2878380E+00;  0.0000000E+00; -5.0935153E-02;  2.3623533E+04;
  8.7806046E-01;  9.9999998E-03; -1.4158949E-10;7600;  9.3290484E-01;  0.0000000E+00;  6.2124115E-09;  9.9961835E+02;  1.2309881E-01; -3.1608389E+02;3;  6.4897034E+01;  0.0000000E+00;  2.5553825E-05;0;  7.2373533E+00;  2.6628264E+04;  0.0000000E+00;  4.1704951E-12;  4.0000000E+04;  0.0000000E+00;  3.9663461E+04;  7.2929363E+00;  0.0000000E+00; -5.5582818E-02;  2.3638172E+04;
  8.7806666E-01;  9.9999998E-03;  1.0033547E-02;7601;  9.3238819E-01;  0.0000000E+00; -2.8316679E-03;  9.9963275E+02;  1.2309843E-01; -3.0413757E+02;3;  6.4691643E+01;  0.0000000E+00; -1.2032191E+00;0;  7.2369027E+00;  2.6628918E+04;  0.0000000E+00;  1.8766124E-03;  4.0000000E+04;  0.0000000E+00;  3.9663613E+04;  7.2878380E+00;  0.0000000E+00; -5.0935093E-02;  2.3623520E+04;
  8.7808537E-01;  9.9999998E-03;  2.0068927E-02;7602;  9.3090475E-01;  0.0000000E+00; -5.6789266E-03;  9.9967792E+02;  1.2309755E-01; -2.6676825E+02;3;  6.4083679E+01;  0.0000000E+00; -2.3099220E+00;0;  7.2349305E+00;  2.6630711E+04;  0.0000000E+00;  7.1037393E-03;  4.0000000E+04;  0.0000000E+00;  3.9664094E+04;  7.2723861E+00;  0.0000000E+00; -3.7455488E-02;  2.3558197E+04;
  8.7811607E-01;  9.9999998E-03;  3.0108383E-02;7603;  9.2858249E-01;  0.0000000E+00; -8.4882537E-03;  9.9974890E+02;  1.2309601E-01; -2.0797455E+02;3;  6.3081856E+01;  0.0000000E+00; -2.8297522E+00;0;  7.2296128E+00;  2.6633264E+04;  0.0000000E+00;  1.4515996E-02;  4.0000000E+04;  0.0000000E+00;  3.9665543E+04;  7.2461257E+00;  0.0000000E+00; -1.6513072E-02;  2.3381326E+04;
  8.7815815E-01;  9.9999998E-03;  4.0155057E-02;7604;  9.2564058E-01;  0.0000000E+00; -1.1094794E-02;  9.9984296E+02;  1.2309352E-01; -1.3007663E+02;3;  6.1764858E+01;  0.0000000E+00; -4.7059894E+00;0;  7.2180405E+00;  2.6635766E+04;  0.0000000E+00;  2.2308387E-02;  4.0000000E+04;  0.0000000E+00;  3.9668539E+04;  7.2083516E+00;  0.0000000E+00;  9.6888095E-03;  2.3003354E+04;
  8.7821120E-01;  9.9999998E-03;  5.0212760E-02;7605;  9.2237902E-01;  0.0000000E+00; -1.3122389E-02;  9.9995026E+02;  1.2309060E-01; -4.1219719E+01;3;  6.0140839E+01;  0.0000000E+00; -9.8349524E+00;0;  7.1963921E+00;  2.6637377E+04;  0.0000000E+00;  2.8234964E-02;  4.0000000E+04;  0.0000000E+00;  3.9673938E+04;  7.1581283E+00;  0.0000000E+00;  3.8263768E-02;  2.2323775E+04;
  8.7827557E-01;  9.9999998E-03;  6.0284775E-02;7606;  9.1920245E-01;  0.0000000E+00; -1.3202381E-02;  1.0000607E+03;  1.2308720E-01;  5.0253487E+01;3;  5.8218697E+01;  0.0000000E+00; -2.0992273E+01;0;  7.1603022E+00;  2.6636926E+04;  0.0000000E+00;  2.9928392E-02;  4.0000000E+04;  0.0000000E+00;  3.9682441E+04;  7.0944114E+00;  0.0000000E+00;  6.5890558E-02;  2.1254309E+04;
  8.9121044E-01;  9.9999998E-03; -1.0055719E-01;7651;  1.0208813E+00;  0.0000000E+00; -2.9848733E-03;  1.0001773E+03;  1.2289206E-01;  1.4680083E+02;3;  5.6149727E+01;  0.0000000E+00;  4.5479664E+01;0;  6.4123530E+00;  2.6670168E+04;  0.0000000E+00;  7.5789645E-02;  4.0000000E+04;  0.0000000E+00;  3.9756910E+04;  6.3285127E+00;  0.0000000E+00;  8.3840333E-02;  1.1854078E+04;
  8.9112520E-01;  9.9999998E-03; -9.0519331E-02;7652;  1.0224288E+00;  0.0000000E+00; -3.1896106E-03;  1.0003759E+03;  1.2289669E-01;  3.1127322E+02;3;  6.0925056E+01;  0.0000000E+00;  4.4743336E+01;0;  6.5317349E+00;  2.6693051E+04;  0.0000000E+00;  8.5901976E-02;  4.0000000E+04;  0.0000000E+00;  3.9739277E+04;  6.4500365E+00;  0.0000000E+00;  8.1698373E-02;  1.4081668E+04;
  8.9105010E-01;  9.9999998E-03; -8.0458634E-02;7653;  1.0249645E+00;  0.0000000E+00; -2.4042374E-03;  1.0004757E+03;  1.2290159E-01;  3.9400314E+02;3;  6.5377296E+01;  0.0000000E+00;  4.2090321E+01;0;  6.6274776E+00;  2.6709779E+04;  0.0000000E+00;  8.9740172E-02;  4.0000000E+04;  0.0000000E+00;  3.9723160E+04;  6.5543818E+00;  0.0000000E+00;  7.3095880E-02;  1.6110668E+04;
  8.9098740E-01;  9.9999998E-03; -7.0373341E-02;7654;  1.0282128E+00;  0.0000000E+00;  5.3415331E-03;  1.0005076E+03;  1.2290608E-01;  4.2036230E+02;3;  6.9467697E+01;  0.0000000E+00;  3.5392975E+01;0;  6.7002277E+00;  2.6720982E+04;  0.0000000E+00;  8.6619586E-02;  4.0000000E+04;  0.0000000E+00;  3.9709609E+04;  6.6421432E+00;  0.0000000E+00;  5.8084674E-02;  1.7819527E+04;
  8.9093578E-01;  9.9999998E-03; -6.0287714E-02;7655;  1.0318048E+00;  0.0000000E+00;  1.0644998E-02;  1.0004940E+03;  1.2291060E-01;  4.0910806E+02;3;  7.3110764E+01;  0.0000000E+00;  2.2035400E+01;0;  6.7514505E+00;  2.6727736E+04;  0.0000000E+00;  7.6949582E-02;  4.0000000E+04;  0.0000000E+00;  3.9699074E+04;  6.7141581E+00;  0.0000000E+00;  3.7292480E-02;  1.9127330E+04;
  8.9089245E-01;  9.9999998E-03; -5.0213940E-02;7656;  1.0354122E+00;  0.0000000E+00;  1.1333715E-02;  1.0004583E+03;  1.2291417E-01;  3.7958994E+02;3;  7.6216736E+01;  0.0000000E+00;  1.0630290E+01;0;  6.7844777E+00;  2.6731037E+04;  0.0000000E+00;  6.2302858E-02;  4.0000000E+04;  0.0000000E+00;  3.9692129E+04;  6.7717414E+00;  0.0000000E+00;  1.2736153E-02;  2.0022885E+04;
  8.9085644E-01;  9.9999998E-03; -4.0154621E-02;7657;  1.0387191E+00;  0.0000000E+00;  9.7884219E-03;  1.0004157E+03;  1.2291763E-01;  3.4424722E+02;3;  7.8739021E+01;  0.0000000E+00;  4.8657184E+00;0;  6.8036447E+00;  2.6731881E+04;  0.0000000E+00;  4.5013044E-02;  4.0000000E+04;  0.0000000E+00;  3.9687867E+04;  6.8163280E+00;  0.0000000E+00; -1.2683506E-02;  2.0557010E+04;
  8.9082748E-01;  9.9999998E-03; -3.0107290E-02;7658;  1.0414835E+00;  0.0000000E+00;  7.5099133E-03;  1.0003755E+03;  1.2292036E-01;  3.1097760E+02;3;  8.0698082E+01;  0.0000000E+00;  3.0040529E+00;0;  6.8133135E+00;  2.6731443E+04;  0.0000000E+00;  2.7759960E-02;  4.0000000E+04;  0.0000000E+00;  3.9685879E+04;  6.8493142E+00;  0.0000000E+00; -3.6000952E-02;  2.0819479E+04;
  8.9080590E-01;  9.9999998E-03; -2.0067867E-02;7659;  1.0435543E+00;  0.0000000E+00;  4.9959943E-03;  1.0003420E+03;  1.2292189E-01;  2.8323645E+02;3;  8.2089218E+01;  0.0000000E+00;  1.8922834E+00;0;  6.8172941E+00;  2.6730438E+04;  0.0000000E+00;  1.3162160E-02;  4.0000000E+04;  0.0000000E+00;  3.9685105E+04;  6.8719320E+00;  0.0000000E+00; -5.4637745E-02;  2.0912502E+04;
  8.9079255E-01;  9.9999998E-03; -1.0032929E-02;7660;  1.0448382E+00;  0.0000000E+00;  2.4834743E-03;  1.0003204E+03;  1.2292317E-01;  2.6536761E+02;3;  8.2949181E+01;  0.0000000E+00;  1.0165719E+00;0;  6.8184781E+00;  2.6729533E+04;  0.0000000E+00;  3.4192705E-03;  4.0000000E+04;  0.0000000E+00;  3.9685020E+04;  6.8851104E+00;  0.0000000E+00; -6.6632494E-02;  2.0926908E+04;
  8.9078808E-01;  9.9999998E-03; -2.0271748E-10;7661;  1.0452811E+00;  0.0000000E+00; -5.1072737E-09;  1.0003132E+03;  1.2292357E-01;  2.5944421E+02;3;  8.3236244E+01;  0.0000000E+00;  4.6175846E-05;0;  6.8186588E+00;  2.6729207E+04;  0.0000000E+00;  4.6496682E-12;  4.0000000E+04;  0.0000000E+00;  3.9685008E+04;  6.8894267E+00;  0.0000000E+00; -7.0767850E-02;  2.0924467E+04;
  8.9079255E-01;  9.9999998E-03;  1.0032929E-02;7662;  1.0448381E+00;  0.0000000E+00; -2.4834736E-03;  1.0003204E+03;  1.2292317E-01;  2.6526889E+02;3;  8.2949226E+01;  0.0000000E+00; -1.0164727E+00;0;  6.8184733E+00;  2.6729533E+04;  0.0000000E+00;  3.4195750E-03;  4.0000000E+04;  0.0000000E+00;  3.9685020E+04;  6.8851056E+00;  0.0000000E+00; -6.6632323E-02;  2.0926912E+04;
  8.9080590E-01;  9.9999998E-03;  2.0067865E-02;7663;  1.0435543E+00;  0.0000000E+00; -4.9960013E-03;  1.0003421E+03;  1.2292179E-01;  2.8333517E+02;3;  8.2089104E+01;  0.0000000E+00; -1.8922611E+00;0;  6.8172903E+00;  2.6730438E+04;  0.0000000E+00;  1.3162689E-02;  4.0000000E+04;  0.0000000E+00;  3.9685105E+04;  6.8719277E+00;  0.0000000E+00; -5.4637499E-02;  2.0912488E+04;
  8.9082748E-01;  9.9999998E-03;  3.0107286E-02;7664;  1.0414834E+00;  0.0000000E+00; -7.5098868E-03;  1.0003754E+03;  1.2292036E-01;  3.1087888E+02;3;  8.0698067E+01;  0.0000000E+00; -3.0040388E+00;0;  6.8133092E+00;  2.6731445E+04;  0.0000000E+00;  2.7760921E-02;  4.0000000E+04;  0.0000000E+00;  3.9685879E+04;  6.8493099E+00;  0.0000000E+00; -3.6000561E-02;  2.0819465E+04;
  8.9085644E-01;  9.9999998E-03;  4.0154617E-02;7665;  1.0387189E+00;  0.0000000E+00; -9.7883875E-03;  1.0004157E+03;  1.2291763E-01;  3.4424722E+02;3;  7.8739182E+01;  0.0000000E+00; -4.8657579E+00;0;  6.8036447E+00;  2.6731883E+04;  0.0000000E+00;  4.5014229E-02;  4.0000000E+04;  0.0000000E+00;  3.9687867E+04;  6.8163276E+00;  0.0000000E+00; -1.2682905E-02;  2.0557016E+04;
  8.9089245E-01;  9.9999998E-03;  5.0213937E-02;7666;  1.0354124E+00;  0.0000000E+00; -1.1333670E-02;  1.0004583E+03;  1.2291414E-01;  3.7958994E+02;3;  7.6217033E+01;  0.0000000E+00; -1.0630156E+01;0;  6.7844806E+00;  2.6731033E+04;  0.0000000E+00;  6.2303014E-02;  4.0000000E+04;  0.0000000E+00;  3.9692133E+04;  6.7717438E+00;  0.0000000E+00;  1.2736730E-02;  2.0022885E+04;
  8.9093578E-01;  9.9999998E-03;  6.0287710E-02;7667;  1.0318053E+00;  0.0000000E+00; -1.0644976E-02;  1.0004940E+03;  1.2291066E-01;  4.0910806E+02;3;  7.3110878E+01;  0.0000000E+00; -2.2035423E+01;0;  6.7514553E+00;  2.6727740E+04;  0.0000000E+00;  7.6950952E-02;  4.0000000E+04;  0.0000000E+00;  3.9699074E+04;  6.7141619E+00;  0.0000000E+00;  3.7293255E-02;  1.9127357E+04;
  9.0375572E-01;  9.9999998E-03; -1.0050970E-01;7712;  1.1104534E+00;  0.0000000E+00;  1.9154141E-03;  1.0004781E+03;  1.2258410E-01;  3.9594418E+02;3;  6.2712681E+01;  0.0000000E+00;  4.1748493E+01;0;  5.8324089E+00;  2.6809932E+04;  0.0000000E+00;  1.1082135E-01;  4.0000000E+04;  0.0000000E+00;  3.9770516E+04;  5.7791195E+00;  0.0000000E+00;  5.3289503E-02;  1.0183355E+04;
  9.0371978E-01;  9.9999998E-03; -9.0470113E-02;7713;  1.1167421E+00;  0.0000000E+00;  1.6642903E-03;  1.0008107E+03;  1.2258811E-01;  6.7135809E+02;3;  7.0125542E+01;  0.0000000E+00;  4.1222534E+01;0;  5.9317698E+00;  2.6838061E+04;  0.0000000E+00;  1.1623629E-01;  4.0000000E+04;  0.0000000E+00;  3.9755719E+04;  5.8812542E+00;  0.0000000E+00;  5.0515585E-02;  1.2073905E+04;
  9.0368646E-01;  9.9999998E-03; -8.0424830E-02;7714;  1.1230571E+00;  0.0000000E+00;  1.1029057E-03;  1.0010519E+03;  1.2259235E-01;  8.7105786E+02;3;  7.6751457E+01;  0.0000000E+00;  4.0582912E+01;0;  6.0098362E+00;  2.6860408E+04;  0.0000000E+00;  1.1596901E-01;  4.0000000E+04;  0.0000000E+00;  3.9742230E+04;  5.9674869E+00;  0.0000000E+00;  4.2349122E-02;  1.3783752E+04;
  9.0365797E-01;  9.9999998E-03; -7.0359416E-02;7715;  1.1295308E+00;  0.0000000E+00;  2.0254827E-03;  1.0012267E+03;  1.2259659E-01;  1.0157737E+03;3;  8.2812622E+01;  0.0000000E+00;  3.4380955E+01;0;  6.0674577E+00;  2.6877590E+04;  0.0000000E+00;  1.0885354E-01;  4.0000000E+04;  0.0000000E+00;  3.9731004E+04;  6.0386639E+00;  0.0000000E+00;  2.8793944E-02;  1.5213985E+04;
  9.0363187E-01;  9.9999998E-03; -6.0280465E-02;7716;  1.1352562E+00;  0.0000000E+00;  7.0969737E-03;  1.0013468E+03;  1.2260053E-01;  1.1152783E+03;3;  8.8204124E+01;  0.0000000E+00;  2.2975264E+01;0;  6.1066461E+00;  2.6890125E+04;  0.0000000E+00;  9.5094085E-02;  4.0000000E+04;  0.0000000E+00;  3.9722348E+04;  6.0960364E+00;  0.0000000E+00;  1.0609674E-02;  1.6298261E+04;
  9.0360689E-01;  9.9999998E-03; -5.0208002E-02;7717;  1.1401452E+00;  0.0000000E+00;  8.8988813E-03;  1.0014315E+03;  1.2260402E-01;  1.1853660E+03;3;  9.2484009E+01;  0.0000000E+00;  1.1584652E+01;0;  6.1303787E+00;  2.6898789E+04;  0.0000000E+00;  7.6289937E-02;  4.0000000E+04;  0.0000000E+00;  3.9716738E+04;  6.1410055E+00;  0.0000000E+00; -1.0626616E-02;  1.7022955E+04;
  9.0358329E-01;  9.9999998E-03; -4.0148560E-02;7718;  1.1441979E+00;  0.0000000E+00;  8.0793872E-03;  1.0014922E+03;  1.2260689E-01;  1.2357107E+03;3;  9.5887756E+01;  0.0000000E+00;  5.0008216E+00;0;  6.1425424E+00;  2.6904396E+04;  0.0000000E+00;  5.4875247E-02;  4.0000000E+04;  0.0000000E+00;  3.9713582E+04;  6.1750917E+00;  0.0000000E+00; -3.2549459E-02;  1.7430906E+04;
  9.0356201E-01;  9.9999998E-03; -3.0101817E-02;7719;  1.1473318E+00;  0.0000000E+00;  6.2175435E-03;  1.0015350E+03;  1.2260922E-01;  1.2710508E+03;3;  9.8481598E+01;  0.0000000E+00;  2.2370760E+00;0;  6.1472034E+00;  2.6907885E+04;  0.0000000E+00;  3.3781696E-02;  4.0000000E+04;  0.0000000E+00;  3.9712316E+04;  6.1998482E+00;  0.0000000E+00; -5.2644793E-02;  1.7603623E+04;
  9.0354508E-01;  9.9999998E-03; -2.0063831E-02;7720;  1.1495390E+00;  0.0000000E+00;  4.1105994E-03;  1.0015653E+03;  1.2261107E-01;  1.2962231E+03;3;  1.0035379E+02;  0.0000000E+00;  1.0609089E+00;0;  6.1478295E+00;  2.6909732E+04;  0.0000000E+00;  1.6008180E-02;  4.0000000E+04;  0.0000000E+00;  3.9712117E+04;  6.2165313E+00;  0.0000000E+00; -6.8701625E-02;  1.7636887E+04;
  9.0353417E-01;  9.9999998E-03; -1.0030835E-02;7721;  1.1508454E+00;  0.0000000E+00;  2.0308590E-03;  1.0015831E+03;  1.2261219E-01;  1.3109318E+03;3;  1.0146310E+02;  0.0000000E+00;  2.2758988E-01;0;  6.1471014E+00;  2.6910650E+04;  0.0000000E+00;  4.1582496E-03;  4.0000000E+04;  0.0000000E+00;  3.9712289E+04;  6.2261362E+00;  0.0000000E+00; -7.9034656E-02;  1.7617221E+04;
  9.0353042E-01;  9.9999998E-03; -1.3897622E-10;7722;  1.1512843E+00;  0.0000000E+00; -6.2088489E-08;  1.0015882E+03;  1.2261264E-01;  1.3151765E+03;3;  1.0183199E+02;  0.0000000E+00;  3.8898248E-05;0;  6.1466708E+00;  2.6910881E+04;  0.0000000E+00;  6.3973571E-13;  4.0000000E+04;  0.0000000E+00;  3.9712395E+04;  6.2292681E+00;  0.0000000E+00; -8.2597196E-02;  1.7603713E+04;
  9.0353417E-01;  9.9999998E-03;  1.0030835E-02;7723;  1.1508459E+00;  0.0000000E+00; -2.0309759E-03;  1.0015831E+03;  1.2261219E-01;  1.3109318E+03;3;  1.0146333E+02;  0.0000000E+00; -2.2751552E-01;0;  6.1471038E+00;  2.6910654E+04;  0.0000000E+00;  4.1588061E-03;  4.0000000E+04;  0.0000000E+00;  3.9712285E+04;  6.2261381E+00;  0.0000000E+00; -7.9034388E-02;  1.7617207E+04;
  9.0354508E-01;  9.9999998E-03;  2.0063829E-02;7724;  1.1495390E+00;  0.0000000E+00; -4.1106958E-03;  1.0015654E+03;  1.2261104E-01;  1.2963219E+03;3;  1.0035366E+02;  0.0000000E+00; -1.0608271E+00;0;  6.1478238E+00;  2.6909729E+04;  0.0000000E+00;  1.6008776E-02;  4.0000000E+04;  0.0000000E+00;  3.9712117E+04;  6.2165251E+00;  0.0000000E+00; -6.8701327E-02;  1.7636869E+04;
  9.0356201E-01;  9.9999998E-03;  3.0101817E-02;7725;  1.1473318E+00;  0.0000000E+00; -6.2176241E-03;  1.0015349E+03;  1.2260933E-01;  1.2709520E+03;3;  9.8481804E+01;  0.0000000E+00; -2.2370679E+00;0;  6.1472025E+00;  2.6907881E+04;  0.0000000E+00;  3.3782866E-02;  4.0000000E+04;  0.0000000E+00;  3.9712316E+04;  6.1998467E+00;  0.0000000E+00; -5.2644443E-02;  1.7603611E+04;
  9.0358329E-01;  9.9999998E-03;  4.0148560E-02;7726;  1.1441979E+00;  0.0000000E+00; -8.0794729E-03;  1.0014922E+03;  1.2260689E-01;  1.2357107E+03;3;  9.5887962E+01;  0.0000000E+00; -5.0007892E+00;0;  6.1425452E+00;  2.6904395E+04;  0.0000000E+00;  5.4876674E-02;  4.0000000E+04;  0.0000000E+00;  3.9713582E+04;  6.1750941E+00;  0.0000000E+00; -3.2548934E-02;  1.7430904E+04;
  9.0360689E-01;  9.9999998E-03;  5.0208002E-02;7727;  1.1401451E+00;  0.0000000E+00; -8.8990116E-03;  1.0014314E+03;  1.2260394E-01;  1.1852672E+03;3;  9.2483757E+01;  0.0000000E+00; -1.1584483E+01;0;  6.1303682E+00;  2.6898791E+04;  0.0000000E+00;  7.6290905E-02;  4.0000000E+04;  0.0000000E+00;  3.9716738E+04;  6.1409941E+00;  0.0000000E+00; -1.0625850E-02;  1.7022961E+04;
  9.0363187E-01;  9.9999998E-03;  6.0280461E-02;7728;  1.1352555E+00;  0.0000000E+00; -7.0971516E-03;  1.0013467E+03;  1.2260045E-01;  1.1151796E+03;3;  8.8204475E+01;  0.0000000E+00; -2.2975069E+01;0;  6.1066465E+00;  2.6890127E+04;  0.0000000E+00;  9.5096260E-02;  4.0000000E+04;  0.0000000E+00;  3.9722348E+04;  6.0960360E+00;  0.0000000E+00;  1.0610560E-02;  1.6298271E+04;
  9.1632313E-01;  9.9999998E-03; -1.0041363E-01;7773;  1.1855972E+00;  0.0000000E+00;  7.2205872E-03;  1.0010143E+03;  1.2215135E-01;  8.3977893E+02;3;  7.0689339E+01;  0.0000000E+00;  3.4021194E+01;0;  5.1162810E+00;  2.7012461E+04;  0.0000000E+00;  5.0654810E-02;  4.0000000E+04;  0.0000000E+00;  3.9787676E+04;  5.0899649E+00;  0.0000000E+00;  2.6316231E-02;  8.1621885E+03;
  9.1634154E-01;  9.9999998E-03; -9.0374433E-02;7774;  1.1975847E+00;  0.0000000E+00;  7.2176685E-03;  1.0014963E+03;  1.2215400E-01;  1.2389403E+03;3;  8.0364098E+01;  0.0000000E+00;  3.3123440E+01;0;  5.1829920E+00;  2.7046318E+04;  0.0000000E+00;  5.4913208E-02;  4.0000000E+04;  0.0000000E+00;  3.9776152E+04;  5.1603541E+00;  0.0000000E+00;  2.2637907E-02;  9.6432402E+03;
  9.1635650E-01;  9.9999998E-03; -8.0340832E-02;7775;  1.2085265E+00;  0.0000000E+00;  6.9571603E-03;  1.0018998E+03;  1.2215702E-01;  1.5730551E+03;3;  8.8974747E+01;  0.0000000E+00;  3.1805149E+01;0;  5.2323775E+00;  2.7075400E+04;  0.0000000E+00;  5.8753233E-02;  4.0000000E+04;  0.0000000E+00;  3.9765715E+04;  5.2176728E+00;  0.0000000E+00;  1.4704904E-02;  1.0985151E+04;
  9.1636783E-01;  9.9999998E-03; -7.0298813E-02;7776;  1.2189591E+00;  0.0000000E+00;  6.3843476E-03;  1.0022308E+03;  1.2215947E-01;  1.8470588E+03;3;  9.6558319E+01;  0.0000000E+00;  3.0108402E+01;0;  5.2655239E+00;  2.7099535E+04;  0.0000000E+00;  5.9385482E-02;  4.0000000E+04;  0.0000000E+00;  3.9756949E+04;  5.2629318E+00;  0.0000000E+00;  2.5918817E-03;  1.2112548E+04;
  9.1637468E-01;  9.9999998E-03; -6.0239557E-02;7777;  1.2286986E+00;  0.0000000E+00;  6.7922934E-03;  1.0025051E+03;  1.2216219E-01;  2.0742766E+03;3;  1.0337637E+02;  0.0000000E+00;  2.2646864E+01;0;  5.2844305E+00;  2.7119035E+04;  0.0000000E+00;  5.5296123E-02;  4.0000000E+04;  0.0000000E+00;  3.9750297E+04;  5.2975230E+00;  0.0000000E+00; -1.3092611E-02;  1.2970042E+04;
  9.1637492E-01;  9.9999998E-03; -5.0176676E-02;7778;  1.2363925E+00;  0.0000000E+00;  7.4950489E-03;  1.0027300E+03;  1.2216484E-01;  2.2604336E+03;3;  1.0911325E+02;  0.0000000E+00;  1.2827092E+01;0;  5.2922707E+00;  2.7134305E+04;  0.0000000E+00;  4.6706412E-02;  4.0000000E+04;  0.0000000E+00;  3.9745949E+04;  5.3233018E+00;  0.0000000E+00; -3.1030999E-02;  1.3540814E+04;
  9.1636980E-01;  9.9999998E-03; -4.0122751E-02;7779;  1.2422857E+00;  0.0000000E+00;  6.8199141E-03;  1.0029089E+03;  1.2216653E-01;  2.4084905E+03;3;  1.1352411E+02;  0.0000000E+00;  6.2615337E+00;0;  5.2924719E+00;  2.7145703E+04;  0.0000000E+00;  3.4984771E-02;  4.0000000E+04;  0.0000000E+00;  3.9743590E+04;  5.3418446E+00;  0.0000000E+00; -4.9372800E-02;  1.3852872E+04;
  9.1636086E-01;  9.9999998E-03; -3.0081417E-02;7780;  1.2466230E+00;  0.0000000E+00;  5.2531944E-03;  1.0030470E+03;  1.2216839E-01;  2.5228894E+03;3;  1.1682609E+02;  0.0000000E+00;  4.0406651E+00;0;  5.2885256E+00;  2.7153865E+04;  0.0000000E+00;  2.2211270E-02;  4.0000000E+04;  0.0000000E+00;  3.9742773E+04;  5.3546481E+00;  0.0000000E+00; -6.6122502E-02;  1.3970854E+04;
  9.1635120E-01;  9.9999998E-03; -2.0049773E-02;7781;  1.2495580E+00;  0.0000000E+00;  3.5157041E-03;  1.0031450E+03;  1.2216971E-01;  2.6040247E+03;3;  1.1915074E+02;  0.0000000E+00;  3.2627847E+00;0;  5.2834563E+00;  2.7159250E+04;  0.0000000E+00;  1.0756969E-02;  4.0000000E+04;  0.0000000E+00;  3.9742832E+04;  5.3629446E+00;  0.0000000E+00; -7.9488225E-02;  1.3975885E+04;
  9.1634399E-01;  9.9999998E-03; -1.0023667E-02;7782;  1.2512387E+00;  0.0000000E+00;  1.7558843E-03;  1.0032045E+03;  1.2217009E-01;  2.6532783E+03;3;  1.2050481E+02;  0.0000000E+00;  1.7463366E+00;0;  5.2794828E+00;  2.7162301E+04;  0.0000000E+00;  2.8304548E-03;  4.0000000E+04;  0.0000000E+00;  3.9743164E+04;  5.3675694E+00;  0.0000000E+00; -8.8086694E-02;  1.3943597E+04;
  9.1634136E-01;  9.9999998E-03; -2.0656012E-10;7783;  1.2517881E+00;  0.0000000E+00; -1.0127027E-07;  1.0032245E+03;  1.2217031E-01;  2.6698611E+03;3;  1.2094081E+02;  0.0000000E+00;  3.3477616E-05;0;  5.2780037E+00;  2.7163309E+04;  0.0000000E+00; -2.7208090E-12;  4.0000000E+04;  0.0000000E+00;  3.9743277E+04;  5.3690548E+00;  0.0000000E+00; -9.1050960E-02;  1.3926636E+04;
  9.1634399E-01;  9.9999998E-03;  1.0023667E-02;7784;  1.2512387E+00;  0.0000000E+00; -1.7560838E-03;  1.0032047E+03;  1.2217005E-01;  2.6534758E+03;3;  1.2050476E+02;  0.0000000E+00; -1.7462376E+00;0;  5.2794747E+00;  2.7162297E+04;  0.0000000E+00;  2.8308090E-03;  4.0000000E+04;  0.0000000E+00;  3.9743164E+04;  5.3675613E+00;  0.0000000E+00; -8.8086605E-02;  1.3943591E+04;
  9.1635120E-01;  9.9999998E-03;  2.0049771E-02;7785;  1.2495582E+00;  0.0000000E+00; -3.5159022E-03;  1.0031449E+03;  1.2216932E-01;  2.6039260E+03;3;  1.1915095E+02;  0.0000000E+00; -3.2626338E+00;0;  5.2834578E+00;  2.7159246E+04;  0.0000000E+00;  1.0757595E-02;  4.0000000E+04;  0.0000000E+00;  3.9742832E+04;  5.3629456E+00;  0.0000000E+00; -7.9487994E-02;  1.3975868E+04;
  9.1636086E-01;  9.9999998E-03;  3.0081417E-02;7786;  1.2466229E+00;  0.0000000E+00; -5.2534090E-03;  1.0030470E+03;  1.2216839E-01;  2.5228894E+03;3;  1.1682607E+02;  0.0000000E+00; -4.0404444E+00;0;  5.2885289E+00;  2.7153857E+04;  0.0000000E+00;  2.2212442E-02;  4.0000000E+04;  0.0000000E+00;  3.9742773E+04;  5.3546510E+00;  0.0000000E+00; -6.6122070E-02;  1.3970832E+04;
  9.1636980E-01;  9.9999998E-03;  4.0122751E-02;7787;  1.2422855E+00;  0.0000000E+00; -6.8201218E-03;  1.0029088E+03;  1.2216653E-01;  2.4084905E+03;3;  1.1352410E+02;  0.0000000E+00; -6.2614675E+00;0;  5.2924700E+00;  2.7145701E+04;  0.0000000E+00;  3.4986537E-02;  4.0000000E+04;  0.0000000E+00;  3.9743590E+04;  5.3418422E+00;  0.0000000E+00; -4.9372204E-02;  1.3852881E+04;
  9.1637498E-01;  9.9999998E-03;  5.0176676E-02;7788;  1.2363924E+00;  0.0000000E+00; -7.4952785E-03;  1.0027300E+03;  1.2216483E-01;  2.2604336E+03;3;  1.0911366E+02;  0.0000000E+00; -1.2826904E+01;0;  5.2922735E+00;  2.7134303E+04;  0.0000000E+00;  4.6706799E-02;  4.0000000E+04;  0.0000000E+00;  3.9745949E+04;  5.3233037E+00;  0.0000000E+00; -3.1030245E-02;  1.3540805E+04;
  9.1637468E-01;  9.9999998E-03;  6.0239557E-02;7789;  1.2286983E+00;  0.0000000E+00; -6.7924871E-03;  1.0025051E+03;  1.2216219E-01;  2.0742766E+03;3;  1.0337642E+02;  0.0000000E+00; -2.2646723E+01;0;  5.2844310E+00;  2.7119031E+04;  0.0000000E+00;  5.5297744E-02;  4.0000000E+04;  0.0000000E+00;  3.9750297E+04;  5.2975225E+00;  0.0000000E+00; -1.3091706E-02;  1.2970049E+04;
  9.2885596E-01;  9.9999998E-03; -1.0027631E-01;7834;  1.2461510E+00;  0.0000000E+00;  1.1212288E-02;  1.0016641E+03;  1.2160734E-01;  1.3776506E+03;3;  8.0957642E+01;  0.0000000E+00;  2.1404593E+01;0;  4.3242311E+00;  2.7269254E+04;  0.0000000E+00; -6.5386951E-02;  4.0000000E+04;  0.0000000E+00;  3.9807406E+04;  4.3211040E+00;  0.0000000E+00;  3.1271379E-03;  5.8748911E+03;
  9.2891783E-01;  9.9999998E-03; -9.0251245E-02;7835;  1.2637435E+00;  0.0000000E+00;  1.1363194E-02;  1.0022490E+03;  1.2160792E-01;  1.8619342E+03;3;  9.2478020E+01;  0.0000000E+00;  2.0606577E+01;0;  4.3515334E+00;  2.7306760E+04;  0.0000000E+00; -6.5715224E-02;  4.0000000E+04;  0.0000000E+00;  3.9799426E+04;  4.3529048E+00;  0.0000000E+00; -1.3713042E-03;  6.9223296E+03;
  9.2897046E-01;  9.9999998E-03; -8.0230422E-02;7836;  1.2790204E+00;  0.0000000E+00;  1.1322085E-02;  1.0027717E+03;  1.2160835E-01;  2.2946997E+03;3;  1.0264222E+02;  0.0000000E+00;  1.8739853E+01;0;  4.3666615E+00;  2.7340514E+04;  0.0000000E+00; -5.7341639E-02;  4.0000000E+04;  0.0000000E+00;  3.9792113E+04;  4.3756928E+00;  0.0000000E+00; -9.0313144E-03;  7.8911792E+03;
  9.2901349E-01;  9.9999998E-03; -7.0206739E-02;7837;  1.2933890E+00;  0.0000000E+00;  1.1248956E-02;  1.0032316E+03;  1.2160923E-01;  2.6753557E+03;3;  1.1138268E+02;  0.0000000E+00;  1.5415046E+01;0;  4.3706627E+00;  2.7370137E+04;  0.0000000E+00; -4.4621389E-02;  4.0000000E+04;  0.0000000E+00;  3.9785738E+04;  4.3904128E+00;  0.0000000E+00; -1.9749904E-02;  8.7261162E+03;
  9.2904198E-01;  9.9999998E-03; -6.0173146E-02;7838;  1.3076174E+00;  0.0000000E+00;  1.0602696E-02;  1.0036252E+03;  1.2160988E-01;  3.0012371E+03;3;  1.1887287E+02;  0.0000000E+00;  1.2121663E+01;0;  4.3656950E+00;  2.7395340E+04;  0.0000000E+00; -3.1171400E-02;  4.0000000E+04;  0.0000000E+00;  3.9780730E+04;  4.3986692E+00;  0.0000000E+00; -3.2974403E-02;  9.3817832E+03;
  9.2904645E-01;  9.9999998E-03; -5.0130390E-02;7839;  1.3192106E+00;  0.0000000E+00;  9.5112640E-03;  1.0039563E+03;  1.2161084E-01;  3.2754048E+03;3;  1.2493784E+02;  0.0000000E+00;  9.4335184E+00;0;  4.3555775E+00;  2.7415969E+04;  0.0000000E+00; -1.9384015E-02;  4.0000000E+04;  0.0000000E+00;  3.9777371E+04;  4.4032798E+00;  0.0000000E+00; -4.7702480E-02;  9.8363301E+03;
  9.2903638E-01;  9.9999998E-03; -4.0089335E-02;7840;  1.3278853E+00;  0.0000000E+00;  8.0449879E-03;  1.0042260E+03;  1.2161191E-01;  3.4986472E+03;3;  1.2970439E+02;  0.0000000E+00;  7.3384647E+00;0;  4.3428144E+00;  2.7432201E+04;  0.0000000E+00; -1.0524791E-02;  4.0000000E+04;  0.0000000E+00;  3.9775500E+04;  4.4053922E+00;  0.0000000E+00; -6.2577590E-02;  1.0097835E+04;
  9.2902178E-01;  9.9999998E-03; -3.0057305E-02;7841;  1.3340672E+00;  0.0000000E+00;  6.2260483E-03;  1.0044382E+03;  1.2161265E-01;  3.6743206E+03;3;  1.3348167E+02;  0.0000000E+00;  5.2927451E+00;0;  4.3297443E+00;  2.7444344E+04;  0.0000000E+00; -4.8077889E-03;  4.0000000E+04;  0.0000000E+00;  3.9774836E+04;  4.4058399E+00;  0.0000000E+00; -7.6095574E-02;  1.0206152E+04;
  9.2900807E-01;  9.9999998E-03; -2.0033903E-02;7842;  1.3381853E+00;  0.0000000E+00;  4.2227446E-03;  1.0045898E+03;  1.2161312E-01;  3.7998577E+03;3;  1.3623897E+02;  0.0000000E+00;  3.1010010E+00;0;  4.3185873E+00;  2.7452732E+04;  0.0000000E+00; -1.7024672E-03;  4.0000000E+04;  0.0000000E+00;  3.9774859E+04;  4.4054537E+00;  0.0000000E+00; -8.6866140E-02;  1.0220519E+04;
  9.2899835E-01;  9.9999998E-03; -1.0015798E-02;7843;  1.3405467E+00;  0.0000000E+00;  2.1113523E-03;  1.0046822E+03;  1.2161376E-01;  3.8763452E+03;3;  1.3791624E+02;  0.0000000E+00;  1.2346413E+00;0;  4.3111496E+00;  2.7457619E+04;  0.0000000E+00; -3.5147389E-04;  4.0000000E+04;  0.0000000E+00;  3.9775105E+04;  4.4049425E+00;  0.0000000E+00; -9.3793020E-02;  1.0200417E+04;
  9.2899477E-01;  9.9999998E-03; -6.7103395E-10;7844;  1.3413163E+00;  0.0000000E+00; -1.4552734E-07;  1.0047121E+03;  1.2161407E-01;  3.9011172E+03;3;  1.3847247E+02;  0.0000000E+00; -6.4221647E-05;0;  4.3085518E+00;  2.7459240E+04;  0.0000000E+00; -7.8608162E-12;  4.0000000E+04;  0.0000000E+00;  3.9775227E+04;  4.4047332E+00;  0.0000000E+00; -9.6181162E-02;  1.0188627E+04;
  9.2899835E-01;  9.9999998E-03;  1.0015796E-02;7845;  1.3405467E+00;  0.0000000E+00; -2.1116422E-03;  1.0046822E+03;  1.2161376E-01;  3.8763452E+03;3;  1.3791638E+02;  0.0000000E+00; -1.2347063E+00;0;  4.3111515E+00;  2.7457623E+04;  0.0000000E+00; -3.5102954E-04;  4.0000000E+04;  0.0000000E+00;  3.9775105E+04;  4.4049444E+00;  0.0000000E+00; -9.3792841E-02;  1.0200424E+04;
  9.2900807E-01;  9.9999998E-03;  2.0033903E-02;7846;  1.3381850E+00;  0.0000000E+00; -4.2230273E-03;  1.0045898E+03;  1.2161312E-01;  3.7998577E+03;3;  1.3623888E+02;  0.0000000E+00; -3.1011362E+00;0;  4.3185897E+00;  2.7452730E+04;  0.0000000E+00; -1.7017904E-03;  4.0000000E+04;  0.0000000E+00;  3.9774863E+04;  4.4054556E+00;  0.0000000E+00; -8.6865924E-02;  1.0220511E+04;
  9.2902178E-01;  9.9999998E-03;  3.0057305E-02;7847;  1.3340667E+00;  0.0000000E+00; -6.2263217E-03;  1.0044382E+03;  1.2161261E-01;  3.6744194E+03;3;  1.3348189E+02;  0.0000000E+00; -5.2927732E+00;0;  4.3297377E+00;  2.7444342E+04;  0.0000000E+00; -4.8069819E-03;  4.0000000E+04;  0.0000000E+00;  3.9774836E+04;  4.4058328E+00;  0.0000000E+00; -7.6095231E-02;  1.0206138E+04;
  9.2903638E-01;  9.9999998E-03;  4.0089332E-02;7848;  1.3278848E+00;  0.0000000E+00; -8.0452459E-03;  1.0042260E+03;  1.2161191E-01;  3.4986472E+03;3;  1.2970461E+02;  0.0000000E+00; -7.3384991E+00;0;  4.3428197E+00;  2.7432199E+04;  0.0000000E+00; -1.0524156E-02;  4.0000000E+04;  0.0000000E+00;  3.9775496E+04;  4.4053965E+00;  0.0000000E+00; -6.2576994E-02;  1.0097825E+04;
  9.2904645E-01;  9.9999998E-03;  5.0130390E-02;7849;  1.3192105E+00;  0.0000000E+00; -9.5115257E-03;  1.0039565E+03;  1.2161081E-01;  3.2755034E+03;3;  1.2493781E+02;  0.0000000E+00; -9.4334974E+00;0;  4.3555698E+00;  2.7415967E+04;  0.0000000E+00; -1.9383591E-02;  4.0000000E+04;  0.0000000E+00;  3.9777371E+04;  4.4032717E+00;  0.0000000E+00; -4.7701854E-02;  9.8363330E+03;
  9.2904198E-01;  9.9999998E-03;  6.0173143E-02;7850;  1.3076165E+00;  0.0000000E+00; -1.0602887E-02;  1.0036254E+03;  1.2160986E-01;  3.0014346E+03;3;  1.1887276E+02;  0.0000000E+00; -1.2121725E+01;0;  4.3656859E+00;  2.7395334E+04;  0.0000000E+00; -3.1170297E-02;  4.0000000E+04;  0.0000000E+00;  3.9780730E+04;  4.3986597E+00;  0.0000000E+00; -3.2973547E-02;  9.3817793E+03;
  9.4085473E-01;  9.9999998E-03; -1.0015292E-01;7895;  1.2907517E+00;  0.0000000E+00;  1.1633818E-02;  1.0020874E+03;  1.2097295E-01;  1.7278669E+03;3;  9.1944168E+01;  0.0000000E+00;  9.6566963E+00;0;  3.5455306E+00;  2.7559602E+04;  0.0000000E+00; -1.4359029E-01;  4.0000000E+04;  0.0000000E+00;  3.9828207E+04;  3.5612886E+00;  0.0000000E+00; -1.5758026E-02;  3.4894355E+03;
  9.4081342E-01;  9.9999998E-03; -9.0150975E-02;7896;  1.3098171E+00;  0.0000000E+00;  1.1755149E-02;  1.0026656E+03;  1.2097286E-01;  2.2065593E+03;3;  1.0437052E+02;  0.0000000E+00;  8.3474312E+00;0;  3.5445390E+00;  2.7594775E+04;  0.0000000E+00; -1.5410830E-01;  4.0000000E+04;  0.0000000E+00;  3.9823312E+04;  3.5650775E+00;  0.0000000E+00; -2.0538593E-02;  4.1600298E+03;
  9.4079024E-01;  9.9999998E-03; -8.0147080E-02;7897;  1.3295339E+00;  0.0000000E+00;  1.1588361E-02;  1.0032040E+03;  1.2097279E-01;  2.6521941E+03;3;  1.1431481E+02;  0.0000000E+00;  7.1989474E+00;0;  3.5346341E+00;  2.7628021E+04;  0.0000000E+00; -1.4845964E-01;  4.0000000E+04;  0.0000000E+00;  3.9818414E+04;  3.5622163E+00;  0.0000000E+00; -2.7582206E-02;  4.8158125E+03;
  9.4076693E-01;  9.9999998E-03; -7.0137344E-02;7898;  1.3453944E+00;  0.0000000E+00;  1.0753112E-02;  1.0036920E+03;  1.2097249E-01;  3.0560879E+03;3;  1.1845398E+02;  0.0000000E+00;  3.3506544E+00;0;  3.5186648E+00;  2.7658229E+04;  0.0000000E+00; -1.3091752E-01;  4.0000000E+04;  0.0000000E+00;  3.9814020E+04;  3.5554481E+00;  0.0000000E+00; -3.6783252E-02;  5.4161602E+03;
  9.4074929E-01;  9.9999998E-03; -6.0115628E-02;7899;  1.3550371E+00;  0.0000000E+00;  8.9857960E-03;  1.0041209E+03;  1.2097263E-01;  3.4112341E+03;3;  9.0062706E+01;  0.0000000E+00;  5.4240078E-01;0;  3.4981849E+00;  2.7684846E+04;  0.0000000E+00; -1.0629150E-01;  4.0000000E+04;  0.0000000E+00;  3.9810266E+04;  3.5459116E+00;  0.0000000E+00; -4.7726680E-02;  5.9180825E+03;
  9.4073796E-01;  9.9999998E-03; -5.0089728E-02;7900;  1.3577949E+00;  0.0000000E+00;  7.4437507E-03;  1.0044885E+03;  1.2097249E-01;  3.7154622E+03;3;  7.5479507E+01;  0.0000000E+00;  3.1585193E-01;0;  3.4757185E+00;  2.7707441E+04;  0.0000000E+00; -7.9018198E-02;  4.0000000E+04;  0.0000000E+00;  3.9807512E+04;  3.5354054E+00;  0.0000000E+00; -5.9686814E-02;  6.2938047E+03;
  9.4072610E-01;  9.9999998E-03; -4.0062115E-02;7901;  1.3590910E+00;  0.0000000E+00;  5.9527699E-03;  1.0047945E+03;  1.2097228E-01;  3.9687715E+03;3;  7.3694038E+01;  0.0000000E+00; -1.3128854E-01;0;  3.4533443E+00;  2.7725785E+04;  0.0000000E+00; -5.2819844E-02;  4.0000000E+04;  0.0000000E+00;  3.9805812E+04;  3.5249774E+00;  0.0000000E+00; -7.1633197E-02;  6.5363306E+03;
  9.4071156E-01;  9.9999998E-03; -3.0037496E-02;7902;  1.3599845E+00;  0.0000000E+00;  4.4693043E-03;  1.0050345E+03;  1.2097245E-01;  4.1675117E+03;3;  7.3702187E+01;  0.0000000E+00; -4.9753723E-01;0;  3.4334245E+00;  2.7739881E+04;  0.0000000E+00; -3.0480068E-02;  4.0000000E+04;  0.0000000E+00;  3.9804969E+04;  3.5158553E+00;  0.0000000E+00; -8.2430944E-02;  6.6631357E+03;
  9.4069672E-01;  9.9999998E-03; -2.0020168E-02;7903;  1.3605978E+00;  0.0000000E+00;  2.9950740E-03;  1.0052068E+03;  1.2097250E-01;  4.3101040E+03;3;  7.3869461E+01;  0.0000000E+00; -6.4644635E-01;0;  3.4178803E+00;  2.7749775E+04;  0.0000000E+00; -1.3728737E-02;  4.0000000E+04;  0.0000000E+00;  3.9804797E+04;  3.5088935E+00;  0.0000000E+00; -9.1013275E-02;  6.7103975E+03;
  9.4068593E-01;  9.9999998E-03; -1.0008688E-02;7904;  1.3609536E+00;  0.0000000E+00;  1.5190616E-03;  1.0053112E+03;  1.2097250E-01;  4.3965474E+03;3;  7.3961945E+01;  0.0000000E+00; -6.0005802E-01;0;  3.4080057E+00;  2.7755584E+04;  0.0000000E+00; -3.4523567E-03;  4.0000000E+04;  0.0000000E+00;  3.9804750E+04;  3.5045342E+00;  0.0000000E+00; -9.6528642E-02;  6.7184395E+03;
  9.4068193E-01;  9.9999998E-03; -8.9174962E-10;7905;  1.3610655E+00;  0.0000000E+00; -1.8292756E-07;  1.0053456E+03;  1.2097249E-01;  4.4249668E+03;3;  7.3860649E+01;  0.0000000E+00; -1.8248509E-05;0;  3.4046276E+00;  2.7757523E+04;  0.0000000E+00; -9.7507523E-12;  4.0000000E+04;  0.0000000E+00;  3.9804836E+04;  3.5030572E+00;  0.0000000E+00; -9.8429620E-02;  6.7174121E+03;
  9.4068593E-01;  9.9999998E-03;  1.0008686E-02;7906;  1.3609536E+00;  0.0000000E+00; -1.5194154E-03;  1.0053112E+03;  1.2097250E-01;  4.3965474E+03;3;  7.3961678E+01;  0.0000000E+00;  6.0007268E-01;0;  3.4080107E+00;  2.7755584E+04;  0.0000000E+00; -3.4519194E-03;  4.0000000E+04;  0.0000000E+00;  3.9804746E+04;  3.5045393E+00;  0.0000000E+00; -9.6528523E-02;  6.7184263E+03;
  9.4069672E-01;  9.9999998E-03;  2.0020166E-02;7907;  1.3605977E+00;  0.0000000E+00; -2.9954223E-03;  1.0052068E+03;  1.2097250E-01;  4.3101040E+03;3;  7.3869888E+01;  0.0000000E+00;  6.4653367E-01;0;  3.4178793E+00;  2.7749771E+04;  0.0000000E+00; -1.3727861E-02;  4.0000000E+04;  0.0000000E+00;  3.9804797E+04;  3.5088923E+00;  0.0000000E+00; -9.1012985E-02;  6.7104131E+03;
  9.4071156E-01;  9.9999998E-03;  3.0037494E-02;7908;  1.3599845E+00;  0.0000000E+00; -4.4696531E-03;  1.0050345E+03;  1.2097245E-01;  4.1675117E+03;3;  7.3701180E+01;  0.0000000E+00;  4.9762422E-01;0;  3.4334278E+00;  2.7739875E+04;  0.0000000E+00; -3.0479252E-02;  4.0000000E+04;  0.0000000E+00;  3.9804969E+04;  3.5158584E+00;  0.0000000E+00; -8.2430631E-02;  6.6631187E+03;
  9.4072610E-01;  9.9999998E-03;  4.0062111E-02;7909;  1.3590909E+00;  0.0000000E+00; -5.9531168E-03;  1.0047946E+03;  1.2097227E-01;  3.9688701E+03;3;  7.3693794E+01;  0.0000000E+00;  1.3133596E-01;0;  3.4533470E+00;  2.7725779E+04;  0.0000000E+00; -5.2819069E-02;  4.0000000E+04;  0.0000000E+00;  3.9805812E+04;  3.5249796E+00;  0.0000000E+00; -7.1632698E-02;  6.5363013E+03;
  9.4073796E-01;  9.9999998E-03;  5.0089724E-02;7910;  1.3577948E+00;  0.0000000E+00; -7.4440949E-03;  1.0044884E+03;  1.2097249E-01;  3.7153635E+03;3;  7.5479210E+01;  0.0000000E+00; -3.1582358E-01;0;  3.4757185E+00;  2.7707445E+04;  0.0000000E+00; -7.9017140E-02;  4.0000000E+04;  0.0000000E+00;  3.9807512E+04;  3.5354047E+00;  0.0000000E+00; -5.9686165E-02;  6.2938140E+03;
  9.4074929E-01;  9.9999998E-03;  6.0115624E-02;7911;  1.3550366E+00;  0.0000000E+00; -8.9861415E-03;  1.0041209E+03;  1.2097263E-01;  3.4112341E+03;3;  9.0064011E+01;  0.0000000E+00; -5.4261500E-01;0;  3.4981837E+00;  2.7684836E+04;  0.0000000E+00; -1.0629100E-01;  4.0000000E+04;  0.0000000E+00;  3.9810262E+04;  3.5459096E+00;  0.0000000E+00; -4.7725897E-02;  5.9180996E+03;
  9.5241737E-01;  9.9999998E-03; -1.0007899E-01;7956;  1.3309636E+00;  0.0000000E+00;  1.0748974E-02;  1.0020445E+03;  1.2026743E-01;  1.6920710E+03;3;  9.9855713E+01;  0.0000000E+00;  3.7700698E+00;0;  2.8215690E+00;  2.7864697E+04;  0.0000000E+00; -1.2041625E-01;  4.0000000E+04;  0.0000000E+00;  3.9848988E+04;  2.8530190E+00;  0.0000000E+00; -3.1450022E-02;  1.1022865E+03;
  9.5223671E-01;  9.9999998E-03; -9.0073496E-02;7957;  1.3430283E+00;  0.0000000E+00;  1.0155820E-02;  1.0025086E+03;  1.2026735E-01;  2.0762705E+03;3;  1.1045376E+02;  0.0000000E+00;  3.0998716E+00;0;  2.7997537E+00;  2.7891471E+04;  0.0000000E+00; -1.4571972E-01;  4.0000000E+04;  0.0000000E+00;  3.9846562E+04;  2.8358805E+00;  0.0000000E+00; -3.6126815E-02;  1.4536907E+03;
  9.5215344E-01;  9.9999998E-03; -8.0076568E-02;7958;  1.3531886E+00;  0.0000000E+00;  9.0762330E-03;  1.0029662E+03;  1.2026679E-01;  2.4549431E+03;3;  8.0475174E+01;  0.0000000E+00;  3.4591007E-01;0;  2.7697184E+00;  2.7918648E+04;  0.0000000E+00; -1.5351707E-01;  4.0000000E+04;  0.0000000E+00;  3.9843754E+04;  2.8120995E+00;  0.0000000E+00; -4.2381126E-02;  1.8447681E+03;
  9.5209813E-01;  9.9999998E-03; -7.0074618E-02;7959;  1.3555675E+00;  0.0000000E+00;  7.9846336E-03;  1.0033904E+03;  1.2026571E-01;  2.8060886E+03;3;  7.1295120E+01;  0.0000000E+00; -4.8112214E-01;0;  2.7369633E+00;  2.7944459E+04;  0.0000000E+00; -1.4562863E-01;  4.0000000E+04;  0.0000000E+00;  3.9840836E+04;  2.7870893E+00;  0.0000000E+00; -5.0126150E-02;  2.2484749E+03;
  9.5205700E-01;  9.9999998E-03; -6.0069948E-02;7960;  1.3570189E+00;  0.0000000E+00;  6.8608946E-03;  1.0037708E+03;  1.2026478E-01;  3.1208271E+03;3;  7.1323273E+01;  0.0000000E+00; -8.6275005E-01;0;  2.7031465E+00;  2.7967949E+04;  0.0000000E+00; -1.2564516E-01;  4.0000000E+04;  0.0000000E+00;  3.9838078E+04;  2.7621884E+00;  0.0000000E+00; -5.9042055E-02;  2.6300747E+03;
  9.5202541E-01;  9.9999998E-03; -5.0062310E-02;7961;  1.3582222E+00;  0.0000000E+00;  5.7062497E-03;  1.0041024E+03;  1.2026402E-01;  3.3953110E+03;3;  7.2013290E+01;  0.0000000E+00; -1.0245184E+00;0;  2.6701458E+00;  2.7988436E+04;  0.0000000E+00; -9.8289229E-02;  4.0000000E+04;  0.0000000E+00;  3.9835711E+04;  2.7387173E+00;  0.0000000E+00; -6.8571493E-02;  2.9554363E+03;
  9.5199531E-01;  9.9999998E-03; -4.0048942E-02;7962;  1.3592491E+00;  0.0000000E+00;  4.5727654E-03;  1.0043779E+03;  1.2026332E-01;  3.6234226E+03;3;  7.2904411E+01;  0.0000000E+00; -5.7546145E-01;0;  2.6402426E+00;  2.8005428E+04;  0.0000000E+00; -6.8538606E-02;  4.0000000E+04;  0.0000000E+00;  3.9833938E+04;  2.7182183E+00;  0.0000000E+00; -7.7975713E-02;  3.2027087E+03;
  9.5196933E-01;  9.9999998E-03; -3.0033246E-02;7963;  1.3600975E+00;  0.0000000E+00;  3.4735226E-03;  1.0045966E+03;  1.2026242E-01;  3.8043730E+03;3;  7.3359924E+01;  0.0000000E+00;  5.8826245E-03;0;  2.6149981E+00;  2.8018719E+04;  0.0000000E+00; -4.0902130E-02;  4.0000000E+04;  0.0000000E+00;  3.9832777E+04;  2.7014279E+00;  0.0000000E+00; -8.6429916E-02;  3.3675271E+03;
  9.5194948E-01;  9.9999998E-03; -2.0020064E-02;7964;  1.3607254E+00;  0.0000000E+00;  2.3432425E-03;  1.0047557E+03;  1.2026214E-01;  3.9360906E+03;3;  7.3604134E+01;  0.0000000E+00;  1.2038626E-01;0;  2.5958126E+00;  2.8028227E+04;  0.0000000E+00; -1.8884046E-02;  4.0000000E+04;  0.0000000E+00;  3.9832105E+04;  2.6889474E+00;  0.0000000E+00; -9.3134940E-02;  3.4619260E+03;
  9.5193833E-01;  9.9999998E-03; -1.0009397E-02;7965;  1.3611083E+00;  0.0000000E+00;  1.1835995E-03;  1.0048515E+03;  1.2026194E-01;  4.0153181E+03;3;  7.3742271E+01;  0.0000000E+00;  9.6965320E-02;0;  2.5837355E+00;  2.8033949E+04;  0.0000000E+00; -4.8217927E-03;  4.0000000E+04;  0.0000000E+00;  3.9831809E+04;  2.6811762E+00;  0.0000000E+00; -9.7440794E-02;  3.5060164E+03;
  9.5193493E-01;  9.9999998E-03; -1.1954946E-09;7966;  1.3612366E+00;  0.0000000E+00; -1.6645318E-07;  1.0048837E+03;  1.2026173E-01;  4.0420564E+03;3;  7.3782913E+01;  0.0000000E+00; -5.9093691E-07;0;  2.5795937E+00;  2.8035830E+04;  0.0000000E+00; -9.4764387E-12;  4.0000000E+04;  0.0000000E+00;  3.9831746E+04;  2.6785183E+00;  0.0000000E+00; -9.8924674E-02;  3.5182244E+03;
  9.5193833E-01;  9.9999998E-03;  1.0009394E-02;7967;  1.3611082E+00;  0.0000000E+00; -1.1839319E-03;  1.0048514E+03;  1.2026195E-01;  4.0153181E+03;3;  7.3743149E+01;  0.0000000E+00; -9.6938960E-02;0;  2.5837359E+00;  2.8033953E+04;  0.0000000E+00; -4.8211724E-03;  4.0000000E+04;  0.0000000E+00;  3.9831809E+04;  2.6811767E+00;  0.0000000E+00; -9.7440623E-02;  3.5060122E+03;
  9.5194948E-01;  9.9999998E-03;  2.0020062E-02;7968;  1.3607254E+00;  0.0000000E+00; -2.3435797E-03;  1.0047557E+03;  1.2026227E-01;  3.9360906E+03;3;  7.3604752E+01;  0.0000000E+00; -1.2040106E-01;0;  2.5958121E+00;  2.8028227E+04;  0.0000000E+00; -1.8882502E-02;  4.0000000E+04;  0.0000000E+00;  3.9832105E+04;  2.6889467E+00;  0.0000000E+00; -9.3134746E-02;  3.4619216E+03;
  9.5196933E-01;  9.9999998E-03;  3.0033244E-02;7969;  1.3600974E+00;  0.0000000E+00; -3.4738537E-03;  1.0045966E+03;  1.2026242E-01;  3.8043730E+03;3;  7.3358772E+01;  0.0000000E+00; -5.7910443E-03;0;  2.6149988E+00;  2.8018719E+04;  0.0000000E+00; -4.0901154E-02;  4.0000000E+04;  0.0000000E+00;  3.9832777E+04;  2.7014284E+00;  0.0000000E+00; -8.6429514E-02;  3.3675288E+03;
  9.5199531E-01;  9.9999998E-03;  4.0048942E-02;7970;  1.3592490E+00;  0.0000000E+00; -4.5730895E-03;  1.0043780E+03;  1.2026332E-01;  3.6234226E+03;3;  7.2904228E+01;  0.0000000E+00;  5.7556701E-01;0;  2.6402428E+00;  2.8005422E+04;  0.0000000E+00; -6.8537578E-02;  4.0000000E+04;  0.0000000E+00;  3.9833938E+04;  2.7182181E+00;  0.0000000E+00; -7.7975161E-02;  3.2027332E+03;
  9.5202541E-01;  9.9999998E-03;  5.0062306E-02;7971;  1.3582220E+00;  0.0000000E+00; -5.7065878E-03;  1.0041024E+03;  1.2026402E-01;  3.3954097E+03;3;  7.2012825E+01;  0.0000000E+00;  1.0245794E+00;0;  2.6701431E+00;  2.7988436E+04;  0.0000000E+00; -9.8288834E-02;  4.0000000E+04;  0.0000000E+00;  3.9835707E+04;  2.7387140E+00;  0.0000000E+00; -6.8570860E-02;  2.9554319E+03;
  9.5205700E-01;  9.9999998E-03;  6.0069948E-02;7972;  1.3570188E+00;  0.0000000E+00; -6.8612252E-03;  1.0037708E+03;  1.2026472E-01;  3.1208271E+03;3;  7.1322395E+01;  0.0000000E+00;  8.6289793E-01;0;  2.7031419E+00;  2.7967949E+04;  0.0000000E+00; -1.2564287E-01;  4.0000000E+04;  0.0000000E+00;  3.9838082E+04;  2.7621832E+00;  0.0000000E+00; -5.9041377E-02;  2.6300828E+03;
  9.6389395E-01;  9.9999998E-03; -1.0004331E-01;8017;  1.3510336E+00;  0.0000000E+00;  9.0114800E-03;  1.0014278E+03;  1.1950219E-01;  1.1814636E+03;3;  6.5795464E+01;  0.0000000E+00; -2.7253323E+00;0;  2.1699319E+00;  2.8174240E+04;  0.0000000E+00;  5.7527851E-03;  4.0000000E+04;  0.0000000E+00;  3.9868973E+04;  2.2153594E+00;  0.0000000E+00; -4.5427624E-02;  1.2470199E+03;
  9.6366024E-01;  9.9999998E-03; -9.0035915E-02;8018;  1.3525877E+00;  0.0000000E+00;  8.1338231E-03;  1.0016981E+03;  1.1950205E-01;  1.4050962E+03;3;  6.7552788E+01;  0.0000000E+00; -2.7382658E+00;0;  2.1259663E+00;  2.8188471E+04;  0.0000000E+00; -3.2743387E-02;  4.0000000E+04;  0.0000000E+00;  3.9868496E+04;  2.1757624E+00;  0.0000000E+00; -4.9796205E-02;  1.1383804E+03;
  9.6345735E-01;  9.9999998E-03; -8.0035806E-02;8019;  1.3540287E+00;  0.0000000E+00;  7.2665024E-03;  1.0019820E+03;  1.1950153E-01;  1.6400740E+03;3;  6.9008240E+01;  0.0000000E+00; -2.7183151E+00;0;  2.0827479E+00;  2.8204291E+04;  0.0000000E+00; -6.0333434E-02;  4.0000000E+04;  0.0000000E+00;  3.9867176E+04;  2.1377919E+00;  0.0000000E+00; -5.5044048E-02;  9.3774506E+02;
  9.6331942E-01;  9.9999998E-03; -7.0044070E-02;8020;  1.3553638E+00;  0.0000000E+00;  6.4006853E-03;  1.0022571E+03;  1.1950088E-01;  1.8677515E+03;3;  7.0157478E+01;  0.0000000E+00; -2.6431725E+00;0;  2.0387669E+00;  2.8220680E+04;  0.0000000E+00; -7.4439943E-02;  4.0000000E+04;  0.0000000E+00;  3.9865359E+04;  2.1000237E+00;  0.0000000E+00; -6.1256889E-02;  6.7256134E+02;
  9.6322739E-01;  9.9999998E-03; -6.0050152E-02;8021;  1.3566127E+00;  0.0000000E+00;  5.5637034E-03;  1.0025110E+03;  1.1949977E-01;  2.0778696E+03;3;  7.1258957E+01;  0.0000000E+00; -2.2206557E+00;0;  1.9957690E+00;  2.8236385E+04;  0.0000000E+00; -7.5254895E-02;  4.0000000E+04;  0.0000000E+00;  3.9863148E+04;  2.0640008E+00;  0.0000000E+00; -6.8231873E-02;  3.7760858E+02;
  9.6315753E-01;  9.9999998E-03; -5.0051372E-02;8022;  1.3577280E+00;  0.0000000E+00;  4.7086040E-03;  1.0027362E+03;  1.1949853E-01;  2.2642139E+03;3;  7.1979630E+01;  0.0000000E+00; -1.6260432E+00;0;  1.9561455E+00;  2.8250598E+04;  0.0000000E+00; -6.5404855E-02;  4.0000000E+04;  0.0000000E+00;  3.9861020E+04;  2.0317118E+00;  0.0000000E+00; -7.5566322E-02;  8.9007080E+01;
  9.6310490E-01;  9.9999998E-03; -4.0048081E-02;8023;  1.3587010E+00;  0.0000000E+00;  3.8109883E-03;  1.0029251E+03;  1.1949760E-01;  2.4205693E+03;3;  7.2779800E+01;  0.0000000E+00; -1.1690233E+00;0;  1.9213232E+00;  2.8262768E+04;  0.0000000E+00; -4.9049743E-02;  4.0000000E+04;  0.0000000E+00;  3.9859012E+04;  2.0040586E+00;  0.0000000E+00; -8.2735471E-02;  1.7480487E+02;
  9.6306461E-01;  9.9999998E-03; -3.0040568E-02;8024;  1.3595064E+00;  0.0000000E+00;  2.8772203E-03;  1.0030768E+03;  1.1949690E-01;  2.5460486E+03;3;  7.3287247E+01;  0.0000000E+00; -8.7945914E-01;0;  1.8927428E+00;  2.8272545E+04;  0.0000000E+00; -3.0779256E-02;  4.0000000E+04;  0.0000000E+00;  3.9857484E+04;  1.9818885E+00;  0.0000000E+00; -8.9145787E-02;  3.7389905E+02;
  9.6303308E-01;  9.9999998E-03; -2.0028662E-02;8025;  1.3601081E+00;  0.0000000E+00;  1.9295936E-03;  1.0031882E+03;  1.1949615E-01;  2.6381855E+03;3;  7.3624069E+01;  0.0000000E+00; -4.9169350E-01;0;  1.8716472E+00;  2.8279660E+04;  0.0000000E+00; -1.4686235E-02;  4.0000000E+04;  0.0000000E+00;  3.9856504E+04;  1.9658673E+00;  0.0000000E+00; -9.4220005E-02;  5.1104187E+02;
  9.6301419E-01;  9.9999998E-03; -1.0014908E-02;8026;  1.3604777E+00;  0.0000000E+00;  9.6718501E-04;  1.0032559E+03;  1.1949600E-01;  2.6942168E+03;3;  7.3757942E+01;  0.0000000E+00; -2.6783714E-01;0;  1.8586345E+00;  2.8283955E+04;  0.0000000E+00; -3.8204612E-03;  4.0000000E+04;  0.0000000E+00;  3.9855953E+04;  1.9561118E+00;  0.0000000E+00; -9.7477272E-02;  5.8850464E+02;
  9.6300805E-01;  9.9999998E-03; -1.5429703E-09;8027;  1.3606027E+00;  0.0000000E+00; -1.5228379E-07;  1.0032778E+03;  1.1949594E-01;  2.7123682E+03;3;  7.3810806E+01;  0.0000000E+00;  1.9496250E-05;0;  1.8542268E+00;  2.8285371E+04;  0.0000000E+00; -5.7069232E-12;  4.0000000E+04;  0.0000000E+00;  3.9855785E+04;  1.9528266E+00;  0.0000000E+00; -9.8599784E-02;  6.1315118E+02;
  9.6301419E-01;  9.9999998E-03;  1.0014906E-02;8028;  1.3604774E+00;  0.0000000E+00; -9.6749212E-04;  1.0032559E+03;  1.1949600E-01;  2.6942168E+03;3;  7.3759003E+01;  0.0000000E+00;  2.6793268E-01;0;  1.8586336E+00;  2.8283959E+04;  0.0000000E+00; -3.8197711E-03;  4.0000000E+04;  0.0000000E+00;  3.9855953E+04;  1.9561108E+00;  0.0000000E+00; -9.7477242E-02;  5.8850055E+02;
  9.6303308E-01;  9.9999998E-03;  2.0028658E-02;8029;  1.3601080E+00;  0.0000000E+00; -1.9298990E-03;  1.0031881E+03;  1.1949615E-01;  2.6381855E+03;3;  7.3624794E+01;  0.0000000E+00;  4.9173820E-01;0;  1.8716470E+00;  2.8279660E+04;  0.0000000E+00; -1.4684967E-02;  4.0000000E+04;  0.0000000E+00;  3.9856504E+04;  1.9658669E+00;  0.0000000E+00; -9.4219901E-02;  5.1104666E+02;
  9.6306461E-01;  9.9999998E-03;  3.0040564E-02;8030;  1.3595064E+00;  0.0000000E+00; -2.8775262E-03;  1.0030768E+03;  1.1949690E-01;  2.5460486E+03;3;  7.3287605E+01;  0.0000000E+00;  8.7953281E-01;0;  1.8927425E+00;  2.8272545E+04;  0.0000000E+00; -3.0777866E-02;  4.0000000E+04;  0.0000000E+00;  3.9857484E+04;  1.9818881E+00;  0.0000000E+00; -8.9145511E-02;  3.7389487E+02;
  9.6310490E-01;  9.9999998E-03;  4.0048078E-02;8031;  1.3587009E+00;  0.0000000E+00; -3.8112989E-03;  1.0029250E+03;  1.1949766E-01;  2.4204707E+03;3;  7.2779846E+01;  0.0000000E+00;  1.1690733E+00;0;  1.9213240E+00;  2.8262758E+04;  0.0000000E+00; -4.9048141E-02;  4.0000000E+04;  0.0000000E+00;  3.9859012E+04;  2.0040591E+00;  0.0000000E+00; -8.2735039E-02;  1.7480226E+02;
  9.6315753E-01;  9.9999998E-03;  5.0051369E-02;8032;  1.3577279E+00;  0.0000000E+00; -4.7089113E-03;  1.0027361E+03;  1.1949839E-01;  2.2641152E+03;3;  7.1979263E+01;  0.0000000E+00;  1.6261485E+00;0;  1.9561448E+00;  2.8250596E+04;  0.0000000E+00; -6.5402597E-02;  4.0000000E+04;  0.0000000E+00;  3.9861020E+04;  2.0317106E+00;  0.0000000E+00; -7.5565755E-02;  8.9010536E+01;
  9.6322739E-01;  9.9999998E-03;  6.0050149E-02;8033;  1.3566124E+00;  0.0000000E+00; -5.5640177E-03;  1.0025109E+03;  1.1949983E-01;  2.0777710E+03;3;  7.1259575E+01;  0.0000000E+00;  2.2207420E+00;0;  1.9957693E+00;  2.8236383E+04;  0.0000000E+00; -7.5253703E-02;  4.0000000E+04;  0.0000000E+00;  3.9863148E+04;  2.0640004E+00;  0.0000000E+00; -6.8231158E-02;  3.7761441E+02;
  9.7544205E-01;  9.9999998E-03; -1.0000213E-01;8078;  1.3510572E+00;  0.0000000E+00;  7.3661348E-03;  1.0002493E+03;  1.1868162E-01;  2.0621873E+02;3;  6.5915565E+01;  0.0000000E+00; -5.4327412E+00;0;  1.6095028E+00;  2.8487045E+04;  0.0000000E+00;  1.8138818E-01;  4.0000000E+04;  0.0000000E+00;  3.9887406E+04;  1.6684579E+00;  0.0000000E+00; -5.8955099E-02;  3.4112012E+03;
  9.7518086E-01;  9.9999998E-03; -9.0001956E-02;8079;  1.3522847E+00;  0.0000000E+00;  6.7840214E-03;  1.0002556E+03;  1.1868338E-01;  2.1144685E+02;3;  6.7413979E+01;  0.0000000E+00; -5.0897326E+00;0;  1.5468261E+00;  2.8484389E+04;  0.0000000E+00;  1.3623589E-01;  4.0000000E+04;  0.0000000E+00;  3.9888328E+04;  1.6095606E+00;  0.0000000E+00; -6.2734440E-02;  3.4979587E+03;
  9.7496891E-01;  9.9999998E-03; -8.0007821E-02;8080;  1.3534639E+00;  0.0000000E+00;  6.1729909E-03;  1.0002943E+03;  1.1868430E-01;  2.4350031E+02;3;  6.8769653E+01;  0.0000000E+00; -4.7320666E+00;0;  1.4881239E+00;  2.8484887E+04;  0.0000000E+00;  9.0160519E-02;  4.0000000E+04;  0.0000000E+00;  3.9888230E+04;  1.5550326E+00;  0.0000000E+00; -6.6908740E-02;  3.4603740E+03;
  9.7478539E-01;  9.9999998E-03; -7.0016980E-02;8081;  1.3545996E+00;  0.0000000E+00;  5.5133086E-03;  1.0003507E+03;  1.1868434E-01;  2.9015015E+02;3;  6.9909973E+01;  0.0000000E+00; -4.2830887E+00;0;  1.4343407E+00;  2.8487604E+04;  0.0000000E+00;  5.0056897E-02;  4.0000000E+04;  0.0000000E+00;  3.9887160E+04;  1.5059148E+00;  0.0000000E+00; -7.1574062E-02;  3.3111260E+03;
  9.7462690E-01;  9.9999998E-03; -6.0025867E-02;8082;  1.3556846E+00;  0.0000000E+00;  4.8058145E-03;  1.0004140E+03;  1.1868384E-01;  3.4252032E+02;3;  7.1001328E+01;  0.0000000E+00; -3.6142585E+00;0;  1.3859503E+00;  2.8491584E+04;  0.0000000E+00;  2.0453971E-02;  4.0000000E+04;  0.0000000E+00;  3.9885336E+04;  1.4626085E+00;  0.0000000E+00; -7.6658085E-02;  3.0818923E+03;
  9.7449172E-01;  9.9999998E-03; -5.0034080E-02;8083;  1.3566827E+00;  0.0000000E+00;  4.0506353E-03;  1.0004812E+03;  1.1868349E-01;  3.9814523E+02;3;  7.1756310E+01;  0.0000000E+00; -3.0669613E+00;0;  1.3435560E+00;  2.8496201E+04;  0.0000000E+00;  2.5497151E-03;  4.0000000E+04;  0.0000000E+00;  3.9883234E+04;  1.4254891E+00;  0.0000000E+00; -8.1933007E-02;  2.8135088E+03;
  9.7437966E-01;  9.9999998E-03; -4.0041067E-02;8084;  1.3575639E+00;  0.0000000E+00;  3.2624560E-03;  1.0005424E+03;  1.1868301E-01;  4.4874042E+02;3;  7.2452553E+01;  0.0000000E+00; -2.4390514E+00;0;  1.3077576E+00;  2.8500732E+04;  0.0000000E+00; -5.2728257E-03;  4.0000000E+04;  0.0000000E+00;  3.9881145E+04;  1.3948164E+00;  0.0000000E+00; -8.7058723E-02;  2.5485730E+03;
  9.7429848E-01;  9.9999998E-03; -3.0045280E-02;8085;  1.3583018E+00;  0.0000000E+00;  2.4716603E-03;  1.0005928E+03;  1.1868257E-01;  4.9045932E+02;3;  7.3018623E+01;  0.0000000E+00; -1.6903108E+00;0;  1.2787886E+00;  2.8504639E+04;  0.0000000E+00; -6.2183766E-03;  4.0000000E+04;  0.0000000E+00;  3.9879375E+04;  1.3704244E+00;  0.0000000E+00; -9.1635868E-02;  2.3244082E+03;
  9.7424877E-01;  9.9999998E-03; -2.0037666E-02;8086;  1.3588507E+00;  0.0000000E+00;  1.6601945E-03;  1.0006306E+03;  1.1868227E-01;  5.2162524E+02;3;  7.3306160E+01;  0.0000000E+00; -1.1169227E+00;0;  1.2571769E+00;  2.8507576E+04;  0.0000000E+00; -3.8381617E-03;  4.0000000E+04;  0.0000000E+00;  3.9878109E+04;  1.3524396E+00;  0.0000000E+00; -9.5262766E-02;  2.1637371E+03;
  9.7422057E-01;  9.9999998E-03; -1.0020018E-02;8087;  1.3591918E+00;  0.0000000E+00;  8.3563098E-04;  1.0006522E+03;  1.1868191E-01;  5.3957520E+02;3;  7.3519760E+01;  0.0000000E+00; -5.0767046E-01;0;  1.2439052E+00;  2.8509404E+04;  0.0000000E+00; -1.1229941E-03;  4.0000000E+04;  0.0000000E+00;  3.9877312E+04;  1.3414977E+00;  0.0000000E+00; -9.7592451E-02;  2.0691399E+03;
  9.7421187E-01;  9.9999998E-03; -1.7758681E-09;8088;  1.3593068E+00;  0.0000000E+00; -1.3723741E-07;  1.0006627E+03;  1.1868194E-01;  5.4825427E+02;3;  7.3560883E+01;  0.0000000E+00;  5.9607046E-05;0;  1.2394085E+00;  2.8509994E+04;  0.0000000E+00; -4.0070664E-12;  4.0000000E+04;  0.0000000E+00;  3.9877047E+04;  1.3378038E+00;  0.0000000E+00; -9.8395318E-02;  2.0381385E+03;
  9.7422057E-01;  9.9999998E-03;  1.0020014E-02;8089;  1.3591918E+00;  0.0000000E+00; -8.3590933E-04;  1.0006522E+03;  1.1868191E-01;  5.3957520E+02;3;  7.3519173E+01;  0.0000000E+00;  5.0777173E-01;0;  1.2439049E+00;  2.8509404E+04;  0.0000000E+00; -1.1222867E-03;  4.0000000E+04;  0.0000000E+00;  3.9877312E+04;  1.3414973E+00;  0.0000000E+00; -9.7592309E-02;  2.0691450E+03;
  9.7424877E-01;  9.9999998E-03;  2.0037662E-02;8090;  1.3588507E+00;  0.0000000E+00; -1.6604717E-03;  1.0006305E+03;  1.1868229E-01;  5.2162524E+02;3;  7.3304932E+01;  0.0000000E+00;  1.1169424E+00;0;  1.2571738E+00;  2.8507572E+04;  0.0000000E+00; -3.8370928E-03;  4.0000000E+04;  0.0000000E+00;  3.9878109E+04;  1.3524363E+00;  0.0000000E+00; -9.5262542E-02;  2.1637385E+03;
  9.7429848E-01;  9.9999998E-03;  3.0045277E-02;8091;  1.3583016E+00;  0.0000000E+00; -2.4719422E-03;  1.0005930E+03;  1.1868257E-01;  4.9055795E+02;3;  7.3019073E+01;  0.0000000E+00;  1.6903005E+00;0;  1.2787890E+00;  2.8504637E+04;  0.0000000E+00; -6.2167868E-03;  4.0000000E+04;  0.0000000E+00;  3.9879371E+04;  1.3704247E+00;  0.0000000E+00; -9.1635689E-02;  2.3244028E+03;
  9.7437966E-01;  9.9999998E-03;  4.0041063E-02;8092;  1.3575637E+00;  0.0000000E+00; -3.2627371E-03;  1.0005424E+03;  1.1868299E-01;  4.4874042E+02;3;  7.2452431E+01;  0.0000000E+00;  2.4390736E+00;0;  1.3077570E+00;  2.8500732E+04;  0.0000000E+00; -5.2713281E-03;  4.0000000E+04;  0.0000000E+00;  3.9881141E+04;  1.3948153E+00;  0.0000000E+00; -8.7058321E-02;  2.5485618E+03;
  9.7449172E-01;  9.9999998E-03;  5.0034076E-02;8093;  1.3566825E+00;  0.0000000E+00; -4.0509165E-03;  1.0004812E+03;  1.1868366E-01;  3.9814523E+02;3;  7.1757637E+01;  0.0000000E+00;  3.0669851E+00;0;  1.3435553E+00;  2.8496201E+04;  0.0000000E+00;  2.5479165E-03;  4.0000000E+04;  0.0000000E+00;  3.9883234E+04;  1.4254880E+00;  0.0000000E+00; -8.1932612E-02;  2.8135166E+03;
  9.7462690E-01;  9.9999998E-03;  6.0025863E-02;8094;  1.3556844E+00;  0.0000000E+00; -4.8061027E-03;  1.0004139E+03;  1.1868384E-01;  3.4242169E+02;3;  7.1002060E+01;  0.0000000E+00;  3.6141770E+00;0;  1.3859510E+00;  2.8491584E+04;  0.0000000E+00;  2.0451192E-02;  4.0000000E+04;  0.0000000E+00;  3.9885336E+04;  1.4626086E+00;  0.0000000E+00; -7.6657549E-02;  3.0818813E+03;
  9.8744982E-01;  9.9999998E-03; -9.9997118E-02;8139;  1.3505598E+00;  0.0000000E+00;  6.4487113E-03;  9.9864258E+02;  1.1780313E-01; -1.1226946E+03;3;  6.6141586E+01;  0.0000000E+00; -7.6796198E+00;0;  1.1470040E+00;  2.8813627E+04;  0.0000000E+00;  3.2442462E-01;  4.0000000E+04;  0.0000000E+00;  3.9904086E+04;  1.2205538E+00;  0.0000000E+00; -7.3549747E-02;  5.3529834E+03;
  9.8712432E-01;  9.9999998E-03; -8.9994371E-02;8140;  1.3514727E+00;  0.0000000E+00;  5.9590777E-03;  9.9835315E+02;  1.1780924E-01; -1.3620930E+03;3;  6.7582901E+01;  0.0000000E+00; -7.2202797E+00;0;  1.0720601E+00;  2.8790961E+04;  0.0000000E+00;  2.8092504E-01;  4.0000000E+04;  0.0000000E+00;  3.9905785E+04;  1.1484593E+00;  0.0000000E+00; -7.6399207E-02;  5.5671582E+03;
  9.8680878E-01;  9.9999998E-03; -7.9997733E-02;8141;  1.3524286E+00;  0.0000000E+00;  5.4633566E-03;  9.9811188E+02;  1.1781492E-01; -1.5616129E+03;3;  6.8822693E+01;  0.0000000E+00; -6.6213574E+00;0;  1.0060278E+00;  2.8772291E+04;  0.0000000E+00;  2.2473493E-01;  4.0000000E+04;  0.0000000E+00;  3.9906148E+04;  1.0852439E+00;  0.0000000E+00; -7.9216115E-02;  5.6282837E+03;
  9.8654962E-01;  9.9999998E-03; -7.0011958E-02;8142;  1.3533853E+00;  0.0000000E+00;  4.9207984E-03;  9.9791064E+02;  1.1781925E-01; -1.7281035E+03;3;  6.9833359E+01;  0.0000000E+00; -5.8965659E+00;0;  9.4690633E-01;  2.8757689E+04;  0.0000000E+00;  1.6611215E-01;  4.0000000E+04;  0.0000000E+00;  3.9905500E+04;  1.0291486E+00;  0.0000000E+00; -8.2242258E-02;  5.5594321E+03;
  9.8637384E-01;  9.9999998E-03; -6.0033351E-02;8143;  1.3543117E+00;  0.0000000E+00;  4.3189898E-03;  9.9773584E+02;  1.1782122E-01; -1.8726544E+03;3;  7.0693848E+01;  0.0000000E+00; -5.1242228E+00;0;  8.9349633E-01;  2.8746789E+04;  0.0000000E+00;  1.1340366E-01;  4.0000000E+04;  0.0000000E+00;  3.9904070E+04;  9.7901386E-01;  0.0000000E+00; -8.5517548E-02;  5.3993032E+03;
  9.8624325E-01;  9.9999998E-03; -5.0051942E-02;8144;  1.3551720E+00;  0.0000000E+00;  3.6648239E-03;  9.9759070E+02;  1.1782201E-01; -1.9927030E+03;3;  7.1461357E+01;  0.0000000E+00; -4.2767425E+00;0;  8.4711093E-01;  2.8738551E+04;  0.0000000E+00;  7.1103998E-02;  4.0000000E+04;  0.0000000E+00;  3.9902289E+04;  9.3600577E-01;  0.0000000E+00; -8.8894837E-02;  5.1863599E+03;
  9.8615026E-01;  9.9999998E-03; -4.0058486E-02;8145;  1.3559320E+00;  0.0000000E+00;  2.9667923E-03;  9.9747302E+02;  1.1782254E-01; -2.0900730E+03;3;  7.2057762E+01;  0.0000000E+00; -3.4214613E+00;0;  8.0814302E-01;  2.8732438E+04;  0.0000000E+00;  4.0402133E-02;  4.0000000E+04;  0.0000000E+00;  3.9900418E+04;  9.0031564E-01;  0.0000000E+00; -9.2172623E-02;  4.9667114E+03;
  9.8608762E-01;  9.9999998E-03; -3.0042632E-02;8146;  1.3565644E+00;  0.0000000E+00;  2.2387155E-03;  9.9738306E+02;  1.1782240E-01; -2.1644683E+03;3;  7.2450546E+01;  0.0000000E+00; -2.5922122E+00;0;  7.7707958E-01;  2.8727963E+04;  0.0000000E+00;  2.0125279E-02;  4.0000000E+04;  0.0000000E+00;  3.9898723E+04;  8.7218070E-01;  0.0000000E+00; -9.5101118E-02;  4.7781958E+03;
  9.8604554E-01;  9.9999998E-03; -2.0027332E-02;8147;  1.3570354E+00;  0.0000000E+00;  1.4969459E-03;  9.9732068E+02;  1.1782227E-01; -2.2160864E+03;3;  7.2776253E+01;  0.0000000E+00; -1.6701463E+00;0;  7.5459611E-01;  2.8725004E+04;  0.0000000E+00;  8.0478759E-03;  4.0000000E+04;  0.0000000E+00;  3.9897582E+04;  8.5201204E-01;  0.0000000E+00; -9.7415902E-02;  4.6352539E+03;
  9.8601997E-01;  9.9999998E-03; -1.0013091E-02;8148;  1.3573288E+00;  0.0000000E+00;  7.4719125E-04;  9.9728455E+02;  1.1782236E-01; -2.2459631E+03;3;  7.2948517E+01;  0.0000000E+00; -8.6839777E-01;0;  7.4103355E-01;  2.8723273E+04;  0.0000000E+00;  1.8713506E-03;  4.0000000E+04;  0.0000000E+00;  3.9896805E+04;  8.3993453E-01;  0.0000000E+00; -9.8900944E-02;  4.5474268E+03;
  9.8601222E-01;  9.9999998E-03; -1.8541236E-09;8149;  1.3574309E+00;  0.0000000E+00; -1.2063192E-07;  9.9727209E+02;  1.1782236E-01; -2.2562671E+03;3;  7.3077652E+01;  0.0000000E+00;  7.2404342E-05;0;  7.3646945E-01;  2.8722740E+04;  0.0000000E+00; -1.2388035E-12;  4.0000000E+04;  0.0000000E+00;  3.9896473E+04;  8.3588243E-01;  0.0000000E+00; -9.9412993E-02;  4.5181128E+03;
  9.8601997E-01;  9.9999998E-03;  1.0013087E-02;8150;  1.3573288E+00;  0.0000000E+00; -7.4743200E-04;  9.9728461E+02;  1.1782227E-01; -2.2459138E+03;3;  7.2947960E+01;  0.0000000E+00;  8.6849016E-01;0;  7.4103379E-01;  2.8723273E+04;  0.0000000E+00;  1.8718308E-03;  4.0000000E+04;  0.0000000E+00;  3.9896805E+04;  8.3993471E-01;  0.0000000E+00; -9.8900892E-02;  4.5474058E+03;
  9.8604554E-01;  9.9999998E-03;  2.0027326E-02;8151;  1.3570354E+00;  0.0000000E+00; -1.4971846E-03;  9.9732080E+02;  1.1782227E-01; -2.2159880E+03;3;  7.2777336E+01;  0.0000000E+00;  1.6701602E+00;0;  7.5459599E-01;  2.8725006E+04;  0.0000000E+00;  8.0487365E-03;  4.0000000E+04;  0.0000000E+00;  3.9897582E+04;  8.5201180E-01;  0.0000000E+00; -9.7415827E-02;  4.6352490E+03;
  9.8608762E-01;  9.9999998E-03;  3.0042628E-02;8152;  1.3565643E+00;  0.0000000E+00; -2.2389588E-03;  9.9738318E+02;  1.1782248E-01; -2.1643696E+03;3;  7.2451042E+01;  0.0000000E+00;  2.5921936E+00;0;  7.7707893E-01;  2.8727965E+04;  0.0000000E+00;  2.0126643E-02;  4.0000000E+04;  0.0000000E+00;  3.9898723E+04;  8.7217993E-01;  0.0000000E+00; -9.5101014E-02;  4.7781846E+03;
  9.8615026E-01;  9.9999998E-03;  4.0058482E-02;8153;  1.3559319E+00;  0.0000000E+00; -2.9670338E-03;  9.9747302E+02;  1.1782254E-01; -2.0900730E+03;3;  7.2057663E+01;  0.0000000E+00;  3.4214339E+00;0;  8.0814332E-01;  2.8732436E+04;  0.0000000E+00;  4.0402319E-02;  4.0000000E+04;  0.0000000E+00;  3.9900414E+04;  9.0031570E-01;  0.0000000E+00; -9.2172369E-02;  4.9667251E+03;
  9.8624325E-01;  9.9999998E-03;  5.0051939E-02;8154;  1.3551719E+00;  0.0000000E+00; -3.6650684E-03;  9.9759076E+02;  1.1782221E-01; -1.9926538E+03;3;  7.1460426E+01;  0.0000000E+00;  4.2766929E+00;0;  8.4711009E-01;  2.8738543E+04;  0.0000000E+00;  7.1104690E-02;  4.0000000E+04;  0.0000000E+00;  3.9902289E+04;  9.3600464E-01;  0.0000000E+00; -8.8894539E-02;  5.1863799E+03;
  9.8637384E-01;  9.9999998E-03;  6.0033344E-02;8155;  1.3543116E+00;  0.0000000E+00; -4.3192361E-03;  9.9773572E+02;  1.1782124E-01; -1.8727531E+03;3;  7.0692719E+01;  0.0000000E+00;  5.1241465E+00;0;  8.9349645E-01;  2.8746785E+04;  0.0000000E+00;  1.1340304E-01;  4.0000000E+04;  0.0000000E+00;  3.9904070E+04;  9.7901362E-01;  0.0000000E+00; -8.5517146E-02;  5.3993013E+03;
  9.9814588E-01;  9.9999998E-03; -1.6555947E-09;8210;  1.3551593E+00;  0.0000000E+00; -1.0561683E-07;  9.9375677E+02;  1.1692171E-01; -5.1620591E+03;3;  7.2320564E+01;  0.0000000E+00;  2.2393568E-05;0;  3.7227556E-01;  2.8956684E+04;  0.0000000E+00; -9.4334133E-13;  4.0000000E+04;  0.0000000E+00;  3.9912949E+04;  4.7517887E-01;  0.0000000E+00; -1.0290330E-01;  6.6373506E+03;
  9.9815708E-01;  9.9999998E-03; -9.9980216E-03;8209;  1.3550751E+00;  0.0000000E+00;  7.2004739E-04;  9.9378833E+02;  1.1692142E-01; -5.1359868E+03;3;  7.2220108E+01;  0.0000000E+00; -1.1104233E+00;0;  3.7665406E-01;  2.8958553E+04;  0.0000000E+00;  3.6829573E-03;  4.0000000E+04;  0.0000000E+00;  3.9913133E+04;  4.7930089E-01;  0.0000000E+00; -1.0264684E-01;  6.6605728E+03;
  9.9815708E-01;  9.9999998E-03;  9.9980179E-03;8211;  1.3550750E+00;  0.0000000E+00; -7.2025514E-04;  9.9378833E+02;  1.1692142E-01; -5.1359868E+03;3;  7.2217407E+01;  0.0000000E+00;  1.1104537E+00;0;  3.7665433E-01;  2.8958553E+04;  0.0000000E+00;  3.6832651E-03;  4.0000000E+04;  0.0000000E+00;  3.9913133E+04;  4.7930110E-01;  0.0000000E+00; -1.0264677E-01;  6.6605771E+03;
  9.9818772E-01;  9.9999998E-03; -1.9998398E-02;8208;  1.3548344E+00;  0.0000000E+00;  1.4397081E-03;  9.9388519E+02;  1.1692066E-01; -5.0558486E+03;3;  7.2018517E+01;  0.0000000E+00; -2.2221961E+00;0;  3.8986257E-01;  2.8964156E+04;  0.0000000E+00;  1.5075909E-02;  4.0000000E+04;  0.0000000E+00;  3.9913742E+04;  4.9176767E-01;  0.0000000E+00; -1.0190511E-01;  6.7289697E+03;
  9.9818772E-01;  9.9999998E-03;  1.9998394E-02;8212;  1.3548344E+00;  0.0000000E+00; -1.4399148E-03;  9.9388519E+02;  1.1692066E-01; -5.0558486E+03;3;  7.2017426E+01;  0.0000000E+00;  2.2221885E+00;0;  3.8986248E-01;  2.8964154E+04;  0.0000000E+00;  1.5076134E-02;  4.0000000E+04;  0.0000000E+00;  3.9913742E+04;  4.9176750E-01;  0.0000000E+00; -1.0190503E-01;  6.7289668E+03;
  9.9823958E-01;  9.9999998E-03; -3.0003501E-02;8207;  1.3544436E+00;  0.0000000E+00;  2.1522909E-03;  9.9404449E+02;  1.1691891E-01; -4.9241582E+03;3;  7.1754669E+01;  0.0000000E+00; -3.3012455E+00;0;  4.1187412E-01;  2.8973576E+04;  0.0000000E+00;  3.5108913E-02;  4.0000000E+04;  0.0000000E+00;  3.9914840E+04;  5.1263380E-01;  0.0000000E+00; -1.0075970E-01;  6.8389468E+03;
  9.9823958E-01;  9.9999998E-03;  3.0003497E-02;8213;  1.3544436E+00;  0.0000000E+00; -2.1524895E-03;  9.9404449E+02;  1.1691920E-01; -4.9241582E+03;3;  7.1755142E+01;  0.0000000E+00;  3.3013067E+00;0;  4.1187409E-01;  2.8973578E+04;  0.0000000E+00;  3.5109308E-02;  4.0000000E+04;  0.0000000E+00;  3.9914840E+04;  5.1263362E-01;  0.0000000E+00; -1.0075954E-01;  6.8389272E+03;
  9.9832368E-01;  9.9999998E-03; -4.0016569E-02;8206;  1.3539214E+00;  0.0000000E+00;  2.8469020E-03;  9.9426959E+02;  1.1691697E-01; -4.7380063E+03;3;  7.1367279E+01;  0.0000000E+00; -4.3956590E+00;0;  4.4246331E-01;  2.8987109E+04;  0.0000000E+00;  6.4987652E-02;  4.0000000E+04;  0.0000000E+00;  3.9916242E+04;  5.4179901E-01;  0.0000000E+00; -9.9335693E-02;  6.9805923E+03;
  9.9832368E-01;  9.9999998E-03;  4.0016565E-02;8214;  1.3539212E+00;  0.0000000E+00; -2.8471050E-03;  9.9426953E+02;  1.1691698E-01; -4.7380557E+03;3;  7.1367096E+01;  0.0000000E+00;  4.3956428E+00;0;  4.4246343E-01;  2.8987111E+04;  0.0000000E+00;  6.4988390E-02;  4.0000000E+04;  0.0000000E+00;  3.9916242E+04;  5.4179895E-01;  0.0000000E+00; -9.9335529E-02;  6.9806030E+03;
  9.9844909E-01;  9.9999998E-03; -5.0039388E-02;8205;  1.3532913E+00;  0.0000000E+00;  3.5128631E-03;  9.9456036E+02;  1.1691379E-01; -4.4975903E+03;3;  7.0904472E+01;  0.0000000E+00; -5.4898877E+00;0;  4.8149297E-01;  2.9005066E+04;  0.0000000E+00;  1.0558418E-01;  4.0000000E+04;  0.0000000E+00;  3.9917812E+04;  5.7926810E-01;  0.0000000E+00; -9.7775124E-02;  7.1320400E+03;
  9.9844909E-01;  9.9999998E-03;  5.0039385E-02;8215;  1.3532910E+00;  0.0000000E+00; -3.5130649E-03;  9.9456049E+02;  1.1691397E-01; -4.4974917E+03;3;  7.0905769E+01;  0.0000000E+00;  5.4898572E+00;0;  4.8149300E-01;  2.9005064E+04;  0.0000000E+00;  1.0558431E-01;  4.0000000E+04;  0.0000000E+00;  3.9917812E+04;  5.7926780E-01;  0.0000000E+00; -9.7774819E-02;  7.1320366E+03;
  9.9862045E-01;  9.9999998E-03; -6.0048178E-02;8204;  1.3525810E+00;  0.0000000E+00;  4.1385801E-03;  9.9491278E+02;  1.1690971E-01; -4.2061626E+03;3;  7.0249474E+01;  0.0000000E+00; -6.5103803E+00;0;  5.2884728E-01;  2.9027545E+04;  0.0000000E+00;  1.5634350E-01;  4.0000000E+04;  0.0000000E+00;  3.9919156E+04;  6.2505597E-01;  0.0000000E+00; -9.6208692E-02;  7.2649351E+03;
  9.9862045E-01;  9.9999998E-03;  6.0048178E-02;8216;  1.3525809E+00;  0.0000000E+00; -4.1387836E-03;  9.9491260E+02;  1.1690966E-01; -4.2063105E+03;3;  7.0250320E+01;  0.0000000E+00;  6.5103989E+00;0;  5.2884799E-01;  2.9027539E+04;  0.0000000E+00;  1.5634288E-01;  4.0000000E+04;  0.0000000E+00;  3.9919156E+04;  6.2505633E-01;  0.0000000E+00; -9.6208327E-02;  7.2649551E+03;
  9.9882942E-01;  9.9999998E-03; -7.0046991E-02;8203;  1.3518333E+00;  0.0000000E+00;  4.7184206E-03;  9.9532892E+02;  1.1690434E-01; -3.8621013E+03;3;  6.9513885E+01;  0.0000000E+00; -7.5239983E+00;0;  5.8490080E-01;  2.9054684E+04;  0.0000000E+00;  2.1442281E-01;  4.0000000E+04;  0.0000000E+00;  3.9920113E+04;  6.7960411E-01;  0.0000000E+00; -9.4703332E-02;  7.3380039E+03;
  9.9906194E-01;  9.9999998E-03; -8.0045402E-02;8202;  1.3510884E+00;  0.0000000E+00;  5.2488064E-03;  9.9580811E+02;  1.1689876E-01; -3.4658528E+03;3;  6.8533798E+01;  0.0000000E+00; -8.4580536E+00;0;  6.5031636E-01;  2.9086514E+04;  0.0000000E+00;  2.7399692E-01;  4.0000000E+04;  0.0000000E+00;  3.9920172E+04;  7.4355286E-01;  0.0000000E+00; -9.3236484E-02;  7.3091089E+03;
  9.9930191E-01;  9.9999998E-03; -9.0043694E-02;8201;  1.3503901E+00;  0.0000000E+00;  5.7367920E-03;  9.9634344E+02;  1.1689278E-01; -3.0232356E+03;3;  6.7410004E+01;  0.0000000E+00; -9.3110619E+00;0;  7.2588497E-01;  2.9122703E+04;  0.0000000E+00;  3.2645437E-01;  4.0000000E+04;  0.0000000E+00;  3.9919332E+04;  8.1755531E-01;  0.0000000E+00; -9.1670327E-02;  7.1480083E+03;
  9.9954247E-01;  9.9999998E-03; -1.0004182E-01;8200;  1.3497752E+00;  0.0000000E+00;  6.2051653E-03;  9.9693103E+02;  1.1688692E-01; -2.5374058E+03;3;  6.6101982E+01;  0.0000000E+00; -9.9882908E+00;0;  8.1235236E-01;  2.9162617E+04;  0.0000000E+00;  3.6209005E-01;  4.0000000E+04;  0.0000000E+00;  3.9917266E+04;  9.0208876E-01;  0.0000000E+00; -8.9736417E-02;  6.8383516E+03;
  1.0106313E+00;  9.9999998E-03; -9.9962521E-03;8270;  1.3525510E+00;  0.0000000E+00;  7.4013683E-04;  9.9083783E+02;  1.1598545E-01; -7.5724185E+03;3;  7.1289688E+01;  0.0000000E+00; -1.3187765E+00;0;  1.5069106E-01;  2.9251760E+04;  0.0000000E+00;  3.5800729E-03;  4.0000000E+04;  0.0000000E+00;  3.9926539E+04;  2.6073155E-01;  0.0000000E+00; -1.1004049E-01;  8.3434863E+03;
  1.0106125E+00;  9.9999998E-03; -2.1544027E-09;8271;  1.3526193E+00;  0.0000000E+00; -8.2110304E-08;  9.9079083E+02;  1.1598612E-01; -7.6112422E+03;3;  7.1397133E+01;  0.0000000E+00;  2.1968284E-05;0;  1.4647129E-01;  2.9248674E+04;  0.0000000E+00;  6.7158329E-13;  4.0000000E+04;  0.0000000E+00;  3.9926312E+04;  2.5654399E-01;  0.0000000E+00; -1.1007269E-01;  8.3312207E+03;
  1.0106313E+00;  9.9999998E-03;  9.9962475E-03;8272;  1.3525510E+00;  0.0000000E+00; -7.4030174E-04;  9.9083789E+02;  1.1598545E-01; -7.5723691E+03;3;  7.1289070E+01;  0.0000000E+00;  1.3187883E+00;0;  1.5069084E-01;  2.9251760E+04;  0.0000000E+00;  3.5800191E-03;  4.0000000E+04;  0.0000000E+00;  3.9926539E+04;  2.6073122E-01;  0.0000000E+00; -1.1004038E-01;  8.3434727E+03;
  1.0106868E+00;  9.9999998E-03; -1.9997329E-02;8269;  1.3523601E+00;  0.0000000E+00;  1.4768732E-03;  9.9098041E+02;  1.1598280E-01; -7.4545684E+03;3;  7.1128860E+01;  0.0000000E+00; -2.6744528E+00;0;  1.6339889E-01;  2.9261035E+04;  0.0000000E+00;  1.4414225E-02;  4.0000000E+04;  0.0000000E+00;  3.9926941E+04;  2.7335513E-01;  0.0000000E+00; -1.0995624E-01;  8.3788359E+03;
  1.0106868E+00;  9.9999998E-03;  1.9997325E-02;8273;  1.3523602E+00;  0.0000000E+00; -1.4770356E-03;  9.9098041E+02;  1.1598280E-01; -7.4545684E+03;3;  7.1127602E+01;  0.0000000E+00;  2.6744421E+00;0;  1.6339847E-01;  2.9261039E+04;  0.0000000E+00;  1.4414907E-02;  4.0000000E+04;  0.0000000E+00;  3.9926941E+04;  2.7335474E-01;  0.0000000E+00; -1.0995626E-01;  8.3788408E+03;
  1.0107772E+00;  9.9999998E-03; -3.0007802E-02;8268;  1.3520490E+00;  0.0000000E+00;  2.2118832E-03;  9.9121826E+02;  1.1597892E-01; -7.2579385E+03;3;  7.0853691E+01;  0.0000000E+00; -3.9805787E+00;0;  1.8472019E-01;  2.9276529E+04;  0.0000000E+00;  3.2716911E-02;  4.0000000E+04;  0.0000000E+00;  3.9927652E+04;  2.9457515E-01;  0.0000000E+00; -1.0985496E-01;  8.4323887E+03;
  1.0107772E+00;  9.9999998E-03;  3.0007798E-02;8274;  1.3520489E+00;  0.0000000E+00; -2.2120406E-03;  9.9121826E+02;  1.1597899E-01; -7.2579385E+03;3;  7.0854065E+01;  0.0000000E+00;  3.9806004E+00;0;  1.8472034E-01;  2.9276523E+04;  0.0000000E+00;  3.2717124E-02;  4.0000000E+04;  0.0000000E+00;  3.9927652E+04;  2.9457521E-01;  0.0000000E+00; -1.0985488E-01;  8.4324004E+03;
  1.0108962E+00;  9.9999998E-03; -4.0030982E-02;8267;  1.3516413E+00;  0.0000000E+00;  2.9316365E-03;  9.9155420E+02;  1.1597424E-01; -6.9802666E+03;3;  7.0558929E+01;  0.0000000E+00; -5.3228750E+00;0;  2.1491495E-01;  2.9298314E+04;  0.0000000E+00;  5.8646474E-02;  4.0000000E+04;  0.0000000E+00;  3.9928391E+04;  3.2469240E-01;  0.0000000E+00; -1.0977745E-01;  8.4934912E+03;
  1.0108962E+00;  9.9999998E-03;  4.0030979E-02;8275;  1.3516412E+00;  0.0000000E+00; -2.9317955E-03;  9.9155426E+02;  1.1597422E-01; -6.9802178E+03;3;  7.0558701E+01;  0.0000000E+00;  5.3228908E+00;0;  2.1491525E-01;  2.9298318E+04;  0.0000000E+00;  5.8646847E-02;  4.0000000E+04;  0.0000000E+00;  3.9928391E+04;  3.2469258E-01;  0.0000000E+00; -1.0977732E-01;  8.4934883E+03;
  1.0110223E+00;  9.9999998E-03; -5.0064534E-02;8266;  1.3511509E+00;  0.0000000E+00;  3.6347655E-03;  9.9199146E+02;  1.1596888E-01; -6.6188516E+03;3;  7.0171936E+01;  0.0000000E+00; -6.6267710E+00;0;  2.5448927E-01;  2.9326318E+04;  0.0000000E+00;  9.2081115E-02;  4.0000000E+04;  0.0000000E+00;  3.9929316E+04;  3.6422864E-01;  0.0000000E+00; -1.0973937E-01;  8.5435107E+03;
  1.0110223E+00;  9.9999998E-03;  5.0064534E-02;8276;  1.3511506E+00;  0.0000000E+00; -3.6349290E-03;  9.9199139E+02;  1.1596886E-01; -6.6189004E+03;3;  7.0173271E+01;  0.0000000E+00;  6.6267653E+00;0;  2.5448990E-01;  2.9326318E+04;  0.0000000E+00;  9.2080466E-02;  4.0000000E+04;  0.0000000E+00;  3.9929316E+04;  3.6422896E-01;  0.0000000E+00; -1.0973907E-01;  8.5435000E+03;
  1.0111095E+00;  9.9999998E-03; -6.0104676E-02;8265;  1.3506216E+00;  0.0000000E+00;  4.3041063E-03;  9.9253082E+02;  1.1596519E-01; -6.1730625E+03;3;  6.9548866E+01;  0.0000000E+00; -7.8851833E+00;0;  3.0431232E-01;  2.9359840E+04;  0.0000000E+00;  1.3237137E-01;  4.0000000E+04;  0.0000000E+00;  3.9929887E+04;  4.1400266E-01;  0.0000000E+00; -1.0969033E-01;  8.5550605E+03;
  1.0111095E+00;  9.9999998E-03;  6.0104672E-02;8277;  1.3506215E+00;  0.0000000E+00; -4.3042670E-03;  9.9253088E+02;  1.1596516E-01; -6.1730132E+03;3;  6.9549553E+01;  0.0000000E+00;  7.8852348E+00;0;  3.0431253E-01;  2.9359834E+04;  0.0000000E+00;  1.3237211E-01;  4.0000000E+04;  0.0000000E+00;  3.9929891E+04;  4.1400266E-01;  0.0000000E+00; -1.0969013E-01;  8.5550742E+03;
  1.0112087E+00;  9.9999998E-03; -7.0126936E-02;8264;  1.3500863E+00;  0.0000000E+00;  4.9347216E-03;  9.9315778E+02;  1.1596134E-01; -5.6548604E+03;3;  6.8987411E+01;  0.0000000E+00; -9.0559053E+00;0;  3.6397570E-01;  2.9399123E+04;  0.0000000E+00;  1.7723146E-01;  4.0000000E+04;  0.0000000E+00;  3.9930113E+04;  4.7361544E-01;  0.0000000E+00; -1.0963975E-01;  8.5087305E+03;
  1.0113261E+00;  9.9999998E-03; -8.0129847E-02;8263;  1.3495759E+00;  0.0000000E+00;  5.5305590E-03;  9.9386005E+02;  1.1595704E-01; -5.0744409E+03;3;  6.8158722E+01;  0.0000000E+00; -1.0167868E+01;0;  4.3378872E-01;  2.9443545E+04;  0.0000000E+00;  2.2239721E-01;  4.0000000E+04;  0.0000000E+00;  3.9929562E+04;  5.4327899E-01;  0.0000000E+00; -1.0949028E-01;  8.3782256E+03;
  1.0114623E+00;  9.9999998E-03; -9.0125196E-02;8262;  1.3491307E+00;  0.0000000E+00;  6.0865604E-03;  9.9462317E+02;  1.1595249E-01; -4.4437280E+03;3;  6.7260994E+01;  0.0000000E+00; -1.1212664E+01;0;  5.1431513E-01;  2.9492619E+04;  0.0000000E+00;  2.6154873E-01;  4.0000000E+04;  0.0000000E+00;  3.9928332E+04;  6.2336832E-01;  0.0000000E+00; -1.0905319E-01;  8.1383936E+03;
  1.0116118E+00;  9.9999998E-03; -1.0011665E-01;8261;  1.3488024E+00;  0.0000000E+00;  6.6223419E-03;  9.9543091E+02;  1.1594739E-01; -3.7761731E+03;3;  6.6027176E+01;  0.0000000E+00; -1.2127249E+01;0;  6.0627276E-01;  2.9545279E+04;  0.0000000E+00;  2.8715077E-01;  4.0000000E+04;  0.0000000E+00;  3.9926043E+04;  7.1428257E-01;  0.0000000E+00; -1.0800984E-01;  7.7732886E+03;
  1.0231307E+00;  9.9999998E-03; -2.5412836E-09;8332;  1.3499440E+00;  0.0000000E+00; -6.0528876E-08;  9.8893732E+02;  1.1503376E-01; -9.1386250E+03;3;  7.0286263E+01;  0.0000000E+00; -1.2165389E-05;0;  5.4442979E-02;  2.9621971E+04;  0.0000000E+00;  2.7640848E-13;  4.0000000E+04;  0.0000000E+00;  3.9936191E+04;  1.7604068E-01;  0.0000000E+00; -1.2159770E-01;  9.4936719E+03;
  1.0231380E+00;  9.9999998E-03; -1.0025560E-02;8331;  1.3498987E+00;  0.0000000E+00;  8.0502842E-04;  9.8899646E+02;  1.1503338E-01; -9.0897783E+03;3;  7.0234039E+01;  0.0000000E+00; -1.4844269E+00;0;  5.8790140E-02;  2.9625654E+04;  0.0000000E+00;  2.1744352E-03;  4.0000000E+04;  0.0000000E+00;  3.9936312E+04;  1.8052532E-01;  0.0000000E+00; -1.2173518E-01;  9.4907744E+03;
  1.0231380E+00;  9.9999998E-03;  1.0025555E-02;8333;  1.3498987E+00;  0.0000000E+00; -8.0514804E-04;  9.8899658E+02;  1.1503334E-01; -9.0896797E+03;3;  7.0235855E+01;  0.0000000E+00;  1.4844450E+00;0;  5.8790475E-02;  2.9625656E+04;  0.0000000E+00;  2.1744831E-03;  4.0000000E+04;  0.0000000E+00;  3.9936312E+04;  1.8052563E-01;  0.0000000E+00; -1.2173516E-01;  9.4907686E+03;
  1.0231608E+00;  9.9999998E-03; -2.0050472E-02;8330;  1.3497658E+00;  0.0000000E+00;  1.6078318E-03;  9.8917267E+02;  1.1503176E-01; -8.9441719E+03;3;  7.0088707E+01;  0.0000000E+00; -3.0446661E+00;0;  7.1867459E-02;  2.9636902E+04;  0.0000000E+00;  8.6239427E-03;  4.0000000E+04;  0.0000000E+00;  3.9936367E+04;  1.9401401E-01;  0.0000000E+00; -1.2214655E-01;  9.4815645E+03;
  1.0231608E+00;  9.9999998E-03;  2.0050468E-02;8334;  1.3497658E+00;  0.0000000E+00; -1.6079571E-03;  9.8917273E+02;  1.1503159E-01; -8.9441221E+03;3;  7.0089912E+01;  0.0000000E+00;  3.0446188E+00;0;  7.1867429E-02;  2.9636902E+04;  0.0000000E+00;  8.6238729E-03;  4.0000000E+04;  0.0000000E+00;  3.9936367E+04;  1.9401398E-01;  0.0000000E+00; -1.2214655E-01;  9.4815654E+03;
  1.0231957E+00;  9.9999998E-03; -3.0075213E-02;8329;  1.3495578E+00;  0.0000000E+00;  2.4102936E-03;  9.8946765E+02;  1.1502891E-01; -8.7004805E+03;3;  6.9861824E+01;  0.0000000E+00; -4.5535631E+00;0;  9.3793258E-02;  2.9655518E+04;  0.0000000E+00;  1.9128283E-02;  4.0000000E+04;  0.0000000E+00;  3.9936578E+04;  2.1661367E-01;  0.0000000E+00; -1.2282041E-01;  9.4629326E+03;
  1.0231957E+00;  9.9999998E-03;  3.0075209E-02;8335;  1.3495579E+00;  0.0000000E+00; -2.4104184E-03;  9.8946765E+02;  1.1502896E-01; -8.7004805E+03;3;  6.9862305E+01;  0.0000000E+00;  4.5535545E+00;0;  9.3793400E-02;  2.9655518E+04;  0.0000000E+00;  1.9128339E-02;  4.0000000E+04;  0.0000000E+00;  3.9936578E+04;  2.1661370E-01;  0.0000000E+00; -1.2282030E-01;  9.4629160E+03;
  1.0232455E+00;  9.9999998E-03; -4.0094581E-02;8328;  1.3492806E+00;  0.0000000E+00;  3.2105222E-03;  9.8987732E+02;  1.1502517E-01; -8.3620508E+03;3;  6.9649147E+01;  0.0000000E+00; -6.0838246E+00;0;  1.2473296E-01;  2.9681529E+04;  0.0000000E+00;  3.3317167E-02;  4.0000000E+04;  0.0000000E+00;  3.9936680E+04;  2.4847102E-01;  0.0000000E+00; -1.2373806E-01;  9.4297266E+03;
  1.0232455E+00;  9.9999998E-03;  4.0094581E-02;8336;  1.3492805E+00;  0.0000000E+00; -3.2106487E-03;  9.8987732E+02;  1.1502536E-01; -8.3620508E+03;3;  6.9648880E+01;  0.0000000E+00;  6.0837770E+00;0;  1.2473302E-01;  2.9681533E+04;  0.0000000E+00;  3.3317894E-02;  4.0000000E+04;  0.0000000E+00;  3.9936676E+04;  2.4847104E-01;  0.0000000E+00; -1.2373801E-01;  9.4297432E+03;
  1.0233132E+00;  9.9999998E-03; -5.0111346E-02;8327;  1.3489474E+00;  0.0000000E+00;  4.0055267E-03;  9.9039362E+02;  1.1502045E-01; -7.9355298E+03;3;  6.9302589E+01;  0.0000000E+00; -7.6144233E+00;0;  1.6494104E-01;  2.9714730E+04;  0.0000000E+00;  5.0696593E-02;  4.0000000E+04;  0.0000000E+00;  3.9936664E+04;  2.8980225E-01;  0.0000000E+00; -1.2486121E-01;  9.3715762E+03;
  1.0233132E+00;  9.9999998E-03;  5.0111346E-02;8337;  1.3489473E+00;  0.0000000E+00; -4.0056524E-03;  9.9039355E+02;  1.1502046E-01; -7.9355791E+03;3;  6.9301682E+01;  0.0000000E+00;  7.6144142E+00;0;  1.6494131E-01;  2.9714734E+04;  0.0000000E+00;  5.0697513E-02;  4.0000000E+04;  0.0000000E+00;  3.9936664E+04;  2.8980246E-01;  0.0000000E+00; -1.2486114E-01;  9.3716006E+03;
  1.0233938E+00;  9.9999998E-03; -6.0134228E-02;8326;  1.3485895E+00;  0.0000000E+00;  4.7885962E-03;  9.9101904E+02;  1.1501494E-01; -7.4188535E+03;3;  6.8935387E+01;  0.0000000E+00; -9.0965939E+00;0;  2.1480916E-01;  2.9754861E+04;  0.0000000E+00;  7.0638366E-02;  4.0000000E+04;  0.0000000E+00;  3.9936453E+04;  3.4091628E-01;  0.0000000E+00; -1.2610711E-01;  9.2727998E+03;
  1.0233938E+00;  9.9999998E-03;  6.0134225E-02;8338;  1.3485893E+00;  0.0000000E+00; -4.7887126E-03;  9.9101904E+02;  1.1501494E-01; -7.4188535E+03;3;  6.8936073E+01;  0.0000000E+00;  9.0965624E+00;0;  2.1480933E-01;  2.9754859E+04;  0.0000000E+00;  7.0638150E-02;  4.0000000E+04;  0.0000000E+00;  3.9936453E+04;  3.4091631E-01;  0.0000000E+00; -1.2610698E-01;  9.2727920E+03;
  1.0234579E+00;  9.9999998E-03; -7.0166983E-02;8325;  1.3482550E+00;  0.0000000E+00;  5.5449302E-03;  9.9174493E+02;  1.1501040E-01; -6.8192202E+03;3;  6.8345924E+01;  0.0000000E+00; -1.0455178E+01;0;  2.7484819E-01;  2.9801023E+04;  0.0000000E+00;  9.2341296E-02;  4.0000000E+04;  0.0000000E+00;  3.9935883E+04;  4.0215579E-01;  0.0000000E+00; -1.2730759E-01;  9.1159023E+03;
  1.0234896E+00;  9.9999998E-03; -8.0184624E-02;8324;  1.3479686E+00;  0.0000000E+00;  6.2656682E-03;  9.9255377E+02;  1.1500706E-01; -6.1510615E+03;3;  6.7694923E+01;  0.0000000E+00; -1.1915096E+01;0;  3.4538662E-01;  2.9852027E+04;  0.0000000E+00;  1.1440923E-01;  4.0000000E+04;  0.0000000E+00;  3.9934707E+04;  4.7363216E-01;  0.0000000E+00; -1.2824552E-01;  8.8866963E+03;
  1.0235153E+00;  9.9999998E-03; -9.0177059E-02;8323;  1.3477540E+00;  0.0000000E+00;  6.9669671E-03;  9.9342938E+02;  1.1500430E-01; -5.4277603E+03;3;  6.6954308E+01;  0.0000000E+00; -1.3306794E+01;0;  4.2670292E-01;  2.9907438E+04;  0.0000000E+00;  1.3378899E-01;  4.0000000E+04;  0.0000000E+00;  3.9932988E+04;  5.5540299E-01;  0.0000000E+00; -1.2870006E-01;  8.5755664E+03;
  1.0235637E+00;  9.9999998E-03; -1.0016286E-01;8322;  1.3476775E+00;  0.0000000E+00;  7.6387678E-03;  9.9434821E+02;  1.1500087E-01; -4.6687095E+03;3;  6.5887619E+01;  0.0000000E+00; -1.4375487E+01;0;  5.1931655E-01;  2.9966355E+04;  0.0000000E+00;  1.4573741E-01;  4.0000000E+04;  0.0000000E+00;  3.9930500E+04;  6.4768153E-01;  0.0000000E+00; -1.2836498E-01;  8.1727778E+03;
  1.0350722E+00;  9.9999998E-03; -4.0041160E-02;8389;  1.3469659E+00;  0.0000000E+00;  3.6248588E-03;  9.8927771E+02;  1.1409372E-01; -8.8524053E+03;3;  6.8614182E+01;  0.0000000E+00; -6.6252427E+00;0;  1.4876433E-01;  3.0129102E+04;  0.0000000E+00;  9.6619269E-03;  4.0000000E+04;  0.0000000E+00;  3.9941594E+04;  2.8943926E-01;  0.0000000E+00; -1.4067493E-01;  9.8881533E+03;
  1.0350680E+00;  9.9999998E-03; -3.0029636E-02;8390;  1.3471137E+00;  0.0000000E+00;  2.7096858E-03;  9.8887177E+02;  1.1409613E-01; -9.1875762E+03;3;  6.8897667E+01;  0.0000000E+00; -5.0147638E+00;0;  1.1802082E-01;  3.0103170E+04;  0.0000000E+00;  6.3615320E-03;  4.0000000E+04;  0.0000000E+00;  3.9942082E+04;  2.5706622E-01;  0.0000000E+00; -1.3904540E-01;  9.9942539E+03;
  1.0350653E+00;  9.9999998E-03; -2.0017048E-02;8391;  1.3472266E+00;  0.0000000E+00;  1.7995981E-03;  9.8858063E+02;  1.1409803E-01; -9.4279209E+03;3;  6.9004456E+01;  0.0000000E+00; -3.2913921E+00;0;  9.6227765E-02;  3.0084502E+04;  0.0000000E+00;  3.1534696E-03;  4.0000000E+04;  0.0000000E+00;  3.9942309E+04;  2.3404212E-01;  0.0000000E+00; -1.3781436E-01;  1.0063511E+04;
  1.0350633E+00;  9.9999998E-03; -1.0007080E-02;8392;  1.3472983E+00;  0.0000000E+00;  8.9666626E-04;  9.8840472E+02;  1.1409914E-01; -9.5731406E+03;3;  6.9002930E+01;  0.0000000E+00; -1.6412030E+00;0;  8.3222479E-02;  3.0073311E+04;  0.0000000E+00;  8.4045436E-04;  4.0000000E+04;  0.0000000E+00;  3.9942465E+04;  2.2027166E-01;  0.0000000E+00; -1.3704918E-01;  1.0102392E+04;
  1.0350624E+00;  9.9999998E-03; -1.6747509E-09;8393;  1.3473240E+00;  0.0000000E+00; -4.0106165E-08;  9.8834729E+02;  1.1409985E-01; -9.6205801E+03;3;  6.8983711E+01;  0.0000000E+00; -1.4093828E-05;0;  7.8899130E-02;  3.0069539E+04;  0.0000000E+00;  7.4762673E-13;  4.0000000E+04;  0.0000000E+00;  3.9942508E+04;  2.1568885E-01;  0.0000000E+00; -1.3678972E-01;  1.0114915E+04;
  1.0350633E+00;  9.9999998E-03;  1.0007077E-02;8394;  1.3472983E+00;  0.0000000E+00; -8.9674862E-04;  9.8840485E+02;  1.1409917E-01; -9.5730420E+03;3;  6.9002350E+01;  0.0000000E+00;  1.6411775E+00;0;  8.3222657E-02;  3.0073311E+04;  0.0000000E+00;  8.4041205E-04;  4.0000000E+04;  0.0000000E+00;  3.9942465E+04;  2.2027190E-01;  0.0000000E+00; -1.3704924E-01;  1.0102399E+04;
  1.0350653E+00;  9.9999998E-03;  2.0017046E-02;8395;  1.3472265E+00;  0.0000000E+00; -1.7996809E-03;  9.8858063E+02;  1.1409803E-01; -9.4279209E+03;3;  6.9003326E+01;  0.0000000E+00;  3.2914371E+00;0;  9.6227944E-02;  3.0084506E+04;  0.0000000E+00;  3.1536003E-03;  4.0000000E+04;  0.0000000E+00;  3.9942309E+04;  2.3404230E-01;  0.0000000E+00; -1.3781436E-01;  1.0063521E+04;
  1.0350680E+00;  9.9999998E-03;  3.0029632E-02;8396;  1.3471136E+00;  0.0000000E+00; -2.7097701E-03;  9.8887189E+02;  1.1409611E-01; -9.1874785E+03;3;  6.8898186E+01;  0.0000000E+00;  5.0148058E+00;0;  1.1802095E-01;  3.0103168E+04;  0.0000000E+00;  6.3618943E-03;  4.0000000E+04;  0.0000000E+00;  3.9942082E+04;  2.5706646E-01;  0.0000000E+00; -1.3904551E-01;  9.9942627E+03;
  1.0350722E+00;  9.9999998E-03;  4.0041156E-02;8397;  1.3469658E+00;  0.0000000E+00; -3.6249394E-03;  9.8927771E+02;  1.1409373E-01; -8.8524053E+03;3;  6.8614029E+01;  0.0000000E+00;  6.6252747E+00;0;  1.4876464E-01;  3.0129104E+04;  0.0000000E+00;  9.6623823E-03;  4.0000000E+04;  0.0000000E+00;  3.9941594E+04;  2.8943956E-01;  0.0000000E+00; -1.4067492E-01;  9.8881445E+03;
  1.0350794E+00;  9.9999998E-03; -5.0051622E-02;8388;  1.3468029E+00;  0.0000000E+00;  4.5503061E-03;  9.8979462E+02;  1.1409034E-01; -8.4256523E+03;3;  6.8479416E+01;  0.0000000E+00; -8.4141636E+00;0;  1.8868946E-01;  3.0162352E+04;  0.0000000E+00;  1.2241653E-02;  4.0000000E+04;  0.0000000E+00;  3.9940887E+04;  3.3129120E-01;  0.0000000E+00; -1.4260174E-01;  9.7366211E+03;
  1.0350794E+00;  9.9999998E-03;  5.0051622E-02;8398;  1.3468026E+00;  0.0000000E+00; -4.5503862E-03;  9.8979456E+02;  1.1409035E-01; -8.4257012E+03;3;  6.8480896E+01;  0.0000000E+00;  8.4141922E+00;0;  1.8868987E-01;  3.0162352E+04;  0.0000000E+00;  1.2241399E-02;  4.0000000E+04;  0.0000000E+00;  3.9940887E+04;  3.3129153E-01;  0.0000000E+00; -1.4260165E-01;  9.7366289E+03;
  1.0351174E+00;  9.9999998E-03; -7.0081897E-02;8386;  1.3464402E+00;  0.0000000E+00;  6.4425161E-03;  9.9113428E+02;  1.1408190E-01; -7.3195918E+03;3;  6.7741096E+01;  0.0000000E+00; -1.1822510E+01;0;  2.9734051E-01;  3.0249293E+04;  0.0000000E+00;  1.3070336E-02;  4.0000000E+04;  0.0000000E+00;  3.9938375E+04;  4.4409969E-01;  0.0000000E+00; -1.4675918E-01;  9.2677852E+03;
  1.0350931E+00;  9.9999998E-03; -6.0063168E-02;8387;  1.3466160E+00;  0.0000000E+00;  5.4954034E-03;  9.9041528E+02;  1.1408637E-01; -7.9132222E+03;3;  6.8242470E+01;  0.0000000E+00; -1.0156205E+01;0;  2.3809682E-01;  3.0202510E+04;  0.0000000E+00;  1.3487493E-02;  4.0000000E+04;  0.0000000E+00;  3.9939836E+04;  3.8278601E-01;  0.0000000E+00; -1.4468919E-01;  9.5315693E+03;
  1.0350931E+00;  9.9999998E-03;  6.0063165E-02;8399;  1.3466158E+00;  0.0000000E+00; -5.4954770E-03;  9.9041522E+02;  1.1408641E-01; -7.9132710E+03;3;  6.8243309E+01;  0.0000000E+00;  1.0156151E+01;0;  2.3809744E-01;  3.0202506E+04;  0.0000000E+00;  1.3489878E-02;  4.0000000E+04;  0.0000000E+00;  3.9939836E+04;  3.8278663E-01;  0.0000000E+00; -1.4468919E-01;  9.5315781E+03;
  1.0351501E+00;  9.9999998E-03; -8.0112651E-02;8385;  1.3463509E+00;  0.0000000E+00;  7.3653702E-03;  9.9193890E+02;  1.1407690E-01; -6.6552944E+03;3;  6.7036804E+01;  0.0000000E+00; -1.3289423E+01;0;  3.6673617E-01;  3.0301965E+04;  0.0000000E+00;  1.0860357E-02;  4.0000000E+04;  0.0000000E+00;  3.9936438E+04;  5.1530755E-01;  0.0000000E+00; -1.4857137E-01;  8.9435127E+03;
  1.0351750E+00;  9.9999998E-03; -9.0143986E-02;8384;  1.3463736E+00;  0.0000000E+00;  8.2808612E-03;  9.9281451E+02;  1.1407277E-01; -5.9323442E+03;3;  6.6613678E+01;  0.0000000E+00; -1.5162015E+01;0;  4.4637203E-01;  3.0359186E+04;  0.0000000E+00;  6.6923974E-03;  4.0000000E+04;  0.0000000E+00;  3.9934109E+04;  5.9615886E-01;  0.0000000E+00; -1.4978684E-01;  8.5569463E+03;
  1.0352137E+00;  9.9999998E-03; -1.0014693E-01;8383;  1.3464788E+00;  0.0000000E+00;  9.2511838E-03;  9.9373474E+02;  1.1406776E-01; -5.1726328E+03;3;  6.5805222E+01;  0.0000000E+00; -1.6658285E+01;0;  5.3630280E-01;  3.0419861E+04;  0.0000000E+00; -5.9598673E-04;  4.0000000E+04;  0.0000000E+00;  3.9931246E+04;  6.8634480E-01;  0.0000000E+00; -1.5004203E-01;  8.1133423E+03;
  1.0465648E+00;  9.9999998E-03; -1.4746384E-09;8454;  1.3447696E+00;  0.0000000E+00; -2.4921066E-08;  9.8875305E+02;  1.1318989E-01; -9.2795244E+03;3;  6.7597763E+01;  0.0000000E+00; -9.2400023E-06;0;  1.9619736E-01;  3.0575393E+04;  0.0000000E+00;  1.3932844E-13;  4.0000000E+04;  0.0000000E+00;  3.9946137E+04;  3.5120955E-01;  0.0000000E+00; -1.5501219E-01;  1.0328681E+04;
  1.0465432E+00;  9.9999998E-03; -3.0004570E-02;8451;  1.3447453E+00;  0.0000000E+00;  3.1004068E-03;  9.8920062E+02;  1.1318705E-01; -8.9102568E+03;3;  6.7918251E+01;  0.0000000E+00; -5.3822479E+00;0;  2.3486526E-01;  3.0604898E+04;  0.0000000E+00;  1.5044577E-03;  4.0000000E+04;  0.0000000E+00;  3.9945016E+04;  3.9282641E-01;  0.0000000E+00; -1.5796115E-01;  1.0132022E+04;
  1.0465548E+00;  9.9999998E-03; -2.0002902E-02;8452;  1.3447663E+00;  0.0000000E+00;  2.0400481E-03;  9.8895190E+02;  1.1318866E-01; -9.1154717E+03;3;  6.7809113E+01;  0.0000000E+00; -3.5169487E+00;0;  2.1334141E-01;  3.0588533E+04;  0.0000000E+00;  1.2736463E-03;  4.0000000E+04;  0.0000000E+00;  3.9945605E+04;  3.6969823E-01;  0.0000000E+00; -1.5635681E-01;  1.0243711E+04;
  1.0465622E+00;  9.9999998E-03; -1.0001243E-02;8453;  1.3447731E+00;  0.0000000E+00;  1.0110697E-03;  9.8880267E+02;  1.1318942E-01; -9.2386104E+03;3;  6.7629967E+01;  0.0000000E+00; -1.7020061E+00;0;  2.0047693E-01;  3.0578758E+04;  0.0000000E+00;  4.1441503E-04;  4.0000000E+04;  0.0000000E+00;  3.9946031E+04;  3.5583028E-01;  0.0000000E+00; -1.5535335E-01;  1.0307798E+04;
  1.0465622E+00;  9.9999998E-03;  1.0001240E-02;8455;  1.3447731E+00;  0.0000000E+00; -1.0111195E-03;  9.8880280E+02;  1.1318947E-01; -9.2385117E+03;3;  6.7629356E+01;  0.0000000E+00;  1.7019638E+00;0;  2.0047645E-01;  3.0578758E+04;  0.0000000E+00;  4.1463546E-04;  4.0000000E+04;  0.0000000E+00;  3.9946031E+04;  3.5582986E-01;  0.0000000E+00; -1.5535341E-01;  1.0307779E+04;
  1.0465548E+00;  9.9999998E-03;  2.0002898E-02;8456;  1.3447661E+00;  0.0000000E+00; -2.0400919E-03;  9.8895190E+02;  1.1318858E-01; -9.1154717E+03;3;  6.7807884E+01;  0.0000000E+00;  3.5169587E+00;0;  2.1334149E-01;  3.0588541E+04;  0.0000000E+00;  1.2739203E-03;  4.0000000E+04;  0.0000000E+00;  3.9945605E+04;  3.6969846E-01;  0.0000000E+00; -1.5635698E-01;  1.0243700E+04;
  1.0465432E+00;  9.9999998E-03;  3.0004568E-02;8457;  1.3447454E+00;  0.0000000E+00; -3.1004562E-03;  9.8920062E+02;  1.1318705E-01; -8.9102568E+03;3;  6.7918625E+01;  0.0000000E+00;  5.3821816E+00;0;  2.3486510E-01;  3.0604895E+04;  0.0000000E+00;  1.5048403E-03;  4.0000000E+04;  0.0000000E+00;  3.9945016E+04;  3.9282641E-01;  0.0000000E+00; -1.5796131E-01;  1.0132025E+04;
  1.0465291E+00;  9.9999998E-03; -4.0005330E-02;8450;  1.3447185E+00;  0.0000000E+00;  4.1791555E-03;  9.8954907E+02;  1.1318514E-01; -8.6227695E+03;3;  6.7863319E+01;  0.0000000E+00; -7.1402521E+00;0;  2.6515585E-01;  3.0627967E+04;  0.0000000E+00; -4.1561693E-04;  4.0000000E+04;  0.0000000E+00;  3.9944000E+04;  4.2522144E-01;  0.0000000E+00; -1.6006558E-01;  9.9655928E+03;
  1.0465291E+00;  9.9999998E-03;  4.0005326E-02;8458;  1.3447183E+00;  0.0000000E+00; -4.1792011E-03;  9.8954901E+02;  1.1318514E-01; -8.6228184E+03;3;  6.7863113E+01;  0.0000000E+00;  7.1402092E+00;0;  2.6515576E-01;  3.0627963E+04;  0.0000000E+00; -4.1511757E-04;  4.0000000E+04;  0.0000000E+00;  3.9943996E+04;  4.2522138E-01;  0.0000000E+00; -1.6006562E-01;  9.9655820E+03;
  1.0465144E+00;  9.9999998E-03; -5.0005153E-02;8449;  1.3446978E+00;  0.0000000E+00;  5.2629290E-03;  9.8999628E+02;  1.1318269E-01; -8.2538408E+03;3;  6.7473305E+01;  0.0000000E+00; -8.7873344E+00;0;  3.0434728E-01;  3.0657654E+04;  0.0000000E+00; -6.0834270E-03;  4.0000000E+04;  0.0000000E+00;  3.9942578E+04;  4.6687567E-01;  0.0000000E+00; -1.6252840E-01;  9.7363613E+03;
  1.0465144E+00;  9.9999998E-03;  5.0005153E-02;8459;  1.3446976E+00;  0.0000000E+00; -5.2629723E-03;  9.8999628E+02;  1.1318269E-01; -8.2538408E+03;3;  6.7472366E+01;  0.0000000E+00;  8.7873659E+00;0;  3.0434769E-01;  3.0657654E+04;  0.0000000E+00; -6.0813110E-03;  4.0000000E+04;  0.0000000E+00;  3.9942578E+04;  4.6687609E-01;  0.0000000E+00; -1.6252841E-01;  9.7363760E+03;
  1.0465015E+00;  9.9999998E-03; -6.0006618E-02;8448;  1.3446958E+00;  0.0000000E+00;  6.3784039E-03;  9.9053931E+02;  1.1317975E-01; -7.8057842E+03;3;  6.7407280E+01;  0.0000000E+00; -1.1127461E+01;0;  3.5260025E-01;  3.0693883E+04;  0.0000000E+00; -1.6738340E-02;  4.0000000E+04;  0.0000000E+00;  3.9940645E+04;  5.1776469E-01;  0.0000000E+00; -1.6516444E-01;  9.4390635E+03;
  1.0465015E+00;  9.9999998E-03;  6.0006618E-02;8460;  1.3446956E+00;  0.0000000E+00; -6.3784495E-03;  9.9053937E+02;  1.1317974E-01; -7.8057349E+03;3;  6.7407890E+01;  0.0000000E+00;  1.1127380E+01;0;  3.5260135E-01;  3.0693885E+04;  0.0000000E+00; -1.6738212E-02;  4.0000000E+04;  0.0000000E+00;  3.9940641E+04;  5.1776564E-01;  0.0000000E+00; -1.6516428E-01;  9.4390732E+03;
  1.0464939E+00;  9.9999998E-03; -7.0013359E-02;8447;  1.3446946E+00;  0.0000000E+00;  7.5775203E-03;  9.9116821E+02;  1.1317585E-01; -7.2869067E+03;3;  6.7318016E+01;  0.0000000E+00; -1.3128957E+01;0;  4.1007060E-01;  3.0736371E+04;  0.0000000E+00; -3.2909553E-02;  4.0000000E+04;  0.0000000E+00;  3.9938242E+04;  5.7781541E-01;  0.0000000E+00; -1.6774483E-01;  9.0751191E+03;
  1.0464936E+00;  9.9999998E-03; -8.0029063E-02;8446;  1.3447536E+00;  0.0000000E+00;  8.8024260E-03;  9.9188446E+02;  1.1317161E-01; -6.6959302E+03;3;  6.6469398E+01;  0.0000000E+00; -1.4747062E+01;0;  4.7681236E-01;  3.0784723E+04;  0.0000000E+00; -5.4243259E-02;  4.0000000E+04;  0.0000000E+00;  3.9935449E+04;  6.4680898E-01;  0.0000000E+00; -1.6999662E-01;  8.6541055E+03;
  1.0465015E+00;  9.9999998E-03; -9.0058029E-02;8445;  1.3449975E+00;  0.0000000E+00;  1.0018191E-02;  9.9267065E+02;  1.1316686E-01; -6.0472646E+03;3;  6.5698517E+01;  0.0000000E+00; -1.6448978E+01;0;  5.5278474E-01;  3.0837980E+04;  0.0000000E+00; -7.9648472E-02;  4.0000000E+04;  0.0000000E+00;  3.9932367E+04;  7.2436762E-01;  0.0000000E+00; -1.7158286E-01;  8.1907300E+03;
  1.0465175E+00;  9.9999998E-03; -1.0009582E-01;8444;  1.3453345E+00;  0.0000000E+00;  1.1316484E-02;  9.9351392E+02;  1.1316193E-01; -5.3514839E+03;3;  6.5658157E+01;  0.0000000E+00; -1.8733871E+01;0;  6.3778162E-01;  3.0895020E+04;  0.0000000E+00; -1.0778286E-01;  4.0000000E+04;  0.0000000E+00;  3.9928938E+04;  8.0985165E-01;  0.0000000E+00; -1.7207001E-01;  7.6990918E+03;
  1.0578032E+00;  9.9999998E-03; -3.0004511E-02;8512;  1.3424894E+00;  0.0000000E+00;  3.5648001E-03;  9.9016156E+02;  1.1230452E-01; -8.1113477E+03;3;  6.7082375E+01;  0.0000000E+00; -5.8504381E+00;0;  4.2918336E-01;  3.1144295E+04;  0.0000000E+00;  4.8752814E-03;  4.0000000E+04;  0.0000000E+00;  3.9945812E+04;  6.0805184E-01;  0.0000000E+00; -1.7886846E-01;  9.9721016E+03;
  1.0578213E+00;  9.9999998E-03; -2.0003425E-02;8513;  1.3424070E+00;  0.0000000E+00;  2.3279560E-03;  9.8998029E+02;  1.1230534E-01; -8.2607754E+03;3;  6.6475250E+01;  0.0000000E+00; -3.5077562E+00;0;  4.0818059E-01;  3.1131717E+04;  0.0000000E+00;  3.0809245E-03;  4.0000000E+04;  0.0000000E+00;  3.9946941E+04;  5.8524847E-01;  0.0000000E+00; -1.7706788E-01;  1.0122020E+04;
  1.0578326E+00;  9.9999998E-03; -1.0001575E-02;8514;  1.3423268E+00;  0.0000000E+00;  1.1637363E-03;  9.8987262E+02;  1.1230598E-01; -8.3495176E+03;3;  6.6271400E+01;  0.0000000E+00; -1.4899821E+00;0;  3.9559704E-01;  3.1124262E+04;  0.0000000E+00;  9.1306097E-04;  4.0000000E+04;  0.0000000E+00;  3.9947551E+04;  5.7153225E-01;  0.0000000E+00; -1.7593522E-01;  1.0208672E+04;
  1.0578365E+00;  9.9999998E-03; -1.4617657E-09;8515;  1.3422909E+00;  0.0000000E+00; -7.3591111E-09;  9.8983551E+02;  1.1230620E-01; -8.3801299E+03;3;  6.6458160E+01;  0.0000000E+00; -1.7356224E-05;0;  3.9140868E-01;  3.1121812E+04;  0.0000000E+00;  6.9540036E-14;  4.0000000E+04;  0.0000000E+00;  3.9947723E+04;  5.6695765E-01;  0.0000000E+00; -1.7554899E-01;  1.0236983E+04;
  1.0578326E+00;  9.9999998E-03;  1.0001572E-02;8516;  1.3423266E+00;  0.0000000E+00; -1.1637432E-03;  9.8987250E+02;  1.1230604E-01; -8.3496152E+03;3;  6.6270943E+01;  0.0000000E+00;  1.4899248E+00;0;  3.9559701E-01;  3.1124258E+04;  0.0000000E+00;  9.1352430E-04;  4.0000000E+04;  0.0000000E+00;  3.9947551E+04;  5.7153213E-01;  0.0000000E+00; -1.7593512E-01;  1.0208681E+04;
  1.0578213E+00;  9.9999998E-03;  2.0003421E-02;8517;  1.3424070E+00;  0.0000000E+00; -2.3279660E-03;  9.8998029E+02;  1.1230534E-01; -8.2607754E+03;3;  6.6474213E+01;  0.0000000E+00;  3.5077045E+00;0;  4.0818006E-01;  3.1131713E+04;  0.0000000E+00;  3.0816586E-03;  4.0000000E+04;  0.0000000E+00;  3.9946941E+04;  5.8524811E-01;  0.0000000E+00; -1.7706804E-01;  1.0122022E+04;
  1.0578032E+00;  9.9999998E-03;  3.0004507E-02;8518;  1.3424891E+00;  0.0000000E+00; -3.5648041E-03;  9.9016156E+02;  1.1230452E-01; -8.1113477E+03;3;  6.7082657E+01;  0.0000000E+00;  5.8503656E+00;0;  4.2918405E-01;  3.1144291E+04;  0.0000000E+00;  4.8770467E-03;  4.0000000E+04;  0.0000000E+00;  3.9945812E+04;  6.0805237E-01;  0.0000000E+00; -1.7886832E-01;  9.9721025E+03;
  1.0577567E+00;  9.9999998E-03; -4.9998034E-02;8510;  1.3426619E+00;  0.0000000E+00;  6.1763790E-03;  9.9075580E+02;  1.1230149E-01; -7.6214355E+03;3;  6.6734146E+01;  0.0000000E+00; -9.5139675E+00;0;  4.9653488E-01;  3.1185838E+04;  0.0000000E+00; -2.4928739E-03;  4.0000000E+04;  0.0000000E+00;  3.9942148E+04;  6.8045312E-01;  0.0000000E+00; -1.8391824E-01;  9.4553164E+03;
  1.0577805E+00;  9.9999998E-03; -4.0003080E-02;8511;  1.3425624E+00;  0.0000000E+00;  4.8616803E-03;  9.9042029E+02;  1.1230335E-01; -7.8980381E+03;3;  6.7188622E+01;  0.0000000E+00; -7.7528415E+00;0;  4.5863357E-01;  3.1162309E+04;  0.0000000E+00;  3.9034933E-03;  4.0000000E+04;  0.0000000E+00;  3.9944297E+04;  6.3984287E-01;  0.0000000E+00; -1.8120930E-01;  9.7520020E+03;
  1.0577805E+00;  9.9999998E-03;  4.0003076E-02;8519;  1.3425623E+00;  0.0000000E+00; -4.8616882E-03;  9.9042023E+02;  1.1230336E-01; -7.8980874E+03;3;  6.7188354E+01;  0.0000000E+00;  7.7527738E+00;0;  4.5863354E-01;  3.1162316E+04;  0.0000000E+00;  3.9030558E-03;  4.0000000E+04;  0.0000000E+00;  3.9944297E+04;  6.3984281E-01;  0.0000000E+00; -1.8120927E-01;  9.7520029E+03;
  1.0577567E+00;  9.9999998E-03;  4.9998034E-02;8520;  1.3426617E+00;  0.0000000E+00; -6.1763912E-03;  9.9075580E+02;  1.1230149E-01; -7.6214355E+03;3;  6.6735222E+01;  0.0000000E+00;  9.5139112E+00;0;  4.9653482E-01;  3.1185838E+04;  0.0000000E+00; -2.4915868E-03;  4.0000000E+04;  0.0000000E+00;  3.9942148E+04;  6.8045318E-01;  0.0000000E+00; -1.8391836E-01;  9.4553291E+03;
  1.0577339E+00;  9.9999998E-03; -5.9991702E-02;8509;  1.3428448E+00;  0.0000000E+00;  7.5012972E-03;  9.9117029E+02;  1.1229905E-01; -7.2797183E+03;3;  6.6168961E+01;  0.0000000E+00; -1.1315763E+01;0;  5.4282409E-01;  3.1215135E+04;  0.0000000E+00; -1.6629357E-02;  4.0000000E+04;  0.0000000E+00;  3.9939391E+04;  7.2960281E-01;  0.0000000E+00; -1.8677871E-01;  9.0793965E+03;
  1.0577339E+00;  9.9999998E-03;  5.9991702E-02;8521;  1.3428446E+00;  0.0000000E+00; -7.5013097E-03;  9.9117023E+02;  1.1229906E-01; -7.2797671E+03;3;  6.6167656E+01;  0.0000000E+00;  1.1315807E+01;0;  5.4282475E-01;  3.1215137E+04;  0.0000000E+00; -1.6629197E-02;  4.0000000E+04;  0.0000000E+00;  3.9939395E+04;  7.2960371E-01;  0.0000000E+00; -1.8677898E-01;  9.0793916E+03;
  1.0577140E+00;  9.9999998E-03; -6.9987617E-02;8508;  1.3430510E+00;  0.0000000E+00;  8.9420760E-03;  9.9166333E+02;  1.1229583E-01; -6.8732305E+03;3;  6.6895439E+01;  0.0000000E+00; -1.4426243E+01;0;  5.9738660E-01;  3.1250033E+04;  0.0000000E+00; -3.9898746E-02;  4.0000000E+04;  0.0000000E+00;  3.9936137E+04;  7.8691167E-01;  0.0000000E+00; -1.8952510E-01;  8.6297939E+03;
  1.0576987E+00;  9.9999998E-03; -7.9989567E-02;8507;  1.3432677E+00;  0.0000000E+00;  1.0536402E-02;  9.9223083E+02;  1.1229210E-01; -6.4053604E+03;3;  6.6139091E+01;  0.0000000E+00; -1.6273176E+01;0;  6.5993559E-01;  3.1290361E+04;  0.0000000E+00; -7.2335802E-02;  4.0000000E+04;  0.0000000E+00;  3.9932430E+04;  8.5178745E-01;  0.0000000E+00; -1.9185187E-01;  8.1226440E+03;
  1.0576900E+00;  9.9999998E-03; -9.0001151E-02;8506;  1.3436786E+00;  0.0000000E+00;  1.2184679E-02;  9.9287048E+02;  1.1228826E-01; -5.8779766E+03;3;  6.5049438E+01;  0.0000000E+00; -1.8220083E+01;0;  7.3003387E-01;  3.1335652E+04;  0.0000000E+00; -1.1247542E-01;  4.0000000E+04;  0.0000000E+00;  3.9928508E+04;  9.2343885E-01;  0.0000000E+00; -1.9340494E-01;  7.5833052E+03;
  1.0576899E+00;  9.9999998E-03; -1.0002631E-01;8505;  1.3442885E+00;  0.0000000E+00;  1.3939387E-02;  9.9357367E+02;  1.1228382E-01; -5.2982529E+03;3;  6.4587990E+01;  0.0000000E+00; -2.0787590E+01;0;  8.0710459E-01;  3.1385172E+04;  0.0000000E+00; -1.5759537E-01;  4.0000000E+04;  0.0000000E+00;  3.9924633E+04;  1.0008520E+00;  0.0000000E+00; -1.9374739E-01;  7.0406421E+03;
  1.0688068E+00;  9.9999998E-03; -9.9994883E-02;8566;  1.3437009E+00;  0.0000000E+00;  1.7237950E-02;  9.9379919E+02;  1.1143637E-01; -5.1078281E+03;3;  6.0984020E+01;  0.0000000E+00; -2.3500328E+01;0;  1.0274754E+00;  3.1880791E+04;  0.0000000E+00; -1.5140504E-01;  4.0000000E+04;  0.0000000E+00;  3.9918938E+04;  1.2414401E+00;  0.0000000E+00; -2.1396472E-01;  6.2608257E+03;
  1.0688049E+00;  9.9999998E-03; -8.9986481E-02;8567;  1.3426046E+00;  0.0000000E+00;  1.4821747E-02;  9.9327258E+02;  1.1144062E-01; -5.5416157E+03;3;  6.3886189E+01;  0.0000000E+00; -2.0380764E+01;0;  9.6110219E-01;  3.1841373E+04;  0.0000000E+00; -9.7615898E-02;  4.0000000E+04;  0.0000000E+00;  3.9923344E+04;  1.1752435E+00;  0.0000000E+00; -2.1414131E-01;  6.8449585E+03;
  1.0688080E+00;  9.9999998E-03; -7.9988346E-02;8568;  1.3419414E+00;  0.0000000E+00;  1.2635827E-02;  9.9281165E+02;  1.1144437E-01; -5.9213428E+03;3;  6.5242371E+01;  0.0000000E+00; -1.8097992E+01;0;  8.9913726E-01;  3.1806135E+04;  0.0000000E+00; -5.1988050E-02;  4.0000000E+04;  0.0000000E+00;  3.9928000E+04;  1.1121309E+00;  0.0000000E+00; -2.1299361E-01;  7.4417070E+03;
  1.0688161E+00;  9.9999998E-03; -6.9996260E-02;8569;  1.3415084E+00;  0.0000000E+00;  1.0661688E-02;  9.9241437E+02;  1.1144764E-01; -6.2485806E+03;3;  6.6086716E+01;  0.0000000E+00; -1.5340139E+01;0;  8.4266269E-01;  3.1775742E+04;  0.0000000E+00; -1.7583357E-02;  4.0000000E+04;  0.0000000E+00;  3.9932469E+04;  1.0536195E+00;  0.0000000E+00; -2.1095683E-01;  8.0131958E+03;
  1.0688289E+00;  9.9999998E-03; -6.0006082E-02;8570;  1.3410585E+00;  0.0000000E+00;  8.9178812E-03;  9.9209076E+02;  1.1145072E-01; -6.5151304E+03;3;  6.5437012E+01;  0.0000000E+00; -1.2366401E+01;0;  7.9255688E-01;  3.1750080E+04;  0.0000000E+00;  4.5032077E-03;  4.0000000E+04;  0.0000000E+00;  3.9936520E+04;  1.0009545E+00;  0.0000000E+00; -2.0839763E-01;  8.5283135E+03;
  1.0688462E+00;  9.9999998E-03; -5.0013136E-02;8571;  1.3407478E+00;  0.0000000E+00;  7.2569861E-03;  9.9182385E+02;  1.1145236E-01; -6.7349834E+03;3;  6.6165276E+01;  0.0000000E+00; -1.0561681E+01;0;  7.4946743E-01;  3.1729371E+04;  0.0000000E+00;  1.5146857E-02;  4.0000000E+04;  0.0000000E+00;  3.9939961E+04;  9.5510817E-01;  0.0000000E+00; -2.0564073E-01;  8.9667354E+03;
  1.0688666E+00;  9.9999998E-03; -4.0014479E-02;8572;  1.3405529E+00;  0.0000000E+00;  5.6449119E-03;  9.9161890E+02;  1.1145368E-01; -6.9038203E+03;3;  6.6873016E+01;  0.0000000E+00; -8.7134171E+00;0;  7.1384180E-01;  3.1713271E+04;  0.0000000E+00;  1.6792515E-02;  4.0000000E+04;  0.0000000E+00;  3.9942758E+04;  9.1681075E-01;  0.0000000E+00; -2.0296898E-01;  9.3191094E+03;
  1.0688870E+00;  9.9999998E-03; -3.0012032E-02;8573;  1.3403795E+00;  0.0000000E+00;  4.1178307E-03;  9.9146790E+02;  1.1145495E-01; -7.0281748E+03;3;  6.6344452E+01;  0.0000000E+00; -6.3383012E+00;0;  6.8596572E-01;  3.1701451E+04;  0.0000000E+00;  1.2826053E-02;  4.0000000E+04;  0.0000000E+00;  3.9944930E+04;  8.8658941E-01;  0.0000000E+00; -2.0062368E-01;  9.5841543E+03;
  1.0689039E+00;  9.9999998E-03; -2.0008402E-02;8574;  1.3401577E+00;  0.0000000E+00;  2.7451816E-03;  9.9136627E+02;  1.1145537E-01; -7.1118765E+03;3;  6.5093864E+01;  0.0000000E+00; -3.0171406E+00;0;  6.6600573E-01;  3.1693434E+04;  0.0000000E+00;  6.8332716E-03;  4.0000000E+04;  0.0000000E+00;  3.9946301E+04;  8.6480665E-01;  0.0000000E+00; -1.9880092E-01;  9.7663086E+03;
  1.0689145E+00;  9.9999998E-03; -1.0004357E-02;8575;  1.3400221E+00;  0.0000000E+00;  1.3727924E-03;  9.9130743E+02;  1.1145575E-01; -7.1603306E+03;3;  6.5193031E+01;  0.0000000E+00; -1.4059321E+00;0;  6.5400320E-01;  3.1688775E+04;  0.0000000E+00;  1.8834432E-03;  4.0000000E+04;  0.0000000E+00;  3.9947141E+04;  8.5165024E-01;  0.0000000E+00; -1.9764705E-01;  9.8721484E+03;
  1.0689180E+00;  9.9999998E-03; -1.5145307E-09;8576;  1.3399730E+00;  0.0000000E+00;  8.9817718E-09;  9.9128821E+02;  1.1145600E-01; -7.1761865E+03;3;  6.5330605E+01;  0.0000000E+00; -7.7052930E-05;0;  6.4999497E-01;  3.1687283E+04;  0.0000000E+00;  1.2961782E-13;  4.0000000E+04;  0.0000000E+00;  3.9947340E+04;  8.4724736E-01;  0.0000000E+00; -1.9725242E-01;  9.9068145E+03;
  1.0689145E+00;  9.9999998E-03;  1.0004355E-02;8577;  1.3400220E+00;  0.0000000E+00; -1.3727720E-03;  9.9130737E+02;  1.1145569E-01; -7.1603799E+03;3;  6.5190727E+01;  0.0000000E+00;  1.4058735E+00;0;  6.5400237E-01;  3.1688779E+04;  0.0000000E+00;  1.8839374E-03;  4.0000000E+04;  0.0000000E+00;  3.9947141E+04;  8.5164946E-01;  0.0000000E+00; -1.9764711E-01;  9.8721670E+03;
  1.0689039E+00;  9.9999998E-03;  2.0008398E-02;8578;  1.3401576E+00;  0.0000000E+00; -2.7451578E-03;  9.9136621E+02;  1.1145536E-01; -7.1119258E+03;3;  6.5093018E+01;  0.0000000E+00;  3.0170481E+00;0;  6.6600490E-01;  3.1693439E+04;  0.0000000E+00;  6.8343421E-03;  4.0000000E+04;  0.0000000E+00;  3.9946297E+04;  8.6480600E-01;  0.0000000E+00; -1.9880112E-01;  9.7663008E+03;
  1.0688870E+00;  9.9999998E-03;  3.0012028E-02;8579;  1.3403794E+00;  0.0000000E+00; -4.1178092E-03;  9.9146790E+02;  1.1145495E-01; -7.0281748E+03;3;  6.6344765E+01;  0.0000000E+00;  6.3382945E+00;0;  6.8596542E-01;  3.1701453E+04;  0.0000000E+00;  1.2826566E-02;  4.0000000E+04;  0.0000000E+00;  3.9944934E+04;  8.8658899E-01;  0.0000000E+00; -2.0062360E-01;  9.5841738E+03;
  1.0688666E+00;  9.9999998E-03;  4.0014479E-02;8580;  1.3405528E+00;  0.0000000E+00; -5.6448765E-03;  9.9161884E+02;  1.1145377E-01; -6.9038696E+03;3;  6.6872864E+01;  0.0000000E+00;  8.7134724E+00;0;  7.1384203E-01;  3.1713271E+04;  0.0000000E+00;  1.6794611E-02;  4.0000000E+04;  0.0000000E+00;  3.9942758E+04;  9.1681129E-01;  0.0000000E+00; -2.0296928E-01;  9.3191113E+03;
  1.0688462E+00;  9.9999998E-03;  5.0013136E-02;8581;  1.3407477E+00;  0.0000000E+00; -7.2569591E-03;  9.9182385E+02;  1.1145244E-01; -6.7349834E+03;3;  6.6166229E+01;  0.0000000E+00;  1.0561665E+01;0;  7.4946690E-01;  3.1729367E+04;  0.0000000E+00;  1.5147300E-02;  4.0000000E+04;  0.0000000E+00;  3.9939953E+04;  9.5510775E-01;  0.0000000E+00; -2.0564087E-01;  8.9667500E+03;
  1.0688289E+00;  9.9999998E-03;  6.0006078E-02;8582;  1.3410583E+00;  0.0000000E+00; -8.9178514E-03;  9.9209076E+02;  1.1145072E-01; -6.5151304E+03;3;  6.5437515E+01;  0.0000000E+00;  1.2366258E+01;0;  7.9255795E-01;  3.1750084E+04;  0.0000000E+00;  4.5033689E-03;  4.0000000E+04;  0.0000000E+00;  3.9936520E+04;  1.0009557E+00;  0.0000000E+00; -2.0839778E-01;  8.5283232E+03;
  1.0798562E+00;  9.9999998E-03; -1.0000443E-01;8627;  1.3464347E+00;  0.0000000E+00;  2.1944173E-02;  9.9409674E+02;  1.1062571E-01; -4.8577490E+03;3;  3.7928528E+01;  0.0000000E+00; -2.9881248E+01;0;  1.2774208E+00;  3.2372357E+04;  0.0000000E+00; -1.0618412E-01;  4.0000000E+04;  0.0000000E+00;  3.9912730E+04;  1.5088344E+00;  0.0000000E+00; -2.3141366E-01;  5.4617295E+03;
  1.0798409E+00;  9.9999998E-03; -9.0005286E-02;8628;  1.3428071E+00;  0.0000000E+00;  1.8299567E-02;  9.9374908E+02;  1.1062942E-01; -5.1438564E+03;3;  5.1024277E+01;  0.0000000E+00; -2.5336197E+01;0;  1.2250236E+00;  3.2343748E+04;  0.0000000E+00; -5.3577233E-02;  4.0000000E+04;  0.0000000E+00;  3.9917488E+04;  1.4574842E+00;  0.0000000E+00; -2.3246057E-01;  6.0629604E+03;
  1.0798290E+00;  9.9999998E-03; -8.0012672E-02;8629;  1.3411006E+00;  0.0000000E+00;  1.5397521E-02;  9.9347198E+02;  1.1063302E-01; -5.3718892E+03;3;  6.0238747E+01;  0.0000000E+00; -2.0327906E+01;0;  1.1742426E+00;  3.2319514E+04;  0.0000000E+00; -1.1411178E-02;  4.0000000E+04;  0.0000000E+00;  3.9922629E+04;  1.4063327E+00;  0.0000000E+00; -2.3209012E-01;  6.6883335E+03;
  1.0798236E+00;  9.9999998E-03; -7.0021555E-02;8630;  1.3401501E+00;  0.0000000E+00;  1.2906628E-02;  9.9325403E+02;  1.1063586E-01; -5.5512622E+03;3;  6.3087986E+01;  0.0000000E+00; -1.7116873E+01;0;  1.1266222E+00;  3.2299539E+04;  0.0000000E+00;  1.7532391E-02;  4.0000000E+04;  0.0000000E+00;  3.9927598E+04;  1.3573453E+00;  0.0000000E+00; -2.3072320E-01;  7.2961479E+03;
  1.0798247E+00;  9.9999998E-03; -6.0025752E-02;8631;  1.3394758E+00;  0.0000000E+00;  1.0668653E-02;  9.9309222E+02;  1.1063806E-01; -5.6843794E+03;3;  6.4428963E+01;  0.0000000E+00; -1.4154651E+01;0;  1.0834126E+00;  3.2283777E+04;  0.0000000E+00;  3.2815084E-02;  4.0000000E+04;  0.0000000E+00;  3.9932215E+04;  1.3121309E+00;  0.0000000E+00; -2.2871824E-01;  7.8526729E+03;
  1.0798297E+00;  9.9999998E-03; -5.0024338E-02;8632;  1.3389925E+00;  0.0000000E+00;  8.5883802E-03;  9.9297577E+02;  1.1063978E-01; -5.7802173E+03;3;  6.5331924E+01;  0.0000000E+00; -1.1933681E+01;0;  1.0455428E+00;  3.2271963E+04;  0.0000000E+00;  3.6144398E-02;  4.0000000E+04;  0.0000000E+00;  3.9936328E+04;  1.2719378E+00;  0.0000000E+00; -2.2639497E-01;  8.3332656E+03;
  1.0798379E+00;  9.9999998E-03; -4.0020842E-02;8633;  1.3386521E+00;  0.0000000E+00;  6.6635879E-03;  9.9290179E+02;  1.1064105E-01; -5.8410820E+03;3;  6.6071899E+01;  0.0000000E+00; -9.3553896E+00;0;  1.0137908E+00;  3.2263473E+04;  0.0000000E+00;  3.0816076E-02;  4.0000000E+04;  0.0000000E+00;  3.9939605E+04;  1.2378361E+00;  0.0000000E+00; -2.2404526E-01;  8.7237871E+03;
  1.0798477E+00;  9.9999998E-03; -3.0016614E-02;8634;  1.3383321E+00;  0.0000000E+00;  4.9218703E-03;  9.9285712E+02;  1.1064203E-01; -5.8778618E+03;3;  6.5263428E+01;  0.0000000E+00; -6.2014732E+00;0;  9.8868811E-01;  3.2257865E+04;  0.0000000E+00;  2.0915745E-02;  4.0000000E+04;  0.0000000E+00;  3.9942188E+04;  1.2106148E+00;  0.0000000E+00; -2.2192672E-01;  9.0203496E+03;
  1.0798571E+00;  9.9999998E-03; -2.0011880E-02;8635;  1.3380500E+00;  0.0000000E+00;  3.2663762E-03;  9.9283289E+02;  1.1064263E-01; -5.8977705E+03;3;  6.4460220E+01;  0.0000000E+00; -3.5573997E+00;0;  9.7058719E-01;  3.2254385E+04;  0.0000000E+00;  1.0479128E-02;  4.0000000E+04;  0.0000000E+00;  3.9943934E+04;  1.1908408E+00;  0.0000000E+00; -2.2025363E-01;  9.2258408E+03;
  1.0798633E+00;  9.9999998E-03; -1.0006288E-02;8636;  1.3378844E+00;  0.0000000E+00;  1.6330355E-03;  9.9282263E+02;  1.1064311E-01; -5.9062031E+03;3;  6.4768440E+01;  0.0000000E+00; -1.7048001E+00;0;  9.5965719E-01;  3.2252629E+04;  0.0000000E+00;  2.8011524E-03;  4.0000000E+04;  0.0000000E+00;  3.9944957E+04;  1.1788414E+00;  0.0000000E+00; -2.1918413E-01;  9.3458906E+03;
  1.0798653E+00;  9.9999998E-03; -1.5872409E-09;8637;  1.3378328E+00;  0.0000000E+00;  2.5163699E-08;  9.9281909E+02;  1.1064316E-01; -5.9091450E+03;3;  6.4899185E+01;  0.0000000E+00; -2.3379718E-05;0;  9.5599341E-01;  3.2251965E+04;  0.0000000E+00;  1.4467484E-13;  4.0000000E+04;  0.0000000E+00;  3.9945262E+04;  1.1748098E+00;  0.0000000E+00; -2.1881641E-01;  9.3852900E+03;
  1.0798633E+00;  9.9999998E-03;  1.0006285E-02;8638;  1.3378844E+00;  0.0000000E+00; -1.6329837E-03;  9.9282263E+02;  1.1064295E-01; -5.9062031E+03;3;  6.4769684E+01;  0.0000000E+00;  1.7046847E+00;0;  9.5965815E-01;  3.2252629E+04;  0.0000000E+00;  2.8015615E-03;  4.0000000E+04;  0.0000000E+00;  3.9944953E+04;  1.1788422E+00;  0.0000000E+00; -2.1918403E-01;  9.3458965E+03;
  1.0798571E+00;  9.9999998E-03;  2.0011876E-02;8639;  1.3380499E+00;  0.0000000E+00; -3.2663231E-03;  9.9283276E+02;  1.1064267E-01; -5.8978687E+03;3;  6.4461052E+01;  0.0000000E+00;  3.5573332E+00;0;  9.7058773E-01;  3.2254389E+04;  0.0000000E+00;  1.0480124E-02;  4.0000000E+04;  0.0000000E+00;  3.9943934E+04;  1.1908416E+00;  0.0000000E+00; -2.2025383E-01;  9.2258389E+03;
  1.0798477E+00;  9.9999998E-03;  3.0016612E-02;8640;  1.3383319E+00;  0.0000000E+00; -4.9218149E-03;  9.9285730E+02;  1.1064215E-01; -5.8777148E+03;3;  6.5263657E+01;  0.0000000E+00;  6.2015018E+00;0;  9.8868883E-01;  3.2257865E+04;  0.0000000E+00;  2.0916905E-02;  4.0000000E+04;  0.0000000E+00;  3.9942188E+04;  1.2106158E+00;  0.0000000E+00; -2.2192696E-01;  9.0203496E+03;
  1.0798379E+00;  9.9999998E-03;  4.0020838E-02;8641;  1.3386520E+00;  0.0000000E+00; -6.6635339E-03;  9.9290186E+02;  1.1064105E-01; -5.8410327E+03;3;  6.6071777E+01;  0.0000000E+00;  9.3553562E+00;0;  1.0137912E+00;  3.2263471E+04;  0.0000000E+00;  3.0818412E-02;  4.0000000E+04;  0.0000000E+00;  3.9939609E+04;  1.2378366E+00;  0.0000000E+00; -2.2404537E-01;  8.7237998E+03;
  1.0798297E+00;  9.9999998E-03;  5.0024338E-02;8642;  1.3389924E+00;  0.0000000E+00; -8.5883159E-03;  9.9297577E+02;  1.1063978E-01; -5.7802173E+03;3;  6.5331390E+01;  0.0000000E+00;  1.1933614E+01;0;  1.0455422E+00;  3.2271963E+04;  0.0000000E+00;  3.6146432E-02;  4.0000000E+04;  0.0000000E+00;  3.9936332E+04;  1.2719371E+00;  0.0000000E+00; -2.2639491E-01;  8.3332764E+03;
  1.0798247E+00;  9.9999998E-03;  6.0025748E-02;8643;  1.3394756E+00;  0.0000000E+00; -1.0668600E-02;  9.9309216E+02;  1.1063806E-01; -5.6844282E+03;3;  6.4429405E+01;  0.0000000E+00;  1.4154553E+01;0;  1.0834140E+00;  3.2283777E+04;  0.0000000E+00;  3.2815278E-02;  4.0000000E+04;  0.0000000E+00;  3.9932215E+04;  1.3121324E+00;  0.0000000E+00; -2.2871839E-01;  7.8526812E+03;
  1.0908406E+00;  9.9999998E-03; -1.0003741E-01;8688;  1.3641212E+00;  0.0000000E+00;  2.8883211E-02;  9.9439526E+02;  1.0985419E-01; -4.6065972E+03;3; -1.3779430E+01;  0.0000000E+00; -2.8571905E+01;0;  1.5336277E+00;  3.2852113E+04;  0.0000000E+00; -4.7364131E-02;  4.0000000E+04;  0.0000000E+00;  3.9906273E+04;  1.7786548E+00;  0.0000000E+00; -2.4502705E-01;  4.7168130E+03;
  1.0908184E+00;  9.9999998E-03; -9.0037249E-02;8689;  1.3537883E+00;  0.0000000E+00;  2.4502398E-02;  9.9421643E+02;  1.0985785E-01; -4.7535786E+03;3; -5.7718124E+00;  0.0000000E+00; -3.0094059E+01;0;  1.4987998E+00;  3.2834121E+04;  0.0000000E+00; -3.2774566E-03;  4.0000000E+04;  0.0000000E+00;  3.9911234E+04;  1.7460116E+00;  0.0000000E+00; -2.4721180E-01;  5.3005986E+03;
  1.0907997E+00;  9.9999998E-03; -8.0037907E-02;8690;  1.3458836E+00;  0.0000000E+00;  2.0096909E-02;  9.9410345E+02;  1.0986110E-01; -4.8464741E+03;3;  1.0661507E+01;  0.0000000E+00; -2.9452263E+01;0;  1.4630895E+00;  3.2820273E+04;  0.0000000E+00;  2.9928016E-02;  4.0000000E+04;  0.0000000E+00;  3.9916539E+04;  1.7110134E+00;  0.0000000E+00; -2.4792394E-01;  5.9191528E+03;
  1.0907832E+00;  9.9999998E-03; -7.0035309E-02;8691;  1.3411123E+00;  0.0000000E+00;  1.6195878E-02;  9.9404498E+02;  1.0986359E-01; -4.8945425E+03;3;  3.5011593E+01;  0.0000000E+00; -2.3769117E+01;0;  1.4279631E+00;  3.2810164E+04;  0.0000000E+00;  4.9839083E-02;  4.0000000E+04;  0.0000000E+00;  3.9921891E+04;  1.6755018E+00;  0.0000000E+00; -2.4753870E-01;  6.5304888E+03;
  1.0907691E+00;  9.9999998E-03; -6.0030840E-02;8692;  1.3389493E+00;  0.0000000E+00;  1.3151401E-02;  9.9403241E+02;  1.0986581E-01; -4.9048877E+03;3;  5.1894283E+01;  0.0000000E+00; -1.7758850E+01;0;  1.3947614E+00;  3.2803473E+04;  0.0000000E+00;  5.6539595E-02;  4.0000000E+04;  0.0000000E+00;  3.9926836E+04;  1.6411611E+00;  0.0000000E+00; -2.4639960E-01;  7.0973662E+03;
  1.0907574E+00;  9.9999998E-03; -5.0026666E-02;8693;  1.3377924E+00;  0.0000000E+00;  1.0524012E-02;  9.9404938E+02;  1.0986760E-01; -4.8909321E+03;3;  5.8357353E+01;  0.0000000E+00; -1.3829743E+01;0;  1.3647686E+00;  3.2799844E+04;  0.0000000E+00;  5.2291747E-02;  4.0000000E+04;  0.0000000E+00;  3.9931211E+04;  1.6095774E+00;  0.0000000E+00; -2.4480876E-01;  7.5924097E+03;
  1.0907487E+00;  9.9999998E-03; -4.0022943E-02;8694;  1.3370459E+00;  0.0000000E+00;  8.1741819E-03;  9.9408783E+02;  1.0986896E-01; -4.8593384E+03;3;  6.1224964E+01;  0.0000000E+00; -1.0285488E+01;0;  1.3390338E+00;  3.2798215E+04;  0.0000000E+00;  4.0801384E-02;  4.0000000E+04;  0.0000000E+00;  3.9934973E+04;  1.5820804E+00;  0.0000000E+00; -2.4304651E-01;  7.9992476E+03;
  1.0907431E+00;  9.9999998E-03; -3.0018689E-02;8695;  1.3365242E+00;  0.0000000E+00;  5.9985998E-03;  9.9413391E+02;  1.0986999E-01; -4.8214722E+03;3;  6.2457611E+01;  0.0000000E+00; -7.4749494E+00;0;  1.3183310E+00;  3.2798121E+04;  0.0000000E+00;  2.6308676E-02;  4.0000000E+04;  0.0000000E+00;  3.9937781E+04;  1.5597028E+00;  0.0000000E+00; -2.4137175E-01;  8.3113252E+03;
  1.0907403E+00;  9.9999998E-03; -2.0013357E-02;8696;  1.3361720E+00;  0.0000000E+00;  3.9412966E-03;  9.9417468E+02;  1.0987059E-01; -4.7879644E+03;3;  6.3087231E+01;  0.0000000E+00; -4.7455158E+00;0;  1.3032088E+00;  3.2798711E+04;  0.0000000E+00;  1.2786422E-02;  4.0000000E+04;  0.0000000E+00;  3.9939820E+04;  1.5432153E+00;  0.0000000E+00; -2.4000643E-01;  8.5291221E+03;
  1.0907388E+00;  9.9999998E-03; -1.0006961E-02;8697;  1.3359706E+00;  0.0000000E+00;  1.9534635E-03;  9.9420453E+02;  1.0987082E-01; -4.7634209E+03;3;  6.3599640E+01;  0.0000000E+00; -2.3532264E+00;0;  1.2939976E+00;  3.2799344E+04;  0.0000000E+00;  3.3628221E-03;  4.0000000E+04;  0.0000000E+00;  3.9940883E+04;  1.5331154E+00;  0.0000000E+00; -2.3911774E-01;  8.6568506E+03;
  1.0907382E+00;  9.9999998E-03; -1.5528825E-09;8698;  1.3359039E+00;  0.0000000E+00;  3.9091034E-08;  9.9421521E+02;  1.0987109E-01; -4.7546523E+03;3;  6.3712181E+01;  0.0000000E+00; -4.8985275E-05;0;  1.2908962E+00;  3.2799574E+04;  0.0000000E+00;  4.3188825E-13;  4.0000000E+04;  0.0000000E+00;  3.9941227E+04;  1.5297054E+00;  0.0000000E+00; -2.3880917E-01;  8.6988408E+03;
  1.0907388E+00;  9.9999998E-03;  1.0006959E-02;8699;  1.3359708E+00;  0.0000000E+00; -1.9533867E-03;  9.9420459E+02;  1.0987079E-01; -4.7633721E+03;3;  6.3600677E+01;  0.0000000E+00;  2.3531554E+00;0;  1.2939967E+00;  3.2799344E+04;  0.0000000E+00;  3.3632163E-03;  4.0000000E+04;  0.0000000E+00;  3.9940883E+04;  1.5331144E+00;  0.0000000E+00; -2.3911773E-01;  8.6568682E+03;
  1.0907403E+00;  9.9999998E-03;  2.0013353E-02;8700;  1.3361720E+00;  0.0000000E+00; -3.9412193E-03;  9.9417480E+02;  1.0987049E-01; -4.7878662E+03;3;  6.3086418E+01;  0.0000000E+00;  4.7455478E+00;0;  1.3032072E+00;  3.2798711E+04;  0.0000000E+00;  1.2787266E-02;  4.0000000E+04;  0.0000000E+00;  3.9939820E+04;  1.5432136E+00;  0.0000000E+00; -2.4000645E-01;  8.5291348E+03;
  1.0907431E+00;  9.9999998E-03;  3.0018685E-02;8701;  1.3365242E+00;  0.0000000E+00; -5.9985192E-03;  9.9413391E+02;  1.0987004E-01; -4.8214722E+03;3;  6.2457806E+01;  0.0000000E+00;  7.4748330E+00;0;  1.3183322E+00;  3.2798121E+04;  0.0000000E+00;  2.6309576E-02;  4.0000000E+04;  0.0000000E+00;  3.9937781E+04;  1.5597041E+00;  0.0000000E+00; -2.4137186E-01;  8.3113320E+03;
  1.0907487E+00;  9.9999998E-03;  4.0022939E-02;8702;  1.3370458E+00;  0.0000000E+00; -8.1740981E-03;  9.9408783E+02;  1.0986896E-01; -4.8593384E+03;3;  6.1224789E+01;  0.0000000E+00;  1.0285478E+01;0;  1.3390342E+00;  3.2798219E+04;  0.0000000E+00;  4.0803690E-02;  4.0000000E+04;  0.0000000E+00;  3.9934973E+04;  1.5820810E+00;  0.0000000E+00; -2.4304672E-01;  7.9992593E+03;
  1.0907574E+00;  9.9999998E-03;  5.0026666E-02;8703;  1.3377923E+00;  0.0000000E+00; -1.0523936E-02;  9.9404938E+02;  1.0986760E-01; -4.8909321E+03;3;  5.8356812E+01;  0.0000000E+00;  1.3829782E+01;0;  1.3647681E+00;  3.2799840E+04;  0.0000000E+00;  5.2292813E-02;  4.0000000E+04;  0.0000000E+00;  3.9931215E+04;  1.6095772E+00;  0.0000000E+00; -2.4480899E-01;  7.5924131E+03;
  1.0907691E+00;  9.9999998E-03;  6.0030837E-02;8704;  1.3389491E+00;  0.0000000E+00; -1.3151326E-02;  9.9403241E+02;  1.0986581E-01; -4.9048877E+03;3;  5.1894726E+01;  0.0000000E+00;  1.7758799E+01;0;  1.3947612E+00;  3.2803477E+04;  0.0000000E+00;  5.6538288E-02;  4.0000000E+04;  0.0000000E+00;  3.9926836E+04;  1.6411611E+00;  0.0000000E+00; -2.4639989E-01;  7.0973828E+03;
  1.1018220E+00;  9.9999998E-03; -1.0006966E-01;8749;  1.3989167E+00;  0.0000000E+00;  3.3767972E-02;  9.9468048E+02;  1.0912533E-01; -4.3660405E+03;3; -3.7342812E+01;  0.0000000E+00; -1.7909584E+01;0;  1.7765257E+00;  3.3315844E+04;  0.0000000E+00;  5.9172104E-04;  4.0000000E+04;  0.0000000E+00;  3.9900023E+04;  2.0305922E+00;  0.0000000E+00; -2.5406650E-01;  4.0618931E+03;
  1.1017863E+00;  9.9999998E-03; -9.0057537E-02;8750;  1.3854271E+00;  0.0000000E+00;  3.0273831E-02;  9.9463605E+02;  1.0912887E-01; -4.4025083E+03;3; -4.0764137E+01;  0.0000000E+00; -1.8062593E+01;0;  1.7614980E+00;  3.3306777E+04;  0.0000000E+00;  3.3922493E-02;  4.0000000E+04;  0.0000000E+00;  3.9904758E+04;  2.0189819E+00;  0.0000000E+00; -2.5748399E-01;  4.5921348E+03;
  1.1017486E+00;  9.9999998E-03; -8.0046199E-02;8751;  1.3726681E+00;  0.0000000E+00;  2.6565330E-02;  9.9465308E+02;  1.0913187E-01; -4.3885396E+03;3; -4.2760017E+01;  0.0000000E+00; -1.8989651E+01;0;  1.7431405E+00;  3.3301363E+04;  0.0000000E+00;  5.7629608E-02;  4.0000000E+04;  0.0000000E+00;  3.9909945E+04;  2.0025787E+00;  0.0000000E+00; -2.5943828E-01;  5.1665698E+03;
  1.1017125E+00;  9.9999998E-03; -7.0037626E-02;8752;  1.3611113E+00;  0.0000000E+00;  2.2619573E-02;  9.9471997E+02;  1.0913471E-01; -4.3336714E+03;3; -4.2135925E+01;  0.0000000E+00; -2.0753857E+01;0;  1.7231219E+00;  3.3299410E+04;  0.0000000E+00;  6.9461331E-02;  4.0000000E+04;  0.0000000E+00;  3.9915152E+04;  1.9833622E+00;  0.0000000E+00; -2.6024029E-01;  5.7438145E+03;
  1.1016800E+00;  9.9999998E-03; -6.0032278E-02;8753;  1.3513865E+00;  0.0000000E+00;  1.8478010E-02;  9.9481848E+02;  1.0913662E-01; -4.2528232E+03;3; -3.5978180E+01;  0.0000000E+00; -2.3422625E+01;0;  1.7029085E+00;  3.3300086E+04;  0.0000000E+00;  6.9605961E-02;  4.0000000E+04;  0.0000000E+00;  3.9920293E+04;  1.9630837E+00;  0.0000000E+00; -2.6017526E-01;  6.2867749E+03;
  1.1016505E+00;  9.9999998E-03; -5.0028626E-02;8754;  1.3439760E+00;  0.0000000E+00;  1.4300558E-02;  9.9493817E+02;  1.0913868E-01; -4.1546050E+03;3; -1.9898046E+01;  0.0000000E+00; -2.4478596E+01;0;  1.6837075E+00;  3.3302820E+04;  0.0000000E+00;  6.0347792E-02;  4.0000000E+04;  0.0000000E+00;  3.9924762E+04;  1.9432189E+00;  0.0000000E+00; -2.5951150E-01;  6.7670884E+03;
  1.1016248E+00;  9.9999998E-03; -4.0025201E-02;8755;  1.3395258E+00;  0.0000000E+00;  1.0723894E-02;  9.9505975E+02;  1.0914031E-01; -4.0548677E+03;3;  8.0717230E+00;  0.0000000E+00; -1.7599541E+01;0;  1.6665314E+00;  3.3306559E+04;  0.0000000E+00;  4.5301754E-02;  4.0000000E+04;  0.0000000E+00;  3.9928523E+04;  1.9250513E+00;  0.0000000E+00; -2.5851986E-01;  7.1660991E+03;
  1.1016046E+00;  9.9999998E-03; -3.0020850E-02;8756;  1.3372996E+00;  0.0000000E+00;  7.7257333E-03;  9.9517242E+02;  1.0914126E-01; -3.9623667E+03;3;  2.8927441E+01;  0.0000000E+00; -1.1745100E+01;0;  1.6522306E+00;  3.3310656E+04;  0.0000000E+00;  2.8502719E-02;  4.0000000E+04;  0.0000000E+00;  3.9931461E+04;  1.9096875E+00;  0.0000000E+00; -2.5745687E-01;  7.4746118E+03;
  1.1015906E+00;  9.9999998E-03; -2.0015094E-02;8757;  1.3361260E+00;  0.0000000E+00;  5.0260001E-03;  9.9526294E+02;  1.0914202E-01; -3.8881101E+03;3;  3.9320820E+01;  0.0000000E+00; -7.1970296E+00;0;  1.6415365E+00;  3.3314324E+04;  0.0000000E+00;  1.3640340E-02;  4.0000000E+04;  0.0000000E+00;  3.9933609E+04;  1.8980685E+00;  0.0000000E+00; -2.5653213E-01;  7.6909810E+03;
  1.1015824E+00;  9.9999998E-03; -1.0007933E-02;8758;  1.3355367E+00;  0.0000000E+00;  2.4720340E-03;  9.9532257E+02;  1.0914266E-01; -3.8391433E+03;3;  4.3981392E+01;  0.0000000E+00; -3.4222698E+00;0;  1.6349339E+00;  3.3316793E+04;  0.0000000E+00;  3.5564348E-03;  4.0000000E+04;  0.0000000E+00;  3.9934812E+04;  1.8908421E+00;  0.0000000E+00; -2.5590813E-01;  7.8181685E+03;
  1.1015798E+00;  9.9999998E-03; -1.5637982E-09;8759;  1.3353639E+00;  0.0000000E+00;  4.1724171E-08;  9.9534344E+02;  1.0914296E-01; -3.8220217E+03;3;  4.5367191E+01;  0.0000000E+00;  6.8705274E-05;0;  1.6327043E+00;  3.3317703E+04;  0.0000000E+00;  7.7066733E-13;  4.0000000E+04;  0.0000000E+00;  3.9935238E+04;  1.8883927E+00;  0.0000000E+00; -2.5568843E-01;  7.8599834E+03;
  1.1015824E+00;  9.9999998E-03;  1.0007929E-02;8760;  1.3355367E+00;  0.0000000E+00; -2.4719555E-03;  9.9532263E+02;  1.0914280E-01; -3.8390942E+03;3;  4.3980980E+01;  0.0000000E+00;  3.4222598E+00;0;  1.6349351E+00;  3.3316797E+04;  0.0000000E+00;  3.5567819E-03;  4.0000000E+04;  0.0000000E+00;  3.9934812E+04;  1.8908432E+00;  0.0000000E+00; -2.5590807E-01;  7.8181836E+03;
  1.1015906E+00;  9.9999998E-03;  2.0015093E-02;8761;  1.3361259E+00;  0.0000000E+00; -5.0259172E-03;  9.9526300E+02;  1.0914197E-01; -3.8880613E+03;3;  3.9320030E+01;  0.0000000E+00;  7.1970053E+00;0;  1.6415362E+00;  3.3314324E+04;  0.0000000E+00;  1.3640979E-02;  4.0000000E+04;  0.0000000E+00;  3.9933609E+04;  1.8980682E+00;  0.0000000E+00; -2.5653198E-01;  7.6909780E+03;
  1.1016046E+00;  9.9999998E-03;  3.0020846E-02;8762;  1.3372995E+00;  0.0000000E+00; -7.7256486E-03;  9.9517236E+02;  1.0914128E-01; -3.9624155E+03;3;  2.8927677E+01;  0.0000000E+00;  1.1745071E+01;0;  1.6522310E+00;  3.3310656E+04;  0.0000000E+00;  2.8503248E-02;  4.0000000E+04;  0.0000000E+00;  3.9931461E+04;  1.9096880E+00;  0.0000000E+00; -2.5745708E-01;  7.4746118E+03;
  1.1016248E+00;  9.9999998E-03;  4.0025197E-02;8763;  1.3395257E+00;  0.0000000E+00; -1.0723808E-02;  9.9505969E+02;  1.0914033E-01; -4.0549165E+03;3;  8.0717840E+00;  0.0000000E+00;  1.7599686E+01;0;  1.6665320E+00;  3.3306559E+04;  0.0000000E+00;  4.5302201E-02;  4.0000000E+04;  0.0000000E+00;  3.9928523E+04;  1.9250522E+00;  0.0000000E+00; -2.5852013E-01;  7.1660967E+03;
  1.1016505E+00;  9.9999998E-03;  5.0028622E-02;8764;  1.3439759E+00;  0.0000000E+00; -1.4300508E-02;  9.9493811E+02;  1.0913869E-01; -4.1546538E+03;3; -1.9898602E+01;  0.0000000E+00;  2.4478647E+01;0;  1.6837074E+00;  3.3302812E+04;  0.0000000E+00;  6.0349293E-02;  4.0000000E+04;  0.0000000E+00;  3.9924766E+04;  1.9432192E+00;  0.0000000E+00; -2.5951186E-01;  6.7670981E+03;
  1.1016800E+00;  9.9999998E-03;  6.0032275E-02;8765;  1.3513864E+00;  0.0000000E+00; -1.8477956E-02;  9.9481842E+02;  1.0913665E-01; -4.2528721E+03;3; -3.5978138E+01;  0.0000000E+00;  2.3422615E+01;0;  1.7029074E+00;  3.3300082E+04;  0.0000000E+00;  6.9603913E-02;  4.0000000E+04;  0.0000000E+00;  3.9920293E+04;  1.9630833E+00;  0.0000000E+00; -2.6017579E-01;  6.2867554E+03;
  1.1127732E+00;  9.9999998E-03; -1.0008366E-01;8810;  1.4377614E+00;  0.0000000E+00;  3.5823628E-02;  9.9496509E+02;  1.0844152E-01; -4.1256523E+03;3; -4.6969650E+01;  0.0000000E+00; -9.4812822E+00;0;  1.9887092E+00;  3.3761254E+04;  0.0000000E+00;  2.1755386E-02;  4.0000000E+04;  0.0000000E+00;  3.9894047E+04;  2.2467616E+00;  0.0000000E+00; -2.5805235E-01;  3.5073745E+03;
  1.1127199E+00;  9.9999998E-03; -9.0064228E-02;8811;  1.4243568E+00;  0.0000000E+00;  3.2704666E-02;  9.9501178E+02;  1.0844466E-01; -4.0873972E+03;3; -5.1574665E+01;  0.0000000E+00; -9.0978737E+00;0;  1.9944952E+00;  3.3758758E+04;  0.0000000E+00;  4.7190078E-02;  4.0000000E+04;  0.0000000E+00;  3.9898148E+04;  2.2570760E+00;  0.0000000E+00; -2.6258081E-01;  3.9501658E+03;
  1.1126645E+00;  9.9999998E-03; -8.0049761E-02;8812;  1.4115434E+00;  0.0000000E+00;  2.9413039E-02;  9.9511975E+02;  1.0844790E-01; -3.9989822E+03;3; -5.5876797E+01;  0.0000000E+00; -8.6384821E+00;0;  1.9950049E+00;  3.3759539E+04;  0.0000000E+00;  6.5293111E-02;  4.0000000E+04;  0.0000000E+00;  3.9902773E+04;  2.2607229E+00;  0.0000000E+00; -2.6571804E-01;  4.4438149E+03;
  1.1126107E+00;  9.9999998E-03; -7.0040442E-02;8813;  1.3995432E+00;  0.0000000E+00;  2.6001211E-02;  9.9526147E+02;  1.0845099E-01; -3.8828713E+03;3; -5.9876396E+01;  0.0000000E+00; -8.0835981E+00;0;  1.9917409E+00;  3.3763090E+04;  0.0000000E+00;  7.3490173E-02;  4.0000000E+04;  0.0000000E+00;  3.9907770E+04;  2.2594569E+00;  0.0000000E+00; -2.6771587E-01;  4.9511445E+03;
  1.1125611E+00;  9.9999998E-03; -6.0034800E-02;8814;  1.3885560E+00;  0.0000000E+00;  2.2467667E-02;  9.9543152E+02;  1.0845357E-01; -3.7435557E+03;3; -6.3230194E+01;  0.0000000E+00; -7.9206810E+00;0;  1.9860692E+00;  3.3768578E+04;  0.0000000E+00;  7.1477503E-02;  4.0000000E+04;  0.0000000E+00;  3.9912445E+04;  2.2548714E+00;  0.0000000E+00; -2.6880214E-01;  5.4368145E+03;
  1.1125169E+00;  9.9999998E-03; -5.0030991E-02;8815;  1.3787580E+00;  0.0000000E+00;  1.8820329E-02;  9.9560638E+02;  1.0845555E-01; -3.6003276E+03;3; -6.6198151E+01;  0.0000000E+00; -7.4670806E+00;0;  1.9792058E+00;  3.3775336E+04;  0.0000000E+00;  6.1061900E-02;  4.0000000E+04;  0.0000000E+00;  3.9916738E+04;  2.2483981E+00;  0.0000000E+00; -2.6919216E-01;  5.8720229E+03;
  1.1124781E+00;  9.9999998E-03; -4.0027395E-02;8816;  1.3705095E+00;  0.0000000E+00;  1.5110780E-02;  9.9577856E+02;  1.0845716E-01; -3.4592432E+03;3; -6.8722923E+01;  0.0000000E+00; -6.7922359E+00;0;  1.9721413E+00;  3.3782496E+04;  0.0000000E+00;  4.5468554E-02;  4.0000000E+04;  0.0000000E+00;  3.9920348E+04;  2.2412438E+00;  0.0000000E+00; -2.6910263E-01;  6.2370029E+03;
  1.1124458E+00;  9.9999998E-03; -3.0022839E-02;8817;  1.3636613E+00;  0.0000000E+00;  1.1303134E-02;  9.9592456E+02;  1.0845822E-01; -3.3396445E+03;3; -7.0812897E+01;  0.0000000E+00; -5.9959884E+00;0;  1.9657296E+00;  3.3789137E+04;  0.0000000E+00;  2.8472360E-02;  4.0000000E+04;  0.0000000E+00;  3.9923152E+04;  2.2344775E+00;  0.0000000E+00; -2.6874796E-01;  6.5210430E+03;
  1.1124222E+00;  9.9999998E-03; -2.0016732E-02;8818;  1.3585608E+00;  0.0000000E+00;  7.4921106E-03;  9.9604407E+02;  1.0845938E-01; -3.2417271E+03;3; -7.2324478E+01;  0.0000000E+00; -5.0376902E+00;0;  1.9606661E+00;  3.3794496E+04;  0.0000000E+00;  1.3587299E-02;  4.0000000E+04;  0.0000000E+00;  3.9925215E+04;  2.2289968E+00;  0.0000000E+00; -2.6833066E-01;  6.7209956E+03;
  1.1124083E+00;  9.9999998E-03; -1.0009089E-02;8819;  1.3554016E+00;  0.0000000E+00;  3.7336682E-03;  9.9611926E+02;  1.0845986E-01; -3.1800938E+03;3; -7.3284210E+01;  0.0000000E+00; -2.9074926E+00;0;  1.9574456E+00;  3.3798016E+04;  0.0000000E+00;  3.5372651E-03;  4.0000000E+04;  0.0000000E+00;  3.9926480E+04;  2.2254572E+00;  0.0000000E+00; -2.6801157E-01;  6.8386382E+03;
  1.1124036E+00;  9.9999998E-03; -1.5494058E-09;8820;  1.3543240E+00;  0.0000000E+00;  1.0355407E-08;  9.9614307E+02;  1.0846019E-01; -3.1606077E+03;3; -7.3590027E+01;  0.0000000E+00;  9.9762641E-05;0;  1.9563416E+00;  3.3799320E+04;  0.0000000E+00;  7.4869993E-13;  4.0000000E+04;  0.0000000E+00;  3.9926812E+04;  2.2242348E+00;  0.0000000E+00; -2.6789320E-01;  6.8773398E+03;
  1.1124083E+00;  9.9999998E-03;  1.0009085E-02;8821;  1.3554015E+00;  0.0000000E+00; -3.7336496E-03;  9.9611926E+02;  1.0845986E-01; -3.1800938E+03;3; -7.3284111E+01;  0.0000000E+00;  2.9076707E+00;0;  1.9574485E+00;  3.3798016E+04;  0.0000000E+00;  3.5372481E-03;  4.0000000E+04;  0.0000000E+00;  3.9926480E+04;  2.2254601E+00;  0.0000000E+00; -2.6801160E-01;  6.8386406E+03;
  1.1124222E+00;  9.9999998E-03;  2.0016728E-02;8822;  1.3585607E+00;  0.0000000E+00; -7.4920929E-03;  9.9604407E+02;  1.0845938E-01; -3.2417271E+03;3; -7.2324371E+01;  0.0000000E+00;  5.0378432E+00;0;  1.9606675E+00;  3.3794496E+04;  0.0000000E+00;  1.3587418E-02;  4.0000000E+04;  0.0000000E+00;  3.9925215E+04;  2.2289982E+00;  0.0000000E+00; -2.6833069E-01;  6.7209907E+03;
  1.1124458E+00;  9.9999998E-03;  3.0022835E-02;8823;  1.3636612E+00;  0.0000000E+00; -1.1303118E-02;  9.9592456E+02;  1.0845822E-01; -3.3396445E+03;3; -7.0812767E+01;  0.0000000E+00;  5.9961405E+00;0;  1.9657292E+00;  3.3789133E+04;  0.0000000E+00;  2.8472381E-02;  4.0000000E+04;  0.0000000E+00;  3.9923152E+04;  2.2344773E+00;  0.0000000E+00; -2.6874802E-01;  6.5210605E+03;
  1.1124781E+00;  9.9999998E-03;  4.0027391E-02;8824;  1.3705093E+00;  0.0000000E+00; -1.5110780E-02;  9.9577856E+02;  1.0845716E-01; -3.4592432E+03;3; -6.8722801E+01;  0.0000000E+00;  6.7923365E+00;0;  1.9721433E+00;  3.3782496E+04;  0.0000000E+00;  4.5469511E-02;  4.0000000E+04;  0.0000000E+00;  3.9920352E+04;  2.2412457E+00;  0.0000000E+00; -2.6910242E-01;  6.2370156E+03;
  1.1125169E+00;  9.9999998E-03;  5.0030988E-02;8825;  1.3787572E+00;  0.0000000E+00; -1.8820355E-02;  9.9560645E+02;  1.0845552E-01; -3.6002788E+03;3; -6.6197884E+01;  0.0000000E+00;  7.4671822E+00;0;  1.9792070E+00;  3.3775332E+04;  0.0000000E+00;  6.1062109E-02;  4.0000000E+04;  0.0000000E+00;  3.9916738E+04;  2.2483995E+00;  0.0000000E+00; -2.6919240E-01;  5.8720176E+03;
  1.1125611E+00;  9.9999998E-03;  6.0034797E-02;8826;  1.3885558E+00;  0.0000000E+00; -2.2467665E-02;  9.9543146E+02;  1.0845360E-01; -3.7436045E+03;3; -6.3230103E+01;  0.0000000E+00;  7.9208350E+00;0;  1.9860739E+00;  3.3768578E+04;  0.0000000E+00;  7.1481369E-02;  4.0000000E+04;  0.0000000E+00;  3.9912445E+04;  2.2548761E+00;  0.0000000E+00; -2.6880231E-01;  5.4368223E+03;
  1.1236856E+00;  9.9999998E-03; -1.0008781E-01;8871;  1.4764218E+00;  0.0000000E+00;  3.6304992E-02;  9.9528430E+02;  1.0780335E-01; -3.8566504E+03;3; -5.1693779E+01;  0.0000000E+00; -4.7653580E+00;0;  2.1589618E+00;  3.4188910E+04;  0.0000000E+00;  1.2505114E-02;  4.0000000E+04;  0.0000000E+00;  3.9888117E+04;  2.4159203E+00;  0.0000000E+00; -2.5695837E-01;  3.0362021E+03;
  1.1236165E+00;  9.9999998E-03; -9.0067156E-02;8872;  1.4645425E+00;  0.0000000E+00;  3.3207521E-02;  9.9538531E+02;  1.0780702E-01; -3.7741230E+03;3; -5.6319668E+01;  0.0000000E+00; -4.1222095E+00;0;  2.1845083E+00;  3.4190383E+04;  0.0000000E+00;  3.5562407E-02;  4.0000000E+04;  0.0000000E+00;  3.9891383E+04;  2.4468236E+00;  0.0000000E+00; -2.6231536E-01;  3.3654893E+03;
  1.1235443E+00;  9.9999998E-03; -8.0052175E-02;8873;  1.4530890E+00;  0.0000000E+00;  2.9967066E-02;  9.9552759E+02;  1.0781037E-01; -3.6578130E+03;3; -6.0726086E+01;  0.0000000E+00; -3.5308795E+00;0;  2.2034135E+00;  3.4194504E+04;  0.0000000E+00;  5.3723484E-02;  4.0000000E+04;  0.0000000E+00;  3.9895211E+04;  2.4698143E+00;  0.0000000E+00; -2.6640072E-01;  3.7490481E+03;
  1.1234736E+00;  9.9999998E-03; -7.0042536E-02;8874;  1.4422580E+00;  0.0000000E+00;  2.6600119E-02;  9.9570111E+02;  1.0781344E-01; -3.5159058E+03;3; -6.4761818E+01;  0.0000000E+00; -2.9355800E+00;0;  2.2168996E+00;  3.4200699E+04;  0.0000000E+00;  6.3640468E-02;  4.0000000E+04;  0.0000000E+00;  3.9899324E+04;  2.4863038E+00;  0.0000000E+00; -2.6940408E-01;  4.1556880E+03;
  1.1234077E+00;  9.9999998E-03; -6.0036749E-02;8875;  1.4322512E+00;  0.0000000E+00;  2.3106575E-02;  9.9589185E+02;  1.0781594E-01; -3.3599517E+03;3; -6.8335213E+01;  0.0000000E+00; -2.4639411E+00;0;  2.2261312E+00;  3.4208289E+04;  0.0000000E+00;  6.4158119E-02;  4.0000000E+04;  0.0000000E+00;  3.9903410E+04;  2.4976294E+00;  0.0000000E+00; -2.7149826E-01;  4.5536328E+03;
  1.1233492E+00;  9.9999998E-03; -5.0032906E-02;8876;  1.4232509E+00;  0.0000000E+00;  1.9487919E-02;  9.9608795E+02;  1.0781843E-01; -3.1996018E+03;3; -7.1517418E+01;  0.0000000E+00; -1.9827093E+00;0;  2.2321417E+00;  3.4216621E+04;  0.0000000E+00;  5.6292746E-02;  4.0000000E+04;  0.0000000E+00;  3.9907145E+04;  2.5049877E+00;  0.0000000E+00; -2.7284589E-01;  4.9156001E+03;
  1.1232990E+00;  9.9999998E-03; -4.0029094E-02;8877;  1.4154497E+00;  0.0000000E+00;  1.5777713E-02;  9.9626758E+02;  1.0782025E-01; -3.0527473E+03;3; -7.4272232E+01;  0.0000000E+00; -1.4781563E+00;0;  2.2358177E+00;  3.4224879E+04;  0.0000000E+00;  4.2770427E-02;  4.0000000E+04;  0.0000000E+00;  3.9910352E+04;  2.5094318E+00;  0.0000000E+00; -2.7361417E-01;  5.2220332E+03;
  1.1232578E+00;  9.9999998E-03; -3.0024240E-02;8878;  1.4091821E+00;  0.0000000E+00;  1.1908444E-02;  9.9642517E+02;  1.0782208E-01; -2.9238740E+03;3; -7.6482605E+01;  0.0000000E+00; -9.2488217E-01;0;  2.2378783E+00;  3.4232312E+04;  0.0000000E+00;  2.7184324E-02;  4.0000000E+04;  0.0000000E+00;  3.9912910E+04;  2.5118496E+00;  0.0000000E+00; -2.7397129E-01;  5.4617944E+03;
  1.1232271E+00;  9.9999998E-03; -2.0017898E-02;8879;  1.4044851E+00;  0.0000000E+00;  7.9744877E-03;  9.9654480E+02;  1.0782278E-01; -2.8260481E+03;3; -7.7965805E+01;  0.0000000E+00; -6.6638070E-01;0;  2.2389138E+00;  3.4238137E+04;  0.0000000E+00;  1.3107586E-02;  4.0000000E+04;  0.0000000E+00;  3.9914738E+04;  2.5129976E+00;  0.0000000E+00; -2.7408379E-01;  5.6309937E+03;
  1.1232085E+00;  9.9999998E-03; -1.0009720E-02;8880;  1.4015197E+00;  0.0000000E+00;  3.9986446E-03;  9.9661938E+02;  1.0782327E-01; -2.7650212E+03;3; -7.8961258E+01;  0.0000000E+00; -3.4797370E-01;0;  2.2393680E+00;  3.4241902E+04;  0.0000000E+00;  3.4335882E-03;  4.0000000E+04;  0.0000000E+00;  3.9915902E+04;  2.5134573E+00;  0.0000000E+00; -2.7408943E-01;  5.7306265E+03;
  1.1232022E+00;  9.9999998E-03; -1.5090720E-09;8881;  1.4005657E+00;  0.0000000E+00; -4.4412980E-09;  9.9664600E+02;  1.0782359E-01; -2.7432815E+03;3; -7.9321922E+01;  0.0000000E+00;  3.7831091E-05;0;  2.2394910E+00;  3.4243148E+04;  0.0000000E+00;  3.7948450E-13;  4.0000000E+04;  0.0000000E+00;  3.9916148E+04;  2.5135717E+00;  0.0000000E+00; -2.7408078E-01;  5.7634263E+03;
  1.1232085E+00;  9.9999998E-03;  1.0009717E-02;8882;  1.4015197E+00;  0.0000000E+00; -3.9986568E-03;  9.9661938E+02;  1.0782344E-01; -2.7650212E+03;3; -7.8961220E+01;  0.0000000E+00;  3.4801391E-01;0;  2.2393689E+00;  3.4241902E+04;  0.0000000E+00;  3.4333398E-03;  4.0000000E+04;  0.0000000E+00;  3.9915906E+04;  2.5134585E+00;  0.0000000E+00; -2.7408949E-01;  5.7306455E+03;
  1.1232271E+00;  9.9999998E-03;  2.0017896E-02;8883;  1.4044851E+00;  0.0000000E+00; -7.9744970E-03;  9.9654468E+02;  1.0782272E-01; -2.8261455E+03;3; -7.7965775E+01;  0.0000000E+00;  6.6645461E-01;0;  2.2389140E+00;  3.4238141E+04;  0.0000000E+00;  1.3107558E-02;  4.0000000E+04;  0.0000000E+00;  3.9914738E+04;  2.5129979E+00;  0.0000000E+00; -2.7408376E-01;  5.6309858E+03;
  1.1232578E+00;  9.9999998E-03;  3.0024236E-02;8884;  1.4091822E+00;  0.0000000E+00; -1.1908456E-02;  9.9642523E+02;  1.0782205E-01; -2.9238254E+03;3; -7.6482452E+01;  0.0000000E+00;  9.2494297E-01;0;  2.2378762E+00;  3.4232312E+04;  0.0000000E+00;  2.7184390E-02;  4.0000000E+04;  0.0000000E+00;  3.9912906E+04;  2.5118480E+00;  0.0000000E+00; -2.7397186E-01;  5.4618008E+03;
  1.1232990E+00;  9.9999998E-03;  4.0029094E-02;8885;  1.4154497E+00;  0.0000000E+00; -1.5777737E-02;  9.9626758E+02;  1.0782025E-01; -3.0527473E+03;3; -7.4272057E+01;  0.0000000E+00;  1.4781563E+00;0;  2.2358150E+00;  3.4224879E+04;  0.0000000E+00;  4.2769771E-02;  4.0000000E+04;  0.0000000E+00;  3.9910352E+04;  2.5094292E+00;  0.0000000E+00; -2.7361426E-01;  5.2220381E+03;
  1.1233492E+00;  9.9999998E-03;  5.0032903E-02;8886;  1.4232507E+00;  0.0000000E+00; -1.9487960E-02;  9.9608795E+02;  1.0781843E-01; -3.1996018E+03;3; -7.1517456E+01;  0.0000000E+00;  1.9828148E+00;0;  2.2321432E+00;  3.4216621E+04;  0.0000000E+00;  5.6292098E-02;  4.0000000E+04;  0.0000000E+00;  3.9907145E+04;  2.5049894E+00;  0.0000000E+00; -2.7284625E-01;  4.9156055E+03;
  1.1234077E+00;  9.9999998E-03;  6.0036745E-02;8887;  1.4322507E+00;  0.0000000E+00; -2.3106640E-02;  9.9589185E+02;  1.0781594E-01; -3.3599517E+03;3; -6.8335274E+01;  0.0000000E+00;  2.4639680E+00;0;  2.2261322E+00;  3.4208285E+04;  0.0000000E+00;  6.4156704E-02;  4.0000000E+04;  0.0000000E+00;  3.9903410E+04;  2.4976306E+00;  0.0000000E+00; -2.7149853E-01;  4.5536470E+03;
  1.1345416E+00;  9.9999998E-03; -1.0009115E-01;8931;  1.5141709E+00;  0.0000000E+00;  3.5755023E-02;  9.9569513E+02;  1.0721312E-01; -3.5128291E+03;3; -5.3941803E+01;  0.0000000E+00; -2.2694991E+00;0;  2.2824244E+00;  3.4599965E+04;  0.0000000E+00; -2.0576436E-02;  4.0000000E+04;  0.0000000E+00;  3.9882137E+04;  2.5334749E+00;  0.0000000E+00; -2.5105047E-01;  2.6114768E+03;
  1.1344589E+00;  9.9999998E-03; -9.0070762E-02;8932;  1.5042115E+00;  0.0000000E+00;  3.2647267E-02;  9.9579803E+02;  1.0721639E-01; -3.4288943E+03;3; -5.8300701E+01;  0.0000000E+00; -1.7731780E+00;0;  2.3244584E+00;  3.4602793E+04;  0.0000000E+00;  4.8502414E-03;  4.0000000E+04;  0.0000000E+00;  3.9884227E+04;  2.5813012E+00;  0.0000000E+00; -2.5684294E-01;  2.8128328E+03;
  1.1343722E+00;  9.9999998E-03; -8.0055453E-02;8933;  1.4945773E+00;  0.0000000E+00;  2.9431026E-02;  9.9593866E+02;  1.0721999E-01; -3.3142190E+03;3; -6.2368275E+01;  0.0000000E+00; -1.3941143E+00;0;  2.3590908E+00;  3.4607652E+04;  0.0000000E+00;  2.7406642E-02;  4.0000000E+04;  0.0000000E+00;  3.9886961E+04;  2.6206081E+00;  0.0000000E+00; -2.6151726E-01;  3.0672883E+03;
  1.1342874E+00;  9.9999998E-03; -7.0045166E-02;8934;  1.4854890E+00;  0.0000000E+00;  2.6090482E-02;  9.9609802E+02;  1.0722313E-01; -3.1842161E+03;3; -6.6064774E+01;  0.0000000E+00; -1.0192404E+00;0;  2.3872521E+00;  3.4613988E+04;  0.0000000E+00;  4.2939927E-02;  4.0000000E+04;  0.0000000E+00;  3.9889992E+04;  2.6524580E+00;  0.0000000E+00; -2.6520577E-01;  3.3514480E+03;
  1.1342083E+00;  9.9999998E-03; -6.0038727E-02;8935;  1.4770217E+00;  0.0000000E+00;  2.2624025E-02;  9.9627124E+02;  1.0722587E-01; -3.0429192E+03;3; -6.9393639E+01;  0.0000000E+00; -7.3259473E-01;0;  2.4098125E+00;  3.4621297E+04;  0.0000000E+00;  4.9342662E-02;  4.0000000E+04;  0.0000000E+00;  3.9893062E+04;  2.6778412E+00;  0.0000000E+00; -2.6802862E-01;  3.6390649E+03;
  1.1341383E+00;  9.9999998E-03; -5.0034296E-02;8936;  1.4694190E+00;  0.0000000E+00;  1.9050192E-02;  9.9644556E+02;  1.0722844E-01; -2.9007363E+03;3; -7.2324638E+01;  0.0000000E+00; -4.8130336E-01;0;  2.4275680E+00;  3.4628957E+04;  0.0000000E+00;  4.6772856E-02;  4.0000000E+04;  0.0000000E+00;  3.9896051E+04;  2.6976693E+00;  0.0000000E+00; -2.7010125E-01;  3.9062136E+03;
  1.1340786E+00;  9.9999998E-03; -4.0030122E-02;8937;  1.4627246E+00;  0.0000000E+00;  1.5365899E-02;  9.9660492E+02;  1.0723031E-01; -2.7707031E+03;3; -7.4870026E+01;  0.0000000E+00; -3.2228377E-01;0;  2.4411879E+00;  3.4636527E+04;  0.0000000E+00;  3.7383862E-02;  4.0000000E+04;  0.0000000E+00;  3.9898570E+04;  2.7127278E+00;  0.0000000E+00; -2.7154005E-01;  4.1350469E+03;
  1.1340301E+00;  9.9999998E-03; -3.0024908E-02;8938;  1.4573342E+00;  0.0000000E+00;  1.1612272E-02;  9.9674268E+02;  1.0723211E-01; -2.6583179E+03;3; -7.6879189E+01;  0.0000000E+00; -1.5851086E-01;0;  2.4512045E+00;  3.4643043E+04;  0.0000000E+00;  2.4590749E-02;  4.0000000E+04;  0.0000000E+00;  3.9900578E+04;  2.7236760E+00;  0.0000000E+00; -2.7247137E-01;  4.3150083E+03;
  1.1339945E+00;  9.9999998E-03; -2.0018134E-02;8939;  1.4533376E+00;  0.0000000E+00;  7.7605527E-03;  9.9684546E+02;  1.0723334E-01; -2.5744280E+03;3; -7.8246689E+01;  0.0000000E+00; -1.2221917E-01;0;  2.4580626E+00;  3.4648215E+04;  0.0000000E+00;  1.2126806E-02;  4.0000000E+04;  0.0000000E+00;  3.9901969E+04;  2.7310822E+00;  0.0000000E+00; -2.7301967E-01;  4.4420679E+03;
  1.1339723E+00;  9.9999998E-03; -1.0009575E-02;8940;  1.4508837E+00;  0.0000000E+00;  3.8889602E-03;  9.9691187E+02;  1.0723379E-01; -2.5202510E+03;3; -7.9138824E+01;  0.0000000E+00; -5.4380864E-02;0;  2.4620516E+00;  3.4651504E+04;  0.0000000E+00;  3.2175696E-03;  4.0000000E+04;  0.0000000E+00;  3.9902906E+04;  2.7353487E+00;  0.0000000E+00; -2.7329704E-01;  4.5168540E+03;
  1.1339648E+00;  9.9999998E-03; -1.4891729E-09;8941;  1.4500433E+00;  0.0000000E+00; -8.6655261E-09;  9.9693518E+02;  1.0723406E-01; -2.5012354E+03;3; -7.9445137E+01;  0.0000000E+00;  2.3636167E-05;0;  2.4633555E+00;  3.4652664E+04;  0.0000000E+00;  1.4580799E-12;  4.0000000E+04;  0.0000000E+00;  3.9903160E+04;  2.7367363E+00;  0.0000000E+00; -2.7338067E-01;  4.5414214E+03;
  1.1339724E+00;  9.9999998E-03;  1.0009572E-02;8942;  1.4508839E+00;  0.0000000E+00; -3.8889768E-03;  9.9691187E+02;  1.0723379E-01; -2.5202510E+03;3; -7.9138840E+01;  0.0000000E+00;  5.4426391E-02;0;  2.4620519E+00;  3.4651504E+04;  0.0000000E+00;  3.2173994E-03;  4.0000000E+04;  0.0000000E+00;  3.9902906E+04;  2.7353489E+00;  0.0000000E+00; -2.7329707E-01;  4.5168457E+03;
  1.1339945E+00;  9.9999998E-03;  2.0018132E-02;8943;  1.4533377E+00;  0.0000000E+00; -7.7605662E-03;  9.9684546E+02;  1.0723334E-01; -2.5744280E+03;3; -7.8246666E+01;  0.0000000E+00;  1.2221096E-01;0;  2.4580653E+00;  3.4648215E+04;  0.0000000E+00;  1.2126568E-02;  4.0000000E+04;  0.0000000E+00;  3.9901969E+04;  2.7310851E+00;  0.0000000E+00; -2.7301985E-01;  4.4420737E+03;
  1.1340301E+00;  9.9999998E-03;  3.0024905E-02;8944;  1.4573342E+00;  0.0000000E+00; -1.1612292E-02;  9.9674268E+02;  1.0723211E-01; -2.6583179E+03;3; -7.6879135E+01;  0.0000000E+00;  1.5852493E-01;0;  2.4512031E+00;  3.4643043E+04;  0.0000000E+00;  2.4590140E-02;  4.0000000E+04;  0.0000000E+00;  3.9900578E+04;  2.7236748E+00;  0.0000000E+00; -2.7247167E-01;  4.3150239E+03;
  1.1340786E+00;  9.9999998E-03;  4.0030118E-02;8945;  1.4627244E+00;  0.0000000E+00; -1.5365921E-02;  9.9660492E+02;  1.0723031E-01; -2.7707031E+03;3; -7.4869995E+01;  0.0000000E+00;  3.2232788E-01;0;  2.4411817E+00;  3.4636531E+04;  0.0000000E+00;  3.7383299E-02;  4.0000000E+04;  0.0000000E+00;  3.9898570E+04;  2.7127221E+00;  0.0000000E+00; -2.7154031E-01;  4.1350479E+03;
  1.1341383E+00;  9.9999998E-03;  5.0034292E-02;8946;  1.4694188E+00;  0.0000000E+00; -1.9050239E-02;  9.9644556E+02;  1.0722844E-01; -2.9007363E+03;3; -7.2324654E+01;  0.0000000E+00;  4.8128697E-01;0;  2.4275706E+00;  3.4628957E+04;  0.0000000E+00;  4.6769165E-02;  4.0000000E+04;  0.0000000E+00;  3.9896051E+04;  2.6976719E+00;  0.0000000E+00; -2.7010137E-01;  3.9062214E+03;
  1.1342083E+00;  9.9999998E-03;  6.0038723E-02;8947;  1.4770215E+00;  0.0000000E+00; -2.2624075E-02;  9.9627124E+02;  1.0722587E-01; -3.0429192E+03;3; -6.9393723E+01;  0.0000000E+00;  7.3266238E-01;0;  2.4098113E+00;  3.4621289E+04;  0.0000000E+00;  4.9339220E-02;  4.0000000E+04;  0.0000000E+00;  3.9893070E+04;  2.6778405E+00;  0.0000000E+00; -2.6802912E-01;  3.6390903E+03;
  1.1453086E+00;  9.9999998E-03; -1.0010430E-01;8990;  1.5497507E+00;  0.0000000E+00;  3.4267485E-02;  9.9621588E+02;  1.0667016E-01; -3.0799011E+03;3; -5.4612434E+01;  0.0000000E+00; -4.1393808E-01;0;  2.3595369E+00;  3.4995000E+04;  0.0000000E+00; -6.6121645E-02;  4.0000000E+04;  0.0000000E+00;  3.9875625E+04;  2.6003757E+00;  0.0000000E+00; -2.4083886E-01;  2.1881667E+03;
  1.1452206E+00;  9.9999998E-03; -9.0083763E-02;8991;  1.5420176E+00;  0.0000000E+00;  3.1281482E-02;  9.9629718E+02;  1.0667370E-01; -3.0137988E+03;3; -5.8608566E+01;  0.0000000E+00; -1.3686930E-01;0;  2.4131584E+00;  3.4997320E+04;  0.0000000E+00; -3.6639560E-02;  4.0000000E+04;  0.0000000E+00;  3.9876469E+04;  2.6597514E+00;  0.0000000E+00; -2.4659309E-01;  2.2605012E+03;
  1.1451284E+00;  9.9999998E-03; -8.0067135E-02;8992;  1.5345238E+00;  0.0000000E+00;  2.8178254E-02;  9.9639642E+02;  1.0667670E-01; -2.9330940E+03;3; -6.2342300E+01;  0.0000000E+00;  1.3324176E-01;0;  2.4591892E+00;  3.5000984E+04;  0.0000000E+00; -8.3989678E-03;  4.0000000E+04;  0.0000000E+00;  3.9877875E+04;  2.7105918E+00;  0.0000000E+00; -2.5140256E-01;  2.3800730E+03;
  1.1450372E+00;  9.9999998E-03; -7.0054837E-02;8993;  1.5274124E+00;  0.0000000E+00;  2.4944074E-02;  9.9651831E+02;  1.0668024E-01; -2.8339482E+03;3; -6.5661018E+01;  0.0000000E+00;  3.4036395E-01;0;  2.4982514E+00;  3.5005598E+04;  0.0000000E+00;  1.3951783E-02;  4.0000000E+04;  0.0000000E+00;  3.9879637E+04;  2.7536049E+00;  0.0000000E+00; -2.5535345E-01;  2.5325737E+03;
  1.1449511E+00;  9.9999998E-03; -6.0045950E-02;8994;  1.5207136E+00;  0.0000000E+00;  2.1591673E-02;  9.9664362E+02;  1.0668289E-01; -2.7320288E+03;3; -6.8702751E+01;  0.0000000E+00;  4.3430510E-01;0;  2.5309303E+00;  3.5010887E+04;  0.0000000E+00;  2.7579607E-02;  4.0000000E+04;  0.0000000E+00;  3.9881516E+04;  2.7894526E+00;  0.0000000E+00; -2.5852218E-01;  2.6988267E+03;
  1.1448742E+00;  9.9999998E-03; -5.0039403E-02;8995;  1.5146849E+00;  0.0000000E+00;  1.8138021E-02;  9.9676953E+02;  1.0668527E-01; -2.6295649E+03;3; -7.1388176E+01;  0.0000000E+00;  4.8266917E-01;0;  2.5577641E+00;  3.5016309E+04;  0.0000000E+00;  3.1825781E-02;  4.0000000E+04;  0.0000000E+00;  3.9883477E+04;  2.8187437E+00;  0.0000000E+00; -2.6097956E-01;  2.8597686E+03;
  1.1448082E+00;  9.9999998E-03; -4.0033583E-02;8996;  1.5094283E+00;  0.0000000E+00;  1.4607712E-02;  9.9688483E+02;  1.0668753E-01; -2.5357749E+03;3; -7.3663818E+01;  0.0000000E+00;  3.9617437E-01;0;  2.5791821E+00;  3.5021672E+04;  0.0000000E+00;  2.8177712E-02;  4.0000000E+04;  0.0000000E+00;  3.9885113E+04;  2.8419843E+00;  0.0000000E+00; -2.6280224E-01;  3.0004561E+03;
  1.1447548E+00;  9.9999998E-03; -3.0027289E-02;8997;  1.5051360E+00;  0.0000000E+00;  1.1040220E-02;  9.9698480E+02;  1.0668917E-01; -2.4544431E+03;3; -7.5448822E+01;  0.0000000E+00;  3.5600281E-01;0;  2.5955260E+00;  3.5026312E+04;  0.0000000E+00;  1.9690927E-02;  4.0000000E+04;  0.0000000E+00;  3.9886461E+04;  2.8596025E+00;  0.0000000E+00; -2.6407647E-01;  3.1117678E+03;
  1.1447154E+00;  9.9999998E-03; -2.0019520E-02;8998;  1.5020182E+00;  0.0000000E+00;  7.3610921E-03;  9.9706073E+02;  1.0669032E-01; -2.3926536E+03;3; -7.6724556E+01;  0.0000000E+00;  2.6246852E-01;0;  2.6070466E+00;  3.5030000E+04;  0.0000000E+00;  1.0071433E-02;  4.0000000E+04;  0.0000000E+00;  3.9887309E+04;  2.8719409E+00;  0.0000000E+00; -2.6489437E-01;  3.1901274E+03;
  1.1446909E+00;  9.9999998E-03; -1.0010159E-02;8999;  1.5001285E+00;  0.0000000E+00;  3.6938409E-03;  9.9710657E+02;  1.0669094E-01; -2.3553567E+03;3; -7.7462463E+01;  0.0000000E+00;  1.4299315E-01;0;  2.6138928E+00;  3.5032359E+04;  0.0000000E+00;  2.7258806E-03;  4.0000000E+04;  0.0000000E+00;  3.9887938E+04;  2.8792365E+00;  0.0000000E+00; -2.6534364E-01;  3.2359602E+03;
  1.1446826E+00;  9.9999998E-03; -1.4604178E-09;9000;  1.4995100E+00;  0.0000000E+00; -7.1015767E-09;  9.9712476E+02;  1.0669142E-01; -2.3405632E+03;3; -7.7728828E+01;  0.0000000E+00;  1.4538171E-05;0;  2.6161714E+00;  3.5033102E+04;  0.0000000E+00;  7.5937601E-13;  4.0000000E+04;  0.0000000E+00;  3.9888133E+04;  2.8816569E+00;  0.0000000E+00; -2.6548564E-01;  3.2509309E+03;
  1.1446909E+00;  9.9999998E-03;  1.0010156E-02;9001;  1.5001287E+00;  0.0000000E+00; -3.6938502E-03;  9.9710657E+02;  1.0669094E-01; -2.3553567E+03;3; -7.7462547E+01;  0.0000000E+00; -1.4301197E-01;0;  2.6138959E+00;  3.5032359E+04;  0.0000000E+00;  2.7255486E-03;  4.0000000E+04;  0.0000000E+00;  3.9887938E+04;  2.8792393E+00;  0.0000000E+00; -2.6534352E-01;  3.2359653E+03;
  1.1447154E+00;  9.9999998E-03;  2.0019516E-02;9002;  1.5020181E+00;  0.0000000E+00; -7.3611122E-03;  9.9706061E+02;  1.0669037E-01; -2.3927507E+03;3; -7.6724548E+01;  0.0000000E+00; -2.6248857E-01;0;  2.6070454E+00;  3.5030004E+04;  0.0000000E+00;  1.0071067E-02;  4.0000000E+04;  0.0000000E+00;  3.9887312E+04;  2.8719401E+00;  0.0000000E+00; -2.6489463E-01;  3.1901406E+03;
  1.1447548E+00;  9.9999998E-03;  3.0027287E-02;9003;  1.5051363E+00;  0.0000000E+00; -1.1040235E-02;  9.9698480E+02;  1.0668917E-01; -2.4544431E+03;3; -7.5448837E+01;  0.0000000E+00; -3.5597858E-01;0;  2.5955241E+00;  3.5026316E+04;  0.0000000E+00;  1.9689400E-02;  4.0000000E+04;  0.0000000E+00;  3.9886461E+04;  2.8596005E+00;  0.0000000E+00; -2.6407644E-01;  3.1117778E+03;
  1.1448082E+00;  9.9999998E-03;  4.0033583E-02;9004;  1.5094280E+00;  0.0000000E+00; -1.4607749E-02;  9.9688483E+02;  1.0668753E-01; -2.5357749E+03;3; -7.3663857E+01;  0.0000000E+00; -3.9620826E-01;0;  2.5791831E+00;  3.5021672E+04;  0.0000000E+00;  2.8176425E-02;  4.0000000E+04;  0.0000000E+00;  3.9885113E+04;  2.8419855E+00;  0.0000000E+00; -2.6280242E-01;  3.0004614E+03;
  1.1448742E+00;  9.9999998E-03;  5.0039399E-02;9005;  1.5146850E+00;  0.0000000E+00; -1.8138045E-02;  9.9676959E+02;  1.0668524E-01; -2.6295164E+03;3; -7.1388535E+01;  0.0000000E+00; -4.8259842E-01;0;  2.5577648E+00;  3.5016316E+04;  0.0000000E+00;  3.1825643E-02;  4.0000000E+04;  0.0000000E+00;  3.9883477E+04;  2.8187449E+00;  0.0000000E+00; -2.6098004E-01;  2.8597722E+03;
  1.1449511E+00;  9.9999998E-03;  6.0045946E-02;9006;  1.5207134E+00;  0.0000000E+00; -2.1591714E-02;  9.9664362E+02;  1.0668289E-01; -2.7320288E+03;3; -6.8702911E+01;  0.0000000E+00; -4.3429267E-01;0;  2.5309339E+00;  3.5010891E+04;  0.0000000E+00;  2.7579758E-02;  4.0000000E+04;  0.0000000E+00;  3.9881516E+04;  2.7894564E+00;  0.0000000E+00; -2.5852239E-01;  2.6988354E+03;
  1.1559639E+00;  9.9999998E-03; -1.0013358E-01;9049;  1.5822328E+00;  0.0000000E+00;  3.1699717E-02;  9.9684259E+02;  1.0617434E-01; -2.5621943E+03;3; -5.4174755E+01;  0.0000000E+00;  1.2565296E+00;0;  2.3946466E+00;  3.5372984E+04;  0.0000000E+00; -1.1310261E-01;  4.0000000E+04;  0.0000000E+00;  3.9868188E+04;  2.6216531E+00;  0.0000000E+00; -2.2700638E-01;  1.7296271E+03;
  1.1558838E+00;  9.9999998E-03; -9.0111837E-02;9050;  1.5769798E+00;  0.0000000E+00;  2.8972693E-02;  9.9688171E+02;  1.0617755E-01; -2.5304778E+03;3; -5.7678585E+01;  0.0000000E+00;  1.3842888E+00;0;  2.4540584E+00;  3.5373895E+04;  0.0000000E+00; -8.1080273E-02;  4.0000000E+04;  0.0000000E+00;  3.9867824E+04;  2.6862631E+00;  0.0000000E+00; -2.3220478E-01;  1.6857620E+03;
  1.1557971E+00;  9.9999998E-03; -8.0092423E-02;9051;  1.5717522E+00;  0.0000000E+00;  2.6097463E-02;  9.9692908E+02;  1.0618031E-01; -2.4921377E+03;3; -6.0915722E+01;  0.0000000E+00;  1.4868072E+00;0;  2.5061233E+00;  3.5375199E+04;  0.0000000E+00; -4.8866279E-02;  4.0000000E+04;  0.0000000E+00;  3.9867809E+04;  2.7427640E+00;  0.0000000E+00; -2.3664065E-01;  1.6790214E+03;
  1.1557091E+00;  9.9999998E-03; -7.0076235E-02;9052;  1.5666559E+00;  0.0000000E+00;  2.3091128E-02;  9.9699115E+02;  1.0618352E-01; -2.4418003E+03;3; -6.3839523E+01;  0.0000000E+00;  1.4786153E+00;0;  2.5512328E+00;  3.5377094E+04;  0.0000000E+00; -2.1031206E-02;  4.0000000E+04;  0.0000000E+00;  3.9868215E+04;  2.7916050E+00;  0.0000000E+00; -2.4037229E-01;  1.7044933E+03;
  1.1556245E+00;  9.9999998E-03; -6.0063083E-02;9053;  1.5618562E+00;  0.0000000E+00;  1.9979456E-02;  9.9705774E+02;  1.0618621E-01; -2.3878298E+03;3; -6.6527870E+01;  0.0000000E+00;  1.3971097E+00;0;  2.5897417E+00;  3.5379375E+04;  0.0000000E+00; -7.2519976E-04;  4.0000000E+04;  0.0000000E+00;  3.9868957E+04;  2.8331811E+00;  0.0000000E+00; -2.4343939E-01;  1.7512526E+03;
  1.1555471E+00;  9.9999998E-03; -5.0052326E-02;9054;  1.5575306E+00;  0.0000000E+00;  1.6761640E-02;  9.9712128E+02;  1.0618842E-01; -2.3363186E+03;3; -6.8913193E+01;  0.0000000E+00;  1.2304415E+00;0;  2.6219604E+00;  3.5381941E+04;  0.0000000E+00;  1.0740601E-02;  4.0000000E+04;  0.0000000E+00;  3.9869668E+04;  2.8678408E+00;  0.0000000E+00; -2.4588035E-01;  1.8062327E+03;
  1.1554794E+00;  9.9999998E-03; -4.0042799E-02;9055;  1.5537527E+00;  0.0000000E+00;  1.3503899E-02;  9.9718512E+02;  1.0619047E-01; -2.2845564E+03;3; -7.0851425E+01;  0.0000000E+00;  1.0048567E+00;0;  2.6481190E+00;  3.5384340E+04;  0.0000000E+00;  1.4039434E-02;  4.0000000E+04;  0.0000000E+00;  3.9870332E+04;  2.8958590E+00;  0.0000000E+00; -2.4774012E-01;  1.8582550E+03;
  1.1554241E+00;  9.9999998E-03; -3.0033650E-02;9056;  1.5506226E+00;  0.0000000E+00;  1.0192223E-02;  9.9723651E+02;  1.0619188E-01; -2.2428940E+03;3; -7.2428101E+01;  0.0000000E+00;  8.2485038E-01;0;  2.6683826E+00;  3.5386625E+04;  0.0000000E+00;  1.1507453E-02;  4.0000000E+04;  0.0000000E+00;  3.9870895E+04;  2.9174585E+00;  0.0000000E+00; -2.4907583E-01;  1.9000164E+03;
  1.1553830E+00;  9.9999998E-03; -2.0023633E-02;9057;  1.5484072E+00;  0.0000000E+00;  6.7976066E-03;  9.9727789E+02;  1.0619330E-01; -2.2093003E+03;3; -7.3545326E+01;  0.0000000E+00;  5.5578452E-01;0;  2.6828282E+00;  3.5388355E+04;  0.0000000E+00;  6.3750381E-03;  4.0000000E+04;  0.0000000E+00;  3.9871355E+04;  2.9327841E+00;  0.0000000E+00; -2.4995585E-01;  1.9288579E+03;
  1.1553574E+00;  9.9999998E-03; -1.0012245E-02;9058;  1.5470591E+00;  0.0000000E+00;  3.4087268E-03;  9.9730304E+02;  1.0619394E-01; -2.1889021E+03;3; -7.4159088E+01;  0.0000000E+00;  2.9643068E-01;0;  2.6914966E+00;  3.5389590E+04;  0.0000000E+00;  1.7940350E-03;  4.0000000E+04;  0.0000000E+00;  3.9871582E+04;  2.9419458E+00;  0.0000000E+00; -2.5044921E-01;  1.9451097E+03;
  1.1553488E+00;  9.9999998E-03; -1.4866208E-09;9059;  1.5466498E+00;  0.0000000E+00; -1.2187773E-08;  9.9731293E+02;  1.0619447E-01; -2.1809258E+03;3; -7.4347923E+01;  0.0000000E+00;  2.5615111E-05;0;  2.6943882E+00;  3.5389992E+04;  0.0000000E+00;  1.2853160E-12;  4.0000000E+04;  0.0000000E+00;  3.9871539E+04;  2.9449952E+00;  0.0000000E+00; -2.5060710E-01;  1.9502784E+03;
  1.1553574E+00;  9.9999998E-03;  1.0012242E-02;9060;  1.5470592E+00;  0.0000000E+00; -3.4087521E-03;  9.9730304E+02;  1.0619394E-01; -2.1889021E+03;3; -7.4159019E+01;  0.0000000E+00; -2.9641038E-01;0;  2.6914992E+00;  3.5389586E+04;  0.0000000E+00;  1.7933715E-03;  4.0000000E+04;  0.0000000E+00;  3.9871586E+04;  2.9419484E+00;  0.0000000E+00; -2.5044918E-01;  1.9451101E+03;
  1.1553830E+00;  9.9999998E-03;  2.0023629E-02;9061;  1.5484072E+00;  0.0000000E+00; -6.7976299E-03;  9.9727789E+02;  1.0619330E-01; -2.2093003E+03;3; -7.3545219E+01;  0.0000000E+00; -5.5580002E-01;0;  2.6828284E+00;  3.5388363E+04;  0.0000000E+00;  6.3741561E-03;  4.0000000E+04;  0.0000000E+00;  3.9871355E+04;  2.9327841E+00;  0.0000000E+00; -2.4995567E-01;  1.9288634E+03;
  1.1554241E+00;  9.9999998E-03;  3.0033648E-02;9062;  1.5506227E+00;  0.0000000E+00; -1.0192242E-02;  9.9723651E+02;  1.0619188E-01; -2.2428940E+03;3; -7.2428040E+01;  0.0000000E+00; -8.2481486E-01;0;  2.6683824E+00;  3.5386637E+04;  0.0000000E+00;  1.1506788E-02;  4.0000000E+04;  0.0000000E+00;  3.9870895E+04;  2.9174585E+00;  0.0000000E+00; -2.4907605E-01;  1.9000137E+03;
  1.1554794E+00;  9.9999998E-03;  4.0042795E-02;9063;  1.5537525E+00;  0.0000000E+00; -1.3503932E-02;  9.9718512E+02;  1.0619047E-01; -2.2845564E+03;3; -7.0851440E+01;  0.0000000E+00; -1.0048895E+00;0;  2.6481221E+00;  3.5384340E+04;  0.0000000E+00;  1.4037888E-02;  4.0000000E+04;  0.0000000E+00;  3.9870336E+04;  2.8958626E+00;  0.0000000E+00; -2.4774046E-01;  1.8582598E+03;
  1.1555471E+00;  9.9999998E-03;  5.0052322E-02;9064;  1.5575306E+00;  0.0000000E+00; -1.6761666E-02;  9.9712128E+02;  1.0618842E-01; -2.3363186E+03;3; -6.8913300E+01;  0.0000000E+00; -1.2304008E+00;0;  2.6219609E+00;  3.5381941E+04;  0.0000000E+00;  1.0738550E-02;  4.0000000E+04;  0.0000000E+00;  3.9869668E+04;  2.8678415E+00;  0.0000000E+00; -2.4588056E-01;  1.8062354E+03;
  1.1556245E+00;  9.9999998E-03;  6.0063079E-02;9065;  1.5618562E+00;  0.0000000E+00; -1.9979481E-02;  9.9705780E+02;  1.0618618E-01; -2.3877812E+03;3; -6.6527832E+01;  0.0000000E+00; -1.3971080E+00;0;  2.5897429E+00;  3.5379367E+04;  0.0000000E+00; -7.2568655E-04;  4.0000000E+04;  0.0000000E+00;  3.9868957E+04;  2.8331828E+00;  0.0000000E+00; -2.4344002E-01;  1.7512605E+03;
  1.1660323E+00;  9.9999998E-03; -3.0043773E-02;9115;  1.5923561E+00;  0.0000000E+00;  9.0453606E-03;  9.9754822E+02;  1.0573921E-01; -1.9830957E+03;3; -6.8097404E+01;  0.0000000E+00;  1.2167222E+00;0;  2.6738851E+00;  3.5726867E+04;  0.0000000E+00;  7.3933617E-05;  4.0000000E+04;  0.0000000E+00;  3.9854602E+04;  2.9020228E+00;  0.0000000E+00; -2.2813775E-01;  7.4291779E+02;
  1.1659917E+00;  9.9999998E-03; -2.0029945E-02;9116;  1.5910081E+00;  0.0000000E+00;  6.0433014E-03;  9.9755579E+02;  1.0574055E-01; -1.9770009E+03;3; -6.9013153E+01;  0.0000000E+00;  8.0034089E-01;0;  2.6892602E+00;  3.5726777E+04;  0.0000000E+00;  9.9729211E-04;  4.0000000E+04;  0.0000000E+00;  3.9854430E+04;  2.9181168E+00;  0.0000000E+00; -2.2885664E-01;  7.2719214E+02;
  1.1659658E+00;  9.9999998E-03; -1.0015412E-02;9117;  1.5901848E+00;  0.0000000E+00;  3.0251155E-03;  9.9756097E+02;  1.0574121E-01; -1.9728242E+03;3; -6.9519272E+01;  0.0000000E+00;  4.0528670E-01;0;  2.6985366E+00;  3.5726820E+04;  0.0000000E+00;  4.0421888E-04;  4.0000000E+04;  0.0000000E+00;  3.9854406E+04;  2.9277942E+00;  0.0000000E+00; -2.2925764E-01;  7.1696381E+02;
  1.1659572E+00;  9.9999998E-03; -1.5790426E-09;9118;  1.5899388E+00;  0.0000000E+00; -1.2185506E-08;  9.9756305E+02;  1.0574152E-01; -1.9711427E+03;3; -6.9668755E+01;  0.0000000E+00;  6.9732091E-06;0;  2.7016315E+00;  3.5726812E+04;  0.0000000E+00;  3.0152499E-12;  4.0000000E+04;  0.0000000E+00;  3.9854320E+04;  2.9310164E+00;  0.0000000E+00; -2.2938499E-01;  7.1328864E+02;
  1.1659658E+00;  9.9999998E-03;  1.0015409E-02;9119;  1.5901849E+00;  0.0000000E+00; -3.0251406E-03;  9.9756097E+02;  1.0574121E-01; -1.9728242E+03;3; -6.9519203E+01;  0.0000000E+00; -4.0529126E-01;0;  2.6985343E+00;  3.5726816E+04;  0.0000000E+00;  4.0381076E-04;  4.0000000E+04;  0.0000000E+00;  3.9854402E+04;  2.9277918E+00;  0.0000000E+00; -2.2925751E-01;  7.1696875E+02;
  1.1659917E+00;  9.9999998E-03;  2.0029942E-02;9120;  1.5910082E+00;  0.0000000E+00; -6.0433294E-03;  9.9755579E+02;  1.0574055E-01; -1.9770009E+03;3; -6.9013023E+01;  0.0000000E+00; -8.0037057E-01;0;  2.6892626E+00;  3.5726773E+04;  0.0000000E+00;  9.9647359E-04;  4.0000000E+04;  0.0000000E+00;  3.9854430E+04;  2.9181197E+00;  0.0000000E+00; -2.2885701E-01;  7.2719489E+02;
  1.1660323E+00;  9.9999998E-03;  3.0043771E-02;9121;  1.5923563E+00;  0.0000000E+00; -9.0453792E-03;  9.9754810E+02;  1.0573927E-01; -1.9831921E+03;3; -6.8097366E+01;  0.0000000E+00; -1.2167094E+00;0;  2.6738842E+00;  3.5726863E+04;  0.0000000E+00;  7.2939889E-05;  4.0000000E+04;  0.0000000E+00;  3.9854602E+04;  2.9020219E+00;  0.0000000E+00; -2.2813770E-01;  7.4293414E+02;
  1.1660860E+00;  9.9999998E-03; -4.0057559E-02;9114;  1.5943489E+00;  0.0000000E+00;  1.1994912E-02;  9.9754175E+02;  1.0573781E-01; -1.9883137E+03;3; -6.6765015E+01;  0.0000000E+00;  1.5499769E+00;0;  2.6524553E+00;  3.5726984E+04;  0.0000000E+00; -4.6835658E-03;  4.0000000E+04;  0.0000000E+00;  3.9854840E+04;  2.8794954E+00;  0.0000000E+00; -2.2704004E-01;  7.6367975E+02;
  1.1660860E+00;  9.9999998E-03;  4.0057559E-02;9122;  1.5943491E+00;  0.0000000E+00; -1.1994928E-02;  9.9754175E+02;  1.0573781E-01; -1.9883137E+03;3; -6.6765015E+01;  0.0000000E+00; -1.5499628E+00;0;  2.6524563E+00;  3.5726980E+04;  0.0000000E+00; -4.6846224E-03;  4.0000000E+04;  0.0000000E+00;  3.9854840E+04;  2.8794966E+00;  0.0000000E+00; -2.2704028E-01;  7.6369678E+02;
  1.1661505E+00;  9.9999998E-03; -5.0072394E-02;9113;  1.5967304E+00;  0.0000000E+00;  1.4882107E-02;  9.9753235E+02;  1.0573629E-01; -1.9958378E+03;3; -6.5152420E+01;  0.0000000E+00;  1.8580843E+00;0;  2.6250169E+00;  3.5727305E+04;  0.0000000E+00; -1.5460051E-02;  4.0000000E+04;  0.0000000E+00;  3.9855062E+04;  2.8505239E+00;  0.0000000E+00; -2.2550707E-01;  7.9145734E+02;
  1.1661505E+00;  9.9999998E-03;  5.0072391E-02;9123;  1.5967302E+00;  0.0000000E+00; -1.4882139E-02;  9.9753241E+02;  1.0573629E-01; -1.9957896E+03;3; -6.5152328E+01;  0.0000000E+00; -1.8581001E+00;0;  2.6250188E+00;  3.5727301E+04;  0.0000000E+00; -1.5460686E-02;  4.0000000E+04;  0.0000000E+00;  3.9855062E+04;  2.8505261E+00;  0.0000000E+00; -2.2550717E-01;  7.9145197E+02;
  1.1662226E+00;  9.9999998E-03; -6.0088951E-02;9112;  1.5994084E+00;  0.0000000E+00;  1.7735118E-02;  9.9752667E+02;  1.0573409E-01; -2.0004159E+03;3; -6.3142586E+01;  0.0000000E+00;  2.2300024E+00;0;  2.5915282E+00;  3.5727863E+04;  0.0000000E+00; -3.3505902E-02;  4.0000000E+04;  0.0000000E+00;  3.9855484E+04;  2.8150270E+00;  0.0000000E+00; -2.2349881E-01;  8.3124976E+02;
  1.1662226E+00;  9.9999998E-03;  6.0088947E-02;9124;  1.5994084E+00;  0.0000000E+00; -1.7735140E-02;  9.9752655E+02;  1.0573415E-01; -2.0005123E+03;3; -6.3142368E+01;  0.0000000E+00; -2.2299643E+00;0;  2.5915308E+00;  3.5727867E+04;  0.0000000E+00; -3.3506021E-02;  4.0000000E+04;  0.0000000E+00;  3.9855484E+04;  2.8150296E+00;  0.0000000E+00; -2.2349878E-01;  8.3125116E+02;
  1.1662984E+00;  9.9999998E-03; -7.0107810E-02;9111;  1.6023748E+00;  0.0000000E+00;  2.0495720E-02;  9.9752008E+02;  1.0573126E-01; -2.0056658E+03;3; -6.0854134E+01;  0.0000000E+00;  2.4571378E+00;0;  2.5518870E+00;  3.5728645E+04;  0.0000000E+00; -5.8630686E-02;  4.0000000E+04;  0.0000000E+00;  3.9856117E+04;  2.7728791E+00;  0.0000000E+00; -2.2099200E-01;  8.8997797E+02;
  1.1663742E+00;  9.9999998E-03; -8.0129072E-02;9110;  1.6054180E+00;  0.0000000E+00;  2.3157516E-02;  9.9752191E+02;  1.0572923E-01; -2.0041185E+03;3; -5.8362099E+01;  0.0000000E+00;  2.6385434E+00;0;  2.5059249E+00;  3.5729520E+04;  0.0000000E+00; -8.9109749E-02;  4.0000000E+04;  0.0000000E+00;  3.9856906E+04;  2.7238965E+00;  0.0000000E+00; -2.1797152E-01;  9.7367200E+02;
  1.1664463E+00;  9.9999998E-03; -9.0152487E-02;9109;  1.6083922E+00;  0.0000000E+00;  2.5683761E-02;  9.9752844E+02;  1.0572664E-01; -1.9988140E+03;3; -5.5700390E+01;  0.0000000E+00;  2.7262626E+00;0;  2.4534090E+00;  3.5730570E+04;  0.0000000E+00; -1.2191424E-01;  4.0000000E+04;  0.0000000E+00;  3.9858090E+04;  2.6678252E+00;  0.0000000E+00; -2.1441616E-01;  1.0846796E+03;
  1.1665101E+00;  9.9999998E-03; -1.0017606E-01;9108;  1.6112214E+00;  0.0000000E+00;  2.8072350E-02;  9.9753369E+02;  1.0572413E-01; -1.9945275E+03;3; -5.2745701E+01;  0.0000000E+00;  2.8216798E+00;0;  2.3940754E+00;  3.5731520E+04;  0.0000000E+00; -1.5311696E-01;  4.0000000E+04;  0.0000000E+00;  3.9859504E+04;  2.6043503E+00;  0.0000000E+00; -2.1027485E-01;  1.2190026E+03;
  1.1765138E+00;  9.9999998E-03; -1.0019320E-02;9175;  1.6285607E+00;  0.0000000E+00;  2.5589841E-03;  9.9791193E+02;  1.0533197E-01; -1.6823198E+03;3; -6.3893101E+01;  0.0000000E+00;  5.0949144E-01;0;  2.6440074E+00;  3.6045344E+04;  0.0000000E+00; -1.2602643E-03;  4.0000000E+04;  0.0000000E+00;  3.9837367E+04;  2.8467228E+00;  0.0000000E+00; -2.0271538E-01;  3.7022318E+02;
  1.1765056E+00;  9.9999998E-03; -1.5670935E-09;9176;  1.6284341E+00;  0.0000000E+00; -1.6920525E-08;  9.9791003E+02;  1.0533214E-01; -1.6838621E+03;3; -6.4038048E+01;  0.0000000E+00; -1.7197335E-06;0;  2.6469131E+00;  3.6045094E+04;  0.0000000E+00;  1.9394276E-12;  4.0000000E+04;  0.0000000E+00;  3.9837215E+04;  2.8496804E+00;  0.0000000E+00; -2.0276743E-01;  3.8062698E+02;
  1.1765138E+00;  9.9999998E-03;  1.0019317E-02;9177;  1.6285608E+00;  0.0000000E+00; -2.5590193E-03;  9.9791193E+02;  1.0533197E-01; -1.6823198E+03;3; -6.3893055E+01;  0.0000000E+00; -5.0949091E-01;0;  2.6440055E+00;  3.6045344E+04;  0.0000000E+00; -1.2606991E-03;  4.0000000E+04;  0.0000000E+00;  3.9837367E+04;  2.8467209E+00;  0.0000000E+00; -2.0271534E-01;  3.7021466E+02;
  1.1765379E+00;  9.9999998E-03; -2.0038245E-02;9174;  1.6289148E+00;  0.0000000E+00;  5.1020281E-03;  9.9792236E+02;  1.0533112E-01; -1.6738995E+03;3; -6.3502731E+01;  0.0000000E+00;  1.0101572E+00;0;  2.6353273E+00;  3.6046242E+04;  0.0000000E+00; -5.3546187E-03;  4.0000000E+04;  0.0000000E+00;  3.9837637E+04;  2.8378675E+00;  0.0000000E+00; -2.0254025E-01;  3.3952887E+02;
  1.1765379E+00;  9.9999998E-03;  2.0038243E-02;9178;  1.6289148E+00;  0.0000000E+00; -5.1020621E-03;  9.9792230E+02;  1.0533117E-01; -1.6739475E+03;3; -6.3502800E+01;  0.0000000E+00; -1.0101600E+00;0;  2.6353319E+00;  3.6046242E+04;  0.0000000E+00; -5.3554270E-03;  4.0000000E+04;  0.0000000E+00;  3.9837637E+04;  2.8378720E+00;  0.0000000E+00; -2.0254016E-01;  3.3952869E+02;
  1.1765759E+00;  9.9999998E-03; -3.0057346E-02;9173;  1.6295404E+00;  0.0000000E+00;  7.6153590E-03;  9.9794275E+02;  1.0532986E-01; -1.6574508E+03;3; -6.2802418E+01;  0.0000000E+00;  1.5146024E+00;0;  2.6209810E+00;  3.6047766E+04;  0.0000000E+00; -1.3101206E-02;  4.0000000E+04;  0.0000000E+00;  3.9838301E+04;  2.8231747E+00;  0.0000000E+00; -2.0219384E-01;  2.8958325E+02;
  1.1765759E+00;  9.9999998E-03;  3.0057345E-02;9179;  1.6295406E+00;  0.0000000E+00; -7.6153902E-03;  9.9794275E+02;  1.0532986E-01; -1.6574508E+03;3; -6.2802395E+01;  0.0000000E+00; -1.5145978E+00;0;  2.6209805E+00;  3.6047766E+04;  0.0000000E+00; -1.3102533E-02;  4.0000000E+04;  0.0000000E+00;  3.9838301E+04;  2.8231745E+00;  0.0000000E+00; -2.0219393E-01;  2.8957822E+02;
  1.1766248E+00;  9.9999998E-03; -4.0076971E-02;9172;  1.6305118E+00;  0.0000000E+00;  1.0096816E-02;  9.9797266E+02;  1.0532884E-01; -1.6333123E+03;3; -6.1726936E+01;  0.0000000E+00;  1.9871457E+00;0;  2.6010754E+00;  3.6049789E+04;  0.0000000E+00; -2.5489151E-02;  4.0000000E+04;  0.0000000E+00;  3.9839152E+04;  2.8026915E+00;  0.0000000E+00; -2.0161599E-01;  2.2159317E+02;
  1.1766248E+00;  9.9999998E-03;  4.0076967E-02;9180;  1.6305119E+00;  0.0000000E+00; -1.0096848E-02;  9.9797278E+02;  1.0532890E-01; -1.6332163E+03;3; -6.1726978E+01;  0.0000000E+00; -1.9872022E+00;0;  2.6010795E+00;  3.6049789E+04;  0.0000000E+00; -2.5491593E-02;  4.0000000E+04;  0.0000000E+00;  3.9839152E+04;  2.8026955E+00;  0.0000000E+00; -2.0161606E-01;  2.2159479E+02;
  1.1766822E+00;  9.9999998E-03; -5.0098106E-02;9171;  1.6316446E+00;  0.0000000E+00;  1.2525802E-02;  9.9800732E+02;  1.0532701E-01; -1.6053754E+03;3; -6.0434330E+01;  0.0000000E+00;  2.4165583E+00;0;  2.5756943E+00;  3.6052379E+04;  0.0000000E+00; -4.3214723E-02;  4.0000000E+04;  0.0000000E+00;  3.9840219E+04;  2.7764430E+00;  0.0000000E+00; -2.0074862E-01;  1.3888014E+02;
  1.1766821E+00;  9.9999998E-03;  5.0098103E-02;9181;  1.6316446E+00;  0.0000000E+00; -1.2525833E-02;  9.9800732E+02;  1.0532701E-01; -1.6053754E+03;3; -6.0434341E+01;  0.0000000E+00; -2.4165738E+00;0;  2.5756948E+00;  3.6052379E+04;  0.0000000E+00; -4.3217115E-02;  4.0000000E+04;  0.0000000E+00;  3.9840219E+04;  2.7764435E+00;  0.0000000E+00; -2.0074865E-01;  1.3887862E+02;
  1.1767446E+00;  9.9999998E-03; -6.0121041E-02;9170;  1.6328388E+00;  0.0000000E+00;  1.4903696E-02;  9.9804535E+02;  1.0532481E-01; -1.5746997E+03;3; -5.8887512E+01;  0.0000000E+00;  2.8749416E+00;0;  2.5448565E+00;  3.6055355E+04;  0.0000000E+00; -6.6253349E-02;  4.0000000E+04;  0.0000000E+00;  3.9841520E+04;  2.7444136E+00;  0.0000000E+00; -1.9955708E-01;  7.5062302E+01;
  1.1767446E+00;  9.9999998E-03;  6.0121037E-02;9182;  1.6328387E+00;  0.0000000E+00; -1.4903732E-02;  9.9804529E+02;  1.0532487E-01; -1.5747478E+03;3; -5.8887493E+01;  0.0000000E+00; -2.8749480E+00;0;  2.5448525E+00;  3.6055363E+04;  0.0000000E+00; -6.6254333E-02;  4.0000000E+04;  0.0000000E+00;  3.9841520E+04;  2.7444096E+00;  0.0000000E+00; -1.9955707E-01;  7.5062660E+01;
  1.1768075E+00;  9.9999998E-03; -7.0145771E-02;9169;  1.6341525E+00;  0.0000000E+00;  1.7237220E-02;  9.9809644E+02;  1.0532341E-01; -1.5335095E+03;3; -5.6996555E+01;  0.0000000E+00;  3.2549522E+00;0;  2.5084817E+00;  3.6058523E+04;  0.0000000E+00; -9.3642928E-02;  4.0000000E+04;  0.0000000E+00;  3.9843195E+04;  2.7065098E+00;  0.0000000E+00; -1.9802807E-01;  1.5396440E+02;
  1.1768680E+00;  9.9999998E-03; -8.0172241E-02;9168;  1.6353793E+00;  0.0000000E+00;  1.9467266E-02;  9.9814471E+02;  1.0532121E-01; -1.4945796E+03;3; -5.4995415E+01;  0.0000000E+00;  3.5549178E+00;0;  2.4664230E+00;  3.6061746E+04;  0.0000000E+00; -1.2352847E-01;  4.0000000E+04;  0.0000000E+00;  3.9845031E+04;  2.6625800E+00;  0.0000000E+00; -1.9615696E-01;  3.0420154E+02;
  1.1769216E+00;  9.9999998E-03; -9.0199001E-02;9167;  1.6363804E+00;  0.0000000E+00;  2.1592423E-02;  9.9819153E+02;  1.0531932E-01; -1.4568079E+03;3; -5.2847618E+01;  0.0000000E+00;  3.8339338E+00;0;  2.4184601E+00;  3.6064680E+04;  0.0000000E+00; -1.5336847E-01;  4.0000000E+04;  0.0000000E+00;  3.9847180E+04;  2.6123888E+00;  0.0000000E+00; -1.9392875E-01;  4.7928528E+02;
  1.1769651E+00;  9.9999998E-03; -1.0022376E-01;9166;  1.6371018E+00;  0.0000000E+00;  2.3606759E-02;  9.9823413E+02;  1.0531750E-01; -1.4224526E+03;3; -5.0500080E+01;  0.0000000E+00;  4.0677972E+00;0;  2.3643072E+00;  3.6067043E+04;  0.0000000E+00; -1.8026289E-01;  4.0000000E+04;  0.0000000E+00;  3.9849371E+04;  2.5555811E+00;  0.0000000E+00; -1.9127394E-01;  6.6437921E+02;
  1.1870010E+00;  9.9999998E-03; -1.0023884E-02;9232;  1.6617653E+00;  0.0000000E+00;  2.0155653E-03;  9.9834381E+02;  1.0496296E-01; -1.3283311E+03;3; -5.7666859E+01;  0.0000000E+00;  5.8045632E-01;0;  2.5403028E+00;  3.6344465E+04;  0.0000000E+00; -2.8874886E-03;  4.0000000E+04;  0.0000000E+00;  3.9821082E+04;  2.7122433E+00;  0.0000000E+00; -1.7194054E-01;  1.2462865E+03;
  1.1869934E+00;  9.9999998E-03; -1.6114895E-09;9233;  1.6617370E+00;  0.0000000E+00; -2.2618744E-08;  9.9833545E+02;  1.0496307E-01; -1.3350764E+03;3; -5.7776783E+01;  0.0000000E+00;  1.3916625E-06;0;  2.5426760E+00;  3.6343891E+04;  0.0000000E+00;  3.3886589E-12;  4.0000000E+04;  0.0000000E+00;  3.9820930E+04;  2.7145557E+00;  0.0000000E+00; -1.7187978E-01;  1.2607430E+03;
  1.1870010E+00;  9.9999998E-03;  1.0023881E-02;9234;  1.6617653E+00;  0.0000000E+00; -2.0156123E-03;  9.9834381E+02;  1.0496296E-01; -1.3283311E+03;3; -5.7666870E+01;  0.0000000E+00; -5.8045375E-01;0;  2.5403023E+00;  3.6344469E+04;  0.0000000E+00; -2.8877540E-03;  4.0000000E+04;  0.0000000E+00;  3.9821082E+04;  2.7122428E+00;  0.0000000E+00; -1.7194048E-01;  1.2462913E+03;
  1.1870559E+00;  9.9999998E-03; -3.0073024E-02;9230;  1.6619111E+00;  0.0000000E+00;  5.9944917E-03;  9.9840192E+02;  1.0496159E-01; -1.2816877E+03;3; -5.6808487E+01;  0.0000000E+00;  1.7179700E+00;0;  2.5215933E+00;  3.6348285E+04;  0.0000000E+00; -2.5538305E-02;  4.0000000E+04;  0.0000000E+00;  3.9822641E+04;  2.6938977E+00;  0.0000000E+00; -1.7230447E-01;  1.1316212E+03;
  1.1870224E+00;  9.9999998E-03; -2.0048061E-02;9231;  1.6618114E+00;  0.0000000E+00;  4.0203850E-03;  9.9836609E+02;  1.0496248E-01; -1.3104386E+03;3; -5.7365612E+01;  0.0000000E+00;  1.1606845E+00;0;  2.5332427E+00;  3.6345926E+04;  0.0000000E+00; -1.1484583E-02;  4.0000000E+04;  0.0000000E+00;  3.9821664E+04;  2.7053444E+00;  0.0000000E+00; -1.7210183E-01;  1.2030850E+03;
  1.1870224E+00;  9.9999998E-03;  2.0048058E-02;9235;  1.6618115E+00;  0.0000000E+00; -4.0204329E-03;  9.9836609E+02;  1.0496248E-01; -1.3104386E+03;3; -5.7365597E+01;  0.0000000E+00; -1.1606821E+00;0;  2.5332429E+00;  3.6345926E+04;  0.0000000E+00; -1.1485524E-02;  4.0000000E+04;  0.0000000E+00;  3.9821664E+04;  2.7053447E+00;  0.0000000E+00; -1.7210175E-01;  1.2030844E+03;
  1.1870559E+00;  9.9999998E-03;  3.0073022E-02;9236;  1.6619111E+00;  0.0000000E+00; -5.9945420E-03;  9.9840179E+02;  1.0496158E-01; -1.2817833E+03;3; -5.6808533E+01;  0.0000000E+00; -1.7179679E+00;0;  2.5215931E+00;  3.6348285E+04;  0.0000000E+00; -2.5539054E-02;  4.0000000E+04;  0.0000000E+00;  3.9822641E+04;  2.6938977E+00;  0.0000000E+00; -1.7230454E-01;  1.1316230E+03;
  1.1870986E+00;  9.9999998E-03; -4.0098887E-02;9229;  1.6620361E+00;  0.0000000E+00;  7.9343123E-03;  9.9845142E+02;  1.0496027E-01; -1.2419855E+03;3; -5.6019421E+01;  0.0000000E+00;  2.2663395E+00;0;  2.5054626E+00;  3.6351523E+04;  0.0000000E+00; -4.4497535E-02;  4.0000000E+04;  0.0000000E+00;  3.9823883E+04;  2.6779377E+00;  0.0000000E+00; -1.7247498E-01;  1.0325624E+03;
  1.1870986E+00;  9.9999998E-03;  4.0098883E-02;9237;  1.6620359E+00;  0.0000000E+00; -7.9343673E-03;  9.9845142E+02;  1.0496027E-01; -1.2419855E+03;3; -5.6019451E+01;  0.0000000E+00; -2.2663486E+00;0;  2.5054653E+00;  3.6351523E+04;  0.0000000E+00; -4.4500452E-02;  4.0000000E+04;  0.0000000E+00;  3.9823883E+04;  2.6779401E+00;  0.0000000E+00; -1.7247492E-01;  1.0325684E+03;
  1.1871471E+00;  9.9999998E-03; -5.0126206E-02;9228;  1.6621703E+00;  0.0000000E+00;  9.8588429E-03;  9.9851862E+02;  1.0495899E-01; -1.1880841E+03;3; -5.5031464E+01;  0.0000000E+00;  2.8092160E+00;0;  2.4849200E+00;  3.6355398E+04;  0.0000000E+00; -6.7447163E-02;  4.0000000E+04;  0.0000000E+00;  3.9825559E+04;  2.6574667E+00;  0.0000000E+00; -1.7254663E-01;  9.0664417E+02;
  1.1871471E+00;  9.9999998E-03;  5.0126202E-02;9238;  1.6621703E+00;  0.0000000E+00; -9.8588942E-03;  9.9851862E+02;  1.0495899E-01; -1.1880841E+03;3; -5.5031548E+01;  0.0000000E+00; -2.8092258E+00;0;  2.4849224E+00;  3.6355395E+04;  0.0000000E+00; -6.7448474E-02;  4.0000000E+04;  0.0000000E+00;  3.9825559E+04;  2.6574690E+00;  0.0000000E+00; -1.7254673E-01;  9.0664117E+02;
  1.1871977E+00;  9.9999998E-03; -6.0155194E-02;9227;  1.6622611E+00;  0.0000000E+00;  1.1733262E-02;  9.9859082E+02;  1.0495784E-01; -1.1301210E+03;3; -5.3857449E+01;  0.0000000E+00;  3.2995310E+00;0;  2.4599214E+00;  3.6359809E+04;  0.0000000E+00; -9.3125619E-02;  4.0000000E+04;  0.0000000E+00;  3.9827586E+04;  2.6324008E+00;  0.0000000E+00; -1.7247944E-01;  7.5552142E+02;
  1.1871977E+00;  9.9999998E-03;  6.0155191E-02;9239;  1.6622612E+00;  0.0000000E+00; -1.1733309E-02;  9.9859094E+02;  1.0495777E-01; -1.1300254E+03;3; -5.3857357E+01;  0.0000000E+00; -3.2995191E+00;0;  2.4599211E+00;  3.6359812E+04;  0.0000000E+00; -9.3126260E-02;  4.0000000E+04;  0.0000000E+00;  3.9827586E+04;  2.6324008E+00;  0.0000000E+00; -1.7247956E-01;  7.5551611E+02;
  1.1872464E+00;  9.9999998E-03; -7.0185341E-02;9226;  1.6622208E+00;  0.0000000E+00;  1.3554345E-02;  9.9866571E+02;  1.0495605E-01; -1.0700582E+03;3; -5.2499752E+01;  0.0000000E+00;  3.7846100E+00;0;  2.4303195E+00;  3.6364418E+04;  0.0000000E+00; -1.2000823E-01;  4.0000000E+04;  0.0000000E+00;  3.9829855E+04;  2.6025786E+00;  0.0000000E+00; -1.7225917E-01;  5.8357953E+02;
  1.1872904E+00;  9.9999998E-03; -8.0215700E-02;9225;  1.6620042E+00;  0.0000000E+00;  1.5343226E-02;  9.9874255E+02;  1.0495412E-01; -1.0083752E+03;3; -5.0919117E+01;  0.0000000E+00;  4.2706499E+00;0;  2.3958557E+00;  3.6368879E+04;  0.0000000E+00; -1.4639458E-01;  4.0000000E+04;  0.0000000E+00;  3.9832387E+04;  2.5677366E+00;  0.0000000E+00; -1.7188103E-01;  4.0148355E+02;
  1.1873510E+00;  9.9999998E-03; -1.0026839E-01;9223;  1.6608100E+00;  0.0000000E+00;  1.8733332E-02;  9.9887274E+02;  1.0495172E-01; -9.0395593E+02;3; -4.7319061E+01;  0.0000000E+00;  5.0338731E+00;0;  2.3109403E+00;  3.6375895E+04;  0.0000000E+00; -1.9840007E-01;  4.0000000E+04;  0.0000000E+00;  3.9837547E+04;  2.4814126E+00;  0.0000000E+00; -1.7047229E-01;  1.9838983E+02;
  1.1873261E+00;  9.9999998E-03; -9.0244077E-02;9224;  1.6615593E+00;  0.0000000E+00;  1.7077344E-02;  9.9881311E+02;  1.0495254E-01; -9.5181281E+02;3; -4.9193203E+01;  0.0000000E+00;  4.6884069E+00;0;  2.3561902E+00;  3.6372891E+04;  0.0000000E+00; -1.7080593E-01;  4.0000000E+04;  0.0000000E+00;  3.9835066E+04;  2.5275073E+00;  0.0000000E+00; -1.7131722E-01;  2.3874025E+02;
  1.1974289E+00;  9.9999998E-03; -1.0028657E-02;9289;  1.6900125E+00;  0.0000000E+00;  1.4667539E-03;  9.9882526E+02;  1.0463302E-01; -9.3733752E+02;3; -5.1036907E+01;  0.0000000E+00;  6.0742486E-01;0;  2.4014335E+00;  3.6622090E+04;  0.0000000E+00; -4.1786116E-03;  4.0000000E+04;  0.0000000E+00;  3.9806398E+04;  2.5395253E+00;  0.0000000E+00; -1.3809174E-01;  1.8630531E+03;
  1.1974221E+00;  9.9999998E-03; -1.7268531E-09;9290;  1.6900830E+00;  0.0000000E+00; -3.4508307E-08;  9.9881567E+02;  1.0463315E-01; -9.4499792E+02;3; -5.1109909E+01;  0.0000000E+00; -2.7939559E-06;0;  2.4030228E+00;  3.6621531E+04;  0.0000000E+00;  3.4099414E-12;  4.0000000E+04;  0.0000000E+00;  3.9806156E+04;  2.5409145E+00;  0.0000000E+00; -1.3789177E-01;  1.8787898E+03;
  1.1974289E+00;  9.9999998E-03;  1.0028654E-02;9291;  1.6900125E+00;  0.0000000E+00; -1.4668249E-03;  9.9882526E+02;  1.0463302E-01; -9.3733752E+02;3; -5.1036919E+01;  0.0000000E+00; -6.0742974E-01;0;  2.4014354E+00;  3.6622098E+04;  0.0000000E+00; -4.1787475E-03;  4.0000000E+04;  0.0000000E+00;  3.9806398E+04;  2.5395272E+00;  0.0000000E+00; -1.3809171E-01;  1.8630498E+03;
  1.1974771E+00;  9.9999998E-03; -3.0088589E-02;9287;  1.6896082E+00;  0.0000000E+00;  4.3529039E-03;  9.9889471E+02;  1.0463175E-01; -8.8190887E+02;3; -5.0348019E+01;  0.0000000E+00;  1.8493683E+00;0;  2.3889256E+00;  3.6626477E+04;  0.0000000E+00; -3.4946568E-02;  4.0000000E+04;  0.0000000E+00;  3.9808160E+04;  2.5284612E+00;  0.0000000E+00; -1.3953578E-01;  1.7372523E+03;
  1.1974481E+00;  9.9999998E-03; -2.0058066E-02;9288;  1.6898627E+00;  0.0000000E+00;  2.9159910E-03;  9.9885150E+02;  1.0463248E-01; -9.1640234E+02;3; -5.0774830E+01;  0.0000000E+00;  1.2499114E+00;0;  2.3967123E+00;  3.6623742E+04;  0.0000000E+00; -1.6263966E-02;  4.0000000E+04;  0.0000000E+00;  3.9807062E+04;  2.5353765E+00;  0.0000000E+00; -1.3866422E-01;  1.8157819E+03;
  1.1974481E+00;  9.9999998E-03;  2.0058062E-02;9292;  1.6898628E+00;  0.0000000E+00; -2.9160590E-03;  9.9885150E+02;  1.0463248E-01; -9.1640234E+02;3; -5.0774792E+01;  0.0000000E+00; -1.2499164E+00;0;  2.3967121E+00;  3.6623742E+04;  0.0000000E+00; -1.6264249E-02;  4.0000000E+04;  0.0000000E+00;  3.9807062E+04;  2.5353761E+00;  0.0000000E+00; -1.3866410E-01;  1.8157748E+03;
  1.1974771E+00;  9.9999998E-03;  3.0088585E-02;9293;  1.6896081E+00;  0.0000000E+00; -4.3529780E-03;  9.9889478E+02;  1.0463171E-01; -8.8186133E+02;3; -5.0348099E+01;  0.0000000E+00; -1.8493643E+00;0;  2.3889270E+00;  3.6626477E+04;  0.0000000E+00; -3.4947358E-02;  4.0000000E+04;  0.0000000E+00;  3.9808160E+04;  2.5284631E+00;  0.0000000E+00; -1.3953602E-01;  1.7372471E+03;
  1.1975132E+00;  9.9999998E-03; -4.0120210E-02;9286;  1.6892179E+00;  0.0000000E+00;  5.7798591E-03;  9.9895349E+02;  1.0463046E-01; -8.3500104E+02;3; -4.9787193E+01;  0.0000000E+00;  2.4455321E+00;0;  2.3781307E+00;  3.6630070E+04;  0.0000000E+00; -5.8231972E-02;  4.0000000E+04;  0.0000000E+00;  3.9809688E+04;  2.5187409E+00;  0.0000000E+00; -1.4061013E-01;  1.6282230E+03;
  1.1975132E+00;  9.9999998E-03;  4.0120207E-02;9294;  1.6892179E+00;  0.0000000E+00; -5.7799318E-03;  9.9895337E+02;  1.0463054E-01; -8.3509613E+02;3; -4.9787296E+01;  0.0000000E+00; -2.4455328E+00;0;  2.3781321E+00;  3.6630066E+04;  0.0000000E+00; -5.8232386E-02;  4.0000000E+04;  0.0000000E+00;  3.9809688E+04;  2.5187421E+00;  0.0000000E+00; -1.4060993E-01;  1.6282300E+03;
  1.1975528E+00;  9.9999998E-03; -5.0152861E-02;9285;  1.6887445E+00;  0.0000000E+00;  7.1965260E-03;  9.9902625E+02;  1.0462943E-01; -7.7691785E+02;3; -4.9049610E+01;  0.0000000E+00;  3.0474396E+00;0;  2.3642807E+00;  3.6634344E+04;  0.0000000E+00; -8.3784394E-02;  4.0000000E+04;  0.0000000E+00;  3.9811672E+04;  2.5060823E+00;  0.0000000E+00; -1.4180166E-01;  1.4904758E+03;
  1.1975528E+00;  9.9999998E-03;  5.0152857E-02;9295;  1.6887447E+00;  0.0000000E+00; -7.1965954E-03;  9.9902625E+02;  1.0462943E-01; -7.7691785E+02;3; -4.9049656E+01;  0.0000000E+00; -3.0474417E+00;0;  2.3642797E+00;  3.6634344E+04;  0.0000000E+00; -8.3786353E-02;  4.0000000E+04;  0.0000000E+00;  3.9811672E+04;  2.5060816E+00;  0.0000000E+00; -1.4180174E-01;  1.4904678E+03;
  1.1975930E+00;  9.9999998E-03; -6.0186543E-02;9284;  1.6881958E+00;  0.0000000E+00;  8.5994545E-03;  9.9911017E+02;  1.0462856E-01; -7.0994421E+02;3; -4.8146736E+01;  0.0000000E+00;  3.6089847E+00;0;  2.3471894E+00;  3.6639125E+04;  0.0000000E+00; -1.0935600E-01;  4.0000000E+04;  0.0000000E+00;  3.9813871E+04;  2.4902439E+00;  0.0000000E+00; -1.4305447E-01;  1.3276996E+03;
  1.1975930E+00;  9.9999998E-03;  6.0186539E-02;9296;  1.6881958E+00;  0.0000000E+00; -8.5995262E-03;  9.9911023E+02;  1.0462852E-01; -7.0989667E+02;3; -4.8146824E+01;  0.0000000E+00; -3.6089780E+00;0;  2.3471911E+00;  3.6639125E+04;  0.0000000E+00; -1.0935751E-01;  4.0000000E+04;  0.0000000E+00;  3.9813875E+04;  2.4902458E+00;  0.0000000E+00; -1.4305466E-01;  1.3277009E+03;
  1.1976305E+00;  9.9999998E-03; -7.0220172E-02;9283;  1.6875377E+00;  0.0000000E+00;  9.9891536E-03;  9.9919568E+02;  1.0462733E-01; -6.4169037E+02;3; -4.7117733E+01;  0.0000000E+00;  4.1397023E+00;0;  2.3265328E+00;  3.6643977E+04;  0.0000000E+00; -1.3312249E-01;  4.0000000E+04;  0.0000000E+00;  3.9816461E+04;  2.4708798E+00;  0.0000000E+00; -1.4434697E-01;  1.1462332E+03;
  1.1976618E+00;  9.9999998E-03; -8.0252141E-02;9282;  1.6867377E+00;  0.0000000E+00;  1.1364941E-02;  9.9927734E+02;  1.0462612E-01; -5.7653210E+02;3; -4.5944725E+01;  0.0000000E+00;  4.6547480E+00;0;  2.3018425E+00;  3.6648629E+04;  0.0000000E+00; -1.5479134E-01;  4.0000000E+04;  0.0000000E+00;  3.9819105E+04;  2.4475119E+00;  0.0000000E+00; -1.4566945E-01;  9.5574365E+02;
  1.1976839E+00;  9.9999998E-03; -9.0280466E-02;9281;  1.6857924E+00;  0.0000000E+00;  1.2718012E-02;  9.9935504E+02;  1.0462526E-01; -5.1456445E+02;3; -4.4609486E+01;  0.0000000E+00;  5.1616454E+00;0;  2.2726111E+00;  3.6652527E+04;  0.0000000E+00; -1.8337904E-01;  4.0000000E+04;  0.0000000E+00;  3.9821656E+04;  2.4195952E+00;  0.0000000E+00; -1.4698419E-01;  7.7034985E+02;
  1.1976953E+00;  9.9999998E-03; -1.0030314E-01;9280;  1.6846476E+00;  0.0000000E+00;  1.4055067E-02;  9.9941028E+02;  1.0462444E-01; -4.7048056E+02;3; -4.3135784E+01;  0.0000000E+00;  5.6031475E+00;0;  2.2384012E+00;  3.6655281E+04;  0.0000000E+00; -2.5192395E-01;  4.0000000E+04;  0.0000000E+00;  3.9824137E+04;  2.3866227E+00;  0.0000000E+00; -1.4822139E-01;  6.1568347E+02;
  1.2077976E+00;  9.9999998E-03; -1.7976416E-09;9346;  1.7141055E+00;  0.0000000E+00; -4.4845191E-08;  9.9930640E+02;  1.0433841E-01; -5.5018011E+02;3; -4.4042828E+01;  0.0000000E+00; -4.6661639E-06;0;  2.2421126E+00;  3.6875953E+04;  0.0000000E+00;  2.8102327E-12;  4.0000000E+04;  0.0000000E+00;  3.9793297E+04;  2.3440044E+00;  0.0000000E+00; -1.0189167E-01;  2.2184895E+03;
  1.2078220E+00;  9.9999998E-03; -2.0066656E-02;9344;  1.7137917E+00;  0.0000000E+00;  1.9437355E-03;  9.9933990E+02;  1.0433803E-01; -5.2360187E+02;3; -4.3788975E+01;  0.0000000E+00;  1.2553149E+00;0;  2.2393553E+00;  3.6878000E+04;  0.0000000E+00; -1.9169679E-02;  4.0000000E+04;  0.0000000E+00;  3.9794160E+04;  2.3426211E+00;  0.0000000E+00; -1.0326575E-01;  2.1606416E+03;
  1.2078041E+00;  9.9999998E-03; -1.0033040E-02;9345;  1.7140253E+00;  0.0000000E+00;  9.6759060E-04;  9.9931458E+02;  1.0433830E-01; -5.4370087E+02;3; -4.3978737E+01;  0.0000000E+00;  6.1095512E-01;0;  2.2414172E+00;  3.6876430E+04;  0.0000000E+00; -4.9909665E-03;  4.0000000E+04;  0.0000000E+00;  3.9793578E+04;  2.3436608E+00;  0.0000000E+00; -1.0224369E-01;  2.2039978E+03;
  1.2078041E+00;  9.9999998E-03;  1.0033037E-02;9347;  1.7140253E+00;  0.0000000E+00; -9.6767966E-04;  9.9931458E+02;  1.0433830E-01; -5.4370087E+02;3; -4.3978802E+01;  0.0000000E+00; -6.1095852E-01;0;  2.2414184E+00;  3.6876430E+04;  0.0000000E+00; -4.9910606E-03;  4.0000000E+04;  0.0000000E+00;  3.9793578E+04;  2.3436620E+00;  0.0000000E+00; -1.0224375E-01;  2.2040044E+03;
  1.2078220E+00;  9.9999998E-03;  2.0066652E-02;9348;  1.7137917E+00;  0.0000000E+00; -1.9438259E-03;  9.9933990E+02;  1.0433803E-01; -5.2360187E+02;3; -4.3789043E+01;  0.0000000E+00; -1.2553264E+00;0;  2.2393558E+00;  3.6878000E+04;  0.0000000E+00; -1.9169873E-02;  4.0000000E+04;  0.0000000E+00;  3.9794160E+04;  2.3426216E+00;  0.0000000E+00; -1.0326568E-01;  2.1606409E+03;
  1.2078799E+00;  9.9999998E-03; -4.0137336E-02;9342;  1.7129861E+00;  0.0000000E+00;  3.9347317E-03;  9.9944086E+02;  1.0433720E-01; -4.4349756E+02;3; -4.2965401E+01;  0.0000000E+00;  2.5688541E+00;0;  2.2311399E+00;  3.6883691E+04;  0.0000000E+00; -6.5286443E-02;  4.0000000E+04;  0.0000000E+00;  3.9796676E+04;  2.3380499E+00;  0.0000000E+00; -1.0691003E-01;  1.9901184E+03;
  1.2078483E+00;  9.9999998E-03; -3.0101502E-02;9343;  1.7134271E+00;  0.0000000E+00;  2.9330703E-03;  9.9938348E+02;  1.0433772E-01; -4.8898663E+02;3; -4.3444530E+01;  0.0000000E+00;  1.9330103E+00;0;  2.2359495E+00;  3.6880461E+04;  0.0000000E+00; -4.0321060E-02;  4.0000000E+04;  0.0000000E+00;  3.9795168E+04;  2.3408127E+00;  0.0000000E+00; -1.0486306E-01;  2.0889038E+03;
  1.2078483E+00;  9.9999998E-03;  3.0101499E-02;9349;  1.7134272E+00;  0.0000000E+00; -2.9331592E-03;  9.9938336E+02;  1.0433772E-01; -4.8908118E+02;3; -4.3444553E+01;  0.0000000E+00; -1.9330086E+00;0;  2.2359495E+00;  3.6880465E+04;  0.0000000E+00; -4.0321384E-02;  4.0000000E+04;  0.0000000E+00;  3.9795168E+04;  2.3408127E+00;  0.0000000E+00; -1.0486318E-01;  2.0888994E+03;
  1.2078799E+00;  9.9999998E-03;  4.0137332E-02;9350;  1.7129859E+00;  0.0000000E+00; -3.9348281E-03;  9.9944080E+02;  1.0433722E-01; -4.4354483E+02;3; -4.2965458E+01;  0.0000000E+00; -2.5688534E+00;0;  2.2311420E+00;  3.6883695E+04;  0.0000000E+00; -6.5287754E-02;  4.0000000E+04;  0.0000000E+00;  3.9796676E+04;  2.3380520E+00;  0.0000000E+00; -1.0691011E-01;  1.9901243E+03;
  1.2079141E+00;  9.9999998E-03; -5.0173651E-02;9341;  1.7125549E+00;  0.0000000E+00;  4.9500419E-03;  9.9950781E+02;  1.0433690E-01; -3.9039828E+02;3; -4.2375900E+01;  0.0000000E+00;  3.1725109E+00;0;  2.2247236E+00;  3.6887465E+04;  0.0000000E+00; -9.0674505E-02;  4.0000000E+04;  0.0000000E+00;  3.9798559E+04;  2.3340149E+00;  0.0000000E+00; -1.0929143E-01;  1.8674451E+03;
  1.2079141E+00;  9.9999998E-03;  5.0173648E-02;9351;  1.7125547E+00;  0.0000000E+00; -4.9501425E-03;  9.9950781E+02;  1.0433690E-01; -3.9039828E+02;3; -4.2375935E+01;  0.0000000E+00; -3.1725008E+00;0;  2.2247238E+00;  3.6887469E+04;  0.0000000E+00; -9.0674393E-02;  4.0000000E+04;  0.0000000E+00;  3.9798559E+04;  2.3340151E+00;  0.0000000E+00; -1.0929143E-01;  1.8674326E+03;
  1.2079479E+00;  9.9999998E-03; -6.0210150E-02;9340;  1.7121990E+00;  0.0000000E+00;  5.9742676E-03;  9.9957861E+02;  1.0433567E-01; -3.3422852E+02;3; -4.1665321E+01;  0.0000000E+00;  3.8020773E+00;0;  2.2163012E+00;  3.6891535E+04;  0.0000000E+00; -1.1379073E-01;  4.0000000E+04;  0.0000000E+00;  3.9800656E+04;  2.3282361E+00;  0.0000000E+00; -1.1193494E-01;  1.7263043E+03;
  1.2079479E+00;  9.9999998E-03;  6.0210146E-02;9352;  1.7121990E+00;  0.0000000E+00; -5.9743621E-03;  9.9957861E+02;  1.0433567E-01; -3.3422852E+02;3; -4.1665401E+01;  0.0000000E+00; -3.8020761E+00;0;  2.2163002E+00;  3.6891531E+04;  0.0000000E+00; -1.1379277E-01;  4.0000000E+04;  0.0000000E+00;  3.9800652E+04;  2.3282351E+00;  0.0000000E+00; -1.1193492E-01;  1.7262972E+03;
  1.2079779E+00;  9.9999998E-03; -7.0245236E-02;9339;  1.7118880E+00;  0.0000000E+00;  7.0121046E-03;  9.9965259E+02;  1.0433472E-01; -2.7555618E+02;3; -4.0816452E+01;  0.0000000E+00;  4.4055400E+00;0;  2.2052984E+00;  3.6895703E+04;  0.0000000E+00; -1.3586245E-01;  4.0000000E+04;  0.0000000E+00;  3.9802875E+04;  2.3201110E+00;  0.0000000E+00; -1.1481251E-01;  1.5746544E+03;
  1.2080010E+00;  9.9999998E-03; -8.0277219E-02;9338;  1.7115148E+00;  0.0000000E+00;  8.0756880E-03;  9.9972131E+02;  1.0433414E-01; -2.2104692E+02;3; -3.9853771E+01;  0.0000000E+00;  4.9908147E+00;0;  2.1910522E+00;  3.6899445E+04;  0.0000000E+00; -1.7062820E-01;  4.0000000E+04;  0.0000000E+00;  3.9805203E+04;  2.3089793E+00;  0.0000000E+00; -1.1792711E-01;  1.4227245E+03;
  1.2080153E+00;  9.9999998E-03; -9.0304203E-02;9337;  1.7110329E+00;  0.0000000E+00;  9.1670193E-03;  9.9977930E+02;  1.0433366E-01; -1.7504909E+02;3; -3.8771358E+01;  0.0000000E+00;  5.5233350E+00;0;  2.1729176E+00;  3.6902363E+04;  0.0000000E+00; -2.4940501E-01;  4.0000000E+04;  0.0000000E+00;  3.9807230E+04;  2.2941933E+00;  0.0000000E+00; -1.2127563E-01;  1.2847009E+03;
  1.2080216E+00;  9.9999998E-03; -1.0032498E-01;9336;  1.7104213E+00;  0.0000000E+00;  1.0275613E-02;  9.9980817E+02;  1.0433266E-01; -1.5212148E+02;3; -3.7612812E+01;  0.0000000E+00;  5.9928699E+00;0;  2.1504006E+00;  3.6903777E+04;  0.0000000E+00; -4.3319952E-01;  4.0000000E+04;  0.0000000E+00;  3.9809039E+04;  2.2752440E+00;  0.0000000E+00; -1.2484346E-01;  1.1892126E+03;
  1.2181393E+00;  9.9999998E-03; -1.0036597E-02;9400;  1.7354116E+00;  0.0000000E+00;  6.1362184E-04;  9.9980432E+02;  1.0407896E-01; -1.5417151E+02;3; -3.6535652E+01;  0.0000000E+00;  7.9233825E-01;0;  2.0728936E+00;  3.7106664E+04;  0.0000000E+00; -5.3812526E-03;  4.0000000E+04;  0.0000000E+00;  3.9782547E+04;  2.1382070E+00;  0.0000000E+00; -6.5313295E-02;  2.2875015E+03;
  1.2181325E+00;  9.9999998E-03; -1.7068246E-09;9401;  1.7354465E+00;  0.0000000E+00; -5.0237240E-08;  9.9979785E+02;  1.0407891E-01; -1.5924402E+02;3; -3.6599453E+01;  0.0000000E+00;  2.9077291E-06;0;  2.0727234E+00;  3.7106277E+04;  0.0000000E+00;  1.0537079E-12;  4.0000000E+04;  0.0000000E+00;  3.9782418E+04;  2.1375282E+00;  0.0000000E+00; -6.4804710E-02;  2.2983735E+03;
  1.2181393E+00;  9.9999998E-03;  1.0036593E-02;9402;  1.7354116E+00;  0.0000000E+00; -6.1372336E-04;  9.9980432E+02;  1.0407896E-01; -1.5417151E+02;3; -3.6535698E+01;  0.0000000E+00; -7.9233474E-01;0;  2.0728941E+00;  3.7106660E+04;  0.0000000E+00; -5.3810328E-03;  4.0000000E+04;  0.0000000E+00;  3.9782547E+04;  2.1382074E+00;  0.0000000E+00; -6.5313436E-02;  2.2874995E+03;
  1.2181839E+00;  9.9999998E-03; -3.0111095E-02;9398;  1.7351694E+00;  0.0000000E+00;  1.8742492E-03;  9.9984863E+02;  1.0407808E-01; -1.1927611E+02;3; -3.6030567E+01;  0.0000000E+00;  2.2659640E+00;0;  2.0742347E+00;  3.7109551E+04;  0.0000000E+00; -4.2539775E-02;  4.0000000E+04;  0.0000000E+00;  3.9783938E+04;  2.1433535E+00;  0.0000000E+00; -6.9118634E-02;  2.2026978E+03;
  1.2181576E+00;  9.9999998E-03; -2.0073397E-02;9399;  1.7353086E+00;  0.0000000E+00;  1.2354288E-03;  9.9982025E+02;  1.0407854E-01; -1.4163124E+02;3; -3.6346294E+01;  0.0000000E+00;  1.5255164E+00;0;  2.0734110E+00;  3.7107680E+04;  0.0000000E+00; -2.0492233E-02;  4.0000000E+04;  0.0000000E+00;  3.9783125E+04;  2.1402044E+00;  0.0000000E+00; -6.6793434E-02;  2.2552063E+03;
  1.2181576E+00;  9.9999998E-03;  2.0073393E-02;9403;  1.7353086E+00;  0.0000000E+00; -1.2355311E-03;  9.9982025E+02;  1.0407854E-01; -1.4163124E+02;3; -3.6346443E+01;  0.0000000E+00; -1.5255127E+00;0;  2.0734110E+00;  3.7107680E+04;  0.0000000E+00; -2.0492675E-02;  4.0000000E+04;  0.0000000E+00;  3.9783125E+04;  2.1402044E+00;  0.0000000E+00; -6.6793397E-02;  2.2552075E+03;
  1.2181839E+00;  9.9999998E-03;  3.0111091E-02;9404;  1.7351693E+00;  0.0000000E+00; -1.8743548E-03;  9.9984851E+02;  1.0407785E-01; -1.1937003E+02;3; -3.6030598E+01;  0.0000000E+00; -2.2659545E+00;0;  2.0742369E+00;  3.7109551E+04;  0.0000000E+00; -4.2539842E-02;  4.0000000E+04;  0.0000000E+00;  3.9783938E+04;  2.1433554E+00;  0.0000000E+00; -6.9118530E-02;  2.2026904E+03;
  1.2182145E+00;  9.9999998E-03; -4.0149711E-02;9397;  1.7351495E+00;  0.0000000E+00;  2.5380333E-03;  9.9988568E+02;  1.0407712E-01; -9.0065628E+01;3; -3.5598160E+01;  0.0000000E+00;  2.9560089E+00;0;  2.0751984E+00;  3.7111809E+04;  0.0000000E+00; -6.7967810E-02;  4.0000000E+04;  0.0000000E+00;  3.9785043E+04;  2.1473250E+00;  0.0000000E+00; -7.2126560E-02;  2.1322634E+03;
  1.2182145E+00;  9.9999998E-03;  4.0149707E-02;9405;  1.7351494E+00;  0.0000000E+00; -2.5381399E-03;  9.9988556E+02;  1.0407717E-01; -9.0159546E+01;3; -3.5598209E+01;  0.0000000E+00; -2.9559932E+00;0;  2.0751970E+00;  3.7111809E+04;  0.0000000E+00; -6.7968197E-02;  4.0000000E+04;  0.0000000E+00;  3.9785043E+04;  2.1473236E+00;  0.0000000E+00; -7.2126672E-02;  2.1322576E+03;
  1.2182474E+00;  9.9999998E-03; -5.0188124E-02;9396;  1.7353464E+00;  0.0000000E+00;  3.2330779E-03;  9.9992731E+02;  1.0407614E-01; -5.7287563E+01;3; -3.5058910E+01;  0.0000000E+00;  3.6239951E+00;0;  2.0758939E+00;  3.7114457E+04;  0.0000000E+00; -9.4232924E-02;  4.0000000E+04;  0.0000000E+00;  3.9786402E+04;  2.1515646E+00;  0.0000000E+00; -7.5670727E-02;  2.0479342E+03;
  1.2182474E+00;  9.9999998E-03;  5.0188120E-02;9406;  1.7353462E+00;  0.0000000E+00; -3.2331899E-03;  9.9992731E+02;  1.0407614E-01; -5.7287563E+01;3; -3.5058926E+01;  0.0000000E+00; -3.6239893E+00;0;  2.0758953E+00;  3.7114449E+04;  0.0000000E+00; -9.4231836E-02;  4.0000000E+04;  0.0000000E+00;  3.9786402E+04;  2.1515660E+00;  0.0000000E+00; -7.5670779E-02;  2.0479340E+03;
  1.2182785E+00;  9.9999998E-03; -6.0225453E-02;9395;  1.7356998E+00;  0.0000000E+00;  3.9511942E-03;  9.9997540E+02;  1.0407570E-01; -1.9392826E+01;3; -3.4442318E+01;  0.0000000E+00;  4.2160873E+00;0;  2.0757236E+00;  3.7117164E+04;  0.0000000E+00; -1.2363224E-01;  4.0000000E+04;  0.0000000E+00;  3.9787805E+04;  2.1553929E+00;  0.0000000E+00; -7.9669155E-02;  1.9555807E+03;
  1.2182785E+00;  9.9999998E-03;  6.0225450E-02;9407;  1.7356998E+00;  0.0000000E+00; -3.9513023E-03;  9.9997540E+02;  1.0407570E-01; -1.9392826E+01;3; -3.4442436E+01;  0.0000000E+00; -4.2160649E+00;0;  2.0757265E+00;  3.7117164E+04;  0.0000000E+00; -1.2363487E-01;  4.0000000E+04;  0.0000000E+00;  3.9787805E+04;  2.1553955E+00;  0.0000000E+00; -7.9669103E-02;  1.9555775E+03;
  1.2183251E+00;  9.9999998E-03; -8.0290034E-02;9393;  1.7365052E+00;  0.0000000E+00;  5.4031718E-03;  1.0000561E+03;  1.0407532E-01;  4.4231113E+01;3; -3.2928116E+01;  0.0000000E+00;  5.6662388E+00;0;  2.0695922E+00;  3.7121695E+04;  0.0000000E+00; -2.7147579E-01;  4.0000000E+04;  0.0000000E+00;  3.9790684E+04;  2.1586559E+00;  0.0000000E+00; -8.9063533E-02;  1.7784283E+03;
  1.2183053E+00;  9.9999998E-03; -7.0259929E-02;9394;  1.7361045E+00;  0.0000000E+00;  4.6558175E-03;  1.0000201E+03;  1.0407536E-01;  1.5776920E+01;3; -3.3733849E+01;  0.0000000E+00;  4.9009361E+00;0;  2.0739079E+00;  3.7119699E+04;  0.0000000E+00; -1.7208812E-01;  4.0000000E+04;  0.0000000E+00;  3.9789301E+04;  2.1580248E+00;  0.0000000E+00; -8.4117010E-02;  1.8624777E+03;
  1.2183377E+00;  9.9999998E-03; -9.0314694E-02;9392;  1.7368937E+00;  0.0000000E+00;  6.2253373E-03;  1.0000767E+03;  1.0407477E-01;  6.0382919E+01;3; -3.2042381E+01;  0.0000000E+00;  6.3367243E+00;0;  2.0619998E+00;  3.7122668E+04;  0.0000000E+00; -4.7424710E-01;  4.0000000E+04;  0.0000000E+00;  3.9791934E+04;  2.1565642E+00;  0.0000000E+00; -9.4564408E-02;  1.7214247E+03;
  1.2183459E+00;  9.9999998E-03; -1.0033435E-01;9391;  1.7372772E+00;  0.0000000E+00;  7.1106870E-03;  1.0000718E+03;  1.0407437E-01;  5.6532364E+01;3; -3.1157558E+01;  0.0000000E+00;  6.9645038E+00;0;  2.0505998E+00;  3.7122156E+04;  0.0000000E+00; -8.5654318E-01;  4.0000000E+04;  0.0000000E+00;  3.9792832E+04;  2.1512525E+00;  0.0000000E+00; -1.0065279E-01;  1.7351609E+03;
  1.2284493E+00;  9.9999998E-03; -1.0039732E-02;9454;  1.7548836E+00;  0.0000000E+00; -1.2763745E-04;  1.0002390E+03;  1.0384850E-01;  1.8677942E+02;3; -2.8997349E+01;  0.0000000E+00;  2.3962841E+00;0;  1.9064986E+00;  3.7312500E+04;  0.0000000E+00; -6.0694558E-03;  4.0000000E+04;  0.0000000E+00;  3.9773121E+04;  1.9345634E+00;  0.0000000E+00; -2.8064858E-02;  2.1626199E+03;
  1.2284410E+00;  9.9999998E-03; -1.6313021E-09;9455;  1.7548515E+00;  0.0000000E+00; -5.1073552E-08;  1.0002359E+03;  1.0384855E-01;  1.8445058E+02;3; -2.9071281E+01;  0.0000000E+00; -2.3213190E-05;0;  1.9056094E+00;  3.7312398E+04;  0.0000000E+00;  7.4191635E-13;  4.0000000E+04;  0.0000000E+00;  3.9773086E+04;  1.9330128E+00;  0.0000000E+00; -2.7403448E-02;  2.1679062E+03;
  1.2284493E+00;  9.9999998E-03;  1.0039729E-02;9456;  1.7548836E+00;  0.0000000E+00;  1.2753093E-04;  1.0002390E+03;  1.0384850E-01;  1.8677942E+02;3; -2.8997385E+01;  0.0000000E+00; -2.3963127E+00;0;  1.9064983E+00;  3.7312504E+04;  0.0000000E+00; -6.0694199E-03;  4.0000000E+04;  0.0000000E+00;  3.9773121E+04;  1.9345632E+00;  0.0000000E+00; -2.8064832E-02;  2.1626252E+03;
  1.2285330E+00;  9.9999998E-03; -4.0157467E-02;9451;  1.7556019E+00;  0.0000000E+00;  6.1464397E-04;  1.0002770E+03;  1.0384811E-01;  2.1659012E+02;3; -2.8017515E+01;  0.0000000E+00;  5.4140058E+00;0;  1.9195156E+00;  3.7314840E+04;  0.0000000E+00; -8.5649922E-02;  4.0000000E+04;  0.0000000E+00;  3.9774250E+04;  1.9564230E+00;  0.0000000E+00; -3.6907408E-02;  2.0946992E+03;
  1.2285001E+00;  9.9999998E-03; -3.0118275E-02;9452;  1.7551638E+00;  0.0000000E+00;  2.4766679E-04;  1.0002610E+03;  1.0384822E-01;  2.0401385E+02;3; -2.8446634E+01;  0.0000000E+00;  4.9731293E+00;0;  1.9136221E+00;  3.7313914E+04;  0.0000000E+00; -5.0427962E-02;  4.0000000E+04;  0.0000000E+00;  3.9773758E+04;  1.9466259E+00;  0.0000000E+00; -3.3003829E-02;  2.1238040E+03;
  1.2284709E+00;  9.9999998E-03; -2.0079074E-02;9453;  1.7549801E+00;  0.0000000E+00; -2.3230059E-05;  1.0002484E+03;  1.0384847E-01;  1.9423238E+02;3; -2.8773565E+01;  0.0000000E+00;  4.0370221E+00;0;  1.9091911E+00;  3.7313117E+04;  0.0000000E+00; -2.3485674E-02;  4.0000000E+04;  0.0000000E+00;  3.9773359E+04;  1.9391785E+00;  0.0000000E+00; -2.9987322E-02;  2.1473542E+03;
  1.2284709E+00;  9.9999998E-03;  2.0079073E-02;9457;  1.7549801E+00;  0.0000000E+00;  2.3117153E-05;  1.0002484E+03;  1.0384847E-01;  1.9423238E+02;3; -2.8773567E+01;  0.0000000E+00; -4.0370164E+00;0;  1.9091913E+00;  3.7313117E+04;  0.0000000E+00; -2.3485724E-02;  4.0000000E+04;  0.0000000E+00;  3.9773359E+04;  1.9391786E+00;  0.0000000E+00; -2.9987324E-02;  2.1473535E+03;
  1.2285001E+00;  9.9999998E-03;  3.0118272E-02;9458;  1.7551637E+00;  0.0000000E+00; -2.4778824E-04;  1.0002610E+03;  1.0384822E-01;  2.0401385E+02;3; -2.8446659E+01;  0.0000000E+00; -4.9731054E+00;0;  1.9136223E+00;  3.7313918E+04;  0.0000000E+00; -5.0428163E-02;  4.0000000E+04;  0.0000000E+00;  3.9773758E+04;  1.9466261E+00;  0.0000000E+00; -3.3003815E-02;  2.1237988E+03;
  1.2285330E+00;  9.9999998E-03;  4.0157463E-02;9459;  1.7556018E+00;  0.0000000E+00; -6.1476673E-04;  1.0002771E+03;  1.0384814E-01;  2.1659012E+02;3; -2.8017532E+01;  0.0000000E+00; -5.4140043E+00;0;  1.9195136E+00;  3.7314844E+04;  0.0000000E+00; -8.5649863E-02;  4.0000000E+04;  0.0000000E+00;  3.9774250E+04;  1.9564210E+00;  0.0000000E+00; -3.6907412E-02;  2.0946968E+03;
  1.2285666E+00;  9.9999998E-03; -5.0195388E-02;9450;  1.7563511E+00;  0.0000000E+00;  1.0468884E-03;  1.0002921E+03;  1.0384794E-01;  2.2832687E+02;3; -2.7473972E+01;  0.0000000E+00;  5.9037566E+00;0;  1.9263248E+00;  3.7315938E+04;  0.0000000E+00; -1.3193451E-01;  4.0000000E+04;  0.0000000E+00;  3.9774684E+04;  1.9678540E+00;  0.0000000E+00; -4.1529171E-02;  2.0638872E+03;
  1.2285665E+00;  9.9999998E-03;  5.0195385E-02;9460;  1.7563511E+00;  0.0000000E+00; -1.0470047E-03;  1.0002919E+03;  1.0384791E-01;  2.2823367E+02;3; -2.7474020E+01;  0.0000000E+00; -5.9037366E+00;0;  1.9263268E+00;  3.7315941E+04;  0.0000000E+00; -1.3193607E-01;  4.0000000E+04;  0.0000000E+00;  3.9774684E+04;  1.9678558E+00;  0.0000000E+00; -4.1529115E-02;  2.0638845E+03;
  1.2286214E+00;  9.9999998E-03; -7.0262283E-02;9448;  1.7587147E+00;  0.0000000E+00;  1.9751675E-03;  1.0002997E+03;  1.0384734E-01;  2.3428114E+02;3; -2.6266399E+01;  0.0000000E+00;  6.7764835E+00;0;  1.9393675E+00;  3.7316977E+04;  0.0000000E+00; -3.3392122E-01;  4.0000000E+04;  0.0000000E+00;  3.9775656E+04;  1.9921353E+00;  0.0000000E+00; -5.2767787E-02;  2.0190330E+03;
  1.2285963E+00;  9.9999998E-03; -6.0230829E-02;9449;  1.7574145E+00;  0.0000000E+00;  1.5246647E-03;  1.0003013E+03;  1.0384779E-01;  2.3559050E+02;3; -2.6861170E+01;  0.0000000E+00;  6.3656116E+00;0;  1.9332758E+00;  3.7316754E+04;  0.0000000E+00; -2.0424160E-01;  4.0000000E+04;  0.0000000E+00;  3.9775203E+04;  1.9800792E+00;  0.0000000E+00; -4.6803407E-02;  2.0363262E+03;
  1.2285963E+00;  9.9999998E-03;  6.0230825E-02;9461;  1.7574145E+00;  0.0000000E+00; -1.5247785E-03;  1.0003014E+03;  1.0384780E-01;  2.3559050E+02;3; -2.6861181E+01;  0.0000000E+00; -6.3655977E+00;0;  1.9332770E+00;  3.7316754E+04;  0.0000000E+00; -2.0424499E-01;  4.0000000E+04;  0.0000000E+00;  3.9775203E+04;  1.9800804E+00;  0.0000000E+00; -4.6803351E-02;  2.0363185E+03;
  1.2286408E+00;  9.9999998E-03; -8.0289058E-02;9447;  1.7601891E+00;  0.0000000E+00;  2.4716153E-03;  1.0002864E+03;  1.0384659E-01;  2.2384032E+02;3; -2.5606396E+01;  0.0000000E+00;  7.3275599E+00;0;  1.9435762E+00;  3.7316574E+04;  0.0000000E+00; -5.6834680E-01;  4.0000000E+04;  0.0000000E+00;  3.9775801E+04;  2.0031073E+00;  0.0000000E+00; -5.9531052E-02;  2.0255990E+03;
  1.2286558E+00;  9.9999998E-03; -9.0311788E-02;9446;  1.7618507E+00;  0.0000000E+00;  3.0480770E-03;  1.0002622E+03;  1.0384633E-01;  2.0501367E+02;3; -2.4924410E+01;  0.0000000E+00;  7.8717155E+00;0;  1.9450448E+00;  3.7315090E+04;  0.0000000E+00; -9.7205675E-01;  4.0000000E+04;  0.0000000E+00;  3.9775875E+04;  2.0122621E+00;  0.0000000E+00; -6.7217372E-02;  2.0861479E+03;
  1.2286701E+00;  9.9999998E-03; -1.0033196E-01;9445;  1.7636234E+00;  0.0000000E+00;  3.6690126E-03;  1.0002204E+03;  1.0384639E-01;  1.7230270E+02;3; -2.4339401E+01;  0.0000000E+00;  8.4043970E+00;0;  1.9432986E+00;  3.7312465E+04;  0.0000000E+00; -1.6196046E+00;  4.0000000E+04;  0.0000000E+00;  3.9775844E+04;  2.0191939E+00;  0.0000000E+00; -7.5895309E-02;  2.2611248E+03;
  1.2387815E+00;  9.9999998E-03; -2.0083742E-02;9506;  1.7715106E+00;  0.0000000E+00; -2.3543662E-03;  1.0006318E+03;  1.0364791E-01;  4.8968088E+02;3; -2.1353647E+01;  0.0000000E+00;  4.0183635E+00;0;  1.7554872E+00;  3.7494914E+04;  0.0000000E+00; -3.8994130E-02;  4.0000000E+04;  0.0000000E+00;  3.9764402E+04;  1.7489651E+00;  0.0000000E+00;  6.5220520E-03;  1.9004299E+03;
  1.2387587E+00;  9.9999998E-03; -1.0042984E-02;9507;  1.7712237E+00;  0.0000000E+00; -1.5020330E-03;  1.0006368E+03;  1.0364800E-01;  4.9357147E+02;3; -2.1734009E+01;  0.0000000E+00;  1.7045839E+00;0;  1.7511202E+00;  3.7494980E+04;  0.0000000E+00; -9.7708972E-03;  4.0000000E+04;  0.0000000E+00;  3.9764492E+04;  1.7422526E+00;  0.0000000E+00;  8.8675683E-03;  1.8950488E+03;
  1.2387499E+00;  9.9999998E-03; -1.6458824E-09;9508;  1.7711357E+00;  0.0000000E+00; -5.0136933E-08;  1.0006386E+03;  1.0364819E-01;  4.9496133E+02;3; -2.1901222E+01;  0.0000000E+00; -1.2422817E-05;0;  1.7496684E+00;  3.7495020E+04;  0.0000000E+00; -1.2818080E-12;  4.0000000E+04;  0.0000000E+00;  3.9764582E+04;  1.7399908E+00;  0.0000000E+00;  9.6775750E-03;  1.8934351E+03;
  1.2387587E+00;  9.9999998E-03;  1.0042981E-02;9509;  1.7712237E+00;  0.0000000E+00;  1.5019249E-03;  1.0006368E+03;  1.0364800E-01;  4.9357147E+02;3; -2.1734056E+01;  0.0000000E+00; -1.7046032E+00;0;  1.7511212E+00;  3.7494980E+04;  0.0000000E+00; -9.7707510E-03;  4.0000000E+04;  0.0000000E+00;  3.9764492E+04;  1.7422535E+00;  0.0000000E+00;  8.8675860E-03;  1.8950508E+03;
  1.2387815E+00;  9.9999998E-03;  2.0083738E-02;9510;  1.7715106E+00;  0.0000000E+00;  2.3542501E-03;  1.0006318E+03;  1.0364790E-01;  4.8968088E+02;3; -2.1353674E+01;  0.0000000E+00; -4.0183835E+00;0;  1.7554859E+00;  3.7494910E+04;  0.0000000E+00; -3.8994141E-02;  4.0000000E+04;  0.0000000E+00;  3.9764402E+04;  1.7489638E+00;  0.0000000E+00;  6.5220832E-03;  1.9004272E+03;
  1.2388426E+00;  9.9999998E-03; -4.0159021E-02;9504;  1.7730031E+00;  0.0000000E+00; -2.3262955E-03;  1.0006013E+03;  1.0364736E-01;  4.6600269E+02;3; -2.0443981E+01;  0.0000000E+00;  6.8495088E+00;0;  1.7723595E+00;  3.7494043E+04;  0.0000000E+00; -1.6112341E-01;  4.0000000E+04;  0.0000000E+00;  3.9763805E+04;  1.7742199E+00;  0.0000000E+00; -1.8603889E-03;  1.9296842E+03;
  1.2388110E+00;  9.9999998E-03; -3.0121993E-02;9505;  1.7720596E+00;  0.0000000E+00; -2.5188911E-03;  1.0006216E+03;  1.0364795E-01;  4.8172229E+02;3; -2.0912249E+01;  0.0000000E+00;  5.8455296E+00;0;  1.7626834E+00;  3.7494496E+04;  0.0000000E+00; -8.8126607E-02;  4.0000000E+04;  0.0000000E+00;  3.9764137E+04;  1.7598231E+00;  0.0000000E+00;  2.8603340E-03;  1.9111497E+03;
  1.2388110E+00;  9.9999998E-03;  3.0121990E-02;9511;  1.7720596E+00;  0.0000000E+00;  2.5187656E-03;  1.0006216E+03;  1.0364795E-01;  4.8172229E+02;3; -2.0912317E+01;  0.0000000E+00; -5.8455300E+00;0;  1.7626858E+00;  3.7494500E+04;  0.0000000E+00; -8.8126525E-02;  4.0000000E+04;  0.0000000E+00;  3.9764141E+04;  1.7598253E+00;  0.0000000E+00;  2.8603831E-03;  1.9111484E+03;
  1.2388426E+00;  9.9999998E-03;  4.0159017E-02;9512;  1.7730031E+00;  0.0000000E+00;  2.3261711E-03;  1.0006014E+03;  1.0364730E-01;  4.6609506E+02;3; -2.0444017E+01;  0.0000000E+00; -6.8494940E+00;0;  1.7723604E+00;  3.7494043E+04;  0.0000000E+00; -1.6112302E-01;  4.0000000E+04;  0.0000000E+00;  3.9763805E+04;  1.7742207E+00;  0.0000000E+00; -1.8603196E-03;  1.9296836E+03;
  1.2389015E+00;  9.9999998E-03; -6.0224675E-02;9502;  1.7764490E+00;  0.0000000E+00; -1.5842569E-03;  1.0005394E+03;  1.0364672E-01;  4.1803143E+02;3; -1.9350965E+01;  0.0000000E+00;  7.6683073E+00;0;  1.7961892E+00;  3.7491664E+04;  0.0000000E+00; -4.4506952E-01;  4.0000000E+04;  0.0000000E+00;  3.9762539E+04;  1.8100741E+00;  0.0000000E+00; -1.3884933E-02;  2.0057363E+03;
  1.2388736E+00;  9.9999998E-03; -5.0193749E-02;9503;  1.7744596E+00;  0.0000000E+00; -1.9788179E-03;  1.0005728E+03;  1.0364688E-01;  4.4390973E+02;3; -1.9913391E+01;  0.0000000E+00;  7.3509808E+00;0;  1.7838438E+00;  3.7493129E+04;  0.0000000E+00; -2.7074277E-01;  4.0000000E+04;  0.0000000E+00;  3.9763281E+04;  1.7912982E+00;  0.0000000E+00; -7.4544339E-03;  1.9594010E+03;
  1.2388735E+00;  9.9999998E-03;  5.0193746E-02;9513;  1.7744595E+00;  0.0000000E+00;  1.9786898E-03;  1.0005728E+03;  1.0364684E-01;  4.4390973E+02;3; -1.9913345E+01;  0.0000000E+00; -7.3509665E+00;0;  1.7838410E+00;  3.7493133E+04;  0.0000000E+00; -2.7074429E-01;  4.0000000E+04;  0.0000000E+00;  3.9763281E+04;  1.7912954E+00;  0.0000000E+00; -7.4543855E-03;  1.9594016E+03;
  1.2389015E+00;  9.9999998E-03;  6.0224671E-02;9514;  1.7764488E+00;  0.0000000E+00;  1.5841303E-03;  1.0005394E+03;  1.0364672E-01;  4.1803143E+02;3; -1.9350973E+01;  0.0000000E+00; -7.6682940E+00;0;  1.7961884E+00;  3.7491664E+04;  0.0000000E+00; -4.4506761E-01;  4.0000000E+04;  0.0000000E+00;  3.9762539E+04;  1.8100733E+00;  0.0000000E+00; -1.3884892E-02;  2.0057323E+03;
  1.2389259E+00;  9.9999998E-03; -7.0251599E-02;9501;  1.7789010E+00;  0.0000000E+00; -1.2624250E-03;  1.0004935E+03;  1.0364658E-01;  3.8245566E+02;3; -1.8869320E+01;  0.0000000E+00;  7.9135203E+00;0;  1.8082662E+00;  3.7489609E+04;  0.0000000E+00; -7.2646242E-01;  4.0000000E+04;  0.0000000E+00;  3.9761641E+04;  1.8295113E+00;  0.0000000E+00; -2.1245103E-02;  2.0802688E+03;
  1.2389474E+00;  9.9999998E-03; -8.0275223E-02;9500;  1.7817473E+00;  0.0000000E+00; -9.0454513E-04;  1.0004373E+03;  1.0364675E-01;  3.3884549E+02;3; -1.8329342E+01;  0.0000000E+00;  8.2609053E+00;0;  1.8189820E+00;  3.7486688E+04;  0.0000000E+00; -1.1696414E+00;  4.0000000E+04;  0.0000000E+00;  3.9760711E+04;  1.8487014E+00;  0.0000000E+00; -2.9719330E-02;  2.2067180E+03;
  1.2389696E+00;  9.9999998E-03; -9.0296961E-02;9499;  1.7849108E+00;  0.0000000E+00; -5.1774387E-04;  1.0003682E+03;  1.0364679E-01;  2.8535245E+02;3; -1.7886204E+01;  0.0000000E+00;  8.6154795E+00;0;  1.8274930E+00;  3.7482969E+04;  0.0000000E+00; -1.8367902E+00;  4.0000000E+04;  0.0000000E+00;  3.9759582E+04;  1.8669844E+00;  0.0000000E+00; -3.9491411E-02;  2.4269480E+03;
  1.2389970E+00;  9.9999998E-03; -1.0031831E-01;9498;  1.7882713E+00;  0.0000000E+00; -6.4901367E-05;  1.0002872E+03;  1.0364692E-01;  2.2253059E+02;3; -1.7556341E+01;  0.0000000E+00;  9.0034580E+00;0;  1.8335139E+00;  3.7478113E+04;  0.0000000E+00; -2.7825143E+00;  4.0000000E+04;  0.0000000E+00;  3.9758711E+04;  1.8841796E+00;  0.0000000E+00; -5.0665736E-02;  2.7967734E+03;
  1.2493337E+00;  9.9999998E-03; -1.0029703E-01;9550;  1.8103770E+00;  0.0000000E+00; -3.6913711E-03;  1.0002902E+03;  1.0347071E-01;  2.2262103E+02;3; -1.1107282E+01;  0.0000000E+00;  8.7929850E+00;0;  1.7265303E+00;  3.7622195E+04;  0.0000000E+00; -4.3523421E+00;  4.0000000E+04;  0.0000000E+00;  3.9742109E+04;  1.7515255E+00;  0.0000000E+00; -2.4995228E-02;  3.3568704E+03;
  1.2492869E+00;  9.9999998E-03; -9.0272926E-02;9551;  1.8055766E+00;  0.0000000E+00; -3.9085560E-03;  1.0004222E+03;  1.0347181E-01;  3.2397754E+02;3; -1.1165703E+01;  0.0000000E+00;  8.4416618E+00;0;  1.7146025E+00;  3.7629559E+04;  0.0000000E+00; -3.1163366E+00;  4.0000000E+04;  0.0000000E+00;  3.9743605E+04;  1.7261603E+00;  0.0000000E+00; -1.1557837E-02;  2.8055259E+03;
  1.2492509E+00;  9.9999998E-03; -8.0250233E-02;9552;  1.8009864E+00;  0.0000000E+00; -4.0856400E-03;  1.0005366E+03;  1.0347234E-01;  4.1180130E+02;3; -1.1473075E+01;  0.0000000E+00;  8.0604715E+00;0;  1.7011685E+00;  3.7635410E+04;  0.0000000E+00; -2.1508896E+00;  4.0000000E+04;  0.0000000E+00;  3.9745434E+04;  1.7010897E+00;  0.0000000E+00;  7.8791847E-05;  2.4007146E+03;
  1.2492222E+00;  9.9999998E-03; -7.0228092E-02;9553;  1.7967162E+00;  0.0000000E+00; -4.2255111E-03;  1.0006351E+03;  1.0347273E-01;  4.8737042E+02;3; -1.1847323E+01;  0.0000000E+00;  7.7605534E+00;0;  1.6861782E+00;  3.7640301E+04;  0.0000000E+00; -1.4363046E+00;  4.0000000E+04;  0.0000000E+00;  3.9747555E+04;  1.6761256E+00;  0.0000000E+00;  1.0052588E-02;  2.1190527E+03;
  1.2491959E+00;  9.9999998E-03; -6.0204785E-02;9554;  1.7929163E+00;  0.0000000E+00; -4.3896860E-03;  1.0007186E+03;  1.0347262E-01;  5.5141650E+02;3; -1.2293777E+01;  0.0000000E+00;  7.5241981E+00;0;  1.6703216E+00;  3.7644406E+04;  0.0000000E+00; -9.2941064E-01;  4.0000000E+04;  0.0000000E+00;  3.9749637E+04;  1.6517055E+00;  0.0000000E+00;  1.8616045E-02;  1.9260073E+03;
  1.2491696E+00;  9.9999998E-03; -5.0178353E-02;9555;  1.7897912E+00;  0.0000000E+00; -4.6484061E-03;  1.0007909E+03;  1.0347214E-01;  6.0686713E+02;3; -1.2825045E+01;  0.0000000E+00;  7.2437940E+00;0;  1.6546643E+00;  3.7647805E+04;  0.0000000E+00; -5.8106047E-01;  4.0000000E+04;  0.0000000E+00;  3.9751457E+04;  1.6286367E+00;  0.0000000E+00;  2.6027566E-02;  1.7913553E+03;
  1.2491423E+00;  9.9999998E-03; -4.0148523E-02;9556;  1.7874337E+00;  0.0000000E+00; -4.8743873E-03;  1.0008497E+03;  1.0347196E-01;  6.5207556E+02;3; -1.3401867E+01;  0.0000000E+00;  6.5625401E+00;0;  1.6403579E+00;  3.7650520E+04;  0.0000000E+00; -3.4574136E-01;  4.0000000E+04;  0.0000000E+00;  3.9753043E+04;  1.6079155E+00;  0.0000000E+00;  3.2442354E-02;  1.6951985E+03;
  1.2491138E+00;  9.9999998E-03; -3.0115480E-02;9557;  1.7858200E+00;  0.0000000E+00; -4.8749931E-03;  1.0008967E+03;  1.0347202E-01;  6.8813892E+02;3; -1.4000465E+01;  0.0000000E+00;  5.0840364E+00;0;  1.6284190E+00;  3.7652551E+04;  0.0000000E+00; -1.8659328E-01;  4.0000000E+04;  0.0000000E+00;  3.9754281E+04;  1.5905652E+00;  0.0000000E+00;  3.7853863E-02;  1.6266936E+03;
  1.2490875E+00;  9.9999998E-03; -2.0079140E-02;9558;  1.7848479E+00;  0.0000000E+00; -4.1803760E-03;  1.0009302E+03;  1.0347179E-01;  7.1386493E+02;3; -1.4614270E+01;  0.0000000E+00;  2.6301615E+00;0;  1.6195635E+00;  3.7653922E+04;  0.0000000E+00; -8.1122987E-02;  4.0000000E+04;  0.0000000E+00;  3.9755340E+04;  1.5774883E+00;  0.0000000E+00;  4.2075116E-02;  1.5805363E+03;
  1.2490648E+00;  9.9999998E-03; -1.0040196E-02;9559;  1.7843589E+00;  0.0000000E+00; -2.4592073E-03;  1.0009504E+03;  1.0347197E-01;  7.2943433E+02;3; -1.5138012E+01;  0.0000000E+00;  7.0751184E-01;0;  1.6142148E+00;  3.7654777E+04;  0.0000000E+00; -2.0125087E-02;  4.0000000E+04;  0.0000000E+00;  3.9755875E+04;  1.5694282E+00;  0.0000000E+00;  4.4786599E-02;  1.5540162E+03;
  1.2490551E+00;  9.9999998E-03; -1.6453582E-09;9560;  1.7842242E+00;  0.0000000E+00; -5.4819022E-08;  1.0009576E+03;  1.0347218E-01;  7.3493073E+02;3; -1.5310447E+01;  0.0000000E+00; -8.6446162E-06;0;  1.6124389E+00;  3.7655113E+04;  0.0000000E+00;  2.3849840E-13;  4.0000000E+04;  0.0000000E+00;  3.9756090E+04;  1.5667152E+00;  0.0000000E+00;  4.5723658E-02;  1.5453523E+03;
  1.2490648E+00;  9.9999998E-03;  1.0040193E-02;9561;  1.7843587E+00;  0.0000000E+00;  2.4590893E-03;  1.0009504E+03;  1.0347197E-01;  7.2943433E+02;3; -1.5138026E+01;  0.0000000E+00; -7.0753622E-01;0;  1.6142154E+00;  3.7654773E+04;  0.0000000E+00; -2.0124685E-02;  4.0000000E+04;  0.0000000E+00;  3.9755875E+04;  1.5694287E+00;  0.0000000E+00;  4.4786636E-02;  1.5540132E+03;
  1.2490875E+00;  9.9999998E-03;  2.0079136E-02;9562;  1.7848479E+00;  0.0000000E+00;  4.1802549E-03;  1.0009302E+03;  1.0347179E-01;  7.1386493E+02;3; -1.4614292E+01;  0.0000000E+00; -2.6301706E+00;0;  1.6195652E+00;  3.7653922E+04;  0.0000000E+00; -8.1122309E-02;  4.0000000E+04;  0.0000000E+00;  3.9755340E+04;  1.5774901E+00;  0.0000000E+00;  4.2075150E-02;  1.5805336E+03;
  1.2491138E+00;  9.9999998E-03;  3.0115476E-02;9563;  1.7858200E+00;  0.0000000E+00;  4.8748762E-03;  1.0008967E+03;  1.0347202E-01;  6.8813892E+02;3; -1.4000473E+01;  0.0000000E+00; -5.0840592E+00;0;  1.6284214E+00;  3.7652547E+04;  0.0000000E+00; -1.8659139E-01;  4.0000000E+04;  0.0000000E+00;  3.9754285E+04;  1.5905675E+00;  0.0000000E+00;  3.7853926E-02;  1.6266920E+03;
  1.2491423E+00;  9.9999998E-03;  4.0148519E-02;9564;  1.7874336E+00;  0.0000000E+00;  4.8742462E-03;  1.0008497E+03;  1.0347203E-01;  6.5207556E+02;3; -1.3401857E+01;  0.0000000E+00; -6.5625319E+00;0;  1.6403580E+00;  3.7650520E+04;  0.0000000E+00; -3.4573779E-01;  4.0000000E+04;  0.0000000E+00;  3.9753043E+04;  1.6079155E+00;  0.0000000E+00;  3.2442432E-02;  1.6951932E+03;
  1.2491696E+00;  9.9999998E-03;  5.0178349E-02;9565;  1.7897912E+00;  0.0000000E+00;  4.6482845E-03;  1.0007909E+03;  1.0347214E-01;  6.0686713E+02;3; -1.2825049E+01;  0.0000000E+00; -7.2438059E+00;0;  1.6546663E+00;  3.7647805E+04;  0.0000000E+00; -5.8105803E-01;  4.0000000E+04;  0.0000000E+00;  3.9751457E+04;  1.6286386E+00;  0.0000000E+00;  2.6027625E-02;  1.7913546E+03;
  1.2491959E+00;  9.9999998E-03;  6.0204782E-02;9566;  1.7929162E+00;  0.0000000E+00;  4.3895505E-03;  1.0007186E+03;  1.0347260E-01;  5.5141650E+02;3; -1.2293785E+01;  0.0000000E+00; -7.5241790E+00;0;  1.6703221E+00;  3.7644398E+04;  0.0000000E+00; -9.2941231E-01;  4.0000000E+04;  0.0000000E+00;  3.9749637E+04;  1.6517060E+00;  0.0000000E+00;  1.8616132E-02;  1.9260050E+03;
  1.2596828E+00;  9.9999998E-03; -1.0027082E-01;9600;  1.8295606E+00;  0.0000000E+00; -7.5911037E-03;  1.0002625E+03;  1.0331848E-01;  1.9916083E+02;3; -5.3598371E+00;  0.0000000E+00;  7.7552214E+00;0;  1.6277504E+00;  3.7746285E+04;  0.0000000E+00; -6.2846556E+00;  4.0000000E+04;  0.0000000E+00;  3.9726902E+04;  1.6264681E+00;  0.0000000E+00;  1.2823263E-03;  3.9234580E+03;
  1.2596190E+00;  9.9999998E-03; -9.0242535E-02;9601;  1.8235364E+00;  0.0000000E+00; -7.3520672E-03;  1.0004393E+03;  1.0331965E-01;  3.3331573E+02;3; -5.1016550E+00;  0.0000000E+00;  7.3690472E+00;0;  1.6111156E+00;  3.7756914E+04;  0.0000000E+00; -4.7999554E+00;  4.0000000E+04;  0.0000000E+00;  3.9728379E+04;  1.5945792E+00;  0.0000000E+00;  1.6536323E-02;  3.2482434E+03;
  1.2595661E+00;  9.9999998E-03; -8.0217011E-02;9602;  1.8176734E+00;  0.0000000E+00; -7.0292489E-03;  1.0005863E+03;  1.0332014E-01;  4.4487006E+02;3; -5.2292447E+00;  0.0000000E+00;  7.0275874E+00;0;  1.5943536E+00;  3.7765137E+04;  0.0000000E+00; -3.5354400E+00;  4.0000000E+04;  0.0000000E+00;  3.9730555E+04;  1.5647072E+00;  0.0000000E+00;  2.9646356E-02;  2.6788235E+03;
  1.2595227E+00;  9.9999998E-03; -7.0194162E-02;9603;  1.8121578E+00;  0.0000000E+00; -6.7293188E-03;  1.0007172E+03;  1.0332005E-01;  5.4430981E+02;3; -5.5638700E+00;  0.0000000E+00;  6.7732100E+00;0;  1.5770239E+00;  3.7771961E+04;  0.0000000E+00; -2.5112288E+00;  4.0000000E+04;  0.0000000E+00;  3.9733363E+04;  1.5362310E+00;  0.0000000E+00;  4.0792786E-02;  2.2270420E+03;
  1.2594869E+00;  9.9999998E-03; -6.0172804E-02;9604;  1.8070914E+00;  0.0000000E+00; -6.5377289E-03;  1.0008329E+03;  1.0332013E-01;  6.3208386E+02;3; -6.0187464E+00;  0.0000000E+00;  6.5062566E+00;0;  1.5594522E+00;  3.7777578E+04;  0.0000000E+00; -1.7158977E+00;  4.0000000E+04;  0.0000000E+00;  3.9736074E+04;  1.5091710E+00;  0.0000000E+00;  5.0281223E-02;  1.8851710E+03;
  1.2594564E+00;  9.9999998E-03; -5.0150547E-02;9605;  1.8027312E+00;  0.0000000E+00; -6.5499628E-03;  1.0009337E+03;  1.0331978E-01;  7.0864252E+02;3; -6.5289106E+00;  0.0000000E+00;  6.1964264E+00;0;  1.5425322E+00;  3.7782430E+04;  0.0000000E+00; -1.1194456E+00;  4.0000000E+04;  0.0000000E+00;  3.9738855E+04;  1.4840941E+00;  0.0000000E+00;  5.8438055E-02;  1.6345444E+03;
  1.2594281E+00;  9.9999998E-03; -4.0125865E-02;9606;  1.7993722E+00;  0.0000000E+00; -6.6333562E-03;  1.0010251E+03;  1.0331985E-01;  7.7805719E+02;3; -7.1507654E+00;  0.0000000E+00;  5.5278735E+00;0;  1.5273292E+00;  3.7786449E+04;  0.0000000E+00; -6.8369979E-01;  4.0000000E+04;  0.0000000E+00;  3.9741363E+04;  1.4618593E+00;  0.0000000E+00;  6.5469809E-02;  1.4548269E+03;
  1.2594004E+00;  9.9999998E-03; -3.0098069E-02;9607;  1.7969949E+00;  0.0000000E+00; -6.4670849E-03;  1.0010974E+03;  1.0331997E-01;  8.3281909E+02;3; -7.8410869E+00;  0.0000000E+00;  4.3121185E+00;0;  1.5147837E+00;  3.7789680E+04;  0.0000000E+00; -3.7345487E-01;  4.0000000E+04;  0.0000000E+00;  3.9743512E+04;  1.4433867E+00;  0.0000000E+00;  7.1397118E-02;  1.3296571E+03;
  1.2593746E+00;  9.9999998E-03; -2.0067101E-02;9608;  1.7955115E+00;  0.0000000E+00; -5.4854644E-03;  1.0011545E+03;  1.0332014E-01;  8.7627271E+02;3; -8.6816959E+00;  0.0000000E+00;  2.1058049E+00;0;  1.5055579E+00;  3.7791992E+04;  0.0000000E+00; -1.6339935E-01;  4.0000000E+04;  0.0000000E+00;  3.9745059E+04;  1.4295279E+00;  0.0000000E+00;  7.6030016E-02;  1.2480553E+03;
  1.2593516E+00;  9.9999998E-03; -1.0033709E-02;9609;  1.7947866E+00;  0.0000000E+00; -3.1699834E-03;  1.0011920E+03;  1.0332055E-01;  9.0470624E+02;3; -9.3074350E+00;  0.0000000E+00;  9.7156830E-02;0;  1.5000161E+00;  3.7793305E+04;  0.0000000E+00; -4.0524926E-02;  4.0000000E+04;  0.0000000E+00;  3.9746051E+04;  1.4210039E+00;  0.0000000E+00;  7.9012148E-02;  1.2027347E+03;
  1.2593420E+00;  9.9999998E-03; -1.5548579E-09;9610;  1.7945904E+00;  0.0000000E+00; -5.9421026E-08;  1.0012048E+03;  1.0332078E-01;  9.1448804E+02;3; -9.4594860E+00;  0.0000000E+00; -9.2781265E-06;0;  1.4981833E+00;  3.7793832E+04;  0.0000000E+00; -7.1637374E-13;  4.0000000E+04;  0.0000000E+00;  3.9746426E+04;  1.4181381E+00;  0.0000000E+00;  8.0045074E-02;  1.1882795E+03;
  1.2593516E+00;  9.9999998E-03;  1.0033705E-02;9611;  1.7947866E+00;  0.0000000E+00;  3.1698633E-03;  1.0011920E+03;  1.0332055E-01;  9.0470624E+02;3; -9.3074255E+00;  0.0000000E+00; -9.7175725E-02;0;  1.5000174E+00;  3.7793305E+04;  0.0000000E+00; -4.0524073E-02;  4.0000000E+04;  0.0000000E+00;  3.9746051E+04;  1.4210052E+00;  0.0000000E+00;  7.9012208E-02;  1.2027347E+03;
  1.2593746E+00;  9.9999998E-03;  2.0067098E-02;9612;  1.7955115E+00;  0.0000000E+00;  5.4853405E-03;  1.0011545E+03;  1.0332014E-01;  8.7627271E+02;3; -8.6816874E+00;  0.0000000E+00; -2.1058178E+00;0;  1.5055577E+00;  3.7791992E+04;  0.0000000E+00; -1.6339850E-01;  4.0000000E+04;  0.0000000E+00;  3.9745062E+04;  1.4295276E+00;  0.0000000E+00;  7.6030068E-02;  1.2480558E+03;
  1.2594004E+00;  9.9999998E-03;  3.0098066E-02;9613;  1.7969949E+00;  0.0000000E+00;  6.4669568E-03;  1.0010974E+03;  1.0331997E-01;  8.3281909E+02;3; -7.8410716E+00;  0.0000000E+00; -4.3121357E+00;0;  1.5147828E+00;  3.7789680E+04;  0.0000000E+00; -3.7345418E-01;  4.0000000E+04;  0.0000000E+00;  3.9743512E+04;  1.4433856E+00;  0.0000000E+00;  7.1397170E-02;  1.3296497E+03;
  1.2594281E+00;  9.9999998E-03;  4.0125862E-02;9614;  1.7993723E+00;  0.0000000E+00;  6.6332449E-03;  1.0010251E+03;  1.0331985E-01;  7.7805719E+02;3; -7.1507602E+00;  0.0000000E+00; -5.5278840E+00;0;  1.5273285E+00;  3.7786449E+04;  0.0000000E+00; -6.8369514E-01;  4.0000000E+04;  0.0000000E+00;  3.9741363E+04;  1.4618586E+00;  0.0000000E+00;  6.5469891E-02;  1.4548235E+03;
  1.2594564E+00;  9.9999998E-03;  5.0150543E-02;9615;  1.8027310E+00;  0.0000000E+00;  6.5498021E-03;  1.0009338E+03;  1.0332005E-01;  7.0864258E+02;3; -6.5288835E+00;  0.0000000E+00; -6.1964183E+00;0;  1.5425334E+00;  3.7782430E+04;  0.0000000E+00; -1.1194444E+00;  4.0000000E+04;  0.0000000E+00;  3.9738855E+04;  1.4840952E+00;  0.0000000E+00;  5.8438171E-02;  1.6345435E+03;
  1.2594869E+00;  9.9999998E-03;  6.0172800E-02;9616;  1.8070916E+00;  0.0000000E+00;  6.5376633E-03;  1.0008329E+03;  1.0332013E-01;  6.3208386E+02;3; -6.0187421E+00;  0.0000000E+00; -6.5062938E+00;0;  1.5594554E+00;  3.7777578E+04;  0.0000000E+00; -1.7158998E+00;  4.0000000E+04;  0.0000000E+00;  3.9736074E+04;  1.5091741E+00;  0.0000000E+00;  5.0281268E-02;  1.8851655E+03;
  1.2700200E+00;  9.9999998E-03; -1.0024876E-01;9648;  1.8453465E+00;  0.0000000E+00; -1.1396700E-02;  1.0002010E+03;  1.0318719E-01;  1.5059264E+02;3; -4.3270397E-01;  0.0000000E+00;  5.3993664E+00;0;  1.5413636E+00;  3.7850906E+04;  0.0000000E+00; -8.4925184E+00;  4.0000000E+04;  0.0000000E+00;  3.9713832E+04;  1.5132678E+00;  0.0000000E+00;  2.8095899E-02;  4.4695293E+03;
  1.2699494E+00;  9.9999998E-03; -9.0216711E-02;9649;  1.8386343E+00;  0.0000000E+00; -1.0496080E-02;  1.0004114E+03;  1.0318741E-01;  3.0826935E+02;3;  1.2728815E-01;  0.0000000E+00;  5.3052106E+00;0;  1.5207435E+00;  3.7865707E+04;  0.0000000E+00; -6.8205872E+00;  4.0000000E+04;  0.0000000E+00;  3.9714449E+04;  1.4762030E+00;  0.0000000E+00;  4.4540528E-02;  3.7397456E+03;
  1.2698817E+00;  9.9999998E-03; -8.0187455E-02;9650;  1.8318806E+00;  0.0000000E+00; -9.6286135E-03;  1.0006031E+03;  1.0318837E-01;  4.5203650E+02;3;  1.2263151E-01;  0.0000000E+00;  5.2616134E+00;0;  1.5016278E+00;  3.7877309E+04;  0.0000000E+00; -5.2845378E+00;  4.0000000E+04;  0.0000000E+00;  3.9716336E+04;  1.4429655E+00;  0.0000000E+00;  5.8662284E-02;  3.0603169E+03;
  1.2698212E+00;  9.9999998E-03; -7.0161834E-02;9651;  1.8253784E+00;  0.0000000E+00; -8.8652587E-03;  1.0007632E+03;  1.0318831E-01;  5.7205798E+02;3; -2.2137237E-01;  0.0000000E+00;  5.2203193E+00;0;  1.4831908E+00;  3.7886434E+04;  0.0000000E+00; -3.9424443E+00;  4.0000000E+04;  0.0000000E+00;  3.9718973E+04;  1.4125828E+00;  0.0000000E+00;  7.0607968E-02;  2.4642825E+03;
  1.2697690E+00;  9.9999998E-03; -6.0139589E-02;9652;  1.8193169E+00;  0.0000000E+00; -8.2295854E-03;  1.0009048E+03;  1.0318851E-01;  6.7815234E+02;3; -6.6209304E-01;  0.0000000E+00;  5.2115459E+00;0;  1.4653697E+00;  3.7893707E+04;  0.0000000E+00; -2.8182218E+00;  4.0000000E+04;  0.0000000E+00;  3.9721953E+04;  1.3846701E+00;  0.0000000E+00;  8.0699556E-02;  1.9681354E+03;
  1.2697257E+00;  9.9999998E-03; -5.0119415E-02;9653;  1.8138776E+00;  0.0000000E+00; -7.7953334E-03;  1.0010341E+03;  1.0318919E-01;  7.7513800E+02;3; -1.1371427E+00;  0.0000000E+00;  5.2295103E+00;0;  1.4487000E+00;  3.7899641E+04;  0.0000000E+00; -1.9093556E+00;  4.0000000E+04;  0.0000000E+00;  3.9725141E+04;  1.3593812E+00;  0.0000000E+00;  8.9318715E-02;  1.5749512E+03;
  1.2696896E+00;  9.9999998E-03; -4.0098831E-02;9654;  1.8094366E+00;  0.0000000E+00; -7.6759453E-03;  1.0011407E+03;  1.0318901E-01;  8.5505902E+02;3; -1.7486646E+00;  0.0000000E+00;  4.9183435E+00;0;  1.4340957E+00;  3.7904461E+04;  0.0000000E+00; -1.1989291E+00;  4.0000000E+04;  0.0000000E+00;  3.9728137E+04;  1.3373519E+00;  0.0000000E+00;  9.6743822E-02;  1.2805181E+03;
  1.2696581E+00;  9.9999998E-03; -3.0076455E-02;9655;  1.8062345E+00;  0.0000000E+00; -7.4674813E-03;  1.0012291E+03;  1.0318911E-01;  9.2139917E+02;3; -2.4605584E+00;  0.0000000E+00;  4.0877624E+00;0;  1.4223204E+00;  3.7908348E+04;  0.0000000E+00; -6.6676080E-01;  4.0000000E+04;  0.0000000E+00;  3.9730828E+04;  1.3193182E+00;  0.0000000E+00;  1.0300216E-01;  1.0773530E+03;
  1.2696313E+00;  9.9999998E-03; -2.0051725E-02;9656;  1.8041557E+00;  0.0000000E+00; -6.4879931E-03;  1.0012950E+03;  1.0318909E-01;  9.7084882E+02;3; -3.4559135E+00;  0.0000000E+00;  1.8199133E+00;0;  1.4138030E+00;  3.7911121E+04;  0.0000000E+00; -2.9478487E-01;  4.0000000E+04;  0.0000000E+00;  3.9732898E+04;  1.3059132E+00;  0.0000000E+00;  1.0788982E-01;  9.5302899E+02;
  1.2696084E+00;  9.9999998E-03; -1.0025546E-02;9657;  1.8031585E+00;  0.0000000E+00; -3.7189883E-03;  1.0013384E+03;  1.0318900E-01;  1.0033171E+03;3; -4.2204180E+00;  0.0000000E+00; -2.5977927E-01;0;  1.4087635E+00;  3.7913031E+04;  0.0000000E+00; -7.3495910E-02;  4.0000000E+04;  0.0000000E+00;  3.9734199E+04;  1.2977401E+00;  0.0000000E+00;  1.1102343E-01;  8.9102765E+02;
  1.2695999E+00;  9.9999998E-03; -1.4155722E-09;9658;  1.8028895E+00;  0.0000000E+00; -6.3215687E-08;  1.0013528E+03;  1.0318894E-01;  1.0141415E+03;3; -4.3741183E+00;  0.0000000E+00; -7.5803837E-06;0;  1.4071069E+00;  3.7913613E+04;  0.0000000E+00; -5.0650868E-13;  4.0000000E+04;  0.0000000E+00;  3.9734598E+04;  1.2949944E+00;  0.0000000E+00;  1.1211257E-01;  8.7286707E+02;
  1.2696084E+00;  9.9999998E-03;  1.0025542E-02;9659;  1.8031585E+00;  0.0000000E+00;  3.7188593E-03;  1.0013384E+03;  1.0318900E-01;  1.0033171E+03;3; -4.2204347E+00;  0.0000000E+00;  2.5976518E-01;0;  1.4087633E+00;  3.7913031E+04;  0.0000000E+00; -7.3494904E-02;  4.0000000E+04;  0.0000000E+00;  3.9734199E+04;  1.2977399E+00;  0.0000000E+00;  1.1102348E-01;  8.9102588E+02;
  1.2696313E+00;  9.9999998E-03;  2.0051721E-02;9660;  1.8041557E+00;  0.0000000E+00;  6.4878655E-03;  1.0012950E+03;  1.0318909E-01;  9.7084882E+02;3; -3.4559140E+00;  0.0000000E+00; -1.8199270E+00;0;  1.4138019E+00;  3.7911121E+04;  0.0000000E+00; -2.9478353E-01;  4.0000000E+04;  0.0000000E+00;  3.9732898E+04;  1.3059119E+00;  0.0000000E+00;  1.0789004E-01;  9.5302673E+02;
  1.2696581E+00;  9.9999998E-03;  3.0076452E-02;9661;  1.8062345E+00;  0.0000000E+00;  7.4673481E-03;  1.0012291E+03;  1.0318911E-01;  9.2139917E+02;3; -2.4605410E+00;  0.0000000E+00; -4.0877700E+00;0;  1.4223202E+00;  3.7908344E+04;  0.0000000E+00; -6.6675878E-01;  4.0000000E+04;  0.0000000E+00;  3.9730828E+04;  1.3193179E+00;  0.0000000E+00;  1.0300228E-01;  1.0773474E+03;
  1.2696896E+00;  9.9999998E-03;  4.0098827E-02;9662;  1.8094366E+00;  0.0000000E+00;  7.6758107E-03;  1.0011407E+03;  1.0318901E-01;  8.5505902E+02;3; -1.7486600E+00;  0.0000000E+00; -4.9183378E+00;0;  1.4340951E+00;  3.7904461E+04;  0.0000000E+00; -1.1989263E+00;  4.0000000E+04;  0.0000000E+00;  3.9728141E+04;  1.3373512E+00;  0.0000000E+00;  9.6743897E-02;  1.2805157E+03;
  1.2697257E+00;  9.9999998E-03;  5.0119411E-02;9663;  1.8138776E+00;  0.0000000E+00;  7.7952053E-03;  1.0010341E+03;  1.0318919E-01;  7.7513800E+02;3; -1.1371155E+00;  0.0000000E+00; -5.2295089E+00;0;  1.4487003E+00;  3.7899641E+04;  0.0000000E+00; -1.9093550E+00;  4.0000000E+04;  0.0000000E+00;  3.9725141E+04;  1.3593814E+00;  0.0000000E+00;  8.9318871E-02;  1.5749496E+03;
  1.2697690E+00;  9.9999998E-03;  6.0139585E-02;9664;  1.8193170E+00;  0.0000000E+00;  8.2294978E-03;  1.0009048E+03;  1.0318851E-01;  6.7815234E+02;3; -6.6207290E-01;  0.0000000E+00; -5.2115455E+00;0;  1.4653699E+00;  3.7893703E+04;  0.0000000E+00; -2.8182211E+00;  4.0000000E+04;  0.0000000E+00;  3.9721953E+04;  1.3846703E+00;  0.0000000E+00;  8.0699712E-02;  1.9681300E+03;
  1.2803144E+00;  9.9999998E-03; -1.0023868E-01;9695;  1.8571868E+00;  0.0000000E+00; -1.4866871E-02;  1.0001193E+03;  1.0307400E-01;  8.8174599E+01;3;  2.9658828E+00;  0.0000000E+00;  2.5311980E+00;0;  1.4680551E+00;  3.7939242E+04;  0.0000000E+00; -1.0823801E+01;  4.0000000E+04;  0.0000000E+00;  3.9702715E+04;  1.4128970E+00;  0.0000000E+00;  5.5158157E-02;  4.9540454E+03;
  1.2802569E+00;  9.9999998E-03; -9.0202644E-02;9696;  1.8502946E+00;  0.0000000E+00; -1.3286746E-02;  1.0003431E+03;  1.0307426E-01;  2.5353372E+02;3;  3.9565067E+00;  0.0000000E+00;  2.7696192E+00;0;  1.4441661E+00;  3.7956570E+04;  0.0000000E+00; -9.0535460E+00;  4.0000000E+04;  0.0000000E+00;  3.9702008E+04;  1.3720398E+00;  0.0000000E+00;  7.2126217E-02;  4.2302153E+03;
  1.2801884E+00;  9.9999998E-03; -8.0169261E-02;9697;  1.8433282E+00;  0.0000000E+00; -1.1880896E-02;  1.0005563E+03;  1.0307418E-01;  4.1117334E+02;3;  4.3291740E+00;  0.0000000E+00;  3.0741398E+00;0;  1.4236070E+00;  3.7971535E+04;  0.0000000E+00; -7.2947898E+00;  4.0000000E+04;  0.0000000E+00;  3.9702754E+04;  1.3368229E+00;  0.0000000E+00;  8.6784117E-02;  3.4972588E+03;
  1.2801158E+00;  9.9999998E-03; -7.0139214E-02;9698;  1.8364487E+00;  0.0000000E+00; -1.0663647E-02;  1.0007553E+03;  1.0307461E-01;  5.5827362E+02;3;  4.3011341E+00;  0.0000000E+00;  3.3749154E+00;0;  1.4049491E+00;  3.7984012E+04;  0.0000000E+00; -5.6508713E+00;  4.0000000E+04;  0.0000000E+00;  3.9704664E+04;  1.3057889E+00;  0.0000000E+00;  9.9160172E-02;  2.8044575E+03;
  1.2800454E+00;  9.9999998E-03; -6.0113005E-02;9699;  1.8298378E+00;  0.0000000E+00; -9.6579166E-03;  1.0009329E+03;  1.0307558E-01;  6.8954034E+02;3;  4.0004544E+00;  0.0000000E+00;  3.5971024E+00;0;  1.3877492E+00;  3.7993895E+04;  0.0000000E+00; -4.1823344E+00;  4.0000000E+04;  0.0000000E+00;  3.9707188E+04;  1.2781872E+00;  0.0000000E+00;  1.0956201E-01;  2.1829841E+03;
  1.2799830E+00;  9.9999998E-03; -5.0090771E-02;9700;  1.8236452E+00;  0.0000000E+00; -8.8567808E-03;  1.0010750E+03;  1.0307567E-01;  7.9473798E+02;3;  3.5215325E+00;  0.0000000E+00;  3.7113853E+00;0;  1.3721485E+00;  3.8001645E+04;  0.0000000E+00; -2.9203291E+00;  4.0000000E+04;  0.0000000E+00;  3.9710105E+04;  1.2537636E+00;  0.0000000E+00;  1.1838496E-01;  1.6522767E+03;
  1.2799305E+00;  9.9999998E-03; -4.0072020E-02;9701;  1.8183018E+00;  0.0000000E+00; -8.3557582E-03;  1.0011952E+03;  1.0307542E-01;  8.8363672E+02;3;  2.9399419E+00;  0.0000000E+00;  3.6778910E+00;0;  1.3588896E+00;  3.8007531E+04;  0.0000000E+00; -1.8790977E+00;  4.0000000E+04;  0.0000000E+00;  3.9713043E+04;  1.2329282E+00;  0.0000000E+00;  1.2596148E-01;  1.2271313E+03;
  1.2798889E+00;  9.9999998E-03; -3.0054091E-02;9702;  1.8142159E+00;  0.0000000E+00; -8.0689006E-03;  1.0012910E+03;  1.0307549E-01;  9.5446497E+02;3;  2.1909297E+00;  0.0000000E+00;  3.2508497E+00;0;  1.3485949E+00;  3.8011965E+04;  0.0000000E+00; -1.0632499E+00;  4.0000000E+04;  0.0000000E+00;  3.9715809E+04;  1.2162222E+00;  0.0000000E+00;  1.3237280E-01;  9.1912573E+02;
  1.2798564E+00;  9.9999998E-03; -2.0035656E-02;9703;  1.8115017E+00;  0.0000000E+00; -7.1431953E-03;  1.0013664E+03;  1.0307576E-01;  1.0103036E+03;3;  1.1348699E+00;  0.0000000E+00;  1.3910092E+00;0;  1.3414288E+00;  3.8015078E+04;  0.0000000E+00; -4.7515917E-01;  4.0000000E+04;  0.0000000E+00;  3.9717953E+04;  1.2040695E+00;  0.0000000E+00;  1.3735932E-01;  7.3401862E+02;
  1.2798331E+00;  9.9999998E-03; -1.0017212E-02;9704;  1.8102102E+00;  0.0000000E+00; -4.1540861E-03;  1.0014153E+03;  1.0307600E-01;  1.0464771E+03;3;  2.2564825E-01;  0.0000000E+00; -4.4887987E-01;0;  1.3373753E+00;  3.8017168E+04;  0.0000000E+00; -1.1920573E-01;  4.0000000E+04;  0.0000000E+00;  3.9719484E+04;  1.1968570E+00;  0.0000000E+00;  1.4051832E-01;  6.5346576E+02;
  1.2798252E+00;  9.9999998E-03; -1.2530148E-09;9705;  1.8098794E+00;  0.0000000E+00; -6.4053594E-08;  1.0014326E+03;  1.0307577E-01;  1.0593584E+03;3;  6.5420866E-02;  0.0000000E+00; -6.3730404E-06;0;  1.3360906E+00;  3.8017871E+04;  0.0000000E+00; -2.3965809E-13;  4.0000000E+04;  0.0000000E+00;  3.9719996E+04;  1.1944774E+00;  0.0000000E+00;  1.4161316E-01;  6.3400720E+02;
  1.2798331E+00;  9.9999998E-03;  1.0017210E-02;9706;  1.8102102E+00;  0.0000000E+00;  4.1539646E-03;  1.0014153E+03;  1.0307597E-01;  1.0465653E+03;3;  2.2573331E-01;  0.0000000E+00;  4.4887069E-01;0;  1.3373762E+00;  3.8017168E+04;  0.0000000E+00; -1.1920441E-01;  4.0000000E+04;  0.0000000E+00;  3.9719484E+04;  1.1968579E+00;  0.0000000E+00;  1.4051834E-01;  6.5346326E+02;
  1.2798564E+00;  9.9999998E-03;  2.0035654E-02;9707;  1.8115017E+00;  0.0000000E+00;  7.1430695E-03;  1.0013664E+03;  1.0307576E-01;  1.0103036E+03;3;  1.1348863E+00;  0.0000000E+00; -1.3910000E+00;0;  1.3414289E+00;  3.8015078E+04;  0.0000000E+00; -4.7515604E-01;  4.0000000E+04;  0.0000000E+00;  3.9717953E+04;  1.2040695E+00;  0.0000000E+00;  1.3735938E-01;  7.3401581E+02;
  1.2798889E+00;  9.9999998E-03;  3.0054089E-02;9708;  1.8142160E+00;  0.0000000E+00;  8.0688056E-03;  1.0012910E+03;  1.0307549E-01;  9.5446497E+02;3;  2.1909096E+00;  0.0000000E+00; -3.2508218E+00;0;  1.3485942E+00;  3.8011965E+04;  0.0000000E+00; -1.0632479E+00;  4.0000000E+04;  0.0000000E+00;  3.9715809E+04;  1.2162213E+00;  0.0000000E+00;  1.3237290E-01;  9.1912323E+02;
  1.2799305E+00;  9.9999998E-03;  4.0072016E-02;9709;  1.8183018E+00;  0.0000000E+00;  8.3556315E-03;  1.0011952E+03;  1.0307542E-01;  8.8363672E+02;3;  2.9398832E+00;  0.0000000E+00; -3.6779022E+00;0;  1.3588902E+00;  3.8007531E+04;  0.0000000E+00; -1.8790970E+00;  4.0000000E+04;  0.0000000E+00;  3.9713043E+04;  1.2329284E+00;  0.0000000E+00;  1.2596174E-01;  1.2271302E+03;
  1.2799830E+00;  9.9999998E-03;  5.0090771E-02;9710;  1.8236452E+00;  0.0000000E+00;  8.8566625E-03;  1.0010750E+03;  1.0307567E-01;  7.9473798E+02;3;  3.5215335E+00;  0.0000000E+00; -3.7113719E+00;0;  1.3721499E+00;  3.8001645E+04;  0.0000000E+00; -2.9203200E+00;  4.0000000E+04;  0.0000000E+00;  3.9710105E+04;  1.2537649E+00;  0.0000000E+00;  1.1838506E-01;  1.6522742E+03;
  1.2800454E+00;  9.9999998E-03;  6.0113002E-02;9711;  1.8298377E+00;  0.0000000E+00;  9.6577229E-03;  1.0009329E+03;  1.0307558E-01;  6.8954034E+02;3;  4.0004516E+00;  0.0000000E+00; -3.5969880E+00;0;  1.3877493E+00;  3.7993895E+04;  0.0000000E+00; -4.1823325E+00;  4.0000000E+04;  0.0000000E+00;  3.9707188E+04;  1.2781870E+00;  0.0000000E+00;  1.0956224E-01;  2.1829800E+03;
  1.2905327E+00;  9.9999998E-03; -1.0025220E-01;9741;  1.8656219E+00;  0.0000000E+00; -1.7885167E-02;  1.0001476E+03;  1.0297814E-01;  1.0739884E+02;3;  4.7749386E+00;  0.0000000E+00; -4.8107433E-01;0;  1.4051588E+00;  3.8022656E+04;  0.0000000E+00; -1.3020061E+01;  4.0000000E+04;  0.0000000E+00;  3.9692621E+04;  1.3232348E+00;  0.0000000E+00;  8.1923932E-02;  5.2977998E+03;
  1.2905060E+00;  9.9999998E-03; -9.0207659E-02;9742;  1.8584946E+00;  0.0000000E+00; -1.5532220E-02;  1.0002960E+03;  1.0297814E-01;  2.1541396E+02;3;  6.3425307E+00;  0.0000000E+00;  7.1008052E-03;0;  1.3777829E+00;  3.8035984E+04;  0.0000000E+00; -1.1283369E+01;  4.0000000E+04;  0.0000000E+00;  3.9690441E+04;  1.2791442E+00;  0.0000000E+00;  9.8638766E-02;  4.6401035E+03;
  1.2904637E+00;  9.9999998E-03; -8.0168553E-02;9743;  1.8514602E+00;  0.0000000E+00; -1.3523142E-02;  1.0004667E+03;  1.0297799E-01;  3.3967041E+02;3;  7.1608315E+00;  0.0000000E+00;  3.1578428E-01;0;  1.3561976E+00;  3.8049562E+04;  0.0000000E+00; -9.3969202E+00;  4.0000000E+04;  0.0000000E+00;  3.9689625E+04;  1.2428222E+00;  0.0000000E+00;  1.1337542E-01;  3.9093745E+03;
  1.2903967E+00;  9.9999998E-03; -7.0132881E-02;9744;  1.8448389E+00;  0.0000000E+00; -1.1914513E-02;  1.0006798E+03;  1.0297849E-01;  4.9485147E+02;3;  7.5549064E+00;  0.0000000E+00;  8.7044245E-01;0;  1.3387457E+00;  3.8064242E+04;  0.0000000E+00; -7.4899297E+00;  4.0000000E+04;  0.0000000E+00;  3.9690082E+04;  1.2127943E+00;  0.0000000E+00;  1.2595138E-01;  3.1621733E+03;
  1.2903177E+00;  9.9999998E-03; -6.0099825E-02;9745;  1.8383579E+00;  0.0000000E+00; -1.0604466E-02;  1.0008881E+03;  1.0297900E-01;  6.4651917E+02;3;  7.5113606E+00;  0.0000000E+00;  1.2888091E+00;0;  1.3233422E+00;  3.8077719E+04;  0.0000000E+00; -5.6831255E+00;  4.0000000E+04;  0.0000000E+00;  3.9691555E+04;  1.1868489E+00;  0.0000000E+00;  1.3649330E-01;  2.4511167E+03;
  1.2902373E+00;  9.9999998E-03; -5.0071269E-02;9746;  1.8321342E+00;  0.0000000E+00; -9.5253307E-03;  1.0010738E+03;  1.0297986E-01;  7.8182245E+02;3;  7.2370348E+00;  0.0000000E+00;  1.7035013E+00;0;  1.3097280E+00;  3.8088879E+04;  0.0000000E+00; -4.0548620E+00;  4.0000000E+04;  0.0000000E+00;  3.9693598E+04;  1.1643583E+00;  0.0000000E+00;  1.4536978E-01;  1.8127367E+03;
  1.2901640E+00;  9.9999998E-03; -4.0049542E-02;9747;  1.8264209E+00;  0.0000000E+00; -8.7221740E-03;  1.0012233E+03;  1.0297991E-01;  8.9076166E+02;3;  6.8200212E+00;  0.0000000E+00;  2.0512781E+00;0;  1.2982503E+00;  3.8097609E+04;  0.0000000E+00; -2.6572719E+00;  4.0000000E+04;  0.0000000E+00;  3.9695895E+04;  1.1453016E+00;  0.0000000E+00;  1.5294874E-01;  1.2756395E+03;
  1.2901049E+00;  9.9999998E-03; -3.0033525E-02;9748;  1.8217440E+00;  0.0000000E+00; -8.2101030E-03;  1.0013353E+03;  1.0297991E-01;  9.7244531E+02;3;  6.2274532E+00;  0.0000000E+00;  2.1324604E+00;0;  1.2895826E+00;  3.8103668E+04;  0.0000000E+00; -1.5252104E+00;  4.0000000E+04;  0.0000000E+00;  3.9698184E+04;  1.1302241E+00;  0.0000000E+00;  1.5935852E-01;  8.6550745E+02;
  1.2900618E+00;  9.9999998E-03; -2.0020245E-02;9749;  1.8184216E+00;  0.0000000E+00; -7.4717854E-03;  1.0014144E+03;  1.0297982E-01;  1.0300695E+03;3;  5.2505002E+00;  0.0000000E+00;  1.0499405E+00;0;  1.2838120E+00;  3.8107777E+04;  0.0000000E+00; -6.8834448E-01;  4.0000000E+04;  0.0000000E+00;  3.9700086E+04;  1.1194644E+00;  0.0000000E+00;  1.6434762E-01;  6.1047180E+02;
  1.2900341E+00;  9.9999998E-03; -1.0009488E-02;9750;  1.8168293E+00;  0.0000000E+00; -4.4807834E-03;  1.0014637E+03;  1.0297992E-01;  1.0659706E+03;3;  4.2478042E+00;  0.0000000E+00; -6.4621025E-01;0;  1.2809094E+00;  3.8110215E+04;  0.0000000E+00; -1.7374530E-01;  4.0000000E+04;  0.0000000E+00;  3.9701355E+04;  1.1134919E+00;  0.0000000E+00;  1.6741754E-01;  5.1028357E+02;
  1.2900248E+00;  9.9999998E-03; -1.0538327E-09;9751;  1.8164407E+00;  0.0000000E+00; -6.3909482E-08;  1.0014798E+03;  1.0297970E-01;  1.0777068E+03;3;  4.0867038E+00;  0.0000000E+00; -4.1164458E-06;0;  1.2801121E+00;  3.8111031E+04;  0.0000000E+00;  6.8502075E-14;  4.0000000E+04;  0.0000000E+00;  3.9701809E+04;  1.1116499E+00;  0.0000000E+00;  1.6846225E-01;  4.9294858E+02;
  1.2900341E+00;  9.9999998E-03;  1.0009486E-02;9752;  1.8168293E+00;  0.0000000E+00;  4.4806558E-03;  1.0014637E+03;  1.0297992E-01;  1.0659706E+03;3;  4.2478147E+00;  0.0000000E+00;  6.4620078E-01;0;  1.2809105E+00;  3.8110215E+04;  0.0000000E+00; -1.7374338E-01;  4.0000000E+04;  0.0000000E+00;  3.9701355E+04;  1.1134928E+00;  0.0000000E+00;  1.6741765E-01;  5.1028403E+02;
  1.2900618E+00;  9.9999998E-03;  2.0020243E-02;9753;  1.8184211E+00;  0.0000000E+00;  7.4715652E-03;  1.0014143E+03;  1.0297988E-01;  1.0299827E+03;3;  5.2504392E+00;  0.0000000E+00; -1.0500497E+00;0;  1.2838089E+00;  3.8107773E+04;  0.0000000E+00; -6.8834144E-01;  4.0000000E+04;  0.0000000E+00;  3.9700086E+04;  1.1194612E+00;  0.0000000E+00;  1.6434777E-01;  6.1047089E+02;
  1.2901049E+00;  9.9999998E-03;  3.0033521E-02;9754;  1.8217440E+00;  0.0000000E+00;  8.2099782E-03;  1.0013353E+03;  1.0297991E-01;  9.7244537E+02;3;  6.2274632E+00;  0.0000000E+00; -2.1324589E+00;0;  1.2895839E+00;  3.8103672E+04;  0.0000000E+00; -1.5252078E+00;  4.0000000E+04;  0.0000000E+00;  3.9698184E+04;  1.1302252E+00;  0.0000000E+00;  1.5935871E-01;  8.6550311E+02;
  1.2901640E+00;  9.9999998E-03;  4.0049538E-02;9755;  1.8264208E+00;  0.0000000E+00;  8.7220045E-03;  1.0012233E+03;  1.0297991E-01;  8.9076166E+02;3;  6.8200345E+00;  0.0000000E+00; -2.0512910E+00;0;  1.2982495E+00;  3.8097609E+04;  0.0000000E+00; -2.6572676E+00;  4.0000000E+04;  0.0000000E+00;  3.9695895E+04;  1.1453007E+00;  0.0000000E+00;  1.5294877E-01;  1.2756365E+03;
  1.2902373E+00;  9.9999998E-03;  5.0071269E-02;9756;  1.8321342E+00;  0.0000000E+00;  9.5252031E-03;  1.0010738E+03;  1.0297986E-01;  7.8182245E+02;3;  7.2370486E+00;  0.0000000E+00; -1.7034910E+00;0;  1.3097272E+00;  3.8088883E+04;  0.0000000E+00; -4.0548592E+00;  4.0000000E+04;  0.0000000E+00;  3.9693598E+04;  1.1643572E+00;  0.0000000E+00;  1.4537007E-01;  1.8127323E+03;
  1.2903177E+00;  9.9999998E-03;  6.0099822E-02;9757;  1.8383579E+00;  0.0000000E+00;  1.0604345E-02;  1.0008881E+03;  1.0297900E-01;  6.4651917E+02;3;  7.5113626E+00;  0.0000000E+00; -1.2888087E+00;0;  1.3233426E+00;  3.8077719E+04;  0.0000000E+00; -5.6831169E+00;  4.0000000E+04;  0.0000000E+00;  3.9691555E+04;  1.1868489E+00;  0.0000000E+00;  1.3649362E-01;  2.4511125E+03;
  1.3007011E+00;  9.9999998E-03; -1.0029941E-01;9785;  1.8713083E+00;  0.0000000E+00; -2.0533329E-02;  1.0003253E+03;  1.0289562E-01;  2.3282835E+02;3;  5.0011740E+00;  0.0000000E+00; -3.7437966E+00;0;  1.3453679E+00;  3.8109488E+04;  0.0000000E+00; -1.4984617E+01;  4.0000000E+04;  0.0000000E+00;  3.9680371E+04;  1.2374376E+00;  0.0000000E+00;  1.0793028E-01;  5.4734648E+03;
  1.3006811E+00;  9.9999998E-03; -9.0244949E-02;9786;  1.8643045E+00;  0.0000000E+00; -1.7070148E-02;  1.0004077E+03;  1.0289592E-01;  2.9179193E+02;3;  7.0745859E+00;  0.0000000E+00; -3.0281975E+00;0;  1.3152651E+00;  3.8118371E+04;  0.0000000E+00; -1.3278646E+01;  4.0000000E+04;  0.0000000E+00;  3.9677434E+04;  1.1921775E+00;  0.0000000E+00;  1.2308750E-01;  4.8834429E+03;
  1.3006614E+00;  9.9999998E-03; -8.0197841E-02;9787;  1.8570505E+00;  0.0000000E+00; -1.4196175E-02;  1.0004726E+03;  1.0289617E-01;  3.3821707E+02;3;  8.4769192E+00;  0.0000000E+00; -2.0909879E+00;0;  1.2920138E+00;  3.8125184E+04;  0.0000000E+00; -1.1361261E+01;  4.0000000E+04;  0.0000000E+00;  3.9675191E+04;  1.1547437E+00;  0.0000000E+00;  1.3727006E-01;  4.2056284E+03;
  1.3006322E+00;  9.9999998E-03; -7.0153698E-02;9788;  1.8502455E+00;  0.0000000E+00; -1.2085497E-02;  1.0005674E+03;  1.0289643E-01;  4.0615378E+02;3;  9.2843542E+00;  0.0000000E+00; -1.3579065E+00;0;  1.2751757E+00;  3.8132793E+04;  0.0000000E+00; -9.2847071E+00;  4.0000000E+04;  0.0000000E+00;  3.9674227E+04;  1.1252295E+00;  0.0000000E+00;  1.4994620E-01;  3.4581770E+03;
  1.3005698E+00;  9.9999998E-03; -6.0110919E-02;9789;  1.8443463E+00;  0.0000000E+00; -1.0719119E-02;  1.0007483E+03;  1.0289634E-01;  5.3565137E+02;3;  9.8067169E+00;  0.0000000E+00; -7.8208214E-01;0;  1.2637825E+00;  3.8146121E+04;  0.0000000E+00; -7.1662726E+00;  4.0000000E+04;  0.0000000E+00;  3.9674289E+04;  1.1029204E+00;  0.0000000E+00;  1.6086207E-01;  2.6886807E+03;
  1.3004855E+00;  9.9999998E-03; -5.0071403E-02;9790;  1.8389839E+00;  0.0000000E+00; -9.7008348E-03;  1.0009722E+03;  1.0289696E-01;  6.9601202E+02;3;  1.0032437E+01;  0.0000000E+00; -2.8849602E-01;0;  1.2548864E+00;  3.8161230E+04;  0.0000000E+00; -5.1727557E+00;  4.0000000E+04;  0.0000000E+00;  3.9675238E+04;  1.0849020E+00;  0.0000000E+00;  1.6998431E-01;  1.9672200E+03;
  1.3003970E+00;  9.9999998E-03; -4.0040527E-02;9791;  1.8339182E+00;  0.0000000E+00; -8.9512691E-03;  1.0011779E+03;  1.0289740E-01;  8.4345007E+02;3;  9.9641304E+00;  0.0000000E+00;  1.4524305E-01;0;  1.2472073E+00;  3.8174938E+04;  0.0000000E+00; -3.4201131E+00;  4.0000000E+04;  0.0000000E+00;  3.9676461E+04;  1.0695525E+00;  0.0000000E+00;  1.7765476E-01;  1.3462129E+03;
  1.3003203E+00;  9.9999998E-03; -3.0021036E-02;9792;  1.8293110E+00;  0.0000000E+00; -8.3277030E-03;  1.0013328E+03;  1.0289729E-01;  9.5445905E+02;3;  9.6434240E+00;  0.0000000E+00;  4.7611865E-01;0;  1.2407420E+00;  3.8185293E+04;  0.0000000E+00; -1.9789300E+00;  4.0000000E+04;  0.0000000E+00;  3.9677664E+04;  1.0567236E+00;  0.0000000E+00;  1.8401842E-01;  8.6518451E+02;
  1.3002619E+00;  9.9999998E-03; -2.0009886E-02;9793;  1.8258018E+00;  0.0000000E+00; -7.6867836E-03;  1.0014414E+03;  1.0289719E-01;  1.0323361E+03;3;  9.0204439E+00;  0.0000000E+00;  2.2286642E-01;0;  1.2364079E+00;  3.8192316E+04;  0.0000000E+00; -8.9920884E-01;  4.0000000E+04;  0.0000000E+00;  3.9678828E+04;  1.0474724E+00;  0.0000000E+00;  1.8893549E-01;  5.6693604E+02;
  1.3002243E+00;  9.9999998E-03; -1.0003974E-02;9794;  1.8241187E+00;  0.0000000E+00; -4.7437940E-03;  1.0015096E+03;  1.0289727E-01;  1.0812429E+03;3;  8.1599054E+00;  0.0000000E+00; -8.2843441E-01;0;  1.2347977E+00;  3.8196484E+04;  0.0000000E+00; -2.2807691E-01;  4.0000000E+04;  0.0000000E+00;  3.9679633E+04;  1.0429790E+00;  0.0000000E+00;  1.9181873E-01;  4.6564011E+02;
  1.3002117E+00;  9.9999998E-03; -8.5850088E-10;9795;  1.8237454E+00;  0.0000000E+00; -6.7198506E-08;  1.0015303E+03;  1.0289695E-01;  1.0961238E+03;3;  8.0424881E+00;  0.0000000E+00; -5.0589442E-06;0;  1.2346281E+00;  3.8197906E+04;  0.0000000E+00;  4.7862251E-13;  4.0000000E+04;  0.0000000E+00;  3.9679926E+04;  1.0418680E+00;  0.0000000E+00;  1.9276014E-01;  4.5734732E+02;
  1.3002243E+00;  9.9999998E-03;  1.0003972E-02;9796;  1.8241186E+00;  0.0000000E+00;  4.7436547E-03;  1.0015096E+03;  1.0289727E-01;  1.0812429E+03;3;  8.1599255E+00;  0.0000000E+00;  8.2842755E-01;0;  1.2347990E+00;  3.8196492E+04;  0.0000000E+00; -2.2807433E-01;  4.0000000E+04;  0.0000000E+00;  3.9679633E+04;  1.0429804E+00;  0.0000000E+00;  1.9181861E-01;  4.6564133E+02;
  1.3002619E+00;  9.9999998E-03;  2.0009885E-02;9797;  1.8258020E+00;  0.0000000E+00;  7.6866853E-03;  1.0014414E+03;  1.0289719E-01;  1.0323361E+03;3;  9.0204401E+00;  0.0000000E+00; -2.2283813E-01;0;  1.2364089E+00;  3.8192316E+04;  0.0000000E+00; -8.9920658E-01;  4.0000000E+04;  0.0000000E+00;  3.9678832E+04;  1.0474733E+00;  0.0000000E+00;  1.8893562E-01;  5.6693439E+02;
  1.3003203E+00;  9.9999998E-03;  3.0021032E-02;9798;  1.8293110E+00;  0.0000000E+00;  8.3275773E-03;  1.0013328E+03;  1.0289729E-01;  9.5445905E+02;3;  9.6434393E+00;  0.0000000E+00; -4.7611526E-01;0;  1.2407421E+00;  3.8185293E+04;  0.0000000E+00; -1.9789242E+00;  4.0000000E+04;  0.0000000E+00;  3.9677664E+04;  1.0567236E+00;  0.0000000E+00;  1.8401854E-01;  8.6518176E+02;
  1.3003970E+00;  9.9999998E-03;  4.0040523E-02;9799;  1.8339181E+00;  0.0000000E+00;  8.9510847E-03;  1.0011779E+03;  1.0289736E-01;  8.4345007E+02;3;  9.9641171E+00;  0.0000000E+00; -1.4522627E-01;0;  1.2472076E+00;  3.8174945E+04;  0.0000000E+00; -3.4201055E+00;  4.0000000E+04;  0.0000000E+00;  3.9676461E+04;  1.0695527E+00;  0.0000000E+00;  1.7765494E-01;  1.3462108E+03;
  1.3004855E+00;  9.9999998E-03;  5.0071400E-02;9800;  1.8389839E+00;  0.0000000E+00;  9.7007165E-03;  1.0009722E+03;  1.0289696E-01;  6.9601202E+02;3;  1.0032434E+01;  0.0000000E+00;  2.8850576E-01;0;  1.2548870E+00;  3.8161230E+04;  0.0000000E+00; -5.1727514E+00;  4.0000000E+04;  0.0000000E+00;  3.9675238E+04;  1.0849025E+00;  0.0000000E+00;  1.6998443E-01;  1.9672162E+03;
  1.3005698E+00;  9.9999998E-03;  6.0110915E-02;9801;  1.8443462E+00;  0.0000000E+00;  1.0718968E-02;  1.0007483E+03;  1.0289634E-01;  5.3565137E+02;3;  9.8067589E+00;  0.0000000E+00;  7.8199190E-01;0;  1.2637818E+00;  3.8146121E+04;  0.0000000E+00; -7.1662660E+00;  4.0000000E+04;  0.0000000E+00;  3.9674289E+04;  1.1029196E+00;  0.0000000E+00;  1.6086219E-01;  2.6886748E+03;
  1.3108538E+00;  9.9999998E-03; -1.0038079E-01;9827;  1.8769577E+00;  0.0000000E+00; -2.3155466E-02;  1.0006152E+03;  1.0282582E-01;  4.3239511E+02;3;  5.1017685E+00;  0.0000000E+00; -5.5129461E+00;0;  1.2905877E+00;  3.8201223E+04;  0.0000000E+00; -1.6991879E+01;  4.0000000E+04;  0.0000000E+00;  3.9662445E+04;  1.1572248E+00;  0.0000000E+00;  1.3336283E-01;  5.5715659E+03;
  1.3108311E+00;  9.9999998E-03; -9.0317652E-02;9828;  1.8700136E+00;  0.0000000E+00; -1.8742416E-02;  1.0006491E+03;  1.0282595E-01;  4.5620837E+02;3;  7.5832553E+00;  0.0000000E+00; -5.0848231E+00;0;  1.2563102E+00;  3.8206172E+04;  0.0000000E+00; -1.5154180E+01;  4.0000000E+04;  0.0000000E+00;  3.9659809E+04;  1.1103230E+00;  0.0000000E+00;  1.4598733E-01;  4.9954775E+03;
  1.3108120E+00;  9.9999998E-03; -8.0263130E-02;9829;  1.8625853E+00;  0.0000000E+00; -1.5010858E-02;  1.0006404E+03;  1.0282648E-01;  4.5010797E+02;3;  9.3283205E+00;  0.0000000E+00; -4.2923355E+00;0;  1.2297926E+00;  3.8207938E+04;  0.0000000E+00; -1.3143705E+01;  4.0000000E+04;  0.0000000E+00;  3.9656938E+04;  1.0709319E+00;  0.0000000E+00;  1.5886067E-01;  4.3550166E+03;
  1.3107939E+00;  9.9999998E-03; -7.0214696E-02;9830;  1.8553044E+00;  0.0000000E+00; -1.2089174E-02;  1.0006207E+03;  1.0282646E-01;  4.3629776E+02;3;  1.0383247E+01;  0.0000000E+00; -3.4986994E+00;0;  1.2108039E+00;  3.8208422E+04;  0.0000000E+00; -1.0949254E+01;  4.0000000E+04;  0.0000000E+00;  3.9654586E+04;  1.0398117E+00;  0.0000000E+00;  1.7099217E-01;  3.6448098E+03;
  1.3107648E+00;  9.9999998E-03; -6.0164966E-02;9831;  1.8488280E+00;  0.0000000E+00; -1.0053323E-02;  1.0006545E+03;  1.0282654E-01;  4.6011914E+02;3;  1.1126303E+01;  0.0000000E+00; -2.7015765E+00;0;  1.1992894E+00;  3.8211895E+04;  0.0000000E+00; -8.5929289E+00;  4.0000000E+04;  0.0000000E+00;  3.9653566E+04;  1.0173478E+00;  0.0000000E+00;  1.8194160E-01;  2.8712625E+03;
  1.3107052E+00;  9.9999998E-03; -5.0109826E-02;9832;  1.8440573E+00;  0.0000000E+00; -9.1343364E-03;  1.0008212E+03;  1.0282670E-01;  5.7732874E+02;3;  1.1798781E+01;  0.0000000E+00; -2.1534388E+00;0;  1.1964847E+00;  3.8223750E+04;  0.0000000E+00; -6.2186036E+00;  4.0000000E+04;  0.0000000E+00;  3.9653711E+04;  1.0047708E+00;  0.0000000E+00;  1.9171394E-01;  2.0854089E+03;
  1.3106257E+00;  9.9999998E-03; -4.0061232E-02;9833;  1.8402827E+00;  0.0000000E+00; -8.7617896E-03;  1.0010504E+03;  1.0282740E-01;  7.3851007E+02;3;  1.2305376E+01;  0.0000000E+00; -1.7086103E+00;0;  1.1967338E+00;  3.8239840E+04;  0.0000000E+00; -4.0927339E+00;  4.0000000E+04;  0.0000000E+00;  3.9654117E+04;  9.9681216E-01;  0.0000000E+00;  1.9992164E-01;  1.3896249E+03;
  1.3105427E+00;  9.9999998E-03; -3.0026590E-02;9834;  1.8369827E+00;  0.0000000E+00; -8.4453616E-03;  1.0012689E+03;  1.0282724E-01;  8.9228375E+02;3;  1.2582604E+01;  0.0000000E+00; -1.2909349E+00;0;  1.1967869E+00;  3.8255707E+04;  0.0000000E+00; -2.3508875E+00;  4.0000000E+04;  0.0000000E+00;  3.9654410E+04;  9.9030244E-01;  0.0000000E+00;  2.0648442E-01;  8.5502875E+02;
  1.3104726E+00;  9.9999998E-03; -2.0009577E-02;9835;  1.8343363E+00;  0.0000000E+00; -8.0383541E-03;  1.0014399E+03;  1.0282727E-01;  1.0127114E+03;3;  1.2565056E+01;  0.0000000E+00; -1.0609854E+00;0;  1.1965899E+00;  3.8268348E+04;  0.0000000E+00; -1.0658988E+00;  4.0000000E+04;  0.0000000E+00;  3.9654570E+04;  9.8522830E-01;  0.0000000E+00;  2.1136171E-01;  5.5309528E+02;
  1.3104260E+00;  9.9999998E-03; -1.0002788E-02;9836;  1.8332953E+00;  0.0000000E+00; -4.9594282E-03;  1.0015470E+03;  1.0282729E-01;  1.0880944E+03;3;  1.2297728E+01;  0.0000000E+00; -1.0453842E+00;0;  1.1981963E+00;  3.8276301E+04;  0.0000000E+00; -2.7039844E-01;  4.0000000E+04;  0.0000000E+00;  3.9654543E+04;  9.8424542E-01;  0.0000000E+00;  2.1395092E-01;  4.8763232E+02;
  1.3104098E+00;  9.9999998E-03; -6.7977390E-10;9837;  1.8331796E+00;  0.0000000E+00; -7.4102459E-08;  1.0015822E+03;  1.0282707E-01;  1.1129468E+03;3;  1.2319372E+01;  0.0000000E+00; -6.8098307E-06;0;  1.1994249E+00;  3.8279012E+04;  0.0000000E+00;  6.4039486E-13;  4.0000000E+04;  0.0000000E+00;  3.9654672E+04;  9.8468047E-01;  0.0000000E+00;  2.1474434E-01;  4.9805820E+02;
  1.3104260E+00;  9.9999998E-03;  1.0002786E-02;9838;  1.8332959E+00;  0.0000000E+00;  4.9593151E-03;  1.0015471E+03;  1.0282732E-01;  1.0881782E+03;3;  1.2297705E+01;  0.0000000E+00;  1.0453935E+00;0;  1.1981984E+00;  3.8276297E+04;  0.0000000E+00; -2.7039531E-01;  4.0000000E+04;  0.0000000E+00;  3.9654543E+04;  9.8424739E-01;  0.0000000E+00;  2.1395107E-01;  4.8763092E+02;
  1.3104726E+00;  9.9999998E-03;  2.0009575E-02;9839;  1.8343363E+00;  0.0000000E+00;  8.0382340E-03;  1.0014399E+03;  1.0282727E-01;  1.0127114E+03;3;  1.2565034E+01;  0.0000000E+00;  1.0609812E+00;0;  1.1965895E+00;  3.8268352E+04;  0.0000000E+00; -1.0658948E+00;  4.0000000E+04;  0.0000000E+00;  3.9654570E+04;  9.8522758E-01;  0.0000000E+00;  2.1136191E-01;  5.5309393E+02;
  1.3105427E+00;  9.9999998E-03;  3.0026589E-02;9840;  1.8369825E+00;  0.0000000E+00;  8.4451698E-03;  1.0012689E+03;  1.0282724E-01;  8.9228375E+02;3;  1.2582588E+01;  0.0000000E+00;  1.2908818E+00;0;  1.1967866E+00;  3.8255707E+04;  0.0000000E+00; -2.3508842E+00;  4.0000000E+04;  0.0000000E+00;  3.9654410E+04;  9.9030256E-01;  0.0000000E+00;  2.0648403E-01;  8.5502515E+02;
  1.3106257E+00;  9.9999998E-03;  4.0061228E-02;9841;  1.8402827E+00;  0.0000000E+00;  8.7616621E-03;  1.0010504E+03;  1.0282740E-01;  7.3851007E+02;3;  1.2305341E+01;  0.0000000E+00;  1.7086130E+00;0;  1.1967337E+00;  3.8239840E+04;  0.0000000E+00; -4.0927243E+00;  4.0000000E+04;  0.0000000E+00;  3.9654121E+04;  9.9681169E-01;  0.0000000E+00;  1.9992204E-01;  1.3896172E+03;
  1.3107052E+00;  9.9999998E-03;  5.0109826E-02;9842;  1.8440570E+00;  0.0000000E+00;  9.1339862E-03;  1.0008212E+03;  1.0282676E-01;  5.7724493E+02;3;  1.1798470E+01;  0.0000000E+00;  2.1533875E+00;0;  1.1964831E+00;  3.8223750E+04;  0.0000000E+00; -6.2185850E+00;  4.0000000E+04;  0.0000000E+00;  3.9653711E+04;  1.0047690E+00;  0.0000000E+00;  1.9171415E-01;  2.0854033E+03;
  1.3107648E+00;  9.9999998E-03;  6.0164966E-02;9843;  1.8488281E+00;  0.0000000E+00;  1.0053268E-02;  1.0006545E+03;  1.0282654E-01;  4.6011914E+02;3;  1.1126294E+01;  0.0000000E+00;  2.7015550E+00;0;  1.1992908E+00;  3.8211895E+04;  0.0000000E+00; -8.5929356E+00;  4.0000000E+04;  0.0000000E+00;  3.9653566E+04;  1.0173488E+00;  0.0000000E+00;  1.8194194E-01;  2.8712612E+03;
  1.3210053E+00;  9.9999998E-03; -1.0048874E-01;9866;  1.8892955E+00;  0.0000000E+00; -2.7851354E-02;  1.0009605E+03;  1.0276745E-01;  6.6190747E+02;3;  8.1940985E+00;  0.0000000E+00; -5.4624329E+00;0;  1.2976277E+00;  3.8297863E+04;  0.0000000E+00; -1.9271582E+01;  4.0000000E+04;  0.0000000E+00;  3.9635555E+04;  1.1336153E+00;  0.0000000E+00;  1.6401243E-01;  5.6537886E+03;
  1.3209777E+00;  9.9999998E-03; -9.0424098E-02;9867;  1.8807198E+00;  0.0000000E+00; -2.2014439E-02;  1.0009594E+03;  1.0276733E-01;  6.6120471E+02;3;  1.0424789E+01;  0.0000000E+00; -5.4451251E+00;0;  1.2371914E+00;  3.8299254E+04;  0.0000000E+00; -1.7304211E+01;  4.0000000E+04;  0.0000000E+00;  3.9633863E+04;  1.0665313E+00;  0.0000000E+00;  1.7066018E-01;  5.0977314E+03;
  1.3209532E+00;  9.9999998E-03; -8.0365032E-02;9868;  1.8721578E+00;  0.0000000E+00; -1.7319456E-02;  1.0009120E+03;  1.0276755E-01;  6.2853680E+02;3;  1.1817144E+01;  0.0000000E+00; -5.3283801E+00;0;  1.1939433E+00;  3.8297754E+04;  0.0000000E+00; -1.5094453E+01;  4.0000000E+04;  0.0000000E+00;  3.9631441E+04;  1.0133691E+00;  0.0000000E+00;  1.8057416E-01;  4.4664312E+03;
  1.3209305E+00;  9.9999998E-03; -7.0311390E-02;9869;  1.8639610E+00;  0.0000000E+00; -1.3561342E-02;  1.0008436E+03;  1.0276818E-01;  5.8148462E+02;3;  1.2661726E+01;  0.0000000E+00; -5.0206556E+00;0;  1.1639538E+00;  3.8294707E+04;  0.0000000E+00; -1.2680323E+01;  4.0000000E+04;  0.0000000E+00;  3.9628914E+04;  9.7277862E-01;  0.0000000E+00;  1.9117515E-01;  3.7683596E+03;
  1.3209072E+00;  9.9999998E-03; -6.0262341E-02;9870;  1.8564503E+00;  0.0000000E+00; -1.0695637E-02;  1.0007787E+03;  1.0276811E-01;  5.3672943E+02;3;  1.3231846E+01;  0.0000000E+00; -4.4188771E+00;0;  1.1444503E+00;  3.8291602E+04;  0.0000000E+00; -1.0136450E+01;  4.0000000E+04;  0.0000000E+00;  3.9626875E+04;  9.4306278E-01;  0.0000000E+00;  2.0138755E-01;  3.0247048E+03;
  1.3208761E+00;  9.9999998E-03; -5.0204370E-02;9871;  1.8503056E+00;  0.0000000E+00; -8.9091770E-03;  1.0007835E+03;  1.0276820E-01;  5.4013202E+02;3;  1.3708169E+01;  0.0000000E+00; -3.7511342E+00;0;  1.1358702E+00;  3.8292191E+04;  0.0000000E+00; -7.4488330E+00;  4.0000000E+04;  0.0000000E+00;  3.9626371E+04;  9.2489594E-01;  0.0000000E+00;  2.1097422E-01;  2.2304158E+03;
  1.3208269E+00;  9.9999998E-03; -4.0132590E-02;9872;  1.8461663E+00;  0.0000000E+00; -8.1887813E-03;  1.0009097E+03;  1.0276754E-01;  6.2713434E+02;3;  1.4345459E+01;  0.0000000E+00; -3.1764438E+00;0;  1.1381913E+00;  3.8300629E+04;  0.0000000E+00; -4.8358784E+00;  4.0000000E+04;  0.0000000E+00;  3.9627254E+04;  9.1860116E-01;  0.0000000E+00;  2.1959022E-01;  1.4554902E+03;
  1.3207667E+00;  9.9999998E-03; -3.0069811E-02;9873;  1.8435650E+00;  0.0000000E+00; -7.8688525E-03;  1.0010939E+03;  1.0276739E-01;  7.5427930E+02;3;  1.5053744E+01;  0.0000000E+00; -2.6359079E+00;0;  1.1453010E+00;  3.8313957E+04;  0.0000000E+00; -2.7015676E+00;  4.0000000E+04;  0.0000000E+00;  3.9627527E+04;  9.1874021E-01;  0.0000000E+00;  2.2656073E-01;  8.4362756E+02;
  1.3207045E+00;  9.9999998E-03; -2.0032305E-02;9874;  1.8426558E+00;  0.0000000E+00; -7.5093177E-03;  1.0012955E+03;  1.0276723E-01;  8.9337762E+02;3;  1.5798758E+01;  0.0000000E+00; -2.0380666E+00;0;  1.1559806E+00;  3.8329285E+04;  0.0000000E+00; -1.1983877E+00;  4.0000000E+04;  0.0000000E+00;  3.9627145E+04;  9.2440450E-01;  0.0000000E+00;  2.3157611E-01;  5.1526428E+02;
  1.3206562E+00;  9.9999998E-03; -1.0015380E-02;9875;  1.8436918E+00;  0.0000000E+00; -5.0406796E-03;  1.0014567E+03;  1.0276737E-01;  1.0045304E+03;3;  1.6444057E+01;  0.0000000E+00; -1.1403847E+00;0;  1.1698669E+00;  3.8341770E+04;  0.0000000E+00; -3.0528262E-01;  4.0000000E+04;  0.0000000E+00;  3.9626570E+04;  9.3579012E-01;  0.0000000E+00;  2.3407684E-01;  4.8979636E+02;
  1.3206372E+00;  9.9999998E-03; -5.7613597E-10;9876;  1.8444560E+00;  0.0000000E+00; -8.7746777E-08;  1.0015223E+03;  1.0276747E-01;  1.0498683E+03;3;  1.6729792E+01;  0.0000000E+00; -5.0272793E-06;0;  1.1763023E+00;  3.8346840E+04;  0.0000000E+00; -5.7115337E-14;  4.0000000E+04;  0.0000000E+00;  3.9626414E+04;  9.4160116E-01;  0.0000000E+00;  2.3470111E-01;  5.2405890E+02;
  1.3206562E+00;  9.9999998E-03;  1.0015379E-02;9877;  1.8436918E+00;  0.0000000E+00;  5.0405231E-03;  1.0014567E+03;  1.0276737E-01;  1.0045304E+03;3;  1.6444038E+01;  0.0000000E+00;  1.1403695E+00;0;  1.1698668E+00;  3.8341762E+04;  0.0000000E+00; -3.0528033E-01;  4.0000000E+04;  0.0000000E+00;  3.9626570E+04;  9.3579012E-01;  0.0000000E+00;  2.3407668E-01;  4.8979602E+02;
  1.3207045E+00;  9.9999998E-03;  2.0032303E-02;9878;  1.8426558E+00;  0.0000000E+00;  7.5091710E-03;  1.0012955E+03;  1.0276723E-01;  8.9337762E+02;3;  1.5798732E+01;  0.0000000E+00;  2.0380628E+00;0;  1.1559811E+00;  3.8329285E+04;  0.0000000E+00; -1.1983817E+00;  4.0000000E+04;  0.0000000E+00;  3.9627145E+04;  9.2440474E-01;  0.0000000E+00;  2.3157635E-01;  5.1526276E+02;
  1.3207667E+00;  9.9999998E-03;  3.0069811E-02;9879;  1.8435650E+00;  0.0000000E+00;  7.8687156E-03;  1.0010939E+03;  1.0276739E-01;  7.5427930E+02;3;  1.5053721E+01;  0.0000000E+00;  2.6358972E+00;0;  1.1453010E+00;  3.8313957E+04;  0.0000000E+00; -2.7015629E+00;  4.0000000E+04;  0.0000000E+00;  3.9627527E+04;  9.1874033E-01;  0.0000000E+00;  2.2656070E-01;  8.4362457E+02;
  1.3208269E+00;  9.9999998E-03;  4.0132586E-02;9880;  1.8461663E+00;  0.0000000E+00;  8.1886426E-03;  1.0009097E+03;  1.0276754E-01;  6.2713434E+02;3;  1.4345429E+01;  0.0000000E+00;  3.1764374E+00;0;  1.1381912E+00;  3.8300625E+04;  0.0000000E+00; -4.8358679E+00;  4.0000000E+04;  0.0000000E+00;  3.9627254E+04;  9.1860074E-01;  0.0000000E+00;  2.1959054E-01;  1.4554846E+03;
  1.3208761E+00;  9.9999998E-03;  5.0204366E-02;9881;  1.8503056E+00;  0.0000000E+00;  8.9090420E-03;  1.0007835E+03;  1.0276820E-01;  5.4013202E+02;3;  1.3708141E+01;  0.0000000E+00;  3.7511272E+00;0;  1.1358691E+00;  3.8292191E+04;  0.0000000E+00; -7.4488273E+00;  4.0000000E+04;  0.0000000E+00;  3.9626371E+04;  9.2489475E-01;  0.0000000E+00;  2.1097437E-01;  2.2304116E+03;
  1.3209072E+00;  9.9999998E-03;  6.0262341E-02;9882;  1.8564502E+00;  0.0000000E+00;  1.0695453E-02;  1.0007787E+03;  1.0276811E-01;  5.3672943E+02;3;  1.3231837E+01;  0.0000000E+00;  4.4188495E+00;0;  1.1444494E+00;  3.8291598E+04;  0.0000000E+00; -1.0136464E+01;  4.0000000E+04;  0.0000000E+00;  3.9626875E+04;  9.4306159E-01;  0.0000000E+00;  2.0138781E-01;  3.0247075E+03;
  1.3311774E+00;  9.9999998E-03; -1.0059834E-01;9902;  1.9113359E+00;  0.0000000E+00; -3.5775959E-02;  1.0011442E+03;  1.0271766E-01;  7.7206146E+02;3;  1.2258443E+01;  0.0000000E+00; -3.6604116E+00;0;  1.4501976E+00;  3.8382340E+04;  0.0000000E+00; -2.0954441E+01;  4.0000000E+04;  0.0000000E+00;  3.9601496E+04;  1.2420373E+00;  0.0000000E+00;  2.0816027E-01;  5.5076846E+03;
  1.3311402E+00;  9.9999998E-03; -9.0536684E-02;9903;  1.9022661E+00;  0.0000000E+00; -2.8519578E-02;  1.0011874E+03;  1.0271790E-01;  8.0124451E+02;3;  1.5532104E+01;  0.0000000E+00; -5.1107717E+00;0;  1.3546666E+00;  3.8386602E+04;  0.0000000E+00; -1.9213381E+01;  4.0000000E+04;  0.0000000E+00;  3.9600363E+04;  1.1502658E+00;  0.0000000E+00;  2.0440081E-01;  5.0638657E+03;
  1.3311075E+00;  9.9999998E-03; -8.0480702E-02;9904;  1.8918458E+00;  0.0000000E+00; -2.2001155E-02;  1.0011484E+03;  1.0271807E-01;  7.7507318E+02;3;  1.7141869E+01;  0.0000000E+00; -4.9307933E+00;0;  1.2684520E+00;  3.8385941E+04;  0.0000000E+00; -1.7097198E+01;  4.0000000E+04;  0.0000000E+00;  3.9598098E+04;  1.0619638E+00;  0.0000000E+00;  2.0648824E-01;  4.5244561E+03;
  1.3310772E+00;  9.9999998E-03; -7.0428409E-02;9905;  1.8816255E+00;  0.0000000E+00; -1.7091580E-02;  1.0010781E+03;  1.0271817E-01;  7.2765363E+02;3;  1.7992764E+01;  0.0000000E+00; -4.7504067E+00;0;  1.2028093E+00;  3.8382770E+04;  0.0000000E+00; -1.4629164E+01;  4.0000000E+04;  0.0000000E+00;  3.9595539E+04;  9.8954916E-01;  0.0000000E+00;  2.1326022E-01;  3.8907866E+03;
  1.3310478E+00;  9.9999998E-03; -6.0378034E-02;9906;  1.8723853E+00;  0.0000000E+00; -1.3455931E-02;  1.0010058E+03;  1.0271842E-01;  6.7885876E+02;3;  1.8357620E+01;  0.0000000E+00; -4.5241170E+00;0;  1.1572068E+00;  3.8379109E+04;  0.0000000E+00; -1.1900128E+01;  4.0000000E+04;  0.0000000E+00;  3.9593629E+04;  9.3552923E-01;  0.0000000E+00;  2.2167748E-01;  3.1845754E+03;
  1.3310198E+00;  9.9999998E-03; -5.0323300E-02;9907;  1.8640789E+00;  0.0000000E+00; -1.0672542E-02;  1.0009492E+03;  1.0271845E-01;  6.4075806E+02;3;  1.8354881E+01;  0.0000000E+00; -4.2047338E+00;0;  1.1247420E+00;  3.8375113E+04;  0.0000000E+00; -8.9928141E+00;  4.0000000E+04;  0.0000000E+00;  3.9592895E+04;  8.9472866E-01;  0.0000000E+00;  2.3001340E-01;  2.4247991E+03;
  1.3309916E+00;  9.9999998E-03; -4.0252276E-02;9908;  1.8572092E+00;  0.0000000E+00; -8.6631337E-03;  1.0009391E+03;  1.0271862E-01;  6.3395660E+02;3;  1.8231501E+01;  0.0000000E+00; -3.7476816E+00;0;  1.1047984E+00;  3.8372734E+04;  0.0000000E+00; -6.0203409E+00;  4.0000000E+04;  0.0000000E+00;  3.9594059E+04;  8.6703014E-01;  0.0000000E+00;  2.3776832E-01;  1.6401871E+03;
  1.3309615E+00;  9.9999998E-03; -3.0163765E-02;9909;  1.8523231E+00;  0.0000000E+00; -7.2489451E-03;  1.0009856E+03;  1.0271864E-01;  6.6538348E+02;3;  1.8287149E+01;  0.0000000E+00; -3.0792911E+00;0;  1.0971951E+00;  3.8373801E+04;  0.0000000E+00; -3.3334374E+00;  4.0000000E+04;  0.0000000E+00;  3.9596059E+04;  8.5274160E-01;  0.0000000E+00;  2.4445355E-01;  9.3486285E+02;
  1.3309292E+00;  9.9999998E-03; -2.0095179E-02;9910;  1.8502399E+00;  0.0000000E+00; -6.1080824E-03;  1.0010706E+03;  1.0271863E-01;  7.2281335E+02;3;  1.8780359E+01;  0.0000000E+00; -2.1851735E+00;0;  1.1040208E+00;  3.8379242E+04;  0.0000000E+00; -1.4564222E+00;  4.0000000E+04;  0.0000000E+00;  3.9596512E+04;  8.5452980E-01;  0.0000000E+00;  2.4949099E-01;  5.0261264E+02;
  1.3309008E+00;  9.9999998E-03; -1.0047076E-02;9911;  1.8508452E+00;  0.0000000E+00; -4.2769597E-03;  1.0011693E+03;  1.0271871E-01;  7.8950061E+02;3;  1.9456091E+01;  0.0000000E+00; -1.1333693E+00;0;  1.1215189E+00;  3.8386727E+04;  0.0000000E+00; -3.7009582E-01;  4.0000000E+04;  0.0000000E+00;  3.9596238E+04;  8.6925387E-01;  0.0000000E+00;  2.5226498E-01;  3.9714096E+02;
  1.3308897E+00;  9.9999998E-03; -6.5515765E-10;9912;  1.8516952E+00;  0.0000000E+00; -9.2349900E-08;  1.0012139E+03;  1.0271870E-01;  8.1962231E+02;3;  1.9749844E+01;  0.0000000E+00; -1.0281801E-05;0;  1.1316237E+00;  3.8389973E+04;  0.0000000E+00;  9.5408620E-13;  4.0000000E+04;  0.0000000E+00;  3.9596164E+04;  8.7872660E-01;  0.0000000E+00;  2.5289708E-01;  4.1223776E+02;
  1.3309008E+00;  9.9999998E-03;  1.0047074E-02;9913;  1.8508458E+00;  0.0000000E+00;  4.2768223E-03;  1.0011694E+03;  1.0271864E-01;  7.8950061E+02;3;  1.9456038E+01;  0.0000000E+00;  1.1333507E+00;0;  1.1215237E+00;  3.8386730E+04;  0.0000000E+00; -3.7009147E-01;  4.0000000E+04;  0.0000000E+00;  3.9596238E+04;  8.6925864E-01;  0.0000000E+00;  2.5226507E-01;  3.9713486E+02;
  1.3309292E+00;  9.9999998E-03;  2.0095177E-02;9914;  1.8502398E+00;  0.0000000E+00;  6.1078919E-03;  1.0010706E+03;  1.0271863E-01;  7.2281335E+02;3;  1.8780354E+01;  0.0000000E+00;  2.1851537E+00;0;  1.1040199E+00;  3.8379246E+04;  0.0000000E+00; -1.4564183E+00;  4.0000000E+04;  0.0000000E+00;  3.9596512E+04;  8.5452878E-01;  0.0000000E+00;  2.4949111E-01;  5.0261249E+02;
  1.3309615E+00;  9.9999998E-03;  3.0163763E-02;9915;  1.8523231E+00;  0.0000000E+00;  7.2488007E-03;  1.0009856E+03;  1.0271864E-01;  6.6538348E+02;3;  1.8287127E+01;  0.0000000E+00;  3.0792730E+00;0;  1.0971957E+00;  3.8373805E+04;  0.0000000E+00; -3.3334270E+00;  4.0000000E+04;  0.0000000E+00;  3.9596059E+04;  8.5274202E-01;  0.0000000E+00;  2.4445377E-01;  9.3485699E+02;
  1.3309916E+00;  9.9999998E-03;  4.0252276E-02;9916;  1.8572092E+00;  0.0000000E+00;  8.6630052E-03;  1.0009391E+03;  1.0271862E-01;  6.3395660E+02;3;  1.8231464E+01;  0.0000000E+00;  3.7476580E+00;0;  1.1047978E+00;  3.8372746E+04;  0.0000000E+00; -6.0203276E+00;  4.0000000E+04;  0.0000000E+00;  3.9594059E+04;  8.6702931E-01;  0.0000000E+00;  2.3776849E-01;  1.6401840E+03;
  1.3310198E+00;  9.9999998E-03;  5.0323296E-02;9917;  1.8640788E+00;  0.0000000E+00;  1.0672352E-02;  1.0009492E+03;  1.0271845E-01;  6.4075806E+02;3;  1.8354855E+01;  0.0000000E+00;  4.2047224E+00;0;  1.1247411E+00;  3.8375117E+04;  0.0000000E+00; -8.9927921E+00;  4.0000000E+04;  0.0000000E+00;  3.9592895E+04;  8.9472735E-01;  0.0000000E+00;  2.3001374E-01;  2.4247930E+03;
  1.3310478E+00;  9.9999998E-03;  6.0378030E-02;9918;  1.8723851E+00;  0.0000000E+00;  1.3455748E-02;  1.0010058E+03;  1.0271842E-01;  6.7885876E+02;3;  1.8357573E+01;  0.0000000E+00;  4.5241146E+00;0;  1.1572057E+00;  3.8379109E+04;  0.0000000E+00; -1.1900113E+01;  4.0000000E+04;  0.0000000E+00;  3.9593629E+04;  9.3552810E-01;  0.0000000E+00;  2.2167762E-01;  3.1845696E+03;
  1.3411566E+00;  9.9999998E-03; -4.0343005E-02;9942;  1.8790576E+00;  0.0000000E+00; -1.1274224E-02;  1.0010679E+03;  1.0267884E-01;  7.0494019E+02;3;  2.4020067E+01;  0.0000000E+00; -3.6904132E+00;0;  1.1902764E+00;  3.8446625E+04;  0.0000000E+00; -6.9695506E+00;  4.0000000E+04;  0.0000000E+00;  3.9559406E+04;  9.3366247E-01;  0.0000000E+00;  2.5661385E-01;  1.7394637E+03;
  1.3411311E+00;  9.9999998E-03; -3.0264324E-02;9943;  1.8718257E+00;  0.0000000E+00; -8.5595408E-03;  1.0010773E+03;  1.0267887E-01;  7.1119781E+02;3;  2.3807886E+01;  0.0000000E+00; -3.0565042E+00;0;  1.1505769E+00;  3.8444945E+04;  0.0000000E+00; -4.1558666E+00;  4.0000000E+04;  0.0000000E+00;  3.9561562E+04;  8.8865560E-01;  0.0000000E+00;  2.6192135E-01;  1.0966610E+03;
  1.3411119E+00;  9.9999998E-03; -2.0173796E-02;9944;  1.8660941E+00;  0.0000000E+00; -5.9385169E-03;  1.0010867E+03;  1.0267860E-01;  7.1744611E+02;3;  2.3504694E+01;  0.0000000E+00; -2.1942112E+00;0;  1.1202204E+00;  3.8443285E+04;  0.0000000E+00; -1.8783889E+00;  4.0000000E+04;  0.0000000E+00;  3.9563723E+04;  8.5415667E-01;  0.0000000E+00;  2.6606375E-01;  6.0708777E+02;
  1.3410991E+00;  9.9999998E-03; -1.0087588E-02;9945;  1.8629612E+00;  0.0000000E+00; -3.2383015E-03;  1.0010950E+03;  1.0267828E-01;  7.2289734E+02;3;  2.3365211E+01;  0.0000000E+00; -1.1445963E+00;0;  1.1064348E+00;  3.8442559E+04;  0.0000000E+00; -4.7879827E-01;  4.0000000E+04;  0.0000000E+00;  3.9564949E+04;  8.3777088E-01;  0.0000000E+00;  2.6866394E-01;  3.9638885E+02;
  1.3410951E+00;  9.9999998E-03; -1.0585264E-09;9946;  1.8618282E+00;  0.0000000E+00; -9.8700880E-08;  1.0010948E+03;  1.0267839E-01;  7.2282532E+02;3;  2.3288668E+01;  0.0000000E+00; -1.0287389E-05;0;  1.1011472E+00;  3.8442105E+04;  0.0000000E+00; -9.7986799E-13;  4.0000000E+04;  0.0000000E+00;  3.9565297E+04;  8.3166611E-01;  0.0000000E+00;  2.6948106E-01;  3.6778635E+02;
  1.3410991E+00;  9.9999998E-03;  1.0087587E-02;9947;  1.8629603E+00;  0.0000000E+00;  3.2380242E-03;  1.0010949E+03;  1.0267833E-01;  7.2289734E+02;3;  2.3364546E+01;  0.0000000E+00;  1.1445488E+00;0;  1.1064268E+00;  3.8442559E+04;  0.0000000E+00; -4.7879505E-01;  4.0000000E+04;  0.0000000E+00;  3.9564949E+04;  8.3776289E-01;  0.0000000E+00;  2.6866394E-01;  3.9641687E+02;
  1.3411119E+00;  9.9999998E-03;  2.0173794E-02;9948;  1.8660940E+00;  0.0000000E+00;  5.9383055E-03;  1.0010867E+03;  1.0267860E-01;  7.1744611E+02;3;  2.3504663E+01;  0.0000000E+00;  2.1941872E+00;0;  1.1202197E+00;  3.8443285E+04;  0.0000000E+00; -1.8783731E+00;  4.0000000E+04;  0.0000000E+00;  3.9563723E+04;  8.5415566E-01;  0.0000000E+00;  2.6606399E-01;  6.0708813E+02;
  1.3411311E+00;  9.9999998E-03;  3.0264322E-02;9949;  1.8718257E+00;  0.0000000E+00;  8.5593825E-03;  1.0010773E+03;  1.0267887E-01;  7.1119788E+02;3;  2.3807865E+01;  0.0000000E+00;  3.0564804E+00;0;  1.1505768E+00;  3.8444945E+04;  0.0000000E+00; -4.1558552E+00;  4.0000000E+04;  0.0000000E+00;  3.9561562E+04;  8.8865525E-01;  0.0000000E+00;  2.6192164E-01;  1.0966593E+03;
  1.3411566E+00;  9.9999998E-03;  4.0343005E-02;9950;  1.8790576E+00;  0.0000000E+00;  1.1274088E-02;  1.0010679E+03;  1.0267884E-01;  7.0494019E+02;3;  2.4020006E+01;  0.0000000E+00;  3.6903918E+00;0;  1.1902773E+00;  3.8446625E+04;  0.0000000E+00; -6.9695530E+00;  4.0000000E+04;  0.0000000E+00;  3.9559406E+04;  9.3366277E-01;  0.0000000E+00;  2.5661451E-01;  1.7394636E+03;
  1.3412933E+00;  9.9999998E-03; -8.0561742E-02;9938;  1.9107857E+00;  0.0000000E+00; -2.8662806E-02;  1.0011424E+03;  1.0267808E-01;  7.5389093E+02;3;  2.0619053E+01;  0.0000000E+00; -5.2162580E+00;0;  1.4008332E+00;  3.8447492E+04;  0.0000000E+00; -1.7172377E+01;  4.0000000E+04;  0.0000000E+00;  3.9565281E+04;  1.1612498E+00;  0.0000000E+00;  2.3958348E-01;  4.0589705E+03;
  1.3412560E+00;  9.9999998E-03; -7.0511661E-02;9939;  1.9041032E+00;  0.0000000E+00; -2.2624951E-02;  1.0011179E+03;  1.0267829E-01;  7.3782593E+02;3;  2.2395613E+01;  0.0000000E+00; -4.7840862E+00;0;  1.3498026E+00;  3.8448895E+04;  0.0000000E+00; -1.5214225E+01;  4.0000000E+04;  0.0000000E+00;  3.9561852E+04;  1.1097149E+00;  0.0000000E+00;  2.4008770E-01;  3.6196931E+03;
  1.3412205E+00;  9.9999998E-03; -6.0462985E-02;9940;  1.8959512E+00;  0.0000000E+00; -1.7969001E-02;  1.0010855E+03;  1.0267847E-01;  7.1648346E+02;3;  2.3459246E+01;  0.0000000E+00; -4.4466524E+00;0;  1.2934771E+00;  3.8448578E+04;  0.0000000E+00; -1.2784537E+01;  4.0000000E+04;  0.0000000E+00;  3.9559262E+04;  1.0488596E+00;  0.0000000E+00;  2.4461748E-01;  3.0712524E+03;
  1.3411868E+00;  9.9999998E-03; -5.0407089E-02;9941;  1.8873293E+00;  0.0000000E+00; -1.4357994E-02;  1.0010715E+03;  1.0267875E-01;  7.0733142E+02;3;  2.3959961E+01;  0.0000000E+00; -4.1313505E+00;0;  1.2389059E+00;  3.8447961E+04;  0.0000000E+00; -9.9322376E+00;  4.0000000E+04;  0.0000000E+00;  3.9558605E+04;  9.8823065E-01;  0.0000000E+00;  2.5067526E-01;  2.4195449E+03;
  1.3411868E+00;  9.9999998E-03;  5.0407089E-02;9951;  1.8873289E+00;  0.0000000E+00;  1.4357763E-02;  1.0010715E+03;  1.0267875E-01;  7.0733142E+02;3;  2.3959898E+01;  0.0000000E+00;  4.1313348E+00;0;  1.2389016E+00;  3.8447965E+04;  0.0000000E+00; -9.9322939E+00;  4.0000000E+04;  0.0000000E+00;  3.9558605E+04;  9.8822618E-01;  0.0000000E+00;  2.5067547E-01;  2.4195552E+03;
  1.3412205E+00;  9.9999998E-03;  6.0462981E-02;9952;  1.8959510E+00;  0.0000000E+00;  1.7968887E-02;  1.0010855E+03;  1.0267847E-01;  7.1648346E+02;3;  2.3459177E+01;  0.0000000E+00;  4.4466481E+00;0;  1.2934750E+00;  3.8448578E+04;  0.0000000E+00; -1.2784491E+01;  4.0000000E+04;  0.0000000E+00;  3.9559262E+04;  1.0488572E+00;  0.0000000E+00;  2.4461783E-01;  3.0712380E+03;
  1.3413775E+00;  9.9999998E-03; -1.0069086E-01;9936;  1.9198709E+00;  0.0000000E+00; -3.6297169E-02;  1.0009381E+03;  1.0267758E-01;  6.1893353E+02;3;  1.3186099E+01;  0.0000000E+00; -3.2062013E+00;0;  1.4707394E+00;  3.8432395E+04;  0.0000000E+00; -1.9642225E+01;  4.0000000E+04;  0.0000000E+00;  3.9564695E+04;  1.2420796E+00;  0.0000000E+00;  2.2865973E-01;  4.6246646E+03;
  1.3413345E+00;  9.9999998E-03; -9.0623565E-02;9937;  1.9170762E+00;  0.0000000E+00; -3.4589473E-02;  1.0010800E+03;  1.0267784E-01;  7.1268060E+02;3;  1.7714670E+01;  0.0000000E+00; -5.0161180E+00;0;  1.4591259E+00;  3.8441844E+04;  0.0000000E+00; -1.8798849E+01;  4.0000000E+04;  0.0000000E+00;  3.9566289E+04;  1.2181422E+00;  0.0000000E+00;  2.4098375E-01;  4.4296855E+03;
  1.3512844E+00;  9.9999998E-03; -1.0115365E-02;9976;  1.8873744E+00;  0.0000000E+00; -3.9629745E-03;  1.0011234E+03;  1.0264418E-01;  7.2445483E+02;3;  2.7628550E+01;  0.0000000E+00; -1.2016664E+00;0;  1.2556118E+00;  3.8500391E+04;  0.0000000E+00; -5.3362012E-01;  4.0000000E+04;  0.0000000E+00;  3.9534242E+04;  9.7147071E-01;  0.0000000E+00;  2.8414106E-01;  3.9285327E+02;
  1.3512795E+00;  9.9999998E-03; -5.2139681E-10;9977;  1.8870132E+00;  0.0000000E+00; -9.8142557E-08;  1.0011442E+03;  1.0264423E-01;  7.3783929E+02;3;  2.7693470E+01;  0.0000000E+00; -1.2565404E-05;0;  1.2572376E+00;  3.8501023E+04;  0.0000000E+00; -5.9485452E-13;  4.0000000E+04;  0.0000000E+00;  3.9535281E+04;  9.7254050E-01;  0.0000000E+00;  2.8469703E-01;  3.5995450E+02;
  1.3512844E+00;  9.9999998E-03;  1.0115365E-02;9978;  1.8873744E+00;  0.0000000E+00;  3.9627808E-03;  1.0011234E+03;  1.0264418E-01;  7.2445483E+02;3;  2.7628561E+01;  0.0000000E+00;  1.2016376E+00;0;  1.2556134E+00;  3.8500383E+04;  0.0000000E+00; -5.3362030E-01;  4.0000000E+04;  0.0000000E+00;  3.9534242E+04;  9.7147197E-01;  0.0000000E+00;  2.8414145E-01;  3.9285284E+02;
  1.3515291E+00;  9.9999998E-03; -9.0722494E-02;9968;  1.9198439E+00;  0.0000000E+00; -3.4364514E-02;  1.0006580E+03;  1.0264252E-01;  4.2409583E+02;3;  1.7904543E+01;  0.0000000E+00; -5.8204875E+00;0;  1.3943821E+00;  3.8479496E+04;  0.0000000E+00; -1.4564476E+01;  4.0000000E+04;  0.0000000E+00;  3.9521438E+04;  1.1382591E+00;  0.0000000E+00;  2.5612307E-01;  3.0896907E+03;
  1.3514868E+00;  9.9999998E-03; -8.0638871E-02;9969;  1.9156203E+00;  0.0000000E+00; -3.0977035E-02;  1.0008583E+03;  1.0264274E-01;  5.5322388E+02;3;  2.0841177E+01;  0.0000000E+00; -6.2274013E+00;0;  1.3718120E+00;  3.8488008E+04;  0.0000000E+00; -1.4255833E+01;  4.0000000E+04;  0.0000000E+00;  3.9528234E+04;  1.1097773E+00;  0.0000000E+00;  2.6203465E-01;  3.0123091E+03;
  1.3514472E+00;  9.9999998E-03; -7.0560202E-02;9970;  1.9103819E+00;  0.0000000E+00; -2.6409812E-02;  1.0009624E+03;  1.0264324E-01;  6.2036023E+02;3;  2.2952759E+01;  0.0000000E+00; -5.9278960E+00;0;  1.3392317E+00;  3.8492930E+04;  0.0000000E+00; -1.2853808E+01;  4.0000000E+04;  0.0000000E+00;  3.9531227E+04;  1.0748614E+00;  0.0000000E+00;  2.6437026E-01;  2.7185291E+03;
  1.3514113E+00;  9.9999998E-03; -6.0490433E-02;9971;  1.9055523E+00;  0.0000000E+00; -2.1478083E-02;  1.0009874E+03;  1.0264369E-01;  6.3655139E+02;3;  2.4559189E+01;  0.0000000E+00; -5.3255329E+00;0;  1.3168371E+00;  3.8494246E+04;  0.0000000E+00; -1.0926842E+01;  4.0000000E+04;  0.0000000E+00;  3.9531367E+04;  1.0505538E+00;  0.0000000E+00;  2.6628333E-01;  2.3238218E+03;
  1.3513775E+00;  9.9999998E-03; -5.0424490E-02;9972;  1.9007739E+00;  0.0000000E+00; -1.7219290E-02;  1.0009932E+03;  1.0264394E-01;  6.4036816E+02;3;  2.5751181E+01;  0.0000000E+00; -4.6583371E+00;0;  1.2984768E+00;  3.8495211E+04;  0.0000000E+00; -8.6537504E+00;  4.0000000E+04;  0.0000000E+00;  3.9530680E+04;  1.0284946E+00;  0.0000000E+00;  2.6998222E-01;  1.8630808E+03;
  1.3513466E+00;  9.9999998E-03; -4.0359017E-02;9973;  1.8953370E+00;  0.0000000E+00; -1.3655082E-02;  1.0010071E+03;  1.0264400E-01;  6.4933105E+02;3;  2.6508778E+01;  0.0000000E+00; -4.0045667E+00;0;  1.2711089E+00;  3.8496016E+04;  0.0000000E+00; -6.2479897E+00;  4.0000000E+04;  0.0000000E+00;  3.9530488E+04;  9.9654561E-01;  0.0000000E+00;  2.7456322E-01;  1.3813682E+03;
  1.3513198E+00;  9.9999998E-03; -3.0290909E-02;9974;  1.8907285E+00;  0.0000000E+00; -1.0450339E-02;  1.0010314E+03;  1.0264412E-01;  6.6505292E+02;3;  2.7008755E+01;  0.0000000E+00; -3.2227333E+00;0;  1.2502015E+00;  3.8497176E+04;  0.0000000E+00; -3.9477339E+00;  4.0000000E+04;  0.0000000E+00;  3.9531016E+04;  9.7134614E-01;  0.0000000E+00;  2.7885529E-01;  9.3397064E+02;
  1.3512986E+00;  9.9999998E-03; -2.0212118E-02;9975;  1.8882027E+00;  0.0000000E+00; -7.3979930E-03;  1.0010760E+03;  1.0264401E-01;  6.9391290E+02;3;  2.7382896E+01;  0.0000000E+00; -2.2915480E+00;0;  1.2477536E+00;  3.8498707E+04;  0.0000000E+00; -1.9536973E+00;  4.0000000E+04;  0.0000000E+00;  3.9532438E+04;  9.6551520E-01;  0.0000000E+00;  2.8223836E-01;  5.7766827E+02;
  1.3512986E+00;  9.9999998E-03;  2.0212116E-02;9979;  1.8882025E+00;  0.0000000E+00;  7.3977956E-03;  1.0010760E+03;  1.0264401E-01;  6.9391290E+02;3;  2.7382900E+01;  0.0000000E+00;  2.2915242E+00;0;  1.2477535E+00;  3.8498707E+04;  0.0000000E+00; -1.9536847E+00;  4.0000000E+04;  0.0000000E+00;  3.9532438E+04;  9.6551478E-01;  0.0000000E+00;  2.8223869E-01;  5.7766663E+02;
  1.3513198E+00;  9.9999998E-03;  3.0290907E-02;9980;  1.8907291E+00;  0.0000000E+00;  1.0450425E-02;  1.0010314E+03;  1.0264426E-01;  6.6505292E+02;3;  2.7008602E+01;  0.0000000E+00;  3.2227209E+00;0;  1.2502115E+00;  3.8497176E+04;  0.0000000E+00; -3.9477224E+00;  4.0000000E+04;  0.0000000E+00;  3.9531016E+04;  9.7135556E-01;  0.0000000E+00;  2.7885595E-01;  9.3395862E+02;
  1.3513466E+00;  9.9999998E-03;  4.0359013E-02;9981;  1.8953367E+00;  0.0000000E+00;  1.3654886E-02;  1.0010071E+03;  1.0264400E-01;  6.4933105E+02;3;  2.6508690E+01;  0.0000000E+00;  4.0045409E+00;0;  1.2711052E+00;  3.8496016E+04;  0.0000000E+00; -6.2479730E+00;  4.0000000E+04;  0.0000000E+00;  3.9530488E+04;  9.9654174E-01;  0.0000000E+00;  2.7456343E-01;  1.3813621E+03;
  1.3513775E+00;  9.9999998E-03;  5.0424490E-02;9982;  1.9007729E+00;  0.0000000E+00;  1.7219130E-02;  1.0009932E+03;  1.0264402E-01;  6.4036816E+02;3;  2.5750898E+01;  0.0000000E+00;  4.6583538E+00;0;  1.2984641E+00;  3.8495207E+04;  0.0000000E+00; -8.6537275E+00;  4.0000000E+04;  0.0000000E+00;  3.9530680E+04;  1.0284814E+00;  0.0000000E+00;  2.6998264E-01;  1.8630728E+03;
  1.3514113E+00;  9.9999998E-03;  6.0490433E-02;9983;  1.9055523E+00;  0.0000000E+00;  2.1477852E-02;  1.0009874E+03;  1.0264369E-01;  6.3655139E+02;3;  2.4559179E+01;  0.0000000E+00;  5.3254991E+00;0;  1.3168371E+00;  3.8494246E+04;  0.0000000E+00; -1.0926844E+01;  4.0000000E+04;  0.0000000E+00;  3.9531367E+04;  1.0505536E+00;  0.0000000E+00;  2.6628351E-01;  2.3238179E+03;
  1.3515711E+00;  9.9999998E-03; -1.0080851E-01;9967;  1.9228005E+00;  0.0000000E+00; -3.5129964E-02;  1.0003832E+03;  1.0264271E-01;  2.4690372E+02;3;  1.4496508E+01;  0.0000000E+00; -4.3569460E+00;0;  1.3969669E+00;  3.8469664E+04;  0.0000000E+00; -1.3003229E+01;  4.0000000E+04;  0.0000000E+00;  3.9509984E+04;  1.1585541E+00;  0.0000000E+00;  2.3841290E-01;  2.8093469E+03;
  1.3614872E+00;  9.9999998E-03; -2.0224793E-02;10002;  1.8944148E+00;  0.0000000E+00; -7.6044276E-03;  1.0009873E+03;  1.0261495E-01;  6.2122992E+02;3;  2.8350531E+01;  0.0000000E+00; -2.5252638E+00;0;  1.2031239E+00;  3.8541746E+04;  0.0000000E+00; -1.5118018E+00;  4.0000000E+04;  0.0000000E+00;  3.9503711E+04;  9.0680534E-01;  0.0000000E+00;  2.9631859E-01;  3.8413278E+02;
  1.3614751E+00;  9.9999998E-03; -1.0123520E-02;10003;  1.8948194E+00;  0.0000000E+00; -4.0779873E-03;  1.0010292E+03;  1.0261479E-01;  6.4757733E+02;3;  2.8605759E+01;  0.0000000E+00; -1.3087171E+00;0;  1.2302492E+00;  3.8542648E+04;  0.0000000E+00; -4.2708376E-01;  4.0000000E+04;  0.0000000E+00;  3.9505871E+04;  9.3207741E-01;  0.0000000E+00;  2.9817170E-01;  2.3627962E+02;
  1.3614711E+00;  9.9999998E-03; -2.4650307E-10;10004;  1.8951665E+00;  0.0000000E+00; -8.2924011E-08;  1.0010499E+03;  1.0261492E-01;  6.6063593E+02;3;  2.8668118E+01;  0.0000000E+00; -1.7348677E-05;0;  1.2424417E+00;  3.8542977E+04;  0.0000000E+00; -4.5498978E-12;  4.0000000E+04;  0.0000000E+00;  3.9507031E+04;  9.4377279E-01;  0.0000000E+00;  2.9866889E-01;  1.9996719E+02;
  1.3614751E+00;  9.9999998E-03;  1.0123520E-02;10005;  1.8948194E+00;  0.0000000E+00;  4.0778201E-03;  1.0010292E+03;  1.0261479E-01;  6.4757733E+02;3;  2.8605745E+01;  0.0000000E+00;  1.3086826E+00;0;  1.2302485E+00;  3.8542648E+04;  0.0000000E+00; -4.2708659E-01;  4.0000000E+04;  0.0000000E+00;  3.9505871E+04;  9.3207669E-01;  0.0000000E+00;  2.9817179E-01;  2.3628044E+02;
  1.3614872E+00;  9.9999998E-03;  2.0224795E-02;10006;  1.8944151E+00;  0.0000000E+00;  7.6044314E-03;  1.0009873E+03;  1.0261495E-01;  6.2122992E+02;3;  2.8350386E+01;  0.0000000E+00;  2.5252364E+00;0;  1.2031285E+00;  3.8541750E+04;  0.0000000E+00; -1.5118155E+00;  4.0000000E+04;  0.0000000E+00;  3.9503711E+04;  9.0680939E-01;  0.0000000E+00;  2.9631910E-01;  3.8412808E+02;
  1.3615303E+00;  9.9999998E-03; -4.0367637E-02;10000;  1.8990766E+00;  0.0000000E+00; -1.4505467E-02;  1.0009521E+03;  1.0261484E-01;  5.9903894E+02;3;  2.7064552E+01;  0.0000000E+00; -4.7474093E+00;0;  1.1953759E+00;  3.8540047E+04;  0.0000000E+00; -4.3044610E+00;  4.0000000E+04;  0.0000000E+00;  3.9503180E+04;  9.0614974E-01;  0.0000000E+00;  2.8922614E-01;  8.3995068E+02;
  1.3615057E+00;  9.9999998E-03; -3.0296372E-02;10001;  1.8958112E+00;  0.0000000E+00; -1.0937059E-02;  1.0009677E+03;  1.0261475E-01;  6.0882550E+02;3;  2.7841558E+01;  0.0000000E+00; -3.6720171E+00;0;  1.1900941E+00;  3.8540922E+04;  0.0000000E+00; -2.8268566E+00;  4.0000000E+04;  0.0000000E+00;  3.9503207E+04;  8.9699161E-01;  0.0000000E+00;  2.9310247E-01;  5.8878302E+02;
  1.3615057E+00;  9.9999998E-03;  3.0296372E-02;10007;  1.8958113E+00;  0.0000000E+00;  1.0936957E-02;  1.0009677E+03;  1.0261475E-01;  6.0882550E+02;3;  2.7841536E+01;  0.0000000E+00;  3.6719897E+00;0;  1.1900966E+00;  3.8540926E+04;  0.0000000E+00; -2.8268490E+00;  4.0000000E+04;  0.0000000E+00;  3.9503207E+04;  8.9699340E-01;  0.0000000E+00;  2.9310316E-01;  5.8878198E+02;
  1.3615303E+00;  9.9999998E-03;  4.0367637E-02;10008;  1.8990769E+00;  0.0000000E+00;  1.4505710E-02;  1.0009521E+03;  1.0261479E-01;  5.9903894E+02;3;  2.7065536E+01;  0.0000000E+00;  4.7475338E+00;0;  1.1953822E+00;  3.8540047E+04;  0.0000000E+00; -4.3044786E+00;  4.0000000E+04;  0.0000000E+00;  3.9503180E+04;  9.0615511E-01;  0.0000000E+00;  2.8922716E-01;  8.3994977E+02;
  1.3615594E+00;  9.9999998E-03; -5.0447453E-02;9999;  1.9032017E+00;  0.0000000E+00; -1.8556520E-02;  1.0009185E+03;  1.0261493E-01;  5.7784729E+02;3;  2.5984261E+01;  0.0000000E+00; -5.7411108E+00;0;  1.2079438E+00;  3.8538727E+04;  0.0000000E+00; -5.8167052E+00;  4.0000000E+04;  0.0000000E+00;  3.9502160E+04;  9.2224115E-01;  0.0000000E+00;  2.8570265E-01;  1.1130126E+03;
  1.3615594E+00;  9.9999998E-03;  5.0447453E-02;10009;  1.9032017E+00;  0.0000000E+00;  1.8556328E-02;  1.0009185E+03;  1.0261493E-01;  5.7784729E+02;3;  2.5984226E+01;  0.0000000E+00;  5.7410607E+00;0;  1.2079440E+00;  3.8538719E+04;  0.0000000E+00; -5.8167186E+00;  4.0000000E+04;  0.0000000E+00;  3.9502160E+04;  9.2224139E-01;  0.0000000E+00;  2.8570265E-01;  1.1130134E+03;
  1.3616275E+00;  9.9999998E-03; -7.0628315E-02;9997;  1.9132072E+00;  0.0000000E+00; -2.8014300E-02;  1.0007279E+03;  1.0261508E-01;  4.5785184E+02;3;  2.3001759E+01;  0.0000000E+00; -7.2768774E+00;0;  1.2596474E+00;  3.8533711E+04;  0.0000000E+00; -7.3826761E+00;  4.0000000E+04;  0.0000000E+00;  3.9492520E+04;  9.7691125E-01;  0.0000000E+00;  2.8273618E-01;  1.4343452E+03;
  1.3615917E+00;  9.9999998E-03; -6.0536318E-02;9998;  1.9077364E+00;  0.0000000E+00; -2.3290474E-02;  1.0008519E+03;  1.0261515E-01;  5.3588196E+02;3;  2.4697859E+01;  0.0000000E+00; -6.5842500E+00;0;  1.2257148E+00;  3.8537141E+04;  0.0000000E+00; -7.0338674E+00;  4.0000000E+04;  0.0000000E+00;  3.9498547E+04;  9.4180298E-01;  0.0000000E+00;  2.8391182E-01;  1.3461437E+03;
  1.3615917E+00;  9.9999998E-03;  6.0536318E-02;10010;  1.9077365E+00;  0.0000000E+00;  2.3290277E-02;  1.0008519E+03;  1.0261515E-01;  5.3588196E+02;3;  2.4697824E+01;  0.0000000E+00;  6.5842533E+00;0;  1.2257171E+00;  3.8537137E+04;  0.0000000E+00; -7.0338593E+00;  4.0000000E+04;  0.0000000E+00;  3.9498547E+04;  9.4180512E-01;  0.0000000E+00;  2.8391200E-01;  1.3461439E+03;
  1.3616662E+00;  9.9999998E-03; -8.0722414E-02;9996;  1.9199834E+00;  0.0000000E+00; -3.2649733E-02;  1.0005210E+03;  1.0261493E-01;  3.2764859E+02;3;  2.0821272E+01;  0.0000000E+00; -7.3519001E+00;0;  1.3200719E+00;  3.8527195E+04;  0.0000000E+00; -6.2246375E+00;  4.0000000E+04;  0.0000000E+00;  3.9482832E+04;  1.0376350E+00;  0.0000000E+00;  2.8243691E-01;  1.2916593E+03;
  1.3617436E+00;  9.9999998E-03; -1.0090638E-01;9994;  1.9274880E+00;  0.0000000E+00; -3.4330886E-02;  9.9991467E+02;  1.0261552E-01; -5.3673222E+01;3;  1.5563705E+01;  0.0000000E+00; -5.2297673E+00;0;  1.3357103E+00;  3.8512027E+04;  0.0000000E+00;  4.1828818E+00;  4.0000000E+04;  0.0000000E+00;  3.9450465E+04;  1.0890819E+00;  0.0000000E+00;  2.4662837E-01;  1.3966787E+03;
  1.3617066E+00;  9.9999998E-03; -9.0823643E-02;9995;  1.9254432E+00;  0.0000000E+00; -3.4544867E-02;  1.0001929E+03;  1.0261521E-01;  1.2130048E+02;3;  1.8188120E+01;  0.0000000E+00; -6.0091672E+00;0;  1.3565643E+00;  3.8518414E+04;  0.0000000E+00; -2.7456331E+00;  4.0000000E+04;  0.0000000E+00;  3.9465961E+04;  1.0856036E+00;  0.0000000E+00;  2.7096066E-01;  1.0112982E+03;
  1.3716761E+00;  9.9999998E-03; -3.0266088E-02;10023;  1.9013041E+00;  0.0000000E+00; -1.3223312E-02;  1.0011187E+03;  1.0259102E-01;  6.8634534E+02;3;  2.8465324E+01;  0.0000000E+00; -4.5710497E+00;0;  1.1288372E+00;  3.8591078E+04;  0.0000000E+00; -7.7687174E-01;  4.0000000E+04;  0.0000000E+00;  3.9481531E+04;  8.1983870E-01;  0.0000000E+00;  3.0899855E-01;  1.3912289E+02;
  1.3716606E+00;  9.9999998E-03; -2.0193119E-02;10024;  1.9013737E+00;  0.0000000E+00; -9.1287345E-03;  1.0010947E+03;  1.0259134E-01;  6.7167029E+02;3;  2.8953968E+01;  0.0000000E+00; -3.0261836E+00;0;  1.1638298E+00;  3.8590016E+04;  0.0000000E+00; -4.5817220E-01;  4.0000000E+04;  0.0000000E+00;  3.9480273E+04;  8.5332668E-01;  0.0000000E+00;  3.1050313E-01;  1.0694126E+02;
  1.3716514E+00;  9.9999998E-03; -1.0109057E-02;10025;  1.9023788E+00;  0.0000000E+00; -4.7607408E-03;  1.0010856E+03;  1.0259133E-01;  6.6612677E+02;3;  2.9024040E+01;  0.0000000E+00; -1.5186008E+00;0;  1.2015826E+00;  3.8588715E+04;  0.0000000E+00; -1.4651306E-01;  4.0000000E+04;  0.0000000E+00;  3.9480648E+04;  8.9034289E-01;  0.0000000E+00;  3.1123963E-01;  6.8503777E+01;
  1.3716483E+00;  9.9999998E-03; -4.8743024E-11;10026;  1.9028012E+00;  0.0000000E+00; -8.6683144E-08;  1.0010918E+03;  1.0259129E-01;  6.6993561E+02;3;  2.9008682E+01;  0.0000000E+00; -1.9032508E-05;0;  1.2156787E+00;  3.8588363E+04;  0.0000000E+00; -3.7650772E-12;  4.0000000E+04;  0.0000000E+00;  3.9481348E+04;  9.0429091E-01;  0.0000000E+00;  3.1138778E-01;  4.8357925E+01;
  1.3716514E+00;  9.9999998E-03;  1.0109056E-02;10027;  1.9023789E+00;  0.0000000E+00;  4.7605676E-03;  1.0010856E+03;  1.0259133E-01;  6.6612677E+02;3;  2.9024054E+01;  0.0000000E+00;  1.5185605E+00;0;  1.2015840E+00;  3.8588715E+04;  0.0000000E+00; -1.4651377E-01;  4.0000000E+04;  0.0000000E+00;  3.9480652E+04;  8.9034438E-01;  0.0000000E+00;  3.1123963E-01;  6.8507225E+01;
  1.3716606E+00;  9.9999998E-03;  2.0193115E-02;10028;  1.9013740E+00;  0.0000000E+00;  9.1285873E-03;  1.0010947E+03;  1.0259138E-01;  6.7167035E+02;3;  2.8953997E+01;  0.0000000E+00;  3.0261443E+00;0;  1.1638342E+00;  3.8590020E+04;  0.0000000E+00; -4.5816386E-01;  4.0000000E+04;  0.0000000E+00;  3.9480273E+04;  8.5333085E-01;  0.0000000E+00;  3.1050333E-01;  1.0694342E+02;
  1.3716761E+00;  9.9999998E-03;  3.0266086E-02;10029;  1.9013040E+00;  0.0000000E+00;  1.3223182E-02;  1.0011187E+03;  1.0259102E-01;  6.8634534E+02;3;  2.8465347E+01;  0.0000000E+00;  4.5710125E+00;0;  1.1288362E+00;  3.8591082E+04;  0.0000000E+00; -7.7686638E-01;  4.0000000E+04;  0.0000000E+00;  3.9481531E+04;  8.1983745E-01;  0.0000000E+00;  3.0899876E-01;  1.3912248E+02;
  1.3716979E+00;  9.9999998E-03; -4.0348157E-02;10022;  1.9031930E+00;  0.0000000E+00; -1.7600268E-02;  1.0011167E+03;  1.0259082E-01;  6.8513776E+02;3;  2.7639647E+01;  0.0000000E+00; -6.1018205E+00;0;  1.1167493E+00;  3.8590926E+04;  0.0000000E+00; -9.9664295E-01;  4.0000000E+04;  0.0000000E+00;  3.9481891E+04;  8.0899900E-01;  0.0000000E+00;  3.0775028E-01;  1.6831595E+02;
  1.3716979E+00;  9.9999998E-03;  4.0348157E-02;10030;  1.9031938E+00;  0.0000000E+00;  1.7600937E-02;  1.0011167E+03;  1.0259084E-01;  6.8513776E+02;3;  2.7639332E+01;  0.0000000E+00;  6.1018276E+00;0;  1.1167666E+00;  3.8590934E+04;  0.0000000E+00; -9.9665022E-01;  4.0000000E+04;  0.0000000E+00;  3.9481895E+04;  8.0901432E-01;  0.0000000E+00;  3.0775228E-01;  1.6831303E+02;
  1.3717252E+00;  9.9999998E-03; -5.0446279E-02;10021;  1.9067072E+00;  0.0000000E+00; -2.2091893E-02;  1.0010472E+03;  1.0259070E-01;  6.4238245E+02;3;  2.6487215E+01;  0.0000000E+00; -7.4551225E+00;0;  1.1252719E+00;  3.8589055E+04;  0.0000000E+00; -8.3379942E-01;  4.0000000E+04;  0.0000000E+00;  3.9478676E+04;  8.1826127E-01;  0.0000000E+00;  3.0701062E-01;  1.5970419E+02;
  1.3717252E+00;  9.9999998E-03;  5.0446279E-02;10031;  1.9067073E+00;  0.0000000E+00;  2.2091733E-02;  1.0010472E+03;  1.0259070E-01;  6.4238245E+02;3;  2.6487259E+01;  0.0000000E+00;  7.4550900E+00;0;  1.1252743E+00;  3.8589055E+04;  0.0000000E+00; -8.3379441E-01;  4.0000000E+04;  0.0000000E+00;  3.9478676E+04;  8.1826359E-01;  0.0000000E+00;  3.0701068E-01;  1.5970435E+02;
  1.3717563E+00;  9.9999998E-03; -6.0547896E-02;10020;  1.9109995E+00;  0.0000000E+00; -2.6293036E-02;  1.0009246E+03;  1.0259056E-01;  5.6715961E+02;3;  2.5004135E+01;  0.0000000E+00; -8.4705315E+00;0;  1.1429243E+00;  3.8585809E+04;  0.0000000E+00;  3.1664130E-01;  4.0000000E+04;  0.0000000E+00;  3.9472453E+04;  8.3711153E-01;  0.0000000E+00;  3.0581272E-01;  1.8405438E+02;
  1.3717563E+00;  9.9999998E-03;  6.0547896E-02;10032;  1.9109994E+00;  0.0000000E+00;  2.6292918E-02;  1.0009246E+03;  1.0259056E-01;  5.6715961E+02;3;  2.5004078E+01;  0.0000000E+00;  8.4704866E+00;0;  1.1429230E+00;  3.8585805E+04;  0.0000000E+00;  3.1664562E-01;  4.0000000E+04;  0.0000000E+00;  3.9472453E+04;  8.3710992E-01;  0.0000000E+00;  3.0581307E-01;  1.8404710E+02;
  1.3717904E+00;  9.9999998E-03; -7.0644729E-02;10019;  1.9167576E+00;  0.0000000E+00; -3.0593844E-02;  1.0007651E+03;  1.0259061E-01;  4.6927792E+02;3;  2.3271599E+01;  0.0000000E+00; -8.8189163E+00;0;  1.1864996E+00;  3.8581164E+04;  0.0000000E+00;  3.1515131E+00;  4.0000000E+04;  0.0000000E+00;  3.9464926E+04;  8.8090611E-01;  0.0000000E+00;  3.0559349E-01;  5.9438599E+02;
  1.3718250E+00;  9.9999998E-03; -8.0735832E-02;10018;  1.9225762E+00;  0.0000000E+00; -3.3465039E-02;  1.0005867E+03;  1.0259055E-01;  3.5978751E+02;3;  2.1432495E+01;  0.0000000E+00; -8.1306553E+00;0;  1.2295115E+00;  3.8576488E+04;  0.0000000E+00;  8.3603725E+00;  4.0000000E+04;  0.0000000E+00;  3.9455926E+04;  9.2965716E-01;  0.0000000E+00;  2.9985431E-01;  1.4427806E+03;
  1.3718568E+00;  9.9999998E-03; -9.0814680E-02;10017;  1.9265835E+00;  0.0000000E+00; -3.5497449E-02;  1.0004608E+03;  1.0259059E-01;  2.8263110E+02;3;  1.9464081E+01;  0.0000000E+00; -7.5948868E+00;0;  1.2450275E+00;  3.8574723E+04;  0.0000000E+00;  1.6498678E+01;  4.0000000E+04;  0.0000000E+00;  3.9447801E+04;  9.5542175E-01;  0.0000000E+00;  2.8960574E-01;  2.7761047E+03;
  1.3818539E+00;  9.9999998E-03; -4.0283278E-02;10037;  1.9028366E+00;  0.0000000E+00; -1.8410463E-02;  1.0015215E+03;  1.0257134E-01;  9.0988873E+02;3;  2.8247755E+01;  0.0000000E+00; -8.0004606E+00;0;  9.5856243E-01;  3.8644777E+04;  0.0000000E+00;  2.0938399E+00;  4.0000000E+04;  0.0000000E+00;  3.9472848E+04;  6.3710421E-01;  0.0000000E+00;  3.2145822E-01;  4.4243530E+02;
  1.3818332E+00;  9.9999998E-03; -3.0194616E-02;10038;  1.9008367E+00;  0.0000000E+00; -1.4529909E-02;  1.0015078E+03;  1.0257173E-01;  9.0166705E+02;3;  2.9544531E+01;  0.0000000E+00; -5.9741659E+00;0;  9.6557415E-01;  3.8646664E+04;  0.0000000E+00;  8.9596212E-01;  4.0000000E+04;  0.0000000E+00;  3.9469285E+04;  6.4249986E-01;  0.0000000E+00;  3.2307428E-01;  2.6637515E+02;
  1.3818191E+00;  9.9999998E-03; -2.0120915E-02;10039;  1.9011264E+00;  0.0000000E+00; -1.0107555E-02;  1.0014344E+03;  1.0257190E-01;  8.5785461E+02;3;  3.0276583E+01;  0.0000000E+00; -3.8262153E+00;0;  1.0015397E+00;  3.8645910E+04;  0.0000000E+00;  3.2146037E-01;  4.0000000E+04;  0.0000000E+00;  3.9463977E+04;  6.7819768E-01;  0.0000000E+00;  3.2334197E-01;  1.4105589E+02;
  1.3818119E+00;  9.9999998E-03; -1.0059083E-02;10040;  1.9020907E+00;  0.0000000E+00; -5.0947373E-03;  1.0013521E+03;  1.0257192E-01;  8.0860699E+02;3;  3.0455965E+01;  0.0000000E+00; -1.8478582E+00;0;  1.0372484E+00;  3.8643582E+04;  0.0000000E+00;  7.2753884E-02;  4.0000000E+04;  0.0000000E+00;  3.9459602E+04;  7.1426183E-01;  0.0000000E+00;  3.2298654E-01;  6.5360909E+01;
  1.3818095E+00;  9.9999998E-03;  4.0520953E-10;10041;  1.9024359E+00;  0.0000000E+00; -9.2323219E-08;  1.0013195E+03;  1.0257196E-01;  7.8914850E+02;3;  3.0481882E+01;  0.0000000E+00; -2.1152198E-05;0;  1.0497159E+00;  3.8642586E+04;  0.0000000E+00; -6.1287459E-12;  4.0000000E+04;  0.0000000E+00;  3.9458070E+04;  7.2684652E-01;  0.0000000E+00;  3.2286936E-01;  4.1408821E+01;
  1.3818119E+00;  9.9999998E-03;  1.0059085E-02;10042;  1.9020908E+00;  0.0000000E+00;  5.0945505E-03;  1.0013521E+03;  1.0257192E-01;  8.0860699E+02;3;  3.0455963E+01;  0.0000000E+00;  1.8478129E+00;0;  1.0372504E+00;  3.8643582E+04;  0.0000000E+00;  7.2758131E-02;  4.0000000E+04;  0.0000000E+00;  3.9459605E+04;  7.1426386E-01;  0.0000000E+00;  3.2298654E-01;  6.5360062E+01;
  1.3818191E+00;  9.9999998E-03;  2.0120915E-02;10043;  1.9011266E+00;  0.0000000E+00;  1.0107399E-02;  1.0014344E+03;  1.0257190E-01;  8.5785461E+02;3;  3.0276587E+01;  0.0000000E+00;  3.8261738E+00;0;  1.0015442E+00;  3.8645910E+04;  0.0000000E+00;  3.2146439E-01;  4.0000000E+04;  0.0000000E+00;  3.9463977E+04;  6.7820174E-01;  0.0000000E+00;  3.2334253E-01;  1.4105399E+02;
  1.3818332E+00;  9.9999998E-03;  3.0194616E-02;10044;  1.9008367E+00;  0.0000000E+00;  1.4529658E-02;  1.0015078E+03;  1.0257173E-01;  9.0166705E+02;3;  2.9544430E+01;  0.0000000E+00;  5.9741435E+00;0;  9.6557468E-01;  3.8646660E+04;  0.0000000E+00;  8.9595556E-01;  4.0000000E+04;  0.0000000E+00;  3.9469285E+04;  6.4250016E-01;  0.0000000E+00;  3.2307452E-01;  2.6637897E+02;
  1.3818539E+00;  9.9999998E-03;  4.0283281E-02;10045;  1.9028369E+00;  0.0000000E+00;  1.8410474E-02;  1.0015215E+03;  1.0257134E-01;  9.0988873E+02;3;  2.8247730E+01;  0.0000000E+00;  8.0005074E+00;0;  9.5856893E-01;  3.8644773E+04;  0.0000000E+00;  2.0938542E+00;  4.0000000E+04;  0.0000000E+00;  3.9472848E+04;  6.3711011E-01;  0.0000000E+00;  3.2145885E-01;  4.4243939E+02;
  1.3818792E+00;  9.9999998E-03; -5.0384399E-02;10036;  1.9065969E+00;  0.0000000E+00; -2.2673870E-02;  1.0014771E+03;  1.0257138E-01;  8.8317133E+02;3;  2.7057596E+01;  0.0000000E+00; -9.5037136E+00;0;  9.7581625E-01;  3.8641809E+04;  0.0000000E+00;  4.3756909E+00;  4.0000000E+04;  0.0000000E+00;  3.9472641E+04;  6.5503120E-01;  0.0000000E+00;  3.2078502E-01;  7.2554126E+02;
  1.3818792E+00;  9.9999998E-03;  5.0384399E-02;10046;  1.9065971E+00;  0.0000000E+00;  2.2673944E-02;  1.0014771E+03;  1.0257139E-01;  8.8317133E+02;3;  2.7057585E+01;  0.0000000E+00;  9.5037146E+00;0;  9.7582161E-01;  3.8641801E+04;  0.0000000E+00;  4.3757095E+00;  4.0000000E+04;  0.0000000E+00;  3.9472641E+04;  6.5503556E-01;  0.0000000E+00;  3.2078609E-01;  7.2553992E+02;
  5.4986140E-04;  9.9999998E-03;  6.9954447E-02;2484;  2.5943094E-01;  0.0000000E+00; -1.1950319E-02;  9.8943707E+02;  1.0000000E-01; -8.7512090E+03;3;  9.0525291E+01;  0.0000000E+00;  1.7690331E+00;0;  2.1046231E+00;  3.9120535E+04;  0.0000000E+00;  5.5658454E-03;  4.0000000E+04;  0.0000000E+00;  4.0040969E+04;  2.1659689E+00;  0.0000000E+00; -6.1345909E-02;  5.9908521E+03;
  5.6480954E-04;  9.9999998E-03;  7.9946525E-02;2485;  2.5837293E-01;  0.0000000E+00; -1.3745047E-02;  9.8937384E+02;  1.0000000E-01; -8.8035537E+03;3;  9.2002037E+01;  0.0000000E+00;  1.4619747E+00;0;  2.0919037E+00;  3.9114535E+04;  0.0000000E+00;  9.1589037E-03;  4.0000000E+04;  0.0000000E+00;  4.0042105E+04;  2.1543889E+00;  0.0000000E+00; -6.2485289E-02;  6.1458613E+03;
  5.7560654E-04;  9.9999998E-03;  8.9938119E-02;2486;  2.5710279E-01;  0.0000000E+00; -1.5616769E-02;  9.8933826E+02;  1.0000000E-01; -8.8330342E+03;3;  9.3112633E+01;  0.0000000E+00;  9.7219849E-01;0;  2.0767560E+00;  3.9110734E+04;  0.0000000E+00;  1.3396153E-02;  4.0000000E+04;  0.0000000E+00;  4.0043098E+04;  2.1408985E+00;  0.0000000E+00; -6.4142391E-02;  6.2774932E+03;
  5.8001059E-04;  9.9999998E-03;  9.9929288E-02;2487;  2.5556993E-01;  0.0000000E+00; -1.7594926E-02;  9.8933984E+02;  1.0000000E-01; -8.8317500E+03;3;  9.3637047E+01;  0.0000000E+00;  3.1141609E-01;0;  2.0589097E+00;  3.9110266E+04;  0.0000000E+00;  1.7529495E-02;  4.0000000E+04;  0.0000000E+00;  4.0043793E+04;  2.1251667E+00;  0.0000000E+00; -6.6256933E-02;  6.3597427E+03;
  5.7555543E-04;  9.9999998E-03;  1.0991994E-01;2488;  2.5370815E-01;  0.0000000E+00; -1.9712925E-02;  9.8939337E+02;  1.0000000E-01; -8.7874062E+03;3;  9.3291328E+01;  0.0000000E+00; -4.9455443E-01;0;  2.0380561E+00;  3.9114234E+04;  0.0000000E+00;  2.0317180E-02;  4.0000000E+04;  0.0000000E+00;  4.0043891E+04;  2.1067185E+00;  0.0000000E+00; -6.8662435E-02;  6.3613906E+03;
  5.5989652E-04;  9.9999998E-03;  1.1991020E-01;2489;  2.5143486E-01;  0.0000000E+00; -2.2008311E-02;  9.8950586E+02;  1.0000000E-01; -8.6941738E+03;3;  9.1834869E+01;  0.0000000E+00; -1.4136168E+00;0;  2.0138223E+00;  3.9123906E+04;  0.0000000E+00;  2.0049853E-02;  4.0000000E+04;  0.0000000E+00;  4.0043051E+04;  2.0848999E+00;  0.0000000E+00; -7.1077593E-02;  6.2474731E+03;
  5.3120864E-04;  9.9999998E-03;  1.2990038E-01;2490;  2.4865106E-01;  0.0000000E+00; -2.4523780E-02;  9.8969281E+02;  1.0000000E-01; -8.5393145E+03;3;  8.8965126E+01;  0.0000000E+00; -2.4093511E+00;0;  1.9857608E+00;  3.9140434E+04;  0.0000000E+00;  1.4728364E-02;  4.0000000E+04;  0.0000000E+00;  4.0041145E+04;  2.0588717E+00;  0.0000000E+00; -7.3110901E-02;  5.9815625E+03;
  4.8800439E-04;  9.9999998E-03;  1.3989075E-01;2491;  2.4524063E-01;  0.0000000E+00; -2.7311165E-02;  9.8996063E+02;  1.0000000E-01; -8.3174434E+03;3;  8.4467468E+01;  0.0000000E+00; -3.4741693E+00;0;  1.9533230E+00;  3.9164727E+04;  0.0000000E+00;  2.3972602E-03;  4.0000000E+04;  0.0000000E+00;  4.0037605E+04;  2.0275981E+00;  0.0000000E+00; -7.4275106E-02;  5.5289707E+03;
  4.2929343E-04;  9.9999998E-03;  1.4988187E-01;2492;  2.4106538E-01;  0.0000000E+00; -3.0429119E-02;  9.9031824E+02;  1.0000000E-01; -8.0211558E+03;3;  7.8170303E+01;  0.0000000E+00; -4.5546627E+00;0;  1.9158406E+00;  3.9197586E+04;  0.0000000E+00; -1.8492235E-02;  4.0000000E+04;  0.0000000E+00;  4.0032586E+04;  1.9898473E+00;  0.0000000E+00; -7.4006677E-02;  4.8615210E+03;
  3.5504240E-04;  9.9999998E-03;  1.5987466E-01;2493;  2.3593542E-01;  0.0000000E+00; -3.3967204E-02;  9.9076733E+02;  1.0000000E-01; -7.6490674E+03;3;  7.0160713E+01;  0.0000000E+00; -5.7979574E+00;0;  1.8725742E+00;  3.9239465E+04;  0.0000000E+00; -4.8866745E-02;  4.0000000E+04;  0.0000000E+00;  4.0025660E+04;  1.9442301E+00;  0.0000000E+00; -7.1655869E-02;  3.9641489E+03;
  2.6551494E-04;  9.9999998E-03;  1.6987056E-01;2494;  2.2929078E-01;  0.0000000E+00; -3.8068701E-02;  9.9130969E+02;  1.0000000E-01; -7.1997471E+03;3;  6.1845020E+01;  0.0000000E+00; -7.0433893E+00;0;  1.8227060E+00;  3.9290281E+04;  0.0000000E+00; -8.8481218E-02;  4.0000000E+04;  0.0000000E+00;  4.0017004E+04;  1.8892401E+00;  0.0000000E+00; -6.6534117E-02;  2.8407468E+03;
  1.6181497E-04;  9.9999998E-03;  1.7987229E-01;2495;  2.1830285E-01;  0.0000000E+00; -4.2924300E-02;  9.9194012E+02;  1.0000000E-01; -6.6774409E+03;3;  5.8425957E+01;  0.0000000E+00; -9.9400902E+00;0;  1.7652549E+00;  3.9349730E+04;  0.0000000E+00; -1.3543941E-01;  4.0000000E+04;  0.0000000E+00;  4.0006742E+04;  1.8233105E+00;  0.0000000E+00; -5.8055691E-02;  1.5219354E+03;
  4.9049209E-05;  9.9999998E-03;  1.8988234E-01;2496;  1.9889319E-01;  0.0000000E+00; -4.7038347E-02;  9.9264905E+02;  1.0000000E-01; -6.0901489E+03;3;  5.7873356E+01;  0.0000000E+00; -1.8354044E+01;0;  1.6989937E+00;  3.9416547E+04;  0.0000000E+00; -1.8603742E-01;  4.0000000E+04;  0.0000000E+00;  3.9995391E+04;  1.7450093E+00;  0.0000000E+00; -4.6015657E-02;  2.6725717E+02;
 -6.5442095E-05;  9.9999998E-03;  1.9990143E-01;2497;  1.7148262E-01;  0.0000000E+00; -4.7885656E-02;  9.9342310E+02;  1.0000000E-01; -5.4488335E+03;3;  5.1122257E+01;  0.0000000E+00; -2.8523558E+01;0;  1.6228114E+00;  3.9489262E+04;  0.0000000E+00; -2.3506245E-01;  4.0000000E+04;  0.0000000E+00;  3.9983316E+04;  1.6535430E+00;  0.0000000E+00; -3.0731604E-02;  1.5754297E+03;
 -1.7194702E-04;  9.9999998E-03;  2.0992751E-01;2498;  1.3990605E-01;  0.0000000E+00; -4.5052856E-02;  9.9424219E+02;  1.0000000E-01; -4.7702354E+03;3;  3.9547295E+01;  0.0000000E+00; -3.6268959E+01;0;  1.5361925E+00;  3.9565602E+04;  0.0000000E+00; -2.7659380E-01;  4.0000000E+04;  0.0000000E+00;  3.9971344E+04;  1.5490732E+00;  0.0000000E+00; -1.2880716E-02;  3.1302590E+03;
 -2.6258966E-04;  9.9999998E-03;  2.1995734E-01;2499;  1.0780378E-01;  0.0000000E+00; -3.9158594E-02;  9.9508160E+02;  1.0000000E-01; -4.0747983E+03;3;  2.5067566E+01;  0.0000000E+00; -4.0852528E+01;0;  1.4394245E+00;  3.9643262E+04;  0.0000000E+00; -3.0514210E-01;  4.0000000E+04;  0.0000000E+00;  3.9959984E+04;  1.4327908E+00;  0.0000000E+00;  6.6337660E-03;  4.5997563E+03;
 -3.3118343E-04;  9.9999998E-03;  2.2998765E-01;2500;  7.8378901E-02;  0.0000000E+00; -3.2150172E-02;  9.9591791E+02;  1.0000000E-01; -3.3819290E+03;3;  1.0568702E+01;  0.0000000E+00; -4.2205517E+01;0;  1.3337207E+00;  3.9719406E+04;  0.0000000E+00; -3.1679040E-01;  4.0000000E+04;  0.0000000E+00;  3.9950434E+04;  1.3068149E+00;  0.0000000E+00;  2.6905729E-02;  5.8870103E+03;
  1.0706112E-02;  9.9999998E-03;  6.9952123E-02;2544;  2.5782460E-01;  0.0000000E+00; -1.0623205E-02;  9.8881683E+02;  1.0000000E-01; -9.2650215E+03;3;  9.4291496E+01;  0.0000000E+00;  1.5429420E+00;0;  1.9681634E+00;  3.9065945E+04;  0.0000000E+00;  3.9446368E-03;  4.0000000E+04;  0.0000000E+00;  4.0047703E+04;  2.0332937E+00;  0.0000000E+00; -6.5130405E-02;  6.8934058E+03;
  1.0721982E-02;  9.9999998E-03;  7.9944134E-02;2545;  2.5681704E-01;  0.0000000E+00; -1.2151531E-02;  9.8873914E+02;  1.0000000E-01; -9.3294150E+03;3;  9.5955414E+01;  0.0000000E+00;  1.2671316E+00;0;  1.9562210E+00;  3.9058336E+04;  0.0000000E+00;  7.4177911E-03;  4.0000000E+04;  0.0000000E+00;  4.0049199E+04;  2.0223837E+00;  0.0000000E+00; -6.6162750E-02;  7.0861699E+03;
  1.0734363E-02;  9.9999998E-03;  8.9935541E-02;2546;  2.5563014E-01;  0.0000000E+00; -1.3713467E-02;  9.8868024E+02;  1.0000000E-01; -9.3782041E+03;3;  9.7347885E+01;  0.0000000E+00;  8.2513332E-01;0;  1.9422188E+00;  3.9052641E+04;  0.0000000E+00;  1.1763485E-02;  4.0000000E+04;  0.0000000E+00;  4.0050637E+04;  2.0100312E+00;  0.0000000E+00; -6.7812443E-02;  7.2610361E+03;
  1.0740789E-02;  9.9999998E-03;  9.9926509E-02;2547;  2.5421971E-01;  0.0000000E+00; -1.5326258E-02;  9.8865759E+02;  1.0000000E-01; -9.3969688E+03;3;  9.8186119E+01;  0.0000000E+00;  2.2436246E-01;0;  1.9260315E+00;  3.9049781E+04;  0.0000000E+00;  1.6295943E-02;  4.0000000E+04;  0.0000000E+00;  4.0051668E+04;  1.9960856E+00;  0.0000000E+00; -7.0054203E-02;  7.3897041E+03;
  1.0738677E-02;  9.9999998E-03;  1.0991699E-01;2548;  2.5252563E-01;  0.0000000E+00; -1.7010633E-02;  9.8867969E+02;  1.0000000E-01; -9.3786484E+03;3;  9.8226532E+01;  0.0000000E+00; -5.0734097E-01;0;  1.9075251E+00;  3.9051098E+04;  0.0000000E+00;  1.9779021E-02;  4.0000000E+04;  0.0000000E+00;  4.0051996E+04;  1.9802759E+00;  0.0000000E+00; -7.2750822E-02;  7.4372041E+03;
  1.0725596E-02;  9.9999998E-03;  1.1990711E-01;2549;  2.5047085E-01;  0.0000000E+00; -1.8791130E-02;  9.8875909E+02;  1.0000000E-01; -9.3128721E+03;3;  9.7178421E+01;  0.0000000E+00; -1.3439853E+00;0;  1.8865399E+00;  3.9057848E+04;  0.0000000E+00;  2.0430779E-02;  4.0000000E+04;  0.0000000E+00;  4.0051469E+04;  1.9621819E+00;  0.0000000E+00; -7.5641938E-02;  7.3632842E+03;
  1.0699472E-02;  9.9999998E-03;  1.2989710E-01;2550;  2.4796098E-01;  0.0000000E+00; -2.0694530E-02;  9.8890869E+02;  1.0000000E-01; -9.1889258E+03;3;  9.4740173E+01;  0.0000000E+00; -2.2201674E+00;0;  1.8628525E+00;  3.9071254E+04;  0.0000000E+00;  1.6079588E-02;  4.0000000E+04;  0.0000000E+00;  4.0049605E+04;  1.9411932E+00;  0.0000000E+00; -7.8340784E-02;  7.1246641E+03;
  1.0658661E-02;  9.9999998E-03;  1.3988718E-01;2551;  2.4488537E-01;  0.0000000E+00; -2.2763802E-02;  9.8913763E+02;  1.0000000E-01; -8.9992520E+03;3;  9.0653282E+01;  0.0000000E+00; -3.0399203E+00;0;  1.8361560E+00;  3.9092445E+04;  0.0000000E+00;  4.4948589E-03;  4.0000000E+04;  0.0000000E+00;  4.0046238E+04;  1.9165012E+00;  0.0000000E+00; -8.0345199E-02;  6.6784102E+03;
  1.0601760E-02;  9.9999998E-03;  1.4987764E-01;2552;  2.4111342E-01;  0.0000000E+00; -2.5041247E-02;  9.8945416E+02;  1.0000000E-01; -8.7370371E+03;3;  8.4706367E+01;  0.0000000E+00; -3.7732847E+00;0;  1.8060402E+00;  3.9122191E+04;  0.0000000E+00; -1.6215265E-02;  4.0000000E+04;  0.0000000E+00;  4.0040941E+04;  1.8870870E+00;  0.0000000E+00; -8.1046782E-02;  5.9872109E+03;
  1.0528469E-02;  9.9999998E-03;  1.5986900E-01;2553;  2.3649782E-01;  0.0000000E+00; -2.7620913E-02;  9.8986249E+02;  1.0000000E-01; -8.3987256E+03;3;  7.6836998E+01;  0.0000000E+00; -4.2183342E+00;0;  1.7720068E+00;  3.9161266E+04;  0.0000000E+00; -4.7404617E-02;  4.0000000E+04;  0.0000000E+00;  4.0033609E+04;  1.8517087E+00;  0.0000000E+00; -7.9701953E-02;  5.0267861E+03;
  1.0438988E-02;  9.9999998E-03;  1.6986218E-01;2554;  2.3088375E-01;  0.0000000E+00; -3.0723045E-02;  9.9036792E+02;  1.0000000E-01; -7.9799717E+03;3;  6.6815414E+01;  0.0000000E+00; -3.7830305E+00;0;  1.7334608E+00;  3.9209977E+04;  0.0000000E+00; -8.9314036E-02;  4.0000000E+04;  0.0000000E+00;  4.0023969E+04;  1.8089471E+00;  0.0000000E+00; -7.5486302E-02;  3.7928372E+03;
  1.0333329E-02;  9.9999998E-03;  1.7985882E-01;2555;  2.2367325E-01;  0.0000000E+00; -3.4710005E-02;  9.9096619E+02;  1.0000000E-01; -7.4843315E+03;3;  5.7794876E+01;  0.0000000E+00; -3.1706634E+00;0;  1.6895963E+00;  3.9267953E+04;  0.0000000E+00; -1.4054681E-01;  4.0000000E+04;  0.0000000E+00;  4.0012504E+04;  1.7572424E+00;  0.0000000E+00; -6.7646123E-02;  2.3087009E+03;
  1.0214361E-02;  9.9999998E-03;  1.8986110E-01;2556;  2.1116872E-01;  0.0000000E+00; -3.9245855E-02;  9.9165234E+02;  1.0000000E-01; -6.9158540E+03;3;  5.3142422E+01;  0.0000000E+00; -3.4878120E+00;0;  1.6391844E+00;  3.9334453E+04;  0.0000000E+00; -1.9782031E-01;  4.0000000E+04;  0.0000000E+00;  3.9999289E+04;  1.6949270E+00;  0.0000000E+00; -5.5742636E-02;  6.6533246E+02;
  1.0089252E-02;  9.9999998E-03;  1.9987085E-01;2557;  1.8992256E-01;  0.0000000E+00; -4.2507600E-02;  9.9241339E+02;  1.0000000E-01; -6.2853530E+03;3;  4.9482193E+01;  0.0000000E+00; -6.6131196E+00;0;  1.5805415E+00;  3.9408086E+04;  0.0000000E+00; -2.5608087E-01;  4.0000000E+04;  0.0000000E+00;  3.9985211E+04;  1.6204473E+00;  0.0000000E+00; -3.9905746E-02;  1.2815481E+03;
  9.9685378E-03;  9.9999998E-03;  2.0988742E-01;2558;  1.6272090E-01;  0.0000000E+00; -4.3320138E-02;  9.9323486E+02;  1.0000000E-01; -5.6047798E+03;3;  3.9760933E+01;  0.0000000E+00; -1.0378493E+01;0;  1.5121429E+00;  3.9486840E+04;  0.0000000E+00; -3.0909753E-01;  4.0000000E+04;  0.0000000E+00;  3.9970781E+04;  1.5329331E+00;  0.0000000E+00; -2.0790173E-02;  3.1261086E+03;
  9.8608760E-03;  9.9999998E-03;  2.1990915E-01;2559;  1.3386965E-01;  0.0000000E+00; -4.2201675E-02;  9.9409406E+02;  1.0000000E-01; -4.8929482E+03;3;  2.7440409E+01;  0.0000000E+00; -1.4791821E+01;0;  1.4331634E+00;  3.9568301E+04;  0.0000000E+00; -3.5045728E-01;  4.0000000E+04;  0.0000000E+00;  3.9956871E+04;  1.4325188E+00;  0.0000000E+00;  6.4458326E-04;  4.9160752E+03;
  9.7725410E-03;  9.9999998E-03;  2.2993419E-01;2560;  1.0605060E-01;  0.0000000E+00; -3.9753672E-02;  9.9496796E+02;  1.0000000E-01; -4.1689688E+03;3;  1.4847807E+01;  0.0000000E+00; -2.0953051E+01;0;  1.3436831E+00;  3.9649703E+04;  0.0000000E+00; -3.7474972E-01;  4.0000000E+04;  0.0000000E+00;  3.9944727E+04;  1.3203797E+00;  0.0000000E+00;  2.3303431E-02;  6.5274058E+03;
  2.0848650E-02;  9.9999998E-03;  6.9946207E-02;2605;  2.5612435E-01;  0.0000000E+00; -9.3087209E-03;  9.8854059E+02;  1.0000000E-01; -9.4939043E+03;3;  8.8680153E+01;  0.0000000E+00;  1.3249894E+00;0;  1.7481570E+00;  3.9039105E+04;  0.0000000E+00;  2.0055340E-03;  4.0000000E+04;  0.0000000E+00;  4.0053887E+04;  1.8141485E+00;  0.0000000E+00; -6.5991543E-02;  7.6841626E+03;
  2.0865608E-02;  9.9999998E-03;  7.9937398E-02;2606;  2.5512832E-01;  0.0000000E+00; -1.0579265E-02;  9.8844452E+02;  1.0000000E-01; -9.5735068E+03;3;  9.0475403E+01;  0.0000000E+00;  1.0935061E+00;0;  1.7374936E+00;  3.9029910E+04;  0.0000000E+00;  4.9045347E-03;  4.0000000E+04;  0.0000000E+00;  4.0055688E+04;  1.8043340E+00;  0.0000000E+00; -6.6840380E-02;  7.9157388E+03;
  2.0879742E-02;  9.9999998E-03;  8.9927956E-02;2607;  2.5397581E-01;  0.0000000E+00; -1.1846844E-02;  9.8836530E+02;  1.0000000E-01; -9.6391348E+03;3;  9.2067596E+01;  0.0000000E+00;  7.1821296E-01;0;  1.7252135E+00;  3.9022102E+04;  0.0000000E+00;  8.6925915E-03;  4.0000000E+04;  0.0000000E+00;  4.0057434E+04;  1.7936164E+00;  0.0000000E+00; -6.8402916E-02;  8.1384019E+03;
  2.0888576E-02;  9.9999998E-03;  9.9917963E-02;2608;  2.5262788E-01;  0.0000000E+00; -1.3119968E-02;  9.8831268E+02;  1.0000000E-01; -9.6827383E+03;3;  9.3243423E+01;  0.0000000E+00;  2.1033397E-01;0;  1.7113359E+00;  3.9016672E+04;  0.0000000E+00;  1.2750451E-02;  4.0000000E+04;  0.0000000E+00;  4.0058801E+04;  1.7820356E+00;  0.0000000E+00; -7.0699722E-02;  8.3225859E+03;
  2.0889679E-02;  9.9999998E-03;  1.0990749E-01;2609;  2.5102967E-01;  0.0000000E+00; -1.4411478E-02;  9.8830121E+02;  1.0000000E-01; -9.6922197E+03;3;  9.3734131E+01;  0.0000000E+00; -4.2398176E-01;0;  1.6959156E+00;  3.9014906E+04;  0.0000000E+00;  1.5918028E-02;  4.0000000E+04;  0.0000000E+00;  4.0059730E+04;  1.7695543E+00;  0.0000000E+00; -7.3638655E-02;  8.4305547E+03;
  2.0880196E-02;  9.9999998E-03;  1.1989649E-01;2610;  2.4910837E-01;  0.0000000E+00; -1.5734384E-02;  9.8833954E+02;  1.0000000E-01; -9.6604678E+03;3;  9.3280708E+01;  0.0000000E+00; -1.1544182E+00;0;  1.6790148E+00;  3.9017855E+04;  0.0000000E+00;  1.6494261E-02;  4.0000000E+04;  0.0000000E+00;  4.0059602E+04;  1.7560117E+00;  0.0000000E+00; -7.6996885E-02;  8.4174150E+03;
  2.0858115E-02;  9.9999998E-03;  1.2988523E-01;2611;  2.4677445E-01;  0.0000000E+00; -1.7109996E-02;  9.8843994E+02;  1.0000000E-01; -9.5773096E+03;3;  9.1571838E+01;  0.0000000E+00; -1.8795549E+00;0;  1.6606640E+00;  3.9027094E+04;  0.0000000E+00;  1.2374613E-02;  4.0000000E+04;  0.0000000E+00;  4.0058223E+04;  1.7410772E+00;  0.0000000E+00; -8.0413252E-02;  8.2332949E+03;
  2.0821296E-02;  9.9999998E-03;  1.3987391E-01;2612;  2.4392356E-01;  0.0000000E+00; -1.8578883E-02;  9.8861554E+02;  1.0000000E-01; -9.4318320E+03;3;  8.8347237E+01;  0.0000000E+00; -2.6273377E+00;0;  1.6408372E+00;  3.9043617E+04;  0.0000000E+00;  1.3843046E-03;  4.0000000E+04;  0.0000000E+00;  4.0055066E+04;  1.7242291E+00;  0.0000000E+00; -8.3391935E-02;  7.8267666E+03;
  2.0768233E-02;  9.9999998E-03;  1.4986284E-01;2613;  2.4043436E-01;  0.0000000E+00; -2.0192856E-02;  9.8887256E+02;  1.0000000E-01; -9.2188506E+03;3;  8.3321136E+01;  0.0000000E+00; -3.1801069E+00;0;  1.6194110E+00;  3.9068656E+04;  0.0000000E+00; -1.8293427E-02;  4.0000000E+04;  0.0000000E+00;  4.0049898E+04;  1.7047124E+00;  0.0000000E+00; -8.5301444E-02;  7.1503335E+03;
  2.0698309E-02;  9.9999998E-03;  1.5985256E-01;2614;  2.3620793E-01;  0.0000000E+00; -2.2076275E-02;  9.8921771E+02;  1.0000000E-01; -8.9329326E+03;3;  7.6241837E+01;  0.0000000E+00; -3.4552541E+00;0;  1.5961806E+00;  3.9102957E+04;  0.0000000E+00; -4.7991391E-02;  4.0000000E+04;  0.0000000E+00;  4.0042184E+04;  1.6815097E+00;  0.0000000E+00; -8.5329175E-02;  6.1687222E+03;
  2.0611504E-02;  9.9999998E-03;  1.6984381E-01;2615;  2.3128667E-01;  0.0000000E+00; -2.4446677E-02;  9.8965808E+02;  1.0000000E-01; -8.5681035E+03;3;  6.7086121E+01;  0.0000000E+00; -3.4101572E+00;0;  1.5707915E+00;  3.9147109E+04;  0.0000000E+00; -8.8149197E-02;  4.0000000E+04;  0.0000000E+00;  4.0032113E+04;  1.6533314E+00;  0.0000000E+00; -8.2539961E-02;  4.8669707E+03;
  2.0507559E-02;  9.9999998E-03;  1.7983787E-01;2616;  2.2544464E-01;  0.0000000E+00; -2.7485622E-02;  9.9019495E+02;  1.0000000E-01; -8.1233257E+03;3;  5.6401939E+01;  0.0000000E+00; -2.7366781E+00;0;  1.5425969E+00;  3.9201152E+04;  0.0000000E+00; -1.3792355E-01;  4.0000000E+04;  0.0000000E+00;  4.0019543E+04;  1.6186359E+00;  0.0000000E+00; -7.6038964E-02;  3.2587080E+03;
  2.0386761E-02;  9.9999998E-03;  1.8983656E-01;2617;  2.1720989E-01;  0.0000000E+00; -3.1265851E-02;  9.9082214E+02;  1.0000000E-01; -7.6036860E+03;3;  4.8144043E+01;  0.0000000E+00; -1.9480479E+00;0;  1.5104635E+00;  3.9264383E+04;  0.0000000E+00; -1.9496427E-01;  4.0000000E+04;  0.0000000E+00;  4.0004949E+04;  1.5756507E+00;  0.0000000E+00; -6.5187208E-02;  1.4021550E+03;
  2.0253537E-02;  9.9999998E-03;  1.9984183E-01;2618;  2.0225546E-01;  0.0000000E+00; -3.5001751E-02;  9.9153668E+02;  1.0000000E-01; -7.0117031E+03;3;  4.4645973E+01;  0.0000000E+00; -2.8108683E+00;0;  1.4725249E+00;  3.9335961E+04;  0.0000000E+00; -2.5533715E-01;  4.0000000E+04;  0.0000000E+00;  3.9988879E+04;  1.5223770E+00;  0.0000000E+00; -4.9852148E-02;  7.8498608E+02;
  2.0118047E-02;  9.9999998E-03;  2.0985371E-01;2619;  1.7855875E-01;  0.0000000E+00; -3.6611870E-02;  9.9232422E+02;  1.0000000E-01; -6.3592275E+03;3;  3.9107990E+01;  0.0000000E+00; -5.2194805E+00;0;  1.4263725E+00;  3.9414105E+04;  0.0000000E+00; -3.1372628E-01;  4.0000000E+04;  0.0000000E+00;  3.9972195E+04;  1.4569330E+00;  0.0000000E+00; -3.0560434E-02;  2.8848599E+03;
  1.9991981E-02;  9.9999998E-03;  2.1987034E-01;2620;  1.5075216E-01;  0.0000000E+00; -3.6347769E-02;  9.9316760E+02;  1.0000000E-01; -5.6605312E+03;3;  2.9516747E+01;  0.0000000E+00; -6.9442425E+00;0;  1.3699996E+00;  3.9496465E+04;  0.0000000E+00; -3.6396471E-01;  4.0000000E+04;  0.0000000E+00;  3.9955758E+04;  1.3782294E+00;  0.0000000E+00; -8.2297288E-03;  4.9979688E+03;
  1.9883292E-02;  9.9999998E-03;  2.2988993E-01;2621;  1.2289404E-01;  0.0000000E+00; -3.5290390E-02;  9.9404205E+02;  1.0000000E-01; -4.9360581E+03;3;  1.9116549E+01;  0.0000000E+00; -9.9189854E+00;0;  1.3023242E+00;  3.9580453E+04;  0.0000000E+00; -3.9996210E-01;  4.0000000E+04;  0.0000000E+00;  3.9940703E+04;  1.2863004E+00;  0.0000000E+00;  1.6023714E-02;  6.9533853E+03;
  3.0982513E-02;  9.9999998E-03;  6.9940083E-02;2666;  2.5431985E-01;  0.0000000E+00; -8.0060987E-03;  9.8859833E+02;  1.0000000E-01; -9.4460537E+03;3;  7.5604591E+01;  0.0000000E+00;  1.1090310E+00;0;  1.4768260E+00;  3.9039629E+04;  0.0000000E+00;  1.6496352E-04;  4.0000000E+04;  0.0000000E+00;  4.0058945E+04;  1.5405246E+00;  0.0000000E+00; -6.3698605E-02;  8.3100811E+03;
  3.1000484E-02;  9.9999998E-03;  7.9930522E-02;2667;  2.5330317E-01;  0.0000000E+00; -9.0304837E-03;  9.8848566E+02;  1.0000000E-01; -9.5394336E+03;3;  7.7415298E+01;  0.0000000E+00;  9.2715335E-01;0;  1.4677312E+00;  3.9028824E+04;  0.0000000E+00;  2.2225946E-03;  4.0000000E+04;  0.0000000E+00;  4.0061008E+04;  1.5320454E+00;  0.0000000E+00; -6.4314142E-02;  8.5790049E+03;
  3.1016596E-02;  9.9999998E-03;  8.9920200E-02;2668;  2.5214529E-01;  0.0000000E+00; -1.0022968E-02;  9.8838226E+02;  1.0000000E-01; -9.6250615E+03;3;  7.9134262E+01;  0.0000000E+00;  6.2667847E-01;0;  1.4574775E+00;  3.9018871E+04;  0.0000000E+00;  5.0038886E-03;  4.0000000E+04;  0.0000000E+00;  4.0063121E+04;  1.5232081E+00;  0.0000000E+00; -6.5730713E-02;  8.8514053E+03;
  3.1028530E-02;  9.9999998E-03;  9.9909112E-02;2669;  2.5081220E-01;  0.0000000E+00; -1.0986203E-02;  9.8830200E+02;  1.0000000E-01; -9.6915781E+03;3;  8.0555244E+01;  0.0000000E+00;  2.1106187E-01;0;  1.4462233E+00;  3.9010680E+04;  0.0000000E+00;  7.9593221E-03;  4.0000000E+04;  0.0000000E+00;  4.0065082E+04;  1.5142479E+00;  0.0000000E+00; -6.8024695E-02;  9.0979004E+03;
  3.1033771E-02;  9.9999998E-03;  1.0989737E-01;2670;  2.4925421E-01;  0.0000000E+00; -1.1927264E-02;  9.8825299E+02;  1.0000000E-01; -9.7321689E+03;3;  8.1467995E+01;  0.0000000E+00; -2.8852072E-01;0;  1.4341943E+00;  3.9005352E+04;  0.0000000E+00;  1.0072659E-02;  4.0000000E+04;  0.0000000E+00;  4.0066527E+04;  1.5053564E+00;  0.0000000E+00; -7.1162142E-02;  9.2791885E+03;
  3.1029336E-02;  9.9999998E-03;  1.1988485E-01;2671;  2.4740547E-01;  0.0000000E+00; -1.2858789E-02;  9.8824646E+02;  1.0000000E-01; -9.7376016E+03;3;  8.1630806E+01;  0.0000000E+00; -8.7467283E-01;0;  1.4216733E+00;  3.9004262E+04;  0.0000000E+00;  9.8828841E-03;  4.0000000E+04;  0.0000000E+00;  4.0067039E+04;  1.4966486E+00;  0.0000000E+00; -7.4975260E-02;  9.3467988E+03;
  3.1012826E-02;  9.9999998E-03;  1.2987171E-01;2672;  2.4518281E-01;  0.0000000E+00; -1.3798455E-02;  9.8829279E+02;  1.0000000E-01; -9.6991826E+03;3;  8.0765152E+01;  0.0000000E+00; -1.4933028E+00;0;  1.4089431E+00;  3.9008664E+04;  0.0000000E+00;  5.6336662E-03;  4.0000000E+04;  0.0000000E+00;  4.0066246E+04;  1.4880904E+00;  0.0000000E+00; -7.9147294E-02;  9.2448926E+03;
  3.0981865E-02;  9.9999998E-03;  1.3985811E-01;2673;  2.4249837E-01;  0.0000000E+00; -1.4792751E-02;  9.8840430E+02;  1.0000000E-01; -9.6068398E+03;3;  7.8573601E+01;  0.0000000E+00; -2.0229301E+00;0;  1.3962556E+00;  3.9019699E+04;  0.0000000E+00; -4.3937750E-03;  4.0000000E+04;  0.0000000E+00;  4.0063645E+04;  1.4794651E+00;  0.0000000E+00; -8.3209462E-02;  8.9136230E+03;
  3.0934442E-02;  9.9999998E-03;  1.4984435E-01;2674;  2.3925050E-01;  0.0000000E+00; -1.5900934E-02;  9.8858917E+02;  1.0000000E-01; -9.4536582E+03;3;  7.4748886E+01;  0.0000000E+00; -2.4032178E+00;0;  1.3837829E+00;  3.9038844E+04;  0.0000000E+00; -2.1419473E-02;  4.0000000E+04;  0.0000000E+00;  4.0058801E+04;  1.4703147E+00;  0.0000000E+00; -8.6531825E-02;  8.2945000E+03;
  3.0869342E-02;  9.9999998E-03;  1.5983096E-01;2675;  2.3539276E-01;  0.0000000E+00; -1.7269311E-02;  9.8885803E+02;  1.0000000E-01; -9.2308994E+03;3;  6.9073662E+01;  0.0000000E+00; -2.6093857E+00;0;  1.3716180E+00;  3.9066785E+04;  0.0000000E+00; -4.6173576E-02;  4.0000000E+04;  0.0000000E+00;  4.0051379E+04;  1.4598773E+00;  0.0000000E+00; -8.8259272E-02;  7.3394048E+03;
  3.0786224E-02;  9.9999998E-03;  1.6981876E-01;2676;  2.3095456E-01;  0.0000000E+00; -1.9060524E-02;  9.8921503E+02;  1.0000000E-01; -8.9351543E+03;3;  6.1338047E+01;  0.0000000E+00; -2.4233315E+00;0;  1.3596621E+00;  3.9104480E+04;  0.0000000E+00; -7.8901328E-02;  4.0000000E+04;  0.0000000E+00;  4.0041082E+04;  1.4470339E+00;  0.0000000E+00; -8.7371767E-02;  6.0201357E+03;
  3.0685201E-02;  9.9999998E-03;  1.7980888E-01;2677;  2.2586159E-01;  0.0000000E+00; -2.1440104E-02;  9.8966461E+02;  1.0000000E-01; -8.5626719E+03;3;  5.2247494E+01;  0.0000000E+00; -1.9949219E+00;0;  1.3474419E+00;  3.9152215E+04;  0.0000000E+00; -1.1932976E-01;  4.0000000E+04;  0.0000000E+00;  4.0027910E+04;  1.4302850E+00;  0.0000000E+00; -8.2843028E-02;  4.3378677E+03;
  3.0565882E-02;  9.9999998E-03;  1.8980300E-01;2678;  2.1964739E-01;  0.0000000E+00; -2.4570070E-02;  9.9020776E+02;  1.0000000E-01; -8.1126597E+03;3;  4.3186974E+01;  0.0000000E+00; -1.0297544E+00;0;  1.3339245E+00;  3.9209867E+04;  0.0000000E+00; -1.6660479E-01;  4.0000000E+04;  0.0000000E+00;  4.0012129E+04;  1.4077680E+00;  0.0000000E+00; -7.3843539E-02;  2.3332090E+03;
  3.0430190E-02;  9.9999998E-03;  1.9980310E-01;2679;  2.0945531E-01;  0.0000000E+00; -2.8123459E-02;  9.9084186E+02;  1.0000000E-01; -7.5873408E+03;3;  3.7510929E+01;  0.0000000E+00; -4.9465990E-01;0;  1.3172586E+00;  3.9276621E+04;  0.0000000E+00; -2.1905327E-01;  4.0000000E+04;  0.0000000E+00;  3.9994348E+04;  1.3772366E+00;  0.0000000E+00; -5.9977993E-02;  3.1831259E+02;
  3.0284639E-02;  9.9999998E-03;  2.0981042E-01;2680;  1.9114703E-01;  0.0000000E+00; -3.0558467E-02;  9.9156152E+02;  1.0000000E-01; -6.9911108E+03;3;  3.5714882E+01;  0.0000000E+00; -1.9842595E+00;0;  1.2947077E+00;  3.9351258E+04;  0.0000000E+00; -2.7383101E-01;  4.0000000E+04;  0.0000000E+00;  3.9975543E+04;  1.3361953E+00;  0.0000000E+00; -4.1487645E-02;  2.3979688E+03;
  3.0141434E-02;  9.9999998E-03;  2.1982354E-01;2681;  1.6556792E-01;  0.0000000E+00; -3.0595884E-02;  9.9235016E+02;  1.0000000E-01; -6.3377466E+03;3;  3.0631090E+01;  0.0000000E+00; -3.4098144E+00;0;  1.2631788E+00;  3.9431754E+04;  0.0000000E+00; -3.2668108E-01;  4.0000000E+04;  0.0000000E+00;  3.9956508E+04;  1.2823731E+00;  0.0000000E+00; -1.9194249E-02;  4.8224175E+03;
  3.0011071E-02;  9.9999998E-03;  2.2984031E-01;2682;  1.3760628E-01;  0.0000000E+00; -2.9512273E-02;  9.9319263E+02;  1.0000000E-01; -5.6397910E+03;3;  2.4040871E+01;  0.0000000E+00; -5.3103700E+00;0;  1.2203207E+00;  3.9515504E+04;  0.0000000E+00; -3.7209779E-01;  4.0000000E+04;  0.0000000E+00;  3.9938746E+04;  1.2145022E+00;  0.0000000E+00;  5.8185309E-03;  7.1256812E+03;
  4.1106820E-02;  9.9999998E-03;  6.9935143E-02;2727;  2.5244939E-01;  0.0000000E+00; -6.7234309E-03;  9.8895868E+02;  1.0000000E-01; -9.1475439E+03;3;  5.7897076E+01;  0.0000000E+00;  8.8757384E-01;0;  1.1851550E+00;  3.9065309E+04;  0.0000000E+00; -1.2073981E-03;  4.0000000E+04;  0.0000000E+00;  4.0062410E+04;  1.2434865E+00;  0.0000000E+00; -5.8331460E-02;  8.7261719E+03;
  4.1126098E-02;  9.9999998E-03;  7.9925053E-02;2728;  2.5138992E-01;  0.0000000E+00; -7.5159376E-03;  9.8883093E+02;  1.0000000E-01; -9.2533682E+03;3;  5.9610588E+01;  0.0000000E+00;  7.5235909E-01;0;  1.1776717E+00;  3.9053137E+04;  0.0000000E+00; -2.4495041E-05;  4.0000000E+04;  0.0000000E+00;  4.0064836E+04;  1.2363763E+00;  0.0000000E+00; -5.8704600E-02;  9.0281660E+03;
  4.1144356E-02;  9.9999998E-03;  8.9914322E-02;2729;  2.5020108E-01;  0.0000000E+00; -8.2553746E-03;  9.8870850E+02;  1.0000000E-01; -9.3547969E+03;3;  6.1312679E+01;  0.0000000E+00;  5.3027141E-01;0;  1.1694746E+00;  3.9041098E+04;  0.0000000E+00;  1.6291873E-03;  4.0000000E+04;  0.0000000E+00;  4.0067293E+04;  1.2294247E+00;  0.0000000E+00; -5.9950083E-02;  9.3490215E+03;
  4.1160066E-02;  9.9999998E-03;  9.9902608E-02;2730;  2.4885438E-01;  0.0000000E+00; -8.9423051E-03;  9.8859998E+02;  1.0000000E-01; -9.4447207E+03;3;  6.2862453E+01;  0.0000000E+00;  2.1455619E-01;0;  1.1608156E+00;  3.9030207E+04;  0.0000000E+00;  3.2900984E-03;  4.0000000E+04;  0.0000000E+00;  4.0069750E+04;  1.2230226E+00;  0.0000000E+00; -6.2207036E-02;  9.6611016E+03;
  4.1170429E-02;  9.9999998E-03;  1.0988986E-01;2731;  2.4730551E-01;  0.0000000E+00; -9.5794620E-03;  9.8851270E+02;  1.0000000E-01; -9.5170146E+03;3;  6.4088623E+01;  0.0000000E+00; -1.7197056E-01;0;  1.1520770E+00;  3.9021480E+04;  0.0000000E+00;  4.1632224E-03;  4.0000000E+04;  0.0000000E+00;  4.0071824E+04;  1.2175893E+00;  0.0000000E+00; -6.5512352E-02;  9.9251494E+03;
  4.1172281E-02;  9.9999998E-03;  1.1987601E-01;2732;  2.4549741E-01;  0.0000000E+00; -1.0181408E-02;  9.8846021E+02;  1.0000000E-01; -9.5605195E+03;3;  6.4749657E+01;  0.0000000E+00; -5.8761382E-01;0;  1.1437278E+00;  3.9016090E+04;  0.0000000E+00;  3.2022120E-03;  4.0000000E+04;  0.0000000E+00;  4.0073160E+04;  1.2134959E+00;  0.0000000E+00; -6.9768079E-02;  1.0090457E+04;
  4.1162841E-02;  9.9999998E-03;  1.2986112E-01;2733;  2.4336119E-01;  0.0000000E+00; -1.0773497E-02;  9.8845221E+02;  1.0000000E-01; -9.5671367E+03;3;  6.4646378E+01;  0.0000000E+00; -1.0516516E+00;0;  1.1362771E+00;  3.9015344E+04;  0.0000000E+00; -6.9734751E-04;  4.0000000E+04;  0.0000000E+00;  4.0073109E+04;  1.2109965E+00;  0.0000000E+00; -7.4719392E-02;  1.0096296E+04;
  4.1139312E-02;  9.9999998E-03;  1.3984519E-01;2734;  2.4081835E-01;  0.0000000E+00; -1.1396926E-02;  9.8849762E+02;  1.0000000E-01; -9.5295078E+03;3;  6.3469482E+01;  0.0000000E+00; -1.4363706E+00;0;  1.1302298E+00;  3.9020387E+04;  0.0000000E+00; -8.3712647E-03;  4.0000000E+04;  0.0000000E+00;  4.0071395E+04;  1.2101736E+00;  0.0000000E+00; -7.9943821E-02;  9.8748672E+03;
  4.1099261E-02;  9.9999998E-03;  1.4982857E-01;2735;  2.3780519E-01;  0.0000000E+00; -1.2132526E-02;  9.8860583E+02;  1.0000000E-01; -9.4398320E+03;3;  6.0973415E+01;  0.0000000E+00; -1.6848451E+00;0;  1.1260326E+00;  3.9032766E+04;  0.0000000E+00; -1.9918758E-02;  4.0000000E+04;  0.0000000E+00;  4.0067344E+04;  1.2108673E+00;  0.0000000E+00; -8.4834702E-02;  9.3562871E+03;
  4.1040726E-02;  9.9999998E-03;  1.5981169E-01;2736;  2.3427925E-01;  0.0000000E+00; -1.3093810E-02;  9.8878595E+02;  1.0000000E-01; -9.2906504E+03;3;  5.6889488E+01;  0.0000000E+00; -1.7620322E+00;0;  1.1240617E+00;  3.9053301E+04;  0.0000000E+00; -3.4902997E-02;  4.0000000E+04;  0.0000000E+00;  4.0060535E+04;  1.2125844E+00;  0.0000000E+00; -8.8522717E-02;  8.4781631E+03;
  4.0962581E-02;  9.9999998E-03;  1.6979542E-01;2737;  2.3025413E-01;  0.0000000E+00; -1.4434271E-02;  9.8904651E+02;  1.0000000E-01; -9.0747559E+03;3;  5.1104488E+01;  0.0000000E+00; -1.6596334E+00;0;  1.1244863E+00;  3.9083156E+04;  0.0000000E+00; -5.3001989E-02;  4.0000000E+04;  0.0000000E+00;  4.0050375E+04;  1.2144126E+00;  0.0000000E+00; -8.9926198E-02;  7.1968579E+03;
  4.0864397E-02;  9.9999998E-03;  1.7978097E-01;2738;  2.2572561E-01;  0.0000000E+00; -1.6305402E-02;  9.8939191E+02;  1.0000000E-01; -8.7885908E+03;3;  4.3912258E+01;  0.0000000E+00; -1.1676576E+00;0;  1.1270472E+00;  3.9122922E+04;  0.0000000E+00; -7.4561521E-02;  4.0000000E+04;  0.0000000E+00;  4.0037020E+04;  1.2149478E+00;  0.0000000E+00; -8.7900668E-02;  5.4984917E+03;
  4.0746260E-02;  9.9999998E-03;  1.8976985E-01;2739;  2.2048745E-01;  0.0000000E+00; -1.8856812E-02;  9.8982849E+02;  1.0000000E-01; -8.4269219E+03;3;  3.5974621E+01;  0.0000000E+00; -1.3752374E-01;0;  1.1308419E+00;  3.9172629E+04;  0.0000000E+00; -1.0083328E-01;  4.0000000E+04;  0.0000000E+00;  4.0020562E+04;  1.2122760E+00;  0.0000000E+00; -8.1434086E-02;  3.4082908E+03;
  4.0608946E-02;  9.9999998E-03;  1.9976404E-01;2740;  2.1303076E-01;  0.0000000E+00; -2.2040766E-02;  9.9035468E+02;  1.0000000E-01; -7.9909839E+03;3;  3.0654421E+01;  0.0000000E+00;  1.0950330E+00;0;  1.1341150E+00;  3.9232148E+04;  0.0000000E+00; -1.3362074E-01;  4.0000000E+04;  0.0000000E+00;  4.0001637E+04;  1.2039824E+00;  0.0000000E+00; -6.9867328E-02;  1.0047658E+03;
  4.0456537E-02;  9.9999998E-03;  2.0976545E-01;2741;  2.0000982E-01;  0.0000000E+00; -2.5073327E-02;  9.9097339E+02;  1.0000000E-01; -7.4783564E+03;3;  2.9710642E+01;  0.0000000E+00;  1.1462069E+00;0;  1.1340903E+00;  3.9300441E+04;  0.0000000E+00; -1.7426483E-01;  4.0000000E+04;  0.0000000E+00;  3.9980898E+04;  1.1871978E+00;  0.0000000E+00; -5.3107522E-02;  1.6709471E+03;
  4.0298648E-02;  9.9999998E-03;  2.1977410E-01;2742;  1.7851017E-01;  0.0000000E+00; -2.5974693E-02;  9.9167462E+02;  1.0000000E-01; -6.8974346E+03;3;  2.9829300E+01;  0.0000000E+00;  2.3030686E-01;0;  1.1271433E+00;  3.9376148E+04;  0.0000000E+00; -2.2233552E-01;  4.0000000E+04;  0.0000000E+00;  3.9959734E+04;  1.1588783E+00;  0.0000000E+00; -3.1735040E-02;  4.3824961E+03;
  4.0147010E-02;  9.9999998E-03;  2.2978792E-01;2743;  1.5200196E-01;  0.0000000E+00; -2.5120834E-02;  9.9244904E+02;  1.0000000E-01; -6.2558232E+03;3;  2.8386158E+01;  0.0000000E+00; -8.8172728E-01;0;  1.1097605E+00;  3.9456891E+04;  0.0000000E+00; -2.7455932E-01;  4.0000000E+04;  0.0000000E+00;  3.9938996E+04;  1.1165190E+00;  0.0000000E+00; -6.7584254E-03;  7.0214961E+03;
  5.1220175E-02;  9.9999998E-03;  6.9932088E-02;2788;  2.5056463E-01;  0.0000000E+00; -5.4691560E-03;  9.8958228E+02;  1.0000000E-01; -8.6308672E+03;3;  3.8525780E+01;  0.0000000E+00;  6.5590185E-01;0;  8.9977986E-01;  3.9113219E+04;  0.0000000E+00; -1.8513367E-03;  4.0000000E+04;  0.0000000E+00;  4.0064320E+04;  9.4999290E-01;  0.0000000E+00; -5.0213058E-02;  8.8987598E+03;
  5.1241867E-02;  9.9999998E-03;  7.9921618E-02;2789;  2.4944724E-01;  0.0000000E+00; -6.0462635E-03;  9.8944159E+02;  1.0000000E-01; -8.7474561E+03;3;  4.0052429E+01;  0.0000000E+00;  5.6089342E-01;0;  8.9366901E-01;  3.9099828E+04;  0.0000000E+00; -1.4015456E-03;  4.0000000E+04;  0.0000000E+00;  4.0066816E+04;  9.4405413E-01;  0.0000000E+00; -5.0385099E-02;  9.2267891E+03;
  5.1263444E-02;  9.9999998E-03;  8.9910768E-02;2790;  2.4821137E-01;  0.0000000E+00; -6.5564234E-03;  9.8930243E+02;  1.0000000E-01; -8.8627119E+03;3;  4.1628952E+01;  0.0000000E+00;  4.0019333E-01;0;  8.8724363E-01;  3.9086117E+04;  0.0000000E+00; -7.3400268E-04;  4.0000000E+04;  0.0000000E+00;  4.0069637E+04;  9.3871820E-01;  0.0000000E+00; -5.1474575E-02;  9.5912969E+03;
  5.1283110E-02;  9.9999998E-03;  9.9899210E-02;2791;  2.4683434E-01;  0.0000000E+00; -6.9992724E-03;  9.8916858E+02;  1.0000000E-01; -8.9736230E+03;3;  4.3166412E+01;  0.0000000E+00;  1.7491645E-01;0;  8.8084877E-01;  3.9072844E+04;  0.0000000E+00; -1.8217337E-04;  4.0000000E+04;  0.0000000E+00;  4.0072590E+04;  9.3453902E-01;  0.0000000E+00; -5.3690258E-02;  9.9680205E+03;
  5.1299106E-02;  9.9999998E-03;  1.0988633E-01;2792;  2.4528007E-01;  0.0000000E+00; -7.3801815E-03;  9.8904846E+02;  1.0000000E-01; -9.0731260E+03;3;  4.4519634E+01;  0.0000000E+00; -8.8115461E-02;0;  8.7494367E-01;  3.9060848E+04;  0.0000000E+00; -2.2351940E-04;  4.0000000E+04;  0.0000000E+00;  4.0075270E+04;  9.3209124E-01;  0.0000000E+00; -5.7147566E-02;  1.0319559E+04;
  5.1308233E-02;  9.9999998E-03;  1.1987177E-01;2793;  2.4350068E-01;  0.0000000E+00; -7.7139121E-03;  9.8895428E+02;  1.0000000E-01; -9.1511484E+03;3;  4.5521301E+01;  0.0000000E+00; -3.8220432E-01;0;  8.7013644E-01;  3.9051336E+04;  0.0000000E+00; -1.3063456E-03;  4.0000000E+04;  0.0000000E+00;  4.0077406E+04;  9.3196803E-01;  0.0000000E+00; -6.1831567E-02;  1.0594714E+04;
  5.1306758E-02;  9.9999998E-03;  1.2985569E-01;2794;  2.4143718E-01;  0.0000000E+00; -8.0262860E-03;  9.8889325E+02;  1.0000000E-01; -9.2017148E+03;3;  4.5990467E+01;  0.0000000E+00; -7.0025587E-01;0;  8.6712986E-01;  3.9045352E+04;  0.0000000E+00; -3.5804585E-03;  4.0000000E+04;  0.0000000E+00;  4.0078508E+04;  9.3469566E-01;  0.0000000E+00; -6.7565784E-02;  1.0729301E+04;
  5.1291492E-02;  9.9999998E-03;  1.3983807E-01;2795;  2.3902997E-01;  0.0000000E+00; -8.3614849E-03;  9.8887207E+02;  1.0000000E-01; -9.2192949E+03;3;  4.5636978E+01;  0.0000000E+00; -9.0292174E-01;0;  8.6664027E-01;  3.9044289E+04;  0.0000000E+00; -6.5802778E-03;  4.0000000E+04;  0.0000000E+00;  4.0077770E+04;  9.4063109E-01;  0.0000000E+00; -7.3990837E-02;  1.0648528E+04;
  5.1259421E-02;  9.9999998E-03;  1.4981909E-01;2796;  2.3623252E-01;  0.0000000E+00; -8.8036135E-03;  9.8890118E+02;  1.0000000E-01; -9.1951475E+03;3;  4.4364372E+01;  0.0000000E+00; -1.0874597E+00;0;  8.6934745E-01;  3.9049332E+04;  0.0000000E+00; -8.8718710E-03;  4.0000000E+04;  0.0000000E+00;  4.0074867E+04;  9.4988984E-01;  0.0000000E+00; -8.0542408E-02;  1.0271229E+04;
  5.1207893E-02;  9.9999998E-03;  1.5979917E-01;2797;  2.3300098E-01;  0.0000000E+00; -9.4432570E-03;  9.8898901E+02;  1.0000000E-01; -9.1224082E+03;3;  4.1779072E+01;  0.0000000E+00; -1.0946802E+00;0;  8.7588108E-01;  3.9061715E+04;  0.0000000E+00; -8.4211482E-03;  4.0000000E+04;  0.0000000E+00;  4.0068875E+04;  9.6224403E-01;  0.0000000E+00; -8.6362988E-02;  9.5199521E+03;
  5.1135037E-02;  9.9999998E-03;  1.6977918E-01;2798;  2.2933868E-01;  0.0000000E+00; -1.0411276E-02;  9.8914325E+02;  1.0000000E-01; -8.9946094E+03;3;  3.7895519E+01;  0.0000000E+00; -8.9802432E-01;0;  8.8666677E-01;  3.9082582E+04;  0.0000000E+00; -4.0481235E-03;  4.0000000E+04;  0.0000000E+00;  4.0059484E+04;  9.7699916E-01;  0.0000000E+00; -9.0332359E-02;  8.3342363E+03;
  5.1039565E-02;  9.9999998E-03;  1.7976040E-01;2799;  2.2525489E-01;  0.0000000E+00; -1.1868844E-02;  9.8936951E+02;  1.0000000E-01; -8.8071582E+03;3;  3.2872612E+01;  0.0000000E+00; -3.9138186E-01;0;  9.0169787E-01;  3.9112684E+04;  0.0000000E+00;  3.2236562E-03;  4.0000000E+04;  0.0000000E+00;  4.0046465E+04;  9.9290359E-01;  0.0000000E+00; -9.1205731E-02;  6.6833594E+03;
  5.0921362E-02;  9.9999998E-03;  1.8974443E-01;2800;  2.2065632E-01;  0.0000000E+00; -1.3951840E-02;  9.8967938E+02;  1.0000000E-01; -8.5504248E+03;3;  2.7170448E+01;  0.0000000E+00;  7.0227528E-01;0;  9.2027378E-01;  3.9152660E+04;  0.0000000E+00;  9.4465762E-03;  4.0000000E+04;  0.0000000E+00;  4.0029828E+04;  1.0080719E+00;  0.0000000E+00; -8.7798111E-02;  4.5769849E+03;
  5.0781082E-02;  9.9999998E-03;  1.9973320E-01;2801;  2.1481894E-01;  0.0000000E+00; -1.6756745E-02;  9.9007562E+02;  1.0000000E-01; -8.2221377E+03;3;  2.3152912E+01;  0.0000000E+00;  2.3038683E+00;0;  9.4079787E-01;  3.9202621E+04;  0.0000000E+00;  8.2100471E-03;  4.0000000E+04;  0.0000000E+00;  4.0010051E+04;  1.0199941E+00;  0.0000000E+00; -7.9196282E-02;  2.0709810E+03;
  5.0621852E-02;  9.9999998E-03;  2.0972863E-01;2802;  2.0530362E-01;  0.0000000E+00; -1.9890921E-02;  9.9056445E+02;  1.0000000E-01; -7.8171616E+03;3;  2.2115423E+01;  0.0000000E+00;  3.8505378E+00;0;  9.6059430E-01;  3.9262121E+04;  0.0000000E+00; -7.6225009E-03;  4.0000000E+04;  0.0000000E+00;  3.9988031E+04;  1.0255715E+00;  0.0000000E+00; -6.4977139E-02;  7.3252222E+02;
  5.0450806E-02;  9.9999998E-03;  2.1973194E-01;2803;  1.8904236E-01;  0.0000000E+00; -2.1943793E-02;  9.9114722E+02;  1.0000000E-01; -7.3343604E+03;3;  2.6415329E+01;  0.0000000E+00;  3.8376751E+00;0;  9.7592902E-01;  3.9330082E+04;  0.0000000E+00; -4.3355808E-02;  4.0000000E+04;  0.0000000E+00;  3.9964746E+04;  1.0213009E+00;  0.0000000E+00; -4.5371879E-02;  3.6911729E+03;
  5.0279122E-02;  9.9999998E-03;  2.2974209E-01;2804;  1.6560724E-01;  0.0000000E+00; -2.1885430E-02;  9.9181689E+02;  1.0000000E-01; -6.7795615E+03;3;  3.1083410E+01;  0.0000000E+00;  3.3169291E+00;0;  9.8254913E-01;  3.9404938E+04;  0.0000000E+00; -9.9853985E-02;  4.0000000E+04;  0.0000000E+00;  3.9941551E+04;  1.0037695E+00;  0.0000000E+00; -2.1220401E-02;  6.6339624E+03;
  6.1323818E-02;  9.9999998E-03;  6.9931045E-02;2849;  2.4871694E-01;  0.0000000E+00; -4.2481930E-03;  9.9041852E+02;  1.0000000E-01; -7.9380967E+03;3;  2.0050289E+01;  0.0000000E+00;  4.0851757E-01;0;  6.4156848E-01;  3.9179691E+04;  0.0000000E+00; -1.6537971E-03;  4.0000000E+04;  0.0000000E+00;  4.0064090E+04;  6.8138444E-01;  0.0000000E+00; -3.9815988E-02;  8.8078633E+03;
  6.1349064E-02;  9.9999998E-03;  7.9920642E-02;2850;  2.4753071E-01;  0.0000000E+00; -4.6267072E-03;  9.9027075E+02;  1.0000000E-01; -8.0605127E+03;3;  2.1327105E+01;  0.0000000E+00;  3.4177771E-01;0;  6.3633156E-01;  3.9165551E+04;  0.0000000E+00; -1.7425956E-03;  4.0000000E+04;  0.0000000E+00;  4.0066766E+04;  6.7621416E-01;  0.0000000E+00; -3.9882619E-02;  9.1524531E+03;
  6.1375391E-02;  9.9999998E-03;  8.9909956E-02;2851;  2.4623698E-01;  0.0000000E+00; -4.9308203E-03;  9.9011725E+02;  1.0000000E-01; -8.1876694E+03;3;  2.2696321E+01;  0.0000000E+00;  2.3461382E-01;0;  6.3110900E-01;  3.9150512E+04;  0.0000000E+00; -1.8333667E-03;  4.0000000E+04;  0.0000000E+00;  4.0069867E+04;  6.7198521E-01;  0.0000000E+00; -4.0876187E-02;  9.5523613E+03;
  6.1400685E-02;  9.9999998E-03;  9.9898726E-02;2852;  2.4482054E-01;  0.0000000E+00; -5.1623159E-03;  9.8996381E+02;  1.0000000E-01; -8.3147773E+03;3;  2.4091095E+01;  0.0000000E+00;  9.6277505E-02;0;  6.2630296E-01;  3.9135164E+04;  0.0000000E+00; -2.0723511E-03;  4.0000000E+04;  0.0000000E+00;  4.0073195E+04;  6.6937846E-01;  0.0000000E+00; -4.3075498E-02;  9.9883721E+03;
  6.1422531E-02;  9.9999998E-03;  1.0988650E-01;2853;  2.4325287E-01;  0.0000000E+00; -5.3281267E-03;  9.8981866E+02;  1.0000000E-01; -8.4350205E+03;3;  2.5425976E+01;  0.0000000E+00; -8.7454528E-02;0;  6.2245595E-01;  3.9120383E+04;  0.0000000E+00; -2.5084608E-03;  4.0000000E+04;  0.0000000E+00;  4.0076652E+04;  6.6913939E-01;  0.0000000E+00; -4.6683419E-02;  1.0426862E+04;
  6.1438549E-02;  9.9999998E-03;  1.1987255E-01;2854;  2.4149261E-01;  0.0000000E+00; -5.4394347E-03;  9.8968610E+02;  1.0000000E-01; -8.5448945E+03;3;  2.6584394E+01;  0.0000000E+00; -2.9536748E-01;0;  6.2024033E-01;  3.9107070E+04;  0.0000000E+00; -2.8144161E-03;  4.0000000E+04;  0.0000000E+00;  4.0079742E+04;  6.7201853E-01;  0.0000000E+00; -5.1778208E-02;  1.0818121E+04;
  6.1445158E-02;  9.9999998E-03;  1.2985615E-01;2855;  2.3949337E-01;  0.0000000E+00; -5.5231294E-03;  9.8957416E+02;  1.0000000E-01; -8.6376318E+03;3;  2.7345612E+01;  0.0000000E+00; -4.1342834E-01;0;  6.2046993E-01;  3.9096207E+04;  0.0000000E+00; -1.9171028E-03;  4.0000000E+04;  0.0000000E+00;  4.0081871E+04;  6.7874354E-01;  0.0000000E+00; -5.8273632E-02;  1.1096275E+04;
  6.1437853E-02;  9.9999998E-03;  1.3983773E-01;2856;  2.3721923E-01;  0.0000000E+00; -5.6395899E-03;  9.8949103E+02;  1.0000000E-01; -8.7064697E+03;3;  2.7670334E+01;  0.0000000E+00; -5.7446730E-01;0;  6.2403852E-01;  3.9088852E+04;  0.0000000E+00;  2.2921709E-03;  4.0000000E+04;  0.0000000E+00;  4.0082508E+04;  6.8992770E-01;  0.0000000E+00; -6.5889165E-02;  1.1180902E+04;
  6.1413001E-02;  9.9999998E-03;  1.4981736E-01;2857;  2.3461036E-01;  0.0000000E+00; -5.8361436E-03;  9.8944159E+02;  1.0000000E-01; -8.7474561E+03;3;  2.7331879E+01;  0.0000000E+00; -6.9239330E-01;0;  6.3181841E-01;  3.9086473E+04;  0.0000000E+00;  1.3045060E-02;  4.0000000E+04;  0.0000000E+00;  4.0080836E+04;  7.0593792E-01;  0.0000000E+00; -7.4119501E-02;  1.0980470E+04;
  6.1367311E-02;  9.9999998E-03;  1.5979540E-01;2858;  2.3164767E-01;  0.0000000E+00; -6.2125325E-03;  9.8943359E+02;  1.0000000E-01; -8.7540732E+03;3;  2.5960903E+01;  0.0000000E+00; -5.7844818E-01;0;  6.4464712E-01;  3.9090012E+04;  0.0000000E+00;  3.4200039E-02;  4.0000000E+04;  0.0000000E+00;  4.0076262E+04;  7.2678894E-01;  0.0000000E+00; -8.2141802E-02;  1.0402563E+04;
  6.1298467E-02;  9.9999998E-03;  1.6977264E-01;2859;  2.2832213E-01;  0.0000000E+00; -6.8971748E-03;  9.8947412E+02;  1.0000000E-01; -8.7204941E+03;3;  2.3842831E+01;  0.0000000E+00; -3.8973120E-01;0;  6.6318536E-01;  3.9100953E+04;  0.0000000E+00;  6.7969292E-02;  4.0000000E+04;  0.0000000E+00;  4.0068090E+04;  7.5200582E-01;  0.0000000E+00; -8.8820472E-02;  9.3693545E+03;
  6.1204534E-02;  9.9999998E-03;  1.7975040E-01;2860;  2.2462758E-01;  0.0000000E+00; -8.0159605E-03;  9.8957123E+02;  1.0000000E-01; -8.6400518E+03;3;  2.0708494E+01;  0.0000000E+00;  2.3712529E-01;0;  6.8768454E-01;  3.9120141E+04;  0.0000000E+00;  1.1261819E-01;  4.0000000E+04;  0.0000000E+00;  4.0055816E+04;  7.8051645E-01;  0.0000000E+00; -9.2831925E-02;  7.8323706E+03;
  6.1085042E-02;  9.9999998E-03;  1.8973047E-01;2861;  2.2054876E-01;  0.0000000E+00; -9.7442055E-03;  9.8973834E+02;  1.0000000E-01; -8.5015869E+03;3;  1.7266504E+01;  0.0000000E+00;  1.4551524E+00;0;  7.1770632E-01;  3.9148621E+04;  0.0000000E+00;  1.6117167E-01;  4.0000000E+04;  0.0000000E+00;  4.0039551E+04;  8.1054348E-01;  0.0000000E+00; -9.2837185E-02;  5.7849619E+03;
  6.0940478E-02;  9.9999998E-03;  1.9971471E-01;2862;  2.1573502E-01;  0.0000000E+00; -1.2205016E-02;  9.8998346E+02;  1.0000000E-01; -8.2985303E+03;3;  1.4920196E+01;  0.0000000E+00;  3.5242333E+00;0;  7.5189447E-01;  3.9186781E+04;  0.0000000E+00;  2.0187183E-01;  4.0000000E+04;  0.0000000E+00;  4.0019547E+04;  8.3958262E-01;  0.0000000E+00; -8.7688163E-02;  3.2719966E+03;
  6.0773633E-02;  9.9999998E-03;  2.0970507E-01;2863;  2.0844203E-01;  0.0000000E+00; -1.5201265E-02;  9.9031769E+02;  1.0000000E-01; -8.0216001E+03;3;  1.5627502E+01;  0.0000000E+00;  5.9525075E+00;0;  7.8779221E-01;  3.9234887E+04;  0.0000000E+00;  2.2049592E-01;  4.0000000E+04;  0.0000000E+00;  3.9996461E+04;  8.6444032E-01;  0.0000000E+00; -7.6648086E-02;  4.7927994E+02;
  6.0590483E-02;  9.9999998E-03;  2.1970302E-01;2864;  1.9644599E-01;  0.0000000E+00; -1.8032566E-02;  9.9075165E+02;  1.0000000E-01; -7.6621045E+03;3;  2.0882078E+01;  0.0000000E+00;  7.6974483E+00;0;  8.2176369E-01;  3.9292512E+04;  0.0000000E+00;  2.0427470E-01;  4.0000000E+04;  0.0000000E+00;  3.9971605E+04;  8.8134295E-01;  0.0000000E+00; -5.9579253E-02;  2.7924563E+03;
  6.0400385E-02;  9.9999998E-03;  2.2970890E-01;2865;  1.7756239E-01;  0.0000000E+00; -1.9348513E-02;  9.9128595E+02;  1.0000000E-01; -7.2194502E+03;3;  3.0676067E+01;  0.0000000E+00;  8.1439209E+00;0;  8.4929550E-01;  3.9358605E+04;  0.0000000E+00;  1.4627270E-01;  4.0000000E+04;  0.0000000E+00;  3.9946641E+04;  8.8632387E-01;  0.0000000E+00; -3.7028383E-02;  5.9761040E+03;
  7.1423523E-02;  9.9999998E-03;  6.9931753E-02;2910;  2.4694817E-01;  0.0000000E+00; -3.0714157E-03;  9.9141998E+02;  1.0000000E-01; -7.1083916E+03;3;  4.2218232E+00;  0.0000000E+00;  1.1415600E-01;0;  4.2529282E-01;  3.9260859E+04;  0.0000000E+00; -6.4606359E-04;  4.0000000E+04;  0.0000000E+00;  4.0061863E+04;  4.5297450E-01;  0.0000000E+00; -2.7681686E-02;  8.4486748E+03;
  7.1452886E-02;  9.9999998E-03;  7.9921983E-02;2911;  2.4568327E-01;  0.0000000E+00; -3.2741535E-03;  9.9126825E+02;  1.0000000E-01; -7.2340669E+03;3;  5.2333050E+00;  0.0000000E+00;  4.8116647E-02;0;  4.2020825E-01;  3.9246445E+04;  0.0000000E+00; -1.1391100E-03;  4.0000000E+04;  0.0000000E+00;  4.0064555E+04;  4.4799423E-01;  0.0000000E+00; -2.7785981E-02;  8.7984043E+03;
  7.1484469E-02;  9.9999998E-03;  8.9912027E-02;2912;  2.4432436E-01;  0.0000000E+00; -3.4003304E-03;  9.9110815E+02;  1.0000000E-01; -7.3667051E+03;3;  6.3496699E+00;  0.0000000E+00; -4.0876243E-02;0;  4.1538587E-01;  3.9230531E+04;  0.0000000E+00; -1.8524183E-03;  4.0000000E+04;  0.0000000E+00;  4.0067840E+04;  4.4417065E-01;  0.0000000E+00; -2.8784776E-02;  9.2225156E+03;
  7.1516201E-02;  9.9999998E-03;  9.9901654E-02;2913;  2.4286187E-01;  0.0000000E+00; -3.4479629E-03;  9.9094006E+02;  1.0000000E-01; -7.5060098E+03;3;  7.5400977E+00;  0.0000000E+00; -1.4084125E-01;0;  4.1125143E-01;  3.9213852E+04;  0.0000000E+00; -2.6975865E-03;  4.0000000E+04;  0.0000000E+00;  4.0071617E+04;  4.4227293E-01;  0.0000000E+00; -3.1021513E-02;  9.7083125E+03;
  7.1544901E-02;  9.9999998E-03;  1.0989039E-01;2914;  2.4127407E-01;  0.0000000E+00; -3.4216715E-03;  9.9077289E+02;  1.0000000E-01; -7.6444751E+03;3;  8.7481575E+00;  0.0000000E+00; -2.2471769E-01;0;  4.0838581E-01;  3.9196734E+04;  0.0000000E+00; -3.2077152E-03;  4.0000000E+04;  0.0000000E+00;  4.0075723E+04;  4.4317451E-01;  0.0000000E+00; -3.4788709E-02;  1.0227834E+04;
  7.1567237E-02;  9.9999998E-03;  1.1987764E-01;2915;  2.3952933E-01;  0.0000000E+00; -3.3388108E-03;  9.9060986E+02;  1.0000000E-01; -7.7795332E+03;3;  9.8735199E+00;  0.0000000E+00; -3.0202827E-01;0;  4.0751943E-01;  3.9179977E+04;  0.0000000E+00; -2.1371206E-03;  4.0000000E+04;  0.0000000E+00;  4.0079629E+04;  4.4778734E-01;  0.0000000E+00; -4.0267926E-02;  1.0735029E+04;
  7.1580090E-02;  9.9999998E-03;  1.2986235E-01;2916;  2.3759364E-01;  0.0000000E+00; -3.2343946E-03;  9.9045367E+02;  1.0000000E-01; -7.9089614E+03;3;  1.0814475E+01;  0.0000000E+00; -3.4431329E-01;0;  4.0951836E-01;  3.9164488E+04;  0.0000000E+00;  2.9848639E-03;  4.0000000E+04;  0.0000000E+00;  4.0082996E+04;  4.5699292E-01;  0.0000000E+00; -4.7474563E-02;  1.1164395E+04;
  7.1578927E-02;  9.9999998E-03;  1.3984413E-01;2917;  2.3542495E-01;  0.0000000E+00; -3.1387156E-03;  9.9031158E+02;  1.0000000E-01; -8.0266865E+03;3;  1.1496953E+01;  0.0000000E+00; -3.9431947E-01;0;  4.1537362E-01;  3.9151188E+04;  0.0000000E+00;  1.6104700E-02;  4.0000000E+04;  0.0000000E+00;  4.0085031E+04;  4.7159177E-01;  0.0000000E+00; -5.6218155E-02;  1.1431637E+04;
  7.1559042E-02;  9.9999998E-03;  1.4982349E-01;2918;  2.3298769E-01;  0.0000000E+00; -3.1283102E-03;  9.9018463E+02;  1.0000000E-01; -8.1318687E+03;3;  1.1698448E+01;  0.0000000E+00; -3.1499261E-01;0;  4.2610699E-01;  3.9141098E+04;  0.0000000E+00;  4.2413600E-02;  4.0000000E+04;  0.0000000E+00;  4.0085012E+04;  4.9217379E-01;  0.0000000E+00; -6.6066802E-02;  1.1436481E+04;
  7.1516849E-02;  9.9999998E-03;  1.5980069E-01;2919;  2.3027453E-01;  0.0000000E+00; -3.3124865E-03;  9.9007971E+02;  1.0000000E-01; -8.2187803E+03;3;  1.1323943E+01;  0.0000000E+00; -2.3282318E-01;0;  4.4272256E-01;  3.9135465E+04;  0.0000000E+00;  8.7561846E-02;  4.0000000E+04;  0.0000000E+00;  4.0082051E+04;  5.1897401E-01;  0.0000000E+00; -7.6251440E-02;  1.1072631E+04;
  7.1449600E-02;  9.9999998E-03;  1.6977641E-01;2920;  2.2724739E-01;  0.0000000E+00; -3.7624850E-03;  9.9000055E+02;  1.0000000E-01; -8.2843584E+03;3;  1.0396383E+01;  0.0000000E+00;  3.2669362E-02;0;  4.6609610E-01;  3.9135637E+04;  0.0000000E+00;  1.5486392E-01;  4.0000000E+04;  0.0000000E+00;  4.0075418E+04;  5.5174130E-01;  0.0000000E+00; -8.5645191E-02;  1.0245314E+04;
  7.1355373E-02;  9.9999998E-03;  1.7975199E-01;2921;  2.2391975E-01;  0.0000000E+00; -4.6305927E-03;  9.8995978E+02;  1.0000000E-01; -8.3181348E+03;3;  8.9572859E+00;  0.0000000E+00;  6.9081742E-01;0;  4.9672639E-01;  3.9142555E+04;  0.0000000E+00;  2.4199076E-01;  4.0000000E+04;  0.0000000E+00;  4.0064484E+04;  5.8959639E-01;  0.0000000E+00; -9.2870004E-02;  8.8879316E+03;
  7.1233653E-02;  9.9999998E-03;  1.8972917E-01;2922;  2.2027625E-01;  0.0000000E+00; -6.0615665E-03;  9.8996820E+02;  1.0000000E-01; -8.3111719E+03;3;  7.3603415E+00;  0.0000000E+00;  2.1535442E+00;0;  5.3446126E-01;  3.9157762E+04;  0.0000000E+00;  3.3908311E-01;  4.0000000E+04;  0.0000000E+00;  4.0049090E+04;  6.3092256E-01;  0.0000000E+00; -9.6461274E-02;  6.9763667E+03;
  7.1084514E-02;  9.9999998E-03;  1.9970982E-01;2923;  2.1615767E-01;  0.0000000E+00; -8.2003791E-03;  9.9004388E+02;  1.0000000E-01; -8.2484580E+03;3;  6.8294253E+00;  0.0000000E+00;  4.6778679E+00;0;  5.7826293E-01;  3.9182289E+04;  0.0000000E+00;  4.2893380E-01;  4.0000000E+04;  0.0000000E+00;  4.0029465E+04;  6.7332923E-01;  0.0000000E+00; -9.5066339E-02;  4.5426050E+03;
  7.0910200E-02;  9.9999998E-03;  2.0969592E-01;2924;  2.1040529E-01;  0.0000000E+00; -1.1046779E-02;  9.9020239E+02;  1.0000000E-01; -8.1171533E+03;3;  9.2000799E+00;  0.0000000E+00;  7.9587822E+00;0;  6.2598652E-01;  3.9216750E+04;  0.0000000E+00;  4.8959073E-01;  4.0000000E+04;  0.0000000E+00;  4.0006180E+04;  7.1364844E-01;  0.0000000E+00; -8.7661937E-02;  1.7325306E+03;
  7.0716031E-02;  9.9999998E-03;  2.1968910E-01;2925;  2.0136695E-01;  0.0000000E+00; -1.4179491E-02;  9.9045917E+02;  1.0000000E-01; -7.9044185E+03;3;  1.5757948E+01;  0.0000000E+00;  1.1428994E+01;0;  6.7424679E-01;  3.9261410E+04;  0.0000000E+00;  4.9961218E-01;  4.0000000E+04;  0.0000000E+00;  3.9980465E+04;  7.4800849E-01;  0.0000000E+00; -7.3761679E-02;  1.8071301E+03;
  7.0509881E-02;  9.9999998E-03;  2.2969046E-01;2926;  1.8696983E-01;  0.0000000E+00; -1.6728012E-02;  9.9082935E+02;  1.0000000E-01; -7.5977109E+03;3;  2.8214996E+01;  0.0000000E+00;  1.3642070E+01;0;  7.1859854E-01;  3.9315977E+04;  0.0000000E+00;  4.4688702E-01;  4.0000000E+04;  0.0000000E+00;  3.9953688E+04;  7.7215976E-01;  0.0000000E+00; -5.3561203E-02;  5.0845830E+03;
  8.1530549E-02;  9.9999998E-03;  6.9934599E-02;2971;  2.4527980E-01;  0.0000000E+00; -2.0037864E-03;  9.9253186E+02;  1.0000000E-01; -6.1872319E+03;3; -8.0457420E+00;  0.0000000E+00; -2.0985876E-01;0;  2.5992295E-01;  3.9352773E+04;  0.0000000E+00;  1.0439102E-03;  4.0000000E+04;  0.0000000E+00;  4.0057523E+04;  2.7428979E-01;  0.0000000E+00; -1.4366838E-02;  7.8321934E+03;
  8.1563666E-02;  9.9999998E-03;  7.9925813E-02;2972;  2.4392721E-01;  0.0000000E+00; -2.0666949E-03;  9.9238336E+02;  1.0000000E-01; -6.3102407E+03;3; -7.2753611E+00;  0.0000000E+00; -2.9198501E-01;0;  2.5409779E-01;  3.9338438E+04;  0.0000000E+00;  1.7590776E-04;  4.0000000E+04;  0.0000000E+00;  4.0060250E+04;  2.6878077E-01;  0.0000000E+00; -1.4682984E-02;  8.1744404E+03;
  8.1599966E-02;  9.9999998E-03;  8.9917205E-02;2973;  2.4249455E-01;  0.0000000E+00; -2.0354879E-03;  9.9221906E+02;  1.0000000E-01; -6.4463853E+03;3; -6.4027209E+00;  0.0000000E+00; -3.7292659E-01;0;  2.4868749E-01;  3.9322395E+04;  0.0000000E+00; -1.1979978E-03;  4.0000000E+04;  0.0000000E+00;  4.0063637E+04;  2.6450244E-01;  0.0000000E+00; -1.5814949E-02;  8.6092119E+03;
  8.1636928E-02;  9.9999998E-03;  9.9908352E-02;2974;  2.4098077E-01;  0.0000000E+00; -1.8987632E-03;  9.9204663E+02;  1.0000000E-01; -6.5891958E+03;3; -5.4468098E+00;  0.0000000E+00; -4.3789464E-01;0;  2.4413063E-01;  3.9304824E+04;  0.0000000E+00; -2.7462281E-03;  4.0000000E+04;  0.0000000E+00;  4.0067812E+04;  2.6229280E-01;  0.0000000E+00; -1.8162180E-02;  9.1317568E+03;
  8.1670925E-02;  9.9999998E-03;  1.0989872E-01;2975;  2.3936562E-01;  0.0000000E+00; -1.6473923E-03;  9.9186407E+02;  1.0000000E-01; -6.7404507E+03;3; -4.4409757E+00;  0.0000000E+00; -4.8805219E-01;0;  2.4100500E-01;  3.9285902E+04;  0.0000000E+00; -3.4520661E-03;  4.0000000E+04;  0.0000000E+00;  4.0072270E+04;  2.6310807E-01;  0.0000000E+00; -2.2103069E-02;  9.7215098E+03;
  8.1697538E-02;  9.9999998E-03;  1.1988756E-01;2976;  2.3762627E-01;  0.0000000E+00; -1.3225751E-03;  9.9167566E+02;  1.0000000E-01; -6.8965454E+03;3; -3.4571626E+00;  0.0000000E+00; -4.3978977E-01;0;  2.4005303E-01;  3.9266348E+04;  0.0000000E+00; -1.1078602E-03;  4.0000000E+04;  0.0000000E+00;  4.0077125E+04;  2.6797926E-01;  0.0000000E+00; -2.7926238E-02;  1.0338142E+04;
  8.1712946E-02;  9.9999998E-03;  1.2987407E-01;2977;  2.3573652E-01;  0.0000000E+00; -9.8198524E-04;  9.9148157E+02;  1.0000000E-01; -7.0573799E+03;3; -2.5018065E+00;  0.0000000E+00; -3.9787984E-01;0;  2.4217036E-01;  3.9246566E+04;  0.0000000E+00;  8.1920018E-03;  4.0000000E+04;  0.0000000E+00;  4.0081703E+04;  2.7792966E-01;  0.0000000E+00; -3.5759304E-02;  1.0918783E+04;
  8.1713535E-02;  9.9999998E-03;  1.3985725E-01;2978;  2.3366675E-01;  0.0000000E+00; -6.8394479E-04;  9.9128174E+02;  1.0000000E-01; -7.2229062E+03;3; -1.6918792E+00;  0.0000000E+00; -3.1490585E-01;0;  2.4838313E-01;  3.9227359E+04;  0.0000000E+00;  3.0235577E-02;  4.0000000E+04;  0.0000000E+00;  4.0085227E+04;  2.9389632E-01;  0.0000000E+00; -4.5513190E-02;  1.1377426E+04;
  8.1694573E-02;  9.9999998E-03;  1.4983739E-01;2979;  2.3139095E-01;  0.0000000E+00; -5.0491520E-04;  9.9107904E+02;  1.0000000E-01; -7.3908521E+03;3; -1.1304436E+00;  0.0000000E+00; -2.0229797E-01;0;  2.5980791E-01;  3.9209664E+04;  0.0000000E+00;  7.2196953E-02;  4.0000000E+04;  0.0000000E+00;  4.0086969E+04;  3.1664765E-01;  0.0000000E+00; -5.6839727E-02;  1.1607187E+04;
  8.1652693E-02;  9.9999998E-03;  1.5981494E-01;2980;  2.2889042E-01;  0.0000000E+00; -5.3092249E-04;  9.9087579E+02;  1.0000000E-01; -7.5592422E+03;3; -9.2807525E-01;  0.0000000E+00; -4.4220164E-02;0;  2.7757907E-01;  3.9194535E+04;  0.0000000E+00;  1.4129081E-01;  4.0000000E+04;  0.0000000E+00;  4.0085930E+04;  3.4661859E-01;  0.0000000E+00; -6.9039516E-02;  1.1489946E+04;
  8.1585079E-02;  9.9999998E-03;  1.6979045E-01;2981;  2.2615686E-01;  0.0000000E+00; -8.6126028E-04;  9.9067468E+02;  1.0000000E-01; -7.7258550E+03;3; -1.0279009E+00;  0.0000000E+00;  2.7580097E-01;0;  3.0275720E-01;  3.9183070E+04;  0.0000000E+00;  2.4188799E-01;  4.0000000E+04;  0.0000000E+00;  4.0081180E+04;  3.8377541E-01;  0.0000000E+00; -8.1018202E-02;  1.0915179E+04;
  8.1489958E-02;  9.9999998E-03;  1.7976515E-01;2982;  2.2316530E-01;  0.0000000E+00; -1.5677680E-03;  9.9048889E+02;  1.0000000E-01; -7.8797764E+03;3; -1.3570911E+00;  0.0000000E+00;  1.0800449E+00;0;  3.3608979E-01;  3.9176910E+04;  0.0000000E+00;  3.7146485E-01;  4.0000000E+04;  0.0000000E+00;  4.0071992E+04;  4.2746168E-01;  0.0000000E+00; -9.1371886E-02;  9.7981709E+03;
  8.1365772E-02;  9.9999998E-03;  1.8974055E-01;2983;  2.1991433E-01;  0.0000000E+00; -2.7810817E-03;  9.9032977E+02;  1.0000000E-01; -8.0115752E+03;3; -1.4855145E+00;  0.0000000E+00;  2.7095253E+00;0;  3.7774563E-01;  3.9177539E+04;  0.0000000E+00;  5.1802719E-01;  4.0000000E+04;  0.0000000E+00;  4.0058219E+04;  4.7628969E-01;  0.0000000E+00; -9.8544069E-02;  8.0955352E+03;
  8.1212655E-02;  9.9999998E-03;  1.9971853E-01;2984;  2.1632431E-01;  0.0000000E+00; -4.6491749E-03;  9.9021893E+02;  1.0000000E-01; -8.1034243E+03;3; -5.6210047E-01;  0.0000000E+00;  5.5944505E+00;0;  4.2702854E-01;  3.9186508E+04;  0.0000000E+00;  6.5960473E-01;  4.0000000E+04;  0.0000000E+00;  4.0039559E+04;  5.2804655E-01;  0.0000000E+00; -1.0101800E-01;  5.8216558E+03;
  8.1032880E-02;  9.9999998E-03;  2.0970085E-01;2985;  2.1164653E-01;  0.0000000E+00; -7.3032947E-03;  9.9018060E+02;  1.0000000E-01; -8.1351768E+03;3;  3.2597256E+00;  0.0000000E+00;  9.8487225E+00;0;  4.8216137E-01;  3.9205141E+04;  0.0000000E+00;  7.6778704E-01;  4.0000000E+04;  0.0000000E+00;  4.0016715E+04;  5.7969064E-01;  0.0000000E+00; -9.7529255E-02;  3.0951829E+03;
  8.0829233E-02;  9.9999998E-03;  2.1968977E-01;2986;  2.0470919E-01;  0.0000000E+00; -1.0535599E-02;  9.9024091E+02;  1.0000000E-01; -8.0852026E+03;3;  1.1342395E+01;  0.0000000E+00;  1.4740223E+01;0;  5.4018617E-01;  3.9234418E+04;  0.0000000E+00;  8.1833398E-01;  4.0000000E+04;  0.0000000E+00;  3.9990676E+04;  6.2746060E-01;  0.0000000E+00; -8.7274417E-02;  1.2332546E+03;
  8.0609731E-02;  9.9999998E-03;  2.2968660E-01;2987;  1.9374110E-01;  0.0000000E+00; -1.3833157E-02;  9.9041956E+02;  1.0000000E-01; -7.9372070E+03;3;  2.5317255E+01;  0.0000000E+00;  1.9121859E+01;0;  5.9694308E-01;  3.9274875E+04;  0.0000000E+00;  7.9878330E-01;  4.0000000E+04;  0.0000000E+00;  3.9962758E+04;  6.6703957E-01;  0.0000000E+00; -7.0096493E-02;  4.0382429E+03;
  9.1657780E-02;  9.9999998E-03;  6.9941066E-02;3032;  2.4373892E-01;  0.0000000E+00; -9.8335696E-04;  9.9370074E+02;  1.0000000E-01; -5.2188149E+03;3; -1.6630896E+01;  0.0000000E+00; -5.3105056E-01;0;  1.4935295E-01;  3.9451016E+04;  0.0000000E+00;  3.2577040E-03;  4.0000000E+04;  0.0000000E+00;  4.0051684E+04;  1.4976788E-01;  0.0000000E+00; -4.1491745E-04;  6.9856514E+03;
  9.1692358E-02;  9.9999998E-03;  7.9933681E-02;3033;  2.4229154E-01;  0.0000000E+00; -9.1549166E-04;  9.9356189E+02;  1.0000000E-01; -5.3338735E+03;3; -1.6044058E+01;  0.0000000E+00; -6.5281302E-01;0;  1.4177993E-01;  3.9437445E+04;  0.0000000E+00;  1.9834994E-03;  4.0000000E+04;  0.0000000E+00;  4.0054195E+04;  1.4290875E-01;  0.0000000E+00; -1.1288298E-03;  7.3073291E+03;
  9.1729917E-02;  9.9999998E-03;  8.9926764E-02;3034;  2.4077162E-01;  0.0000000E+00; -7.1021623E-04;  9.9340302E+02;  1.0000000E-01; -5.4654746E+03;3; -1.5387163E+01;  0.0000000E+00; -7.7535790E-01;0;  1.3468598E-01;  3.9421746E+04;  0.0000000E+00; -2.0306895E-04;  4.0000000E+04;  0.0000000E+00;  4.0057457E+04;  1.3721704E-01;  0.0000000E+00; -2.5310733E-03;  7.7378330E+03;
  9.1767550E-02;  9.9999998E-03;  9.9919870E-02;3035;  2.3919107E-01;  0.0000000E+00; -3.5399149E-04;  9.9322888E+02;  1.0000000E-01; -5.6097671E+03;3; -1.4656814E+01;  0.0000000E+00; -8.2335502E-01;0;  1.2850176E-01;  3.9403809E+04;  0.0000000E+00; -2.7719985E-03;  4.0000000E+04;  0.0000000E+00;  4.0061746E+04;  1.3356712E-01;  0.0000000E+00; -5.0653727E-03;  8.2814668E+03;
  9.1801360E-02;  9.9999998E-03;  1.0991228E-01;3036;  2.3754348E-01;  0.0000000E+00;  1.1620579E-04;  9.9303607E+02;  1.0000000E-01; -5.7694658E+03;3; -1.3867903E+01;  0.0000000E+00; -8.2671195E-01;0;  1.2377390E-01;  3.9383824E+04;  0.0000000E+00; -4.2150957E-03;  4.0000000E+04;  0.0000000E+00;  4.0066738E+04;  1.3296272E-01;  0.0000000E+00; -9.1888206E-03;  8.9265400E+03;
  9.1826737E-02;  9.9999998E-03;  1.1990315E-01;3037;  2.3581286E-01;  0.0000000E+00;  6.7382772E-04;  9.9282764E+02;  1.0000000E-01; -5.9421523E+03;3; -1.3038470E+01;  0.0000000E+00; -7.2261095E-01;0;  1.2120886E-01;  3.9361859E+04;  0.0000000E+00; -1.4463660E-03;  4.0000000E+04;  0.0000000E+00;  4.0072320E+04;  1.3650312E-01;  0.0000000E+00; -1.5294255E-02;  9.6402393E+03;
  9.1839582E-02;  9.9999998E-03;  1.2989172E-01;3038;  2.3397149E-01;  0.0000000E+00;  1.2110705E-03;  9.9259967E+02;  1.0000000E-01; -6.1310361E+03;3; -1.2206092E+01;  0.0000000E+00; -5.8887470E-01;0;  1.2168655E-01;  3.9338242E+04;  0.0000000E+00;  1.0731860E-02;  4.0000000E+04;  0.0000000E+00;  4.0077957E+04;  1.4531329E-01;  0.0000000E+00; -2.3626741E-02;  1.0364570E+04;
  9.1836534E-02;  9.9999998E-03;  1.3987704E-01;3039;  2.3199846E-01;  0.0000000E+00;  1.6601359E-03;  9.9234906E+02;  1.0000000E-01; -6.3386353E+03;3; -1.1404263E+01;  0.0000000E+00; -4.5238778E-01;0;  1.2625062E-01;  3.9313383E+04;  0.0000000E+00;  3.9733626E-02;  4.0000000E+04;  0.0000000E+00;  4.0083043E+04;  1.6046117E-01;  0.0000000E+00; -3.4210555E-02;  1.1014387E+04;
  9.1814876E-02;  9.9999998E-03;  1.4985894E-01;3040;  2.2986917E-01;  0.0000000E+00;  1.9703889E-03;  9.9207220E+02;  1.0000000E-01; -6.5680112E+03;3; -1.0733018E+01;  0.0000000E+00; -2.8122750E-01;0;  1.3606110E-01;  3.9288117E+04;  0.0000000E+00;  9.4490916E-02;  4.0000000E+04;  0.0000000E+00;  4.0086602E+04;  1.8285373E-01;  0.0000000E+00; -4.6792630E-02;  1.1478536E+04;
  9.1770746E-02;  9.9999998E-03;  1.5983784E-01;3041;  2.2757365E-01;  0.0000000E+00;  2.0563169E-03;  9.9177051E+02;  1.0000000E-01; -6.8179795E+03;3; -1.0268067E+01;  0.0000000E+00; -2.8715268E-02;0;  1.5237322E-01;  3.9263266E+04;  0.0000000E+00;  1.8354316E-01;  4.0000000E+04;  0.0000000E+00;  4.0087641E+04;  2.1312965E-01;  0.0000000E+00; -6.0756434E-02;  1.1629977E+04;
  9.1702022E-02;  9.9999998E-03;  1.6981432E-01;3042;  2.2509256E-01;  0.0000000E+00;  1.8398631E-03;  9.9144739E+02;  1.0000000E-01; -7.0856758E+03;3; -9.8639307E+00;  0.0000000E+00;  3.1058693E-01;0;  1.7640904E-01;  3.9239961E+04;  0.0000000E+00;  3.1213599E-01;  4.0000000E+04;  0.0000000E+00;  4.0085051E+04;  2.5147185E-01;  0.0000000E+00; -7.5062804E-02;  1.1344245E+04;
  9.1606222E-02;  9.9999998E-03;  1.7978920E-01;3043;  2.2240792E-01;  0.0000000E+00;  1.2483273E-03;  9.9111139E+02;  1.0000000E-01; -7.3640381E+03;3; -9.5144186E+00;  0.0000000E+00;  1.2384197E+00;0;  2.0916593E-01;  3.9220000E+04;  0.0000000E+00;  4.7821268E-01;  4.0000000E+04;  0.0000000E+00;  4.0078176E+04;  2.9747999E-01;  0.0000000E+00; -8.8314049E-02;  1.0518623E+04;
  9.1481775E-02;  9.9999998E-03;  1.8976380E-01;3044;  2.1950908E-01;  0.0000000E+00;  1.8651348E-04;  9.9077747E+02;  1.0000000E-01; -7.6406724E+03;3; -8.7282162E+00;  0.0000000E+00;  3.1209679E+00;0;  2.5111544E-01;  3.9204887E+04;  0.0000000E+00;  6.6888678E-01;  4.0000000E+04;  0.0000000E+00;  4.0066328E+04;  3.5001707E-01;  0.0000000E+00; -9.8901629E-02;  9.0887139E+03;
  9.1327786E-02;  9.9999998E-03;  1.9973962E-01;3045;  2.1636455E-01;  0.0000000E+00; -1.4869507E-03;  9.9047229E+02;  1.0000000E-01; -7.8935044E+03;3; -6.7627902E+00;  0.0000000E+00;  6.4637465E+00;0;  3.0193359E-01;  3.9196957E+04;  0.0000000E+00;  8.6076754E-01;  4.0000000E+04;  0.0000000E+00;  4.0049285E+04;  4.0712777E-01;  0.0000000E+00; -1.0519418E-01;  7.0473555E+03;
  9.1143660E-02;  9.9999998E-03;  2.0971882E-01;3046;  2.1245214E-01;  0.0000000E+00; -3.8596878E-03;  9.9022198E+02;  1.0000000E-01; -8.1009062E+03;3; -1.8487968E+00;  0.0000000E+00;  1.1615164E+01;0;  3.6032742E-01;  3.9197945E+04;  0.0000000E+00;  1.0293159E+00;  4.0000000E+04;  0.0000000E+00;  4.0027477E+04;  4.6606469E-01;  0.0000000E+00; -1.0573728E-01;  4.4862783E+03;
  9.0934642E-02;  9.9999998E-03;  2.1970335E-01;3047;  2.0699938E-01;  0.0000000E+00; -7.0853010E-03;  9.9006329E+02;  1.0000000E-01; -8.2323594E+03;3;  7.1473532E+00;  0.0000000E+00;  1.7877382E+01;0;  4.2380458E-01;  3.9209773E+04;  0.0000000E+00;  1.1570753E+00;  4.0000000E+04;  0.0000000E+00;  4.0001758E+04;  5.2326834E-01;  0.0000000E+00; -9.9463776E-02;  1.9592271E+03;
  9.0703808E-02;  9.9999998E-03;  2.2969583E-01;3048;  1.9859669E-01;  0.0000000E+00; -1.0752195E-02;  9.9002960E+02;  1.0000000E-01; -8.2603086E+03;3;  2.2306437E+01;  0.0000000E+00;  2.4273577E+01;0;  4.8872924E-01;  3.9233754E+04;  0.0000000E+00;  1.2339449E+00;  4.0000000E+04;  0.0000000E+00;  3.9973531E+04;  5.7460332E-01;  0.0000000E+00; -8.5874081E-02;  3.0577112E+03;
  1.0175246E-01;  9.9999998E-03;  6.9950581E-02;3093;  2.4236050E-01;  0.0000000E+00;  1.4312738E-04;  9.9486426E+02;  1.0000000E-01; -4.2548423E+03;3; -2.1957756E+01;  0.0000000E+00; -9.2918622E-01;0;  9.3378253E-02;  3.9549980E+04;  0.0000000E+00;  5.8086049E-03;  4.0000000E+04;  0.0000000E+00;  4.0044234E+04;  7.9811007E-02;  0.0000000E+00;  1.3567246E-02;  5.9611538E+03;
  1.0178782E-01;  9.9999998E-03;  7.9944901E-02;3094;  2.4081062E-01;  0.0000000E+00;  3.4035239E-04;  9.9473785E+02;  1.0000000E-01; -4.3595801E+03;3; -2.1515177E+01;  0.0000000E+00; -1.0535717E+00;0;  8.2992554E-02;  3.9537805E+04;  0.0000000E+00;  4.1384539E-03;  4.0000000E+04;  0.0000000E+00;  4.0046465E+04;  7.0702121E-02;  0.0000000E+00;  1.2290435E-02;  6.2492817E+03;
  1.0182661E-01;  9.9999998E-03;  8.9939989E-02;3095;  2.3920025E-01;  0.0000000E+00;  6.7282951E-04;  9.9459058E+02;  1.0000000E-01; -4.4816011E+03;3; -2.1022364E+01;  0.0000000E+00; -1.1379720E+00;0;  7.3041335E-02;  3.9523094E+04;  0.0000000E+00;  1.0396446E-03;  4.0000000E+04;  0.0000000E+00;  4.0049590E+04;  6.2536724E-02;  0.0000000E+00;  1.0504614E-02;  6.6592754E+03;
  1.0186563E-01;  9.9999998E-03;  9.9935420E-02;3096;  2.3754577E-01;  0.0000000E+00;  1.1607559E-03;  9.9441980E+02;  1.0000000E-01; -4.6230786E+03;3; -2.0481258E+01;  0.0000000E+00; -1.2417861E+00;0;  6.3935883E-02;  3.9505512E+04;  0.0000000E+00; -2.8579582E-03;  4.0000000E+04;  0.0000000E+00;  4.0053887E+04;  5.6199715E-02;  0.0000000E+00;  7.7361702E-03;  7.2052827E+03;
  1.0190053E-01;  9.9999998E-03;  1.0993035E-01;3097;  2.3585977E-01;  0.0000000E+00;  1.8286848E-03;  9.9422662E+02;  1.0000000E-01; -4.7831235E+03;3; -1.9882706E+01;  0.0000000E+00; -1.2170551E+00;0;  5.6175262E-02;  3.9484941E+04;  0.0000000E+00; -5.7021510E-03;  4.0000000E+04;  0.0000000E+00;  4.0059211E+04;  5.2716188E-02;  0.0000000E+00;  3.4590724E-03;  7.8858242E+03;
  1.0192667E-01;  9.9999998E-03;  1.1992390E-01;3098;  2.3413363E-01;  0.0000000E+00;  2.5739567E-03;  9.9400439E+02;  1.0000000E-01; -4.9672666E+03;3; -1.9233618E+01;  0.0000000E+00; -1.0808342E+00;0;  5.0404690E-02;  3.9461215E+04;  0.0000000E+00; -3.7593560E-03;  4.0000000E+04;  0.0000000E+00;  4.0065363E+04;  5.3223997E-02;  0.0000000E+00; -2.8193064E-03;  8.6773086E+03;
  1.0193925E-01;  9.9999998E-03;  1.2991501E-01;3099;  2.3233905E-01;  0.0000000E+00;  3.2913417E-03;  9.9374854E+02;  1.0000000E-01; -5.1792109E+03;3; -1.8549826E+01;  0.0000000E+00; -8.7703788E-01;0;  4.7462352E-02;  3.9434371E+04;  0.0000000E+00;  9.1227619E-03;  4.0000000E+04;  0.0000000E+00;  4.0072004E+04;  5.8926310E-02;  0.0000000E+00; -1.1463959E-02;  9.5289102E+03;
  1.0193519E-01;  9.9999998E-03;  1.3990295E-01;3100;  2.3045348E-01;  0.0000000E+00;  3.8691422E-03;  9.9345154E+02;  1.0000000E-01; -5.4252783E+03;3; -1.7881845E+01;  0.0000000E+00; -6.7500877E-01;0;  4.8380435E-02;  3.9404625E+04;  0.0000000E+00;  4.1539378E-02;  4.0000000E+04;  0.0000000E+00;  4.0078539E+04;  7.1003109E-02;  0.0000000E+00; -2.2622673E-02;  1.0359062E+04;
  1.0191242E-01;  9.9999998E-03;  1.4988728E-01;3101;  2.2846259E-01;  0.0000000E+00;  4.2686835E-03;  9.9310925E+02;  1.0000000E-01; -5.7088750E+03;3; -1.7241940E+01;  0.0000000E+00; -4.7160873E-01;0;  5.4362055E-02;  3.9372148E+04;  0.0000000E+00;  1.0367729E-01;  4.0000000E+04;  0.0000000E+00;  4.0083891E+04;  9.0515979E-02;  0.0000000E+00; -3.6153924E-02;  1.1055303E+04;
  1.0186844E-01;  9.9999998E-03;  1.5986843E-01;3102;  2.2634628E-01;  0.0000000E+00;  4.4506309E-03;  9.9271667E+02;  1.0000000E-01; -6.0341006E+03;3; -1.6642267E+01;  0.0000000E+00; -2.7599061E-01;0;  6.6755034E-02;  3.9337922E+04;  0.0000000E+00;  2.0514692E-01;  4.0000000E+04;  0.0000000E+00;  4.0087055E+04;  1.1828949E-01;  0.0000000E+00; -5.1534459E-02;  1.1484541E+04;
  1.0180067E-01;  9.9999998E-03;  1.6984667E-01;3103;  2.2408867E-01;  0.0000000E+00;  4.3362295E-03;  9.9227185E+02;  1.0000000E-01; -6.4026333E+03;3; -1.6109789E+01;  0.0000000E+00;  2.1542466E-01;0;  8.6948521E-02;  3.9302906E+04;  0.0000000E+00;  3.5190314E-01;  4.0000000E+04;  0.0000000E+00;  4.0086934E+04;  1.5474801E-01;  0.0000000E+00; -6.7799486E-02;  1.1510789E+04;
  1.0170657E-01;  9.9999998E-03;  1.7982249E-01;3104;  2.2167651E-01;  0.0000000E+00;  3.8473862E-03;  9.9178656E+02;  1.0000000E-01; -6.8046958E+03;3; -1.5372880E+01;  0.0000000E+00;  1.2187998E+00;0;  1.1616273E-01;  3.9268695E+04;  0.0000000E+00;  5.4296368E-01;  4.0000000E+04;  0.0000000E+00;  4.0082520E+04;  1.9975424E-01;  0.0000000E+00; -8.3591506E-02;  1.1013665E+04;
  1.0158401E-01;  9.9999998E-03;  1.8979684E-01;3105;  2.1909003E-01;  0.0000000E+00;  2.9137905E-03;  9.9127802E+02;  1.0000000E-01; -7.2260171E+03;3; -1.4053226E+01;  0.0000000E+00;  3.3700886E+00;0;  1.5516660E-01;  3.9237461E+04;  0.0000000E+00;  7.6756853E-01;  4.0000000E+04;  0.0000000E+00;  4.0073066E+04;  2.5246310E-01;  0.0000000E+00; -9.7296514E-02;  9.9072490E+03;
  1.0143247E-01;  9.9999998E-03;  1.9977114E-01;3106;  2.1629606E-01;  0.0000000E+00;  1.4228029E-03;  9.9077045E+02;  1.0000000E-01; -7.6464990E+03;3; -1.1545325E+01;  0.0000000E+00;  7.2305951E+00;0;  2.0403233E-01;  3.9211535E+04;  0.0000000E+00;  1.0121576E+00;  4.0000000E+04;  0.0000000E+00;  4.0058281E+04;  3.1125396E-01;  0.0000000E+00; -1.0722163E-01;  8.1631528E+03;
  1.0125009E-01;  9.9999998E-03;  2.0974718E-01;3107;  2.1302041E-01;  0.0000000E+00; -7.5325958E-04;  9.9030017E+02;  1.0000000E-01; -8.0361177E+03;3; -6.0451074E+00;  0.0000000E+00;  1.2951906E+01;0;  2.6197007E-01;  3.9193641E+04;  0.0000000E+00;  1.2694615E+00;  4.0000000E+04;  0.0000000E+00;  4.0038301E+04;  3.7375140E-01;  0.0000000E+00; -1.1178133E-01;  5.8535327E+03;
  1.0103584E-01;  9.9999998E-03;  2.1972793E-01;3108;  2.0858222E-01;  0.0000000E+00; -3.7657679E-03;  9.8991010E+02;  1.0000000E-01; -8.3593184E+03;3;  3.4554510E+00;  0.0000000E+00;  2.0646942E+01;0;  3.2713538E-01;  3.9186301E+04;  0.0000000E+00;  1.5385277E+00;  4.0000000E+04;  0.0000000E+00;  4.0013527E+04;  4.3682241E-01;  0.0000000E+00; -1.0968704E-01;  3.3523779E+03;
  1.0080002E-01;  9.9999998E-03;  2.2971514E-01;3109;  2.0212948E-01;  0.0000000E+00; -7.6106531E-03;  9.8964520E+02;  1.0000000E-01; -8.5787695E+03;3;  1.9171537E+01;  0.0000000E+00;  2.8823793E+01;0;  3.9639482E-01;  3.9191875E+04;  0.0000000E+00;  1.8145386E+00;  4.0000000E+04;  0.0000000E+00;  3.9985684E+04;  4.9654514E-01;  0.0000000E+00; -1.0015031E-01;  2.7773706E+03;
  1.1178812E-01;  9.9999998E-03;  6.9960758E-02;3154;  2.4117190E-01;  0.0000000E+00;  1.4116835E-03;  9.9595929E+02;  1.0000000E-01; -3.3476582E+03;3; -2.4864668E+01;  0.0000000E+00; -1.2598586E+00;0;  8.7151065E-02;  3.9644477E+04;  0.0000000E+00;  8.4178234E-03;  4.0000000E+04;  0.0000000E+00;  4.0035758E+04;  6.0093567E-02;  0.0000000E+00;  2.7057501E-02;  4.8233486E+03;
  1.1182585E-01;  9.9999998E-03;  7.9957098E-02;3155;  2.3953021E-01;  0.0000000E+00;  1.6891152E-03;  9.9585010E+02;  1.0000000E-01; -3.4381248E+03;3; -2.4513910E+01;  0.0000000E+00; -1.3963099E+00;0;  7.2976895E-02;  3.9634027E+04;  0.0000000E+00;  6.4753364E-03;  4.0000000E+04;  0.0000000E+00;  4.0037648E+04;  4.7875032E-02;  0.0000000E+00;  2.5101865E-02;  5.0654829E+03;
  1.1186779E-01;  9.9999998E-03;  8.9954615E-02;3156;  2.3782817E-01;  0.0000000E+00;  2.0968553E-03;  9.9572064E+02;  1.0000000E-01; -3.5453809E+03;3; -2.4122614E+01;  0.0000000E+00; -1.5311252E+00;0;  5.9104178E-02;  3.9620875E+04;  0.0000000E+00;  2.5593361E-03;  4.0000000E+04;  0.0000000E+00;  4.0040609E+04;  3.6238559E-02;  0.0000000E+00;  2.2865620E-02;  5.4382876E+03;
  1.1191090E-01;  9.9999998E-03;  9.9952772E-02;3157;  2.3609385E-01;  0.0000000E+00;  2.6726474E-03;  9.9556134E+02;  1.0000000E-01; -3.6773279E+03;3; -2.3705269E+01;  0.0000000E+00; -1.5972333E+00;0;  4.5921743E-02;  3.9604355E+04;  0.0000000E+00; -2.7139550E-03;  4.0000000E+04;  0.0000000E+00;  4.0044676E+04;  2.6061188E-02;  0.0000000E+00;  1.9860554E-02;  5.9660659E+03;
  1.1195070E-01;  9.9999998E-03;  1.0995072E-01;3158;  2.3435311E-01;  0.0000000E+00;  3.4349305E-03;  9.9537305E+02;  1.0000000E-01; -3.8333235E+03;3; -2.3262878E+01;  0.0000000E+00; -1.5883236E+00;0;  3.3867057E-02;  3.9584016E+04;  0.0000000E+00; -7.3615741E-03;  4.0000000E+04;  0.0000000E+00;  4.0050078E+04;  1.8363405E-02;  0.0000000E+00;  1.5503653E-02;  6.6584102E+03;
  1.1198197E-01;  9.9999998E-03;  1.1994734E-01;3159;  2.3261338E-01;  0.0000000E+00;  4.3283049E-03;  9.9514490E+02;  1.0000000E-01; -4.0223550E+03;3; -2.2771149E+01;  0.0000000E+00; -1.4863085E+00;0;  2.3508715E-02;  3.9559484E+04;  0.0000000E+00; -7.3445733E-03;  4.0000000E+04;  0.0000000E+00;  4.0056703E+04;  1.4299557E-02;  0.0000000E+00;  9.2091579E-03;  7.5025312E+03;
  1.1199982E-01;  9.9999998E-03;  1.2994163E-01;3160;  2.3085991E-01;  0.0000000E+00;  5.2145300E-03;  9.9486914E+02;  1.0000000E-01; -4.2508423E+03;3; -2.2244190E+01;  0.0000000E+00; -1.2728598E+00;0;  1.5612414E-02;  3.9530301E+04;  0.0000000E+00;  3.9370111E-03;  4.0000000E+04;  0.0000000E+00;  4.0064176E+04;  1.5118830E-02;  0.0000000E+00;  4.9358408E-04;  8.4568105E+03;
  1.1200102E-01;  9.9999998E-03;  1.3993290E-01;3161;  2.2905119E-01;  0.0000000E+00;  5.9355749E-03;  9.9453674E+02;  1.0000000E-01; -4.5261929E+03;3; -2.1690084E+01;  0.0000000E+00; -1.0282022E+00;0;  1.1176260E-02;  3.9496348E+04;  0.0000000E+00;  3.5607770E-02;  4.0000000E+04;  0.0000000E+00;  4.0071941E+04;  2.2098660E-02;  0.0000000E+00; -1.0922400E-02;  9.4460195E+03;
  1.1198215E-01;  9.9999998E-03;  1.4992015E-01;3162;  2.2717649E-01;  0.0000000E+00;  6.4277849E-03;  9.9413409E+02;  1.0000000E-01; -4.8598130E+03;3; -2.1138371E+01;  0.0000000E+00; -8.3499175E-01;0;  1.1429345E-02;  3.9457668E+04;  0.0000000E+00;  9.8388359E-02;  4.0000000E+04;  0.0000000E+00;  4.0078957E+04;  3.6454190E-02;  0.0000000E+00; -2.5024844E-02;  1.0359658E+04;
  1.1194316E-01;  9.9999998E-03;  1.5990423E-01;3163;  2.2521940E-01;  0.0000000E+00;  6.6881743E-03;  9.9365930E+02;  1.0000000E-01; -5.2531348E+03;3; -2.0607796E+01;  0.0000000E+00; -5.7317418E-01;0;  1.7808858E-02;  3.9414664E+04;  0.0000000E+00;  2.0245016E-01;  4.0000000E+04;  0.0000000E+00;  4.0084297E+04;  5.9205540E-02;  0.0000000E+00; -4.1396681E-02;  1.1061436E+04;
  1.1188094E-01;  9.9999998E-03;  1.6988495E-01;3164;  2.2316535E-01;  0.0000000E+00;  6.6555250E-03;  9.9310468E+02;  1.0000000E-01; -5.7126279E+03;3; -2.0025904E+01;  0.0000000E+00; -6.6108041E-02;0;  3.1863194E-02;  3.9368473E+04;  0.0000000E+00;  3.5458535E-01;  4.0000000E+04;  0.0000000E+00;  4.0086723E+04;  9.1027424E-02;  0.0000000E+00; -5.9164230E-02;  1.1406415E+04;
  1.1179283E-01;  9.9999998E-03;  1.7986235E-01;3165;  2.2098662E-01;  0.0000000E+00;  6.2659732E-03;  9.9247968E+02;  1.0000000E-01; -6.2304404E+03;3; -1.9202503E+01;  0.0000000E+00;  1.1284320E+00;0;  5.5017747E-02;  3.9320520E+04;  0.0000000E+00;  5.5569094E-01;  4.0000000E+04;  0.0000000E+00;  4.0084887E+04;  1.3206279E-01;  0.0000000E+00; -7.7045046E-02;  1.1258311E+04;
  1.1167683E-01;  9.9999998E-03;  1.8983705E-01;3166;  2.1867286E-01;  0.0000000E+00;  5.4512690E-03;  9.9179901E+02;  1.0000000E-01; -6.7943750E+03;3; -1.7689844E+01;  0.0000000E+00;  3.5496757E+00;0;  8.8343650E-02;  3.9273289E+04;  0.0000000E+00;  8.0519086E-01;  4.0000000E+04;  0.0000000E+00;  4.0078332E+04;  1.8181287E-01;  0.0000000E+00; -9.3469217E-02;  1.0511905E+04;
  1.1153050E-01;  9.9999998E-03;  1.9981043E-01;3167;  2.1619056E-01;  0.0000000E+00;  4.1191704E-03;  9.9109369E+02;  1.0000000E-01; -7.3787041E+03;3; -1.4857924E+01;  0.0000000E+00;  7.7499776E+00;0;  1.3235140E-01;  3.9229297E+04;  0.0000000E+00;  1.1120994E+00;  4.0000000E+04;  0.0000000E+00;  4.0065992E+04;  2.3908688E-01;  0.0000000E+00; -1.0673548E-01;  9.1211963E+03;
  1.1135443E-01;  9.9999998E-03;  2.0978384E-01;3168;  2.1339478E-01;  0.0000000E+00;  2.1378521E-03;  9.9040125E+02;  1.0000000E-01; -7.9523672E+03;3; -9.3922195E+00;  0.0000000E+00;  1.4118942E+01;0;  1.8676707E-01;  3.9191738E+04;  0.0000000E+00;  1.4997078E+00;  4.0000000E+04;  0.0000000E+00;  4.0048301E+04;  3.0194542E-01;  0.0000000E+00; -1.1517835E-01;  7.1497651E+03;
  1.1114433E-01;  9.9999998E-03;  2.1975991E-01;3169;  2.0972154E-01;  0.0000000E+00; -6.0799462E-04;  9.8977368E+02;  1.0000000E-01; -8.4723027E+03;3;  2.4742304E-01;  0.0000000E+00;  2.2602356E+01;0;  2.5039154E-01;  3.9163980E+04;  0.0000000E+00;  1.9951671E+00;  4.0000000E+04;  0.0000000E+00;  4.0025457E+04;  3.6773825E-01;  0.0000000E+00; -1.1734671E-01;  4.9396577E+03;
  1.1090300E-01;  9.9999998E-03;  2.2974221E-01;3170;  2.0461771E-01;  0.0000000E+00; -4.3620761E-03;  9.8926581E+02;  1.0000000E-01; -8.8930811E+03;3;  1.5554093E+01;  0.0000000E+00;  3.2505646E+01;0;  3.2082561E-01;  3.9149332E+04;  0.0000000E+00;  2.6051455E+00;  4.0000000E+04;  0.0000000E+00;  3.9998621E+04;  4.3302798E-01;  0.0000000E+00; -1.1220237E-01;  3.8255996E+03;
  1.2178316E-01;  9.9999998E-03;  6.9969878E-02;3215;  2.4018569E-01;  0.0000000E+00;  2.8548432E-03;  9.9693054E+02;  1.0000000E-01; -2.5429895E+03;3; -2.6186310E+01;  0.0000000E+00; -1.5935519E+00;0;  1.2314714E-01;  3.9729695E+04;  0.0000000E+00;  1.0629860E-02;  4.0000000E+04;  0.0000000E+00;  4.0027016E+04;  8.3491780E-02;  0.0000000E+00;  3.9655369E-02;  3.6373289E+03;
  1.2182377E-01;  9.9999998E-03;  7.9968341E-02;3216;  2.3845778E-01;  0.0000000E+00;  3.1698148E-03;  9.9684625E+02;  1.0000000E-01; -2.6128147E+03;3; -2.5880798E+01;  0.0000000E+00; -1.7438895E+00;0;  1.0441764E-01;  3.9721617E+04;  0.0000000E+00;  8.6283451E-03;  4.0000000E+04;  0.0000000E+00;  4.0028359E+04;  6.7444772E-02;  0.0000000E+00;  3.6972873E-02;  3.8225359E+03;
  1.2187002E-01;  9.9999998E-03;  8.9968748E-02;3217;  2.3666862E-01;  0.0000000E+00;  3.6036689E-03;  9.9673596E+02;  1.0000000E-01; -2.7041702E+03;3; -2.5562481E+01;  0.0000000E+00; -1.8918638E+00;0;  8.5783303E-02;  3.9710445E+04;  0.0000000E+00;  4.2081103E-03;  4.0000000E+04;  0.0000000E+00;  4.0030852E+04;  5.1501721E-02;  0.0000000E+00;  3.4281578E-02;  4.1421313E+03;
  1.2191825E-01;  9.9999998E-03;  9.9970207E-02;3218;  2.3485675E-01;  0.0000000E+00;  4.2114402E-03;  9.9659680E+02;  1.0000000E-01; -2.8194756E+03;3; -2.5235207E+01;  0.0000000E+00; -1.9657668E+00;0;  6.7610979E-02;  3.9695723E+04;  0.0000000E+00; -2.1302714E-03;  4.0000000E+04;  0.0000000E+00;  4.0034754E+04;  3.6519818E-02;  0.0000000E+00;  3.1091163E-02;  4.6307056E+03;
  1.2196405E-01;  9.9999998E-03;  1.0997137E-01;3219;  2.3305246E-01;  0.0000000E+00;  5.0113942E-03;  9.9641888E+02;  1.0000000E-01; -2.9668789E+03;3; -2.4877234E+01;  0.0000000E+00; -1.9821370E+00;0;  5.0276823E-02;  3.9676488E+04;  0.0000000E+00; -8.4892185E-03;  4.0000000E+04;  0.0000000E+00;  4.0039977E+04;  2.3502382E-02;  0.0000000E+00;  2.6774444E-02;  5.3093936E+03;
  1.2200250E-01;  9.9999998E-03;  1.1997132E-01;3220;  2.3126891E-01;  0.0000000E+00;  5.9720776E-03;  9.9619574E+02;  1.0000000E-01; -3.1517625E+03;3; -2.4504768E+01;  0.0000000E+00; -1.8575206E+00;0;  3.4261629E-02;  3.9651902E+04;  0.0000000E+00; -1.0912250E-02;  4.0000000E+04;  0.0000000E+00;  4.0046730E+04;  1.3599100E-02;  0.0000000E+00;  2.0662531E-02;  6.1772334E+03;
  1.2202846E-01;  9.9999998E-03;  1.2996913E-01;3221;  2.2951771E-01;  0.0000000E+00;  6.9857468E-03;  9.9591016E+02;  1.0000000E-01; -3.3883484E+03;3; -2.4094240E+01;  0.0000000E+00; -1.6515859E+00;0;  2.0240838E-02;  3.9621449E+04;  0.0000000E+00; -2.9406631E-03;  4.0000000E+04;  0.0000000E+00;  4.0054844E+04;  8.0838818E-03;  0.0000000E+00;  1.2156956E-02;  7.2036714E+03;
  1.2203690E-01;  9.9999998E-03;  1.3996388E-01;3222;  2.2778422E-01;  0.0000000E+00;  7.8665018E-03;  9.9555048E+02;  1.0000000E-01; -3.6863645E+03;3; -2.3662247E+01;  0.0000000E+00; -1.4235665E+00;0;  9.1495812E-03;  3.9584441E+04;  0.0000000E+00;  2.4310224E-02;  4.0000000E+04;  0.0000000E+00;  4.0063531E+04;  8.3074719E-03;  0.0000000E+00;  8.4210892E-04;  8.3224102E+03;
  1.2202591E-01;  9.9999998E-03;  1.4995481E-01;3223;  2.2601911E-01;  0.0000000E+00;  8.4674731E-03;  9.9510614E+02;  1.0000000E-01; -4.0544529E+03;3; -2.3206345E+01;  0.0000000E+00; -1.2110689E+00;0;  2.2179177E-03;  3.9540539E+04;  0.0000000E+00;  8.1248187E-02;  4.0000000E+04;  0.0000000E+00;  4.0072129E+04;  1.5623390E-02;  0.0000000E+00; -1.3405472E-02;  9.4274463E+03;
  1.2199487E-01;  9.9999998E-03;  1.5994205E-01;3224;  2.2420128E-01;  0.0000000E+00;  8.7959273E-03;  9.9456012E+02;  1.0000000E-01; -4.5068350E+03;3; -2.2740643E+01;  0.0000000E+00; -9.6199548E-01;0;  9.7036920E-04;  3.9490152E+04;  0.0000000E+00;  1.7793071E-01;  4.0000000E+04;  0.0000000E+00;  4.0079441E+04;  3.1260993E-02;  0.0000000E+00; -3.0290624E-02;  1.0382550E+04;
  1.2194210E-01;  9.9999998E-03;  1.6992593E-01;3225;  2.2232041E-01;  0.0000000E+00;  8.8419197E-03;  9.9391010E+02;  1.0000000E-01; -5.0453877E+03;3; -2.2203756E+01;  0.0000000E+00; -4.2653814E-01;0;  7.0953295E-03;  3.9433973E+04;  0.0000000E+00;  3.2186487E-01;  4.0000000E+04;  0.0000000E+00;  4.0084137E+04;  5.6145497E-02;  0.0000000E+00; -4.9050167E-02;  1.1036315E+04;
  1.2186486E-01;  9.9999998E-03;  1.7990574E-01;3226;  2.2034726E-01;  0.0000000E+00;  8.5504176E-03;  9.9315845E+02;  1.0000000E-01; -5.6680859E+03;3; -2.1372061E+01;  0.0000000E+00;  8.7517631E-01;0;  2.2225760E-02;  3.9373543E+04;  0.0000000E+00;  5.1930869E-01;  4.0000000E+04;  0.0000000E+00;  4.0085234E+04;  9.0734482E-02;  0.0000000E+00; -6.8508722E-02;  1.1240479E+04;
  1.2176056E-01;  9.9999998E-03;  1.8988176E-01;3227;  2.1826495E-01;  0.0000000E+00;  7.8529846E-03;  9.9232391E+02;  1.0000000E-01; -6.3594741E+03;3; -1.9882381E+01;  0.0000000E+00;  3.4950378E+00;0;  4.7747761E-02;  3.9311059E+04;  0.0000000E+00;  7.8771967E-01;  4.0000000E+04;  0.0000000E+00;  4.0081512E+04;  1.3493149E-01;  0.0000000E+00; -8.7183729E-02;  1.0874641E+04;
  1.2162634E-01;  9.9999998E-03;  1.9985488E-01;3228;  2.1604182E-01;  0.0000000E+00;  6.6789370E-03;  9.9143182E+02;  1.0000000E-01; -7.0985640E+03;3; -1.7142292E+01;  0.0000000E+00;  8.0639315E+00;0;  8.4608831E-02;  3.9249520E+04;  0.0000000E+00;  1.1693313E+00;  4.0000000E+04;  0.0000000E+00;  4.0072301E+04;  1.8802109E-01;  0.0000000E+00; -1.0341226E-01;  9.8801191E+03;
  1.2145948E-01;  9.9999998E-03;  2.0982628E-01;3229;  2.1358742E-01;  0.0000000E+00;  4.9300012E-03;  9.9052649E+02;  1.0000000E-01; -7.8486167E+03;3; -1.1929086E+01;  0.0000000E+00;  1.4799435E+01;0;  1.3311042E-01;  3.9192414E+04;  0.0000000E+00;  1.7307081E+00;  4.0000000E+04;  0.0000000E+00;  4.0057406E+04;  2.4861076E-01;  0.0000000E+00; -1.1550035E-01;  8.3246846E+03;
  1.2126125E-01;  9.9999998E-03;  2.1979792E-01;3230;  2.1055277E-01;  0.0000000E+00;  2.4007577E-03;  9.8966095E+02;  1.0000000E-01; -8.5656826E+03;3; -2.9511423E+00;  0.0000000E+00;  2.3786741E+01;0;  1.9267528E-01;  3.9143801E+04;  0.0000000E+00;  2.5415428E+00;  4.0000000E+04;  0.0000000E+00;  4.0037047E+04;  3.1457260E-01;  0.0000000E+00; -1.2189732E-01;  6.5856982E+03;
  1.2102915E-01;  9.9999998E-03;  2.2977304E-01;3231;  2.0634770E-01;  0.0000000E+00; -1.0136181E-03;  9.8890332E+02;  1.0000000E-01; -9.1933691E+03;3;  1.1688873E+01;  0.0000000E+00;  3.4639343E+01;0;  2.6166356E-01;  3.9107828E+04;  0.0000000E+00;  3.6349919E+00;  4.0000000E+04;  0.0000000E+00;  4.0012133E+04;  3.8302815E-01;  0.0000000E+00; -1.2136458E-01;  5.7883970E+03;
  1.3175821E-01;  9.9999998E-03;  6.9978654E-02;3276;  2.3939632E-01;  0.0000000E+00;  4.4729970E-03;  9.9773926E+02;  1.0000000E-01; -1.8729839E+03;3; -2.6694977E+01;  0.0000000E+00; -1.8694661E+00;0;  1.9271888E-01;  3.9802133E+04;  0.0000000E+00;  1.1860440E-02;  4.0000000E+04;  0.0000000E+00;  4.0018172E+04;  1.4170988E-01;  0.0000000E+00;  5.1009003E-02;  2.4679641E+03;
  1.3180161E-01;  9.9999998E-03;  7.9978868E-02;3277;  2.3760131E-01;  0.0000000E+00;  4.8003853E-03;  9.9768243E+02;  1.0000000E-01; -1.9200443E+03;3; -2.6347944E+01;  0.0000000E+00; -2.0747907E+00;0;  1.6897443E-01;  3.9796668E+04;  0.0000000E+00;  1.0024074E-02;  4.0000000E+04;  0.0000000E+00;  4.0019008E+04;  1.2133143E-01;  0.0000000E+00;  4.7643006E-02;  2.5870974E+03;
  1.3185216E-01;  9.9999998E-03;  8.9981712E-02;3278;  2.3573391E-01;  0.0000000E+00;  5.2324417E-03;  9.9759821E+02;  1.0000000E-01; -1.9898201E+03;3; -2.6068262E+01;  0.0000000E+00; -2.1960347E+00;0;  1.4504936E-01;  3.9788172E+04;  0.0000000E+00;  5.5324971E-03;  4.0000000E+04;  0.0000000E+00;  4.0021125E+04;  1.0047729E-01;  0.0000000E+00;  4.4572063E-02;  2.8388279E+03;
  1.3190524E-01;  9.9999998E-03;  9.9986434E-02;3279;  2.3384449E-01;  0.0000000E+00;  5.8191852E-03;  9.9748334E+02;  1.0000000E-01; -2.0850273E+03;3; -2.5775160E+01;  0.0000000E+00; -2.2987852E+00;0;  1.2128721E-01;  3.9775746E+04;  0.0000000E+00; -1.2940551E-03;  4.0000000E+04;  0.0000000E+00;  4.0024324E+04;  7.9973079E-02;  0.0000000E+00;  4.1314136E-02;  3.2676880E+03;
  1.3195586E-01;  9.9999998E-03;  1.0999095E-01;3280;  2.3196380E-01;  0.0000000E+00;  6.6079907E-03;  9.9732483E+02;  1.0000000E-01; -2.2163323E+03;3; -2.5484663E+01;  0.0000000E+00; -2.3112893E+00;0;  9.8004803E-02;  3.9758273E+04;  0.0000000E+00; -8.8184355E-03;  4.0000000E+04;  0.0000000E+00;  4.0029246E+04;  6.0795851E-02;  0.0000000E+00;  3.7208952E-02;  3.9067021E+03;
  1.3199997E-01;  9.9999998E-03;  1.1999408E-01;3281;  2.3011598E-01;  0.0000000E+00;  7.5939773E-03;  9.9711285E+02;  1.0000000E-01; -2.3919321E+03;3; -2.5188383E+01;  0.0000000E+00; -2.2359347E+00;0;  7.5601466E-02;  3.9734727E+04;  0.0000000E+00; -1.3517289E-02;  4.0000000E+04;  0.0000000E+00;  4.0036078E+04;  4.4085745E-02;  0.0000000E+00;  3.1515721E-02;  4.7674067E+03;
  1.3203265E-01;  9.9999998E-03;  1.2999518E-01;3282;  2.2833958E-01;  0.0000000E+00;  8.6513823E-03;  9.9682837E+02;  1.0000000E-01; -2.6276292E+03;3; -2.4857683E+01;  0.0000000E+00; -2.0526524E+00;0;  5.4656748E-02;  3.9703965E+04;  0.0000000E+00; -9.6198907E-03;  4.0000000E+04;  0.0000000E+00;  4.0044332E+04;  3.1128032E-02;  0.0000000E+00;  2.3528716E-02;  5.8316011E+03;
  1.3204934E-01;  9.9999998E-03;  1.3999364E-01;3283;  2.2663781E-01;  0.0000000E+00;  9.6186595E-03;  9.9645691E+02;  1.0000000E-01; -2.9353735E+03;3; -2.4505322E+01;  0.0000000E+00; -1.8087498E+00;0;  3.6027744E-02;  3.9665176E+04;  0.0000000E+00;  1.0789198E-02;  4.0000000E+04;  0.0000000E+00;  4.0053961E+04;  2.3329364E-02;  0.0000000E+00;  1.2698381E-02;  7.0435161E+03;
  1.3204825E-01;  9.9999998E-03;  1.4998889E-01;3284;  2.2497307E-01;  0.0000000E+00;  1.0369868E-02;  9.9598108E+02;  1.0000000E-01; -3.3295845E+03;3; -2.4127825E+01;  0.0000000E+00; -1.5898514E+00;0;  2.0925846E-02;  3.9617711E+04;  0.0000000E+00;  5.6984339E-02;  4.0000000E+04;  0.0000000E+00;  4.0063723E+04;  2.2169750E-02;  0.0000000E+00; -1.2439042E-03;  8.3044053E+03;
  1.3202567E-01;  9.9999998E-03;  1.5997970E-01;3285;  2.2328666E-01;  0.0000000E+00;  1.0812242E-02;  9.9538403E+02;  1.0000000E-01; -3.8242373E+03;3; -2.3724375E+01;  0.0000000E+00; -1.3735483E+00;0;  1.0933530E-02;  3.9561539E+04;  0.0000000E+00;  1.3816006E-01;  4.0000000E+04;  0.0000000E+00;  4.0072730E+04;  2.9074334E-02;  0.0000000E+00; -1.8140804E-02;  9.4811602E+03;
  1.3198489E-01;  9.9999998E-03;  1.6996695E-01;3286;  2.2154854E-01;  0.0000000E+00;  1.0943369E-02;  9.9465991E+02;  1.0000000E-01; -4.4241709E+03;3; -2.3252352E+01;  0.0000000E+00; -7.9640657E-01;0;  7.8759044E-03;  3.9497176E+04;  0.0000000E+00;  2.6269200E-01;  4.0000000E+04;  0.0000000E+00;  4.0079738E+04;  4.5235261E-02;  0.0000000E+00; -3.7359357E-02;  1.0418589E+04;
  1.3192043E-01;  9.9999998E-03;  1.7994989E-01;3287;  2.1975097E-01;  0.0000000E+00;  1.0746718E-02;  9.9380688E+02;  1.0000000E-01; -5.1308667E+03;3; -2.2482550E+01;  0.0000000E+00;  5.4724449E-01;0;  1.3597120E-02;  3.9425930E+04;  0.0000000E+00;  4.4567269E-01;  4.0000000E+04;  0.0000000E+00;  4.0083426E+04;  7.1458600E-02;  0.0000000E+00; -5.7861481E-02;  1.0961442E+04;
  1.3183166E-01;  9.9999998E-03;  1.8992816E-01;3288;  2.1785890E-01;  0.0000000E+00;  1.0180033E-02;  9.9283704E+02;  1.0000000E-01; -5.9343994E+03;3; -2.1121231E+01;  0.0000000E+00;  3.2812717E+00;0;  2.9811770E-02;  3.9350055E+04;  0.0000000E+00;  7.2743219E-01;  4.0000000E+04;  0.0000000E+00;  4.0082758E+04;  1.0808727E-01;  0.0000000E+00; -7.8275502E-02;  1.0978231E+04;
  1.3171765E-01;  9.9999998E-03;  1.9990216E-01;3289;  2.1585044E-01;  0.0000000E+00;  9.1780294E-03;  9.9178149E+02;  1.0000000E-01; -6.8088936E+03;3; -1.8593287E+01;  0.0000000E+00;  7.9469080E+00;0;  5.7896189E-02;  3.9272461E+04;  0.0000000E+00;  1.1898005E+00;  4.0000000E+04;  0.0000000E+00;  4.0076691E+04;  1.5491177E-01;  0.0000000E+00; -9.7015582E-02;  1.0402218E+04;
  1.3157059E-01;  9.9999998E-03;  2.0987228E-01;3290;  2.1368116E-01;  0.0000000E+00;  7.6324791E-03;  9.9067920E+02;  1.0000000E-01; -7.7221021E+03;3; -1.4028926E+01;  0.0000000E+00;  1.4866264E+01;0;  9.8710835E-02;  3.9196949E+04;  0.0000000E+00;  1.9534894E+00;  4.0000000E+04;  0.0000000E+00;  4.0064914E+04;  2.1112803E-01;  0.0000000E+00; -1.1241719E-01;  9.3186064E+03;
  1.3138942E-01;  9.9999998E-03;  2.1984011E-01;3291;  2.1105671E-01;  0.0000000E+00;  5.4304623E-03;  9.8959039E+02;  1.0000000E-01; -8.6241504E+03;3; -5.9846759E+00;  0.0000000E+00;  2.4130903E+01;0;  1.5237519E-01;  3.9127805E+04;  0.0000000E+00;  3.1483011E+00;  4.0000000E+04;  0.0000000E+00;  4.0047590E+04;  2.7524829E-01;  0.0000000E+00; -1.2287309E-01;  8.1857568E+03;
  1.3117662E-01;  9.9999998E-03;  2.2980818E-01;3292;  2.0763505E-01;  0.0000000E+00;  2.2924589E-03;  9.8858844E+02;  1.0000000E-01; -9.4542500E+03;3;  7.2050400E+00;  0.0000000E+00;  3.5029297E+01;0;  2.1798339E-01;  3.9070398E+04;  0.0000000E+00;  4.8600264E+00;  4.0000000E+04;  0.0000000E+00;  4.0025383E+04;  3.4501880E-01;  0.0000000E+00; -1.2703541E-01;  8.1530352E+03;
  1.4172901E-01;  9.9999998E-03;  6.9988199E-02;3337;  2.3877093E-01;  0.0000000E+00;  6.2684538E-03;  9.9836432E+02;  1.0000000E-01; -1.3551221E+03;3; -2.6809528E+01;  0.0000000E+00; -2.2733197E+00;0;  2.8680307E-01;  3.9859438E+04;  0.0000000E+00;  1.1679676E-02;  4.0000000E+04;  0.0000000E+00;  4.0009746E+04;  2.2600982E-01;  0.0000000E+00;  6.0793255E-02;  1.3764542E+03;
  1.4177372E-01;  9.9999998E-03;  7.9989694E-02;3338;  2.3695073E-01;  0.0000000E+00;  6.6242847E-03;  9.9833496E+02;  1.0000000E-01; -1.3794670E+03;3; -2.6445257E+01;  0.0000000E+00; -2.3110404E+00;0;  2.5800303E-01;  3.9856852E+04;  0.0000000E+00;  1.0155872E-02;  4.0000000E+04;  0.0000000E+00;  4.0010078E+04;  2.0110729E-01;  0.0000000E+00;  5.6895729E-02;  1.4222166E+03;
  1.4182596E-01;  9.9999998E-03;  8.9994043E-02;3339;  2.3501772E-01;  0.0000000E+00;  7.0144814E-03;  9.9828058E+02;  1.0000000E-01; -1.4245028E+03;3; -2.6138580E+01;  0.0000000E+00; -2.4656854E+00;0;  2.2866231E-01;  3.9851281E+04;  0.0000000E+00;  5.9894738E-03;  4.0000000E+04;  0.0000000E+00;  4.0011430E+04;  1.7504884E-01;  0.0000000E+00;  5.3613469E-02;  1.5934543E+03;
  1.4188167E-01;  9.9999998E-03;  1.0000086E-01;3340;  2.3305270E-01;  0.0000000E+00;  7.5313407E-03;  9.9819305E+02;  1.0000000E-01; -1.4970439E+03;3; -2.5864363E+01;  0.0000000E+00; -2.5736754E+00;0;  1.9911137E-01;  3.9841570E+04;  0.0000000E+00; -6.9500442E-04;  4.0000000E+04;  0.0000000E+00;  4.0014051E+04;  1.4863174E-01;  0.0000000E+00;  5.0479639E-02;  1.9434977E+03;
  1.4193577E-01;  9.9999998E-03;  1.1000847E-01;3341;  2.3108980E-01;  0.0000000E+00;  8.2644336E-03;  9.9805908E+02;  1.0000000E-01; -1.6080038E+03;3; -2.5597868E+01;  0.0000000E+00; -2.6521852E+00;0;  1.6961239E-01;  3.9826602E+04;  0.0000000E+00; -8.6499723E-03;  4.0000000E+04;  0.0000000E+00;  4.0018711E+04;  1.2280132E-01;  0.0000000E+00;  4.6811078E-02;  2.5170872E+03;
  1.4198346E-01;  9.9999998E-03;  1.2001460E-01;3342;  2.2916830E-01;  0.0000000E+00;  9.2085507E-03;  9.9786536E+02;  1.0000000E-01; -1.7684930E+03;3; -2.5341558E+01;  0.0000000E+00; -2.5991731E+00;0;  1.4048445E-01;  3.9804828E+04;  0.0000000E+00; -1.5030904E-02;  4.0000000E+04;  0.0000000E+00;  4.0025203E+04;  9.8678350E-02;  0.0000000E+00;  4.1806102E-02;  3.3389653E+03;
  1.4202110E-01;  9.9999998E-03;  1.3001871E-01;3343;  2.2734468E-01;  0.0000000E+00;  1.0245866E-02;  9.9759308E+02;  1.0000000E-01; -1.9940669E+03;3; -2.5080320E+01;  0.0000000E+00; -2.4291029E+00;0;  1.1222339E-01;  3.9774992E+04;  0.0000000E+00; -1.5149828E-02;  4.0000000E+04;  0.0000000E+00;  4.0033500E+04;  7.7560768E-02;  0.0000000E+00;  3.4662627E-02;  4.4039609E+03;
  1.4204462E-01;  9.9999998E-03;  1.4002073E-01;3344;  2.2563320E-01;  0.0000000E+00;  1.1262184E-02;  9.9722406E+02;  1.0000000E-01; -2.2998359E+03;3; -2.4780230E+01;  0.0000000E+00; -2.2207036E+00;0;  8.5605860E-02;  3.9735863E+04;  0.0000000E+00; -2.5910554E-03;  4.0000000E+04;  0.0000000E+00;  4.0043367E+04;  6.0903519E-02;  0.0000000E+00;  2.4702340E-02;  5.6682471E+03;
  1.4205125E-01;  9.9999998E-03;  1.5001996E-01;3345;  2.2401640E-01;  0.0000000E+00;  1.2113258E-02;  9.9673517E+02;  1.0000000E-01; -2.7048616E+03;3; -2.4441160E+01;  0.0000000E+00; -2.0288980E+00;0;  6.1807215E-02;  3.9686523E+04;  0.0000000E+00;  3.0173697E-02;  4.0000000E+04;  0.0000000E+00;  4.0054094E+04;  5.0297681E-02;  0.0000000E+00;  1.1509534E-02;  7.0425845E+03;
  1.4203905E-01;  9.9999998E-03;  1.6001524E-01;3346;  2.2244228E-01;  0.0000000E+00;  1.2706283E-02;  9.9610938E+02;  1.0000000E-01; -3.2233159E+03;3; -2.4084763E+01;  0.0000000E+00; -1.7662442E+00;0;  4.2451430E-02;  3.9626555E+04;  0.0000000E+00;  9.0833403E-02;  4.0000000E+04;  0.0000000E+00;  4.0064535E+04;  4.7355216E-02;  0.0000000E+00; -4.9037873E-03;  8.3987334E+03;
  1.4200856E-01;  9.9999998E-03;  1.7000581E-01;3347;  2.2083601E-01;  0.0000000E+00;  1.2990726E-02;  9.9533472E+02;  1.0000000E-01; -3.8650757E+03;3; -2.3673218E+01;  0.0000000E+00; -1.1758276E+00;0;  2.9478235E-02;  3.9556219E+04;  0.0000000E+00;  1.8880424E-01;  4.0000000E+04;  0.0000000E+00;  4.0073598E+04;  5.3538051E-02;  0.0000000E+00; -2.4059815E-02;  9.5824980E+03;
  1.4196147E-01;  9.9999998E-03;  1.7999266E-01;3348;  2.1917681E-01;  0.0000000E+00;  1.2913346E-02;  9.9440717E+02;  1.0000000E-01; -4.6335479E+03;3; -2.3004263E+01;  0.0000000E+00;  1.3111997E-01;0;  2.4965331E-02;  3.9476719E+04;  0.0000000E+00;  3.4847736E-01;  4.0000000E+04;  0.0000000E+00;  4.0079539E+04;  7.0030853E-02;  0.0000000E+00; -4.5065522E-02;  1.0433977E+04;
  1.4189100E-01;  9.9999998E-03;  1.8997359E-01;3349;  2.1744098E-01;  0.0000000E+00;  1.2485150E-02;  9.9333716E+02;  1.0000000E-01; -5.5200410E+03;3; -2.1835699E+01;  0.0000000E+00;  2.8053799E+00;0;  3.0940965E-02;  3.9389863E+04;  0.0000000E+00;  6.3346207E-01;  4.0000000E+04;  0.0000000E+00;  4.0081852E+04;  9.7627401E-02;  0.0000000E+00; -6.6686437E-02;  1.0815294E+04;
  1.4179845E-01;  9.9999998E-03;  1.9994926E-01;3350;  2.1560243E-01;  0.0000000E+00;  1.1659994E-02;  9.9214618E+02;  1.0000000E-01; -6.5067290E+03;3; -1.9662554E+01;  0.0000000E+00;  7.3075967E+00;0;  4.9224772E-02;  3.9298656E+04;  0.0000000E+00;  1.1664490E+00;  4.0000000E+04;  0.0000000E+00;  4.0079004E+04;  1.3666424E-01;  0.0000000E+00; -8.7439470E-02;  1.0654347E+04;
  1.4168240E-01;  9.9999998E-03;  2.0991957E-01;3351;  2.1362443E-01;  0.0000000E+00;  1.0361143E-02;  9.9087695E+02;  1.0000000E-01; -7.5582549E+03;3; -1.5760968E+01;  0.0000000E+00;  1.3975677E+01;0;  8.1208885E-02;  3.9206730E+04;  0.0000000E+00;  2.1286337E+00;  4.0000000E+04;  0.0000000E+00;  4.0070738E+04;  1.8692747E-01;  0.0000000E+00; -1.0571858E-01;  1.0060785E+04;
  1.4153621E-01;  9.9999998E-03;  2.1988443E-01;3352;  2.1135990E-01;  0.0000000E+00;  8.4572183E-03;  9.8958911E+02;  1.0000000E-01; -8.6252373E+03;3; -8.9214916E+00;  0.0000000E+00;  2.2905863E+01;0;  1.2767078E-01;  3.9118840E+04;  0.0000000E+00;  3.7287610E+00;  4.0000000E+04;  0.0000000E+00;  4.0056617E+04;  2.4760473E-01;  0.0000000E+00; -1.1993395E-01;  9.6043848E+03;
  1.4135295E-01;  9.9999998E-03;  2.2984631E-01;3353;  2.0842594E-01;  0.0000000E+00;  5.7514431E-03;  9.8835718E+02;  1.0000000E-01; -9.6458496E+03;3;  2.4290287E+00;  0.0000000E+00;  3.3717052E+01;0;  1.8852076E-01;  3.9040480E+04;  0.0000000E+00;  6.1409063E+00;  4.0000000E+04;  0.0000000E+00;  4.0037566E+04;  3.1719035E-01;  0.0000000E+00; -1.2866959E-01;  1.0569349E+04;
  1.5170462E-01;  9.9999998E-03;  6.9999613E-02;3398;  2.3833857E-01;  0.0000000E+00;  8.2311248E-03;  9.9879584E+02;  1.0000000E-01; -9.9760132E+02;3; -2.6706339E+01;  0.0000000E+00; -2.5302267E+00;0;  3.9644444E-01;  3.9900496E+04;  0.0000000E+00;  1.0174413E-02;  4.0000000E+04;  0.0000000E+00;  4.0002422E+04;  3.2773846E-01;  0.0000000E+00;  6.8705969E-02;  4.1644479E+02;
  1.5174796E-01;  9.9999998E-03;  8.0001809E-02;3399;  2.3648147E-01;  0.0000000E+00;  8.6360900E-03;  9.9879523E+02;  1.0000000E-01; -9.9814453E+02;3; -2.6409969E+01;  0.0000000E+00; -2.6224196E+00;0;  3.6309505E-01;  3.9900836E+04;  0.0000000E+00;  9.0047382E-03;  4.0000000E+04;  0.0000000E+00;  4.0002176E+04;  2.9855001E-01;  0.0000000E+00;  6.4545043E-02;  3.8293420E+02;
  1.5179756E-01;  9.9999998E-03;  9.0006329E-02;3400;  2.3451088E-01;  0.0000000E+00;  8.9784879E-03;  9.9876984E+02;  1.0000000E-01; -1.0191810E+03;3; -2.6093859E+01;  0.0000000E+00; -2.6462760E+00;0;  3.2874027E-01;  3.9898250E+04;  0.0000000E+00;  5.4134927E-03;  4.0000000E+04;  0.0000000E+00;  4.0002715E+04;  2.6742256E-01;  0.0000000E+00;  6.1317705E-02;  4.6285141E+02;
  1.5185231E-01;  9.9999998E-03;  1.0001379E-01;3401;  2.3248211E-01;  0.0000000E+00;  9.3794093E-03;  9.9871149E+02;  1.0000000E-01; -1.0675253E+03;3; -2.5788393E+01;  0.0000000E+00; -2.8297389E+00;0;  2.9371259E-01;  3.9891707E+04;  0.0000000E+00; -6.8729336E-04;  4.0000000E+04;  0.0000000E+00;  4.0004773E+04;  2.3513962E-01;  0.0000000E+00;  5.8572967E-02;  7.1709509E+02;
  1.5190740E-01;  9.9999998E-03;  1.1002322E-01;3402;  2.3043109E-01;  0.0000000E+00;  1.0011434E-02;  9.9860498E+02;  1.0000000E-01; -1.1557697E+03;3; -2.5534937E+01;  0.0000000E+00; -2.9200275E+00;0;  2.5822362E-01;  3.9879555E+04;  0.0000000E+00; -8.4918188E-03;  4.0000000E+04;  0.0000000E+00;  4.0008516E+04;  2.0261036E-01;  0.0000000E+00;  5.5613257E-02;  1.2012129E+03;
  1.5195705E-01;  9.9999998E-03;  1.2003185E-01;3403;  2.2842759E-01;  0.0000000E+00;  1.0853547E-02;  9.9843652E+02;  1.0000000E-01; -1.2953213E+03;3; -2.5311703E+01;  0.0000000E+00; -2.9040909E+00;0;  2.2251569E-01;  3.9860418E+04;  0.0000000E+00; -1.5959894E-02;  4.0000000E+04;  0.0000000E+00;  4.0014453E+04;  1.7092742E-01;  0.0000000E+00;  5.1588263E-02;  1.9531624E+03;
  1.5199782E-01;  9.9999998E-03;  1.3003851E-01;3404;  2.2653536E-01;  0.0000000E+00;  1.1829163E-02;  9.9818762E+02;  1.0000000E-01; -1.5015377E+03;3; -2.5056509E+01;  0.0000000E+00; -2.8021553E+00;0;  1.8700962E-01;  3.9832527E+04;  0.0000000E+00; -1.9666199E-02;  4.0000000E+04;  0.0000000E+00;  4.0022512E+04;  1.4139774E-01;  0.0000000E+00;  4.5611870E-02;  2.9813845E+03;
  1.5202586E-01;  9.9999998E-03;  1.4004377E-01;3405;  2.2478797E-01;  0.0000000E+00;  1.2829150E-02;  9.9783069E+02;  1.0000000E-01; -1.7972330E+03;3; -2.4793655E+01;  0.0000000E+00; -2.6492927E+00;0;  1.5240675E-01;  3.9794449E+04;  0.0000000E+00; -1.4923313E-02;  4.0000000E+04;  0.0000000E+00;  4.0032492E+04;  1.1552015E-01;  0.0000000E+00;  3.6886595E-02;  4.2550156E+03;
  1.5203927E-01;  9.9999998E-03;  1.5004654E-01;3406;  2.2317715E-01;  0.0000000E+00;  1.3737445E-02;  9.9734814E+02;  1.0000000E-01; -2.1970242E+03;3; -2.4519823E+01;  0.0000000E+00; -2.4448135E+00;0;  1.1985318E-01;  3.9744914E+04;  0.0000000E+00;  3.7707530E-03;  4.0000000E+04;  0.0000000E+00;  4.0043605E+04;  9.4995394E-02;  0.0000000E+00;  2.4857789E-02;  5.6956738E+03;
  1.5203744E-01;  9.9999998E-03;  1.6004556E-01;3407;  2.2164387E-01;  0.0000000E+00;  1.4465718E-02;  9.9671631E+02;  1.0000000E-01; -2.7204661E+03;3; -2.4215019E+01;  0.0000000E+00; -2.1673760E+00;0;  9.0995610E-02;  3.9683441E+04;  0.0000000E+00;  4.2224895E-02;  4.0000000E+04;  0.0000000E+00;  4.0055184E+04;  8.1610963E-02;  0.0000000E+00;  9.3846489E-03;  7.1823140E+03;
  1.5201965E-01;  9.9999998E-03;  1.7003997E-01;3408;  2.2013460E-01;  0.0000000E+00;  1.4937016E-02;  9.9592017E+02;  1.0000000E-01; -3.3800522E+03;3; -2.3832401E+01;  0.0000000E+00; -1.5989963E+00;0;  6.7875296E-02;  3.9609871E+04;  0.0000000E+00;  1.0999791E-01;  4.0000000E+04;  0.0000000E+00;  4.0065680E+04;  7.7094235E-02;  0.0000000E+00; -9.2189424E-03;  8.5647627E+03;
  1.5198615E-01;  9.9999998E-03;  1.8002973E-01;3409;  2.1860060E-01;  0.0000000E+00;  1.5062883E-02;  9.9495074E+02;  1.0000000E-01; -4.1831899E+03;3; -2.3264389E+01;  0.0000000E+00; -3.3713561E-01;0;  5.2790411E-02;  3.9524969E+04;  0.0000000E+00;  2.3804080E-01;  4.0000000E+04;  0.0000000E+00;  4.0073980E+04;  8.3004221E-02;  0.0000000E+00; -3.0213811E-02;  9.6824814E+03;
  1.5193650E-01;  9.9999998E-03;  1.9001473E-01;3410;  2.1699299E-01;  0.0000000E+00;  1.4809447E-02;  9.9381586E+02;  1.0000000E-01; -5.1234595E+03;3; -2.2314236E+01;  0.0000000E+00;  2.0406826E+00;0;  4.8106652E-02;  3.9430426E+04;  0.0000000E+00;  5.0798053E-01;  4.0000000E+04;  0.0000000E+00;  4.0078855E+04;  1.0061064E-01;  0.0000000E+00; -5.2503984E-02;  1.0390663E+04;
  1.5187129E-01;  9.9999998E-03;  1.9999324E-01;3411;  2.1527791E-01;  0.0000000E+00;  1.4181809E-02;  9.9253302E+02;  1.0000000E-01; -6.1862441E+03;3; -2.0593174E+01;  0.0000000E+00;  6.1410475E+00;0;  5.6062646E-02;  3.9328891E+04;  0.0000000E+00;  1.0781316E+00;  4.0000000E+04;  0.0000000E+00;  4.0079082E+04;  1.3078706E-01;  0.0000000E+00; -7.4724413E-02;  1.0612062E+04;
  1.5179174E-01;  9.9999998E-03;  2.0996453E-01;3412;  2.1344019E-01;  0.0000000E+00;  1.3143871E-02;  9.9113861E+02;  1.0000000E-01; -7.3414707E+03;3; -1.7461338E+01;  0.0000000E+00;  1.2142382E+01;0;  7.8571714E-02;  3.9223824E+04;  0.0000000E+00;  2.1904008E+00;  4.0000000E+04;  0.0000000E+00;  4.0074086E+04;  1.7392857E-01;  0.0000000E+00; -9.5356859E-02;  1.0477734E+04;
  1.5169159E-01;  9.9999998E-03;  2.1992834E-01;3413;  2.1137147E-01;  0.0000000E+00;  1.1604133E-02;  9.8968555E+02;  1.0000000E-01; -8.5453379E+03;3; -1.1916943E+01;  0.0000000E+00;  2.0113245E+01;0;  1.1704279E-01;  3.9119672E+04;  0.0000000E+00;  4.1458764E+00;  4.0000000E+04;  0.0000000E+00;  4.0063688E+04;  2.2990318E-01;  0.0000000E+00; -1.1286038E-01;  1.0668451E+04;
  1.5156716E-01;  9.9999998E-03;  2.2988530E-01;3414;  2.0884745E-01;  0.0000000E+00;  9.3463203E-03;  9.8824756E+02;  1.0000000E-01; -9.7366621E+03;3; -2.3586547E+00;  0.0000000E+00;  2.9714375E+01;0;  1.7214268E-01;  3.9021777E+04;  0.0000000E+00;  7.2437248E+00;  4.0000000E+04;  0.0000000E+00;  4.0048129E+04;  2.9797047E-01;  0.0000000E+00; -1.2582779E-01;  1.2668539E+04;
  1.6168518E-01;  9.9999998E-03;  7.0012897E-02;3459;  2.3826946E-01;  0.0000000E+00;  1.0674079E-02;  9.9904095E+02;  1.0000000E-01; -7.9454535E+02;3; -2.6450958E+01;  0.0000000E+00; -2.5190136E+00;0;  5.1316977E-01;  3.9925691E+04;  0.0000000E+00;  8.1511457E-03;  4.0000000E+04;  0.0000000E+00;  3.9996195E+04;  4.3869478E-01;  0.0000000E+00;  7.4474968E-02;  3.7051044E+02;
  1.6172381E-01;  9.9999998E-03;  8.0014564E-02;3460;  2.3628105E-01;  0.0000000E+00;  1.0925633E-02;  9.9906525E+02;  1.0000000E-01; -7.7444720E+02;3; -2.6221498E+01;  0.0000000E+00; -2.6387427E+00;0;  4.7644418E-01;  3.9928656E+04;  0.0000000E+00;  7.3315045E-03;  4.0000000E+04;  0.0000000E+00;  3.9995367E+04;  4.0601799E-01;  0.0000000E+00;  7.0426181E-02;  4.8828448E+02;
  1.6176912E-01;  9.9999998E-03;  9.0018548E-02;3461;  2.3422574E-01;  0.0000000E+00;  1.1123247E-02;  9.9906787E+02;  1.0000000E-01; -7.7227441E+02;3; -2.5960838E+01;  0.0000000E+00; -2.7022669E+00;0;  4.3817022E-01;  3.9928977E+04;  0.0000000E+00;  4.3757064E-03;  4.0000000E+04;  0.0000000E+00;  3.9995176E+04;  3.7056252E-01;  0.0000000E+00;  6.7607708E-02;  5.0862805E+02;
  1.6182020E-01;  9.9999998E-03;  1.0002550E-01;3462;  2.3212005E-01;  0.0000000E+00;  1.1385079E-02;  9.9903638E+02;  1.0000000E-01; -7.9834772E+02;3; -2.5692924E+01;  0.0000000E+00; -2.9701896E+00;0;  3.9862466E-01;  3.9925441E+04;  0.0000000E+00; -1.0088530E-03;  4.0000000E+04;  0.0000000E+00;  3.9996277E+04;  3.3304584E-01;  0.0000000E+00;  6.5578811E-02;  3.6463876E+02;
  1.6187358E-01;  9.9999998E-03;  1.1003511E-01;3463;  2.2998765E-01;  0.0000000E+00;  1.1849030E-02;  9.9895831E+02;  1.0000000E-01; -8.6303723E+02;3; -2.5422119E+01;  0.0000000E+00; -3.1298685E+00;0;  3.5797355E-01;  3.9916457E+04;  0.0000000E+00; -8.4736357E-03;  4.0000000E+04;  0.0000000E+00;  3.9999430E+04;  2.9433954E-01;  0.0000000E+00;  6.3634016E-02;  1.4579835E+01;
  1.6192366E-01;  9.9999998E-03;  1.2004526E-01;3464;  2.2790173E-01;  0.0000000E+00;  1.2525372E-02;  9.9881665E+02;  1.0000000E-01; -9.8036725E+02;3; -2.5198715E+01;  0.0000000E+00; -3.1479499E+00;0;  3.1639677E-01;  3.9900312E+04;  0.0000000E+00; -1.6793137E-02;  4.0000000E+04;  0.0000000E+00;  4.0004406E+04;  2.5550967E-01;  0.0000000E+00;  6.0887109E-02;  6.6209235E+02;
  1.6196619E-01;  9.9999998E-03;  1.3005416E-01;3465;  2.2592895E-01;  0.0000000E+00;  1.3382614E-02;  9.9859497E+02;  1.0000000E-01; -1.1640164E+03;3; -2.4985691E+01;  0.0000000E+00; -3.0788367E+00;0;  2.7424410E-01;  3.9875195E+04;  0.0000000E+00; -2.3780217E-02;  4.0000000E+04;  0.0000000E+00;  4.0011730E+04;  2.1786301E-01;  0.0000000E+00;  5.6381099E-02;  1.6172151E+03;
  1.6199774E-01;  9.9999998E-03;  1.4006203E-01;3466;  2.2411381E-01;  0.0000000E+00;  1.4329468E-02;  9.9826758E+02;  1.0000000E-01; -1.4352679E+03;3; -2.4757967E+01;  0.0000000E+00; -2.9715996E+00;0;  2.3216105E-01;  3.9839602E+04;  0.0000000E+00; -2.6394686E-02;  4.0000000E+04;  0.0000000E+00;  4.0021617E+04;  1.8294543E-01;  0.0000000E+00;  4.9215619E-02;  2.8571509E+03;
  1.6201782E-01;  9.9999998E-03;  1.5006755E-01;3467;  2.2245501E-01;  0.0000000E+00;  1.5273950E-02;  9.9780780E+02;  1.0000000E-01; -1.8161954E+03;3; -2.4538752E+01;  0.0000000E+00; -2.8027728E+00;0;  1.9127034E-01;  3.9791793E+04;  0.0000000E+00; -2.1058710E-02;  4.0000000E+04;  0.0000000E+00;  4.0032930E+04;  1.5256122E-01;  0.0000000E+00;  3.8709119E-02;  4.3154722E+03;
  1.6202551E-01;  9.9999998E-03;  1.6006905E-01;3468;  2.2090486E-01;  0.0000000E+00;  1.6123997E-02;  9.9719312E+02;  1.0000000E-01; -2.3254648E+03;3; -2.4270096E+01;  0.0000000E+00; -2.5553308E+00;0;  1.5322515E-01;  3.9731098E+04;  0.0000000E+00; -4.1574924E-03;  4.0000000E+04;  0.0000000E+00;  4.0045043E+04;  1.2865697E-01;  0.0000000E+00;  2.4568178E-02;  5.8806455E+03;
  1.6201831E-01;  9.9999998E-03;  1.7006631E-01;3469;  2.1944036E-01;  0.0000000E+00;  1.6763369E-02;  9.9640509E+02;  1.0000000E-01; -2.9783352E+03;3; -2.3940104E+01;  0.0000000E+00; -2.0480216E+00;0;  1.2015692E-01;  3.9656895E+04;  0.0000000E+00;  3.2043189E-02;  4.0000000E+04;  0.0000000E+00;  4.0056699E+04;  1.1321148E-01;  0.0000000E+00;  6.9454457E-03;  7.4088066E+03;
  1.6199787E-01;  9.9999998E-03;  1.8005870E-01;3470;  2.1797779E-01;  0.0000000E+00;  1.7145334E-02;  9.9543250E+02;  1.0000000E-01; -3.7840903E+03;3; -2.3483292E+01;  0.0000000E+00; -9.5848334E-01;0;  9.4596684E-02;  3.9569832E+04;  0.0000000E+00;  1.1951938E-01;  4.0000000E+04;  0.0000000E+00;  4.0066809E+04;  1.0815740E-01;  0.0000000E+00; -1.3560717E-02;  8.7404170E+03;
  1.6196913E-01;  9.9999998E-03;  1.9004706E-01;3471;  2.1646857E-01;  0.0000000E+00;  1.7151529E-02;  9.9427271E+02;  1.0000000E-01; -4.7449517E+03;3; -2.2760599E+01;  0.0000000E+00;  1.0860492E+00;0;  7.9245210E-02;  3.9471117E+04;  0.0000000E+00;  3.4796923E-01;  4.0000000E+04;  0.0000000E+00;  4.0073859E+04;  1.1523025E-01;  0.0000000E+00; -3.5985038E-02;  9.7243643E+03;
  1.6193259E-01;  9.9999998E-03;  2.0002906E-01;3472;  2.1484272E-01;  0.0000000E+00;  1.6784286E-02;  9.9294293E+02;  1.0000000E-01; -5.8466489E+03;3; -2.1452959E+01;  0.0000000E+00;  4.4902658E+00;0;  7.6738924E-02;  3.9363191E+04;  0.0000000E+00;  8.9903003E-01;  4.0000000E+04;  0.0000000E+00;  4.0076863E+04;  1.3582760E-01;  0.0000000E+00; -5.9088681E-02;  1.0272211E+04;
  1.6189100E-01;  9.9999998E-03;  2.1000357E-01;3473;  2.1309318E-01;  0.0000000E+00;  1.6026378E-02;  9.9147101E+02;  1.0000000E-01; -7.0661206E+03;3; -1.9020599E+01;  0.0000000E+00;  9.3236284E+00;0;  8.9484140E-02;  3.9248973E+04;  0.0000000E+00;  2.0661323E+00;  4.0000000E+04;  0.0000000E+00;  4.0074984E+04;  1.7094482E-01;  0.0000000E+00; -8.1460685E-02;  1.0513718E+04;
  1.6184847E-01;  9.9999998E-03;  2.1996926E-01;3474;  2.1115541E-01;  0.0000000E+00;  1.4854355E-02;  9.8990015E+02;  1.0000000E-01; -8.3675156E+03;3; -1.4707735E+01;  0.0000000E+00;  1.5787954E+01;0;  1.1949626E-01;  3.9132398E+04;  0.0000000E+00;  4.2440634E+00;  4.0000000E+04;  0.0000000E+00;  4.0068020E+04;  2.2111461E-01;  0.0000000E+00; -1.0161835E-01;  1.1201147E+04;
  1.6180198E-01;  9.9999998E-03;  2.2992541E-01;3475;  2.0886374E-01;  0.0000000E+00;  1.3111569E-02;  9.8829352E+02;  1.0000000E-01; -9.6985889E+03;3; -7.1021872E+00;  0.0000000E+00;  2.3419775E+01;0;  1.6817555E-01;  3.9017664E+04;  0.0000000E+00;  7.8745418E+00;  4.0000000E+04;  0.0000000E+00;  4.0056207E+04;  2.8635913E-01;  0.0000000E+00; -1.1818358E-01;  1.4032726E+04;
  1.7166673E-01;  9.9999998E-03;  7.0026509E-02;3520;  2.3867518E-01;  0.0000000E+00;  1.3537868E-02;  9.9911987E+02;  1.0000000E-01; -7.2916449E+02;3; -2.6064428E+01;  0.0000000E+00; -2.3897388E+00;0;  6.2913221E-01;  3.9936141E+04;  0.0000000E+00;  6.9572069E-03;  4.0000000E+04;  0.0000000E+00;  3.9991582E+04;  5.5125213E-01;  0.0000000E+00;  7.7880099E-02;  9.5556274E+02;
  1.7170066E-01;  9.9999998E-03;  8.0027267E-02;3521;  2.3644833E-01;  0.0000000E+00;  1.3475288E-02;  9.9916278E+02;  1.0000000E-01; -6.9360999E+02;3; -2.5925163E+01;  0.0000000E+00; -2.5039558E+00;0;  5.9096920E-01;  3.9941254E+04;  0.0000000E+00;  6.5365899E-03;  4.0000000E+04;  0.0000000E+00;  3.9990008E+04;  5.1657838E-01;  0.0000000E+00;  7.4390851E-02;  1.1623224E+03;
  1.7174113E-01;  9.9999998E-03;  9.0030074E-02;3522;  2.3422225E-01;  0.0000000E+00;  1.3441565E-02;  9.9918427E+02;  1.0000000E-01; -6.7583270E+02;3; -2.5726324E+01;  0.0000000E+00; -2.5938964E+00;0;  5.5062199E-01;  3.9944094E+04;  0.0000000E+00;  4.1939016E-03;  4.0000000E+04;  0.0000000E+00;  3.9988930E+04;  4.7823328E-01;  0.0000000E+00;  7.2388701E-02;  1.2905962E+03;
  1.7178752E-01;  9.9999998E-03;  1.0003568E-01;3523;  2.3200563E-01;  0.0000000E+00;  1.3518511E-02;  9.9917468E+02;  1.0000000E-01; -6.8378308E+02;3; -2.5535786E+01;  0.0000000E+00; -2.8048813E+00;0;  5.0826126E-01;  3.9943301E+04;  0.0000000E+00; -5.8317656E-04;  4.0000000E+04;  0.0000000E+00;  3.9989133E+04;  4.3682414E-01;  0.0000000E+00;  7.1437143E-02;  1.2687882E+03;
  1.7183726E-01;  9.9999998E-03;  1.1004429E-01;3524;  2.2978164E-01;  0.0000000E+00;  1.3746879E-02;  9.9912372E+02;  1.0000000E-01; -7.2600409E+02;3; -2.5315006E+01;  0.0000000E+00; -3.1215298E+00;0;  4.6397859E-01;  3.9937410E+04;  0.0000000E+00; -7.9004178E-03;  4.0000000E+04;  0.0000000E+00;  3.9991070E+04;  3.9315271E-01;  0.0000000E+00;  7.0825867E-02;  1.0241218E+03;
  1.7188582E-01;  9.9999998E-03;  1.2005456E-01;3525;  2.2760329E-01;  0.0000000E+00;  1.4207658E-02;  9.9901227E+02;  1.0000000E-01; -8.1829779E+02;3; -2.5087940E+01;  0.0000000E+00; -3.3101177E+00;0;  4.1789362E-01;  3.9924566E+04;  0.0000000E+00; -1.7284155E-02;  4.0000000E+04;  0.0000000E+00;  3.9995117E+04;  3.4825179E-01;  0.0000000E+00;  6.9641821E-02;  4.9549457E+02;
  1.7192860E-01;  9.9999998E-03;  1.3006511E-01;3526;  2.2552736E-01;  0.0000000E+00;  1.4892770E-02;  9.9882312E+02;  1.0000000E-01; -9.7503406E+02;3; -2.4891022E+01;  0.0000000E+00; -3.3159964E+00;0;  3.7029254E-01;  3.9902949E+04;  0.0000000E+00; -2.7613880E-02;  4.0000000E+04;  0.0000000E+00;  4.0001945E+04;  3.0342090E-01;  0.0000000E+00;  6.6871628E-02;  3.5653510E+02;
  1.7196329E-01;  9.9999998E-03;  1.4007460E-01;3527;  2.2360398E-01;  0.0000000E+00;  1.5751578E-02;  9.9853003E+02;  1.0000000E-01; -1.2178420E+03;3; -2.4685915E+01;  0.0000000E+00; -3.2687573E+00;0;  3.2179168E-01;  3.9870648E+04;  0.0000000E+00; -3.7192658E-02;  4.0000000E+04;  0.0000000E+00;  4.0011059E+04;  2.6026008E-01;  0.0000000E+00;  6.1531603E-02;  1.5211763E+03;
  1.7198892E-01;  9.9999998E-03;  1.5008157E-01;3528;  2.2184707E-01;  0.0000000E+00;  1.6701242E-02;  9.9811023E+02;  1.0000000E-01; -1.5656346E+03;3; -2.4508533E+01;  0.0000000E+00; -3.1605427E+00;0;  2.7347627E-01;  3.9826195E+04;  0.0000000E+00; -4.3978922E-02;  4.0000000E+04;  0.0000000E+00;  4.0022168E+04;  2.2064815E-01;  0.0000000E+00;  5.2828111E-02;  2.9502937E+03;
  1.7200346E-01;  9.9999998E-03;  1.6008534E-01;3529;  2.2024484E-01;  0.0000000E+00;  1.7629974E-02;  9.9753503E+02;  1.0000000E-01; -2.0421643E+03;3; -2.4294474E+01;  0.0000000E+00; -2.9539351E+00;0;  2.2699530E-01;  3.9768223E+04;  0.0000000E+00; -4.6845257E-02;  4.0000000E+04;  0.0000000E+00;  4.0034453E+04;  1.8667020E-01;  0.0000000E+00;  4.0325101E-02;  4.5424839E+03;
  1.7200664E-01;  9.9999998E-03;  1.7008501E-01;3530;  2.1874556E-01;  0.0000000E+00;  1.8462775E-02;  9.9678223E+02;  1.0000000E-01; -2.6658503E+03;3; -2.4027931E+01;  0.0000000E+00; -2.5305085E+00;0;  1.8460505E-01;  3.9696219E+04;  0.0000000E+00; -4.2338219E-02;  4.0000000E+04;  0.0000000E+00;  4.0046938E+04;  1.6056371E-01;  0.0000000E+00;  2.4041334E-02;  6.1610273E+03;
  1.7200091E-01;  9.9999998E-03;  1.8008043E-01;3531;  2.1730058E-01;  0.0000000E+00;  1.9100677E-02;  9.9583966E+02;  1.0000000E-01; -3.4467664E+03;3; -2.3692482E+01;  0.0000000E+00; -1.6793787E+00;0;  1.4904961E-01;  3.9610219E+04;  0.0000000E+00; -4.4048978E-03;  4.0000000E+04;  0.0000000E+00;  4.0058359E+04;  1.4459969E-01;  0.0000000E+00;  4.4499184E-03;  7.6488188E+03;
  1.7199035E-01;  9.9999998E-03;  1.9007118E-01;3532;  2.1582662E-01;  0.0000000E+00;  1.9450700E-02;  9.9470111E+02;  1.0000000E-01; -4.3900483E+03;3; -2.3180412E+01;  0.0000000E+00; -1.3079409E-01;0;  1.2333984E-01;  3.9511293E+04;  0.0000000E+00;  1.5189259E-01;  4.0000000E+04;  0.0000000E+00;  4.0067234E+04;  1.4093493E-01;  0.0000000E+00; -1.7595092E-02;  8.8502529E+03;
  1.7197974E-01;  9.9999998E-03;  2.0005648E-01;3533;  2.1425988E-01;  0.0000000E+00;  1.9439280E-02;  9.9337329E+02;  1.0000000E-01; -5.4901157E+03;3; -2.2219688E+01;  0.0000000E+00;  2.3811545E+00;0;  1.1051276E-01;  3.9401117E+04;  0.0000000E+00;  6.1374414E-01;  4.0000000E+04;  0.0000000E+00;  4.0072488E+04;  1.5147772E-01;  0.0000000E+00; -4.0964965E-02;  9.6567207E+03;
  1.7197713E-01;  9.9999998E-03;  2.1003464E-01;3534;  2.1255115E-01;  0.0000000E+00;  1.9028412E-02;  9.9187750E+02;  1.0000000E-01; -6.7293398E+03;3; -2.0427359E+01;  0.0000000E+00;  5.9377565E+00;0;  1.1343980E-01;  3.9282480E+04;  0.0000000E+00;  1.7066228E+00;  4.0000000E+04;  0.0000000E+00;  4.0073445E+04;  1.7779152E-01;  0.0000000E+00; -6.4351723E-02;  1.0159779E+04;
  1.7199194E-01;  9.9999998E-03;  2.2000507E-01;3535;  2.1064937E-01;  0.0000000E+00;  1.8250488E-02;  9.9024542E+02;  1.0000000E-01; -8.0814990E+03;3; -1.7081755E+01;  0.0000000E+00;  1.0272718E+01;0;  1.3469541E-01;  3.9157996E+04;  0.0000000E+00;  3.9014170E+00;  4.0000000E+04;  0.0000000E+00;  4.0069551E+04;  2.2103919E-01;  0.0000000E+00; -8.6343780E-02;  1.1091349E+04;
  1.7202154E-01;  9.9999998E-03;  2.2996637E-01;3536;  2.0848918E-01;  0.0000000E+00;  1.7025318E-02;  9.8851532E+02;  1.0000000E-01; -9.5148408E+03;3; -1.1051137E+01;  0.0000000E+00;  1.5040758E+01;0;  1.7637864E-01;  3.9030652E+04;  0.0000000E+00;  7.7673602E+00;  4.0000000E+04;  0.0000000E+00;  4.0061133E+04;  2.8197330E-01;  0.0000000E+00; -1.0559466E-01;  1.4301396E+04;
  1.8164864E-01;  9.9999998E-03;  7.0038423E-02;3581;  2.3962349E-01;  0.0000000E+00;  1.6202981E-02;  9.9906097E+02;  1.0000000E-01; -7.7795325E+02;3; -2.5296106E+01;  0.0000000E+00; -2.1203592E+00;0;  7.3627472E-01;  3.9934047E+04;  0.0000000E+00;  7.8932764E-03;  4.0000000E+04;  0.0000000E+00;  3.9988590E+04;  6.5752041E-01;  0.0000000E+00;  7.8754291E-02;  1.3278329E+03;
  1.8167816E-01;  9.9999998E-03;  8.0037937E-02;3582;  2.3710218E-01;  0.0000000E+00;  1.5982136E-02;  9.9910919E+02;  1.0000000E-01; -7.3800378E+02;3; -2.5419683E+01;  0.0000000E+00; -2.3187046E+00;0;  6.9931626E-01;  3.9940504E+04;  0.0000000E+00;  8.0938935E-03;  4.0000000E+04;  0.0000000E+00;  3.9986191E+04;  6.2303102E-01;  0.0000000E+00;  7.6285213E-02;  1.6266653E+03;
  1.8171377E-01;  9.9999998E-03;  9.0039417E-02;3583;  2.3461865E-01;  0.0000000E+00;  1.5768023E-02;  9.9914429E+02;  1.0000000E-01; -7.0891815E+02;3; -2.5418127E+01;  0.0000000E+00; -2.4904351E+00;0;  6.5948433E-01;  3.9945074E+04;  0.0000000E+00;  6.4361393E-03;  4.0000000E+04;  0.0000000E+00;  3.9984359E+04;  5.8397180E-01;  0.0000000E+00;  7.5512506E-02;  1.8676306E+03;
  1.8175520E-01;  9.9999998E-03;  1.0004343E-01;3584;  2.3220311E-01;  0.0000000E+00;  1.5632235E-02;  9.9915027E+02;  1.0000000E-01; -7.0398004E+02;3; -2.5287195E+01;  0.0000000E+00; -2.6176867E+00;0;  6.1677605E-01;  3.9946547E+04;  0.0000000E+00;  2.1539861E-03;  4.0000000E+04;  0.0000000E+00;  3.9983352E+04;  5.4077655E-01;  0.0000000E+00;  7.5999513E-02;  1.9761940E+03;
  1.8180057E-01;  9.9999998E-03;  1.1005038E-01;3585;  2.2987081E-01;  0.0000000E+00;  1.5647143E-02;  9.9911932E+02;  1.0000000E-01; -7.2960895E+02;3; -2.5182343E+01;  0.0000000E+00; -2.8819690E+00;0;  5.7115549E-01;  3.9943344E+04;  0.0000000E+00; -5.3080944E-03;  4.0000000E+04;  0.0000000E+00;  3.9984316E+04;  4.9412841E-01;  0.0000000E+00;  7.7027060E-02;  1.8734475E+03;
  1.8184626E-01;  9.9999998E-03;  1.2005992E-01;3586;  2.2756909E-01;  0.0000000E+00;  1.5837528E-02;  9.9903503E+02;  1.0000000E-01; -7.9943414E+02;3; -2.4985302E+01;  0.0000000E+00; -3.2228415E+00;0;  5.2265203E-01;  3.9933801E+04;  0.0000000E+00; -1.6145339E-02;  4.0000000E+04;  0.0000000E+00;  3.9987281E+04;  4.4499192E-01;  0.0000000E+00;  7.7660084E-02;  1.4884785E+03;
  1.8188824E-01;  9.9999998E-03;  1.3007072E-01;3587;  2.2535346E-01;  0.0000000E+00;  1.6317952E-02;  9.9887891E+02;  1.0000000E-01; -9.2881317E+02;3; -2.4778625E+01;  0.0000000E+00; -3.4409497E+00;0;  4.7149056E-01;  3.9915914E+04;  0.0000000E+00; -3.0093282E-02;  4.0000000E+04;  0.0000000E+00;  3.9992875E+04;  3.9465034E-01;  0.0000000E+00;  7.6840229E-02;  7.7396118E+02;
  1.8192527E-01;  9.9999998E-03;  1.4008094E-01;3588;  2.2328241E-01;  0.0000000E+00;  1.7042121E-02;  9.9862646E+02;  1.0000000E-01; -1.1379430E+03;3; -2.4603672E+01;  0.0000000E+00; -3.4852879E+00;0;  4.1825521E-01;  3.9887777E+04;  0.0000000E+00; -4.6401497E-02;  4.0000000E+04;  0.0000000E+00;  4.0001113E+04;  3.4473604E-01;  0.0000000E+00;  7.3519170E-02;  2.9057483E+02;
  1.8195561E-01;  9.9999998E-03;  1.5008910E-01;3589;  2.2138399E-01;  0.0000000E+00;  1.7943367E-02;  9.9825604E+02;  1.0000000E-01; -1.4448479E+03;3; -2.4450094E+01;  0.0000000E+00; -3.4355197E+00;0;  3.6399528E-01;  3.9847805E+04;  0.0000000E+00; -6.4079113E-02;  4.0000000E+04;  0.0000000E+00;  4.0011691E+04;  2.9718307E-01;  0.0000000E+00;  6.6812225E-02;  1.6432235E+03;
  1.8197738E-01;  9.9999998E-03;  1.6009413E-01;3590;  2.1964462E-01;  0.0000000E+00;  1.8946193E-02;  9.9773773E+02;  1.0000000E-01; -1.8742678E+03;3; -2.4267185E+01;  0.0000000E+00; -3.3162727E+00;0;  3.1037012E-01;  3.9794469E+04;  0.0000000E+00; -8.4571198E-02;  4.0000000E+04;  0.0000000E+00;  4.0023941E+04;  2.5420117E-01;  0.0000000E+00;  5.6168951E-02;  3.2134243E+03;
  1.8199049E-01;  9.9999998E-03;  1.7009565E-01;3591;  2.1805590E-01;  0.0000000E+00;  1.9935701E-02;  9.9704712E+02;  1.0000000E-01; -2.4463997E+03;3; -2.4082590E+01;  0.0000000E+00; -3.0120046E+00;0;  2.5973547E-01;  3.9727031E+04;  0.0000000E+00; -1.1083500E-01;  4.0000000E+04;  0.0000000E+00;  4.0036871E+04;  2.1823618E-01;  0.0000000E+00;  4.1499279E-02;  4.8687681E+03;
  1.8199536E-01;  9.9999998E-03;  1.8009314E-01;3592;  2.1655889E-01;  0.0000000E+00;  2.0822199E-02;  9.9616644E+02;  1.0000000E-01; -3.1760088E+03;3; -2.3857143E+01;  0.0000000E+00; -2.4487174E+00;0;  2.1502498E-01;  3.9645090E+04;  0.0000000E+00; -1.2940337E-01;  4.0000000E+04;  0.0000000E+00;  4.0048879E+04;  1.9184731E-01;  0.0000000E+00;  2.3177661E-02;  6.4567622E+03;
  1.8199925E-01;  9.9999998E-03;  1.9008668E-01;3593;  2.1505070E-01;  0.0000000E+00;  2.1533700E-02;  9.9508429E+02;  1.0000000E-01; -4.0725759E+03;3; -2.3533854E+01;  0.0000000E+00; -1.4505734E+00;0;  1.7957233E-01;  3.9549430E+04;  0.0000000E+00; -7.3203400E-02;  4.0000000E+04;  0.0000000E+00;  4.0059168E+04;  1.7759156E-01;  0.0000000E+00;  1.9807676E-03;  7.8178481E+03;
  1.8201081E-01;  9.9999998E-03;  2.0007606E-01;3594;  2.1348815E-01;  0.0000000E+00;  2.1988871E-02;  9.9380609E+02;  1.0000000E-01; -5.1315581E+03;3; -2.2892008E+01;  0.0000000E+00;  1.1221723E-01;0;  1.5681820E-01;  3.9441324E+04;  0.0000000E+00;  2.3042332E-01;  4.0000000E+04;  0.0000000E+00;  4.0066355E+04;  1.7784272E-01;  0.0000000E+00; -2.1024523E-02;  8.8175938E+03;
  1.8204142E-01;  9.9999998E-03;  2.1005921E-01;3595;  2.1177135E-01;  0.0000000E+00;  2.2111880E-02;  9.9234076E+02;  1.0000000E-01; -6.3455483E+03;3; -2.1565344E+01;  0.0000000E+00;  2.1836083E+00;0;  1.5009344E-01;  3.9322734E+04;  0.0000000E+00;  1.1120336E+00;  4.0000000E+04;  0.0000000E+00;  4.0069477E+04;  1.9467711E-01;  0.0000000E+00; -4.4583686E-02;  9.4702549E+03;
  1.8210375E-01;  9.9999998E-03;  2.2003521E-01;3596;  2.0986015E-01;  0.0000000E+00;  2.1818124E-02;  9.9070636E+02;  1.0000000E-01; -7.6995840E+03;3; -1.8895891E+01;  0.0000000E+00;  4.3691406E+00;0;  1.6244024E-01;  3.9195586E+04;  0.0000000E+00;  3.0830927E+00;  4.0000000E+04;  0.0000000E+00;  4.0068242E+04;  2.2981425E-01;  0.0000000E+00; -6.7374006E-02;  1.0365988E+04;
  1.8219508E-01;  9.9999998E-03;  2.3000559E-01;3597;  2.0768665E-01;  0.0000000E+00;  2.1108884E-02;  9.8891895E+02;  1.0000000E-01; -9.1804307E+03;3; -1.3968293E+01;  0.0000000E+00;  6.0330114E+00;0;  1.9654232E-01;  3.9061016E+04;  0.0000000E+00;  6.7948432E+00;  4.0000000E+04;  0.0000000E+00;  4.0062621E+04;  2.8463110E-01;  0.0000000E+00; -8.8088781E-02;  1.3339824E+04;
  1.9163302E-01;  9.9999998E-03;  7.0044868E-02;3642;  2.4253483E-01;  0.0000000E+00;  1.8226940E-02;  9.9889844E+02;  1.0000000E-01; -9.1261609E+02;3; -2.2903284E+01;  0.0000000E+00; -2.1198959E+00;0;  8.2547557E-01;  3.9922293E+04;  0.0000000E+00;  1.1508975E-02;  4.0000000E+04;  0.0000000E+00;  3.9987164E+04;  7.4852329E-01;  0.0000000E+00;  7.6952308E-02;  1.4908682E+03;
  1.9165792E-01;  9.9999998E-03;  8.0043726E-02;3643;  2.3907229E-01;  0.0000000E+00;  1.8004183E-02;  9.9894598E+02;  1.0000000E-01; -8.7320978E+02;3; -2.3914152E+01;  0.0000000E+00; -2.1640627E+00;0;  7.9291999E-01;  3.9929211E+04;  0.0000000E+00;  1.2757544E-02;  4.0000000E+04;  0.0000000E+00;  3.9984141E+04;  7.1700186E-01;  0.0000000E+00;  7.5918131E-02;  1.8822070E+03;
  1.9168864E-01;  9.9999998E-03;  9.0044141E-02;3644;  2.3594676E-01;  0.0000000E+00;  1.7814813E-02;  9.9897968E+02;  1.0000000E-01; -8.4530939E+02;3; -2.4481434E+01;  0.0000000E+00; -2.2720594E+00;0;  7.5684196E-01;  3.9934641E+04;  0.0000000E+00;  1.2092370E-02;  4.0000000E+04;  0.0000000E+00;  3.9981262E+04;  6.8009728E-01;  0.0000000E+00;  7.6744683E-02;  2.2371187E+03;
  1.9172508E-01;  9.9999998E-03;  1.0004669E-01;3645;  2.3302425E-01;  0.0000000E+00;  1.7606517E-02;  9.9898969E+02;  1.0000000E-01; -8.3701331E+02;3; -2.4853401E+01;  0.0000000E+00; -2.4461641E+00;0;  7.1697474E-01;  3.9937617E+04;  0.0000000E+00;  8.4704738E-03;  4.0000000E+04;  0.0000000E+00;  3.9979293E+04;  6.3798267E-01;  0.0000000E+00;  7.8992061E-02;  2.4798450E+03;
  1.9176601E-01;  9.9999998E-03;  1.1005202E-01;3646;  2.3033009E-01;  0.0000000E+00;  1.7493784E-02;  9.9896741E+02;  1.0000000E-01; -8.5548193E+02;3; -2.4908361E+01;  0.0000000E+00; -2.5819705E+00;0;  6.7307407E-01;  3.9936387E+04;  0.0000000E+00;  8.7705860E-04;  4.0000000E+04;  0.0000000E+00;  3.9978977E+04;  5.9114772E-01;  0.0000000E+00;  8.1926346E-02;  2.5272566E+03;
  1.9180846E-01;  9.9999998E-03;  1.2006042E-01;3647;  2.2784592E-01;  0.0000000E+00;  1.7526267E-02;  9.9890454E+02;  1.0000000E-01; -9.0757922E+02;3; -2.4906759E+01;  0.0000000E+00; -2.8814006E+00;0;  6.2502080E-01;  3.9929605E+04;  0.0000000E+00; -1.1491911E-02;  4.0000000E+04;  0.0000000E+00;  3.9980699E+04;  5.4043430E-01;  0.0000000E+00;  8.4586479E-02;  2.3006692E+03;
  1.9184937E-01;  9.9999998E-03;  1.3007091E-01;3648;  2.2545202E-01;  0.0000000E+00;  1.7709276E-02;  9.9877905E+02;  1.0000000E-01; -1.0115269E+03;3; -2.4711584E+01;  0.0000000E+00; -3.1593385E+00;0;  5.7294196E-01;  3.9915340E+04;  0.0000000E+00; -2.9046655E-02;  4.0000000E+04;  0.0000000E+00;  3.9985109E+04;  4.8706341E-01;  0.0000000E+00;  8.5878536E-02;  1.7412797E+03;
  1.9188729E-01;  9.9999998E-03;  1.4008173E-01;3649;  2.2319721E-01;  0.0000000E+00;  1.8147217E-02;  9.9856879E+02;  1.0000000E-01; -1.1857441E+03;3; -2.4500463E+01;  0.0000000E+00; -3.5006573E+00;0;  5.1735389E-01;  3.9891711E+04;  0.0000000E+00; -5.1655769E-02;  4.0000000E+04;  0.0000000E+00;  3.9992211E+04;  4.3265319E-01;  0.0000000E+00;  8.4700733E-02;  8.2723706E+02;
  1.9192058E-01;  9.9999998E-03;  1.5009081E-01;3650;  2.2109739E-01;  0.0000000E+00;  1.8963771E-02;  9.9825446E+02;  1.0000000E-01; -1.4461318E+03;3; -2.4344131E+01;  0.0000000E+00; -3.6589136E+00;0;  4.5927009E-01;  3.9856977E+04;  0.0000000E+00; -7.8927964E-02;  4.0000000E+04;  0.0000000E+00;  4.0002035E+04;  3.7917131E-01;  0.0000000E+00;  8.0098785E-02;  4.3957129E+02;
  1.9194719E-01;  9.9999998E-03;  1.6009684E-01;3651;  2.1916857E-01;  0.0000000E+00;  1.9963885E-02;  9.9780365E+02;  1.0000000E-01; -1.8196521E+03;3; -2.4234295E+01;  0.0000000E+00; -3.5939367E+00;0;  4.0036216E-01;  3.9809641E+04;  0.0000000E+00; -1.1459392E-01;  4.0000000E+04;  0.0000000E+00;  4.0013777E+04;  3.2891837E-01;  0.0000000E+00;  7.1443789E-02;  1.9375035E+03;
  1.9196670E-01;  9.9999998E-03;  1.7009893E-01;3652;  2.1739660E-01;  0.0000000E+00;  2.1064749E-02;  9.9719226E+02;  1.0000000E-01; -2.3261562E+03;3; -2.4095688E+01;  0.0000000E+00; -3.4676032E+00;0;  3.4307769E-01;  3.9748445E+04;  0.0000000E+00; -1.6913258E-01;  4.0000000E+04;  0.0000000E+00;  4.0026512E+04;  2.8450438E-01;  0.0000000E+00;  5.8573313E-02;  3.5809204E+03;
  1.9198138E-01;  9.9999998E-03;  1.8009765E-01;3653;  2.1575147E-01;  0.0000000E+00;  2.2171587E-02;  9.9640015E+02;  1.0000000E-01; -2.9824338E+03;3; -2.3958578E+01;  0.0000000E+00; -3.1832576E+00;0;  2.9054374E-01;  3.9673152E+04;  0.0000000E+00; -2.4639282E-01;  4.0000000E+04;  0.0000000E+00;  4.0039066E+04;  2.4873893E-01;  0.0000000E+00;  4.1804805E-02;  5.2174312E+03;
  1.9200033E-01;  9.9999998E-03;  1.9009292E-01;3654;  2.1414606E-01;  0.0000000E+00;  2.3227120E-02;  9.9541162E+02;  1.0000000E-01; -3.8013738E+03;3; -2.3768091E+01;  0.0000000E+00; -2.6698358E+00;0;  2.4638557E-01;  3.9583941E+04;  0.0000000E+00; -3.0784440E-01;  4.0000000E+04;  0.0000000E+00;  4.0050172E+04;  2.2450915E-01;  0.0000000E+00;  2.1876417E-02;  6.6887671E+03;
  1.9203240E-01;  9.9999998E-03;  2.0008503E-01;3655;  2.1250321E-01;  0.0000000E+00;  2.4114389E-02;  9.9422205E+02;  1.0000000E-01; -4.7869258E+03;3; -2.3303150E+01;  0.0000000E+00; -2.0325906E+00;0;  2.1439275E-01;  3.9481512E+04;  0.0000000E+00; -2.1456324E-01;  4.0000000E+04;  0.0000000E+00;  4.0058727E+04;  2.1456881E-01;  0.0000000E+00; -1.7605070E-04;  7.8400806E+03;
  1.9208919E-01;  9.9999998E-03;  2.1007350E-01;3656;  2.1072420E-01;  0.0000000E+00;  2.4853561E-02;  9.9283661E+02;  1.0000000E-01; -5.9347451E+03;3; -2.2290199E+01;  0.0000000E+00; -1.3660473E+00;0;  1.9836649E-01;  3.9367582E+04;  0.0000000E+00;  3.3933443E-01;  4.0000000E+04;  0.0000000E+00;  4.0063754E+04;  2.2143210E-01;  0.0000000E+00; -2.3065606E-02;  8.5851865E+03;
  1.9218174E-01;  9.9999998E-03;  2.2005689E-01;3657;  2.0873763E-01;  0.0000000E+00;  2.5312658E-02;  9.9125745E+02;  1.0000000E-01; -7.2430537E+03;3; -2.0148935E+01;  0.0000000E+00; -1.1199629E+00;0;  2.0187965E-01;  3.9242613E+04;  0.0000000E+00;  1.8644085E+00;  4.0000000E+04;  0.0000000E+00;  4.0064543E+04;  2.4728517E-01;  0.0000000E+00; -4.5405515E-02;  9.2461299E+03;
  1.9231026E-01;  9.9999998E-03;  2.3003638E-01;3658;  2.0648028E-01;  0.0000000E+00;  2.5371814E-02;  9.8947998E+02;  1.0000000E-01; -8.7156543E+03;3; -1.5905525E+01;  0.0000000E+00; -2.3373706E+00;0;  2.2813904E-01;  3.9106734E+04;  0.0000000E+00;  5.0347214E+00;  4.0000000E+04;  0.0000000E+00;  4.0061016E+04;  2.9399186E-01;  0.0000000E+00; -6.5852821E-02;  1.1384217E+04;
  2.0164239E-01;  9.9999998E-03;  7.0035435E-02;3703;  2.5668228E-01;  0.0000000E+00;  1.6577305E-02;  9.9867883E+02;  1.0000000E-01; -1.0945863E+03;3; -1.5634664E+01;  0.0000000E+00; -2.5217500E+00;0;  8.8755816E-01;  3.9904457E+04;  0.0000000E+00;  1.7106468E-02;  4.0000000E+04;  0.0000000E+00;  3.9987203E+04;  8.1519979E-01;  0.0000000E+00;  7.2358377E-02;  1.4613926E+03;
  2.0165446E-01;  9.9999998E-03;  8.0037192E-02;3704;  2.4795124E-01;  0.0000000E+00;  1.7808542E-02;  9.9870972E+02;  1.0000000E-01; -1.0689574E+03;3; -1.8363846E+01;  0.0000000E+00; -2.3429019E+00;0;  8.6276662E-01;  3.9910715E+04;  0.0000000E+00;  1.9920764E-02;  4.0000000E+04;  0.0000000E+00;  3.9983547E+04;  7.8970802E-01;  0.0000000E+00;  7.3058628E-02;  1.9413993E+03;
  2.0167510E-01;  9.9999998E-03;  9.0039119E-02;3705;  2.4117170E-01;  0.0000000E+00;  1.8432261E-02;  9.9872778E+02;  1.0000000E-01; -1.0539948E+03;3; -2.1083796E+01;  0.0000000E+00; -2.3592346E+00;0;  8.3400887E-01;  3.9915996E+04;  0.0000000E+00;  2.0812042E-02;  4.0000000E+04;  0.0000000E+00;  3.9979730E+04;  7.5825113E-01;  0.0000000E+00;  7.5757734E-02;  2.4066079E+03;
  2.0170347E-01;  9.9999998E-03;  1.0004209E-01;3706;  2.3606618E-01;  0.0000000E+00;  1.8699281E-02;  9.9873071E+02;  1.0000000E-01; -1.0515751E+03;3; -2.2812046E+01;  0.0000000E+00; -2.2333708E+00;0;  8.0066711E-01;  3.9919320E+04;  0.0000000E+00;  1.8443599E-02;  4.0000000E+04;  0.0000000E+00;  3.9976660E+04;  7.2066039E-01;  0.0000000E+00;  8.0006719E-02;  2.7818003E+03;
  2.0173809E-01;  9.9999998E-03;  1.1004704E-01;3707;  2.3207062E-01;  0.0000000E+00;  1.8716291E-02;  9.9871051E+02;  1.0000000E-01; -1.0683154E+03;3; -2.4001623E+01;  0.0000000E+00; -2.5249770E+00;0;  7.6218003E-01;  3.9919320E+04;  0.0000000E+00;  1.1353221E-02;  4.0000000E+04;  0.0000000E+00;  3.9975191E+04;  6.7712742E-01;  0.0000000E+00;  8.5052609E-02;  2.9815120E+03;
  2.0177601E-01;  9.9999998E-03;  1.2005495E-01;3708;  2.2878315E-01;  0.0000000E+00;  1.8803248E-02;  9.9865424E+02;  1.0000000E-01; -1.1149314E+03;3; -2.4414734E+01;  0.0000000E+00; -2.7096388E+00;0;  7.1815640E-01;  3.9914555E+04;  0.0000000E+00; -1.8324109E-03;  4.0000000E+04;  0.0000000E+00;  3.9975566E+04;  6.2825841E-01;  0.0000000E+00;  8.9898005E-02;  2.9211619E+03;
  2.0181483E-01;  9.9999998E-03;  1.3006549E-01;3709;  2.2598246E-01;  0.0000000E+00;  1.8999139E-02;  9.9855017E+02;  1.0000000E-01; -1.2011511E+03;3; -2.4568056E+01;  0.0000000E+00; -3.0668747E+00;0;  6.6854107E-01;  3.9903371E+04;  0.0000000E+00; -2.2115229E-02;  4.0000000E+04;  0.0000000E+00;  3.9978656E+04;  5.7513261E-01;  0.0000000E+00;  9.3408465E-02;  2.5320508E+03;
  2.0185260E-01;  9.9999998E-03;  1.4007659E-01;3710;  2.2341420E-01;  0.0000000E+00;  1.9320844E-02;  9.9838062E+02;  1.0000000E-01; -1.3416410E+03;3; -2.4426754E+01;  0.0000000E+00; -3.2755945E+00;0;  6.1372161E-01;  3.9884043E+04;  0.0000000E+00; -4.9802121E-02;  4.0000000E+04;  0.0000000E+00;  3.9984465E+04;  5.1928079E-01;  0.0000000E+00;  9.4440795E-02;  1.7781068E+03;
  2.0188741E-01;  9.9999998E-03;  1.5008610E-01;3711;  2.2106624E-01;  0.0000000E+00;  1.9804822E-02;  9.9812000E+02;  1.0000000E-01; -1.5575361E+03;3; -2.4254868E+01;  0.0000000E+00; -3.5182164E+00;0;  5.5464637E-01;  3.9854719E+04;  0.0000000E+00; -8.4792517E-02;  4.0000000E+04;  0.0000000E+00;  3.9993227E+04;  4.6265209E-01;  0.0000000E+00;  9.1994271E-02;  6.7599542E+02;
  2.0191693E-01;  9.9999998E-03;  1.6009276E-01;3712;  2.1888769E-01;  0.0000000E+00;  2.0614654E-02;  9.9774121E+02;  1.0000000E-01; -1.8713544E+03;3; -2.4142494E+01;  0.0000000E+00; -3.7819955E+00;0;  4.9297237E-01;  3.9813945E+04;  0.0000000E+00; -1.3246606E-01;  4.0000000E+04;  0.0000000E+00;  4.0004293E+04;  4.0758362E-01;  0.0000000E+00;  8.5388750E-02;  7.6193066E+02;
  2.0194125E-01;  9.9999998E-03;  1.7009573E-01;3713;  2.1687828E-01;  0.0000000E+00;  2.1738565E-02;  9.9722064E+02;  1.0000000E-01; -2.3026506E+03;3; -2.4040703E+01;  0.0000000E+00; -3.8256247E+00;0;  4.3122590E-01;  3.9760375E+04;  0.0000000E+00; -2.1052171E-01;  4.0000000E+04;  0.0000000E+00;  4.0016461E+04;  3.5679835E-01;  0.0000000E+00;  7.4427530E-02;  2.3440396E+03;
  2.0196405E-01;  9.9999998E-03;  1.8009503E-01;3714;  2.1500851E-01;  0.0000000E+00;  2.2972561E-02;  9.9653296E+02;  1.0000000E-01; -2.8723630E+03;3; -2.3956713E+01;  0.0000000E+00; -3.8030708E+00;0;  3.7270990E-01;  3.9693270E+04;  0.0000000E+00; -3.4168050E-01;  4.0000000E+04;  0.0000000E+00;  4.0029164E+04;  3.1329972E-01;  0.0000000E+00;  5.9410173E-02;  3.9842734E+03;
  2.0199299E-01;  9.9999998E-03;  1.9009119E-01;3715;  2.1319868E-01;  0.0000000E+00;  2.4279959E-02;  9.9566083E+02;  1.0000000E-01; -3.5949104E+03;3; -2.3855080E+01;  0.0000000E+00; -3.7005897E+00;0;  3.2127580E-01;  3.9612742E+04;  0.0000000E+00; -5.2182454E-01;  4.0000000E+04;  0.0000000E+00;  4.0040789E+04;  2.8021181E-01;  0.0000000E+00;  4.1063987E-02;  5.5282983E+03;
  2.0204009E-01;  9.9999998E-03;  2.0008415E-01;3716;  2.1137743E-01;  0.0000000E+00;  2.5576636E-02;  9.9459363E+02;  1.0000000E-01; -4.4790830E+03;3; -2.3503933E+01;  0.0000000E+00; -3.7516606E+00;0;  2.8107285E-01;  3.9519195E+04;  0.0000000E+00; -6.5979725E-01;  4.0000000E+04;  0.0000000E+00;  4.0050320E+04;  2.6061314E-01;  0.0000000E+00;  2.0459712E-02;  6.8190527E+03;
  2.0211615E-01;  9.9999998E-03;  2.1007463E-01;3717;  2.0945030E-01;  0.0000000E+00;  2.6792243E-02;  9.9333038E+02;  1.0000000E-01; -5.5256704E+03;3; -2.2676140E+01;  0.0000000E+00; -4.1206698E+00;0;  2.5627476E-01;  3.9413164E+04;  0.0000000E+00; -5.0153995E-01;  4.0000000E+04;  0.0000000E+00;  4.0056820E+04;  2.5734946E-01;  0.0000000E+00; -1.0747006E-03;  7.6958701E+03;
  2.0222916E-01;  9.9999998E-03;  2.2006255E-01;3718;  2.0732930E-01;  0.0000000E+00;  2.7905012E-02;  9.9186029E+02;  1.0000000E-01; -6.7436113E+03;3; -2.0753405E+01;  0.0000000E+00; -5.4344707E+00;0;  2.5097990E-01;  3.9294996E+04;  0.0000000E+00;  4.1974565E-01;  4.0000000E+04;  0.0000000E+00;  4.0059504E+04;  2.7295211E-01;  0.0000000E+00; -2.1972222E-02;  8.1626187E+03;
  2.0237747E-01;  9.9999998E-03;  2.3004842E-01;3719;  2.0491545E-01;  0.0000000E+00;  2.8872786E-02;  9.9016345E+02;  1.0000000E-01; -8.1493984E+03;3; -1.6928854E+01;  0.0000000E+00; -8.6469660E+00;0;  2.6910919E-01;  3.9163520E+04;  0.0000000E+00;  2.7476249E+00;  4.0000000E+04;  0.0000000E+00;  4.0058070E+04;  3.0961370E-01;  0.0000000E+00; -4.0504526E-02;  9.1420527E+03;
  2.1172431E-01;  9.9999998E-03;  6.9996640E-02;3764;  2.9461730E-01;  0.0000000E+00;  5.0693173E-03;  9.9843829E+02;  1.0000000E-01; -1.2938398E+03;3; -8.0588980E+00;  0.0000000E+00; -3.2168427E+00;0;  9.1443664E-01;  3.9883887E+04;  0.0000000E+00;  2.2795817E-02;  4.0000000E+04;  0.0000000E+00;  3.9988766E+04;  8.4954733E-01;  0.0000000E+00;  6.4889327E-02;  1.2661667E+03;
  2.1172522E-01;  9.9999998E-03;  7.9999231E-02;3765;  2.8307486E-01;  0.0000000E+00;  7.1223085E-03;  9.9844196E+02;  1.0000000E-01; -1.2908276E+03;3; -1.0841021E+01;  0.0000000E+00; -3.1067083E+00;0;  9.0084350E-01;  3.9888586E+04;  0.0000000E+00;  2.7562527E-02;  4.0000000E+04;  0.0000000E+00;  3.9984219E+04;  8.3335710E-01;  0.0000000E+00;  6.7486390E-02;  1.8258843E+03;
  2.1172801E-01;  9.9999998E-03;  9.0004690E-02;3766;  2.7051455E-01;  0.0000000E+00;  9.6541876E-03;  9.9843665E+02;  1.0000000E-01; -1.2952225E+03;3; -1.3701211E+01;  0.0000000E+00; -2.9324641E+00;0;  8.8307619E-01;  3.9892598E+04;  0.0000000E+00;  3.0624192E-02;  4.0000000E+04;  0.0000000E+00;  3.9979645E+04;  8.1087762E-01;  0.0000000E+00;  7.2198547E-02;  2.3919229E+03;
  2.1173304E-01;  9.9999998E-03;  1.0001340E-01;3767;  2.5695869E-01;  0.0000000E+00;  1.2594027E-02;  9.9841840E+02;  1.0000000E-01; -1.3103333E+03;3; -1.6712568E+01;  0.0000000E+00; -2.6963303E+00;0;  8.6004704E-01;  3.9895207E+04;  0.0000000E+00;  3.0421233E-02;  4.0000000E+04;  0.0000000E+00;  3.9975566E+04;  7.8147840E-01;  0.0000000E+00;  7.8568660E-02;  2.8912441E+03;
  2.1174213E-01;  9.9999998E-03;  1.1002561E-01;3768;  2.4323347E-01;  0.0000000E+00;  1.5921434E-02;  9.9838379E+02;  1.0000000E-01; -1.3390238E+03;3; -1.9917509E+01;  0.0000000E+00; -2.5975399E+00;0;  8.3076674E-01;  3.9895270E+04;  0.0000000E+00;  2.5101552E-02;  4.0000000E+04;  0.0000000E+00;  3.9972906E+04;  7.4495274E-01;  0.0000000E+00;  8.5814022E-02;  3.2380271E+03;
  2.1176083E-01;  9.9999998E-03;  1.2003939E-01;3769;  2.3305653E-01;  0.0000000E+00;  1.8450692E-02;  9.9832495E+02;  1.0000000E-01; -1.3877631E+03;3; -2.2545233E+01;  0.0000000E+00; -2.6343141E+00;0;  7.9463494E-01;  3.9891559E+04;  0.0000000E+00;  1.2766064E-02;  4.0000000E+04;  0.0000000E+00;  3.9971879E+04;  7.0172042E-01;  0.0000000E+00;  9.2914529E-02;  3.3440095E+03;
  2.1179067E-01;  9.9999998E-03;  1.3005316E-01;3770;  2.2777207E-01;  0.0000000E+00;  1.9420698E-02;  9.9823108E+02;  1.0000000E-01; -1.4655387E+03;3; -2.3844557E+01;  0.0000000E+00; -2.7861328E+00;0;  7.5140065E-01;  3.9882688E+04;  0.0000000E+00; -8.1546633E-03;  4.0000000E+04;  0.0000000E+00;  3.9973539E+04;  6.5269434E-01;  0.0000000E+00;  9.8706283E-02;  3.1324448E+03;
  2.1182518E-01;  9.9999998E-03;  1.4006665E-01;3771;  2.2430269E-01;  0.0000000E+00;  1.9983206E-02;  9.9808649E+02;  1.0000000E-01; -1.5852883E+03;3; -2.4234472E+01;  0.0000000E+00; -3.1044140E+00;0;  7.0111293E-01;  3.9866832E+04;  0.0000000E+00; -3.8421851E-02;  4.0000000E+04;  0.0000000E+00;  3.9978047E+04;  5.9913063E-01;  0.0000000E+00;  1.0198227E-01;  2.5544607E+03;
  2.1185963E-01;  9.9999998E-03;  1.5007730E-01;3772;  2.2145058E-01;  0.0000000E+00;  2.0516660E-02;  9.9787402E+02;  1.0000000E-01; -1.7613328E+03;3; -2.4156849E+01;  0.0000000E+00; -3.3690863E+00;0;  6.4453745E-01;  3.9842625E+04;  0.0000000E+00; -7.8101635E-02;  4.0000000E+04;  0.0000000E+00;  3.9985566E+04;  5.4283655E-01;  0.0000000E+00;  1.0170092E-01;  1.6069404E+03;
  2.1189153E-01;  9.9999998E-03;  1.6008414E-01;3773;  2.1893367E-01;  0.0000000E+00;  2.1117963E-02;  9.9756702E+02;  1.0000000E-01; -2.0156959E+03;3; -2.4036295E+01;  0.0000000E+00; -3.6187117E+00;0;  5.8328325E-01;  3.9808391E+04;  0.0000000E+00; -1.3340463E-01;  4.0000000E+04;  0.0000000E+00;  3.9995457E+04;  4.8611280E-01;  0.0000000E+00;  9.7170427E-02;  3.8038083E+02;
  2.1192057E-01;  9.9999998E-03;  1.7008711E-01;3774;  2.1662277E-01;  0.0000000E+00;  2.1953939E-02;  9.9713782E+02;  1.0000000E-01; -2.3712415E+03;3; -2.3936676E+01;  0.0000000E+00; -3.9468198E+00;0;  5.1989543E-01;  3.9762676E+04;  0.0000000E+00; -2.2757712E-01;  4.0000000E+04;  0.0000000E+00;  4.0007246E+04;  4.3171069E-01;  0.0000000E+00;  8.8184744E-02;  1.2077466E+03;
  2.1194999E-01;  9.9999998E-03;  1.8008624E-01;3775;  2.1445349E-01;  0.0000000E+00;  2.3148919E-02;  9.9655969E+02;  1.0000000E-01; -2.8502402E+03;3; -2.3898659E+01;  0.0000000E+00; -4.1998878E+00;0;  4.5778728E-01;  3.9704789E+04;  0.0000000E+00; -4.0034682E-01;  4.0000000E+04;  0.0000000E+00;  4.0019473E+04;  3.8274089E-01;  0.0000000E+00;  7.5046405E-02;  2.8082266E+03;
  2.1198756E-01;  9.9999998E-03;  1.9008178E-01;3776;  2.1237791E-01;  0.0000000E+00;  2.4548311E-02;  9.9581781E+02;  1.0000000E-01; -3.4648894E+03;3; -2.3831333E+01;  0.0000000E+00; -4.3734937E+00;0;  4.0100643E-01;  3.9634398E+04;  0.0000000E+00; -6.8225682E-01;  4.0000000E+04;  0.0000000E+00;  4.0031309E+04;  3.4250525E-01;  0.0000000E+00;  5.8501191E-02;  4.3958711E+03;
  2.1204394E-01;  9.9999998E-03;  2.0007408E-01;3777;  2.1032554E-01;  0.0000000E+00;  2.6047973E-02;  9.9489685E+02;  1.0000000E-01; -4.2278799E+03;3; -2.3563095E+01;  0.0000000E+00; -4.8726611E+00;0;  3.5395220E-01;  3.9551402E+04;  0.0000000E+00; -1.0363191E+00;  4.0000000E+04;  0.0000000E+00;  4.0041676E+04;  3.1429747E-01;  0.0000000E+00;  3.9654743E-02;  5.8325894E+03;
  2.1213111E-01;  9.9999998E-03;  2.1006382E-01;3778;  2.0817591E-01;  0.0000000E+00;  2.7631214E-02;  9.9378363E+02;  1.0000000E-01; -5.1501255E+03;3; -2.2886053E+01;  0.0000000E+00; -5.6937480E+00;0;  3.2117930E-01;  3.9456098E+04;  0.0000000E+00; -1.2786386E+00;  4.0000000E+04;  0.0000000E+00;  4.0049527E+04;  3.0122292E-01;  0.0000000E+00;  1.9956380E-02;  6.9460283E+03;
  2.1225531E-01;  9.9999998E-03;  2.2005175E-01;3779;  2.0587629E-01;  0.0000000E+00;  2.9136093E-02;  9.9246613E+02;  1.0000000E-01; -6.2416504E+03;3; -2.1130505E+01;  0.0000000E+00; -7.7205062E+00;0;  3.0712485E-01;  3.9348039E+04;  0.0000000E+00; -1.0204446E+00;  4.0000000E+04;  0.0000000E+00;  4.0054203E+04;  3.0605191E-01;  0.0000000E+00;  1.0729544E-03;  7.5325337E+03;
  2.1241394E-01;  9.9999998E-03;  2.3003902E-01;3780;  2.0327155E-01;  0.0000000E+00;  3.0587114E-02;  9.9091675E+02;  1.0000000E-01; -7.5253174E+03;3; -1.7601318E+01;  0.0000000E+00; -1.1649530E+01;0;  3.1619656E-01;  3.9225445E+04;  0.0000000E+00;  3.0321676E-01;  4.0000000E+04;  0.0000000E+00;  4.0055293E+04;  3.3117211E-01;  0.0000000E+00; -1.4975561E-02;  7.7198574E+03;
  2.2178963E-01;  9.9999998E-03;  6.9967881E-02;3825;  3.2526758E-01;  0.0000000E+00; -2.8053112E-03;  9.9821405E+02;  1.0000000E-01; -1.4796123E+03;3; -2.7105248E+00;  0.0000000E+00; -2.6451991E+00;0;  9.0116119E-01;  3.9863590E+04;  0.0000000E+00;  2.6273843E-02;  4.0000000E+04;  0.0000000E+00;  3.9991176E+04;  8.4648764E-01;  0.0000000E+00;  5.4673549E-02;  9.4081683E+02;
  2.2179276E-01;  9.9999998E-03;  7.9966806E-02;3826;  3.1478807E-01;  0.0000000E+00; -1.8969394E-03;  9.9818164E+02;  1.0000000E-01; -1.5064758E+03;3; -4.8341575E+00;  0.0000000E+00; -3.0287497E+00;0;  9.0063465E-01;  3.9865957E+04;  0.0000000E+00;  3.2898832E-02;  4.0000000E+04;  0.0000000E+00;  3.9986246E+04;  8.4159636E-01;  0.0000000E+00;  5.9038304E-02;  1.5631528E+03;
  2.2179593E-01;  9.9999998E-03;  8.9968495E-02;3827;  3.0262122E-01;  0.0000000E+00; -3.5343951E-04;  9.9813983E+02;  1.0000000E-01; -1.5410920E+03;3; -7.5109091E+00;  0.0000000E+00; -3.1756244E+00;0;  8.9656389E-01;  3.9867891E+04;  0.0000000E+00;  3.8411371E-02;  4.0000000E+04;  0.0000000E+00;  3.9980895E+04;  8.3090836E-01;  0.0000000E+00;  6.5655537E-02;  2.2124705E+03;
  2.2179915E-01;  9.9999998E-03;  9.9973880E-02;3828;  2.8899786E-01;  0.0000000E+00;  1.9143994E-03;  9.9809039E+02;  1.0000000E-01; -1.5820786E+03;3; -1.0489002E+01;  0.0000000E+00; -3.1851122E+00;0;  8.8741589E-01;  3.9868734E+04;  0.0000000E+00;  4.1198228E-02;  4.0000000E+04;  0.0000000E+00;  3.9975934E+04;  8.1333202E-01;  0.0000000E+00;  7.4083872E-02;  2.8198638E+03;
  2.2180150E-01;  9.9999998E-03;  1.0998437E-01;3829;  2.7391940E-01;  0.0000000E+00;  5.0337706E-03;  9.9802826E+02;  1.0000000E-01; -1.6335339E+03;3; -1.3556917E+01;  0.0000000E+00; -3.0656240E+00;0;  8.7162369E-01;  3.9867637E+04;  0.0000000E+00;  3.9185300E-02;  4.0000000E+04;  0.0000000E+00;  3.9972094E+04;  7.8808594E-01;  0.0000000E+00;  8.3537750E-02;  3.3015281E+03;
  2.2180225E-01;  9.9999998E-03;  1.2000120E-01;3830;  2.5743854E-01;  0.0000000E+00;  9.1875540E-03;  9.9795306E+02;  1.0000000E-01; -1.6958531E+03;3; -1.6716187E+01;  0.0000000E+00; -3.1250296E+00;0;  8.4777993E-01;  3.9863805E+04;  0.0000000E+00;  3.0030532E-02;  4.0000000E+04;  0.0000000E+00;  3.9969906E+04;  7.5484431E-01;  0.0000000E+00;  9.2935644E-02;  3.5670386E+03;
  2.2180246E-01;  9.9999998E-03;  1.3002430E-01;3831;  2.4011183E-01;  0.0000000E+00;  1.4618230E-02;  9.9785583E+02;  1.0000000E-01; -1.7763940E+03;3; -1.9813566E+01;  0.0000000E+00; -3.0971589E+00;0;  8.1490374E-01;  3.9856027E+04;  0.0000000E+00;  1.1575257E-02;  4.0000000E+04;  0.0000000E+00;  3.9970141E+04;  7.1390218E-01;  0.0000000E+00;  1.0100156E-01;  3.5323530E+03;
  2.2181492E-01;  9.9999998E-03;  1.4004859E-01;3832;  2.2804451E-01;  0.0000000E+00;  1.8683936E-02;  9.9772736E+02;  1.0000000E-01; -1.8828602E+03;3; -2.2743258E+01;  0.0000000E+00; -3.0816500E+00;0;  7.7302188E-01;  3.9842816E+04;  0.0000000E+00; -1.7499872E-02;  4.0000000E+04;  0.0000000E+00;  3.9973176E+04;  6.6652256E-01;  0.0000000E+00;  1.0649932E-01;  3.1373950E+03;
  2.2184356E-01;  9.9999998E-03;  1.5006483E-01;3833;  2.2293116E-01;  0.0000000E+00;  2.0207573E-02;  9.9754803E+02;  1.0000000E-01; -2.0313992E+03;3; -2.3769962E+01;  0.0000000E+00; -3.3136196E+00;0;  7.2288597E-01;  3.9822766E+04;  0.0000000E+00; -5.7499480E-02;  4.0000000E+04;  0.0000000E+00;  3.9979234E+04;  6.1450028E-01;  0.0000000E+00;  1.0838565E-01;  2.3643264E+03;
  2.2187579E-01;  9.9999998E-03;  1.6007334E-01;3834;  2.1958421E-01;  0.0000000E+00;  2.1101445E-02;  9.9729944E+02;  1.0000000E-01; -2.2373687E+03;3; -2.3840693E+01;  0.0000000E+00; -3.5745749E+00;0;  6.6575825E-01;  3.9794363E+04;  0.0000000E+00; -1.1468203E-01;  4.0000000E+04;  0.0000000E+00;  3.9988031E+04;  5.5981493E-01;  0.0000000E+00;  1.0594329E-01;  1.2555792E+03;
  2.2190830E-01;  9.9999998E-03;  1.7007637E-01;3835;  2.1679856E-01;  0.0000000E+00;  2.1910675E-02;  9.9695264E+02;  1.0000000E-01; -2.5246692E+03;3; -2.3836184E+01;  0.0000000E+00; -3.8366385E+00;0;  6.0409737E-01;  3.9756297E+04;  0.0000000E+00; -2.1525535E-01;  4.0000000E+04;  0.0000000E+00;  3.9998738E+04;  5.0511360E-01;  0.0000000E+00;  9.8983787E-02;  3.2979669E+02;
  2.2194317E-01;  9.9999998E-03;  1.8007492E-01;3836;  2.1429470E-01;  0.0000000E+00;  2.2850048E-02;  9.9648474E+02;  1.0000000E-01; -2.9123125E+03;3; -2.3820755E+01;  0.0000000E+00; -4.1365643E+00;0;  5.4133809E-01;  3.9707621E+04;  0.0000000E+00; -4.1122472E-01;  4.0000000E+04;  0.0000000E+00;  4.0010527E+04;  4.5351824E-01;  0.0000000E+00;  8.7819844E-02;  1.7367385E+03;
  2.2198722E-01;  9.9999998E-03;  1.9006963E-01;3837;  2.1191794E-01;  0.0000000E+00;  2.4016090E-02;  9.9587268E+02;  1.0000000E-01; -3.4194092E+03;3; -2.3729244E+01;  0.0000000E+00; -4.5984054E+00;0;  4.8161152E-01;  3.9647617E+04;  0.0000000E+00; -7.6247704E-01;  4.0000000E+04;  0.0000000E+00;  4.0022305E+04;  4.0841630E-01;  0.0000000E+00;  7.3195226E-02;  3.3311736E+03;
  2.2204961E-01;  9.9999998E-03;  2.0006102E-01;3838;  2.0959112E-01;  0.0000000E+00;  2.5476517E-02;  9.9510175E+02;  1.0000000E-01; -4.0581072E+03;3; -2.3590273E+01;  0.0000000E+00; -5.1063814E+00;0;  4.2950210E-01;  3.9576188E+04;  0.0000000E+00; -1.2844188E+00;  4.0000000E+04;  0.0000000E+00;  4.0033023E+04;  3.7324435E-01;  0.0000000E+00;  5.6257762E-02;  4.9028062E+03;
  2.2214156E-01;  9.9999998E-03;  2.1004967E-01;3839;  2.0723498E-01;  0.0000000E+00;  2.7063707E-02;  9.9415601E+02;  1.0000000E-01; -4.8416406E+03;3; -2.3030611E+01;  0.0000000E+00; -5.9287868E+00;0;  3.8976303E-01;  3.9492871E+04;  0.0000000E+00; -1.8701154E+00;  4.0000000E+04;  0.0000000E+00;  4.0042094E+04;  3.5128531E-01;  0.0000000E+00;  3.8477723E-02;  6.3216821E+03;
  2.2226962E-01;  9.9999998E-03;  2.2003740E-01;3840;  2.0478110E-01;  0.0000000E+00;  2.8640136E-02;  9.9301898E+02;  1.0000000E-01; -5.7836387E+03;3; -2.1622082E+01;  0.0000000E+00; -7.6182938E+00;0;  3.6710277E-01;  3.9397113E+04;  0.0000000E+00; -2.2287674E+00;  4.0000000E+04;  0.0000000E+00;  4.0048633E+04;  3.4549218E-01;  0.0000000E+00;  2.1610579E-02;  7.3409995E+03;
  2.2243419E-01;  9.9999998E-03;  2.3002601E-01;3841;  2.0212395E-01;  0.0000000E+00;  3.0174421E-02;  9.9165344E+02;  1.0000000E-01; -6.9149644E+03;3; -1.8684816E+01;  0.0000000E+00; -1.0749730E+01;0;  3.6619821E-01;  3.9286590E+04;  0.0000000E+00; -1.9153458E+00;  4.0000000E+04;  0.0000000E+00;  4.0052250E+04;  3.5842097E-01;  0.0000000E+00;  7.7772532E-03;  7.6513208E+03;
  2.3182327E-01;  9.9999998E-03;  6.9958031E-02;3886;  3.4080565E-01;  0.0000000E+00; -4.3776506E-03;  9.9802081E+02;  1.0000000E-01; -1.6397065E+03;3; -2.1780422E+00;  0.0000000E+00; -1.7421387E+00;0;  8.5101128E-01;  3.9845109E+04;  0.0000000E+00;  2.6150331E-02;  4.0000000E+04;  0.0000000E+00;  3.9994324E+04;  8.0864131E-01;  0.0000000E+00;  4.2369958E-02;  5.3257666E+02;
  2.3183411E-01;  9.9999998E-03;  7.9952918E-02;3887;  3.3407038E-01;  0.0000000E+00; -4.7753952E-03;  9.9794922E+02;  1.0000000E-01; -1.6990135E+03;3; -2.6644120E+00;  0.0000000E+00; -2.0770495E+00;0;  8.6337394E-01;  3.9844824E+04;  0.0000000E+00;  3.3943024E-02;  4.0000000E+04;  0.0000000E+00;  3.9988957E+04;  8.1525028E-01;  0.0000000E+00;  4.8123661E-02;  1.1937289E+03;
  2.3184356E-01;  9.9999998E-03;  8.9949816E-02;3888;  3.2500371E-01;  0.0000000E+00; -4.7855871E-03;  9.9786926E+02;  1.0000000E-01; -1.7652833E+03;3; -4.0306807E+00;  0.0000000E+00; -2.3820462E+00;0;  8.7345690E-01;  3.9843969E+04;  0.0000000E+00;  4.1505769E-02;  4.0000000E+04;  0.0000000E+00;  3.9983301E+04;  8.1720555E-01;  0.0000000E+00;  5.6251343E-02;  1.9005747E+03;
  2.3185177E-01;  9.9999998E-03;  9.9949896E-02;3889;  3.1378457E-01;  0.0000000E+00; -4.2033144E-03;  9.9778131E+02;  1.0000000E-01; -1.8381207E+03;3; -6.0105891E+00;  0.0000000E+00; -2.7383628E+00;0;  8.7940401E-01;  3.9842438E+04;  0.0000000E+00;  4.7427204E-02;  4.0000000E+04;  0.0000000E+00;  3.9977613E+04;  8.1304878E-01;  0.0000000E+00;  6.6355221E-02;  2.5899656E+03;
  2.3185730E-01;  9.9999998E-03;  1.0995509E-01;3890;  3.0011907E-01;  0.0000000E+00; -2.6503450E-03;  9.9768427E+02;  1.0000000E-01; -1.9185629E+03;3; -8.4417181E+00;  0.0000000E+00; -3.0228052E+00;0;  8.7921542E-01;  3.9839508E+04;  0.0000000E+00;  4.9699932E-02;  4.0000000E+04;  0.0000000E+00;  3.9972883E+04;  8.0153054E-01;  0.0000000E+00;  7.7684872E-02;  3.1826785E+03;
  2.3185897E-01;  9.9999998E-03;  1.1996695E-01;3891;  2.8407252E-01;  0.0000000E+00;  2.6196183E-04;  9.9757727E+02;  1.0000000E-01; -2.0072024E+03;3; -1.1300815E+01;  0.0000000E+00; -3.1653652E+00;0;  8.7091482E-01;  3.9834402E+04;  0.0000000E+00;  4.5821153E-02;  4.0000000E+04;  0.0000000E+00;  3.9969414E+04;  7.8175253E-01;  0.0000000E+00;  8.9162268E-02;  3.5896399E+03;
  2.3185617E-01;  9.9999998E-03;  1.2998579E-01;3892;  2.6615644E-01;  0.0000000E+00;  4.5219418E-03;  9.9746320E+02;  1.0000000E-01; -2.1017183E+03;3; -1.4280195E+01;  0.0000000E+00; -3.2370493E+00;0;  8.5280806E-01;  3.9826426E+04;  0.0000000E+00;  3.3171251E-02;  4.0000000E+04;  0.0000000E+00;  3.9968246E+04;  7.5333333E-01;  0.0000000E+00;  9.9474750E-02;  3.7232217E+03;
  2.3184898E-01;  9.9999998E-03;  1.4001350E-01;3893;  2.4645174E-01;  0.0000000E+00;  1.0553273E-02;  9.9733154E+02;  1.0000000E-01; -2.2107522E+03;3; -1.7479187E+01;  0.0000000E+00; -3.5237684E+00;0;  8.2376850E-01;  3.9814500E+04;  0.0000000E+00;  9.7044464E-03;  4.0000000E+04;  0.0000000E+00;  3.9969887E+04;  7.1653104E-01;  0.0000000E+00;  1.0723744E-01;  3.5123953E+03;
  2.3185091E-01;  9.9999998E-03;  1.5004316E-01;3894;  2.2996479E-01;  0.0000000E+00;  1.6468892E-02;  9.9717297E+02;  1.0000000E-01; -2.3421558E+03;3; -2.1056231E+01;  0.0000000E+00; -3.5931284E+00;0;  7.8389758E-01;  3.9797375E+04;  0.0000000E+00; -2.5403334E-02;  4.0000000E+04;  0.0000000E+00;  3.9974531E+04;  6.7262328E-01;  0.0000000E+00;  1.1127429E-01;  2.9229043E+03;
  2.3187457E-01;  9.9999998E-03;  1.6005976E-01;3895;  2.2221544E-01;  0.0000000E+00;  1.9316593E-02;  9.9696545E+02;  1.0000000E-01; -2.5140522E+03;3; -2.3086029E+01;  0.0000000E+00; -3.6108022E+00;0;  7.3474967E-01;  3.9773785E+04;  0.0000000E+00; -7.7831797E-02;  4.0000000E+04;  0.0000000E+00;  3.9981934E+04;  6.2382197E-01;  0.0000000E+00;  1.1092767E-01;  1.9794203E+03;
  2.3190746E-01;  9.9999998E-03;  1.7006521E-01;3896;  2.1798646E-01;  0.0000000E+00;  2.0790497E-02;  9.9668927E+02;  1.0000000E-01; -2.7428853E+03;3; -2.3468536E+01;  0.0000000E+00; -3.8459246E+00;0;  6.7851722E-01;  3.9742379E+04;  0.0000000E+00; -1.7390865E-01;  4.0000000E+04;  0.0000000E+00;  3.9991562E+04;  5.7248288E-01;  0.0000000E+00;  1.0603433E-01;  7.8818842E+02;
  2.3194590E-01;  9.9999998E-03;  1.8006441E-01;3897;  2.1481587E-01;  0.0000000E+00;  2.1860296E-02;  9.9631616E+02;  1.0000000E-01; -3.0520122E+03;3; -2.3542406E+01;  0.0000000E+00; -4.1375136E+00;0;  6.1847270E-01;  3.9702016E+04;  0.0000000E+00; -3.7158099E-01;  4.0000000E+04;  0.0000000E+00;  4.0002477E+04;  5.2154428E-01;  0.0000000E+00;  9.6928447E-02;  8.3631433E+02;
  2.3199430E-01;  9.9999998E-03;  1.9005883E-01;3898;  2.1203241E-01;  0.0000000E+00;  2.2924056E-02;  9.9582544E+02;  1.0000000E-01; -3.4585686E+03;3; -2.3600796E+01;  0.0000000E+00; -4.5106959E+00;0;  5.5872864E-01;  3.9652156E+04;  0.0000000E+00; -7.5076753E-01;  4.0000000E+04;  0.0000000E+00;  4.0013895E+04;  4.7437415E-01;  0.0000000E+00;  8.4354505E-02;  2.3601003E+03;
  2.3205954E-01;  9.9999998E-03;  2.0004991E-01;3899;  2.0942356E-01;  0.0000000E+00;  2.4107659E-02;  9.9520026E+02;  1.0000000E-01; -3.9764797E+03;3; -2.3545843E+01;  0.0000000E+00; -5.0080037E+00;0;  5.0386131E-01;  3.9592023E+04;  0.0000000E+00; -1.3700258E+00;  4.0000000E+04;  0.0000000E+00;  4.0024734E+04;  4.3446097E-01;  0.0000000E+00;  6.9400370E-02;  4.0138916E+03;
  2.3215213E-01;  9.9999998E-03;  2.1003862E-01;3900;  2.0686898E-01;  0.0000000E+00;  2.5427219E-02;  9.9442377E+02;  1.0000000E-01; -4.6198198E+03;3; -2.3154652E+01;  0.0000000E+00; -5.7645922E+00;0;  4.5870417E-01;  3.9521312E+04;  0.0000000E+00; -2.1950600E+00;  4.0000000E+04;  0.0000000E+00;  4.0034621E+04;  4.0520152E-01;  0.0000000E+00;  5.3502657E-02;  5.7038696E+03;
  2.3227958E-01;  9.9999998E-03;  2.2002712E-01;3901;  2.0428753E-01;  0.0000000E+00;  2.6846606E-02;  9.9347223E+02;  1.0000000E-01; -5.4081431E+03;3; -2.2202047E+01;  0.0000000E+00; -6.9891596E+00;0;  4.2816299E-01;  3.9438824E+04;  0.0000000E+00; -3.0380402E+00;  4.0000000E+04;  0.0000000E+00;  4.0042602E+04;  3.8968229E-01;  0.0000000E+00;  3.8480699E-02;  7.2438105E+03;
  2.3244272E-01;  9.9999998E-03;  2.3001860E-01;3902;  2.0169933E-01;  0.0000000E+00;  2.8126065E-02;  9.9230688E+02;  1.0000000E-01; -6.3735972E+03;3; -2.0032766E+01;  0.0000000E+00; -9.3566580E+00;0;  4.1681179E-01;  3.9342215E+04;  0.0000000E+00; -3.5799632E+00;  4.0000000E+04;  0.0000000E+00;  4.0048016E+04;  3.9061415E-01;  0.0000000E+00;  2.6197631E-02;  8.2665264E+03;
  2.4183583E-01;  9.9999998E-03;  6.9957249E-02;3947;  3.4560084E-01;  0.0000000E+00; -4.0746019E-03;  9.9785400E+02;  1.0000000E-01; -1.7779249E+03;3; -3.4741406E+00;  0.0000000E+00; -1.3620633E+00;0;  7.7187097E-01;  3.9828809E+04;  0.0000000E+00;  2.2428209E-02;  4.0000000E+04;  0.0000000E+00;  3.9997848E+04;  7.4303019E-01;  0.0000000E+00;  2.8840795E-02;  9.3204224E+01;
  2.4185525E-01;  9.9999998E-03;  7.9950362E-02;3948;  3.4249800E-01;  0.0000000E+00; -4.9521732E-03;  9.9775024E+02;  1.0000000E-01; -1.8638977E+03;3; -3.2881310E+00;  0.0000000E+00; -1.6022726E+00;0;  7.9547894E-01;  3.9825875E+04;  0.0000000E+00;  3.0311707E-02;  4.0000000E+04;  0.0000000E+00;  3.9992289E+04;  7.5998974E-01;  0.0000000E+00;  3.5489220E-02;  7.6280267E+02;
  2.4187306E-01;  9.9999998E-03;  8.9944929E-02;3949;  3.3728653E-01;  0.0000000E+00; -5.6819832E-03;  9.9763220E+02;  1.0000000E-01; -1.9616727E+03;3; -3.2243769E+00;  0.0000000E+00; -1.9271888E+00;0;  8.1843144E-01;  3.9822371E+04;  0.0000000E+00;  3.8907267E-02;  4.0000000E+04;  0.0000000E+00;  3.9986309E+04;  7.7384716E-01;  0.0000000E+00;  4.4584259E-02;  1.4970182E+03;
  2.4188845E-01;  9.9999998E-03;  9.9941939E-02;3950;  3.2938761E-01;  0.0000000E+00; -6.0761445E-03;  9.9750562E+02;  1.0000000E-01; -2.0665586E+03;3; -3.7899001E+00;  0.0000000E+00; -2.2206395E+00;0;  8.3874243E-01;  3.9818102E+04;  0.0000000E+00;  4.7243156E-02;  4.0000000E+04;  0.0000000E+00;  3.9980336E+04;  7.8295130E-01;  0.0000000E+00;  5.5791136E-02;  2.2361675E+03;
  2.4190137E-01;  9.9999998E-03;  1.0994246E-01;3951;  3.1881067E-01;  0.0000000E+00; -5.9218714E-03;  9.9736847E+02;  1.0000000E-01; -2.1801851E+03;3; -5.2141604E+00;  0.0000000E+00; -2.5147932E+00;0;  8.5416132E-01;  3.9812672E+04;  0.0000000E+00;  5.3699996E-02;  4.0000000E+04;  0.0000000E+00;  3.9974934E+04;  7.8573662E-01;  0.0000000E+00;  6.8424717E-02;  2.9075723E+03;
  2.4191020E-01;  9.9999998E-03;  1.1994779E-01;3952;  3.0540770E-01;  0.0000000E+00; -4.8343213E-03;  9.9722821E+02;  1.0000000E-01; -2.2963794E+03;3; -7.2197680E+00;  0.0000000E+00; -2.8324616E+00;0;  8.6231661E-01;  3.9805699E+04;  0.0000000E+00;  5.5989671E-02;  4.0000000E+04;  0.0000000E+00;  3.9970508E+04;  7.8085077E-01;  0.0000000E+00;  8.1465870E-02;  3.4266860E+03;
  2.4191186E-01;  9.9999998E-03;  1.2996073E-01;3953;  2.8885323E-01;  0.0000000E+00; -2.1785453E-03;  9.9708466E+02;  1.0000000E-01; -2.4152896E+03;3; -9.7929049E+00;  0.0000000E+00; -3.1488640E+00;0;  8.6090922E-01;  3.9796508E+04;  0.0000000E+00;  5.1365647E-02;  4.0000000E+04;  0.0000000E+00;  3.9968121E+04;  7.6728296E-01;  0.0000000E+00;  9.3626283E-02;  3.7059841E+03;
  2.4190706E-01;  9.9999998E-03;  1.3998170E-01;3954;  2.7002302E-01;  0.0000000E+00;  2.0238559E-03;  9.9693756E+02;  1.0000000E-01; -2.5371626E+03;3; -1.2822215E+01;  0.0000000E+00; -3.3436286E+00;0;  8.4805560E-01;  3.9784695E+04;  0.0000000E+00;  3.7216146E-02;  4.0000000E+04;  0.0000000E+00;  3.9968410E+04;  7.4456626E-01;  0.0000000E+00;  1.0348933E-01;  3.6684844E+03;
  2.4189809E-01;  9.9999998E-03;  1.5001072E-01;3955;  2.4964398E-01;  0.0000000E+00;  7.8151692E-03;  9.9678015E+02;  1.0000000E-01; -2.6675786E+03;3; -1.5815501E+01;  0.0000000E+00; -3.8071492E+00;0;  8.2267696E-01;  3.9769105E+04;  0.0000000E+00;  1.1946854E-02;  4.0000000E+04;  0.0000000E+00;  3.9971551E+04;  7.1293962E-01;  0.0000000E+00;  1.0973732E-01;  3.2654849E+03;
  2.4190028E-01;  9.9999998E-03;  1.6003783E-01;3956;  2.3225579E-01;  0.0000000E+00;  1.3712451E-02;  9.9659583E+02;  1.0000000E-01; -2.8203152E+03;3; -1.9513453E+01;  0.0000000E+00; -3.9668581E+00;0;  7.8526318E-01;  3.9748762E+04;  0.0000000E+00; -2.9347315E-02;  4.0000000E+04;  0.0000000E+00;  3.9977492E+04;  6.7374951E-01;  0.0000000E+00;  1.1151367E-01;  2.5010171E+03;
  2.4192356E-01;  9.9999998E-03;  1.7005166E-01;3957;  2.2241010E-01;  0.0000000E+00;  1.7252604E-02;  9.9636841E+02;  1.0000000E-01; -3.0087048E+03;3; -2.2132843E+01;  0.0000000E+00; -3.9814546E+00;0;  7.3808008E-01;  3.9722508E+04;  0.0000000E+00; -1.1060695E-01;  4.0000000E+04;  0.0000000E+00;  3.9985809E+04;  6.2937766E-01;  0.0000000E+00;  1.0870241E-01;  1.4451704E+03;
  2.4196133E-01;  9.9999998E-03;  1.8005428E-01;3958;  2.1712095E-01;  0.0000000E+00;  1.9138219E-02;  9.9607269E+02;  1.0000000E-01; -3.2536855E+03;3; -2.2897474E+01;  0.0000000E+00; -4.2878232E+00;0;  6.8424869E-01;  3.9689359E+04;  0.0000000E+00; -2.8927436E-01;  4.0000000E+04;  0.0000000E+00;  3.9995742E+04;  5.8257085E-01;  0.0000000E+00;  1.0167781E-01;  4.4233304E+02;
  2.4201131E-01;  9.9999998E-03;  1.9005030E-01;3959;  2.1333615E-01;  0.0000000E+00;  2.0524597E-02;  9.9568658E+02;  1.0000000E-01; -3.5735776E+03;3; -2.3175795E+01;  0.0000000E+00; -4.6079044E+00;0;  6.2767184E-01;  3.9648348E+04;  0.0000000E+00; -6.5422755E-01;  4.0000000E+04;  0.0000000E+00;  4.0006461E+04;  5.3648251E-01;  0.0000000E+00;  9.1189355E-02;  1.5107086E+03;
  2.4207710E-01;  9.9999998E-03;  2.0004278E-01;3960;  2.1018483E-01;  0.0000000E+00;  2.1749668E-02;  9.9519165E+02;  1.0000000E-01; -3.9836401E+03;3; -2.3251703E+01;  0.0000000E+00; -5.0080290E+00;0;  5.7283533E-01;  3.9598941E+04;  0.0000000E+00; -1.2931700E+00;  4.0000000E+04;  0.0000000E+00;  4.0017156E+04;  4.9454623E-01;  0.0000000E+00;  7.8289114E-02;  3.1483240E+03;
  2.4216792E-01;  9.9999998E-03;  2.1003307E-01;3961;  2.0733857E-01;  0.0000000E+00;  2.2935722E-02;  9.9457098E+02;  1.0000000E-01; -4.4978477E+03;3; -2.3146875E+01;  0.0000000E+00; -5.6178045E+00;0;  5.2452099E-01;  3.9540266E+04;  0.0000000E+00; -2.2312028E+00;  4.0000000E+04;  0.0000000E+00;  4.0027215E+04;  4.6019745E-01;  0.0000000E+00;  6.4323545E-02;  4.9821313E+03;
  2.4229231E-01;  9.9999998E-03;  2.2002403E-01;3962;  2.0467578E-01;  0.0000000E+00;  2.4053833E-02;  9.9379822E+02;  1.0000000E-01; -5.1380767E+03;3; -2.2574100E+01;  0.0000000E+00; -6.5554862E+00;0;  4.8750529E-01;  3.9471152E+04;  0.0000000E+00; -3.3748202E+00;  4.0000000E+04;  0.0000000E+00;  4.0035965E+04;  4.3662244E-01;  0.0000000E+00;  5.0882842E-02;  6.8995283E+03;
  2.4245077E-01;  9.9999998E-03;  2.3001979E-01;3963;  2.0221198E-01;  0.0000000E+00;  2.4930857E-02;  9.9282837E+02;  1.0000000E-01; -5.9415601E+03;3; -2.1135002E+01;  0.0000000E+00; -8.3143616E+00;0;  4.6616489E-01;  3.9389211E+04;  0.0000000E+00; -4.5243640E+00;  4.0000000E+04;  0.0000000E+00;  4.0042137E+04;  4.2664748E-01;  0.0000000E+00;  3.9517406E-02;  8.6150107E+03;
  2.5184447E-01;  9.9999998E-03;  6.9959857E-02;4008;  3.4704989E-01;  0.0000000E+00; -3.5665079E-03;  9.9771356E+02;  1.0000000E-01; -1.8942672E+03;3; -4.0324998E+00;  0.0000000E+00; -1.2372625E+00;0;  6.7303801E-01;  3.9814508E+04;  0.0000000E+00;  1.6250953E-02;  4.0000000E+04;  0.0000000E+00;  4.0001195E+04;  6.5812892E-01;  0.0000000E+00;  1.4909097E-02;  3.5065024E+02;
  2.5186774E-01;  9.9999998E-03;  7.9953097E-02;4009;  3.4534717E-01;  0.0000000E+00; -4.4963984E-03;  9.9758112E+02;  1.0000000E-01; -2.0039926E+03;3; -4.0680799E+00;  0.0000000E+00; -1.3831567E+00;0;  7.0550871E-01;  3.9809270E+04;  0.0000000E+00;  2.3113986E-02;  4.0000000E+04;  0.0000000E+00;  3.9995797E+04;  6.8356663E-01;  0.0000000E+00;  2.1942072E-02;  3.1138953E+02;
  2.5189203E-01;  9.9999998E-03;  8.9947134E-02;4010;  3.4257716E-01;  0.0000000E+00; -5.4818117E-03;  9.9743408E+02;  1.0000000E-01; -2.1258162E+03;3; -4.0198379E+00;  0.0000000E+00; -1.5953792E+00;0;  7.3898035E-01;  3.9803223E+04;  0.0000000E+00;  3.1437624E-02;  4.0000000E+04;  0.0000000E+00;  3.9989867E+04;  7.0755285E-01;  0.0000000E+00;  3.1427484E-02;  1.0416976E+03;
  2.5191545E-01;  9.9999998E-03;  9.9942930E-02;4011;  3.3806798E-01;  0.0000000E+00; -6.3952752E-03;  9.9727087E+02;  1.0000000E-01; -2.2610222E+03;3; -3.8321235E+00;  0.0000000E+00; -1.8566241E+00;0;  7.7154958E-01;  3.9796395E+04;  0.0000000E+00;  4.0820621E-02;  4.0000000E+04;  0.0000000E+00;  3.9983746E+04;  7.2844619E-01;  0.0000000E+00;  4.3103427E-02;  1.7963412E+03;
  2.5193670E-01;  9.9999998E-03;  1.0994108E-01;4012;  3.3096057E-01;  0.0000000E+00; -6.9969916E-03;  9.9709686E+02;  1.0000000E-01; -2.4052158E+03;3; -3.8530085E+00;  0.0000000E+00; -2.1940849E+00;0;  8.0092883E-01;  3.9788301E+04;  0.0000000E+00;  5.0280653E-02;  4.0000000E+04;  0.0000000E+00;  3.9977895E+04;  7.4455512E-01;  0.0000000E+00;  5.6373697E-02;  2.5102778E+03;
  2.5195432E-01;  9.9999998E-03;  1.1994229E-01;4013;  3.2080024E-01;  0.0000000E+00; -7.0376871E-03;  9.9692010E+02;  1.0000000E-01; -2.5516313E+03;3; -4.7161474E+00;  0.0000000E+00; -2.5120654E+00;0;  8.2455134E-01;  3.9779047E+04;  0.0000000E+00;  5.8093663E-02;  4.0000000E+04;  0.0000000E+00;  3.9973000E+04;  7.5423759E-01;  0.0000000E+00;  7.0313781E-02;  3.1057888E+03;
  2.5196531E-01;  9.9999998E-03;  1.2994888E-01;4014;  3.0741251E-01;  0.0000000E+00; -6.0956944E-03;  9.9674359E+02;  1.0000000E-01; -2.6978494E+03;3; -6.3846869E+00;  0.0000000E+00; -2.8390405E+00;0;  8.3976054E-01;  3.9768168E+04;  0.0000000E+00;  6.1816785E-02;  4.0000000E+04;  0.0000000E+00;  3.9969734E+04;  7.5603884E-01;  0.0000000E+00;  8.3721727E-02;  3.4990291E+03;
  2.5196677E-01;  9.9999998E-03;  1.3996366E-01;4015;  2.9054403E-01;  0.0000000E+00; -3.5531318E-03;  9.9656964E+02;  1.0000000E-01; -2.8419934E+03;3; -8.6595001E+00;  0.0000000E+00; -3.2978473E+00;0;  8.4404653E-01;  3.9755316E+04;  0.0000000E+00;  5.8641583E-02;  4.0000000E+04;  0.0000000E+00;  3.9968676E+04;  7.4882746E-01;  0.0000000E+00;  9.5219091E-02;  3.6110647E+03;
  2.5196108E-01;  9.9999998E-03;  1.4998633E-01;4016;  2.7117631E-01;  0.0000000E+00;  6.4816535E-04;  9.9639789E+02;  1.0000000E-01; -2.9842610E+03;3; -1.1584682E+01;  0.0000000E+00; -3.5833521E+00;0;  8.3546120E-01;  3.9740023E+04;  0.0000000E+00;  4.6277035E-02;  4.0000000E+04;  0.0000000E+00;  3.9970273E+04;  7.3202324E-01;  0.0000000E+00;  1.0343795E-01;  3.3837703E+03;
  2.5195557E-01;  9.9999998E-03;  1.6001287E-01;4017;  2.5098106E-01;  0.0000000E+00;  5.9785452E-03;  9.9622003E+02;  1.0000000E-01; -3.1316150E+03;3; -1.4620259E+01;  0.0000000E+00; -3.8975823E+00;0;  8.1324154E-01;  3.9721508E+04;  0.0000000E+00;  2.0726183E-02;  4.0000000E+04;  0.0000000E+00;  3.9974844E+04;  7.0589536E-01;  0.0000000E+00;  1.0734615E-01;  2.8025403E+03;
  2.5196436E-01;  9.9999998E-03;  1.7003340E-01;4018;  2.3394147E-01;  0.0000000E+00;  1.1063975E-02;  9.9602100E+02;  1.0000000E-01; -3.2965486E+03;3; -1.8243879E+01;  0.0000000E+00; -4.2517362E+00;0;  7.7854860E-01;  3.9698852E+04;  0.0000000E+00; -3.7946738E-02;  4.0000000E+04;  0.0000000E+00;  3.9981781E+04;  6.7191839E-01;  0.0000000E+00;  1.0663020E-01;  1.9127908E+03;
  2.5199440E-01;  9.9999998E-03;  1.8004239E-01;4019;  2.2347115E-01;  0.0000000E+00;  1.4236093E-02;  9.9577893E+02;  1.0000000E-01; -3.4970859E+03;3; -2.1140554E+01;  0.0000000E+00; -4.3003669E+00;0;  7.3425996E-01;  3.9671234E+04;  0.0000000E+00; -1.8137947E-01;  4.0000000E+04;  0.0000000E+00;  3.9990562E+04;  6.3259876E-01;  0.0000000E+00;  1.0166121E-01;  8.3726959E+02;
  2.5204167E-01;  9.9999998E-03;  1.9004259E-01;4020;  2.1721759E-01;  0.0000000E+00;  1.6271116E-02;  9.9547455E+02;  1.0000000E-01; -3.7492271E+03;3; -2.2220381E+01;  0.0000000E+00; -4.5995617E+00;0;  6.8403488E-01;  3.9637699E+04;  0.0000000E+00; -4.9691957E-01;  4.0000000E+04;  0.0000000E+00;  4.0000320E+04;  5.9086633E-01;  0.0000000E+00;  9.3168572E-02;  8.3279785E+02;
  2.5210604E-01;  9.9999998E-03;  2.0003827E-01;4021;  2.1291041E-01;  0.0000000E+00;  1.7740257E-02;  9.9508899E+02;  1.0000000E-01; -4.0686748E+03;3; -2.2667507E+01;  0.0000000E+00; -5.0387578E+00;0;  6.3210952E-01;  3.9597555E+04;  0.0000000E+00; -1.0859051E+00;  4.0000000E+04;  0.0000000E+00;  4.0010336E+04;  5.4997522E-01;  0.0000000E+00;  8.2134284E-02;  2.3180737E+03;
  2.5219363E-01;  9.9999998E-03;  2.1003196E-01;4022;  2.0944524E-01;  0.0000000E+00;  1.8972974E-02;  9.9460358E+02;  1.0000000E-01; -4.4708359E+03;3; -2.2826025E+01;  0.0000000E+00; -5.5769601E+00;0;  5.8309865E-01;  3.9549844E+04;  0.0000000E+00; -2.0144188E+00;  4.0000000E+04;  0.0000000E+00;  4.0020203E+04;  5.1328498E-01;  0.0000000E+00;  6.9813684E-02;  4.1304312E+03;
  2.5231335E-01;  9.9999998E-03;  2.2002657E-01;4023;  2.0657696E-01;  0.0000000E+00;  1.9908069E-02;  9.9399176E+02;  1.0000000E-01; -4.9777354E+03;3; -2.2647644E+01;  0.0000000E+00; -6.2563915E+00;0;  5.4150558E-01;  3.9493379E+04;  0.0000000E+00; -3.2644238E+00;  4.0000000E+04;  0.0000000E+00;  4.0028938E+04;  4.8403156E-01;  0.0000000E+00;  5.7473991E-02;  6.1827925E+03;
  2.5246495E-01;  9.9999998E-03;  2.3002681E-01;4024;  2.0426059E-01;  0.0000000E+00;  2.0399021E-02;  9.9320587E+02;  1.0000000E-01; -5.6288281E+03;3; -2.1869106E+01;  0.0000000E+00; -7.5352907E+00;0;  5.1123399E-01;  3.9426004E+04;  0.0000000E+00; -4.7354083E+00;  4.0000000E+04;  0.0000000E+00;  4.0035117E+04;  4.6514317E-01;  0.0000000E+00;  4.6090800E-02;  8.2889951E+03;
  2.6185638E-01;  9.9999998E-03;  6.9964111E-02;4069;  3.4754226E-01;  0.0000000E+00; -3.1719005E-03;  9.9758771E+02;  1.0000000E-01; -1.9985607E+03;3; -4.2694302E+00;  0.0000000E+00; -1.1373491E+00;0;  5.6372446E-01;  3.9801473E+04;  0.0000000E+00;  9.2876386E-03;  4.0000000E+04;  0.0000000E+00;  4.0004359E+04;  5.6241906E-01;  0.0000000E+00;  1.3054151E-03;  7.5205774E+02;
  2.6188117E-01;  9.9999998E-03;  7.9958342E-02;4070;  3.4642684E-01;  0.0000000E+00; -4.0582730E-03;  9.9743573E+02;  1.0000000E-01; -2.1244336E+03;3; -4.5122585E+00;  0.0000000E+00; -1.2996328E+00;0;  6.0231984E-01;  3.9794508E+04;  0.0000000E+00;  1.4305592E-02;  4.0000000E+04;  0.0000000E+00;  3.9999332E+04;  5.9407389E-01;  0.0000000E+00;  8.2459683E-03;  1.3305420E+02;
  2.6190844E-01;  9.9999998E-03;  8.9953259E-02;4071;  3.4470019E-01;  0.0000000E+00; -5.0403057E-03;  9.9726318E+02;  1.0000000E-01; -2.2673926E+03;3; -4.5992098E+00;  0.0000000E+00; -1.4405484E+00;0;  6.4345604E-01;  3.9786309E+04;  0.0000000E+00;  2.1165643E-02;  4.0000000E+04;  0.0000000E+00;  3.9993637E+04;  6.2587374E-01;  0.0000000E+00;  1.7582284E-02;  5.6803430E+02;
  2.6193759E-01;  9.9999998E-03;  9.9949233E-02;4072;  3.4201309E-01;  0.0000000E+00; -6.1039794E-03;  9.9707233E+02;  1.0000000E-01; -2.4255115E+03;3; -4.5974135E+00;  0.0000000E+00; -1.6318306E+00;0;  6.8540883E-01;  3.9777207E+04;  0.0000000E+00;  3.0032182E-02;  4.0000000E+04;  0.0000000E+00;  3.9987559E+04;  6.5628648E-01;  0.0000000E+00;  2.9122381E-02;  1.3052556E+03;
  2.6196685E-01;  9.9999998E-03;  1.0994621E-01;4073;  3.3778706E-01;  0.0000000E+00; -7.1232761E-03;  9.9686987E+02;  1.0000000E-01; -2.5932598E+03;3; -4.3826480E+00;  0.0000000E+00; -1.8720012E+00;0;  7.2602737E-01;  3.9766848E+04;  0.0000000E+00;  4.0654227E-02;  4.0000000E+04;  0.0000000E+00;  3.9981664E+04;  6.8365848E-01;  0.0000000E+00;  4.2368889E-02;  2.0258000E+03;
  2.6199341E-01;  9.9999998E-03;  1.1994504E-01;4074;  3.3112612E-01;  0.0000000E+00; -7.8814235E-03;  9.9665930E+02;  1.0000000E-01; -2.7677239E+03;3; -4.0234771E+00;  0.0000000E+00; -2.2432296E+00;0;  7.6278228E-01;  3.9755328E+04;  0.0000000E+00;  5.2105408E-02;  4.0000000E+04;  0.0000000E+00;  3.9976449E+04;  7.0626312E-01;  0.0000000E+00;  5.6519136E-02;  2.6604026E+03;
  2.6201433E-01;  9.9999998E-03;  1.2994750E-01;4075;  3.2124892E-01;  0.0000000E+00; -8.0188718E-03;  9.9644934E+02;  1.0000000E-01; -2.9416450E+03;3; -4.3567967E+00;  0.0000000E+00; -2.6376135E+00;0;  7.9288036E-01;  3.9742324E+04;  0.0000000E+00;  6.2606864E-02;  4.0000000E+04;  0.0000000E+00;  3.9972379E+04;  7.2238487E-01;  0.0000000E+00;  7.0495486E-02;  3.1313774E+03;
  2.6202556E-01;  9.9999998E-03;  1.3995636E-01;4076;  3.0776054E-01;  0.0000000E+00; -7.0929788E-03;  9.9624487E+02;  1.0000000E-01; -3.1110723E+03;3; -5.5777283E+00;  0.0000000E+00; -3.1090846E+00;0;  8.1346470E-01;  3.9728055E+04;  0.0000000E+00;  6.9621272E-02;  4.0000000E+04;  0.0000000E+00;  3.9970367E+04;  7.3044193E-01;  0.0000000E+00;  8.3022781E-02;  3.3616345E+03;
  2.6202700E-01;  9.9999998E-03;  1.4997302E-01;4077;  2.9057980E-01;  0.0000000E+00; -4.4831405E-03;  9.9605072E+02;  1.0000000E-01; -3.2719072E+03;3; -7.6309838E+00;  0.0000000E+00; -3.6162021E+00;0;  8.2192516E-01;  3.9712102E+04;  0.0000000E+00;  7.0447706E-02;  4.0000000E+04;  0.0000000E+00;  3.9970777E+04;  7.2916561E-01;  0.0000000E+00;  9.2759520E-02;  3.2878723E+03;
  2.6202342E-01;  9.9999998E-03;  1.5999532E-01;4078;  2.7099845E-01;  0.0000000E+00; -3.1756138E-04;  9.9586304E+02;  1.0000000E-01; -3.4274089E+03;3; -1.0444589E+01;  0.0000000E+00; -3.9586139E+00;0;  8.1647414E-01;  3.9694207E+04;  0.0000000E+00;  6.2024802E-02;  4.0000000E+04;  0.0000000E+00;  3.9973945E+04;  7.1790653E-01;  0.0000000E+00;  9.8567627E-02;  2.8816687E+03;
  2.6202556E-01;  9.9999998E-03;  1.7001659E-01;4079;  2.5142038E-01;  0.0000000E+00;  4.3403017E-03;  9.9567206E+02;  1.0000000E-01; -3.5856267E+03;3; -1.3474547E+01;  0.0000000E+00; -4.2609491E+00;0;  7.9695368E-01;  3.9673688E+04;  0.0000000E+00;  2.9456457E-02;  4.0000000E+04;  0.0000000E+00;  3.9979441E+04;  6.9705397E-01;  0.0000000E+00;  9.9899717E-02;  2.1665405E+03;
  2.6204550E-01;  9.9999998E-03;  1.8002997E-01;4080;  2.3532355E-01;  0.0000000E+00;  8.3123855E-03;  9.9546246E+02;  1.0000000E-01; -3.7592515E+03;3; -1.7117212E+01;  0.0000000E+00; -4.4922490E+00;0;  7.6519561E-01;  3.9649906E+04;  0.0000000E+00; -6.9663391E-02;  4.0000000E+04;  0.0000000E+00;  3.9987047E+04;  6.6823071E-01;  0.0000000E+00;  9.6964896E-02;  1.2171709E+03;
  2.6208729E-01;  9.9999998E-03;  1.9003457E-01;4081;  2.2459881E-01;  0.0000000E+00;  1.1052230E-02;  9.9521759E+02;  1.0000000E-01; -3.9621592E+03;3; -2.0268803E+01;  0.0000000E+00; -4.4962330E+00;0;  7.2441447E-01;  3.9622039E+04;  0.0000000E+00; -3.1305239E-01;  4.0000000E+04;  0.0000000E+00;  3.9995688E+04;  6.3398051E-01;  0.0000000E+00;  9.0433955E-02;  4.5440338E+02;
  2.6214850E-01;  9.9999998E-03;  2.0003435E-01;4082;  2.1793891E-01;  0.0000000E+00;  1.2817460E-02;  9.9491919E+02;  1.0000000E-01; -4.2093623E+03;3; -2.1655087E+01;  0.0000000E+00; -4.8517847E+00;0;  6.7844188E-01;  3.9589523E+04;  0.0000000E+00; -8.0161941E-01;  4.0000000E+04;  0.0000000E+00;  4.0004988E+04;  5.9728873E-01;  0.0000000E+00;  8.1153147E-02;  1.5613507E+03;
  2.6223153E-01;  9.9999998E-03;  2.1003176E-01;4083;  2.1332192E-01;  0.0000000E+00;  1.4036190E-02;  9.9454596E+02;  1.0000000E-01; -4.5185879E+03;3; -2.2169498E+01;  0.0000000E+00; -5.3636971E+00;0;  6.3147634E-01;  3.9551387E+04;  0.0000000E+00; -1.6228249E+00;  4.0000000E+04;  0.0000000E+00;  4.0014219E+04;  5.6133062E-01;  0.0000000E+00;  7.0145719E-02;  3.2128191E+03;
  2.6234478E-01;  9.9999998E-03;  2.2003008E-01;4084;  2.0993641E-01;  0.0000000E+00;  1.4833276E-02;  9.9407245E+02;  1.0000000E-01; -4.9108730E+03;3; -2.2369598E+01;  0.0000000E+00; -5.9824162E+00;0;  5.8772832E-01;  3.9506406E+04;  0.0000000E+00; -2.8095484E+00;  4.0000000E+04;  0.0000000E+00;  4.0022492E+04;  5.2928466E-01;  0.0000000E+00;  5.8443673E-02;  5.1712031E+03;
  2.6248783E-01;  9.9999998E-03;  2.3003395E-01;4085;  2.0744024E-01;  0.0000000E+00;  1.5150066E-02;  9.9345142E+02;  1.0000000E-01; -5.4253770E+03;3; -2.2151808E+01;  0.0000000E+00; -6.9321227E+00;0;  5.5082059E-01;  3.9452641E+04;  0.0000000E+00; -4.3335409E+00;  4.0000000E+04;  0.0000000E+00;  4.0027996E+04;  5.0409096E-01;  0.0000000E+00;  4.6729632E-02;  7.3263452E+03;
  2.7187288E-01;  9.9999998E-03;  6.9969416E-02;4130;  3.4774551E-01;  0.0000000E+00; -2.9760201E-03;  9.9746393E+02;  1.0000000E-01; -2.1010762E+03;3; -4.4130402E+00;  0.0000000E+00; -1.0823308E+00;0;  4.5222667E-01;  3.9789312E+04;  0.0000000E+00;  3.1170305E-03;  4.0000000E+04;  0.0000000E+00;  4.0007180E+04;  4.6360648E-01;  0.0000000E+00; -1.1379813E-02;  1.1010399E+03;
  2.7189854E-01;  9.9999998E-03;  7.9965211E-02;4131;  3.4685099E-01;  0.0000000E+00; -3.7424990E-03;  9.9730231E+02;  1.0000000E-01; -2.2349983E+03;3; -4.7049131E+00;  0.0000000E+00; -1.2304425E+00;0;  4.9414054E-01;  3.9780875E+04;  0.0000000E+00;  5.9205214E-03;  4.0000000E+04;  0.0000000E+00;  4.0002449E+04;  4.9907362E-01;  0.0000000E+00; -4.9330941E-03;  5.4121594E+02;
  2.7192760E-01;  9.9999998E-03;  8.9961551E-02;4132;  3.4557432E-01;  0.0000000E+00; -4.6809120E-03;  9.9711591E+02;  1.0000000E-01; -2.3894138E+03;3; -4.9648118E+00;  0.0000000E+00; -1.3614790E+00;0;  5.3990978E-01;  3.9771355E+04;  0.0000000E+00;  1.0534397E-02;  4.0000000E+04;  0.0000000E+00;  3.9997352E+04;  5.3611499E-01;  0.0000000E+00;  3.7947767E-03;  1.0123363E+02;
  2.7195990E-01;  9.9999998E-03;  9.9958174E-02;4133;  3.4373477E-01;  0.0000000E+00; -5.7272888E-03;  9.9690784E+02;  1.0000000E-01; -2.5618040E+03;3; -5.2072210E+00;  0.0000000E+00; -1.5163348E+00;0;  5.8807147E-01;  3.9760352E+04;  0.0000000E+00;  1.7580468E-02;  4.0000000E+04;  0.0000000E+00;  3.9991469E+04;  5.7339108E-01;  0.0000000E+00;  1.4680386E-02;  7.9150787E+02;
  2.7199459E-01;  9.9999998E-03;  1.0995496E-01;4134;  3.4101081E-01;  0.0000000E+00; -6.8496629E-03;  9.9668207E+02;  1.0000000E-01; -2.7488604E+03;3; -5.1652999E+00;  0.0000000E+00; -1.6947837E+00;0;  6.3670492E-01;  3.9748094E+04;  0.0000000E+00;  2.7466053E-02;  4.0000000E+04;  0.0000000E+00;  3.9985855E+04;  6.0937899E-01;  0.0000000E+00;  2.7325958E-02;  1.4861719E+03;
  2.7202871E-01;  9.9999998E-03;  1.1995258E-01;4135;  3.3686933E-01;  0.0000000E+00; -7.9428209E-03;  9.9644611E+02;  1.0000000E-01; -2.9443115E+03;3; -4.7999053E+00;  0.0000000E+00; -1.9549875E+00;0;  6.8346721E-01;  3.9734562E+04;  0.0000000E+00;  4.0109027E-02;  4.0000000E+04;  0.0000000E+00;  3.9980566E+04;  6.4240801E-01;  0.0000000E+00;  4.1059200E-02;  2.1247395E+03;
  2.7205864E-01;  9.9999998E-03;  1.2995242E-01;4136;  3.3047703E-01;  0.0000000E+00; -8.8000428E-03;  9.9620728E+02;  1.0000000E-01; -3.1421826E+03;3; -4.2058358E+00;  0.0000000E+00; -2.3852134E+00;0;  7.2564942E-01;  3.9719754E+04;  0.0000000E+00;  5.4609526E-02;  4.0000000E+04;  0.0000000E+00;  3.9976191E+04;  6.7069733E-01;  0.0000000E+00;  5.4952096E-02;  2.6374202E+03;
  2.7208030E-01;  9.9999998E-03;  1.3995647E-01;4137;  3.2069969E-01;  0.0000000E+00; -8.9692529E-03;  9.9597400E+02;  1.0000000E-01; -3.3354609E+03;3; -3.9582651E+00;  0.0000000E+00; -2.9088693E+00;0;  7.6029855E-01;  3.9703840E+04;  0.0000000E+00;  6.9075286E-02;  4.0000000E+04;  0.0000000E+00;  3.9973520E+04;  6.9242895E-01;  0.0000000E+00;  6.7869626E-02;  2.9516147E+03;
  2.7209154E-01;  9.9999998E-03;  1.4996724E-01;4138;  3.0700424E-01;  0.0000000E+00; -7.9596993E-03;  9.9575244E+02;  1.0000000E-01; -3.5190112E+03;3; -4.7570357E+00;  0.0000000E+00; -3.4926043E+00;0;  7.8444970E-01;  3.9686676E+04;  0.0000000E+00;  8.0871433E-02;  4.0000000E+04;  0.0000000E+00;  3.9972941E+04;  7.0588249E-01;  0.0000000E+00;  7.8567192E-02;  3.0028213E+03;
  2.7209464E-01;  9.9999998E-03;  1.5998453E-01;4139;  2.8958297E-01;  0.0000000E+00; -5.2962932E-03;  9.9554614E+02;  1.0000000E-01; -3.6899202E+03;3; -6.5250506E+00;  0.0000000E+00; -4.1944437E+00;0;  7.9556686E-01;  3.9668418E+04;  0.0000000E+00;  8.7507702E-02;  4.0000000E+04;  0.0000000E+00;  3.9974754E+04;  7.0968676E-01;  0.0000000E+00;  8.5880108E-02;  2.7532197E+03;
  2.7209777E-01;  9.9999998E-03;  1.7000403E-01;4140;  2.7032927E-01;  0.0000000E+00; -1.5041896E-03;  9.9534924E+02;  1.0000000E-01; -3.8530759E+03;3; -9.0889120E+00;  0.0000000E+00; -4.5669613E+00;0;  7.9231364E-01;  3.9648801E+04;  0.0000000E+00;  7.9539999E-02;  4.0000000E+04;  0.0000000E+00;  3.9979023E+04;  7.0324928E-01;  0.0000000E+00;  8.9064352E-02;  2.2085686E+03;
  2.7211255E-01;  9.9999998E-03;  1.8001954E-01;4141;  2.5172600E-01;  0.0000000E+00;  2.4113236E-03;  9.9515521E+02;  1.0000000E-01; -4.0138120E+03;3; -1.2435557E+01;  0.0000000E+00; -4.5904531E+00;0;  7.7520806E-01;  3.9627398E+04;  0.0000000E+00;  2.5498208E-02;  4.0000000E+04;  0.0000000E+00;  3.9985184E+04;  6.8712771E-01;  0.0000000E+00;  8.8080369E-02;  1.4185951E+03;
  2.7214834E-01;  9.9999998E-03;  1.9002800E-01;4142;  2.3625287E-01;  0.0000000E+00;  5.6538912E-03;  9.9494678E+02;  1.0000000E-01; -4.1864985E+03;3; -1.6137234E+01;  0.0000000E+00; -4.6221685E+00;0;  7.4652630E-01;  3.9603734E+04;  0.0000000E+00; -1.3773191E-01;  4.0000000E+04;  0.0000000E+00;  3.9992695E+04;  6.6303450E-01;  0.0000000E+00;  8.3491802E-02;  5.0058939E+02;
  2.7220589E-01;  9.9999998E-03;  2.0003149E-01;4143;  2.2568829E-01;  0.0000000E+00;  7.7811116E-03;  9.9470984E+02;  1.0000000E-01; -4.3827891E+03;3; -1.9292830E+01;  0.0000000E+00; -4.7752242E+00;0;  7.0951349E-01;  3.9577207E+04;  0.0000000E+00; -5.0019723E-01;  4.0000000E+04;  0.0000000E+00;  4.0000953E+04;  6.3349885E-01;  0.0000000E+00;  7.6014645E-02;  9.1896545E+02;
  2.7228549E-01;  9.9999998E-03;  2.1003261E-01;4144;  2.1901903E-01;  0.0000000E+00;  9.0075368E-03;  9.9442487E+02;  1.0000000E-01; -4.6188813E+03;3; -2.0886301E+01;  0.0000000E+00; -5.1705089E+00;0;  6.6776109E-01;  3.9547012E+04;  0.0000000E+00; -1.1541373E+00;  4.0000000E+04;  0.0000000E+00;  4.0009297E+04;  6.0141432E-01;  0.0000000E+00;  6.6346765E-02;  2.3174863E+03;
  2.7239132E-01;  9.9999998E-03;  2.2003400E-01;4145;  2.1457358E-01;  0.0000000E+00;  9.6677607E-03;  9.9406689E+02;  1.0000000E-01; -4.9154653E+03;3; -2.1571733E+01;  0.0000000E+00; -5.7343693E+00;0;  6.2499654E-01;  3.9511871E+04;  0.0000000E+00; -2.1601956E+00;  4.0000000E+04;  0.0000000E+00;  4.0016746E+04;  5.6975657E-01;  0.0000000E+00;  5.5239957E-02;  4.0131235E+03;
  2.7252781E-01;  9.9999998E-03;  2.3003784E-01;4146;  2.1147349E-01;  0.0000000E+00;  9.8366076E-03;  9.9359637E+02;  1.0000000E-01; -5.3052817E+03;3; -2.1854761E+01;  0.0000000E+00; -6.4298935E+00;0;  5.8453947E-01;  3.9470320E+04;  0.0000000E+00; -3.5414517E+00;  4.0000000E+04;  0.0000000E+00;  4.0022004E+04;  5.4141074E-01;  0.0000000E+00;  4.3128703E-02;  5.9800771E+03;
  2.8189355E-01;  9.9999998E-03;  6.9975846E-02;4191;  3.4775895E-01;  0.0000000E+00; -2.8806289E-03;  9.9733319E+02;  1.0000000E-01; -2.2094189E+03;3; -4.5610094E+00;  0.0000000E+00; -1.0258559E+00;0;  3.4539396E-01;  3.9776961E+04;  0.0000000E+00; -1.2367490E-03;  4.0000000E+04;  0.0000000E+00;  4.0009383E+04;  3.6811459E-01;  0.0000000E+00; -2.2720620E-02;  1.3908157E+03;
  2.8192046E-01;  9.9999998E-03;  7.9973102E-02;4192;  3.4701371E-01;  0.0000000E+00; -3.6036894E-03;  9.9717072E+02;  1.0000000E-01; -2.3440322E+03;3; -4.8834171E+00;  0.0000000E+00; -1.1724695E+00;0;  3.8798115E-01;  3.9768008E+04;  0.0000000E+00; -5.5931357E-04;  4.0000000E+04;  0.0000000E+00;  4.0005402E+04;  4.0505037E-01;  0.0000000E+00; -1.7069224E-02;  9.0831927E+02;
  2.8195086E-01;  9.9999998E-03;  8.9970656E-02;4193;  3.4597665E-01;  0.0000000E+00; -4.4382894E-03;  9.9697992E+02;  1.0000000E-01; -2.5021018E+03;3; -5.2159395E+00;  0.0000000E+00; -1.3120586E+00;0;  4.3545750E-01;  3.9757426E+04;  0.0000000E+00;  1.5608241E-03;  4.0000000E+04;  0.0000000E+00;  4.0000695E+04;  4.4475478E-01;  0.0000000E+00; -9.2972955E-03;  3.4457581E+02;
  2.8198513E-01;  9.9999998E-03;  9.9967949E-02;4194;  3.4452736E-01;  0.0000000E+00; -5.4236450E-03;  9.9676544E+02;  1.0000000E-01; -2.6797759E+03;3; -5.4753995E+00;  0.0000000E+00; -1.4328244E+00;0;  4.8666608E-01;  3.9745352E+04;  0.0000000E+00;  6.0240915E-03;  4.0000000E+04;  0.0000000E+00;  3.9995652E+04;  4.8613206E-01;  0.0000000E+00;  5.3402898E-04;  2.7679654E+02;
  2.8202271E-01;  9.9999998E-03;  1.0996506E-01;4195;  3.4248716E-01;  0.0000000E+00; -6.5316926E-03;  9.9652820E+02;  1.0000000E-01; -2.8763135E+03;3; -5.7091155E+00;  0.0000000E+00; -1.5656269E+00;0;  5.3999186E-01;  3.9731727E+04;  0.0000000E+00;  1.3731948E-02;  4.0000000E+04;  0.0000000E+00;  3.9990246E+04;  5.2786613E-01;  0.0000000E+00;  1.2125724E-02;  9.1864331E+02;
  2.8206143E-01;  9.9999998E-03;  1.1996226E-01;4196;  3.3963197E-01;  0.0000000E+00; -7.7107945E-03;  9.9627521E+02;  1.0000000E-01; -3.0859373E+03;3; -5.6442332E+00;  0.0000000E+00; -1.7961887E+00;0;  5.9336281E-01;  3.9716645E+04;  0.0000000E+00;  2.5319284E-02;  4.0000000E+04;  0.0000000E+00;  3.9985270E+04;  5.6842709E-01;  0.0000000E+00;  2.4935707E-02;  1.5309757E+03;
  2.8209794E-01;  9.9999998E-03;  1.2996046E-01;4197;  3.3549508E-01;  0.0000000E+00; -8.8631166E-03;  9.9601508E+02;  1.0000000E-01; -3.3014373E+03;3; -5.1889634E+00;  0.0000000E+00; -2.0923805E+00;0;  6.4429229E-01;  3.9700309E+04;  0.0000000E+00;  4.0770479E-02;  4.0000000E+04;  0.0000000E+00;  3.9980816E+04;  6.0610175E-01;  0.0000000E+00;  3.8190551E-02;  2.0528853E+03;
  2.8212827E-01;  9.9999998E-03;  1.3996115E-01;4198;  3.2912332E-01;  0.0000000E+00; -9.7642215E-03;  9.9575726E+02;  1.0000000E-01; -3.5150115E+03;3; -4.2195120E+00;  0.0000000E+00; -2.6173954E+00;0;  6.8993872E-01;  3.9682848E+04;  0.0000000E+00;  5.9060548E-02;  4.0000000E+04;  0.0000000E+00;  3.9977746E+04;  6.3902235E-01;  0.0000000E+00;  5.0916363E-02;  2.4180459E+03;
  2.8215024E-01;  9.9999998E-03;  1.4996669E-01;4199;  3.1933495E-01;  0.0000000E+00; -9.9331578E-03;  9.9550952E+02;  1.0000000E-01; -3.7202896E+03;3; -3.4481776E+00;  0.0000000E+00; -3.3251324E+00;0;  7.2725207E-01;  3.9664520E+04;  0.0000000E+00;  7.8060985E-02;  4.0000000E+04;  0.0000000E+00;  3.9976391E+04;  6.6524965E-01;  0.0000000E+00;  6.2002420E-02;  2.5635095E+03;
  2.8216323E-01;  9.9999998E-03;  1.5997846E-01;4200;  3.0544966E-01;  0.0000000E+00; -8.8537522E-03;  9.9528082E+02;  1.0000000E-01; -3.9097656E+03;3; -3.7598476E+00;  0.0000000E+00; -4.1021929E+00;0;  7.5329810E-01;  3.9645465E+04;  0.0000000E+00;  9.5418721E-02;  4.0000000E+04;  0.0000000E+00;  3.9977133E+04;  6.8296611E-01;  0.0000000E+00;  7.0331998E-02;  2.4460032E+03;
  2.8217298E-01;  9.9999998E-03;  1.6999462E-01;4201;  2.8816763E-01;  0.0000000E+00; -6.3327211E-03;  9.9507104E+02;  1.0000000E-01; -4.0835386E+03;3; -5.3803554E+00;  0.0000000E+00; -4.7301393E+00;0;  7.6584417E-01;  3.9626059E+04;  0.0000000E+00;  1.0636080E-01;  4.0000000E+04;  0.0000000E+00;  3.9980102E+04;  6.9081134E-01;  0.0000000E+00;  7.5032823E-02;  2.0575645E+03;
  2.8218907E-01;  9.9999998E-03;  1.8001053E-01;4202;  2.6953739E-01;  0.0000000E+00; -2.9572682E-03;  9.9487665E+02;  1.0000000E-01; -4.2446206E+03;3; -8.0823908E+00;  0.0000000E+00; -4.9761505E+00;0;  7.6416558E-01;  3.9605945E+04;  0.0000000E+00;  9.0624146E-02;  4.0000000E+04;  0.0000000E+00;  3.9984988E+04;  6.8835157E-01;  0.0000000E+00;  7.5814001E-02;  1.4305430E+03;
  2.8222111E-01;  9.9999998E-03;  1.9002199E-01;4203;  2.5165743E-01;  0.0000000E+00;  4.4887466E-04;  9.9468896E+02;  1.0000000E-01; -4.4000728E+03;3; -1.1547226E+01;  0.0000000E+00; -4.8587542E+00;0;  7.4937379E-01;  3.9585164E+04;  0.0000000E+00;  1.7429666E-03;  4.0000000E+04;  0.0000000E+00;  3.9991250E+04;  6.7630076E-01;  0.0000000E+00;  7.3073007E-02;  6.2339557E+02;
  2.8227550E-01;  9.9999998E-03;  2.0002854E-01;4204;  2.3708642E-01;  0.0000000E+00;  2.9043294E-03;  9.9449377E+02;  1.0000000E-01; -4.5617964E+03;3; -1.5240305E+01;  0.0000000E+00; -4.8102984E+00;0;  7.2382557E-01;  3.9563121E+04;  0.0000000E+00; -2.3316035E-01;  4.0000000E+04;  0.0000000E+00;  3.9998371E+04;  6.5640956E-01;  0.0000000E+00;  6.7416027E-02;  4.3334387E+02;
  2.8235167E-01;  9.9999998E-03;  2.1003214E-01;4205;  2.2711124E-01;  0.0000000E+00;  4.1879853E-03;  9.9427655E+02;  1.0000000E-01; -4.7417915E+03;3; -1.8134604E+01;  0.0000000E+00; -5.1222453E+00;0;  6.9030541E-01;  3.9539172E+04;  0.0000000E+00; -6.9830787E-01;  4.0000000E+04;  0.0000000E+00;  4.0005668E+04;  6.3109493E-01;  0.0000000E+00;  5.9210468E-02;  1.5622964E+03;
  2.8244907E-01;  9.9999998E-03;  2.2003503E-01;4206;  2.2069666E-01;  0.0000000E+00;  4.7181887E-03;  9.9401208E+02;  1.0000000E-01; -4.9608965E+03;3; -1.9834276E+01;  0.0000000E+00; -5.6939273E+00;0;  6.5186018E-01;  3.9512340E+04;  0.0000000E+00; -1.4628497E+00;  4.0000000E+04;  0.0000000E+00;  4.0012328E+04;  6.0302866E-01;  0.0000000E+00;  4.8831534E-02;  2.9185171E+03;
  2.8257492E-01;  9.9999998E-03;  2.3003769E-01;4207;  2.1647424E-01;  0.0000000E+00;  4.7400552E-03;  9.9367181E+02;  1.0000000E-01; -5.2427651E+03;3; -2.0611914E+01;  0.0000000E+00; -6.3279004E+00;0;  6.1139601E-01;  3.9481391E+04;  0.0000000E+00; -2.5707798E+00;  4.0000000E+04;  0.0000000E+00;  4.0017266E+04;  5.7493150E-01;  0.0000000E+00;  3.6464516E-02;  4.5237358E+03;
  2.9191777E-01;  9.9999998E-03;  6.9982886E-02;4252;  3.4767088E-01;  0.0000000E+00; -2.8733290E-03;  9.9719019E+02;  1.0000000E-01; -2.3278845E+03;3; -4.7029109E+00;  0.0000000E+00; -1.0078965E+00;0;  2.4835275E-01;  3.9764219E+04;  0.0000000E+00; -3.4770404E-03;  4.0000000E+04;  0.0000000E+00;  4.0011203E+04;  2.8081110E-01;  0.0000000E+00; -3.2458350E-02;  1.6233002E+03;
  2.9194593E-01;  9.9999998E-03;  7.9981163E-02;4253;  3.4700111E-01;  0.0000000E+00; -3.5474263E-03;  9.9703442E+02;  1.0000000E-01; -2.4569180E+03;3; -5.0576258E+00;  0.0000000E+00; -1.1302986E+00;0;  2.8931400E-01;  3.9755066E+04;  0.0000000E+00; -4.4959513E-03;  4.0000000E+04;  0.0000000E+00;  4.0007906E+04;  3.1710541E-01;  0.0000000E+00; -2.7791401E-02;  1.2297203E+03;
  2.9197767E-01;  9.9999998E-03;  8.9979410E-02;4254;  3.4612027E-01;  0.0000000E+00; -4.3387464E-03;  9.9684949E+02;  1.0000000E-01; -2.6101482E+03;3; -5.4280777E+00;  0.0000000E+00; -1.2658471E+00;0;  3.3588517E-01;  3.9744281E+04;  0.0000000E+00; -4.6316283E-03;  4.0000000E+04;  0.0000000E+00;  4.0003969E+04;  3.5708427E-01;  0.0000000E+00; -2.1199098E-02;  7.5755151E+02;
  2.9201326E-01;  9.9999998E-03;  9.9977396E-02;4255;  3.4488937E-01;  0.0000000E+00; -5.2227573E-03;  9.9663776E+02;  1.0000000E-01; -2.7855505E+03;3; -5.7531977E+00;  0.0000000E+00; -1.3782082E+00;0;  3.8724563E-01;  3.9731723E+04;  0.0000000E+00; -2.8875202E-03;  4.0000000E+04;  0.0000000E+00;  3.9999586E+04;  3.9993066E-01;  0.0000000E+00; -1.2685017E-02;  2.2306781E+02;
  2.9205203E-01;  9.9999998E-03;  1.0997486E-01;4256;  3.4322292E-01;  0.0000000E+00; -6.2588947E-03;  9.9639874E+02;  1.0000000E-01; -2.9835698E+03;3; -6.0867095E+00;  0.0000000E+00; -1.4956710E+00;0;  4.4212472E-01;  3.9717379E+04;  0.0000000E+00;  1.9150889E-03;  4.0000000E+04;  0.0000000E+00;  3.9994789E+04;  4.4458163E-01;  0.0000000E+00; -2.4569130E-03;  3.4566342E+02;
  2.9209235E-01;  9.9999998E-03;  1.1997189E-01;4257;  3.4099507E-01;  0.0000000E+00; -7.4021523E-03;  9.9613892E+02;  1.0000000E-01; -3.1988228E+03;3; -6.2560115E+00;  0.0000000E+00; -1.6169720E+00;0;  4.9878970E-01;  3.9701375E+04;  0.0000000E+00;  1.0924910E-02;  4.0000000E+04;  0.0000000E+00;  3.9990109E+04;  4.8972124E-01;  0.0000000E+00;  9.0684528E-03;  9.0803381E+02;
  2.9213229E-01;  9.9999998E-03;  1.2996902E-01;4258;  3.3795074E-01;  0.0000000E+00; -8.6233122E-03;  9.9586810E+02;  1.0000000E-01; -3.4232117E+03;3; -6.1215758E+00;  0.0000000E+00; -1.8553320E+00;0;  5.5504459E-01;  3.9683930E+04;  0.0000000E+00;  2.4864512E-02;  4.0000000E+04;  0.0000000E+00;  3.9985902E+04;  5.3377706E-01;  0.0000000E+00;  2.1267515E-02;  1.4123306E+03;
  2.9216942E-01;  9.9999998E-03;  1.3996747E-01;4259;  3.3364770E-01;  0.0000000E+00; -9.8141478E-03;  9.9559271E+02;  1.0000000E-01; -3.6513533E+03;3; -5.7037477E+00;  0.0000000E+00; -2.1648839E+00;0;  6.0828602E-01;  3.9665383E+04;  0.0000000E+00;  4.3595973E-02;  4.0000000E+04;  0.0000000E+00;  3.9982637E+04;  5.7495809E-01;  0.0000000E+00;  3.3327930E-02;  1.7995096E+03;
  2.9220122E-01;  9.9999998E-03;  1.4996915E-01;4260;  3.2723016E-01;  0.0000000E+00; -1.0720283E-02;  9.9532538E+02;  1.0000000E-01; -3.8728284E+03;3; -4.2305093E+00;  0.0000000E+00; -2.8197937E+00;0;  6.5559030E-01;  3.9645984E+04;  0.0000000E+00;  6.5767907E-02;  4.0000000E+04;  0.0000000E+00;  3.9980676E+04;  6.1129886E-01;  0.0000000E+00;  4.4291407E-02;  2.0101320E+03;
  2.9222599E-01;  9.9999998E-03;  1.5997596E-01;4261;  3.1732622E-01;  0.0000000E+00; -1.0841575E-02;  9.9507672E+02;  1.0000000E-01; -4.0788474E+03;3; -2.9416175E+00;  0.0000000E+00; -3.6493769E+00;0;  6.9392240E-01;  3.9626355E+04;  0.0000000E+00;  8.9203075E-02;  4.0000000E+04;  0.0000000E+00;  3.9980680E+04;  6.4078718E-01;  0.0000000E+00;  5.3135242E-02;  1.9982898E+03;
  2.9224631E-01;  9.9999998E-03;  1.6998799E-01;4262;  3.0330512E-01;  0.0000000E+00; -9.7139608E-03;  9.9485101E+02;  1.0000000E-01; -4.2658545E+03;3; -3.0379474E+00;  0.0000000E+00; -4.4714403E+00;0;  7.2053844E-01;  3.9606629E+04;  0.0000000E+00;  1.1156217E-01;  4.0000000E+04;  0.0000000E+00;  3.9982457E+04;  6.6159695E-01;  0.0000000E+00;  5.8941465E-02;  1.7459963E+03;
  2.9226908E-01;  9.9999998E-03;  1.8000241E-01;4263;  2.8632766E-01;  0.0000000E+00; -7.3635401E-03;  9.9465051E+02;  1.0000000E-01; -4.4319731E+03;3; -4.6609306E+00;  0.0000000E+00; -5.0576968E+00;0;  7.3371458E-01;  3.9587355E+04;  0.0000000E+00;  1.2250724E-01;  4.0000000E+04;  0.0000000E+00;  3.9986172E+04;  6.7251021E-01;  0.0000000E+00;  6.1204400E-02;  1.2718613E+03;
  2.9230249E-01;  9.9999998E-03;  1.9001508E-01;4264;  2.6834285E-01;  0.0000000E+00; -4.3690521E-03;  9.9447211E+02;  1.0000000E-01; -4.5797715E+03;3; -7.3548236E+00;  0.0000000E+00; -5.2134137E+00;0;  7.3336768E-01;  3.9568309E+04;  0.0000000E+00;  9.1932364E-02;  4.0000000E+04;  0.0000000E+00;  3.9991270E+04;  6.7328215E-01;  0.0000000E+00;  6.0085516E-02;  6.2198383E+02;
  2.9235327E-01;  9.9999998E-03;  2.0002422E-01;4265;  2.5152144E-01;  0.0000000E+00; -1.6689950E-03;  9.9430383E+02;  1.0000000E-01; -4.7191748E+03;3; -1.0707520E+01;  0.0000000E+00; -5.1787601E+00;0;  7.2092497E-01;  3.9549617E+04;  0.0000000E+00; -3.3456456E-02;  4.0000000E+04;  0.0000000E+00;  3.9997227E+04;  6.6473699E-01;  0.0000000E+00;  5.6187984E-02;  1.5699803E+02;
  2.9242826E-01;  9.9999998E-03;  2.1002920E-01;4266;  2.3829570E-01;  0.0000000E+00; -2.3556349E-04;  9.9413513E+02;  1.0000000E-01; -4.8589238E+03;3; -1.4214130E+01;  0.0000000E+00; -5.2243018E+00;0;  6.9818366E-01;  3.9530555E+04;  0.0000000E+00; -3.2228777E-01;  4.0000000E+04;  0.0000000E+00;  4.0003504E+04;  6.4859056E-01;  0.0000000E+00;  4.9593113E-02;  1.0523953E+03;
  2.9252350E-01;  9.9999998E-03;  2.2003226E-01;4267;  2.2915666E-01;  0.0000000E+00;  1.7479574E-04;  9.9394635E+02;  1.0000000E-01; -5.0153145E+03;3; -1.7005215E+01;  0.0000000E+00; -5.5442877E+00;0;  6.6718996E-01;  3.9510523E+04;  0.0000000E+00; -8.4090281E-01;  4.0000000E+04;  0.0000000E+00;  4.0009395E+04;  6.2706023E-01;  0.0000000E+00;  4.0129751E-02;  2.0719731E+03;
  2.9263723E-01;  9.9999998E-03;  2.3003455E-01;4268;  2.2325648E-01;  0.0000000E+00; -1.2221896E-04;  9.9370959E+02;  1.0000000E-01; -5.2114570E+03;3; -1.8674704E+01;  0.0000000E+00; -6.0473609E+00;0;  6.2982738E-01;  3.9488219E+04;  0.0000000E+00; -1.6370821E+00;  4.0000000E+04;  0.0000000E+00;  4.0013941E+04;  6.0256809E-01;  0.0000000E+00;  2.7259292E-02;  3.2419814E+03;
  3.0194455E-01;  9.9999998E-03;  6.9989696E-02;4313;  3.4751630E-01;  0.0000000E+00; -2.9396347E-03;  9.9703290E+02;  1.0000000E-01; -2.4582019E+03;3; -4.8805122E+00;  0.0000000E+00; -9.7335923E-01;0;  1.6445386E-01;  3.9750785E+04;  0.0000000E+00; -3.9479109E-03;  4.0000000E+04;  0.0000000E+00;  4.0012551E+04;  2.0494109E-01;  0.0000000E+00; -4.0487226E-02;  1.8053152E+03;
  3.0197397E-01;  9.9999998E-03;  7.9988591E-02;4314;  3.4689033E-01;  0.0000000E+00; -3.5700500E-03;  9.9689178E+02;  1.0000000E-01; -2.5750874E+03;3; -5.2321720E+00;  0.0000000E+00; -1.1069604E+00;0;  2.0195335E-01;  3.9741930E+04;  0.0000000E+00; -6.0662623E-03;  4.0000000E+04;  0.0000000E+00;  4.0010012E+04;  2.3883632E-01;  0.0000000E+00; -3.6882970E-02;  1.5065320E+03;
  3.0200672E-01;  9.9999998E-03;  8.9987233E-02;4315;  3.4608588E-01;  0.0000000E+00; -4.3101949E-03;  9.9672186E+02;  1.0000000E-01; -2.7158735E+03;3; -5.6477742E+00;  0.0000000E+00; -1.2149498E+00;0;  2.4547473E-01;  3.9731402E+04;  0.0000000E+00; -7.8884531E-03;  4.0000000E+04;  0.0000000E+00;  4.0006977E+04;  2.7704349E-01;  0.0000000E+00; -3.1568758E-02;  1.1337599E+03;
  3.0204257E-01;  9.9999998E-03;  9.9985458E-02;4316;  3.4501317E-01;  0.0000000E+00; -5.1478497E-03;  9.9651794E+02;  1.0000000E-01; -2.8848071E+03;3; -6.0000658E+00;  0.0000000E+00; -1.3399967E+00;0;  2.9453698E-01;  3.9718902E+04;  0.0000000E+00; -8.4711108E-03;  4.0000000E+04;  0.0000000E+00;  4.0003328E+04;  3.1903601E-01;  0.0000000E+00; -2.4499018E-02;  6.9635846E+02;
  3.0208099E-01;  9.9999998E-03;  1.0998310E-01;4317;  3.4355280E-01;  0.0000000E+00; -6.0654334E-03;  9.9628687E+02;  1.0000000E-01; -3.0762585E+03;3; -6.3743963E+00;  0.0000000E+00; -1.4387735E+00;0;  3.4823078E-01;  3.9704477E+04;  0.0000000E+00; -6.5518557E-03;  4.0000000E+04;  0.0000000E+00;  3.9999203E+04;  3.6402878E-01;  0.0000000E+00; -1.5797995E-02;  2.1430022E+02;
  3.0212140E-01;  9.9999998E-03;  1.1997999E-01;4318;  3.4167513E-01;  0.0000000E+00; -7.1358001E-03;  9.9603149E+02;  1.0000000E-01; -3.2878081E+03;3; -6.6583076E+00;  0.0000000E+00; -1.5243047E+00;0;  4.0518162E-01;  3.9688258E+04;  0.0000000E+00; -7.0730213E-04;  4.0000000E+04;  0.0000000E+00;  3.9995113E+04;  4.1095176E-01;  0.0000000E+00; -5.7701520E-03;  2.8131140E+02;
  3.0216333E-01;  9.9999998E-03;  1.2997654E-01;4319;  3.3919170E-01;  0.0000000E+00; -8.3016539E-03;  9.9575610E+02;  1.0000000E-01; -3.5159990E+03;3; -6.8751721E+00;  0.0000000E+00; -1.6668279E+00;0;  4.6354645E-01;  3.9670293E+04;  0.0000000E+00;  1.0323796E-02;  4.0000000E+04;  0.0000000E+00;  3.9991145E+04;  4.5844698E-01;  0.0000000E+00;  5.0994875E-03;  7.4749487E+02;
  3.0220529E-01;  9.9999998E-03;  1.3997371E-01;4320;  3.3596244E-01;  0.0000000E+00; -9.5326034E-03;  9.9547418E+02;  1.0000000E-01; -3.7495728E+03;3; -6.7827258E+00;  0.0000000E+00; -1.8825916E+00;0;  5.2103865E-01;  3.9651055E+04;  0.0000000E+00;  2.7167518E-02;  4.0000000E+04;  0.0000000E+00;  3.9987836E+04;  5.0488603E-01;  0.0000000E+00;  1.6152628E-02;  1.1332264E+03;
  3.0224526E-01;  9.9999998E-03;  1.4997287E-01;4321;  3.3144841E-01;  0.0000000E+00; -1.0718533E-02;  9.9519720E+02;  1.0000000E-01; -3.9790476E+03;3; -6.0351534E+00;  0.0000000E+00; -2.2139454E+00;0;  5.7498521E-01;  3.9631250E+04;  0.0000000E+00;  4.9322966E-02;  4.0000000E+04;  0.0000000E+00;  3.9985625E+04;  5.4840171E-01;  0.0000000E+00;  2.6583500E-02;  1.3837567E+03;
  3.0228138E-01;  9.9999998E-03;  1.5997578E-01;4322;  3.2479870E-01;  0.0000000E+00; -1.1575535E-02;  9.9493414E+02;  1.0000000E-01; -4.1969673E+03;3; -4.2951241E+00;  0.0000000E+00; -2.9924293E+00;0;  6.2246001E-01;  3.9611145E+04;  0.0000000E+00;  7.5109251E-02;  4.0000000E+04;  0.0000000E+00;  3.9984957E+04;  5.8697164E-01;  0.0000000E+00;  3.5488348E-02;  1.4527068E+03;
  3.0231351E-01;  9.9999998E-03;  1.6998352E-01;4323;  3.1467876E-01;  0.0000000E+00; -1.1589998E-02;  9.9469568E+02;  1.0000000E-01; -4.3945420E+03;3; -2.5943363E+00;  0.0000000E+00; -3.9166121E+00;0;  6.6056120E-01;  3.9591516E+04;  0.0000000E+00;  1.0252625E-01;  4.0000000E+04;  0.0000000E+00;  3.9985914E+04;  6.1858678E-01;  0.0000000E+00;  4.1974399E-02;  1.3148651E+03;
  3.0234605E-01;  9.9999998E-03;  1.7999491E-01;4324;  3.0059937E-01;  0.0000000E+00; -1.0414977E-02;  9.9448944E+02;  1.0000000E-01; -4.5654014E+03;3; -2.6093795E+00;  0.0000000E+00; -4.7120543E+00;0;  6.8692267E-01;  3.9572660E+04;  0.0000000E+00;  1.2770627E-01;  4.0000000E+04;  0.0000000E+00;  3.9988531E+04;  6.4152867E-01;  0.0000000E+00;  4.5394022E-02;  9.7729028E+02;
  3.0238634E-01;  9.9999998E-03;  1.9000681E-01;4325;  2.8403834E-01;  0.0000000E+00; -8.2552759E-03;  9.9431390E+02;  1.0000000E-01; -4.7108296E+03;3; -4.2103772E+00;  0.0000000E+00; -5.2046032E+00;0;  7.0042855E-01;  3.9555082E+04;  0.0000000E+00;  1.3467908E-01;  4.0000000E+04;  0.0000000E+00;  3.9992488E+04;  6.5477318E-01;  0.0000000E+00;  4.5655344E-02;  4.8524268E+02;
  3.0243859E-01;  9.9999998E-03;  2.0001726E-01;4326;  2.6695704E-01;  0.0000000E+00; -5.7839286E-03;  9.9416388E+02;  1.0000000E-01; -4.8351221E+03;3; -6.7884455E+00;  0.0000000E+00; -5.4121957E+00;0;  7.0151550E-01;  3.9538785E+04;  0.0000000E+00;  8.9034237E-02;  4.0000000E+04;  0.0000000E+00;  3.9997324E+04;  6.5825915E-01;  0.0000000E+00;  4.3256335E-02;  2.1443097E+02;
  3.0251122E-01;  9.9999998E-03;  2.1002391E-01;4327;  2.5184855E-01;  0.0000000E+00; -4.1846451E-03;  9.9402991E+02;  1.0000000E-01; -4.9461313E+03;3; -9.9060926E+00;  0.0000000E+00; -5.4387193E+00;0;  6.9117379E-01;  3.9523574E+04;  0.0000000E+00; -5.9111398E-02;  4.0000000E+04;  0.0000000E+00;  4.0002617E+04;  6.5286267E-01;  0.0000000E+00;  3.8311105E-02;  8.4281549E+02;
  3.0260557E-01;  9.9999998E-03;  2.2002697E-01;4328;  2.3994753E-01;  0.0000000E+00; -3.6646319E-03;  9.9389832E+02;  1.0000000E-01; -5.0551157E+03;3; -1.3238555E+01;  0.0000000E+00; -5.5063944E+00;0;  6.7051673E-01;  3.9508836E+04;  0.0000000E+00; -3.6434498E-01;  4.0000000E+04;  0.0000000E+00;  4.0007602E+04;  6.4018250E-01;  0.0000000E+00;  3.0334249E-02;  1.5708627E+03;
  3.0271688E-01;  9.9999998E-03;  2.3002747E-01;4329;  2.3161930E-01;  0.0000000E+00; -4.0340247E-03;  9.9375037E+02;  1.0000000E-01; -5.1776802E+03;3; -1.5966787E+01;  0.0000000E+00; -5.7958169E+00;0;  6.4042401E-01;  3.9493613E+04;  0.0000000E+00; -8.7381029E-01;  4.0000000E+04;  0.0000000E+00;  4.0012016E+04;  6.2223089E-01;  0.0000000E+00;  1.8193141E-02;  2.3763711E+03;
  3.1197312E-01;  9.9999998E-03;  6.9995470E-02;4374;  3.4730375E-01;  0.0000000E+00; -3.0477799E-03;  9.9686566E+02;  1.0000000E-01; -2.5967166E+03;3; -5.0771799E+00;  0.0000000E+00; -9.5401371E-01;0;  9.5364295E-02;  3.9736707E+04;  0.0000000E+00; -3.3518665E-03;  4.0000000E+04;  0.0000000E+00;  4.0013539E+04;  1.4219463E-01;  0.0000000E+00; -4.6830334E-02;  1.9450654E+03;
  3.1200331E-01;  9.9999998E-03;  7.9994604E-02;4375;  3.4671587E-01;  0.0000000E+00; -3.6617285E-03;  9.9674316E+02;  1.0000000E-01; -2.6982444E+03;3; -5.4479899E+00;  0.0000000E+00; -1.0648954E+00;0;  1.2809907E-01;  3.9728730E+04;  0.0000000E+00; -5.9795422E-03;  4.0000000E+04;  0.0000000E+00;  4.0011840E+04;  1.7236449E-01;  0.0000000E+00; -4.4265423E-02;  1.7414612E+03;
  3.1203616E-01;  9.9999998E-03;  8.9993335E-02;4376;  3.4594727E-01;  0.0000000E+00; -4.3483377E-03;  9.9658990E+02;  1.0000000E-01; -2.8252039E+03;3; -5.8703780E+00;  0.0000000E+00; -1.1868666E+00;0;  1.6698104E-01;  3.9718801E+04;  0.0000000E+00; -8.7887887E-03;  4.0000000E+04;  0.0000000E+00;  4.0009578E+04;  2.0719533E-01;  0.0000000E+00; -4.0214278E-02;  1.4699536E+03;
  3.1207123E-01;  9.9999998E-03;  9.9991478E-02;4377;  3.4495863E-01;  0.0000000E+00; -5.1344316E-03;  9.9640503E+02;  1.0000000E-01; -2.9783848E+03;3; -6.2720609E+00;  0.0000000E+00; -1.2749263E+00;0;  2.1184647E-01;  3.9706824E+04;  0.0000000E+00; -1.0969743E-02;  4.0000000E+04;  0.0000000E+00;  4.0006691E+04;  2.4643730E-01;  0.0000000E+00; -3.4590833E-02;  1.1337654E+03;
  3.1210873E-01;  9.9999998E-03;  1.0998901E-01;4378;  3.4364671E-01;  0.0000000E+00; -5.9914202E-03;  9.9618811E+02;  1.0000000E-01; -3.1580833E+03;3; -6.6764097E+00;  0.0000000E+00; -1.4027870E+00;0;  2.6213562E-01;  3.9692879E+04;  0.0000000E+00; -1.1326071E-02;  4.0000000E+04;  0.0000000E+00;  4.0003438E+04;  2.8958446E-01;  0.0000000E+00; -2.7448820E-02;  7.4520074E+02;
  3.1214884E-01;  9.9999998E-03;  1.1998584E-01;4379;  3.4194899E-01;  0.0000000E+00; -6.9329827E-03;  9.9594299E+02;  1.0000000E-01; -3.3611392E+03;3; -7.0229945E+00;  0.0000000E+00; -1.4921350E+00;0;  3.1684655E-01;  3.9676770E+04;  0.0000000E+00; -8.3542801E-03;  4.0000000E+04;  0.0000000E+00;  3.9999891E+04;  3.3584005E-01;  0.0000000E+00; -1.8993512E-02;  3.2712015E+02;
  3.1219193E-01;  9.9999998E-03;  1.2998211E-01;4380;  3.3982703E-01;  0.0000000E+00; -8.0108372E-03;  9.9567548E+02;  1.0000000E-01; -3.5827627E+03;3; -7.3664117E+00;  0.0000000E+00; -1.5634830E+00;0;  3.7451154E-01;  3.9659039E+04;  0.0000000E+00; -4.7799887E-04;  4.0000000E+04;  0.0000000E+00;  3.9996414E+04;  3.8410088E-01;  0.0000000E+00; -9.5893396E-03;  8.6855545E+01;
  3.1223711E-01;  9.9999998E-03;  1.3997851E-01;4381;  3.3709967E-01;  0.0000000E+00; -9.1620581E-03;  9.9539465E+02;  1.0000000E-01; -3.8154473E+03;3; -7.4177232E+00;  0.0000000E+00; -1.6939607E+00;0;  4.3321398E-01;  3.9639758E+04;  0.0000000E+00;  1.3509724E-02;  4.0000000E+04;  0.0000000E+00;  3.9993324E+04;  4.3296948E-01;  0.0000000E+00;  2.4450730E-04;  4.5329401E+02;
  3.1228313E-01;  9.9999998E-03;  1.4997602E-01;4382;  3.3360106E-01;  0.0000000E+00; -1.0366992E-02;  9.9511554E+02;  1.0000000E-01; -4.0467000E+03;3; -7.3603902E+00;  0.0000000E+00; -1.9013397E+00;0;  4.9060497E-01;  3.9619922E+04;  0.0000000E+00;  3.3878569E-02;  4.0000000E+04;  0.0000000E+00;  3.9990883E+04;  4.8075914E-01;  0.0000000E+00;  9.8458128E-03;  7.2320703E+02;
  3.1232890E-01;  9.9999998E-03;  1.5997601E-01;4383;  3.2893777E-01;  0.0000000E+00; -1.1521005E-02;  9.9484845E+02;  1.0000000E-01; -4.2679775E+03;3; -6.3529859E+00;  0.0000000E+00; -2.3311770E+00;0;  5.4399812E-01;  3.9600059E+04;  0.0000000E+00;  5.9585821E-02;  4.0000000E+04;  0.0000000E+00;  3.9989680E+04;  5.2555853E-01;  0.0000000E+00;  1.8439611E-02;  8.5129889E+02;
  3.1237286E-01;  9.9999998E-03;  1.6997989E-01;4384;  3.2203764E-01;  0.0000000E+00; -1.2287553E-02;  9.9460455E+02;  1.0000000E-01; -4.4700459E+03;3; -4.3118811E+00;  0.0000000E+00; -3.2068369E+00;0;  5.9056664E-01;  3.9580645E+04;  0.0000000E+00;  8.8665418E-02;  4.0000000E+04;  0.0000000E+00;  3.9989957E+04;  5.6535983E-01;  0.0000000E+00;  2.5206804E-02;  8.0770959E+02;
  3.1241670E-01;  9.9999998E-03;  1.7998779E-01;4385;  3.1157601E-01;  0.0000000E+00; -1.2149218E-02;  9.9439612E+02;  1.0000000E-01; -4.6427324E+03;3; -2.4178863E+00;  0.0000000E+00; -4.1407437E+00;0;  6.2768269E-01;  3.9562590E+04;  0.0000000E+00;  1.1885264E-01;  4.0000000E+04;  0.0000000E+00;  3.9991664E+04;  5.9824240E-01;  0.0000000E+00;  2.9440254E-02;  5.9113397E+02;
  3.1246608E-01;  9.9999998E-03;  1.8999769E-01;4386;  2.9750714E-01;  0.0000000E+00; -1.0940285E-02;  9.9422510E+02;  1.0000000E-01; -4.7844077E+03;3; -2.4146156E+00;  0.0000000E+00; -4.8027048E+00;0;  6.5350646E-01;  3.9546352E+04;  0.0000000E+00;  1.4400183E-01;  4.0000000E+04;  0.0000000E+00;  3.9994613E+04;  6.2266362E-01;  0.0000000E+00;  3.0842867E-02;  2.6923749E+02;
  3.1252608E-01;  9.9999998E-03;  2.0000766E-01;4387;  2.8157300E-01;  0.0000000E+00; -9.0622818E-03;  9.9409021E+02;  1.0000000E-01; -4.8961572E+03;3; -3.9757307E+00;  0.0000000E+00; -5.2732964E+00;0;  6.6752011E-01;  3.9532230E+04;  0.0000000E+00;  1.4575276E-01;  4.0000000E+04;  0.0000000E+00;  3.9998527E+04;  6.3781404E-01;  0.0000000E+00;  2.9706059E-02;  3.8223447E+02;
  3.1260070E-01;  9.9999998E-03;  2.1001549E-01;4388;  2.6600987E-01;  0.0000000E+00; -7.4823834E-03;  9.9398334E+02;  1.0000000E-01; -4.9846982E+03;3; -6.3960948E+00;  0.0000000E+00; -5.4655623E+00;0;  6.7005676E-01;  3.9520109E+04;  0.0000000E+00;  9.2361026E-02;  4.0000000E+04;  0.0000000E+00;  4.0002828E+04;  6.4377069E-01;  0.0000000E+00;  2.6286094E-02;  8.7426367E+02;
  3.1269398E-01;  9.9999998E-03;  2.2001950E-01;4389;  2.5248396E-01;  0.0000000E+00; -6.8099438E-03;  9.9389569E+02;  1.0000000E-01; -5.0572886E+03;3; -9.3213949E+00;  0.0000000E+00; -5.4931536E+00;0;  6.6146564E-01;  3.9509605E+04;  0.0000000E+00; -5.5378590E-02;  4.0000000E+04;  0.0000000E+00;  4.0007059E+04;  6.4141983E-01;  0.0000000E+00;  2.0045832E-02;  1.3988979E+03;
  3.1280398E-01;  9.9999998E-03;  2.3001851E-01;4390;  2.4169572E-01;  0.0000000E+00; -7.0296274E-03;  9.9381622E+02;  1.0000000E-01; -5.1231636E+03;3; -1.2492410E+01;  0.0000000E+00; -5.5722556E+00;0;  6.4192635E-01;  3.9500152E+04;  0.0000000E+00; -3.3579558E-01;  4.0000000E+04;  0.0000000E+00;  4.0011094E+04;  6.3223225E-01;  0.0000000E+00;  9.6941097E-03;  1.9653254E+03;
  3.2200298E-01;  9.9999998E-03;  6.9999337E-02;4435;  3.4705618E-01;  0.0000000E+00; -3.1967626E-03;  9.9669397E+02;  1.0000000E-01; -2.7389841E+03;3; -5.2928562E+00;  0.0000000E+00; -9.3884730E-01;0;  4.1278291E-02;  3.9722680E+04;  0.0000000E+00; -2.4550275E-03;  4.0000000E+04;  0.0000000E+00;  4.0014297E+04;  9.2886753E-02;  0.0000000E+00; -5.1608462E-02;  2.0494724E+03;
  3.2203290E-01;  9.9999998E-03;  7.9998448E-02;4436;  3.4648055E-01;  0.0000000E+00; -3.7878794E-03;  9.9659222E+02;  1.0000000E-01; -2.8232781E+03;3; -5.6928391E+00;  0.0000000E+00; -1.0380721E+00;0;  6.8497896E-02;  3.9715621E+04;  0.0000000E+00; -5.1245177E-03;  4.0000000E+04;  0.0000000E+00;  4.0013270E+04;  1.1847188E-01;  0.0000000E+00; -4.9973983E-02;  1.9365009E+03;
  3.2206479E-01;  9.9999998E-03;  8.9996971E-02;4437;  3.4574357E-01;  0.0000000E+00; -4.4464660E-03;  9.9646149E+02;  1.0000000E-01; -2.9315713E+03;3; -6.1242990E+00;  0.0000000E+00; -1.1362976E+00;0;  1.0173044E-01;  3.9706570E+04;  0.0000000E+00; -8.2550496E-03;  4.0000000E+04;  0.0000000E+00;  4.0011812E+04;  1.4880626E-01;  0.0000000E+00; -4.7075819E-02;  1.7629995E+03;
  3.2209858E-01;  9.9999998E-03;  9.9994898E-02;4438;  3.4478807E-01;  0.0000000E+00; -5.1662186E-03;  9.9629816E+02;  1.0000000E-01; -3.0669253E+03;3; -6.5464501E+00;  0.0000000E+00; -1.2284318E+00;0;  1.4109522E-01;  3.9695508E+04;  0.0000000E+00; -1.1190850E-02;  4.0000000E+04;  0.0000000E+00;  4.0009781E+04;  1.8389238E-01;  0.0000000E+00; -4.2797159E-02;  1.5266915E+03;
  3.2213518E-01;  9.9999998E-03;  1.0999217E-01;4439;  3.4356505E-01;  0.0000000E+00; -5.9689106E-03;  9.9609900E+02;  1.0000000E-01; -3.2319084E+03;3; -6.9892182E+00;  0.0000000E+00; -1.3140149E+00;0;  1.8635510E-01;  3.9682273E+04;  0.0000000E+00; -1.2873414E-02;  4.0000000E+04;  0.0000000E+00;  4.0007340E+04;  2.2349003E-01;  0.0000000E+00; -3.7134934E-02;  1.2331705E+03;
  3.2217512E-01;  9.9999998E-03;  1.1998889E-01;4440;  3.4200427E-01;  0.0000000E+00; -6.8354695E-03;  9.9587018E+02;  1.0000000E-01; -3.4214832E+03;3; -7.3861675E+00;  0.0000000E+00; -1.4160305E+00;0;  2.3686992E-01;  3.9666918E+04;  0.0000000E+00; -1.1852020E-02;  4.0000000E+04;  0.0000000E+00;  4.0004473E+04;  2.6708260E-01;  0.0000000E+00; -3.0212691E-02;  8.9740973E+02;
  3.2221898E-01;  9.9999998E-03;  1.2998492E-01;4441;  3.4006619E-01;  0.0000000E+00; -7.7835950E-03;  9.9561810E+02;  1.0000000E-01; -3.6303169E+03;3; -7.7956405E+00;  0.0000000E+00; -1.4691488E+00;0;  2.9155353E-01;  3.9649766E+04;  0.0000000E+00; -6.4271172E-03;  4.0000000E+04;  0.0000000E+00;  4.0001492E+04;  3.1384602E-01;  0.0000000E+00; -2.2292506E-02;  5.4473999E+02;
  3.2226637E-01;  9.9999998E-03;  1.3998072E-01;4442;  3.3767661E-01;  0.0000000E+00; -8.8474313E-03;  9.9534918E+02;  1.0000000E-01; -3.8531252E+03;3; -7.9891014E+00;  0.0000000E+00; -1.6071956E+00;0;  3.4887427E-01;  3.9631133E+04;  0.0000000E+00;  4.9703452E-03;  4.0000000E+04;  0.0000000E+00;  3.9998602E+04;  3.6265013E-01;  0.0000000E+00; -1.3775861E-02;  2.1097565E+02;
  3.2231665E-01;  9.9999998E-03;  1.4997704E-01;4443;  3.3470440E-01;  0.0000000E+00; -9.9499766E-03;  9.9507593E+02;  1.0000000E-01; -4.0794893E+03;3; -8.0416451E+00;  0.0000000E+00; -1.7531371E+00;0;  4.0685731E-01;  3.9611918E+04;  0.0000000E+00;  2.3201663E-02;  4.0000000E+04;  0.0000000E+00;  3.9996199E+04;  4.1205096E-01;  0.0000000E+00; -5.1936656E-03;  6.9167267E+01;
  3.2236949E-01;  9.9999998E-03;  1.5997496E-01;4444;  3.3095181E-01;  0.0000000E+00; -1.1090109E-02;  9.9481378E+02;  1.0000000E-01; -4.2966685E+03;3; -7.8702459E+00;  0.0000000E+00; -1.9209803E+00;0;  4.6314240E-01;  3.9592656E+04;  0.0000000E+00;  4.7837425E-02;  4.0000000E+04;  0.0000000E+00;  3.9994730E+04;  4.6033284E-01;  0.0000000E+00;  2.8095692E-03;  2.3604579E+02;
  3.2242414E-01;  9.9999998E-03;  1.6997577E-01;4445;  3.2606828E-01;  0.0000000E+00; -1.2163863E-02;  9.9457556E+02;  1.0000000E-01; -4.4940454E+03;3; -6.7139368E+00;  0.0000000E+00; -2.4163165E+00;0;  5.1512110E-01;  3.9574215E+04;  0.0000000E+00;  7.7100679E-02;  4.0000000E+04;  0.0000000E+00;  3.9994340E+04;  5.0560284E-01;  0.0000000E+00;  9.5182415E-03;  2.7312936E+02;
  3.2248077E-01;  9.9999998E-03;  1.7998028E-01;4446;  3.1892759E-01;  0.0000000E+00; -1.2782275E-02;  9.9437054E+02;  1.0000000E-01; -4.6639170E+03;3; -4.1828976E+00;  0.0000000E+00; -3.4101279E+00;0;  5.6015909E-01;  3.9557352E+04;  0.0000000E+00;  1.0836655E-01;  4.0000000E+04;  0.0000000E+00;  3.9995254E+04;  5.4592675E-01;  0.0000000E+00;  1.4232367E-02;  1.9259604E+02;
  3.2254100E-01;  9.9999998E-03;  1.8998764E-01;4447;  3.0822027E-01;  0.0000000E+00; -1.2481257E-02;  9.9420819E+02;  1.0000000E-01; -4.7983823E+03;3; -2.1691313E+00;  0.0000000E+00; -4.3356380E+00;0;  5.9605366E-01;  3.9542594E+04;  0.0000000E+00;  1.3868818E-01;  4.0000000E+04;  0.0000000E+00;  3.9997410E+04;  5.7953858E-01;  0.0000000E+00;  1.6515065E-02;  2.5671152E+02;
  3.2260981E-01;  9.9999998E-03;  1.9999647E-01;4448;  2.9436085E-01;  0.0000000E+00; -1.1327798E-02;  9.9408734E+02;  1.0000000E-01; -4.8985278E+03;3; -2.3456488E+00;  0.0000000E+00; -4.9249682E+00;0;  6.2156081E-01;  3.9530520E+04;  0.0000000E+00;  1.6085686E-01;  4.0000000E+04;  0.0000000E+00;  4.0000496E+04;  6.0510999E-01;  0.0000000E+00;  1.6450847E-02;  6.0089960E+02;
  3.2269266E-01;  9.9999998E-03;  2.1000436E-01;4449;  2.7945000E-01;  0.0000000E+00; -9.9955676E-03;  9.9400690E+02;  1.0000000E-01; -4.9651924E+03;3; -3.9080560E+00;  0.0000000E+00; -5.2599726E+00;0;  6.3638479E-01;  3.9521113E+04;  0.0000000E+00;  1.5847597E-01;  4.0000000E+04;  0.0000000E+00;  4.0003875E+04;  6.2203258E-01;  0.0000000E+00;  1.4352212E-02;  1.0207463E+03;
  3.2279131E-01;  9.9999998E-03;  2.2000872E-01;4450;  2.6543593E-01;  0.0000000E+00; -9.2535634E-03;  9.9395642E+02;  1.0000000E-01; -5.0069692E+03;3; -6.2006321E+00;  0.0000000E+00; -5.3448691E+00;0;  6.4033818E-01;  3.9514293E+04;  0.0000000E+00;  1.0749243E-01;  4.0000000E+04;  0.0000000E+00;  4.0007379E+04;  6.3050717E-01;  0.0000000E+00;  9.8309945E-03;  1.4467386E+03;
  3.2290134E-01;  9.9999998E-03;  2.3000740E-01;4451;  2.5319287E-01;  0.0000000E+00; -9.2894537E-03;  9.9393158E+02;  1.0000000E-01; -5.0275610E+03;3; -8.9719763E+00;  0.0000000E+00; -5.3891277E+00;0;  6.3307488E-01;  3.9509461E+04;  0.0000000E+00; -1.8902298E-02;  4.0000000E+04;  0.0000000E+00;  4.0011152E+04;  6.3141322E-01;  0.0000000E+00;  1.6616477E-03;  1.9021746E+03;
  3.3203429E-01;  9.9999998E-03;  7.0000738E-02;4496;  3.4678215E-01;  0.0000000E+00; -3.3684061E-03;  9.9653009E+02;  1.0000000E-01; -2.8747332E+03;3; -5.5487628E+00;  0.0000000E+00; -9.1842639E-01;0;  1.2092777E-03;  3.9709488E+04;  0.0000000E+00; -1.8340813E-03;  4.0000000E+04;  0.0000000E+00;  4.0014773E+04;  5.6216177E-02;  0.0000000E+00; -5.5006899E-02;  2.1226943E+03;
  3.3206278E-01;  9.9999998E-03;  7.9999529E-02;4497;  3.4620327E-01;  0.0000000E+00; -3.9430507E-03;  9.9645020E+02;  1.0000000E-01; -2.9409534E+03;3; -5.9698124E+00;  0.0000000E+00; -1.0084444E+00;0;  2.2688780E-02;  3.9703371E+04;  0.0000000E+00; -4.2435392E-03;  4.0000000E+04;  0.0000000E+00;  4.0014457E+04;  7.6817572E-02;  0.0000000E+00; -5.4128792E-02;  2.0918784E+03;
  3.3209312E-01;  9.9999998E-03;  8.9997672E-02;4498;  3.4547839E-01;  0.0000000E+00; -4.5738523E-03;  9.9634027E+02;  1.0000000E-01; -3.0320125E+03;3; -6.4134755E+00;  0.0000000E+00; -1.0857506E+00;0;  4.9823605E-02;  3.9695410E+04;  0.0000000E+00; -7.1741762E-03;  4.0000000E+04;  0.0000000E+00;  4.0013703E+04;  1.0202528E-01;  0.0000000E+00; -5.2201673E-02;  2.0088949E+03;
  3.3212569E-01;  9.9999998E-03;  9.9995241E-02;4499;  3.4454954E-01;  0.0000000E+00; -5.2521350E-03;  9.9619897E+02;  1.0000000E-01; -3.1490957E+03;3; -6.8461356E+00;  0.0000000E+00; -1.1777710E+00;0;  8.2970411E-02;  3.9685371E+04;  0.0000000E+00; -1.0085055E-02;  4.0000000E+04;  0.0000000E+00;  4.0012504E+04;  1.3205925E-01;  0.0000000E+00; -4.9088832E-02;  1.8669310E+03;
  3.3216166E-01;  9.9999998E-03;  1.0999224E-01;4500;  3.4336275E-01;  0.0000000E+00; -5.9812968E-03;  9.9602368E+02;  1.0000000E-01; -3.2943262E+03;3; -7.3226914E+00;  0.0000000E+00; -1.2243570E+00;0;  1.2218000E-01;  3.9673039E+04;  0.0000000E+00; -1.2060023E-02;  4.0000000E+04;  0.0000000E+00;  4.0010734E+04;  1.6692428E-01;  0.0000000E+00; -4.4744279E-02;  1.6656096E+03;
  3.3220154E-01;  9.9999998E-03;  1.1998869E-01;4501;  3.4188858E-01;  0.0000000E+00; -6.7811948E-03;  9.9581561E+02;  1.0000000E-01; -3.4666667E+03;3; -7.7609029E+00;  0.0000000E+00; -1.3041676E+00;0;  1.6714340E-01;  3.9658742E+04;  0.0000000E+00; -1.1763237E-02;  4.0000000E+04;  0.0000000E+00;  4.0008523E+04;  2.0637172E-01;  0.0000000E+00; -3.9228328E-02;  1.4127788E+03;
  3.3224580E-01;  9.9999998E-03;  1.2998445E-01;4502;  3.4007582E-01;  0.0000000E+00; -7.6363022E-03;  9.9558136E+02;  1.0000000E-01; -3.6607354E+03;3; -8.1658258E+00;  0.0000000E+00; -1.3944774E+00;0;  2.1714023E-01;  3.9642559E+04;  0.0000000E+00; -7.5181038E-03;  4.0000000E+04;  0.0000000E+00;  4.0006074E+04;  2.4986133E-01;  0.0000000E+00; -3.2721095E-02;  1.1260698E+03;
  3.3229470E-01;  9.9999998E-03;  1.3997966E-01;4503;  3.3787823E-01;  0.0000000E+00; -8.5787699E-03;  9.9533020E+02;  1.0000000E-01; -3.8688284E+03;3; -8.5674009E+00;  0.0000000E+00; -1.4224190E+00;0;  2.7101898E-01;  3.9625062E+04;  0.0000000E+00;  2.3920259E-03;  4.0000000E+04;  0.0000000E+00;  4.0003543E+04;  2.9654422E-01;  0.0000000E+00; -2.5525231E-02;  8.3353210E+02;
  3.3234829E-01;  9.9999998E-03;  1.4997499E-01;4504;  3.3524817E-01;  0.0000000E+00; -9.5987432E-03;  9.9507220E+02;  1.0000000E-01; -4.0825999E+03;3; -8.6750040E+00;  0.0000000E+00; -1.6032771E+00;0;  3.2720110E-01;  3.9606898E+04;  0.0000000E+00;  1.9178823E-02;  4.0000000E+04;  0.0000000E+00;  4.0001289E+04;  3.4525824E-01;  0.0000000E+00; -1.8057130E-02;  5.7311060E+02;
  3.3240694E-01;  9.9999998E-03;  1.5997131E-01;4505;  3.3199653E-01;  0.0000000E+00; -1.0632364E-02;  9.9482391E+02;  1.0000000E-01; -4.2882729E+03;3; -8.6592655E+00;  0.0000000E+00; -1.7944359E+00;0;  3.8370410E-01;  3.9588863E+04;  0.0000000E+00;  4.2853944E-02;  4.0000000E+04;  0.0000000E+00;  3.9999621E+04;  3.9454091E-01;  0.0000000E+00; -1.0836801E-02;  3.8851263E+02;
  3.3247018E-01;  9.9999998E-03;  1.6996987E-01;4506;  3.2805836E-01;  0.0000000E+00; -1.1680859E-02;  9.9459711E+02;  1.0000000E-01; -4.4762183E+03;3; -8.4249544E+00;  0.0000000E+00; -1.9755148E+00;0;  4.3823445E-01;  3.9571773E+04;  0.0000000E+00;  7.1867697E-02;  4.0000000E+04;  0.0000000E+00;  3.9998805E+04;  4.4269371E-01;  0.0000000E+00; -4.4592717E-03;  3.2083771E+02;
  3.3253810E-01;  9.9999998E-03;  1.7997155E-01;4507;  3.2295474E-01;  0.0000000E+00; -1.2633634E-02;  9.9440314E+02;  1.0000000E-01; -4.6369053E+03;3; -7.0118852E+00;  0.0000000E+00; -2.5131824E+00;0;  4.8832399E-01;  3.9556418E+04;  0.0000000E+00;  1.0335437E-01;  4.0000000E+04;  0.0000000E+00;  3.9999094E+04;  4.8788354E-01;  0.0000000E+00;  4.4045012E-04;  3.8746881E+02;
  3.3261171E-01;  9.9999998E-03;  1.8997627E-01;4508;  3.1557542E-01;  0.0000000E+00; -1.3066287E-02;  9.9425641E+02;  1.0000000E-01; -4.7584326E+03;3; -4.0246677E+00;  0.0000000E+00; -3.6299810E+00;0;  5.3163350E-01;  3.9543668E+04;  0.0000000E+00;  1.3389967E-01;  4.0000000E+04;  0.0000000E+00;  4.0000512E+04;  5.2829963E-01;  0.0000000E+00;  3.3338601E-03;  5.8200378E+02;
  3.3269319E-01;  9.9999998E-03;  1.9998346E-01;4509;  3.0475962E-01;  0.0000000E+00; -1.2623580E-02;  9.9415704E+02;  1.0000000E-01; -4.8408008E+03;3; -1.9417114E+00;  0.0000000E+00; -4.5170407E+00;0;  5.6652200E-01;  3.9533781E+04;  0.0000000E+00;  1.6015534E-01;  4.0000000E+04;  0.0000000E+00;  4.0002922E+04;  5.6237721E-01;  0.0000000E+00;  4.1447957E-03;  8.8036829E+02;
  3.3278671E-01;  9.9999998E-03;  2.0999117E-01;4510;  2.9144070E-01;  0.0000000E+00; -1.1679201E-02;  9.9410175E+02;  1.0000000E-01; -4.8865771E+03;3; -2.2827995E+00;  0.0000000E+00; -4.9418492E+00;0;  5.9219968E-01;  3.9527098E+04;  0.0000000E+00;  1.7613164E-01;  4.0000000E+04;  0.0000000E+00;  4.0005680E+04;  5.8903211E-01;  0.0000000E+00;  3.1675794E-03;  1.2303474E+03;
  3.3289519E-01;  9.9999998E-03;  2.1999611E-01;4511;  2.7781627E-01;  0.0000000E+00; -1.1004236E-02;  9.9408496E+02;  1.0000000E-01; -4.9005024E+03;3; -3.9210410E+00;  0.0000000E+00; -5.1165442E+00;0;  6.0803449E-01;  3.9523418E+04;  0.0000000E+00;  1.7055938E-01;  4.0000000E+04;  0.0000000E+00;  4.0008574E+04;  6.0785842E-01;  0.0000000E+00;  1.7608909E-04;  1.5877290E+03;
  3.3301219E-01;  9.9999998E-03;  2.2999516E-01;4512;  2.6508647E-01;  0.0000000E+00; -1.0910101E-02;  9.9410553E+02;  1.0000000E-01; -4.8834663E+03;3; -6.1135745E+00;  0.0000000E+00; -5.1699796E+00;0;  6.1333954E-01;  3.9522508E+04;  0.0000000E+00;  1.2809372E-01;  4.0000000E+04;  0.0000000E+00;  4.0011930E+04;  6.1916316E-01;  0.0000000E+00; -5.8235922E-03;  1.9878441E+03;
  3.4206799E-01;  9.9999998E-03;  6.9999039E-02;4557;  3.4648824E-01;  0.0000000E+00; -3.5485916E-03;  9.9639117E+02;  1.0000000E-01; -2.9898408E+03;3; -5.8152518E+00;  0.0000000E+00; -8.9718997E-01;0; -2.6663048E-02;  3.9698465E+04;  0.0000000E+00; -1.7404346E-03;  4.0000000E+04;  0.0000000E+00;  4.0015023E+04;  3.0579502E-02;  0.0000000E+00; -5.7242550E-02;  2.1659590E+03;
  3.4209466E-01;  9.9999998E-03;  7.9997346E-02;4558;  3.4590167E-01;  0.0000000E+00; -4.1176956E-03;  9.9632831E+02;  1.0000000E-01; -3.0419382E+03;3; -6.2635536E+00;  0.0000000E+00; -9.7965091E-01;0; -1.0691646E-02;  3.9693168E+04;  0.0000000E+00; -3.7555972E-03;  4.0000000E+04;  0.0000000E+00;  4.0015301E+04;  4.6214003E-02;  0.0000000E+00; -5.6905650E-02;  2.2059688E+03;
  3.4212357E-01;  9.9999998E-03;  8.9995168E-02;4559;  3.4516886E-01;  0.0000000E+00; -4.7205989E-03;  9.9623975E+02;  1.0000000E-01; -3.1153188E+03;3; -6.7197709E+00;  0.0000000E+00; -1.0372062E+00;0;  1.0396503E-02;  3.9686043E+04;  0.0000000E+00; -6.1459858E-03;  4.0000000E+04;  0.0000000E+00;  4.0015199E+04;  6.6119008E-02;  0.0000000E+00; -5.5722505E-02;  2.2031353E+03;
  3.4215522E-01;  9.9999998E-03;  9.9992499E-02;4560;  3.4424922E-01;  0.0000000E+00; -5.3635780E-03;  9.9611926E+02;  1.0000000E-01; -3.2151184E+03;3; -7.1980228E+00;  0.0000000E+00; -1.0973892E+00;0;  3.7144907E-02;  3.9677020E+04;  0.0000000E+00; -8.4313694E-03;  4.0000000E+04;  0.0000000E+00;  4.0014672E+04;  9.0692103E-02;  0.0000000E+00; -5.3547196E-02;  2.1469099E+03;
  3.4219074E-01;  9.9999998E-03;  1.0998929E-01;4561;  3.4308618E-01;  0.0000000E+00; -6.0361936E-03;  9.9596509E+02;  1.0000000E-01; -3.3428679E+03;3; -7.6875606E+00;  0.0000000E+00; -1.1421928E+00;0;  6.9844708E-02;  3.9665793E+04;  0.0000000E+00; -9.7918753E-03;  4.0000000E+04;  0.0000000E+00;  4.0013637E+04;  1.2015031E-01;  0.0000000E+00; -5.0305594E-02;  2.0317645E+03;
  3.4223065E-01;  9.9999998E-03;  1.1998542E-01;4562;  3.4166139E-01;  0.0000000E+00; -6.7666448E-03;  9.9578070E+02;  1.0000000E-01; -3.4956042E+03;3; -8.1472025E+00;  0.0000000E+00; -1.1845009E+00;0;  1.0847449E-01;  3.9652551E+04;  0.0000000E+00; -9.0121543E-03;  4.0000000E+04;  0.0000000E+00;  4.0012117E+04;  1.5448685E-01;  0.0000000E+00; -4.6012353E-02;  1.8593215E+03;
  3.4227502E-01;  9.9999998E-03;  1.2998077E-01;4563;  3.3993068E-01;  0.0000000E+00; -7.5425673E-03;  9.9556879E+02;  1.0000000E-01; -3.6711548E+03;3; -8.5719280E+00;  0.0000000E+00; -1.2660145E+00;0;  1.5264994E-01;  3.9637578E+04;  0.0000000E+00; -4.5363461E-03;  4.0000000E+04;  0.0000000E+00;  4.0010219E+04;  1.9343314E-01;  0.0000000E+00; -4.0783197E-02;  1.6401466E+03;
  3.4232494E-01;  9.9999998E-03;  1.3997529E-01;4564;  3.3784428E-01;  0.0000000E+00; -8.3650239E-03;  9.9533807E+02;  1.0000000E-01; -3.8623098E+03;3; -8.9883223E+00;  0.0000000E+00; -1.3120147E+00;0;  2.0158570E-01;  3.9621426E+04;  0.0000000E+00;  5.3103860E-03;  4.0000000E+04;  0.0000000E+00;  4.0008098E+04;  2.3642465E-01;  0.0000000E+00; -3.4838960E-02;  1.3951671E+03;
  3.4238148E-01;  9.9999998E-03;  1.4996968E-01;4565;  3.3541968E-01;  0.0000000E+00; -9.2808781E-03;  9.9510040E+02;  1.0000000E-01; -4.0592427E+03;3; -9.3270054E+00;  0.0000000E+00; -1.3578825E+00;0;  2.5409269E-01;  3.9604723E+04;  0.0000000E+00;  2.1835508E-02;  4.0000000E+04;  0.0000000E+00;  4.0006027E+04;  2.8259128E-01;  0.0000000E+00; -2.8498579E-02;  1.1557322E+03;
  3.4244549E-01;  9.9999998E-03;  1.5996477E-01;4566;  3.3253258E-01;  0.0000000E+00; -1.0234316E-02;  9.9487054E+02;  1.0000000E-01; -4.2496567E+03;3; -9.3653793E+00;  0.0000000E+00; -1.5847064E+00;0;  3.0858701E-01;  3.9588258E+04;  0.0000000E+00;  4.5238998E-02;  4.0000000E+04;  0.0000000E+00;  4.0004277E+04;  3.3075750E-01;  0.0000000E+00; -2.2170469E-02;  9.6020966E+02;
  3.4251657E-01;  9.9999998E-03;  1.6996160E-01;4567;  3.2907471E-01;  0.0000000E+00; -1.1186151E-02;  9.9466339E+02;  1.0000000E-01; -4.4212568E+03;3; -9.3240538E+00;  0.0000000E+00; -1.7596307E+00;0;  3.6314118E-01;  3.9572910E+04;  0.0000000E+00;  7.4095748E-02;  4.0000000E+04;  0.0000000E+00;  4.0003203E+04;  3.7947235E-01;  0.0000000E+00; -1.6331181E-02;  8.4769354E+02;
  3.4259510E-01;  9.9999998E-03;  1.7996106E-01;4568;  3.2496408E-01;  0.0000000E+00; -1.2128999E-02;  9.9449084E+02;  1.0000000E-01; -4.5642158E+03;3; -8.9538994E+00;  0.0000000E+00; -2.0661333E+00;0;  4.1556510E-01;  3.9559633E+04;  0.0000000E+00;  1.0541295E-01;  4.0000000E+04;  0.0000000E+00;  4.0002996E+04;  4.2707330E-01;  0.0000000E+00; -1.1508183E-02;  8.4878113E+02;
  3.4268156E-01;  9.9999998E-03;  1.8996356E-01;4569;  3.1975991E-01;  0.0000000E+00; -1.2947110E-02;  9.9436401E+02;  1.0000000E-01; -4.6692993E+03;3; -7.2083569E+00;  0.0000000E+00; -2.6780515E+00;0;  4.6358198E-01;  3.9548988E+04;  0.0000000E+00;  1.3536318E-01;  4.0000000E+04;  0.0000000E+00;  4.0003891E+04;  4.7182977E-01;  0.0000000E+00; -8.2478039E-03;  9.7405981E+02;
  3.4277743E-01;  9.9999998E-03;  1.9996925E-01;4570;  3.1219816E-01;  0.0000000E+00; -1.3182497E-02;  9.9428729E+02;  1.0000000E-01; -4.7328530E+03;3; -3.9094865E+00;  0.0000000E+00; -3.8822186E+00;0;  5.0529307E-01;  3.9541539E+04;  0.0000000E+00;  1.6022559E-01;  4.0000000E+04;  0.0000000E+00;  4.0005660E+04;  5.1211339E-01;  0.0000000E+00; -6.8203141E-03;  1.2045000E+03;
  3.4288442E-01;  9.9999998E-03;  2.0997673E-01;4571;  3.0154932E-01;  0.0000000E+00; -1.2701589E-02;  9.9426001E+02;  1.0000000E-01; -4.7554697E+03;3; -1.8523253E+00;  0.0000000E+00; -4.6119413E+00;0;  5.3965205E-01;  3.9537508E+04;  0.0000000E+00;  1.7717865E-01;  4.0000000E+04;  0.0000000E+00;  4.0007859E+04;  5.4660070E-01;  0.0000000E+00; -6.9486634E-03;  1.4902356E+03;
  3.4300122E-01;  9.9999998E-03;  2.1998255E-01;4572;  2.8902426E-01;  0.0000000E+00; -1.2112893E-02;  9.9427509E+02;  1.0000000E-01; -4.7429761E+03;3; -2.3530428E+00;  0.0000000E+00; -4.8210163E+00;0;  5.6590319E-01;  3.9536789E+04;  0.0000000E+00;  1.8304107E-01;  4.0000000E+04;  0.0000000E+00;  4.0010316E+04;  5.7447094E-01;  0.0000000E+00; -8.5677765E-03;  1.7860273E+03;
  3.4312144E-01;  9.9999998E-03;  2.2998248E-01;4573;  2.7652308E-01;  0.0000000E+00; -1.1934055E-02;  9.9433374E+02;  1.0000000E-01; -4.6943853E+03;3; -3.9244368E+00;  0.0000000E+00; -4.9225225E+00;0;  5.8299339E-01;  3.9539074E+04;  0.0000000E+00;  1.7168577E-01;  4.0000000E+04;  0.0000000E+00;  4.0013254E+04;  5.9551179E-01;  0.0000000E+00; -1.2518400E-02;  2.1395481E+03;
  3.5210720E-01;  9.9999998E-03;  6.9994710E-02;4618;  3.4618703E-01;  0.0000000E+00; -3.7315171E-03;  9.9629456E+02;  1.0000000E-01; -3.0698879E+03;3; -6.1205788E+00;  0.0000000E+00; -8.6814195E-01;0; -4.4634860E-02;  3.9690805E+04;  0.0000000E+00; -2.1316989E-03;  4.0000000E+04;  0.0000000E+00;  4.0015105E+04;  1.3903841E-02;  0.0000000E+00; -5.8538701E-02;  2.1788057E+03;
  3.5213250E-01;  9.9999998E-03;  7.9992853E-02;4619;  3.4558329E-01;  0.0000000E+00; -4.2961678E-03;  9.9624561E+02;  1.0000000E-01; -3.1104302E+03;3; -6.6057997E+00;  0.0000000E+00; -9.2899871E-01;0; -3.3583846E-02;  3.9686125E+04;  0.0000000E+00; -3.7166919E-03;  4.0000000E+04;  0.0000000E+00;  4.0015840E+04;  2.4928764E-02;  0.0000000E+00; -5.8512609E-02;  2.2767705E+03;
  3.5216030E-01;  9.9999998E-03;  8.9990593E-02;4620;  3.4483114E-01;  0.0000000E+00; -4.8785098E-03;  9.9617133E+02;  1.0000000E-01; -3.1719592E+03;3; -7.0652490E+00;  0.0000000E+00; -9.7275776E-01;0; -1.8088594E-02;  3.9679750E+04;  0.0000000E+00; -5.3958385E-03;  4.0000000E+04;  0.0000000E+00;  4.0016309E+04;  3.9739661E-02;  0.0000000E+00; -5.7828255E-02;  2.3419556E+03;
  3.5219121E-01;  9.9999998E-03;  9.9987797E-02;4621;  3.4390721E-01;  0.0000000E+00; -5.4914858E-03;  9.9606854E+02;  1.0000000E-01; -3.2571418E+03;3; -7.5980425E+00;  0.0000000E+00; -9.8551524E-01;0;  2.5249049E-03;  3.9671398E+04;  0.0000000E+00; -6.6742040E-03;  4.0000000E+04;  0.0000000E+00;  4.0016328E+04;  5.8866374E-02;  0.0000000E+00; -5.6341469E-02;  2.3609290E+03;
  3.5222629E-01;  9.9999998E-03;  1.0998432E-01;4622;  3.4276044E-01;  0.0000000E+00; -6.1258529E-03;  9.9593335E+02;  1.0000000E-01; -3.3691387E+03;3; -8.0949068E+00;  0.0000000E+00; -1.0291919E+00;0;  2.8735034E-02;  3.9661176E+04;  0.0000000E+00; -6.7705163E-03;  4.0000000E+04;  0.0000000E+00;  4.0016004E+04;  8.2698293E-02;  0.0000000E+00; -5.3963259E-02;  2.3239043E+03;
  3.5226604E-01;  9.9999998E-03;  1.1998009E-01;4623;  3.4136462E-01;  0.0000000E+00; -6.7941747E-03;  9.9577051E+02;  1.0000000E-01; -3.5040486E+03;3; -8.5422525E+00;  0.0000000E+00; -1.0480160E+00;0;  6.0762469E-02;  3.9649074E+04;  0.0000000E+00; -4.5747794E-03;  4.0000000E+04;  0.0000000E+00;  4.0015035E+04;  1.1143867E-01;  0.0000000E+00; -5.0676201E-02;  2.2270264E+03;
  3.5231075E-01;  9.9999998E-03;  1.2997484E-01;4624;  3.3968726E-01;  0.0000000E+00; -7.5007132E-03;  9.9558258E+02;  1.0000000E-01; -3.6597478E+03;3; -8.9783020E+00;  0.0000000E+00; -1.0948339E+00;0;  9.8514155E-02;  3.9635359E+04;  0.0000000E+00;  1.3024911E-03;  4.0000000E+04;  0.0000000E+00;  4.0013719E+04;  1.4506219E-01;  0.0000000E+00; -4.6548042E-02;  2.0746914E+03;
  3.5236230E-01;  9.9999998E-03;  1.3996871E-01;4625;  3.3768639E-01;  0.0000000E+00; -8.2344143E-03;  9.9537445E+02;  1.0000000E-01; -3.8321873E+03;3; -9.4059887E+00;  0.0000000E+00; -1.1323040E+00;0;  1.4154166E-01;  3.9620590E+04;  0.0000000E+00;  1.2343797E-02;  4.0000000E+04;  0.0000000E+00;  4.0012055E+04;  1.8327507E-01;  0.0000000E+00; -4.1733418E-02;  1.8812949E+03;
  3.5242203E-01;  9.9999998E-03;  1.4996225E-01;4626;  3.3537456E-01;  0.0000000E+00; -9.0290597E-03;  9.9516199E+02;  1.0000000E-01; -4.0081824E+03;3; -9.8511457E+00;  0.0000000E+00; -1.1312666E+00;0;  1.8902969E-01;  3.9605449E+04;  0.0000000E+00;  2.9716771E-02;  4.0000000E+04;  0.0000000E+00;  4.0010203E+04;  2.2549903E-01;  0.0000000E+00; -3.6469337E-02;  1.6720471E+03;
  3.5249069E-01;  9.9999998E-03;  1.5995626E-01;4627;  3.3271444E-01;  0.0000000E+00; -9.8903067E-03;  9.9495374E+02;  1.0000000E-01; -4.1807207E+03;3; -1.0071497E+01;  0.0000000E+00; -1.2860460E+00;0;  2.3978876E-01;  3.9590746E+04;  0.0000000E+00;  5.3557571E-02;  4.0000000E+04;  0.0000000E+00;  4.0008523E+04;  2.7085605E-01;  0.0000000E+00; -3.1067291E-02;  1.4811431E+03;
  3.5256860E-01;  9.9999998E-03;  1.6995177E-01;4628;  3.2959822E-01;  0.0000000E+00; -1.0751674E-02;  9.9477075E+02;  1.0000000E-01; -4.3323213E+03;3; -1.0029140E+01;  0.0000000E+00; -1.5147511E+00;0;  2.9226622E-01;  3.9577465E+04;  0.0000000E+00;  8.2394816E-02;  4.0000000E+04;  0.0000000E+00;  4.0007258E+04;  3.1816393E-01;  0.0000000E+00; -2.5897719E-02;  1.3471694E+03;
  3.5265657E-01;  9.9999998E-03;  1.7994964E-01;4629;  3.2598951E-01;  0.0000000E+00; -1.1611762E-02;  9.9461981E+02;  1.0000000E-01; -4.4574043E+03;3; -1.0041792E+01;  0.0000000E+00; -1.6900533E+00;0;  3.4459892E-01;  3.9566301E+04;  0.0000000E+00;  1.1312886E-01;  4.0000000E+04;  0.0000000E+00;  4.0006797E+04;  3.6597854E-01;  0.0000000E+00; -2.1379627E-02;  1.3053912E+03;
  3.5275462E-01;  9.9999998E-03;  1.8995063E-01;4630;  3.2180962E-01;  0.0000000E+00; -1.2457543E-02;  9.9451776E+02;  1.0000000E-01; -4.5419448E+03;3; -9.4227505E+00;  0.0000000E+00; -2.0493674E+00;0;  3.9474028E-01;  3.9557914E+04;  0.0000000E+00;  1.4168558E-01;  4.0000000E+04;  0.0000000E+00;  4.0007293E+04;  4.1271967E-01;  0.0000000E+00; -1.7979383E-02;  1.3763380E+03;
  3.5286227E-01;  9.9999998E-03;  1.9995511E-01;4631;  3.1658134E-01;  0.0000000E+00; -1.3132506E-02;  9.9446796E+02;  1.0000000E-01; -4.5831782E+03;3; -7.3889737E+00;  0.0000000E+00; -2.8767996E+00;0;  4.4068339E-01;  3.9552910E+04;  0.0000000E+00;  1.6405667E-01;  4.0000000E+04;  0.0000000E+00;  4.0008547E+04;  4.5681602E-01;  0.0000000E+00; -1.6132617E-02;  1.5518323E+03;
  3.5297775E-01;  9.9999998E-03;  2.0996204E-01;4632;  3.0906889E-01;  0.0000000E+00; -1.3226511E-02;  9.9446863E+02;  1.0000000E-01; -4.5826353E+03;3; -3.8008263E+00;  0.0000000E+00; -4.0967717E+00;0;  4.8110384E-01;  3.9551344E+04;  0.0000000E+00;  1.7721879E-01;  4.0000000E+04;  0.0000000E+00;  4.0010523E+04;  4.9687919E-01;  0.0000000E+00; -1.5775366E-02;  1.7898256E+03;
  3.5309651E-01;  9.9999998E-03;  2.1996808E-01;4633;  2.9872343E-01;  0.0000000E+00; -1.2799829E-02;  9.9451233E+02;  1.0000000E-01; -4.5464385E+03;3; -1.8612226E+00;  0.0000000E+00; -4.5583973E+00;0;  5.1545137E-01;  3.9553219E+04;  0.0000000E+00;  1.7934710E-01;  4.0000000E+04;  0.0000000E+00;  4.0012609E+04;  5.3185618E-01;  0.0000000E+00; -1.6404808E-02;  2.0489788E+03;
  3.5321125E-01;  9.9999998E-03;  2.2996889E-01;4634;  2.8705582E-01;  0.0000000E+00; -1.2525351E-02;  9.9460419E+02;  1.0000000E-01; -4.4703418E+03;3; -2.4413240E+00;  0.0000000E+00; -4.6595659E+00;0;  5.4261684E-01;  3.9558098E+04;  0.0000000E+00;  1.6920336E-01;  4.0000000E+04;  0.0000000E+00;  4.0015320E+04;  5.6114990E-01;  0.0000000E+00; -1.8533064E-02;  2.3765129E+03;
  3.6215487E-01;  9.9999998E-03;  6.9989778E-02;4679;  3.4589007E-01;  0.0000000E+00; -3.9079748E-03;  9.9625500E+02;  1.0000000E-01; -3.1026772E+03;3; -6.4676433E+00;  0.0000000E+00; -8.1626409E-01;0; -5.5138577E-02;  3.9688062E+04;  0.0000000E+00; -2.7581630E-03;  4.0000000E+04;  0.0000000E+00;  4.0014973E+04;  3.9676246E-03;  0.0000000E+00; -5.9106201E-02;  2.1613281E+03;
  3.6217907E-01;  9.9999998E-03;  7.9987831E-02;4680;  3.4525895E-01;  0.0000000E+00; -4.4701458E-03;  9.9621399E+02;  1.0000000E-01; -3.1366516E+03;3; -6.9522886E+00;  0.0000000E+00; -8.4936279E-01;0; -4.8194926E-02;  3.9683633E+04;  0.0000000E+00; -3.9201141E-03;  4.0000000E+04;  0.0000000E+00;  4.0016062E+04;  1.0975746E-02;  0.0000000E+00; -5.9170671E-02;  2.3039805E+03;
  3.6220610E-01;  9.9999998E-03;  8.9985535E-02;4681;  3.4448868E-01;  0.0000000E+00; -5.0436296E-03;  9.9615063E+02;  1.0000000E-01; -3.1891438E+03;3; -7.4551506E+00;  0.0000000E+00; -8.7117761E-01;0; -3.7561119E-02;  3.9677543E+04;  0.0000000E+00; -4.8262379E-03;  4.0000000E+04;  0.0000000E+00;  4.0016949E+04;  2.1185929E-02;  0.0000000E+00; -5.8747046E-02;  2.4243728E+03;
  3.6223674E-01;  9.9999998E-03;  9.9982694E-02;4682;  3.4354326E-01;  0.0000000E+00; -5.6301244E-03;  9.9606110E+02;  1.0000000E-01; -3.2633147E+03;3; -7.9601245E+00;  0.0000000E+00; -8.5642701E-01;0; -2.2488367E-02;  3.9669801E+04;  0.0000000E+00; -4.9216282E-03;  4.0000000E+04;  0.0000000E+00;  4.0017555E+04;  3.5213660E-02;  0.0000000E+00; -5.7702027E-02;  2.5069780E+03;
  3.6227179E-01;  9.9999998E-03;  1.0997903E-01;4683;  3.4240189E-01;  0.0000000E+00; -6.2347092E-03;  9.9594446E+02;  1.0000000E-01; -3.3599539E+03;3; -8.4920425E+00;  0.0000000E+00; -8.4902316E-01;0; -2.3651421E-03;  3.9660258E+04;  0.0000000E+00; -3.4187040E-03;  4.0000000E+04;  0.0000000E+00;  4.0017727E+04;  5.3577259E-02;  0.0000000E+00; -5.5942401E-02;  2.5386221E+03;
  3.6231115E-01;  9.9999998E-03;  1.1997426E-01;4684;  3.4102586E-01;  0.0000000E+00; -6.8586147E-03;  9.9579785E+02;  1.0000000E-01; -3.4813826E+03;3; -8.9993849E+00;  0.0000000E+00; -8.3036017E-01;0;  2.3220215E-02;  3.9649047E+04;  0.0000000E+00;  7.1177143E-04;  4.0000000E+04;  0.0000000E+00;  4.0017391E+04;  7.6651745E-02;  0.0000000E+00; -5.3431530E-02;  2.5109614E+03;
  3.6235657E-01;  9.9999998E-03;  1.2996839E-01;4685;  3.3938748E-01;  0.0000000E+00; -7.5083622E-03;  9.9562970E+02;  1.0000000E-01; -3.6206873E+03;3; -9.4587088E+00;  0.0000000E+00; -8.4208119E-01;0;  5.4415897E-02;  3.9636480E+04;  0.0000000E+00;  8.6632082E-03;  4.0000000E+04;  0.0000000E+00;  4.0016461E+04;  1.0461771E-01;  0.0000000E+00; -5.0201811E-02;  2.4229854E+03;
  3.6241001E-01;  9.9999998E-03;  1.3996167E-01;4686;  3.3745235E-01;  0.0000000E+00; -8.1737274E-03;  9.9544653E+02;  1.0000000E-01; -3.7724360E+03;3; -9.8830118E+00;  0.0000000E+00; -8.6141986E-01;0;  9.1068573E-02;  3.9623066E+04;  0.0000000E+00;  2.1627208E-02;  4.0000000E+04;  0.0000000E+00;  4.0015312E+04;  1.3742565E-01;  0.0000000E+00; -4.6357073E-02;  2.2833501E+03;
  3.6247298E-01;  9.9999998E-03;  1.4995456E-01;4687;  3.3522463E-01;  0.0000000E+00; -8.8777011E-03;  9.9525635E+02;  1.0000000E-01; -3.9300117E+03;3; -1.0328686E+01;  0.0000000E+00; -8.8886899E-01;0;  1.3270253E-01;  3.9609531E+04;  0.0000000E+00;  4.0452268E-02;  4.0000000E+04;  0.0000000E+00;  4.0013707E+04;  1.7477013E-01;  0.0000000E+00; -4.2067606E-02;  2.1115466E+03;
  3.6254555E-01;  9.9999998E-03;  1.5994784E-01;4688;  3.3270124E-01;  0.0000000E+00; -9.6381297E-03;  9.9507312E+02;  1.0000000E-01; -4.0818098E+03;3; -1.0686864E+01;  0.0000000E+00; -9.3837851E-01;0;  1.7849897E-01;  3.9596641E+04;  0.0000000E+00;  6.5008402E-02;  4.0000000E+04;  0.0000000E+00;  4.0012270E+04;  2.1606220E-01;  0.0000000E+00; -3.7563231E-02;  1.9377097E+03;
  3.6262903E-01;  9.9999998E-03;  1.6994248E-01;4689;  3.2981968E-01;  0.0000000E+00; -1.0413708E-02;  9.9491272E+02;  1.0000000E-01; -4.2146948E+03;3; -1.0731885E+01;  0.0000000E+00; -1.1647789E+00;0;  2.2726618E-01;  3.9585176E+04;  0.0000000E+00;  9.3628518E-02;  4.0000000E+04;  0.0000000E+00;  4.0010988E+04;  2.6038975E-01;  0.0000000E+00; -3.3123564E-02;  1.7992024E+03;
  3.6272416E-01;  9.9999998E-03;  1.7993943E-01;4690;  3.2653928E-01;  0.0000000E+00; -1.1185034E-02;  9.9478827E+02;  1.0000000E-01; -4.3178032E+03;3; -1.0767357E+01;  0.0000000E+00; -1.3538241E+00;0;  2.7748239E-01;  3.9576094E+04;  0.0000000E+00;  1.2307405E-01;  4.0000000E+04;  0.0000000E+00;  4.0010352E+04;  3.0655402E-01;  0.0000000E+00; -2.9071625E-02;  1.7335646E+03;
  3.6282900E-01;  9.9999998E-03;  1.8993951E-01;4691;  3.2286710E-01;  0.0000000E+00; -1.1965225E-02;  9.9470923E+02;  1.0000000E-01; -4.3832827E+03;3; -1.0794234E+01;  0.0000000E+00; -1.5481530E+00;0;  3.2739449E-01;  3.9569832E+04;  0.0000000E+00;  1.4916092E-01;  4.0000000E+04;  0.0000000E+00;  4.0010555E+04;  3.5317314E-01;  0.0000000E+00; -2.5778646E-02;  1.7673795E+03;
  3.6294064E-01;  9.9999998E-03;  1.9994293E-01;4692;  3.1872633E-01;  0.0000000E+00; -1.2723161E-02;  9.9468176E+02;  1.0000000E-01; -4.4060474E+03;3; -9.9798689E+00;  0.0000000E+00; -2.0088542E+00;0;  3.7513909E-01;  3.9566938E+04;  0.0000000E+00;  1.6778105E-01;  4.0000000E+04;  0.0000000E+00;  4.0011590E+04;  3.9880446E-01;  0.0000000E+00; -2.3665357E-02;  1.9026101E+03;
  3.6305600E-01;  9.9999998E-03;  2.0994878E-01;4693;  3.1360924E-01;  0.0000000E+00; -1.3288181E-02;  9.9470789E+02;  1.0000000E-01; -4.3844185E+03;3; -7.6033635E+00;  0.0000000E+00; -3.0299129E+00;0;  4.1904646E-01;  3.9567457E+04;  0.0000000E+00;  1.7584011E-01;  4.0000000E+04;  0.0000000E+00;  4.0013242E+04;  4.4208381E-01;  0.0000000E+00; -2.3037331E-02;  2.1098379E+03;
  3.6316890E-01;  9.9999998E-03;  2.1995428E-01;4694;  3.0631328E-01;  0.0000000E+00; -1.3278574E-02;  9.9477734E+02;  1.0000000E-01; -4.3268892E+03;3; -3.7666650E+00;  0.0000000E+00; -4.2317958E+00;0;  4.5848191E-01;  3.9571172E+04;  0.0000000E+00;  1.7148975E-01;  4.0000000E+04;  0.0000000E+00;  4.0015273E+04;  4.8187172E-01;  0.0000000E+00; -2.3389826E-02;  2.3556880E+03;
  3.6327142E-01;  9.9999998E-03;  2.2995596E-01;4695;  2.9643455E-01;  0.0000000E+00; -1.2905566E-02;  9.9489252E+02;  1.0000000E-01; -4.2314351E+03;3; -1.8702687E+00;  0.0000000E+00; -4.4716301E+00;0;  4.9320534E-01;  3.9577871E+04;  0.0000000E+00;  1.5372492E-01;  4.0000000E+04;  0.0000000E+00;  4.0017863E+04;  5.1734442E-01;  0.0000000E+00; -2.4139073E-02;  2.6694377E+03;
  3.7221012E-01;  9.9999998E-03;  6.9986135E-02;4740;  3.4560591E-01;  0.0000000E+00; -4.0711607E-03;  9.9629211E+02;  1.0000000E-01; -3.0719126E+03;3; -6.8513780E+00;  0.0000000E+00; -7.2127652E-01;0; -6.0463775E-02;  3.9691371E+04;  0.0000000E+00; -3.2888318E-03;  4.0000000E+04;  0.0000000E+00;  4.0014570E+04; -1.3352808E-03;  0.0000000E+00; -5.9128493E-02;  2.1167405E+03;
  3.7223387E-01;  9.9999998E-03;  7.9984225E-02;4741;  3.4494936E-01;  0.0000000E+00; -4.6383445E-03;  9.9625208E+02;  1.0000000E-01; -3.1050969E+03;3; -7.3469262E+00;  0.0000000E+00; -7.1679497E-01;0; -5.6732200E-02;  3.9686863E+04;  0.0000000E+00; -4.0283264E-03;  4.0000000E+04;  0.0000000E+00;  4.0015906E+04;  2.3622788E-03;  0.0000000E+00; -5.9094477E-02;  2.2914204E+03;
  3.7226090E-01;  9.9999998E-03;  8.9981996E-02;4742;  3.4415114E-01;  0.0000000E+00; -5.2071116E-03;  9.9619159E+02;  1.0000000E-01; -3.1552190E+03;3; -7.9650221E+00;  0.0000000E+00; -6.9188869E-01;0; -5.0082233E-02;  3.9680660E+04;  0.0000000E+00; -4.1558943E-03;  4.0000000E+04;  0.0000000E+00;  4.0017199E+04;  8.6368546E-03;  0.0000000E+00; -5.8719087E-02;  2.4541853E+03;
  3.7229156E-01;  9.9999998E-03;  9.9979140E-02;4743;  3.4318891E-01;  0.0000000E+00; -5.7813106E-03;  9.9610907E+02;  1.0000000E-01; -3.2235627E+03;3; -8.5206165E+00;  0.0000000E+00; -6.2735069E-01;0; -3.9744727E-02;  3.9673074E+04;  0.0000000E+00; -3.0559036E-03;  4.0000000E+04;  0.0000000E+00;  4.0018168E+04;  1.8143201E-02;  0.0000000E+00; -5.7887927E-02;  2.5884373E+03;
  3.7232631E-01;  9.9999998E-03;  1.0997523E-01;4744;  3.4203601E-01;  0.0000000E+00; -6.3623171E-03;  9.9600293E+02;  1.0000000E-01; -3.3115107E+03;3; -9.0871181E+00;  0.0000000E+00; -5.6501383E-01;0; -2.5030434E-02;  3.9663867E+04;  0.0000000E+00;  8.1704886E-05;  4.0000000E+04;  0.0000000E+00;  4.0018879E+04;  3.1482611E-02;  0.0000000E+00; -5.6513045E-02;  2.6785090E+03;
  3.7236625E-01;  9.9999998E-03;  1.1997008E-01;4745;  3.4067136E-01;  0.0000000E+00; -6.9532054E-03;  9.9587317E+02;  1.0000000E-01; -3.4190139E+03;3; -9.5775414E+00;  0.0000000E+00; -5.1291037E-01;0; -5.3965151E-03;  3.9653297E+04;  0.0000000E+00;  6.2070247E-03;  4.0000000E+04;  0.0000000E+00;  4.0019012E+04;  4.9152814E-02;  0.0000000E+00; -5.4549329E-02;  2.7124851E+03;
  3.7241289E-01;  9.9999998E-03;  1.2996383E-01;4746;  3.3906135E-01;  0.0000000E+00; -7.5604138E-03;  9.9572174E+02;  1.0000000E-01; -3.5444424E+03;3; -1.0046772E+01;  0.0000000E+00; -4.8251966E-01;0;  1.9495603E-02;  3.9641609E+04;  0.0000000E+00;  1.6302876E-02;  4.0000000E+04;  0.0000000E+00;  4.0018691E+04;  7.1501531E-02;  0.0000000E+00; -5.2005928E-02;  2.6849070E+03;
  3.7246868E-01;  9.9999998E-03;  1.3995671E-01;4747;  3.3718070E-01;  0.0000000E+00; -8.1790620E-03;  9.9555597E+02;  1.0000000E-01; -3.6817720E+03;3; -1.0465196E+01;  0.0000000E+00; -4.9458149E-01;0;  4.9735457E-02;  3.9629348E+04;  0.0000000E+00;  3.1213026E-02;  4.0000000E+04;  0.0000000E+00;  4.0017891E+04;  9.8684110E-02;  0.0000000E+00; -4.8948653E-02;  2.5995051E+03;
  3.7253359E-01;  9.9999998E-03;  1.4994925E-01;4748;  3.3502296E-01;  0.0000000E+00; -8.8156452E-03;  9.9538879E+02;  1.0000000E-01; -3.8202864E+03;3; -1.0860735E+01;  0.0000000E+00; -5.1343620E-01;0;  8.5144304E-02;  3.9617125E+04;  0.0000000E+00;  5.1362220E-02;  4.0000000E+04;  0.0000000E+00;  4.0016738E+04;  1.3063963E-01;  0.0000000E+00; -4.5495324E-02;  2.4707156E+03;
  3.7260914E-01;  9.9999998E-03;  1.5994225E-01;4749;  3.3259305E-01;  0.0000000E+00; -9.4883628E-03;  9.9522760E+02;  1.0000000E-01; -3.9538628E+03;3; -1.1288377E+01;  0.0000000E+00; -5.0052255E-01;0;  1.2522453E-01;  3.9605625E+04;  0.0000000E+00;  7.6238543E-02;  4.0000000E+04;  0.0000000E+00;  4.0015438E+04;  1.6703425E-01;  0.0000000E+00; -4.1809727E-02;  2.3243328E+03;
  3.7269685E-01;  9.9999998E-03;  1.6993663E-01;4750;  3.2987708E-01;  0.0000000E+00; -1.0193104E-02;  9.9508917E+02;  1.0000000E-01; -4.0685264E+03;3; -1.1477077E+01;  0.0000000E+00; -6.6547519E-01;0;  1.6911921E-01;  3.9595949E+04;  0.0000000E+00;  1.0390898E-01;  4.0000000E+04;  0.0000000E+00;  4.0014328E+04;  2.0721675E-01;  0.0000000E+00; -3.8097542E-02;  2.1954146E+03;
  3.7279400E-01;  9.9999998E-03;  1.7993325E-01;4751;  3.2683766E-01;  0.0000000E+00; -1.0896935E-02;  9.9498688E+02;  1.0000000E-01; -4.1532646E+03;3; -1.1508238E+01;  0.0000000E+00; -8.7071133E-01;0;  2.1564791E-01;  3.9588535E+04;  0.0000000E+00;  1.3100407E-01;  4.0000000E+04;  0.0000000E+00;  4.0013621E+04;  2.5025082E-01;  0.0000000E+00; -3.4602903E-02;  2.1214326E+03;
  3.7289762E-01;  9.9999998E-03;  1.8993270E-01;4752;  3.2348222E-01;  0.0000000E+00; -1.1600179E-02;  9.9492877E+02;  1.0000000E-01; -4.2014116E+03;3; -1.1576489E+01;  0.0000000E+00; -1.0897962E+00;0;  2.6335490E-01;  3.9583977E+04;  0.0000000E+00;  1.5335855E-01;  4.0000000E+04;  0.0000000E+00;  4.0013594E+04;  2.9496789E-01;  0.0000000E+00; -3.1612989E-02;  2.1321011E+03;
  3.7300578E-01;  9.9999998E-03;  1.9993503E-01;4753;  3.1984368E-01;  0.0000000E+00; -1.2313141E-02;  9.9492023E+02;  1.0000000E-01; -4.2084731E+03;3; -1.1571539E+01;  0.0000000E+00; -1.3346808E+00;0;  3.1059295E-01;  3.9582605E+04;  0.0000000E+00;  1.6699733E-01;  4.0000000E+04;  0.0000000E+00;  4.0014422E+04;  3.4007329E-01;  0.0000000E+00; -2.9480327E-02;  2.2371758E+03;
  3.7311456E-01;  9.9999998E-03;  2.0993948E-01;4754;  3.1585234E-01;  0.0000000E+00; -1.3007497E-02;  9.9496313E+02;  1.0000000E-01; -4.1729678E+03;3; -1.0639143E+01;  0.0000000E+00; -1.8312203E+00;0;  3.5567230E-01;  3.9584535E+04;  0.0000000E+00;  1.6902213E-01;  4.0000000E+04;  0.0000000E+00;  4.0015961E+04;  3.8428864E-01;  0.0000000E+00; -2.8616333E-02;  2.4202080E+03;
  3.7321672E-01;  9.9999998E-03;  2.1994393E-01;4755;  3.1096414E-01;  0.0000000E+00; -1.3475951E-02;  9.9504755E+02;  1.0000000E-01; -4.1029946E+03;3; -7.9693179E+00;  0.0000000E+00; -3.0579348E+00;0;  3.9736781E-01;  3.9589430E+04;  0.0000000E+00;  1.5779780E-01;  4.0000000E+04;  0.0000000E+00;  4.0017879E+04;  4.2648211E-01;  0.0000000E+00; -2.9114308E-02;  2.6566362E+03;
  3.7330714E-01;  9.9999998E-03;  2.2994606E-01;4756;  3.0409423E-01;  0.0000000E+00; -1.3398897E-02;  9.9517218E+02;  1.0000000E-01; -3.9997380E+03;3; -3.9063799E+00;  0.0000000E+00; -4.3027658E+00;0;  4.3577603E-01;  3.9596910E+04;  0.0000000E+00;  1.3292055E-01;  4.0000000E+04;  0.0000000E+00;  4.0020348E+04;  4.6572068E-01;  0.0000000E+00; -2.9944658E-02;  2.9539172E+03;
  3.8226855E-01;  9.9999998E-03;  6.9985561E-02;4801;  3.4536287E-01;  0.0000000E+00; -4.2262343E-03;  9.9641107E+02;  1.0000000E-01; -2.9733474E+03;3; -7.3297009E+00;  0.0000000E+00; -5.6338573E-01;0; -6.2548615E-02;  3.9701191E+04;  0.0000000E+00; -3.4217518E-03;  4.0000000E+04;  0.0000000E+00;  4.0014129E+04; -3.8083587E-03;  0.0000000E+00; -5.8740254E-02;  2.0534939E+03;
  3.8229260E-01;  9.9999998E-03;  7.9983704E-02;4802;  3.4467816E-01;  0.0000000E+00; -4.8026005E-03;  9.9636774E+02;  1.0000000E-01; -3.0092476E+03;3; -7.8591237E+00;  0.0000000E+00; -4.9530476E-01;0; -6.1181739E-02;  3.9696109E+04;  0.0000000E+00; -3.7048208E-03;  4.0000000E+04;  0.0000000E+00;  4.0015641E+04; -2.7167336E-03;  0.0000000E+00; -5.8465004E-02;  2.2485532E+03;
  3.8232005E-01;  9.9999998E-03;  8.9981534E-02;4803;  3.4385431E-01;  0.0000000E+00; -5.3748772E-03;  9.9630530E+02;  1.0000000E-01; -3.0609993E+03;3; -8.5259085E+00;  0.0000000E+00; -4.1828194E-01;0; -5.7618495E-02;  3.9689695E+04;  0.0000000E+00; -3.0834512E-03;  4.0000000E+04;  0.0000000E+00;  4.0017129E+04;  3.4750981E-04;  0.0000000E+00; -5.7966005E-02;  2.4415552E+03;
  3.8235140E-01;  9.9999998E-03;  9.9978656E-02;4804;  3.4287032E-01;  0.0000000E+00; -5.9443498E-03;  9.9622290E+02;  1.0000000E-01; -3.1292441E+03;3; -9.1812544E+00;  0.0000000E+00; -3.0865490E-01;0; -5.1121704E-02;  3.9681828E+04;  0.0000000E+00; -8.9387578E-04;  4.0000000E+04;  0.0000000E+00;  4.0018520E+04;  6.0326410E-03;  0.0000000E+00; -5.7154346E-02;  2.6155029E+03;
  3.8238692E-01;  9.9999998E-03;  1.0997469E-01;4805;  3.4169796E-01;  0.0000000E+00; -6.5080393E-03;  9.9612109E+02;  1.0000000E-01; -3.2135874E+03;3; -9.7524767E+00;  0.0000000E+00; -1.7907435E-01;0; -4.0982097E-02;  3.9672613E+04;  0.0000000E+00;  3.6629236E-03;  4.0000000E+04;  0.0000000E+00;  4.0019574E+04;  1.4973635E-02;  0.0000000E+00; -5.5955730E-02;  2.7533098E+03;
  3.8242817E-01;  9.9999998E-03;  1.1996950E-01;4806;  3.4032813E-01;  0.0000000E+00; -7.0723291E-03;  9.9599988E+02;  1.0000000E-01; -3.3140291E+03;3; -1.0300109E+01;  0.0000000E+00; -5.9544895E-02;0; -2.6582357E-02;  3.9662246E+04;  0.0000000E+00;  1.1437436E-02;  4.0000000E+04;  0.0000000E+00;  4.0020152E+04;  2.7743272E-02;  0.0000000E+00; -5.4325629E-02;  2.8403818E+03;
  3.8247719E-01;  9.9999998E-03;  1.2996319E-01;4807;  3.3873606E-01;  0.0000000E+00; -7.6470096E-03;  9.9586121E+02;  1.0000000E-01; -3.4288899E+03;3; -1.0761520E+01;  0.0000000E+00;  1.3954345E-02;0; -7.4546710E-03;  3.9651055E+04;  0.0000000E+00;  2.3180852E-02;  4.0000000E+04;  0.0000000E+00;  4.0020266E+04;  4.4805672E-02;  0.0000000E+00; -5.2260343E-02;  2.8679075E+03;
  3.8253418E-01;  9.9999998E-03;  1.3995609E-01;4808;  3.3689308E-01;  0.0000000E+00; -8.2263602E-03;  9.9571149E+02;  1.0000000E-01; -3.5529358E+03;3; -1.1165356E+01;  0.0000000E+00;  4.3916829E-02;0;  1.6681373E-02;  3.9639566E+04;  0.0000000E+00;  3.9374057E-02;  4.0000000E+04;  0.0000000E+00;  4.0019906E+04;  6.6480316E-02;  0.0000000E+00; -4.9798943E-02;  2.8355239E+03;
  3.8260058E-01;  9.9999998E-03;  1.4994875E-01;4809;  3.3479184E-01;  0.0000000E+00; -8.8124899E-03;  9.9556073E+02;  1.0000000E-01; -3.6778704E+03;3; -1.1550888E+01;  0.0000000E+00;  5.7922706E-02;0;  4.5878988E-02;  3.9628320E+04;  0.0000000E+00;  6.0001239E-02;  4.0000000E+04;  0.0000000E+00;  4.0019074E+04;  9.2899024E-02;  0.0000000E+00; -4.7020037E-02;  2.7530981E+03;
  3.8267845E-01;  9.9999998E-03;  1.5994199E-01;4810;  3.3243963E-01;  0.0000000E+00; -9.4229393E-03;  9.9541907E+02;  1.0000000E-01; -3.7952004E+03;3; -1.1962764E+01;  0.0000000E+00;  8.1921130E-02;0;  7.9913802E-02;  3.9618078E+04;  0.0000000E+00;  8.4149167E-02;  4.0000000E+04;  0.0000000E+00;  4.0018129E+04;  1.2394939E-01;  0.0000000E+00; -4.4035584E-02;  2.6421094E+03;
  3.8276562E-01;  9.9999998E-03;  1.6993660E-01;4811;  3.2984751E-01;  0.0000000E+00; -1.0068620E-02;  9.9530023E+02;  1.0000000E-01; -3.8936667E+03;3; -1.2289908E+01;  0.0000000E+00;  4.3997861E-02;0;  1.1823869E-01;  3.9609613E+04;  0.0000000E+00;  1.0964086E-01;  4.0000000E+04;  0.0000000E+00;  4.0017117E+04;  1.5923205E-01;  0.0000000E+00; -4.0993355E-02;  2.5337815E+03;
  3.8285890E-01;  9.9999998E-03;  1.7993322E-01;4812;  3.2699615E-01;  0.0000000E+00; -1.0725677E-02;  9.9521265E+02;  1.0000000E-01; -3.9662080E+03;3; -1.2380521E+01;  0.0000000E+00; -1.4692464E-01;0;  1.5996750E-01;  3.9603328E+04;  0.0000000E+00;  1.3307670E-01;  4.0000000E+04;  0.0000000E+00;  4.0016488E+04;  1.9804646E-01;  0.0000000E+00; -3.8078960E-02;  2.4631162E+03;
  3.8295749E-01;  9.9999998E-03;  1.8993221E-01;4813;  3.2388157E-01;  0.0000000E+00; -1.1378630E-02;  9.9516693E+02;  1.0000000E-01; -4.0040835E+03;3; -1.2427617E+01;  0.0000000E+00; -3.6020362E-01;0;  2.0390414E-01;  3.9599836E+04;  0.0000000E+00;  1.5048891E-01;  4.0000000E+04;  0.0000000E+00;  4.0016418E+04;  2.3942377E-01;  0.0000000E+00; -3.5519626E-02;  2.4596084E+03;
  3.8305849E-01;  9.9999998E-03;  1.9993350E-01;4814;  3.2055014E-01;  0.0000000E+00; -1.2042642E-02;  9.9516937E+02;  1.0000000E-01; -4.0020588E+03;3; -1.2512453E+01;  0.0000000E+00; -5.9493917E-01;0;  2.4863671E-01;  3.9599434E+04;  0.0000000E+00;  1.5828402E-01;  4.0000000E+04;  0.0000000E+00;  4.0016992E+04;  2.8224054E-01;  0.0000000E+00; -3.3603832E-02;  2.5373640E+03;
  3.8315710E-01;  9.9999998E-03;  2.0993631E-01;4815;  3.1705144E-01;  0.0000000E+00; -1.2726140E-02;  9.9521613E+02;  1.0000000E-01; -3.9633438E+03;3; -1.2457554E+01;  0.0000000E+00; -9.0784830E-01;0;  2.9262549E-01;  3.9601949E+04;  0.0000000E+00;  1.5400338E-01;  4.0000000E+04;  0.0000000E+00;  4.0018281E+04;  3.2533902E-01;  0.0000000E+00; -3.2713544E-02;  2.6908726E+03;
  3.8324878E-01;  9.9999998E-03;  2.1993931E-01;4816;  3.1332019E-01;  0.0000000E+00; -1.3388771E-02;  9.9530463E+02;  1.0000000E-01; -3.8900125E+03;3; -1.1602003E+01;  0.0000000E+00; -1.5214633E+00;0;  3.3435231E-01;  3.9607094E+04;  0.0000000E+00;  1.3659301E-01;  4.0000000E+04;  0.0000000E+00;  4.0020062E+04;  3.6762840E-01;  0.0000000E+00; -3.3276085E-02;  2.9038818E+03;
  3.8332877E-01;  9.9999998E-03;  2.2994120E-01;4817;  3.0890405E-01;  0.0000000E+00; -1.3849069E-02;  9.9542694E+02;  1.0000000E-01; -3.7886821E+03;3; -9.0187407E+00;  0.0000000E+00; -2.7551117E+00;0;  3.7291923E-01;  3.9614703E+04;  0.0000000E+00;  1.0637002E-01;  4.0000000E+04;  0.0000000E+00;  4.0022309E+04;  4.0816519E-01;  0.0000000E+00; -3.5245955E-02;  3.1660469E+03;
  3.9232650E-01;  9.9999998E-03;  6.9987334E-02;4862;  3.4518650E-01;  0.0000000E+00; -4.3778201E-03;  9.9661243E+02;  1.0000000E-01; -2.8065374E+03;3; -7.9220309E+00;  0.0000000E+00; -2.7713564E-01;0; -6.2883958E-02;  3.9717543E+04;  0.0000000E+00; -2.9503030E-03;  4.0000000E+04;  0.0000000E+00;  4.0013699E+04; -4.8740823E-03;  0.0000000E+00; -5.8009878E-02;  1.9858722E+03;
  3.9235139E-01;  9.9999998E-03;  7.9985805E-02;4863;  3.4447092E-01;  0.0000000E+00; -4.9694679E-03;  9.9655878E+02;  1.0000000E-01; -2.8509805E+03;3; -8.5370121E+00;  0.0000000E+00; -1.5466291E-01;0; -6.3172080E-02;  3.9711695E+04;  0.0000000E+00; -2.7368744E-03;  4.0000000E+04;  0.0000000E+00;  4.0015340E+04; -5.7662171E-03;  0.0000000E+00; -5.7405859E-02;  2.1911953E+03;
  3.9237988E-01;  9.9999998E-03;  8.9983970E-02;4864;  3.4361666E-01;  0.0000000E+00; -5.5471798E-03;  9.9648932E+02;  1.0000000E-01; -2.9085098E+03;3; -9.2112207E+00;  0.0000000E+00; -1.4910504E-04;0; -6.1883118E-02;  3.9704449E+04;  0.0000000E+00; -1.4187434E-03;  4.0000000E+04;  0.0000000E+00;  4.0016980E+04; -5.2196472E-03;  0.0000000E+00; -5.6663472E-02;  2.4032068E+03;
  3.9241230E-01;  9.9999998E-03;  9.9981464E-02;4865;  3.4260070E-01;  0.0000000E+00; -6.1143218E-03;  9.9640417E+02;  1.0000000E-01; -2.9790757E+03;3; -9.9625063E+00;  0.0000000E+00;  1.6194087E-01;0; -5.8354206E-02;  3.9696008E+04;  0.0000000E+00;  1.6591337E-03;  4.0000000E+04;  0.0000000E+00;  4.0018555E+04; -2.6308938E-03;  0.0000000E+00; -5.5723313E-02;  2.6053872E+03;
  3.9244968E-01;  9.9999998E-03;  1.0997795E-01;4866;  3.4140468E-01;  0.0000000E+00; -6.6644703E-03;  9.9630133E+02;  1.0000000E-01; -3.0642583E+03;3; -1.0578820E+01;  0.0000000E+00;  3.6696357E-01;0; -5.1908419E-02;  3.9686391E+04;  0.0000000E+00;  7.2350162E-03;  4.0000000E+04;  0.0000000E+00;  4.0019941E+04;  2.6223313E-03;  0.0000000E+00; -5.4530751E-02;  2.7799739E+03;
  3.9249316E-01;  9.9999998E-03;  1.1997326E-01;4867;  3.4001485E-01;  0.0000000E+00; -7.2052875E-03;  9.9618140E+02;  1.0000000E-01; -3.1636628E+03;3; -1.1191013E+01;  0.0000000E+00;  5.5779064E-01;0; -4.1910585E-02;  3.9675977E+04;  0.0000000E+00;  1.6007574E-02;  4.0000000E+04;  0.0000000E+00;  4.0020770E+04;  1.1138976E-02;  0.0000000E+00; -5.3049561E-02;  2.9109424E+03;
  3.9254335E-01;  9.9999998E-03;  1.2996750E-01;4868;  3.3842558E-01;  0.0000000E+00; -7.7503761E-03;  9.9604944E+02;  1.0000000E-01; -3.2729438E+03;3; -1.1640068E+01;  0.0000000E+00;  7.0040733E-01;0; -2.7819021E-02;  3.9664891E+04;  0.0000000E+00;  2.8483612E-02;  4.0000000E+04;  0.0000000E+00;  4.0021285E+04;  2.3452250E-02;  0.0000000E+00; -5.1271271E-02;  2.9869583E+03;
  3.9260134E-01;  9.9999998E-03;  1.3996099E-01;4869;  3.3660269E-01;  0.0000000E+00; -8.2915248E-03;  9.9590991E+02;  1.0000000E-01; -3.3885454E+03;3; -1.2031795E+01;  0.0000000E+00;  7.7242470E-01;0; -9.2312917E-03;  3.9653812E+04;  0.0000000E+00;  4.4797979E-02;  4.0000000E+04;  0.0000000E+00;  4.0021398E+04;  3.9987393E-02;  0.0000000E+00; -4.9218684E-02;  3.0043879E+03;
  3.9266917E-01;  9.9999998E-03;  1.4995427E-01;4870;  3.3454499E-01;  0.0000000E+00; -8.8385558E-03;  9.9577161E+02;  1.0000000E-01; -3.5031594E+03;3; -1.2398004E+01;  0.0000000E+00;  8.1673294E-01;0;  1.4078315E-02;  3.9642969E+04;  0.0000000E+00;  6.4548276E-02;  4.0000000E+04;  0.0000000E+00;  4.0021008E+04;  6.1020263E-02;  0.0000000E+00; -4.6941947E-02;  2.9691826E+03;
  3.9274579E-01;  9.9999998E-03;  1.5994819E-01;4871;  3.3225656E-01;  0.0000000E+00; -9.3983170E-03;  9.9564392E+02;  1.0000000E-01; -3.6089341E+03;3; -1.2767507E+01;  0.0000000E+00;  8.6830956E-01;0;  4.2112559E-02;  3.9633539E+04;  0.0000000E+00;  8.6498648E-02;  4.0000000E+04;  0.0000000E+00;  4.0020289E+04;  8.6627670E-02;  0.0000000E+00; -4.4515111E-02;  2.8981646E+03;
  3.9282843E-01;  9.9999998E-03;  1.6994329E-01;4872;  3.2975066E-01;  0.0000000E+00; -9.9812867E-03;  9.9553479E+02;  1.0000000E-01; -3.6993513E+03;3; -1.3194345E+01;  0.0000000E+00;  9.3592495E-01;0;  7.4574322E-02;  3.9625613E+04;  0.0000000E+00;  1.0833269E-01;  4.0000000E+04;  0.0000000E+00;  4.0019629E+04;  1.1661713E-01;  0.0000000E+00; -4.2042803E-02;  2.8174880E+03;
  3.9291725E-01;  9.9999998E-03;  1.7994012E-01;4873;  3.2703823E-01;  0.0000000E+00; -1.0588117E-02;  9.9545721E+02;  1.0000000E-01; -3.7635964E+03;3; -1.3426091E+01;  0.0000000E+00;  8.8409263E-01;0;  1.1081673E-01;  3.9620055E+04;  0.0000000E+00;  1.2678525E-01;  4.0000000E+04;  0.0000000E+00;  4.0019008E+04;  1.5048403E-01;  0.0000000E+00; -3.9667290E-02;  2.7572141E+03;
  3.9300933E-01;  9.9999998E-03;  1.8993877E-01;4874;  3.2411861E-01;  0.0000000E+00; -1.1208451E-02;  9.9541821E+02;  1.0000000E-01; -3.7959412E+03;3; -1.3545733E+01;  0.0000000E+00;  7.4381942E-01;0;  1.4989081E-01;  3.9617086E+04;  0.0000000E+00;  1.3829142E-01;  4.0000000E+04;  0.0000000E+00;  4.0018871E+04;  1.8746619E-01;  0.0000000E+00; -3.7575386E-02;  2.7434705E+03;
  3.9310142E-01;  9.9999998E-03;  1.9993900E-01;4875;  3.2102725E-01;  0.0000000E+00; -1.1844089E-02;  9.9542041E+02;  1.0000000E-01; -3.7941140E+03;3; -1.3643486E+01;  0.0000000E+00;  5.5402160E-01;0;  1.9059877E-01;  3.9616762E+04;  0.0000000E+00;  1.3984522E-01;  4.0000000E+04;  0.0000000E+00;  4.0019258E+04;  2.2661184E-01;  0.0000000E+00; -3.6013067E-02;  2.7911111E+03;
  3.9319104E-01;  9.9999998E-03;  2.0994027E-01;4876;  3.1782731E-01;  0.0000000E+00; -1.2510078E-02;  9.9546368E+02;  1.0000000E-01; -3.7582632E+03;3; -1.3746539E+01;  0.0000000E+00;  3.2677627E-01;0;  2.3155162E-01;  3.9619230E+04;  0.0000000E+00;  1.2968479E-01;  4.0000000E+04;  0.0000000E+00;  4.0020137E+04;  2.6687959E-01;  0.0000000E+00; -3.5327967E-02;  2.8996516E+03;
  3.9327407E-01;  9.9999998E-03;  2.1994171E-01;4877;  3.1457821E-01;  0.0000000E+00; -1.3219007E-02;  9.9554254E+02;  1.0000000E-01; -3.6929316E+03;3; -1.3727964E+01;  0.0000000E+00; -2.2150576E-03;0;  2.7123305E-01;  3.9624121E+04;  0.0000000E+00;  1.0746694E-01;  4.0000000E+04;  0.0000000E+00;  4.0021504E+04;  3.0725506E-01;  0.0000000E+00; -3.6022007E-02;  3.0580293E+03;
  3.9334673E-01;  9.9999998E-03;  2.2994258E-01;4878;  3.1126788E-01;  0.0000000E+00; -1.3951320E-02;  9.9564905E+02;  1.0000000E-01; -3.6046873E+03;3; -1.3260083E+01;  0.0000000E+00; -6.1590278E-01;0;  3.0810708E-01;  3.9630887E+04;  0.0000000E+00;  7.4245624E-02;  4.0000000E+04;  0.0000000E+00;  4.0023160E+04;  3.4682104E-01;  0.0000000E+00; -3.8713947E-02;  3.2527791E+03;
  4.0237889E-01;  9.9999998E-03;  6.9991000E-02;4923;  3.4510726E-01;  0.0000000E+00; -4.5407470E-03;  9.9688409E+02;  1.0000000E-01; -2.5814573E+03;3; -8.8132668E+00;  0.0000000E+00;  2.0249416E-01;0; -6.2571242E-02;  3.9739098E+04;  0.0000000E+00; -1.8301551E-03;  4.0000000E+04;  0.0000000E+00;  4.0013473E+04; -5.6285542E-03;  0.0000000E+00; -5.6942686E-02;  1.9338474E+03;
  4.0240464E-01;  9.9999998E-03;  7.9990119E-02;4924;  3.4435061E-01;  0.0000000E+00; -5.1438622E-03;  9.9681677E+02;  1.0000000E-01; -2.6372581E+03;3; -9.4970064E+00;  0.0000000E+00;  4.0268576E-01;0; -6.3965492E-02;  3.9732215E+04;  0.0000000E+00; -1.0986974E-03;  4.0000000E+04;  0.0000000E+00;  4.0015168E+04; -7.9874936E-03;  0.0000000E+00; -5.5978000E-02;  2.1407522E+03;
  4.0243459E-01;  9.9999998E-03;  8.9988999E-02;4925;  3.4345397E-01;  0.0000000E+00; -5.7260287E-03;  9.9673749E+02;  1.0000000E-01; -2.7029353E+03;3; -1.0195363E+01;  0.0000000E+00;  6.4878386E-01;0; -6.4274341E-02;  3.9724059E+04;  0.0000000E+00;  8.1664999E-04;  4.0000000E+04;  0.0000000E+00;  4.0016852E+04; -9.3453368E-03;  0.0000000E+00; -5.4929003E-02;  2.3616602E+03;
  4.0246883E-01;  9.9999998E-03;  9.9987313E-02;4926;  3.4239751E-01;  0.0000000E+00; -6.2875776E-03;  9.9664111E+02;  1.0000000E-01; -2.7827849E+03;3; -1.0974698E+01;  0.0000000E+00;  8.9795649E-01;0; -6.2934630E-02;  3.9714875E+04;  0.0000000E+00;  4.5015798E-03;  4.0000000E+04;  0.0000000E+00;  4.0018453E+04; -9.1683418E-03;  0.0000000E+00; -5.3766288E-02;  2.5811763E+03;
  4.0250808E-01;  9.9999998E-03;  1.0998476E-01;4927;  3.4116092E-01;  0.0000000E+00; -6.8184840E-03;  9.9653333E+02;  1.0000000E-01; -2.8720662E+03;3; -1.1663234E+01;  0.0000000E+00;  1.1478882E+00;0; -5.9339792E-02;  3.9704535E+04;  0.0000000E+00;  1.0568582E-02;  4.0000000E+04;  0.0000000E+00;  4.0020070E+04; -6.8818945E-03;  0.0000000E+00; -5.2457899E-02;  2.7818088E+03;
  4.0255299E-01;  9.9999998E-03;  1.1998111E-01;4928;  3.3974090E-01;  0.0000000E+00; -7.3351786E-03;  9.9641168E+02;  1.0000000E-01; -2.9728535E+03;3; -1.2263021E+01;  0.0000000E+00;  1.4203081E+00;0; -5.2884951E-02;  3.9693609E+04;  0.0000000E+00;  1.9522259E-02;  4.0000000E+04;  0.0000000E+00;  4.0021234E+04; -1.9046988E-03;  0.0000000E+00; -5.0980251E-02;  2.9467856E+03;
  4.0260428E-01;  9.9999998E-03;  1.2997642E-01;4929;  3.3812955E-01;  0.0000000E+00; -7.8416197E-03;  9.9628137E+02;  1.0000000E-01; -3.0808010E+03;3; -1.2749223E+01;  0.0000000E+00;  1.6261939E+00;0; -4.3013319E-02;  3.9682332E+04;  0.0000000E+00;  3.1605881E-02;  4.0000000E+04;  0.0000000E+00;  4.0022094E+04;  6.3139121E-03;  0.0000000E+00; -4.9327232E-02;  3.0632302E+03;
  4.0266404E-01;  9.9999998E-03;  1.3997100E-01;4930;  3.3631307E-01;  0.0000000E+00; -8.3439937E-03;  9.9614630E+02;  1.0000000E-01; -3.1926992E+03;3; -1.3117883E+01;  0.0000000E+00;  1.7659402E+00;0; -2.9260062E-02;  3.9671180E+04;  0.0000000E+00;  4.6654113E-02;  4.0000000E+04;  0.0000000E+00;  4.0022496E+04;  1.8252574E-02;  0.0000000E+00; -4.7512636E-02;  3.1248572E+03;
  4.0273124E-01;  9.9999998E-03;  1.4996536E-01;4931;  3.3428109E-01;  0.0000000E+00; -8.8492036E-03;  9.9601538E+02;  1.0000000E-01; -3.3011899E+03;3; -1.3448917E+01;  0.0000000E+00;  1.8621911E+00;0; -1.1281662E-02;  3.9660621E+04;  0.0000000E+00;  6.3983075E-02;  4.0000000E+04;  0.0000000E+00;  4.0022469E+04;  3.4287084E-02;  0.0000000E+00; -4.5568746E-02;  3.1344102E+03;
  4.0280417E-01;  9.9999998E-03;  1.5996008E-01;4932;  3.3204028E-01;  0.0000000E+00; -9.3659405E-03;  9.9589270E+02;  1.0000000E-01; -3.4028167E+03;3; -1.3791698E+01;  0.0000000E+00;  1.9348463E+00;0;  1.1085000E-02;  3.9651266E+04;  0.0000000E+00;  8.2175046E-02;  4.0000000E+04;  0.0000000E+00;  4.0022102E+04;  5.4629162E-02;  0.0000000E+00; -4.3544162E-02;  3.1039192E+03;
  4.0288401E-01;  9.9999998E-03;  1.6995580E-01;4933;  3.2959822E-01;  0.0000000E+00; -9.8939333E-03;  9.9579272E+02;  1.0000000E-01; -3.4856289E+03;3; -1.4162102E+01;  0.0000000E+00;  1.9851816E+00;0;  3.7724685E-02;  3.9643711E+04;  0.0000000E+00;  9.8930173E-02;  4.0000000E+04;  0.0000000E+00;  4.0021590E+04;  7.9237804E-02;  0.0000000E+00; -4.1513119E-02;  3.0534192E+03;
  4.0296823E-01;  9.9999998E-03;  1.7995284E-01;4934;  3.2697377E-01;  0.0000000E+00; -1.0434759E-02;  9.9571771E+02;  1.0000000E-01; -3.5478000E+03;3; -1.4488502E+01;  0.0000000E+00;  1.9823048E+00;0;  6.8212546E-02;  3.9638238E+04;  0.0000000E+00;  1.1129557E-01;  4.0000000E+04;  0.0000000E+00;  4.0021148E+04;  1.0779717E-01;  0.0000000E+00; -3.9584622E-02;  3.0061746E+03;
  4.0305501E-01;  9.9999998E-03;  1.8995124E-01;4935;  3.2418010E-01;  0.0000000E+00; -1.0986608E-02;  9.9567847E+02;  1.0000000E-01; -3.5802930E+03;3; -1.4760612E+01;  0.0000000E+00;  1.9857155E+00;0;  1.0181259E-01;  3.9635148E+04;  0.0000000E+00;  1.1629748E-01;  4.0000000E+04;  0.0000000E+00;  4.0020965E+04;  1.3972041E-01;  0.0000000E+00; -3.7907820E-02;  2.9821824E+03;
  4.0314147E-01;  9.9999998E-03;  1.9995068E-01;4936;  3.2125682E-01;  0.0000000E+00; -1.1567017E-02;  9.9567285E+02;  1.0000000E-01; -3.5849841E+03;3; -1.4992256E+01;  0.0000000E+00;  1.9872023E+00;0;  1.3752070E-01;  3.9634609E+04;  0.0000000E+00;  1.1170945E-01;  4.0000000E+04;  0.0000000E+00;  4.0021051E+04;  1.7421627E-01;  0.0000000E+00; -3.6695570E-02;  2.9924634E+03;
  4.0322497E-01;  9.9999998E-03;  2.0995073E-01;4937;  3.1825882E-01;  0.0000000E+00; -1.2184578E-02;  9.9570178E+02;  1.0000000E-01; -3.5609849E+03;3; -1.5244237E+01;  0.0000000E+00;  1.9286819E+00;0;  1.7412448E-01;  3.9636445E+04;  0.0000000E+00;  9.6549384E-02;  4.0000000E+04;  0.0000000E+00;  4.0021441E+04;  2.1037436E-01;  0.0000000E+00; -3.6249880E-02;  3.0359048E+03;
  4.0330246E-01;  9.9999998E-03;  2.1995078E-01;4938;  3.1527153E-01;  0.0000000E+00; -1.2878121E-02;  9.9576038E+02;  1.0000000E-01; -3.5124431E+03;3; -1.5542244E+01;  0.0000000E+00;  1.8671294E+00;0;  2.1018814E-01;  3.9640285E+04;  0.0000000E+00;  7.1202062E-02;  4.0000000E+04;  0.0000000E+00;  4.0022039E+04;  2.4726605E-01;  0.0000000E+00; -3.7077919E-02;  3.1025664E+03;
  4.0337047E-01;  9.9999998E-03;  2.2995009E-01;4939;  3.1237119E-01;  0.0000000E+00; -1.3678917E-02;  9.9584167E+02;  1.0000000E-01; -3.4450869E+03;3; -1.5826688E+01;  0.0000000E+00;  1.7062972E+00;0;  2.4402833E-01;  3.9645902E+04;  0.0000000E+00;  3.7328001E-02;  4.0000000E+04;  0.0000000E+00;  4.0022758E+04;  2.8402266E-01;  0.0000000E+00; -3.9994325E-02;  3.1862937E+03;
  4.1242024E-01;  9.9999998E-03;  6.9996104E-02;4984;  3.4515989E-01;  0.0000000E+00; -4.7237445E-03;  9.9720148E+02;  1.0000000E-01; -2.3185015E+03;3; -1.0364924E+01;  0.0000000E+00;  1.0289090E+00;0; -6.2423997E-02;  3.9764105E+04;  0.0000000E+00; -1.9416935E-04;  4.0000000E+04;  0.0000000E+00;  4.0013598E+04; -6.9232858E-03;  0.0000000E+00; -5.5500712E-02;  1.9215093E+03;
  4.1244730E-01;  9.9999998E-03;  7.9996079E-02;4985;  3.4434310E-01;  0.0000000E+00; -5.3326874E-03;  9.9711975E+02;  1.0000000E-01; -2.3862527E+03;3; -1.1080974E+01;  0.0000000E+00;  1.4013699E+00;0; -6.4516321E-02;  3.9756047E+04;  0.0000000E+00;  1.0150877E-03;  4.0000000E+04;  0.0000000E+00;  4.0015074E+04; -1.0323111E-02;  0.0000000E+00; -5.4193210E-02;  2.1224626E+03;
  4.1247833E-01;  9.9999998E-03;  8.9995980E-02;4986;  3.4338200E-01;  0.0000000E+00; -5.9103826E-03;  9.9702576E+02;  1.0000000E-01; -2.4641270E+03;3; -1.1745835E+01;  0.0000000E+00;  1.6776893E+00;0; -6.5887153E-02;  3.9746855E+04;  0.0000000E+00;  3.3586049E-03;  4.0000000E+04;  0.0000000E+00;  4.0016902E+04; -1.3058550E-02;  0.0000000E+00; -5.2828606E-02;  2.3431938E+03;
  4.1251442E-01;  9.9999998E-03;  9.9995449E-02;4987;  3.4226009E-01;  0.0000000E+00; -6.4506866E-03;  9.9691833E+02;  1.0000000E-01; -2.5531121E+03;3; -1.2455593E+01;  0.0000000E+00;  2.0262094E+00;0; -6.6080265E-02;  3.9736520E+04;  0.0000000E+00;  7.2989762E-03;  4.0000000E+04;  0.0000000E+00;  4.0018562E+04; -1.4676253E-02;  0.0000000E+00; -5.1404011E-02;  2.5697112E+03;
  4.1255510E-01;  9.9999998E-03;  1.0999414E-01;4988;  3.4096736E-01;  0.0000000E+00; -6.9599468E-03;  9.9680103E+02;  1.0000000E-01; -2.6502944E+03;3; -1.3123914E+01;  0.0000000E+00;  2.3095772E+00;0; -6.4582169E-02;  3.9725391E+04;  0.0000000E+00;  1.3268667E-02;  4.0000000E+04;  0.0000000E+00;  4.0020246E+04; -1.4672578E-02;  0.0000000E+00; -4.9909588E-02;  2.7855222E+03;
  4.1260141E-01;  9.9999998E-03;  1.1999177E-01;4989;  3.3949843E-01;  0.0000000E+00; -7.4401312E-03;  9.9667383E+02;  1.0000000E-01; -2.7556741E+03;3; -1.3668283E+01;  0.0000000E+00;  2.6243482E+00;0; -6.0854249E-02;  3.9713777E+04;  0.0000000E+00;  2.1540746E-02;  4.0000000E+04;  0.0000000E+00;  4.0021602E+04; -1.2517953E-02;  0.0000000E+00; -4.8336294E-02;  2.9738630E+03;
  4.1265517E-01;  9.9999998E-03;  1.2998837E-01;4990;  3.3784512E-01;  0.0000000E+00; -7.8989333E-03;  9.9653967E+02;  1.0000000E-01; -2.8668313E+03;3; -1.4137238E+01;  0.0000000E+00;  2.8448067E+00;0; -5.4371435E-02;  3.9702125E+04;  0.0000000E+00;  3.2100148E-02;  4.0000000E+04;  0.0000000E+00;  4.0022742E+04; -7.6876474E-03;  0.0000000E+00; -4.6683788E-02;  3.1208381E+03;
  4.1271511E-01;  9.9999998E-03;  1.3998422E-01;4991;  3.3600810E-01;  0.0000000E+00; -8.3465828E-03;  9.9640558E+02;  1.0000000E-01; -2.9778899E+03;3; -1.4470201E+01;  0.0000000E+00;  3.0170326E+00;0; -4.4653952E-02;  3.9690664E+04;  0.0000000E+00;  4.4543404E-02;  4.0000000E+04;  0.0000000E+00;  4.0023355E+04;  3.0962899E-04;  0.0000000E+00; -4.4963580E-02;  3.2185452E+03;
  4.1278115E-01;  9.9999998E-03;  1.4997970E-01;4992;  3.3397874E-01;  0.0000000E+00; -8.7942388E-03;  9.9627649E+02;  1.0000000E-01; -3.0848499E+03;3; -1.4752159E+01;  0.0000000E+00;  3.1671138E+00;0; -3.1304382E-02;  3.9680023E+04;  0.0000000E+00;  5.8032852E-02;  4.0000000E+04;  0.0000000E+00;  4.0023648E+04;  1.1893688E-02;  0.0000000E+00; -4.3198068E-02;  3.2666904E+03;
  4.1285396E-01;  9.9999998E-03;  1.5997535E-01;4993;  3.3175787E-01;  0.0000000E+00; -9.2470292E-03;  9.9615649E+02;  1.0000000E-01; -3.1842544E+03;3; -1.5037218E+01;  0.0000000E+00;  3.2825184E+00;0; -1.4065677E-02;  3.9670578E+04;  0.0000000E+00;  7.1120299E-02;  4.0000000E+04;  0.0000000E+00;  4.0023668E+04;  2.7354291E-02;  0.0000000E+00; -4.1419968E-02;  3.2726770E+03;
  4.1293222E-01;  9.9999998E-03;  1.6997167E-01;4994;  3.2935774E-01;  0.0000000E+00; -9.7122071E-03;  9.9605780E+02;  1.0000000E-01; -3.2660298E+03;3; -1.5356425E+01;  0.0000000E+00;  3.3874795E+00;0;  7.0922673E-03;  3.9662797E+04;  0.0000000E+00;  8.1691168E-02;  4.0000000E+04;  0.0000000E+00;  4.0023363E+04;  4.6777096E-02;  0.0000000E+00; -3.9684828E-02;  3.2500007E+03;
  4.1301480E-01;  9.9999998E-03;  1.7996895E-01;4995;  3.2679591E-01;  0.0000000E+00; -1.0191454E-02;  9.9598499E+02;  1.0000000E-01; -3.3263738E+03;3; -1.5693065E+01;  0.0000000E+00;  3.4492972E+00;0;  3.1912643E-02;  3.9657152E+04;  0.0000000E+00;  8.7266609E-02;  4.0000000E+04;  0.0000000E+00;  4.0023035E+04;  6.9990560E-02;  0.0000000E+00; -3.8077917E-02;  3.2141130E+03;
  4.1309920E-01;  9.9999998E-03;  1.8996717E-01;4996;  3.2409295E-01;  0.0000000E+00; -1.0684725E-02;  9.9593951E+02;  1.0000000E-01; -3.3640518E+03;3; -1.5962586E+01;  0.0000000E+00;  3.4445958E+00;0;  5.9846710E-02;  3.9653766E+04;  0.0000000E+00;  8.5623145E-02;  4.0000000E+04;  0.0000000E+00;  4.0022680E+04;  9.6568145E-02;  0.0000000E+00; -3.6721434E-02;  3.1771333E+03;
  4.1318336E-01;  9.9999998E-03;  1.9996618E-01;4997;  3.2128173E-01;  0.0000000E+00; -1.1200061E-02;  9.9592267E+02;  1.0000000E-01; -3.3779773E+03;3; -1.6211903E+01;  0.0000000E+00;  3.4216099E+00;0;  9.0078153E-02;  3.9652672E+04;  0.0000000E+00;  7.5383946E-02;  4.0000000E+04;  0.0000000E+00;  4.0022410E+04;  1.2586744E-01;  0.0000000E+00; -3.5789289E-02;  3.1422410E+03;
  4.1326457E-01;  9.9999998E-03;  2.0996559E-01;4998;  3.1841278E-01;  0.0000000E+00; -1.1750724E-02;  9.9593402E+02;  1.0000000E-01; -3.3685947E+03;3; -1.6534204E+01;  0.0000000E+00;  3.4007847E+00;0;  1.2157112E-01;  3.9653652E+04;  0.0000000E+00;  5.6380283E-02;  4.0000000E+04;  0.0000000E+00;  4.0022168E+04;  1.5710951E-01;  0.0000000E+00; -3.5538390E-02;  3.1015447E+03;
  4.1334030E-01;  9.9999998E-03;  2.1996470E-01;4999;  3.1555593E-01;  0.0000000E+00; -1.2365040E-02;  9.9596613E+02;  1.0000000E-01; -3.3419783E+03;3; -1.6891516E+01;  0.0000000E+00;  3.3576038E+00;0;  1.5307547E-01;  3.9656441E+04;  0.0000000E+00;  2.9570885E-02;  4.0000000E+04;  0.0000000E+00;  4.0021645E+04;  1.8946066E-01;  0.0000000E+00; -3.6385190E-02;  3.0414653E+03;
  4.1340834E-01;  9.9999998E-03;  2.2996248E-01;5000;  3.1278580E-01;  0.0000000E+00; -1.3075198E-02;  9.9601379E+02;  1.0000000E-01; -3.3024731E+03;3; -1.7322657E+01;  0.0000000E+00;  3.3933806E+00;0;  1.8307695E-01;  3.9660785E+04;  0.0000000E+00; -3.0877485E-03;  4.0000000E+04;  0.0000000E+00;  4.0021117E+04;  2.2210965E-01;  0.0000000E+00; -3.9032690E-02;  2.9660237E+03;
  4.2244646E-01;  9.9999998E-03;  7.0001826E-02;5045;  3.4536612E-01;  0.0000000E+00; -4.9263616E-03;  9.9753717E+02;  1.0000000E-01; -2.0403860E+03;3; -1.2995985E+01;  0.0000000E+00;  2.4819305E+00;0; -6.3017420E-02;  3.9789848E+04;  0.0000000E+00;  1.6505511E-03;  4.0000000E+04;  0.0000000E+00;  4.0014203E+04; -9.3931546E-03;  0.0000000E+00; -5.3624265E-02;  1.9736742E+03;
  4.2247412E-01;  9.9999998E-03;  8.0002740E-02;5046;  3.4445190E-01;  0.0000000E+00; -5.5237943E-03;  9.9743799E+02;  1.0000000E-01; -2.1225564E+03;3; -1.3633952E+01;  0.0000000E+00;  2.9602947E+00;0; -6.5508448E-02;  3.9780504E+04;  0.0000000E+00;  3.2145511E-03;  4.0000000E+04;  0.0000000E+00;  4.0015723E+04; -1.3473979E-02;  0.0000000E+00; -5.2034467E-02;  2.1620503E+03;
  4.2250699E-01;  9.9999998E-03;  9.0003647E-02;5047;  3.4339130E-01;  0.0000000E+00; -6.0768798E-03;  9.9732928E+02;  1.0000000E-01; -2.2126279E+03;3; -1.4210644E+01;  0.0000000E+00;  3.3917527E+00;0; -6.7529798E-02;  3.9770172E+04;  0.0000000E+00;  5.7413913E-03;  4.0000000E+04;  0.0000000E+00;  4.0017277E+04; -1.7137030E-02;  0.0000000E+00; -5.0392769E-02;  2.3741169E+03;
  4.2254412E-01;  9.9999998E-03;  1.0000428E-01;5048;  3.4217900E-01;  0.0000000E+00; -6.5889936E-03;  9.9720923E+02;  1.0000000E-01; -2.3120818E+03;3; -1.4726921E+01;  0.0000000E+00;  3.7282331E+00;0; -6.8725072E-02;  3.9758871E+04;  0.0000000E+00;  9.5295403E-03;  4.0000000E+04;  0.0000000E+00;  4.0018969E+04; -2.0007936E-02;  0.0000000E+00; -4.8717137E-02;  2.5977263E+03;
  4.2258689E-01;  9.9999998E-03;  1.1000416E-01;5049;  3.4080511E-01;  0.0000000E+00; -7.0569925E-03;  9.9708008E+02;  1.0000000E-01; -2.4190911E+03;3; -1.5160539E+01;  0.0000000E+00;  4.0279531E+00;0; -6.8681262E-02;  3.9746930E+04;  0.0000000E+00;  1.4801506E-02;  4.0000000E+04;  0.0000000E+00;  4.0020680E+04; -2.1665258E-02;  0.0000000E+00; -4.7016002E-02;  2.8176108E+03;
  4.2263636E-01;  9.9999998E-03;  1.2000296E-01;5050;  3.3926627E-01;  0.0000000E+00; -7.4892570E-03;  9.9694440E+02;  1.0000000E-01; -2.5315325E+03;3; -1.5512069E+01;  0.0000000E+00;  4.2702808E+00;0; -6.6947095E-02;  3.9734609E+04;  0.0000000E+00;  2.1587025E-02;  4.0000000E+04;  0.0000000E+00;  4.0022160E+04; -2.1653004E-02;  0.0000000E+00; -4.5294091E-02;  3.0175693E+03;
  4.2269158E-01;  9.9999998E-03;  1.3000064E-01;5051;  3.3755523E-01;  0.0000000E+00; -7.8927763E-03;  9.9680585E+02;  1.0000000E-01; -2.6462944E+03;3; -1.5835629E+01;  0.0000000E+00;  4.4557753E+00;0; -6.3058078E-02;  3.9722305E+04;  0.0000000E+00;  2.9638745E-02;  4.0000000E+04;  0.0000000E+00;  4.0023379E+04; -1.9498963E-02;  0.0000000E+00; -4.3559115E-02;  3.1835706E+03;
  4.2275295E-01;  9.9999998E-03;  1.3999750E-01;5052;  3.3567607E-01;  0.0000000E+00; -8.2775317E-03;  9.9667163E+02;  1.0000000E-01; -2.7575012E+03;3; -1.6053028E+01;  0.0000000E+00;  4.5663495E+00;0; -5.6566037E-02;  3.9710582E+04;  0.0000000E+00;  3.8392212E-02;  4.0000000E+04;  0.0000000E+00;  4.0024254E+04; -1.4742647E-02;  0.0000000E+00; -4.1823391E-02;  3.3062395E+03;
  4.2282107E-01;  9.9999998E-03;  1.4999397E-01;5053;  3.3362296E-01;  0.0000000E+00; -8.6522773E-03;  9.9654211E+02;  1.0000000E-01; -2.8648069E+03;3; -1.6211721E+01;  0.0000000E+00;  4.6555629E+00;0; -4.7069687E-02;  3.9699680E+04;  0.0000000E+00;  4.6969820E-02;  4.0000000E+04;  0.0000000E+00;  4.0024793E+04; -6.9647799E-03;  0.0000000E+00; -4.0104907E-02;  3.3829778E+03;
  4.2289534E-01;  9.9999998E-03;  1.5999039E-01;5054;  3.3139896E-01;  0.0000000E+00; -9.0271290E-03;  9.9642438E+02;  1.0000000E-01; -2.9623350E+03;3; -1.6366980E+01;  0.0000000E+00;  4.7125001E+00;0; -3.4264535E-02;  3.9690117E+04;  0.0000000E+00;  5.4034069E-02;  4.0000000E+04;  0.0000000E+00;  4.0025000E+04;  4.1662445E-03;  0.0000000E+00; -3.8430780E-02;  3.4170183E+03;
  4.2297477E-01;  9.9999998E-03;  1.6998719E-01;5055;  3.2900888E-01;  0.0000000E+00; -9.4045224E-03;  9.9632568E+02;  1.0000000E-01; -3.0441104E+03;3; -1.6561874E+01;  0.0000000E+00;  4.7709370E+00;0; -1.8028004E-02;  3.9682207E+04;  0.0000000E+00;  5.7799533E-02;  4.0000000E+04;  0.0000000E+00;  4.0024883E+04;  1.8816860E-02;  0.0000000E+00; -3.6844864E-02;  3.4155046E+03;
  4.2305815E-01;  9.9999998E-03;  1.7998466E-01;5056;  3.2646936E-01;  0.0000000E+00; -9.7876908E-03;  9.9624890E+02;  1.0000000E-01; -3.1077134E+03;3; -1.6808428E+01;  0.0000000E+00;  4.8185859E+00;0;  1.5182495E-03;  3.9676293E+04;  0.0000000E+00;  5.6397859E-02;  4.0000000E+04;  0.0000000E+00;  4.0024613E+04;  3.6931165E-02;  0.0000000E+00; -3.5412915E-02;  3.3861917E+03;
  4.2314377E-01;  9.9999998E-03;  1.8998285E-01;5057;  3.2380348E-01;  0.0000000E+00; -1.0181091E-02;  9.9619775E+02;  1.0000000E-01; -3.1500825E+03;3; -1.7047028E+01;  0.0000000E+00;  4.8399553E+00;0;  2.3989037E-02;  3.9672484E+04;  0.0000000E+00;  4.8429899E-02;  4.0000000E+04;  0.0000000E+00;  4.0024184E+04;  5.8216102E-02;  0.0000000E+00; -3.4227066E-02;  3.3326941E+03;
  4.2322922E-01;  9.9999998E-03;  1.9998156E-01;5058;  3.2104638E-01;  0.0000000E+00; -1.0593297E-02;  9.9616919E+02;  1.0000000E-01; -3.1737361E+03;3; -1.7294464E+01;  0.0000000E+00;  4.8485923E+00;0;  4.8754297E-02;  3.9670770E+04;  0.0000000E+00;  3.3395849E-02;  4.0000000E+04;  0.0000000E+00;  4.0023430E+04;  8.2170106E-02;  0.0000000E+00; -3.3415809E-02;  3.2500032E+03;
  4.2331260E-01;  9.9999998E-03;  2.0998035E-01;5059;  3.1824088E-01;  0.0000000E+00; -1.1036848E-02;  9.9616083E+02;  1.0000000E-01; -3.1806990E+03;3; -1.7638525E+01;  0.0000000E+00;  4.8802209E+00;0;  7.4969068E-02;  3.9670969E+04;  0.0000000E+00;  1.1817647E-02;  4.0000000E+04;  0.0000000E+00;  4.0022438E+04;  1.0813884E-01;  0.0000000E+00; -3.3169772E-02;  3.1230569E+03;
  4.2339194E-01;  9.9999998E-03;  2.1997850E-01;5060;  3.1545809E-01;  0.0000000E+00; -1.1551441E-02;  9.9616663E+02;  1.0000000E-01; -3.1758596E+03;3; -1.8043507E+01;  0.0000000E+00;  4.9793916E+00;0;  1.0155624E-01;  3.9672832E+04;  0.0000000E+00; -1.5002218E-02;  4.0000000E+04;  0.0000000E+00;  4.0020961E+04;  1.3539249E-01;  0.0000000E+00; -3.3836249E-02;  2.9353162E+03;
  4.2346588E-01;  9.9999998E-03;  2.2997482E-01;5061;  3.1275642E-01;  0.0000000E+00; -1.2170751E-02;  9.9618518E+02;  1.0000000E-01; -3.1605020E+03;3; -1.8609936E+01;  0.0000000E+00;  5.1804390E+00;0;  1.2716433E-01;  3.9675977E+04;  0.0000000E+00; -4.5279428E-02;  4.0000000E+04;  0.0000000E+00;  4.0019125E+04;  1.6319451E-01;  0.0000000E+00; -3.6030177E-02;  2.6973909E+03;
  4.3245560E-01;  9.9999998E-03;  7.0006527E-02;5106;  3.4568971E-01;  0.0000000E+00; -5.1012612E-03;  9.9784967E+02;  1.0000000E-01; -1.7815291E+03;3; -1.7771147E+01;  0.0000000E+00;  5.1275086E+00;0; -6.4695284E-02;  3.9813188E+04;  0.0000000E+00;  3.2821053E-03;  4.0000000E+04;  0.0000000E+00;  4.0015574E+04; -1.3446607E-02;  0.0000000E+00; -5.1248677E-02;  2.1113140E+03;
  4.3248475E-01;  9.9999998E-03;  8.0008171E-02;5107;  3.4462523E-01;  0.0000000E+00; -5.6597823E-03;  9.9773608E+02;  1.0000000E-01; -1.8756005E+03;3; -1.7825886E+01;  0.0000000E+00;  5.6054630E+00;0; -6.7365974E-02;  3.9802871E+04;  0.0000000E+00;  4.9845958E-03;  4.0000000E+04;  0.0000000E+00;  4.0016805E+04; -1.7894834E-02;  0.0000000E+00; -4.9471144E-02;  2.2811060E+03;
  4.3251884E-01;  9.9999998E-03;  9.0009846E-02;5108;  3.4342873E-01;  0.0000000E+00; -6.1730263E-03;  9.9761139E+02;  1.0000000E-01; -1.9789061E+03;3; -1.7860460E+01;  0.0000000E+00;  5.9153385E+00;0; -6.9729842E-02;  3.9791441E+04;  0.0000000E+00;  7.3750285E-03;  4.0000000E+04;  0.0000000E+00;  4.0018305E+04; -2.2099167E-02;  0.0000000E+00; -4.7630675E-02;  2.4765752E+03;
  4.3255907E-01;  9.9999998E-03;  1.0001127E-01;5109;  3.4209567E-01;  0.0000000E+00; -6.6363881E-03;  9.9747949E+02;  1.0000000E-01; -2.0881870E+03;3; -1.7874575E+01;  0.0000000E+00;  6.1911025E+00;0; -7.1515664E-02;  3.9779273E+04;  0.0000000E+00;  1.0573275E-02;  4.0000000E+04;  0.0000000E+00;  4.0019941E+04; -2.5758242E-02;  0.0000000E+00; -4.5757424E-02;  2.6873682E+03;
  4.3260524E-01;  9.9999998E-03;  1.1001197E-01;5110;  3.4062380E-01;  0.0000000E+00; -7.0564211E-03;  9.9733990E+02;  1.0000000E-01; -2.2038379E+03;3; -1.7766693E+01;  0.0000000E+00;  6.2975492E+00;0; -7.2404124E-02;  3.9766559E+04;  0.0000000E+00;  1.4585070E-02;  4.0000000E+04;  0.0000000E+00;  4.0021461E+04; -2.8530834E-02;  0.0000000E+00; -4.3873288E-02;  2.8998384E+03;
  4.3265721E-01;  9.9999998E-03;  1.2001149E-01;5111;  3.3900091E-01;  0.0000000E+00; -7.4341735E-03;  9.9719788E+02;  1.0000000E-01; -2.3215134E+03;3; -1.7759298E+01;  0.0000000E+00;  6.3860412E+00;0; -7.2035387E-02;  3.9753656E+04;  0.0000000E+00;  1.9210741E-02;  4.0000000E+04;  0.0000000E+00;  4.0022980E+04; -3.0041106E-02;  0.0000000E+00; -4.1994277E-02;  3.0988850E+03;
  4.3271574E-01;  9.9999998E-03;  1.3000984E-01;5112;  3.3722222E-01;  0.0000000E+00; -7.7779540E-03;  9.9705554E+02;  1.0000000E-01; -2.4394360E+03;3; -1.7763107E+01;  0.0000000E+00;  6.3956981E+00;0; -7.0025496E-02;  3.9741047E+04;  0.0000000E+00;  2.4024161E-02;  4.0000000E+04;  0.0000000E+00;  4.0024262E+04; -2.9890858E-02;  0.0000000E+00; -4.0134639E-02;  3.2705186E+03;
  4.3278080E-01;  9.9999998E-03;  1.4000730E-01;5113;  3.3528584E-01;  0.0000000E+00; -8.0933860E-03;  9.9691760E+02;  1.0000000E-01; -2.5537043E+03;3; -1.7797009E+01;  0.0000000E+00;  6.3818660E+00;0; -6.5985359E-02;  3.9728965E+04;  0.0000000E+00;  2.8370094E-02;  4.0000000E+04;  0.0000000E+00;  4.0025176E+04; -2.7675556E-02;  0.0000000E+00; -3.8309801E-02;  3.4046155E+03;
  4.3285209E-01;  9.9999998E-03;  1.5000421E-01;5114;  3.3319440E-01;  0.0000000E+00; -8.3913486E-03;  9.9678888E+02;  1.0000000E-01; -2.6603679E+03;3; -1.7756094E+01;  0.0000000E+00;  6.3344817E+00;0; -5.9545666E-02;  3.9718004E+04;  0.0000000E+00;  3.1432085E-02;  4.0000000E+04;  0.0000000E+00;  4.0025859E+04; -2.3006981E-02;  0.0000000E+00; -3.6538683E-02;  3.4967893E+03;
  4.3292969E-01;  9.9999998E-03;  1.6000099E-01;5115;  3.3094671E-01;  0.0000000E+00; -8.6778011E-03;  9.9667365E+02;  1.0000000E-01; -2.7558220E+03;3; -1.7737858E+01;  0.0000000E+00;  6.2758646E+00;0; -5.0400410E-02;  3.9708336E+04;  0.0000000E+00;  3.2091588E-02;  4.0000000E+04;  0.0000000E+00;  4.0026191E+04; -1.5552051E-02;  0.0000000E+00; -3.4848358E-02;  3.5467637E+03;
  4.3301260E-01;  9.9999998E-03;  1.6999801E-01;5116;  3.2854787E-01;  0.0000000E+00; -8.9574242E-03;  9.9657581E+02;  1.0000000E-01; -2.8368567E+03;3; -1.7772997E+01;  0.0000000E+00;  6.2460346E+00;0; -3.8377505E-02;  3.9700508E+04;  0.0000000E+00;  2.8996710E-02;  4.0000000E+04;  0.0000000E+00;  4.0026176E+04; -5.0989613E-03;  0.0000000E+00; -3.3278544E-02;  3.5564944E+03;
  4.3309954E-01;  9.9999998E-03;  1.7999543E-01;5117;  3.2601258E-01;  0.0000000E+00; -9.2372065E-03;  9.9649817E+02;  1.0000000E-01; -2.9012007E+03;3; -1.7858597E+01;  0.0000000E+00;  6.2074194E+00;0; -2.3500867E-02;  3.9694590E+04;  0.0000000E+00;  2.0965319E-02;  4.0000000E+04;  0.0000000E+00;  4.0025914E+04;  8.3807595E-03;  0.0000000E+00; -3.1881627E-02;  3.5275630E+03;
  4.3318880E-01;  9.9999998E-03;  1.8999325E-01;5118;  3.2336175E-01;  0.0000000E+00; -9.5196087E-03;  9.9644220E+02;  1.0000000E-01; -2.9475696E+03;3; -1.7999716E+01;  0.0000000E+00;  6.1820512E+00;0; -6.0154945E-03;  3.9690543E+04;  0.0000000E+00;  7.4501890E-03;  4.0000000E+04;  0.0000000E+00;  4.0025316E+04;  2.4707042E-02;  0.0000000E+00; -3.0722536E-02;  3.4574082E+03;
  4.3327844E-01;  9.9999998E-03;  1.9999127E-01;5119;  3.2063177E-01;  0.0000000E+00; -9.8198811E-03;  9.9640613E+02;  1.0000000E-01; -2.9774453E+03;3; -1.8181288E+01;  0.0000000E+00;  6.2018542E+00;0;  1.3613643E-02;  3.9688512E+04;  0.0000000E+00; -1.1240392E-02;  4.0000000E+04;  0.0000000E+00;  4.0024301E+04;  4.3503091E-02;  0.0000000E+00; -2.9889448E-02;  3.3359597E+03;
  4.3336681E-01;  9.9999998E-03;  2.0998901E-01;5120;  3.1786293E-01;  0.0000000E+00; -1.0154216E-02;  9.9638538E+02;  1.0000000E-01; -2.9946299E+03;3; -1.8428970E+01;  0.0000000E+00;  6.1979551E+00;0;  3.4725845E-02;  3.9688211E+04;  0.0000000E+00; -3.4047402E-02;  4.0000000E+04;  0.0000000E+00;  4.0022707E+04;  6.4239018E-02;  0.0000000E+00; -2.9513175E-02;  3.1465593E+03;
  4.3345192E-01;  9.9999998E-03;  2.1998568E-01;5121;  3.1511128E-01;  0.0000000E+00; -1.0551704E-02;  9.9637482E+02;  1.0000000E-01; -3.0033706E+03;3; -1.8754179E+01;  0.0000000E+00;  6.2346973E+00;0;  5.6458145E-02;  3.9689414E+04;  0.0000000E+00; -5.9538968E-02;  4.0000000E+04;  0.0000000E+00;  4.0020602E+04;  8.6298473E-02;  0.0000000E+00; -2.9840328E-02;  2.8770562E+03;
  4.3353185E-01;  9.9999998E-03;  2.2998013E-01;5122;  3.1243452E-01;  0.0000000E+00; -1.1049959E-02;  9.9637463E+02;  1.0000000E-01; -3.0035681E+03;3; -1.9116104E+01;  0.0000000E+00;  6.2639456E+00;0;  7.7692747E-02;  3.9691859E+04;  0.0000000E+00; -8.6238831E-02;  4.0000000E+04;  0.0000000E+00;  4.0017902E+04;  1.0904314E-01;  0.0000000E+00; -3.1350389E-02;  2.5513765E+03;
  4.4245249E-01;  9.9999998E-03;  7.0007920E-02;5167;  3.4594113E-01;  0.0000000E+00; -5.0953468E-03;  9.9810736E+02;  1.0000000E-01; -1.5680042E+03;3; -2.4309862E+01;  0.0000000E+00;  8.3023062E+00;0; -6.7565247E-02;  3.9831379E+04;  0.0000000E+00;  4.2328937E-03;  4.0000000E+04;  0.0000000E+00;  4.0017574E+04; -1.9250993E-02;  0.0000000E+00; -4.8314255E-02;  2.3470205E+03;
  4.4248357E-01;  9.9999998E-03;  8.0009848E-02;5168;  3.4471053E-01;  0.0000000E+00; -5.6051281E-03;  9.9797949E+02;  1.0000000E-01; -1.6739271E+03;3; -2.3105587E+01;  0.0000000E+00;  8.7554712E+00;0; -7.0261016E-02;  3.9820145E+04;  0.0000000E+00;  5.7835290E-03;  4.0000000E+04;  0.0000000E+00;  4.0018684E+04; -2.3791678E-02;  0.0000000E+00; -4.6469335E-02;  2.4925776E+03;
  4.4252044E-01;  9.9999998E-03;  9.0011828E-02;5169;  3.4336838E-01;  0.0000000E+00; -6.0713664E-03;  9.9784235E+02;  1.0000000E-01; -1.7875535E+03;3; -2.2181044E+01;  0.0000000E+00;  8.8670034E+00;0; -7.2748870E-02;  3.9807938E+04;  0.0000000E+00;  7.6778769E-03;  4.0000000E+04;  0.0000000E+00;  4.0019918E+04; -2.8210407E-02;  0.0000000E+00; -4.4538464E-02;  2.6637864E+03;
  4.4256347E-01;  9.9999998E-03;  1.0001344E-01;5170;  3.4192118E-01;  0.0000000E+00; -6.4918287E-03;  9.9769916E+02;  1.0000000E-01; -1.9062167E+03;3; -2.1327036E+01;  0.0000000E+00;  8.9304581E+00;0; -7.4822217E-02;  3.9795168E+04;  0.0000000E+00;  9.8602138E-03;  4.0000000E+04;  0.0000000E+00;  4.0021348E+04; -3.2265898E-02;  0.0000000E+00; -4.2556323E-02;  2.8521648E+03;
  4.4261289E-01;  9.9999998E-03;  1.1001422E-01;5171;  3.4035218E-01;  0.0000000E+00; -6.8729422E-03;  9.9755310E+02;  1.0000000E-01; -2.0272008E+03;3; -2.0600355E+01;  0.0000000E+00;  8.8374224E+00;0; -7.6240599E-02;  3.9781914E+04;  0.0000000E+00;  1.2136033E-02;  4.0000000E+04;  0.0000000E+00;  4.0022754E+04; -3.5689667E-02;  0.0000000E+00; -4.0550932E-02;  3.0456594E+03;
  4.4266883E-01;  9.9999998E-03;  1.2001390E-01;5172;  3.3865136E-01;  0.0000000E+00; -7.2122253E-03;  9.9740637E+02;  1.0000000E-01; -2.1487776E+03;3; -2.0157795E+01;  0.0000000E+00;  8.6673784E+00;0; -7.6729797E-02;  3.9768852E+04;  0.0000000E+00;  1.4128716E-02;  4.0000000E+04;  0.0000000E+00;  4.0024160E+04; -3.8185108E-02;  0.0000000E+00; -3.8544688E-02;  3.2305188E+03;
  4.4273114E-01;  9.9999998E-03;  1.3001248E-01;5173;  3.3680695E-01;  0.0000000E+00; -7.5104469E-03;  9.9726025E+02;  1.0000000E-01; -2.2698110E+03;3; -1.9815079E+01;  0.0000000E+00;  8.4852304E+00;0; -7.5988859E-02;  3.9756145E+04;  0.0000000E+00;  1.5277312E-02;  4.0000000E+04;  0.0000000E+00;  4.0025379E+04; -3.9431378E-02;  0.0000000E+00; -3.6557484E-02;  3.3933853E+03;
  4.4280082E-01;  9.9999998E-03;  1.4001015E-01;5174;  3.3481470E-01;  0.0000000E+00; -7.7707423E-03;  9.9712433E+02;  1.0000000E-01; -2.3824500E+03;3; -1.9535580E+01;  0.0000000E+00;  8.2612553E+00;0; -7.3703349E-02;  3.9744180E+04;  0.0000000E+00;  1.4918647E-02;  4.0000000E+04;  0.0000000E+00;  4.0026340E+04; -3.9095148E-02;  0.0000000E+00; -3.4608200E-02;  3.5238140E+03;
  4.4287702E-01;  9.9999998E-03;  1.5000705E-01;5175;  3.3267659E-01;  0.0000000E+00; -7.9993419E-03;  9.9699890E+02;  1.0000000E-01; -2.4863481E+03;3; -1.9311108E+01;  0.0000000E+00;  8.0544014E+00;0; -6.9560759E-02;  3.9733336E+04;  0.0000000E+00;  1.2368076E-02;  4.0000000E+04;  0.0000000E+00;  4.0026945E+04; -3.6841899E-02;  0.0000000E+00; -3.2718860E-02;  3.6161045E+03;
  4.4295910E-01;  9.9999998E-03;  1.6000362E-01;5176;  3.3039725E-01;  0.0000000E+00; -8.2042916E-03;  9.9688586E+02;  1.0000000E-01; -2.5800244E+03;3; -1.9107704E+01;  0.0000000E+00;  7.8556728E+00;0; -6.3286401E-02;  3.9723984E+04;  0.0000000E+00;  6.7979642E-03;  4.0000000E+04;  0.0000000E+00;  4.0027297E+04; -3.2364260E-02;  0.0000000E+00; -3.0922139E-02;  3.6675710E+03;
  4.4304657E-01;  9.9999998E-03;  1.7000024E-01;5177;  3.2797968E-01;  0.0000000E+00; -8.3907405E-03;  9.9679199E+02;  1.0000000E-01; -2.6577505E+03;3; -1.8972933E+01;  0.0000000E+00;  7.6660376E+00;0; -5.4696776E-02;  3.9716410E+04;  0.0000000E+00; -2.6492500E-03;  4.0000000E+04;  0.0000000E+00;  4.0027305E+04; -2.5437027E-02;  0.0000000E+00; -2.9259747E-02;  3.6768962E+03;
  4.4313830E-01;  9.9999998E-03;  1.7999703E-01;5178;  3.2543585E-01;  0.0000000E+00; -8.5649304E-03;  9.9671759E+02;  1.0000000E-01; -2.7194277E+03;3; -1.8874348E+01;  0.0000000E+00;  7.5092778E+00;0; -4.3752842E-02;  3.9710707E+04;  0.0000000E+00; -1.6445531E-02;  4.0000000E+04;  0.0000000E+00;  4.0026887E+04; -1.5975699E-02;  0.0000000E+00; -2.7777145E-02;  3.6423535E+03;
  4.4323263E-01;  9.9999998E-03;  1.8999390E-01;5179;  3.2278642E-01;  0.0000000E+00; -8.7360153E-03;  9.9666272E+02;  1.0000000E-01; -2.7648586E+03;3; -1.8837603E+01;  0.0000000E+00;  7.3647203E+00;0; -3.0589150E-02;  3.9706988E+04;  0.0000000E+00; -3.4337990E-02;  4.0000000E+04;  0.0000000E+00;  4.0026238E+04; -4.0707137E-03;  0.0000000E+00; -2.6518436E-02;  3.5594587E+03;
  4.4332734E-01;  9.9999998E-03;  1.9999063E-01;5180;  3.2006210E-01;  0.0000000E+00; -8.9148795E-03;  9.9662543E+02;  1.0000000E-01; -2.7957712E+03;3; -1.8872585E+01;  0.0000000E+00;  7.2528791E+00;0; -1.5515678E-02;  3.9704930E+04;  0.0000000E+00; -5.5320986E-02;  4.0000000E+04;  0.0000000E+00;  4.0025078E+04;  1.0013692E-02;  0.0000000E+00; -2.5529370E-02;  3.4193394E+03;
  4.4342020E-01;  9.9999998E-03;  2.0998685E-01;5181;  3.1730402E-01;  0.0000000E+00; -9.1213444E-03;  9.9660095E+02;  1.0000000E-01; -2.8160669E+03;3; -1.8981646E+01;  0.0000000E+00;  7.1718307E+00;0;  9.9279173E-04;  3.9704625E+04;  0.0000000E+00; -7.7932082E-02;  4.0000000E+04;  0.0000000E+00;  4.0023371E+04;  2.5870690E-02;  0.0000000E+00; -2.4877898E-02;  3.2102500E+03;
  4.4350916E-01;  9.9999998E-03;  2.1998195E-01;5182;  3.1456351E-01;  0.0000000E+00; -9.3858885E-03;  9.9658887E+02;  1.0000000E-01; -2.8260420E+03;3; -1.9176487E+01;  0.0000000E+00;  7.1172380E+00;0;  1.8287057E-02;  3.9705773E+04;  0.0000000E+00; -1.0070331E-01;  4.0000000E+04;  0.0000000E+00;  4.0021094E+04;  4.3001294E-02;  0.0000000E+00; -2.4714237E-02;  2.9281970E+03;
  4.4359273E-01;  9.9999998E-03;  2.2997509E-01;5183;  3.1189087E-01;  0.0000000E+00; -9.7401617E-03;  9.9658496E+02;  1.0000000E-01; -2.8293013E+03;3; -1.9429857E+01;  0.0000000E+00;  7.0940342E+00;0;  3.5496980E-02;  3.9707973E+04;  0.0000000E+00; -1.2235343E-01;  4.0000000E+04;  0.0000000E+00;  4.0018469E+04;  6.0870748E-02;  0.0000000E+00; -2.5373768E-02;  2.6032664E+03;
  4.5244846E-01;  9.9999998E-03;  7.0003971E-02;5228;  3.4585011E-01;  0.0000000E+00; -4.7451509E-03;  9.9827582E+02;  1.0000000E-01; -1.4284526E+03;3; -2.7745718E+01;  0.0000000E+00;  9.3949785E+00;0; -7.1526214E-02;  3.9841824E+04;  0.0000000E+00;  4.0991036E-03;  4.0000000E+04;  0.0000000E+00;  4.0020379E+04; -2.6756400E-02;  0.0000000E+00; -4.4769812E-02;  2.6811387E+03;
  4.5248023E-01;  9.9999998E-03;  8.0005459E-02;5229;  3.4452906E-01;  0.0000000E+00; -5.2308422E-03;  9.9813782E+02;  1.0000000E-01; -1.5427704E+03;3; -2.6168985E+01;  0.0000000E+00;  1.0011768E+01;0; -7.4151054E-02;  3.9829906E+04;  0.0000000E+00;  5.1798713E-03;  4.0000000E+04;  0.0000000E+00;  4.0021242E+04; -3.1154582E-02;  0.0000000E+00; -4.2996474E-02;  2.7974468E+03;
  4.5251885E-01;  9.9999998E-03;  9.0006977E-02;5230;  3.4310099E-01;  0.0000000E+00; -5.6735869E-03;  9.9799188E+02;  1.0000000E-01; -1.6637052E+03;3; -2.4867214E+01;  0.0000000E+00;  1.0352038E+01;0; -7.6621816E-02;  3.9817398E+04;  0.0000000E+00;  6.2268977E-03;  4.0000000E+04;  0.0000000E+00;  4.0022246E+04; -3.5515886E-02;  0.0000000E+00; -4.1105926E-02;  2.9373779E+03;
  4.5256427E-01;  9.9999998E-03;  1.0000809E-01;5231;  3.4157813E-01;  0.0000000E+00; -6.0763508E-03;  9.9784344E+02;  1.0000000E-01; -1.7866646E+03;3; -2.3603628E+01;  0.0000000E+00;  1.0507988E+01;0; -7.8776985E-02;  3.9804230E+04;  0.0000000E+00;  7.0358394E-03;  4.0000000E+04;  0.0000000E+00;  4.0023371E+04; -3.9647754E-02;  0.0000000E+00; -3.9129227E-02;  3.0940552E+03;
  4.5261657E-01;  9.9999998E-03;  1.1000838E-01;5232;  3.3993647E-01;  0.0000000E+00; -6.4418488E-03;  9.9769263E+02;  1.0000000E-01; -1.9115992E+03;3; -2.2793753E+01;  0.0000000E+00;  1.0493827E+01;0; -8.0436528E-02;  3.9791098E+04;  0.0000000E+00;  7.2540557E-03;  4.0000000E+04;  0.0000000E+00;  4.0024508E+04; -4.3342754E-02;  0.0000000E+00; -3.7093770E-02;  3.2573457E+03;
  4.5267630E-01;  9.9999998E-03;  1.2000774E-01;5233;  3.3817255E-01;  0.0000000E+00; -6.7681167E-03;  9.9754468E+02;  1.0000000E-01; -2.0341636E+03;3; -2.2118027E+01;  0.0000000E+00;  1.0378588E+01;0; -8.1398055E-02;  3.9778117E+04;  0.0000000E+00;  6.3786423E-03;  4.0000000E+04;  0.0000000E+00;  4.0025742E+04; -4.6374537E-02;  0.0000000E+00; -3.5023518E-02;  3.4149634E+03;
  4.5274350E-01;  9.9999998E-03;  1.3000593E-01;5234;  3.3627898E-01;  0.0000000E+00; -7.0506553E-03;  9.9740198E+02;  1.0000000E-01; -2.1524319E+03;3; -2.1543337E+01;  0.0000000E+00;  1.0145881E+01;0; -8.1437714E-02;  3.9765715E+04;  0.0000000E+00;  3.7851678E-03;  4.0000000E+04;  0.0000000E+00;  4.0026746E+04; -4.8496839E-02;  0.0000000E+00; -3.2940876E-02;  3.5546021E+03;
  4.5281768E-01;  9.9999998E-03;  1.4000309E-01;5235;  3.3424664E-01;  0.0000000E+00; -7.2848839E-03;  9.9727112E+02;  1.0000000E-01; -2.2608237E+03;3; -2.1026791E+01;  0.0000000E+00;  9.8572702E+00;0; -8.0315977E-02;  3.9754316E+04;  0.0000000E+00; -1.1425832E-03;  4.0000000E+04;  0.0000000E+00;  4.0027547E+04; -4.9447957E-02;  0.0000000E+00; -3.0868022E-02;  3.6659651E+03;
  4.5289844E-01;  9.9999998E-03;  1.4999953E-01;5236;  3.3207110E-01;  0.0000000E+00; -7.4706739E-03;  9.9715100E+02;  1.0000000E-01; -2.3603271E+03;3; -2.0624701E+01;  0.0000000E+00;  9.5757284E+00;0; -7.7789865E-02;  3.9744176E+04;  0.0000000E+00; -8.9066289E-03;  4.0000000E+04;  0.0000000E+00;  4.0028098E+04; -4.8958633E-02;  0.0000000E+00; -2.8831234E-02;  3.7425874E+03;
  4.5298555E-01;  9.9999998E-03;  1.5999554E-01;5237;  3.2975671E-01;  0.0000000E+00; -7.6152082E-03;  9.9704425E+02;  1.0000000E-01; -2.4487690E+03;3; -2.0361742E+01;  0.0000000E+00;  9.2991352E+00;0; -7.3639259E-02;  3.9735602E+04;  0.0000000E+00; -2.0009244E-02;  4.0000000E+04;  0.0000000E+00;  4.0028262E+04; -4.6767946E-02;  0.0000000E+00; -2.6871314E-02;  3.7806196E+03;
  4.5307833E-01;  9.9999998E-03;  1.6999133E-01;5238;  3.2731530E-01;  0.0000000E+00; -7.7250018E-03;  9.9696057E+02;  1.0000000E-01; -2.5181003E+03;3; -2.0088350E+01;  0.0000000E+00;  9.0031710E+00;0; -6.7700185E-02;  3.9728684E+04;  0.0000000E+00; -3.4796223E-02;  4.0000000E+04;  0.0000000E+00;  4.0028133E+04; -4.2661965E-02;  0.0000000E+00; -2.5038220E-02;  3.7778206E+03;
  4.5317531E-01;  9.9999998E-03;  1.7998689E-01;5239;  3.2475737E-01;  0.0000000E+00; -7.8066899E-03;  9.9689276E+02;  1.0000000E-01; -2.5742961E+03;3; -1.9824070E+01;  0.0000000E+00;  8.7179413E+00;0; -5.9903286E-02;  3.9723664E+04;  0.0000000E+00; -5.3061735E-02;  4.0000000E+04;  0.0000000E+00;  4.0027805E+04; -3.6525555E-02;  0.0000000E+00; -2.3377731E-02;  3.7328928E+03;
  4.5327473E-01;  9.9999998E-03;  1.8998232E-01;5240;  3.2209930E-01;  0.0000000E+00; -7.8704292E-03;  9.9684399E+02;  1.0000000E-01; -2.6146902E+03;3; -1.9646608E+01;  0.0000000E+00;  8.4730072E+00;0; -5.0301738E-02;  3.9720465E+04;  0.0000000E+00; -7.3851556E-02;  4.0000000E+04;  0.0000000E+00;  4.0026973E+04; -2.8380932E-02;  0.0000000E+00; -2.1920808E-02;  3.6444463E+03;
  4.5337456E-01;  9.9999998E-03;  1.9997750E-01;5241;  3.1937110E-01;  0.0000000E+00; -7.9321023E-03;  9.9681250E+02;  1.0000000E-01; -2.6407634E+03;3; -1.9536999E+01;  0.0000000E+00;  8.2537298E+00;0; -3.9078627E-02;  3.9719000E+04;  0.0000000E+00; -9.5618129E-02;  4.0000000E+04;  0.0000000E+00;  4.0025973E+04; -1.8397300E-02;  0.0000000E+00; -2.0681327E-02;  3.5100984E+03;
  4.5347288E-01;  9.9999998E-03;  2.0997220E-01;5242;  3.1661230E-01;  0.0000000E+00; -8.0130212E-03;  9.9679700E+02;  1.0000000E-01; -2.6536025E+03;3; -1.9503637E+01;  0.0000000E+00;  8.0761347E+00;0; -2.6544530E-02;  3.9719098E+04;  0.0000000E+00; -1.1666911E-01;  4.0000000E+04;  0.0000000E+00;  4.0024469E+04; -6.8722013E-03;  0.0000000E+00; -1.9672329E-02;  3.3285789E+03;
  4.5356753E-01;  9.9999998E-03;  2.1996617E-01;5243;  3.1387275E-01;  0.0000000E+00; -8.1416229E-03;  9.9679352E+02;  1.0000000E-01; -2.6565161E+03;3; -1.9531540E+01;  0.0000000E+00;  7.9224429E+00;0; -1.3146586E-02;  3.9720473E+04;  0.0000000E+00; -1.3557942E-01;  4.0000000E+04;  0.0000000E+00;  4.0022684E+04;  5.8083246E-03;  0.0000000E+00; -1.8954910E-02;  3.1053938E+03;
  4.5365661E-01;  9.9999998E-03;  2.2995882E-01;5244;  3.1120872E-01;  0.0000000E+00; -8.3560478E-03;  9.9680377E+02;  1.0000000E-01; -2.6480225E+03;3; -1.9656464E+01;  0.0000000E+00;  7.7957740E+00;0;  4.6058744E-04;  3.9723020E+04;  0.0000000E+00; -1.5124361E-01;  4.0000000E+04;  0.0000000E+00;  4.0020840E+04;  1.9216377E-02;  0.0000000E+00; -1.8755790E-02;  2.8734006E+03;
  4.6245354E-01;  9.9999998E-03;  6.9994107E-02;5289;  3.4554297E-01;  0.0000000E+00; -4.1866270E-03;  9.9833301E+02;  1.0000000E-01; -1.3810465E+03;3; -2.8841324E+01;  0.0000000E+00;  8.9815006E+00;0; -7.6345302E-02;  3.9842816E+04;  0.0000000E+00;  2.6655127E-03;  4.0000000E+04;  0.0000000E+00;  4.0023758E+04; -3.5765011E-02;  0.0000000E+00; -4.0580291E-02;  3.1002432E+03;
  4.6248555E-01;  9.9999998E-03;  7.9994239E-02;5290;  3.4416050E-01;  0.0000000E+00; -4.6352791E-03;  9.9819012E+02;  1.0000000E-01; -1.4994629E+03;3; -2.7208790E+01;  0.0000000E+00;  9.7032700E+00;0; -7.8850985E-02;  3.9830762E+04;  0.0000000E+00;  2.9739388E-03;  4.0000000E+04;  0.0000000E+00;  4.0024285E+04; -3.9824262E-02;  0.0000000E+00; -3.9026726E-02;  3.1829790E+03;
  4.6252435E-01;  9.9999998E-03;  8.9994453E-02;5291;  3.4267896E-01;  0.0000000E+00; -5.0528231E-03;  9.9803973E+02;  1.0000000E-01; -1.6240519E+03;3; -2.5773054E+01;  0.0000000E+00;  1.0157750E+01;0; -8.1226647E-02;  3.9818207E+04;  0.0000000E+00;  2.8964060E-03;  4.0000000E+04;  0.0000000E+00;  4.0025008E+04; -4.3906320E-02;  0.0000000E+00; -3.7320331E-02;  3.2854006E+03;
  4.6257064E-01;  9.9999998E-03;  9.9994414E-02;5292;  3.4108537E-01;  0.0000000E+00; -5.4370267E-03;  9.9788934E+02;  1.0000000E-01; -1.7486409E+03;3; -2.4758711E+01;  0.0000000E+00;  1.0475474E+01;0; -8.3339244E-02;  3.9805332E+04;  0.0000000E+00;  2.1130748E-03;  4.0000000E+04;  0.0000000E+00;  4.0025805E+04; -4.7858875E-02;  0.0000000E+00; -3.5480373E-02;  3.4022405E+03;
  4.6262497E-01;  9.9999998E-03;  1.0999378E-01;5293;  3.3938688E-01;  0.0000000E+00; -5.7903775E-03;  9.9774109E+02;  1.0000000E-01; -1.8714521E+03;3; -2.3930710E+01;  0.0000000E+00;  1.0760133E+01;0; -8.5050531E-02;  3.9792508E+04;  0.0000000E+00;  1.6345186E-04;  4.0000000E+04;  0.0000000E+00;  4.0026703E+04; -5.1523451E-02;  0.0000000E+00; -3.3527080E-02;  3.5251851E+03;
  4.6268719E-01;  9.9999998E-03;  1.1999216E-01;5294;  3.3757526E-01;  0.0000000E+00; -6.1152889E-03;  9.9759729E+02;  1.0000000E-01; -1.9906091E+03;3; -2.3208956E+01;  0.0000000E+00;  1.0839664E+01;0; -8.6212471E-02;  3.9780250E+04;  0.0000000E+00; -3.5277081E-03;  4.0000000E+04;  0.0000000E+00;  4.0027609E+04; -5.4731034E-02;  0.0000000E+00; -3.1481434E-02;  3.6437788E+03;
  4.6275786E-01;  9.9999998E-03;  1.2998953E-01;5295;  3.3563784E-01;  0.0000000E+00; -6.3964319E-03;  9.9746252E+02;  1.0000000E-01; -2.1022603E+03;3; -2.2616150E+01;  0.0000000E+00;  1.0827583E+01;0; -8.6665496E-02;  3.9768715E+04;  0.0000000E+00; -9.5799053E-03;  4.0000000E+04;  0.0000000E+00;  4.0028273E+04; -5.7300609E-02;  0.0000000E+00; -2.9364886E-02;  3.7469941E+03;
  4.6283627E-01;  9.9999998E-03;  1.3998590E-01;5296;  3.3357236E-01;  0.0000000E+00; -6.6286437E-03;  9.9733850E+02;  1.0000000E-01; -2.2050227E+03;3; -2.2117233E+01;  0.0000000E+00;  1.0732880E+01;0; -8.6239107E-02;  3.9758309E+04;  0.0000000E+00; -1.8518513E-02;  4.0000000E+04;  0.0000000E+00;  4.0028887E+04; -5.9037589E-02;  0.0000000E+00; -2.7201518E-02;  3.8252546E+03;
  4.6292186E-01;  9.9999998E-03;  1.4998132E-01;5297;  3.3137554E-01;  0.0000000E+00; -6.8076742E-03;  9.9722870E+02;  1.0000000E-01; -2.2959832E+03;3; -2.1681469E+01;  0.0000000E+00;  1.0576160E+01;0; -8.4760003E-02;  3.9749332E+04;  0.0000000E+00; -3.0644048E-02;  4.0000000E+04;  0.0000000E+00;  4.0029191E+04; -5.9738543E-02;  0.0000000E+00; -2.5021462E-02;  3.8718730E+03;
  4.6301427E-01;  9.9999998E-03;  1.5997615E-01;5298;  3.2904798E-01;  0.0000000E+00; -6.9336686E-03;  9.9713831E+02;  1.0000000E-01; -2.3708452E+03;3; -2.1258858E+01;  0.0000000E+00;  1.0350936E+01;0; -8.2073487E-02;  3.9741914E+04;  0.0000000E+00; -4.6132557E-02;  4.0000000E+04;  0.0000000E+00;  4.0029094E+04; -5.9197940E-02;  0.0000000E+00; -2.2875546E-02;  3.8831790E+03;
  4.6311256E-01;  9.9999998E-03;  1.6997062E-01;5299;  3.2659525E-01;  0.0000000E+00; -7.0092101E-03;  9.9706403E+02;  1.0000000E-01; -2.4323738E+03;3; -2.0930897E+01;  0.0000000E+00;  1.0125154E+01;0; -7.8058466E-02;  3.9736223E+04;  0.0000000E+00; -6.4837523E-02;  4.0000000E+04;  0.0000000E+00;  4.0028938E+04; -5.7231102E-02;  0.0000000E+00; -2.0827362E-02;  3.8584355E+03;
  4.6321553E-01;  9.9999998E-03;  1.7996497E-01;5300;  3.2403180E-01;  0.0000000E+00; -7.0421365E-03;  9.9700781E+02;  1.0000000E-01; -2.4789897E+03;3; -2.0623856E+01;  0.0000000E+00;  9.8586941E+00;0; -7.2649792E-02;  3.9732188E+04;  0.0000000E+00; -8.5959665E-02;  4.0000000E+04;  0.0000000E+00;  4.0028344E+04; -5.3715531E-02;  0.0000000E+00; -1.8934259E-02;  3.8000652E+03;
  4.6332118E-01;  9.9999998E-03;  1.8995947E-01;5301;  3.2137358E-01;  0.0000000E+00; -7.0396215E-03;  9.9697211E+02;  1.0000000E-01; -2.5085691E+03;3; -2.0325909E+01;  0.0000000E+00;  9.5464020E+00;0; -6.5857619E-02;  3.9729977E+04;  0.0000000E+00; -1.0799860E-01;  4.0000000E+04;  0.0000000E+00;  4.0027609E+04; -4.8627395E-02;  0.0000000E+00; -1.7230222E-02;  3.7123533E+03;
  4.6342716E-01;  9.9999998E-03;  1.9995405E-01;5302;  3.1864589E-01;  0.0000000E+00; -7.0151347E-03;  9.9695386E+02;  1.0000000E-01; -2.5236797E+03;3; -2.0117798E+01;  0.0000000E+00;  9.2516212E+00;0; -5.7776473E-02;  3.9729359E+04;  0.0000000E+00; -1.2907912E-01;  4.0000000E+04;  0.0000000E+00;  4.0026734E+04; -4.2058636E-02;  0.0000000E+00; -1.5717840E-02;  3.6003979E+03;
  4.6353108E-01;  9.9999998E-03;  2.0994878E-01;5303;  3.1588995E-01;  0.0000000E+00; -6.9947205E-03;  9.9695148E+02;  1.0000000E-01; -2.5256550E+03;3; -2.0000326E+01;  0.0000000E+00;  8.9999828E+00;0; -4.8590776E-02;  3.9730227E+04;  0.0000000E+00; -1.4744923E-01;  4.0000000E+04;  0.0000000E+00;  4.0025688E+04; -3.4208834E-02;  0.0000000E+00; -1.4381940E-02;  3.4685046E+03;
  4.6362981E-01;  9.9999998E-03;  2.1994348E-01;5304;  3.1315035E-01;  0.0000000E+00; -7.0066233E-03;  9.9696375E+02;  1.0000000E-01; -2.5154824E+03;3; -1.9965481E+01;  0.0000000E+00;  8.8195791E+00;0; -3.8586590E-02;  3.9732289E+04;  0.0000000E+00; -1.6177148E-01;  4.0000000E+04;  0.0000000E+00;  4.0024492E+04; -2.5357056E-02;  0.0000000E+00; -1.3229533E-02;  3.3234795E+03;
  4.6372151E-01;  9.9999998E-03;  2.2993776E-01;5305;  3.1049415E-01;  0.0000000E+00; -7.0997658E-03;  9.9698950E+02;  1.0000000E-01; -2.4941499E+03;3; -1.9914345E+01;  0.0000000E+00;  8.5737944E+00;0; -2.8243653E-02;  3.9735309E+04;  0.0000000E+00; -1.7092799E-01;  4.0000000E+04;  0.0000000E+00;  4.0023344E+04; -1.5828967E-02;  0.0000000E+00; -1.2414686E-02;  3.1849766E+03;
  4.7245672E-01;  9.9999998E-03;  6.9981225E-02;5350;  3.4513220E-01;  0.0000000E+00; -3.5294818E-03;  9.9826642E+02;  1.0000000E-01; -1.4362546E+03;3; -2.9589838E+01;  0.0000000E+00;  8.2262325E+00;0; -8.1706904E-02;  3.9833629E+04;  0.0000000E+00; -6.5359750E-06;  4.0000000E+04;  0.0000000E+00;  4.0027484E+04; -4.5970391E-02;  0.0000000E+00; -3.5736512E-02;  3.5768977E+03;
  4.7249126E-01;  9.9999998E-03;  7.9979390E-02;5351;  3.4369880E-01;  0.0000000E+00; -3.9324197E-03;  9.9812274E+02;  1.0000000E-01; -1.5552633E+03;3; -2.7884573E+01;  0.0000000E+00;  8.9004622E+00;0; -8.4086597E-02;  3.9821926E+04;  0.0000000E+00; -6.8028615E-04;  4.0000000E+04;  0.0000000E+00;  4.0027789E+04; -4.9535148E-02;  0.0000000E+00; -3.4551453E-02;  3.6227573E+03;
  4.7253263E-01;  9.9999998E-03;  8.9977644E-02;5352;  3.4216216E-01;  0.0000000E+00; -4.3150019E-03;  9.9797717E+02;  1.0000000E-01; -1.6758524E+03;3; -2.6516562E+01;  0.0000000E+00;  9.4213638E+00;0; -8.6341463E-02;  3.9809797E+04;  0.0000000E+00; -2.0290997E-03;  4.0000000E+04;  0.0000000E+00;  4.0028105E+04; -5.3165819E-02;  0.0000000E+00; -3.3175644E-02;  3.6828918E+03;
  4.7258127E-01;  9.9999998E-03;  9.9975772E-02;5353;  3.4051785E-01;  0.0000000E+00; -4.6739778E-03;  9.9783020E+02;  1.0000000E-01; -1.7976267E+03;3; -2.5409870E+01;  0.0000000E+00;  9.8143024E+00;0; -8.8353381E-02;  3.9797625E+04;  0.0000000E+00; -4.4373246E-03;  4.0000000E+04;  0.0000000E+00;  4.0028547E+04; -5.6742720E-02;  0.0000000E+00; -3.1610660E-02;  3.7534788E+03;
  4.7263798E-01;  9.9999998E-03;  1.0997347E-01;5354;  3.3875754E-01;  0.0000000E+00; -5.0045168E-03;  9.9768915E+02;  1.0000000E-01; -1.9145122E+03;3; -2.4614340E+01;  0.0000000E+00;  1.0198084E+01;0; -9.0009563E-02;  3.9785891E+04;  0.0000000E+00; -8.4223635E-03;  4.0000000E+04;  0.0000000E+00;  4.0029074E+04; -6.0145952E-02;  0.0000000E+00; -2.9863609E-02;  3.8281794E+03;
  4.7270334E-01;  9.9999998E-03;  1.1997037E-01;5355;  3.3689123E-01;  0.0000000E+00; -5.3165862E-03;  9.9755499E+02;  1.0000000E-01; -2.0256200E+03;3; -2.3983711E+01;  0.0000000E+00;  1.0516436E+01;0; -9.1200054E-02;  3.9774742E+04;  0.0000000E+00; -1.4571313E-02;  4.0000000E+04;  0.0000000E+00;  4.0029594E+04; -6.3252635E-02;  0.0000000E+00; -2.7947422E-02;  3.8984294E+03;
  4.7277752E-01;  9.9999998E-03;  1.2996636E-01;5356;  3.3490700E-01;  0.0000000E+00; -5.5916286E-03;  9.9743201E+02;  1.0000000E-01; -2.1275430E+03;3; -2.3411491E+01;  0.0000000E+00;  1.0724001E+01;0; -9.1813758E-02;  3.9764484E+04;  0.0000000E+00; -2.3450973E-02;  4.0000000E+04;  0.0000000E+00;  4.0029895E+04; -6.5933973E-02;  0.0000000E+00; -2.5879782E-02;  3.9549873E+03;
  4.7285998E-01;  9.9999998E-03;  1.3996141E-01;5357;  3.3280388E-01;  0.0000000E+00; -5.8223023E-03;  9.9732294E+02;  1.0000000E-01; -2.2179106E+03;3; -2.2955418E+01;  0.0000000E+00;  1.0850637E+01;0; -9.1737427E-02;  3.9755660E+04;  0.0000000E+00; -3.5459176E-02;  4.0000000E+04;  0.0000000E+00;  4.0030129E+04; -6.8053015E-02;  0.0000000E+00; -2.3684410E-02;  3.9892847E+03;
  4.7294980E-01;  9.9999998E-03;  1.4995570E-01;5358;  3.3058107E-01;  0.0000000E+00; -6.0009388E-03;  9.9722864E+02;  1.0000000E-01; -2.2960320E+03;3; -2.2517962E+01;  0.0000000E+00;  1.0896106E+01;0; -9.0859719E-02;  3.9748230E+04;  0.0000000E+00; -5.0700814E-02;  4.0000000E+04;  0.0000000E+00;  4.0030074E+04; -6.9465026E-02;  0.0000000E+00; -2.1394694E-02;  3.9951226E+03;
  4.7304639E-01;  9.9999998E-03;  1.5994960E-01;5359;  3.2823920E-01;  0.0000000E+00; -6.1265244E-03;  9.9715283E+02;  1.0000000E-01; -2.3588450E+03;3; -2.2097221E+01;  0.0000000E+00;  1.0889106E+01;0; -8.9091234E-02;  3.9742305E+04;  0.0000000E+00; -6.9058485E-02;  4.0000000E+04;  0.0000000E+00;  4.0029867E+04; -7.0020333E-02;  0.0000000E+00; -1.9070903E-02;  3.9698835E+03;
  4.7314861E-01;  9.9999998E-03;  1.6994350E-01;5360;  3.2578424E-01;  0.0000000E+00; -6.2007159E-03;  9.9709393E+02;  1.0000000E-01; -2.4076335E+03;3; -2.1691082E+01;  0.0000000E+00;  1.0783380E+01;0; -8.6366162E-02;  3.9738086E+04;  0.0000000E+00; -8.9968182E-02;  4.0000000E+04;  0.0000000E+00;  4.0029316E+04; -6.9573246E-02;  0.0000000E+00; -1.6792914E-02;  3.9156685E+03;
  4.7325468E-01;  9.9999998E-03;  1.7993777E-01;5361;  3.2322171E-01;  0.0000000E+00; -6.2184874E-03;  9.9705414E+02;  1.0000000E-01; -2.4405710E+03;3; -2.1299854E+01;  0.0000000E+00;  1.0576791E+01;0; -8.2646370E-02;  3.9735477E+04;  0.0000000E+00; -1.1216602E-01;  4.0000000E+04;  0.0000000E+00;  4.0028691E+04; -6.8009622E-02;  0.0000000E+00; -1.4636745E-02;  3.8392207E+03;
  4.7336236E-01;  9.9999998E-03;  1.8993266E-01;5362;  3.2056695E-01;  0.0000000E+00; -6.1816443E-03;  9.9703204E+02;  1.0000000E-01; -2.4588914E+03;3; -2.0968346E+01;  0.0000000E+00;  1.0314884E+01;0; -7.7931061E-02;  3.9734430E+04;  0.0000000E+00; -1.3382210E-01;  4.0000000E+04;  0.0000000E+00;  4.0027977E+04; -6.5279089E-02;  0.0000000E+00; -1.2651973E-02;  3.7496304E+03;
  4.7346827E-01;  9.9999998E-03;  1.9992828E-01;5363;  3.1784615E-01;  0.0000000E+00; -6.1018551E-03;  9.9702826E+02;  1.0000000E-01; -2.4620518E+03;3; -2.0670946E+01;  0.0000000E+00;  9.9807901E+00;0; -7.2259419E-02;  3.9734867E+04;  0.0000000E+00; -1.5293816E-01;  4.0000000E+04;  0.0000000E+00;  4.0027188E+04; -6.1413243E-02;  0.0000000E+00; -1.0846177E-02;  3.6552954E+03;
  4.7356921E-01;  9.9999998E-03;  2.0992459E-01;5364;  3.1509542E-01;  0.0000000E+00; -6.0033938E-03;  9.9704047E+02;  1.0000000E-01; -2.4519287E+03;3; -2.0439238E+01;  0.0000000E+00;  9.6613998E+00;0; -6.5719962E-02;  3.9736590E+04;  0.0000000E+00; -1.6778778E-01;  4.0000000E+04;  0.0000000E+00;  4.0026340E+04; -5.6529004E-02;  0.0000000E+00; -9.1909599E-03;  3.5612202E+03;
  4.7366217E-01;  9.9999998E-03;  2.1992141E-01;5365;  3.1236762E-01;  0.0000000E+00; -5.9284484E-03;  9.9706598E+02;  1.0000000E-01; -2.4307935E+03;3; -2.0267061E+01;  0.0000000E+00;  9.3812532E+00;0; -5.8490492E-02;  3.9739344E+04;  0.0000000E+00; -1.7701018E-01;  4.0000000E+04;  0.0000000E+00;  4.0025691E+04; -5.0812073E-02;  0.0000000E+00; -7.6784180E-03;  3.4686348E+03;
  4.7374514E-01;  9.9999998E-03;  2.2991857E-01;5366;  3.0972645E-01;  0.0000000E+00; -5.9309499E-03;  9.9710358E+02;  1.0000000E-01; -2.3996338E+03;3; -2.0171375E+01;  0.0000000E+00;  9.1006899E+00;0; -5.0944760E-02;  3.9743012E+04;  0.0000000E+00; -1.7922665E-01;  4.0000000E+04;  0.0000000E+00;  4.0024941E+04; -4.4493347E-02;  0.0000000E+00; -6.4514121E-03;  3.3756755E+03;
  4.8245242E-01;  9.9999998E-03;  6.9967896E-02;5411;  3.4461647E-01;  0.0000000E+00; -2.8176713E-03;  9.9809125E+02;  1.0000142E-01; -1.5813860E+03;3; -3.0169106E+01;  0.0000000E+00;  7.3187575E+00;0; -8.7280765E-02;  3.9814523E+04;  0.0000000E+00; -3.5377590E-03;  4.0000000E+04;  0.0000000E+00;  4.0031305E+04; -5.7036001E-02;  0.0000000E+00; -3.0244760E-02;  4.0730513E+03;
  4.8249078E-01;  9.9999998E-03;  7.9963945E-02;5412;  3.4314838E-01;  0.0000000E+00; -3.1681203E-03;  9.9795374E+02;  1.0000142E-01; -1.6953086E+03;3; -2.8586166E+01;  0.0000000E+00;  7.9729633E+00;0; -8.9558452E-02;  3.9803602E+04;  0.0000000E+00; -5.2784104E-03;  4.0000000E+04;  0.0000000E+00;  4.0031312E+04; -5.9985355E-02;  0.0000000E+00; -2.9573094E-02;  4.0801348E+03;
  4.8253599E-01;  9.9999998E-03;  8.9960113E-02;5413;  3.4156084E-01;  0.0000000E+00; -3.5049983E-03;  9.9781610E+02;  1.0000148E-01; -1.8093300E+03;3; -2.7309906E+01;  0.0000000E+00;  8.5211601E+00;0; -9.1703311E-02;  3.9792656E+04;  0.0000000E+00; -7.8735864E-03;  4.0000000E+04;  0.0000000E+00;  4.0031246E+04; -6.3031428E-02;  0.0000000E+00; -2.8671887E-02;  4.0950657E+03;
  4.8258880E-01;  9.9999998E-03;  9.9956222E-02;5414;  3.3986479E-01;  0.0000000E+00; -3.8314643E-03;  9.9768036E+02;  1.0000148E-01; -1.9217711E+03;3; -2.6256334E+01;  0.0000000E+00;  9.0156546E+00;0; -9.3604967E-02;  3.9781637E+04;  0.0000000E+00; -1.1737351E-02;  4.0000000E+04;  0.0000000E+00;  4.0031402E+04; -6.6084772E-02;  0.0000000E+00; -2.7520193E-02;  4.1155142E+03;
  4.8264965E-01;  9.9999998E-03;  1.0995208E-01;5415;  3.3805263E-01;  0.0000000E+00; -4.1342285E-03;  9.9755096E+02;  1.0000146E-01; -2.0289778E+03;3; -2.5399141E+01;  0.0000000E+00;  9.4794025E+00;0; -9.5163509E-02;  3.9771320E+04;  0.0000000E+00; -1.7379159E-02;  4.0000000E+04;  0.0000000E+00;  4.0031422E+04; -6.9056131E-02;  0.0000000E+00; -2.6107376E-02;  4.1370508E+03;
  4.8271897E-01;  9.9999998E-03;  1.1994743E-01;5416;  3.3613250E-01;  0.0000000E+00; -4.4216854E-03;  9.9743372E+02;  1.0000150E-01; -2.1261108E+03;3; -2.4716501E+01;  0.0000000E+00;  9.9073753E+00;0; -9.6291594E-02;  3.9761891E+04;  0.0000000E+00; -2.5341423E-02;  4.0000000E+04;  0.0000000E+00;  4.0031473E+04; -7.1857192E-02;  0.0000000E+00; -2.4434403E-02;  4.1534263E+03;
  4.8279676E-01;  9.9999998E-03;  1.2994204E-01;5417;  3.3410305E-01;  0.0000000E+00; -4.6824398E-03;  9.9732800E+02;  1.0000146E-01; -2.2137131E+03;3; -2.4109804E+01;  0.0000000E+00;  1.0264095E+01;0; -9.6911781E-02;  3.9753531E+04;  0.0000000E+00; -3.6097020E-02;  4.0000000E+04;  0.0000000E+00;  4.0031488E+04; -7.4399598E-02;  0.0000000E+00; -2.2512181E-02;  4.1573457E+03;
  4.8288229E-01;  9.9999998E-03;  1.3993597E-01;5418;  3.3196282E-01;  0.0000000E+00; -4.9052895E-03;  9.9723718E+02;  1.0000150E-01; -2.2889209E+03;3; -2.3577963E+01;  0.0000000E+00;  1.0542735E+01;0; -9.6953660E-02;  3.9746574E+04;  0.0000000E+00; -4.9903236E-02;  4.0000000E+04;  0.0000000E+00;  4.0031215E+04; -7.6591618E-02;  0.0000000E+00; -2.0362046E-02;  4.1417754E+03;
  4.8297465E-01;  9.9999998E-03;  1.4992949E-01;5419;  3.2970855E-01;  0.0000000E+00; -5.0815986E-03;  9.9716321E+02;  1.0000141E-01; -2.3502031E+03;3; -2.3085207E+01;  0.0000000E+00;  1.0746256E+01;0; -9.6356787E-02;  3.9740980E+04;  0.0000000E+00; -6.6698588E-02;  4.0000000E+04;  0.0000000E+00;  4.0030871E+04; -7.8337610E-02;  0.0000000E+00; -1.8019177E-02;  4.1013320E+03;
  4.8307258E-01;  9.9999998E-03;  1.5992302E-01;5420;  3.2734203E-01;  0.0000000E+00; -5.2063810E-03;  9.9710400E+02;  1.0000144E-01; -2.3992881E+03;3; -2.2653574E+01;  0.0000000E+00;  1.0880183E+01;0; -9.5087864E-02;  3.9736840E+04;  0.0000000E+00; -8.6142115E-02;  4.0000000E+04;  0.0000000E+00;  4.0030316E+04; -7.9535916E-02;  0.0000000E+00; -1.5551950E-02;  4.0349370E+03;
  4.8317483E-01;  9.9999998E-03;  1.6991688E-01;5421;  3.2487056E-01;  0.0000000E+00; -5.2776029E-03;  9.9706268E+02;  1.0000145E-01; -2.4335093E+03;3; -2.2278368E+01;  0.0000000E+00;  1.0939459E+01;0; -9.3138635E-02;  3.9734238E+04;  0.0000000E+00; -1.0737744E-01;  4.0000000E+04;  0.0000000E+00;  4.0029543E+04; -8.0082320E-02;  0.0000000E+00; -1.3056314E-02;  3.9475566E+03;
  4.8327887E-01;  9.9999998E-03;  1.7991158E-01;5422;  3.2230392E-01;  0.0000000E+00; -5.2915448E-03;  9.9703796E+02;  1.0000140E-01; -2.4540024E+03;3; -2.1877436E+01;  0.0000000E+00;  1.0869771E+01;0; -9.0511583E-02;  3.9733137E+04;  0.0000000E+00; -1.2888464E-01;  4.0000000E+04;  0.0000000E+00;  4.0028719E+04; -7.9881907E-02;  0.0000000E+00; -1.0629676E-02;  3.8497134E+03;
  4.8338172E-01;  9.9999998E-03;  1.8990742E-01;5423;  3.1965208E-01;  0.0000000E+00; -5.2410327E-03;  9.9703156E+02;  1.0000148E-01; -2.4592861E+03;3; -2.1450342E+01;  0.0000000E+00;  1.0676917E+01;0; -8.7216921E-02;  3.9733332E+04;  0.0000000E+00; -1.4874367E-01;  4.0000000E+04;  0.0000000E+00;  4.0027938E+04; -7.8873351E-02;  0.0000000E+00; -8.3435681E-03;  3.7541118E+03;
  4.8347974E-01;  9.9999998E-03;  1.9990452E-01;5424;  3.1693625E-01;  0.0000000E+00; -5.1293108E-03;  9.9704114E+02;  1.0000140E-01; -2.4513359E+03;3; -2.1098526E+01;  0.0000000E+00;  1.0447227E+01;0; -8.3271138E-02;  3.9734754E+04;  0.0000000E+00; -1.6501701E-01;  4.0000000E+04;  0.0000000E+00;  4.0027281E+04; -7.7048011E-02;  0.0000000E+00; -6.2231286E-03;  3.6705728E+03;
  4.8356870E-01;  9.9999998E-03;  2.0990245E-01;5425;  3.1419483E-01;  0.0000000E+00; -4.9784956E-03;  9.9706604E+02;  1.0000147E-01; -2.4307439E+03;3; -2.0817070E+01;  0.0000000E+00;  1.0178607E+01;0; -7.8702331E-02;  3.9737164E+04;  0.0000000E+00; -1.7602947E-01;  4.0000000E+04;  0.0000000E+00;  4.0026707E+04; -7.4457154E-02;  0.0000000E+00; -4.2451802E-03;  3.6057695E+03;
  4.8364821E-01;  9.9999998E-03;  2.1990073E-01;5426;  3.1148198E-01;  0.0000000E+00; -4.8293700E-03;  9.9710303E+02;  1.0000146E-01; -2.4000781E+03;3; -2.0503180E+01;  0.0000000E+00;  9.8303375E+00;0; -7.3590949E-02;  3.9740527E+04;  0.0000000E+00; -1.8035816E-01;  4.0000000E+04;  0.0000000E+00;  4.0026414E+04; -7.1213163E-02;  0.0000000E+00; -2.3777841E-03;  3.5658206E+03;
  4.8371977E-01;  9.9999998E-03;  2.2989947E-01;5427;  3.0884671E-01;  0.0000000E+00; -4.7330181E-03;  9.9715308E+02;  1.0000141E-01; -2.3585979E+03;3; -2.0414513E+01;  0.0000000E+00;  9.5755053E+00;0; -6.8191886E-02;  3.9744602E+04;  0.0000000E+00; -1.7656551E-01;  4.0000000E+04;  0.0000000E+00;  4.0026332E+04; -6.7472458E-02;  0.0000000E+00; -7.1942911E-04;  3.5463738E+03;
  4.9244496E-01;  9.9999998E-03;  6.9955938E-02;5472;  3.4398550E-01;  0.0000000E+00; -2.0777679E-03;  9.9779950E+02;  1.0000208E-01; -1.8230577E+03;3; -3.0682995E+01;  0.0000000E+00;  6.4187455E+00;0; -9.2767738E-02;  3.9787023E+04;  0.0000000E+00; -7.3364507E-03;  4.0000000E+04;  0.0000000E+00;  4.0034859E+04; -6.8648636E-02;  0.0000000E+00; -2.4119101E-02;  4.5449053E+03;
  4.9248832E-01;  9.9999998E-03;  7.9949863E-02;5473;  3.4248570E-01;  0.0000000E+00; -2.3658266E-03;  9.9767542E+02;  1.0000209E-01; -1.9258696E+03;3; -2.9354441E+01;  0.0000000E+00;  7.0427423E+00;0; -9.4989091E-02;  3.9777496E+04;  0.0000000E+00; -1.0070040E-02;  4.0000000E+04;  0.0000000E+00;  4.0034426E+04; -7.0891239E-02;  0.0000000E+00; -2.4097856E-02;  4.5130371E+03;
  4.9253854E-01;  9.9999998E-03;  8.9944050E-02;5474;  3.4085831E-01;  0.0000000E+00; -2.6502728E-03;  9.9755109E+02;  1.0000204E-01; -2.0288789E+03;3; -2.8220993E+01;  0.0000000E+00;  7.6398902E+00;0; -9.7060256E-02;  3.9767973E+04;  0.0000000E+00; -1.3726034E-02;  4.0000000E+04;  0.0000000E+00;  4.0034219E+04; -7.3251985E-02;  0.0000000E+00; -2.3808269E-02;  4.4822461E+03;
  4.9259612E-01;  9.9999998E-03;  9.9938400E-02;5475;  3.3911636E-01;  0.0000000E+00; -2.9319797E-03;  9.9743335E+02;  1.0000208E-01; -2.1264070E+03;3; -2.7237133E+01;  0.0000000E+00;  8.2172079E+00;0; -9.8873436E-02;  3.9758918E+04;  0.0000000E+00; -1.8673602E-02;  4.0000000E+04;  0.0000000E+00;  4.0033938E+04; -7.5670071E-02;  0.0000000E+00; -2.3203366E-02;  4.4517314E+03;
  4.9266130E-01;  9.9999998E-03;  1.0993268E-01;5476;  3.3726019E-01;  0.0000000E+00; -3.2004649E-03;  9.9732446E+02;  1.0000202E-01; -2.2166265E+03;3; -2.6400066E+01;  0.0000000E+00;  8.7818890E+00;0; -1.0033509E-01;  3.9750625E+04;  0.0000000E+00; -2.5365813E-02;  4.0000000E+04;  0.0000000E+00;  4.0033570E+04; -7.8083411E-02;  0.0000000E+00; -2.2251677E-02;  4.4191816E+03;
  4.9273428E-01;  9.9999998E-03;  1.1992671E-01;5477;  3.3529425E-01;  0.0000000E+00; -3.4591772E-03;  9.9722583E+02;  1.0000196E-01; -2.2983525E+03;3; -2.5623396E+01;  0.0000000E+00;  9.2585173E+00;0; -1.0137025E-01;  3.9743234E+04;  0.0000000E+00; -3.4246802E-02;  4.0000000E+04;  0.0000000E+00;  4.0033168E+04; -8.0431841E-02;  0.0000000E+00; -2.0938409E-02;  4.3807002E+03;
  4.9281472E-01;  9.9999998E-03;  1.2992033E-01;5478;  3.3322334E-01;  0.0000000E+00; -3.7002000E-03;  9.9714270E+02;  1.0000198E-01; -2.3672393E+03;3; -2.4963413E+01;  0.0000000E+00;  9.7145691E+00;0; -1.0192163E-01;  3.9736984E+04;  0.0000000E+00; -4.5661703E-02;  4.0000000E+04;  0.0000000E+00;  4.0032695E+04; -8.2656495E-02;  0.0000000E+00; -1.9265134E-02;  4.3313892E+03;
  4.9290171E-01;  9.9999998E-03;  1.3991357E-01;5479;  3.3104587E-01;  0.0000000E+00; -3.9110961E-03;  9.9707397E+02;  1.0000201E-01; -2.4241760E+03;3; -2.4392778E+01;  0.0000000E+00;  1.0106422E+01;0; -1.0194825E-01;  3.9732098E+04;  0.0000000E+00; -5.9737109E-02;  4.0000000E+04;  0.0000000E+00;  4.0032117E+04; -8.4699444E-02;  0.0000000E+00; -1.7248804E-02;  4.2659312E+03;
  4.9299410E-01;  9.9999998E-03;  1.4990674E-01;5480;  3.2876191E-01;  0.0000000E+00; -4.0822648E-03;  9.9701947E+02;  1.0000207E-01; -2.4693105E+03;3; -2.3831657E+01;  0.0000000E+00;  1.0408766E+01;0; -1.0142680E-01;  3.9728555E+04;  0.0000000E+00; -7.6295830E-02;  4.0000000E+04;  0.0000000E+00;  4.0031352E+04; -8.6501777E-02;  0.0000000E+00; -1.4925018E-02;  4.1801553E+03;
  4.9309063E-01;  9.9999998E-03;  1.5990019E-01;5481;  3.2637390E-01;  0.0000000E+00; -4.2067678E-03;  9.9698041E+02;  1.0000201E-01; -2.5016553E+03;3; -2.3303131E+01;  0.0000000E+00;  1.0620984E+01;0; -1.0036951E-01;  3.9726316E+04;  0.0000000E+00; -9.4885394E-02;  4.0000000E+04;  0.0000000E+00;  4.0030453E+04; -8.8000871E-02;  0.0000000E+00; -1.2368635E-02;  4.0743057E+03;
  4.9318942E-01;  9.9999998E-03;  1.6989446E-01;5482;  3.2388517E-01;  0.0000000E+00; -4.2778058E-03;  9.9695728E+02;  1.0000210E-01; -2.5208152E+03;3; -2.2813824E+01;  0.0000000E+00;  1.0755924E+01;0; -9.8819330E-02;  3.9725457E+04;  0.0000000E+00; -1.1453428E-01;  4.0000000E+04;  0.0000000E+00;  4.0029508E+04; -8.9128874E-02;  0.0000000E+00; -9.6904561E-03;  3.9556333E+03;
  4.9328813E-01;  9.9999998E-03;  1.7988989E-01;5483;  3.2130569E-01;  0.0000000E+00; -4.2895032E-03;  9.9694879E+02;  1.0000210E-01; -2.5278767E+03;3; -2.2350395E+01;  0.0000000E+00;  1.0804774E+01;0; -9.6824907E-02;  3.9725605E+04;  0.0000000E+00; -1.3373078E-01;  4.0000000E+04;  0.0000000E+00;  4.0028559E+04; -8.9815356E-02;  0.0000000E+00; -7.0095491E-03;  3.8371206E+03;
  4.9338278E-01;  9.9999998E-03;  1.8988667E-01;5484;  3.1864876E-01;  0.0000000E+00; -4.2354353E-03;  9.9695386E+02;  1.0000215E-01; -2.5236792E+03;3; -2.1908892E+01;  0.0000000E+00;  1.0754467E+01;0; -9.4425365E-02;  3.9726832E+04;  0.0000000E+00; -1.5073435E-01;  4.0000000E+04;  0.0000000E+00;  4.0027715E+04; -9.0000629E-02;  0.0000000E+00; -4.4247350E-03;  3.7337144E+03;
  4.9346972E-01;  9.9999998E-03;  1.9988424E-01;5485;  3.1593516E-01;  0.0000000E+00; -4.1113310E-03;  9.9697388E+02;  1.0000195E-01; -2.5070867E+03;3; -2.1482410E+01;  0.0000000E+00;  1.0608536E+01;0; -9.1639630E-02;  3.9729043E+04;  0.0000000E+00; -1.6386889E-01;  4.0000000E+04;  0.0000000E+00;  4.0027141E+04; -8.9652635E-02;  0.0000000E+00; -1.9869974E-03;  3.6610791E+03;
  4.9355009E-01;  9.9999998E-03;  2.0988236E-01;5486;  3.1320035E-01;  0.0000000E+00; -3.9308127E-03;  9.9700928E+02;  1.0000203E-01; -2.4777544E+03;3; -2.1086897E+01;  0.0000000E+00;  1.0379988E+01;0; -8.8472158E-02;  3.9732035E+04;  0.0000000E+00; -1.7171904E-01;  4.0000000E+04;  0.0000000E+00;  4.0026957E+04; -8.8783845E-02;  0.0000000E+00;  3.1168869E-04;  3.6334707E+03;
  4.9362293E-01;  9.9999998E-03;  2.1988106E-01;5487;  3.1050178E-01;  0.0000000E+00; -3.7415735E-03;  9.9705707E+02;  1.0000205E-01; -2.4381504E+03;3; -2.0777117E+01;  0.0000000E+00;  1.0096173E+01;0; -8.4971257E-02;  3.9735633E+04;  0.0000000E+00; -1.7301451E-01;  4.0000000E+04;  0.0000000E+00;  4.0027160E+04; -8.7446049E-02;  0.0000000E+00;  2.4747900E-03;  3.6611768E+03;
  4.9368790E-01;  9.9999998E-03;  2.2988039E-01;5488;  3.0785975E-01;  0.0000000E+00; -3.5521460E-03;  9.9711865E+02;  1.0000207E-01; -2.3871396E+03;3; -2.0647554E+01;  0.0000000E+00;  9.9582644E+00;0; -8.1212580E-02;  3.9739836E+04;  0.0000000E+00; -1.6631736E-01;  4.0000000E+04;  0.0000000E+00;  4.0027871E+04; -8.5724719E-02;  0.0000000E+00;  4.5121382E-03;  3.7463787E+03;
  5.0244296E-01;  9.9999998E-03;  6.9946446E-02;5533;  3.4322286E-01;  0.0000000E+00; -1.3187636E-03;  9.9744354E+02;  1.0000388E-01; -2.1179622E+03;3; -3.1375660E+01;  0.0000000E+00;  5.5991530E+00;0; -9.7919352E-02;  3.9754312E+04;  0.0000000E+00; -1.0766033E-02;  4.0000000E+04;  0.0000000E+00;  4.0037867E+04; -8.0543391E-02;  0.0000000E+00; -1.7375961E-02;  4.9483154E+03;
  5.0249147E-01;  9.9999998E-03;  7.9938680E-02;5534;  3.4169537E-01;  0.0000000E+00; -1.5336977E-03;  9.9733752E+02;  1.0000373E-01; -2.2058115E+03;3; -3.0281437E+01;  0.0000000E+00;  6.2682028E+00;0; -1.0014353E-01;  3.9746359E+04;  0.0000000E+00; -1.4277621E-02;  4.0000000E+04;  0.0000000E+00;  4.0037199E+04; -8.2010821E-02;  0.0000000E+00; -1.8132709E-02;  4.8794224E+03;
  5.0254703E-01;  9.9999998E-03;  8.9931242E-02;5535;  3.4003773E-01;  0.0000000E+00; -1.7560861E-03;  9.9723444E+02;  1.0000387E-01; -2.2911917E+03;3; -2.9245136E+01;  0.0000000E+00;  6.9060416E+00;0; -1.0219235E-01;  3.9738945E+04;  0.0000000E+00; -1.8636627E-02;  4.0000000E+04;  0.0000000E+00;  4.0036559E+04; -8.3610140E-02;  0.0000000E+00; -1.8582210E-02;  4.8051714E+03;
  5.0260937E-01;  9.9999998E-03;  9.9924177E-02;5536;  3.3826059E-01;  0.0000000E+00; -1.9861166E-03;  9.9713818E+02;  1.0000372E-01; -2.3709424E+03;3; -2.8285252E+01;  0.0000000E+00;  7.5324550E+00;0; -1.0395873E-01;  3.9732008E+04;  0.0000000E+00; -2.4126247E-02;  4.0000000E+04;  0.0000000E+00;  4.0035887E+04; -8.5309237E-02;  0.0000000E+00; -1.8649487E-02;  4.7263838E+03;
  5.0267845E-01;  9.9999998E-03;  1.0991732E-01;5537;  3.3636919E-01;  0.0000000E+00; -2.2144716E-03;  9.9705316E+02;  1.0000384E-01; -2.4414094E+03;3; -2.7424742E+01;  0.0000000E+00;  8.1398296E+00;0; -1.0535259E-01;  3.9725945E+04;  0.0000000E+00; -3.1071281E-02;  4.0000000E+04;  0.0000000E+00;  4.0035129E+04; -8.7072961E-02;  0.0000000E+00; -1.8279627E-02;  4.6430054E+03;
  5.0275415E-01;  9.9999998E-03;  1.1991048E-01;5538;  3.3436987E-01;  0.0000000E+00; -2.4419869E-03;  9.9698090E+02;  1.0000389E-01; -2.5012595E+03;3; -2.6597963E+01;  0.0000000E+00;  8.6451149E+00;0; -1.0630521E-01;  3.9720961E+04;  0.0000000E+00; -3.9772630E-02;  4.0000000E+04;  0.0000000E+00;  4.0034359E+04; -8.8865109E-02;  0.0000000E+00; -1.7440099E-02;  4.5537622E+03;
  5.0283581E-01;  9.9999998E-03;  1.2990351E-01;5539;  3.3226642E-01;  0.0000000E+00; -2.6604736E-03;  9.9692102E+02;  1.0000384E-01; -2.5508877E+03;3; -2.5852186E+01;  0.0000000E+00;  9.1526594E+00;0; -1.0677078E-01;  3.9717145E+04;  0.0000000E+00; -5.0437763E-02;  4.0000000E+04;  0.0000000E+00;  4.0033516E+04; -9.0650164E-02;  0.0000000E+00; -1.6120620E-02;  4.4562319E+03;
  5.0292253E-01;  9.9999998E-03;  1.3989647E-01;5540;  3.3005935E-01;  0.0000000E+00; -2.8573356E-03;  9.9687646E+02;  1.0000389E-01; -2.5877756E+03;3; -2.5164934E+01;  0.0000000E+00;  9.5931253E+00;0; -1.0672630E-01;  3.9714352E+04;  0.0000000E+00; -6.3088521E-02;  4.0000000E+04;  0.0000000E+00;  4.0032652E+04; -9.2394516E-02;  0.0000000E+00; -1.4331787E-02;  4.3470840E+03;
  5.0301319E-01;  9.9999998E-03;  1.4988965E-01;5541;  3.2774910E-01;  0.0000000E+00; -3.0213974E-03;  9.9684454E+02;  1.0000379E-01; -2.6142439E+03;3; -2.4523363E+01;  0.0000000E+00;  9.9573593E+00;0; -1.0617325E-01;  3.9712875E+04;  0.0000000E+00; -7.7513866E-02;  4.0000000E+04;  0.0000000E+00;  4.0031609E+04; -9.4064958E-02;  0.0000000E+00; -1.2108296E-02;  4.2231699E+03;
  5.0310659E-01;  9.9999998E-03;  1.5988347E-01;5542;  3.2533786E-01;  0.0000000E+00; -3.1441043E-03;  9.9682416E+02;  1.0000366E-01; -2.6311323E+03;3; -2.3934750E+01;  0.0000000E+00;  1.0239511E+01;0; -1.0515700E-01;  3.9712430E+04;  0.0000000E+00; -9.3272813E-02;  4.0000000E+04;  0.0000000E+00;  4.0030496E+04; -9.5627084E-02;  0.0000000E+00; -9.5299194E-03;  4.0857502E+03;
  5.0320095E-01;  9.9999998E-03;  1.6987838E-01;5543;  3.2283053E-01;  0.0000000E+00; -3.2167104E-03;  9.9681665E+02;  1.0000373E-01; -2.6373542E+03;3; -2.3360830E+01;  0.0000000E+00;  1.0428218E+01;0; -1.0376146E-01;  3.9713016E+04;  0.0000000E+00; -1.0949995E-01;  4.0000000E+04;  0.0000000E+00;  4.0029363E+04; -9.7040929E-02;  0.0000000E+00; -6.7205336E-03;  3.9430039E+03;
  5.0329363E-01;  9.9999998E-03;  1.7987451E-01;5544;  3.2023564E-01;  0.0000000E+00; -3.2305301E-03;  9.9682172E+02;  1.0000380E-01; -2.6331570E+03;3; -2.2820501E+01;  0.0000000E+00;  1.0548106E+01;0; -1.0208011E-01;  3.9714453E+04;  0.0000000E+00; -1.2498634E-01;  4.0000000E+04;  0.0000000E+00;  4.0028191E+04; -9.8259211E-02;  0.0000000E+00; -3.8208996E-03;  3.8089336E+03;
  5.0338173E-01;  9.9999998E-03;  1.8987156E-01;5545;  3.1756863E-01;  0.0000000E+00; -3.1783206E-03;  9.9683740E+02;  1.0000368E-01; -2.6201697E+03;3; -2.2319122E+01;  0.0000000E+00;  1.0591686E+01;0; -1.0018963E-01;  3.9716586E+04;  0.0000000E+00; -1.3847470E-01;  4.0000000E+04;  0.0000000E+00;  4.0027379E+04; -9.9232018E-02;  0.0000000E+00; -9.5760671E-04;  3.7006855E+03;
  5.0346446E-01;  9.9999998E-03;  1.9986926E-01;5546;  3.1485280E-01;  0.0000000E+00; -3.0565478E-03;  9.9686481E+02;  1.0000372E-01; -2.5974543E+03;3; -2.1836504E+01;  0.0000000E+00;  1.0533556E+01;0; -9.8134838E-02;  3.9719297E+04;  0.0000000E+00; -1.4883742E-01;  4.0000000E+04;  0.0000000E+00;  4.0026828E+04; -9.9919088E-02;  0.0000000E+00;  1.7842496E-03;  3.6367607E+03;
  5.0354099E-01;  9.9999998E-03;  2.0986737E-01;5547;  3.1212440E-01;  0.0000000E+00; -2.8769553E-03;  9.9690588E+02;  1.0000365E-01; -2.5634307E+03;3; -2.1382557E+01;  0.0000000E+00;  1.0377022E+01;0; -9.5931768E-02;  3.9722582E+04;  0.0000000E+00; -1.5512170E-01;  4.0000000E+04;  0.0000000E+00;  4.0026891E+04; -1.0030100E-01;  0.0000000E+00;  4.3692365E-03;  3.6372200E+03;
  5.0361013E-01;  9.9999998E-03;  2.1986586E-01;5548;  3.0942541E-01;  0.0000000E+00; -2.6615814E-03;  9.9696100E+02;  1.0000384E-01; -2.5177529E+03;3; -2.1067665E+01;  0.0000000E+00;  1.0236775E+01;0; -9.3596019E-02;  3.9726289E+04;  0.0000000E+00; -1.5634684E-01;  4.0000000E+04;  0.0000000E+00;  4.0027625E+04; -1.0038282E-01;  0.0000000E+00;  6.7868032E-03;  3.7233154E+03;
  5.0367111E-01;  9.9999998E-03;  2.2986494E-01;5549;  3.0676678E-01;  0.0000000E+00; -2.3874571E-03;  9.9703210E+02;  1.0000373E-01; -2.4588411E+03;3; -2.0902260E+01;  0.0000000E+00;  1.0176989E+01;0; -9.1043338E-02;  3.9730305E+04;  0.0000000E+00; -1.5115444E-01;  4.0000000E+04;  0.0000000E+00;  4.0029152E+04; -1.0019469E-01;  0.0000000E+00;  9.1513479E-03;  3.9091816E+03;
  5.1245630E-01;  9.9999998E-03;  6.9939621E-02;5594;  3.4230989E-01;  0.0000000E+00; -5.1459135E-04;  9.9706366E+02;  1.0000610E-01; -2.4327180E+03;3; -3.2343285E+01;  0.0000000E+00;  5.1436896E+00;0; -1.0255071E-01;  3.9719867E+04;  0.0000000E+00; -1.3323157E-02;  4.0000000E+04;  0.0000000E+00;  4.0039895E+04; -9.2520475E-02;  0.0000000E+00; -1.0030233E-02;  5.2443672E+03;
  5.1250881E-01;  9.9999998E-03;  7.9930991E-02;5595;  3.4076610E-01;  0.0000000E+00; -6.5262814E-04;  9.9698083E+02;  1.0000617E-01; -2.5013086E+03;3; -3.1335522E+01;  0.0000000E+00;  5.7711711E+00;0; -1.0484187E-01;  3.9714148E+04;  0.0000000E+00; -1.7270995E-02;  4.0000000E+04;  0.0000000E+00;  4.0039023E+04; -9.3160532E-02;  0.0000000E+00; -1.1681335E-02;  5.1426279E+03;
  5.1256853E-01;  9.9999998E-03;  8.9922674E-02;5596;  3.3909112E-01;  0.0000000E+00; -8.1232702E-04;  9.9690399E+02;  1.0000612E-01; -2.5649609E+03;3; -3.0312515E+01;  0.0000000E+00;  6.3790751E+00;0; -1.0692690E-01;  3.9708867E+04;  0.0000000E+00; -2.1849005E-02;  4.0000000E+04;  0.0000000E+00;  4.0038039E+04; -9.3940631E-02;  0.0000000E+00; -1.2986274E-02;  5.0300049E+03;
  5.1263469E-01;  9.9999998E-03;  9.9914744E-02;5597;  3.3729374E-01;  0.0000000E+00; -9.8975643E-04;  9.9683368E+02;  1.0000619E-01; -2.6232310E+03;3; -2.9350592E+01;  0.0000000E+00;  7.0062265E+00;0; -1.0869845E-01;  3.9704434E+04;  0.0000000E+00; -2.7191518E-02;  4.0000000E+04;  0.0000000E+00;  4.0037094E+04; -9.4858274E-02;  0.0000000E+00; -1.3840177E-02;  4.9091450E+03;
  5.1270658E-01;  9.9999998E-03;  1.0990725E-01;5598;  3.3538160E-01;  0.0000000E+00; -1.1782011E-03;  9.9677490E+02;  1.0000629E-01; -2.6719209E+03;3; -2.8436670E+01;  0.0000000E+00;  7.6046219E+00;0; -1.1006898E-01;  3.9700812E+04;  0.0000000E+00; -3.3447940E-02;  4.0000000E+04;  0.0000000E+00;  4.0035949E+04; -9.5905200E-02;  0.0000000E+00; -1.4163782E-02;  4.7824512E+03;
  5.1278371E-01;  9.9999998E-03;  1.1990004E-01;5599;  3.3336011E-01;  0.0000000E+00; -1.3747506E-03;  9.9672882E+02;  1.0000619E-01; -2.7100925E+03;3; -2.7541716E+01;  0.0000000E+00;  8.1074400E+00;0; -1.1097405E-01;  3.9698242E+04;  0.0000000E+00; -4.0750809E-02;  4.0000000E+04;  0.0000000E+00;  4.0034984E+04; -9.7068615E-02;  0.0000000E+00; -1.3905436E-02;  4.6513164E+03;
  5.1286536E-01;  9.9999998E-03;  1.2989300E-01;5600;  3.3123288E-01;  0.0000000E+00; -1.5695512E-03;  9.9669543E+02;  1.0000630E-01; -2.7377461E+03;3; -2.6727118E+01;  0.0000000E+00;  8.6215801E+00;0; -1.1137517E-01;  3.9696715E+04;  0.0000000E+00; -4.9172830E-02;  4.0000000E+04;  0.0000000E+00;  4.0033848E+04; -9.8333910E-02;  0.0000000E+00; -1.3041262E-02;  4.5158364E+03;
  5.1295090E-01;  9.9999998E-03;  1.3988619E-01;5601;  3.2900232E-01;  0.0000000E+00; -1.7501556E-03;  9.9667444E+02;  1.0000619E-01; -2.7551775E+03;3; -2.5983120E+01;  0.0000000E+00;  9.0986147E+00;0; -1.1125925E-01;  3.9696234E+04;  0.0000000E+00; -5.8684021E-02;  4.0000000E+04;  0.0000000E+00;  4.0032660E+04; -9.9685229E-02;  0.0000000E+00; -1.1574022E-02;  4.3744893E+03;
  5.1303947E-01;  9.9999998E-03;  1.4987989E-01;5602;  3.2667068E-01;  0.0000000E+00; -1.9062199E-03;  9.9666351E+02;  1.0000607E-01; -2.7642144E+03;3; -2.5275955E+01;  0.0000000E+00;  9.4862633E+00;0; -1.1064298E-01;  3.9696617E+04;  0.0000000E+00; -6.9122501E-02;  4.0000000E+04;  0.0000000E+00;  4.0031496E+04; -1.0110704E-01;  0.0000000E+00; -9.5359385E-03;  4.2249561E+03;
  5.1312983E-01;  9.9999998E-03;  1.5987439E-01;5603;  3.2423976E-01;  0.0000000E+00; -2.0264264E-03;  9.9666351E+02;  1.0000635E-01; -2.7642144E+03;3; -2.4611355E+01;  0.0000000E+00;  9.8044291E+00;0; -1.0959302E-01;  3.9697816E+04;  0.0000000E+00; -8.0189481E-02;  4.0000000E+04;  0.0000000E+00;  4.0030254E+04; -1.0258257E-01;  0.0000000E+00; -7.0104441E-03;  4.0685403E+03;
  5.1322055E-01;  9.9999998E-03;  1.6986993E-01;5604;  3.2171488E-01;  0.0000000E+00; -2.1009499E-03;  9.9667212E+02;  1.0000616E-01; -2.7571035E+03;3; -2.3970537E+01;  0.0000000E+00;  1.0040458E+01;0; -1.0822325E-01;  3.9699734E+04;  0.0000000E+00; -9.1352075E-02;  4.0000000E+04;  0.0000000E+00;  4.0028977E+04; -1.0409025E-01;  0.0000000E+00; -4.1329991E-03;  3.9130154E+03;
  5.1330930E-01;  9.9999998E-03;  1.7986642E-01;5605;  3.1910527E-01;  0.0000000E+00; -2.1197507E-03;  9.9668805E+02;  1.0000625E-01; -2.7438694E+03;3; -2.3338072E+01;  0.0000000E+00;  1.0190214E+01;0; -1.0666451E-01;  3.9702215E+04;  0.0000000E+00; -1.0199981E-01;  4.0000000E+04;  0.0000000E+00;  4.0027844E+04; -1.0559991E-01;  0.0000000E+00; -1.0645983E-03;  3.7717527E+03;
  5.1339495E-01;  9.9999998E-03;  1.8986367E-01;5606;  3.1642517E-01;  0.0000000E+00; -2.0732197E-03;  9.9671191E+02;  1.0000610E-01; -2.7241167E+03;3; -2.2748886E+01;  0.0000000E+00;  1.0280307E+01;0; -1.0503135E-01;  3.9705027E+04;  0.0000000E+00; -1.1166430E-01;  4.0000000E+04;  0.0000000E+00;  4.0026969E+04; -1.0707179E-01;  0.0000000E+00;  2.0404432E-03;  3.6614363E+03;
  5.1347631E-01;  9.9999998E-03;  1.9986138E-01;5607;  3.1370023E-01;  0.0000000E+00; -1.9590007E-03;  9.9674536E+02;  1.0000618E-01; -2.6964138E+03;3; -2.2211121E+01;  0.0000000E+00;  1.0305460E+01;0; -1.0340245E-01;  3.9708207E+04;  0.0000000E+00; -1.2004572E-01;  4.0000000E+04;  0.0000000E+00;  4.0026500E+04; -1.0846213E-01;  0.0000000E+00;  5.0596837E-03;  3.6014924E+03;
  5.1355171E-01;  9.9999998E-03;  2.0985928E-01;5608;  3.1096780E-01;  0.0000000E+00; -1.7877127E-03;  9.9679193E+02;  1.0000617E-01; -2.6577979E+03;3; -2.1735714E+01;  0.0000000E+00;  1.0256817E+01;0; -1.0182215E-01;  3.9711695E+04;  0.0000000E+00; -1.2689330E-01;  4.0000000E+04;  0.0000000E+00;  4.0026621E+04; -1.0973038E-01;  0.0000000E+00;  7.9082260E-03;  3.6156885E+03;
  5.1362002E-01;  9.9999998E-03;  2.1985713E-01;5609;  3.0825755E-01;  0.0000000E+00; -1.5614047E-03;  9.9684894E+02;  1.0000622E-01; -2.6105894E+03;3; -2.1360804E+01;  0.0000000E+00;  1.0217894E+01;0; -1.0029951E-01;  3.9715359E+04;  0.0000000E+00; -1.3169979E-01;  4.0000000E+04;  0.0000000E+00;  4.0027676E+04; -1.1084848E-01;  0.0000000E+00;  1.0548967E-02;  3.7371345E+03;
  5.1368040E-01;  9.9999998E-03;  2.2985542E-01;5610;  3.0557483E-01;  0.0000000E+00; -1.2323466E-03;  9.9692383E+02;  1.0000625E-01; -2.5485664E+03;3; -2.1138754E+01;  0.0000000E+00;  1.0222406E+01;0; -9.8656088E-02;  3.9719223E+04;  0.0000000E+00; -1.3325538E-01;  4.0000000E+04;  0.0000000E+00;  4.0029711E+04; -1.1180299E-01;  0.0000000E+00;  1.3146897E-02;  3.9931489E+03;
  5.2249175E-01;  9.9999998E-03;  6.9936082E-02;5655;  3.4124625E-01;  0.0000000E+00;  3.6887469E-04;  9.9672839E+02;  1.0001037E-01; -2.7104375E+03;3; -3.3338535E+01;  0.0000000E+00;  4.9577055E+00;0; -1.0654546E-01;  3.9688504E+04;  0.0000000E+00; -1.4751248E-02;  4.0000000E+04;  0.0000000E+00;  4.0040906E+04; -1.0445172E-01;  0.0000000E+00; -2.0937405E-03;  5.4040771E+03;
  5.2254719E-01;  9.9999998E-03;  7.9927191E-02;5656;  3.3970207E-01;  0.0000000E+00;  2.9761379E-04;  9.9667102E+02;  1.0001046E-01; -2.7579915E+03;3; -3.2354397E+01;  0.0000000E+00;  5.4884577E+00;0; -1.0896572E-01;  3.9685027E+04;  0.0000000E+00; -1.8711269E-02;  4.0000000E+04;  0.0000000E+00;  4.0039824E+04; -1.0422483E-01;  0.0000000E+00; -4.7408915E-03;  5.2758159E+03;
  5.2260923E-01;  9.9999998E-03;  8.9918688E-02;5657;  3.3802459E-01;  0.0000000E+00;  1.9359212E-04;  9.9662152E+02;  1.0001046E-01; -2.7989780E+03;3; -3.1342625E+01;  0.0000000E+00;  6.0241060E+00;0; -1.1114551E-01;  3.9682125E+04;  0.0000000E+00; -2.2934314E-02;  4.0000000E+04;  0.0000000E+00;  4.0038656E+04; -1.0414182E-01;  0.0000000E+00; -7.0036985E-03;  5.1326870E+03;
  5.2267736E-01;  9.9999998E-03;  9.9910662E-02;5658;  3.3622241E-01;  0.0000000E+00;  6.2014515E-05;  9.9658002E+02;  1.0001040E-01; -2.8333967E+03;3; -3.0367029E+01;  0.0000000E+00;  6.6144757E+00;0; -1.1297711E-01;  3.9680078E+04;  0.0000000E+00; -2.7360890E-02;  4.0000000E+04;  0.0000000E+00;  4.0037391E+04; -1.0423128E-01;  0.0000000E+00; -8.7458314E-03;  4.9792046E+03;
  5.2275050E-01;  9.9999998E-03;  1.0990318E-01;5659;  3.3430246E-01;  0.0000000E+00; -8.9348468E-05;  9.9654901E+02;  1.0001045E-01; -2.8590750E+03;3; -2.9405704E+01;  0.0000000E+00;  7.1579938E+00;0; -1.1437514E-01;  3.9678977E+04;  0.0000000E+00; -3.1936891E-02;  4.0000000E+04;  0.0000000E+00;  4.0036109E+04; -1.0451221E-01;  0.0000000E+00; -9.8629370E-03;  4.8203101E+03;
  5.2282804E-01;  9.9999998E-03;  1.1989623E-01;5660;  3.3227038E-01;  0.0000000E+00; -2.5642625E-04;  9.9652942E+02;  1.0001054E-01; -2.8753213E+03;3; -2.8477207E+01;  0.0000000E+00;  7.6478796E+00;0; -1.1528005E-01;  3.9678797E+04;  0.0000000E+00; -3.6622211E-02;  4.0000000E+04;  0.0000000E+00;  4.0034855E+04; -1.0499644E-01;  0.0000000E+00; -1.0283608E-02;  4.6600776E+03;
  5.2290922E-01;  9.9999998E-03;  1.2988974E-01;5661;  3.3013016E-01;  0.0000000E+00; -4.2870300E-04;  9.9652118E+02;  1.0001041E-01; -2.8821360E+03;3; -2.7617308E+01;  0.0000000E+00;  8.1555758E+00;0; -1.1565857E-01;  3.9679441E+04;  0.0000000E+00; -4.1390646E-02;  4.0000000E+04;  0.0000000E+00;  4.0033555E+04; -1.0568886E-01;  0.0000000E+00; -9.9697085E-03;  4.5008901E+03;
  5.2299356E-01;  9.9999998E-03;  1.3988374E-01;5662;  3.2788429E-01;  0.0000000E+00; -5.9324986E-04;  9.9652277E+02;  1.0001052E-01; -2.8808027E+03;3; -2.6811644E+01;  0.0000000E+00;  8.6331015E+00;0; -1.1550452E-01;  3.9681031E+04;  0.0000000E+00; -4.6224829E-02;  4.0000000E+04;  0.0000000E+00;  4.0032293E+04; -1.0658938E-01;  0.0000000E+00; -8.9151300E-03;  4.3426787E+03;
  5.2308023E-01;  9.9999998E-03;  1.4987835E-01;5663;  3.2553625E-01;  0.0000000E+00; -7.4043917E-04;  9.9653558E+02;  1.0001054E-01; -2.8701855E+03;3; -2.6040907E+01;  0.0000000E+00;  9.0326738E+00;0; -1.1484340E-01;  3.9683094E+04;  0.0000000E+00; -5.1078562E-02;  4.0000000E+04;  0.0000000E+00;  4.0031043E+04; -1.0769504E-01;  0.0000000E+00; -7.1483590E-03;  4.1833838E+03;
  5.2316821E-01;  9.9999998E-03;  1.5987363E-01;5664;  3.2309023E-01;  0.0000000E+00; -8.5838098E-04;  9.9655194E+02;  1.0001034E-01; -2.8566553E+03;3; -2.5298367E+01;  0.0000000E+00;  9.3584595E+00;0; -1.1375467E-01;  3.9685762E+04;  0.0000000E+00; -5.5903200E-02;  4.0000000E+04;  0.0000000E+00;  4.0029770E+04; -1.0899942E-01;  0.0000000E+00; -4.7552586E-03;  4.0233645E+03;
  5.2325612E-01;  9.9999998E-03;  1.6986968E-01;5665;  3.2054946E-01;  0.0000000E+00; -9.3418098E-04;  9.9657385E+02;  1.0001042E-01; -2.8384829E+03;3; -2.4570229E+01;  0.0000000E+00;  9.5992918E+00;0; -1.1237171E-01;  3.9688797E+04;  0.0000000E+00; -6.0701121E-02;  4.0000000E+04;  0.0000000E+00;  4.0028477E+04; -1.1049046E-01;  0.0000000E+00; -1.8812395E-03;  3.8683813E+03;
  5.2334309E-01;  9.9999998E-03;  1.7986646E-01;5666;  3.1792328E-01;  0.0000000E+00; -9.5694332E-04;  9.9660083E+02;  1.0001040E-01; -2.8161626E+03;3; -2.3867672E+01;  0.0000000E+00;  9.7772827E+00;0; -1.1085229E-01;  3.9692160E+04;  0.0000000E+00; -6.5718465E-02;  4.0000000E+04;  0.0000000E+00;  4.0027406E+04; -1.1214664E-01;  0.0000000E+00;  1.2943489E-03;  3.7290203E+03;
  5.2342790E-01;  9.9999998E-03;  1.8986383E-01;5667;  3.1522802E-01;  0.0000000E+00; -9.1730087E-04;  9.9663403E+02;  1.0001057E-01; -2.7886572E+03;3; -2.3216503E+01;  0.0000000E+00;  9.9061174E+00;0; -1.0934373E-01;  3.9695547E+04;  0.0000000E+00; -7.1542338E-02;  4.0000000E+04;  0.0000000E+00;  4.0026512E+04; -1.1393344E-01;  0.0000000E+00;  4.5897095E-03;  3.6192588E+03;
  5.2350926E-01;  9.9999998E-03;  1.9986141E-01;5668;  3.1249076E-01;  0.0000000E+00; -8.1460702E-04;  9.9667133E+02;  1.0001054E-01; -2.7577446E+03;3; -2.2601234E+01;  0.0000000E+00;  9.9648752E+00;0; -1.0795996E-01;  3.9699172E+04;  0.0000000E+00; -7.8978047E-02;  4.0000000E+04;  0.0000000E+00;  4.0026016E+04; -1.1580488E-01;  0.0000000E+00;  7.8449287E-03;  3.5569705E+03;
  5.2358574E-01;  9.9999998E-03;  2.0985895E-01;5669;  3.0974239E-01;  0.0000000E+00; -6.5058132E-04;  9.9671790E+02;  1.0001054E-01; -2.7191777E+03;3; -2.2091398E+01;  0.0000000E+00;  1.0028625E+01;0; -1.0677587E-01;  3.9702844E+04;  0.0000000E+00; -8.8725008E-02;  4.0000000E+04;  0.0000000E+00;  4.0026188E+04; -1.1770681E-01;  0.0000000E+00;  1.0930931E-02;  3.5665566E+03;
  5.2365613E-01;  9.9999998E-03;  2.1985620E-01;5670;  3.0700740E-01;  0.0000000E+00; -4.1555922E-04;  9.9677881E+02;  1.0001040E-01; -2.6687102E+03;3; -2.1691038E+01;  0.0000000E+00;  1.0085999E+01;0; -1.0580760E-01;  3.9706688E+04;  0.0000000E+00; -1.0095836E-01;  4.0000000E+04;  0.0000000E+00;  4.0027145E+04; -1.1958593E-01;  0.0000000E+00;  1.3778327E-02;  3.6859958E+03;
  5.2371961E-01;  9.9999998E-03;  2.2985366E-01;5671;  3.0429617E-01;  0.0000000E+00; -5.9587699E-05;  9.9685327E+02;  1.0001051E-01; -2.6069836E+03;3; -2.1389124E+01;  0.0000000E+00;  1.0140791E+01;0; -1.0486280E-01;  3.9710484E+04;  0.0000000E+00; -1.1477459E-01;  4.0000000E+04;  0.0000000E+00;  4.0029277E+04; -1.2139640E-01;  0.0000000E+00;  1.6533600E-02;  3.9536011E+03;
  5.3255272E-01;  9.9999998E-03;  6.9936387E-02;5716;  3.4005296E-01;  0.0000000E+00;  1.3347394E-03;  9.9649951E+02;  1.0001725E-01; -2.9000605E+03;3; -3.4240719E+01;  0.0000000E+00;  4.8187203E+00;0; -1.0985579E-01;  3.9664773E+04;  0.0000000E+00; -1.5127396E-02;  4.0000000E+04;  0.0000000E+00;  4.0040766E+04; -1.1628271E-01;  0.0000000E+00;  6.4269267E-03;  5.4120752E+03;
  5.3260958E-01;  9.9999998E-03;  7.9927735E-02;5717;  3.3852208E-01;  0.0000000E+00;  1.3190310E-03;  9.9646796E+02;  1.0001741E-01; -2.9262327E+03;3; -3.3279270E+01;  0.0000000E+00;  5.2924976E+00;0; -1.1245829E-01;  3.9663406E+04;  0.0000000E+00; -1.8642677E-02;  4.0000000E+04;  0.0000000E+00;  4.0039523E+04; -1.1515827E-01;  0.0000000E+00;  2.6999814E-03;  5.2655288E+03;
  5.3267252E-01;  9.9999998E-03;  8.9919575E-02;5718;  3.3685562E-01;  0.0000000E+00;  1.2625820E-03;  9.9644507E+02;  1.0001743E-01; -2.9451951E+03;3; -3.2281986E+01;  0.0000000E+00;  5.7741590E+00;0; -1.1478487E-01;  3.9662832E+04;  0.0000000E+00; -2.1909969E-02;  4.0000000E+04;  0.0000000E+00;  4.0038277E+04; -1.1417922E-01;  0.0000000E+00; -6.0563942E-04;  5.1018882E+03;
  5.3274089E-01;  9.9999998E-03;  9.9912025E-02;5719;  3.3506092E-01;  0.0000000E+00;  1.1727586E-03;  9.9643030E+02;  1.0001730E-01; -2.9574417E+03;3; -3.1299831E+01;  0.0000000E+00;  6.2950153E+00;0; -1.1672699E-01;  3.9663078E+04;  0.0000000E+00; -2.4654055E-02;  4.0000000E+04;  0.0000000E+00;  4.0036797E+04; -1.1340519E-01;  0.0000000E+00; -3.3218006E-03;  4.9277339E+03;
  5.3281391E-01;  9.9999998E-03;  1.0990522E-01;5720;  3.3314496E-01;  0.0000000E+00;  1.0552133E-03;  9.9642548E+02;  1.0001743E-01; -2.9614414E+03;3; -3.0320742E+01;  0.0000000E+00;  6.7968330E+00;0; -1.1820245E-01;  3.9664176E+04;  0.0000000E+00; -2.6629647E-02;  4.0000000E+04;  0.0000000E+00;  4.0035402E+04; -1.1288385E-01;  0.0000000E+00; -5.3185984E-03;  4.7503906E+03;
  5.3289092E-01;  9.9999998E-03;  1.1989918E-01;5721;  3.3111358E-01;  0.0000000E+00;  9.1444037E-04;  9.9643152E+02;  1.0001743E-01; -2.9564045E+03;3; -2.9371233E+01;  0.0000000E+00;  7.2578321E+00;0; -1.1915618E-01;  3.9666086E+04;  0.0000000E+00; -2.7661305E-02;  4.0000000E+04;  0.0000000E+00;  4.0034035E+04; -1.1265139E-01;  0.0000000E+00; -6.5047876E-03;  4.5763989E+03;
  5.3297126E-01;  9.9999998E-03;  1.2989381E-01;5722;  3.2896942E-01;  0.0000000E+00;  7.6274219E-04;  9.9644788E+02;  1.0001732E-01; -2.9428743E+03;3; -2.8465366E+01;  0.0000000E+00;  7.7303348E+00;0; -1.1956119E-01;  3.9668582E+04;  0.0000000E+00; -2.7676320E-02;  4.0000000E+04;  0.0000000E+00;  4.0032742E+04; -1.1273345E-01;  0.0000000E+00; -6.8277428E-03;  4.4099224E+03;
  5.3305399E-01;  9.9999998E-03;  1.3988891E-01;5723;  3.2671601E-01;  0.0000000E+00;  6.1282940E-04;  9.9647137E+02;  1.0001726E-01; -2.9234180E+03;3; -2.7599735E+01;  0.0000000E+00;  8.1765823E+00;0; -1.1941716E-01;  3.9671809E+04;  0.0000000E+00; -2.6718386E-02;  4.0000000E+04;  0.0000000E+00;  4.0031449E+04; -1.1314521E-01;  0.0000000E+00; -6.2719472E-03;  4.2518579E+03;
  5.3313839E-01;  9.9999998E-03;  1.4988449E-01;5724;  3.2435808E-01;  0.0000000E+00;  4.7440408E-04;  9.9650085E+02;  1.0001729E-01; -2.8989744E+03;3; -2.6772388E+01;  0.0000000E+00;  8.5730333E+00;0; -1.1875619E-01;  3.9675387E+04;  0.0000000E+00; -2.4899889E-02;  4.0000000E+04;  0.0000000E+00;  4.0030301E+04; -1.1389492E-01;  0.0000000E+00; -4.8612733E-03;  4.0997627E+03;
  5.3322387E-01;  9.9999998E-03;  1.5988059E-01;5725;  3.2189912E-01;  0.0000000E+00;  3.6012146E-04;  9.9653503E+02;  1.0001763E-01; -2.8706294E+03;3; -2.5956820E+01;  0.0000000E+00;  8.8886766E+00;0; -1.1766602E-01;  3.9679238E+04;  0.0000000E+00; -2.2494184E-02;  4.0000000E+04;  0.0000000E+00;  4.0029109E+04; -1.1498366E-01;  0.0000000E+00; -2.6823587E-03;  3.9520120E+03;
  5.3330982E-01;  9.9999998E-03;  1.6987723E-01;5726;  3.1934494E-01;  0.0000000E+00;  2.8257791E-04;  9.9656989E+02;  1.0001736E-01; -2.8417908E+03;3; -2.5176888E+01;  0.0000000E+00;  9.1444960E+00;0; -1.1629203E-01;  3.9683246E+04;  0.0000000E+00; -2.0182159E-02;  4.0000000E+04;  0.0000000E+00;  4.0028047E+04; -1.1640295E-01;  0.0000000E+00;  1.1092032E-04;  3.8107542E+03;
  5.3339547E-01;  9.9999998E-03;  1.7987436E-01;5727;  3.1670442E-01;  0.0000000E+00;  2.5456457E-04;  9.9660907E+02;  1.0001744E-01; -2.8092979E+03;3; -2.4405308E+01;  0.0000000E+00;  9.3234587E+00;0; -1.1481044E-01;  3.9687344E+04;  0.0000000E+00; -1.9263914E-02;  4.0000000E+04;  0.0000000E+00;  4.0026945E+04; -1.1813244E-01;  0.0000000E+00;  3.3220018E-03;  3.6818337E+03;
  5.3347999E-01;  9.9999998E-03;  1.8987185E-01;5728;  3.1399268E-01;  0.0000000E+00;  2.8718269E-04;  9.9664899E+02;  1.0001754E-01; -2.7762617E+03;3; -2.3676928E+01;  0.0000000E+00;  9.4604263E+00;0; -1.1339235E-01;  3.9691602E+04;  0.0000000E+00; -2.1617867E-02;  4.0000000E+04;  0.0000000E+00;  4.0026129E+04; -1.2013611E-01;  0.0000000E+00;  6.7437598E-03;  3.5740896E+03;
  5.3356254E-01;  9.9999998E-03;  1.9986938E-01;5729;  3.1123662E-01;  0.0000000E+00;  3.8223702E-04;  9.9669360E+02;  1.0001753E-01; -2.7392751E+03;3; -2.3011196E+01;  0.0000000E+00;  9.5668039E+00;0; -1.1218031E-01;  3.9695797E+04;  0.0000000E+00; -2.9378977E-02;  4.0000000E+04;  0.0000000E+00;  4.0025590E+04; -1.2236224E-01;  0.0000000E+00;  1.0181923E-02;  3.5004871E+03;
  5.3364205E-01;  9.9999998E-03;  2.0986673E-01;5730;  3.0846369E-01;  0.0000000E+00;  5.4172112E-04;  9.9674420E+02;  1.0001735E-01; -2.6973506E+03;3; -2.2453514E+01;  0.0000000E+00;  9.6923122E+00;0; -1.1127827E-01;  3.9699957E+04;  0.0000000E+00; -4.4412855E-02;  4.0000000E+04;  0.0000000E+00;  4.0025418E+04; -1.2474556E-01;  0.0000000E+00;  1.3467300E-02;  3.4814590E+03;
  5.3371739E-01;  9.9999998E-03;  2.1986355E-01;5731;  3.0569461E-01;  0.0000000E+00;  7.8447186E-04;  9.9680444E+02;  1.0001730E-01; -2.6474756E+03;3; -2.2011065E+01;  0.0000000E+00;  9.8340912E+00;0; -1.1071674E-01;  3.9704145E+04;  0.0000000E+00; -6.7785457E-02;  4.0000000E+04;  0.0000000E+00;  4.0026043E+04; -1.2721290E-01;  0.0000000E+00;  1.6496161E-02;  3.5546487E+03;
  5.3378695E-01;  9.9999998E-03;  2.2986028E-01;5732;  3.0294970E-01;  0.0000000E+00;  1.1474224E-03;  9.9687842E+02;  1.0001736E-01; -2.5861440E+03;3; -2.1640572E+01;  0.0000000E+00;  9.9449978E+00;0; -1.1034714E-01;  3.9708504E+04;  0.0000000E+00; -9.9177584E-02;  4.0000000E+04;  0.0000000E+00;  4.0027809E+04; -1.2969247E-01;  0.0000000E+00;  1.9345330E-02;  3.7642329E+03;
  5.4263908E-01;  9.9999998E-03;  6.9940709E-02;5777;  3.3875427E-01;  0.0000000E+00;  2.3758353E-03;  9.9644708E+02;  1.0002947E-01; -2.9435151E+03;3; -3.5031506E+01;  0.0000000E+00;  4.6860619E+00;0; -1.1249410E-01;  3.9651898E+04;  0.0000000E+00; -1.4886303E-02;  4.0000000E+04;  0.0000000E+00;  4.0039492E+04; -1.2802380E-01;  0.0000000E+00;  1.5529705E-02;  5.2688213E+03;
  5.4269594E-01;  9.9999998E-03;  7.9932734E-02;5778;  3.3724713E-01;  0.0000000E+00;  2.4137225E-03;  9.9643909E+02;  1.0002926E-01; -2.9501321E+03;3; -3.4096146E+01;  0.0000000E+00;  5.1328654E+00;0; -1.1531543E-01;  3.9652426E+04;  0.0000000E+00; -1.7519072E-02;  4.0000000E+04;  0.0000000E+00;  4.0038230E+04; -1.2597732E-01;  0.0000000E+00;  1.0661895E-02;  5.1133481E+03;
  5.4275841E-01;  9.9999998E-03;  8.9925379E-02;5779;  3.3560351E-01;  0.0000000E+00;  2.3981656E-03;  9.9643909E+02;  1.0002936E-01; -2.9501321E+03;3; -3.3121677E+01;  0.0000000E+00;  5.5759964E+00;0; -1.1782666E-01;  3.9653789E+04;  0.0000000E+00; -1.9257514E-02;  4.0000000E+04;  0.0000000E+00;  4.0036820E+04; -1.2407617E-01;  0.0000000E+00;  6.2495121E-03;  4.9405742E+03;
  5.4282594E-01;  9.9999998E-03;  9.9918798E-02;5780;  3.3382726E-01;  0.0000000E+00;  2.3454265E-03;  9.9644580E+02;  1.0002934E-01; -2.9446013E+03;3; -3.2143417E+01;  0.0000000E+00;  6.0340557E+00;0; -1.1991821E-01;  3.9655832E+04;  0.0000000E+00; -1.9647708E-02;  4.0000000E+04;  0.0000000E+00;  4.0035371E+04; -1.2241083E-01;  0.0000000E+00;  2.4926120E-03;  4.7590156E+03;
  5.4289764E-01;  9.9999998E-03;  1.0991307E-01;5781;  3.3192584E-01;  0.0000000E+00;  2.2579760E-03;  9.9646320E+02;  1.0002936E-01; -2.9301821E+03;3; -3.1156904E+01;  0.0000000E+00;  6.4665842E+00;0; -1.2151170E-01;  3.9658691E+04;  0.0000000E+00; -1.8304681E-02;  4.0000000E+04;  0.0000000E+00;  4.0033969E+04; -1.2105788E-01;  0.0000000E+00; -4.5382159E-04;  4.5781440E+03;
  5.4297262E-01;  9.9999998E-03;  1.1990815E-01;5782;  3.2990366E-01;  0.0000000E+00;  2.1427455E-03;  9.9649066E+02;  1.0002952E-01; -2.9074175E+03;3; -3.0191774E+01;  0.0000000E+00;  6.9056668E+00;0; -1.2255795E-01;  3.9662199E+04;  0.0000000E+00; -1.4988652E-02;  4.0000000E+04;  0.0000000E+00;  4.0032613E+04; -1.2007886E-01;  0.0000000E+00; -2.4790873E-03;  4.4064487E+03;
  5.4305041E-01;  9.9999998E-03;  1.2990388E-01;5783;  3.2776502E-01;  0.0000000E+00;  2.0087492E-03;  9.9652612E+02;  1.0002955E-01; -2.8780356E+03;3; -2.9248619E+01;  0.0000000E+00;  7.3284483E+00;0; -1.2303587E-01;  3.9666188E+04;  0.0000000E+00; -9.6586710E-03;  4.0000000E+04;  0.0000000E+00;  4.0031441E+04; -1.1952008E-01;  0.0000000E+00; -3.5157958E-03;  4.2493716E+03;
  5.4313016E-01;  9.9999998E-03;  1.3990015E-01;5784;  3.2551131E-01;  0.0000000E+00;  1.8716530E-03;  9.9656671E+02;  1.0002943E-01; -2.8444070E+03;3; -2.8342546E+01;  0.0000000E+00;  7.7361298E+00;0; -1.2295234E-01;  3.9670629E+04;  0.0000000E+00; -2.4540375E-03;  4.0000000E+04;  0.0000000E+00;  4.0030215E+04; -1.1941370E-01;  0.0000000E+00; -3.5386488E-03;  4.1079624E+03;
  5.4321158E-01;  9.9999998E-03;  1.4989682E-01;5785;  3.2314780E-01;  0.0000000E+00;  1.7415973E-03;  9.9661151E+02;  1.0002962E-01; -2.8072722E+03;3; -2.7460442E+01;  0.0000000E+00;  8.1102095E+00;0; -1.2234583E-01;  3.9675328E+04;  0.0000000E+00;  6.3487794E-03;  4.0000000E+04;  0.0000000E+00;  4.0029293E+04; -1.1977993E-01;  0.0000000E+00; -2.5658987E-03;  3.9786868E+03;
  5.4329425E-01;  9.9999998E-03;  1.5989386E-01;5786;  3.2067966E-01;  0.0000000E+00;  1.6304164E-03;  9.9665967E+02;  1.0002933E-01; -2.7673723E+03;3; -2.6609890E+01;  0.0000000E+00;  8.4292107E+00;0; -1.2131076E-01;  3.9680102E+04;  0.0000000E+00;  1.6108960E-02;  4.0000000E+04;  0.0000000E+00;  4.0028305E+04; -1.2062702E-01;  0.0000000E+00; -6.8373792E-04;  3.8571265E+03;
  5.4337788E-01;  9.9999998E-03;  1.6989125E-01;5787;  3.1811258E-01;  0.0000000E+00;  1.5527020E-03;  9.9670874E+02;  1.0002951E-01; -2.7267314E+03;3; -2.5767120E+01;  0.0000000E+00;  8.6833487E+00;0; -1.2000138E-01;  3.9684934E+04;  0.0000000E+00;  2.5368979E-02;  4.0000000E+04;  0.0000000E+00;  4.0027445E+04; -1.2194857E-01;  0.0000000E+00;  1.9471979E-03;  3.7405144E+03;
  5.4346222E-01;  9.9999998E-03;  1.7988895E-01;5788;  3.1545657E-01;  0.0000000E+00;  1.5204677E-03;  9.9676062E+02;  1.0002954E-01; -2.6837698E+03;3; -2.4948301E+01;  0.0000000E+00;  8.8692694E+00;0; -1.1860594E-01;  3.9689895E+04;  0.0000000E+00;  3.1639315E-02;  4.0000000E+04;  0.0000000E+00;  4.0026555E+04; -1.2372094E-01;  0.0000000E+00;  5.1150029E-03;  3.6282046E+03;
  5.4354692E-01;  9.9999998E-03;  1.8988681E-01;5789;  3.1272805E-01;  0.0000000E+00;  1.5455546E-03;  9.9681036E+02;  1.0002946E-01; -2.6425366E+03;3; -2.4156044E+01;  0.0000000E+00;  9.0035048E+00;0; -1.1731272E-01;  3.9694988E+04;  0.0000000E+00;  3.1610820E-02;  4.0000000E+04;  0.0000000E+00;  4.0025734E+04; -1.2590151E-01;  0.0000000E+00;  8.5887834E-03;  3.5214766E+03;
  5.4363173E-01;  9.9999998E-03;  1.9988458E-01;5790;  3.0994901E-01;  0.0000000E+00;  1.6353902E-03;  9.9686420E+02;  1.0002949E-01; -2.5979453E+03;3; -2.3441032E+01;  0.0000000E+00;  9.1428967E+00;0; -1.1628318E-01;  3.9700020E+04;  0.0000000E+00;  2.1716256E-02;  4.0000000E+04;  0.0000000E+00;  4.0025008E+04; -1.2842698E-01;  0.0000000E+00;  1.2143807E-02;  3.4251006E+03;
  5.4371601E-01;  9.9999998E-03;  2.0988195E-01;5791;  3.0714408E-01;  0.0000000E+00;  1.7966466E-03;  9.9692242E+02;  1.0002949E-01; -2.5497000E+03;3; -2.2828962E+01;  0.0000000E+00;  9.3008156E+00;0; -1.1563975E-01;  3.9705234E+04;  0.0000000E+00; -1.1927590E-03;  4.0000000E+04;  0.0000000E+00;  4.0024484E+04; -1.3121845E-01;  0.0000000E+00;  1.5578703E-02;  3.3520178E+03;
  5.4379845E-01;  9.9999998E-03;  2.1987851E-01;5792;  3.0433649E-01;  0.0000000E+00;  2.0450824E-03;  9.9698315E+02;  1.0002942E-01; -2.4993804E+03;3; -2.2316252E+01;  0.0000000E+00;  9.4724970E+00;0; -1.1543544E-01;  3.9710422E+04;  0.0000000E+00; -3.9262254E-02;  4.0000000E+04;  0.0000000E+00;  4.0024352E+04; -1.3418436E-01;  0.0000000E+00;  1.8748924E-02;  3.3344551E+03;
  5.4387677E-01;  9.9999998E-03;  2.2987467E-01;5793;  3.0155540E-01;  0.0000000E+00;  2.4001917E-03;  9.9705640E+02;  1.0002951E-01; -2.4386909E+03;3; -2.1880846E+01;  0.0000000E+00;  9.6239777E+00;0; -1.1560177E-01;  3.9715645E+04;  0.0000000E+00; -9.3130037E-02;  4.0000000E+04;  0.0000000E+00;  4.0025035E+04; -1.3723220E-01;  0.0000000E+00;  2.1630429E-02;  3.4178728E+03;
  5.5274683E-01;  9.9999998E-03;  6.9948688E-02;5838;  3.3736935E-01;  0.0000000E+00;  3.4908974E-03;  9.9659076E+02;  1.0004856E-01; -2.8245056E+03;3; -3.5722115E+01;  0.0000000E+00;  4.5548024E+00;0; -1.1451044E-01;  3.9650047E+04;  0.0000000E+00; -1.4272909E-02;  4.0000000E+04;  0.0000000E+00;  4.0037250E+04; -1.3972309E-01;  0.0000000E+00;  2.5212655E-02;  4.9912969E+03;
  5.5280274E-01;  9.9999998E-03;  7.9941757E-02;5839;  3.3589688E-01;  0.0000000E+00;  3.5806394E-03;  9.9660010E+02;  1.0004842E-01; -2.8167529E+03;3; -3.4815113E+01;  0.0000000E+00;  4.9794850E+00;0; -1.1756521E-01;  3.9651883E+04;  0.0000000E+00; -1.5582426E-02;  4.0000000E+04;  0.0000000E+00;  4.0035984E+04; -1.3673633E-01;  0.0000000E+00;  1.9171126E-02;  4.8364351E+03;
  5.5286324E-01;  9.9999998E-03;  8.9935459E-02;5840;  3.3428514E-01;  0.0000000E+00;  3.6067925E-03;  9.9661462E+02;  1.0004833E-01; -2.8047039E+03;3; -3.3866207E+01;  0.0000000E+00;  5.3885798E+00;0; -1.2027834E-01;  3.9654598E+04;  0.0000000E+00; -1.5271997E-02;  4.0000000E+04;  0.0000000E+00;  4.0034590E+04; -1.3389172E-01;  0.0000000E+00;  1.3613380E-02;  4.6660864E+03;
  5.5292791E-01;  9.9999998E-03;  9.9929921E-02;5841;  3.3253884E-01;  0.0000000E+00;  3.5840566E-03;  9.9663928E+02;  1.0004845E-01; -2.7842600E+03;3; -3.2893333E+01;  0.0000000E+00;  5.7835417E+00;0; -1.2254028E-01;  3.9657828E+04;  0.0000000E+00; -1.2792422E-02;  4.0000000E+04;  0.0000000E+00;  4.0033188E+04; -1.3131136E-01;  0.0000000E+00;  8.7710768E-03;  4.4904331E+03;
  5.5299580E-01;  9.9999998E-03;  1.0992520E-01;5842;  3.3066067E-01;  0.0000000E+00;  3.5247062E-03;  9.9667206E+02;  1.0004858E-01; -2.7571497E+03;3; -3.1910048E+01;  0.0000000E+00;  6.1725569E+00;0; -1.2427650E-01;  3.9661730E+04;  0.0000000E+00; -7.7333101E-03;  4.0000000E+04;  0.0000000E+00;  4.0031957E+04; -1.2910037E-01;  0.0000000E+00;  4.8238682E-03;  4.3205439E+03;
  5.5306655E-01;  9.9999998E-03;  1.1992130E-01;5843;  3.2865644E-01;  0.0000000E+00;  3.4315332E-03;  9.9671259E+02;  1.0004846E-01; -2.7235706E+03;3; -3.0934183E+01;  0.0000000E+00;  6.5513773E+00;0; -1.2544525E-01;  3.9666203E+04;  0.0000000E+00;  9.8247023E-05;  4.0000000E+04;  0.0000000E+00;  4.0030660E+04; -1.2734692E-01;  0.0000000E+00;  1.9016702E-03;  4.1661836E+03;
  5.5313993E-01;  9.9999998E-03;  1.2991813E-01;5844;  3.2652918E-01;  0.0000000E+00;  3.3155726E-03;  9.9676050E+02;  1.0004845E-01; -2.6838679E+03;3; -2.9974863E+01;  0.0000000E+00;  6.9429965E+00;0; -1.2603375E-01;  3.9671098E+04;  0.0000000E+00;  1.0641626E-02;  4.0000000E+04;  0.0000000E+00;  4.0029695E+04; -1.2611996E-01;  0.0000000E+00;  8.6206361E-05;  4.0332463E+03;
  5.5321527E-01;  9.9999998E-03;  1.3991554E-01;5845;  3.2428131E-01;  0.0000000E+00;  3.1899093E-03;  9.9681470E+02;  1.0004857E-01; -2.6389805E+03;3; -2.9030670E+01;  0.0000000E+00;  7.3082185E+00;0; -1.2605591E-01;  3.9676230E+04;  0.0000000E+00;  2.3632230E-02;  4.0000000E+04;  0.0000000E+00;  4.0028855E+04; -1.2546878E-01;  0.0000000E+00; -5.8713823E-04;  3.9221262E+03;
  5.5329239E-01;  9.9999998E-03;  1.4991340E-01;5846;  3.2191619E-01;  0.0000000E+00;  3.0674264E-03;  9.9687170E+02;  1.0004828E-01; -2.5917227E+03;3; -2.8119305E+01;  0.0000000E+00;  7.6514950E+00;0; -1.2555680E-01;  3.9681602E+04;  0.0000000E+00;  3.8621761E-02;  4.0000000E+04;  0.0000000E+00;  4.0028070E+04; -1.2542641E-01;  0.0000000E+00; -1.3038670E-04;  3.8277498E+03;
  5.5337125E-01;  9.9999998E-03;  1.5991160E-01;5847;  3.1944108E-01;  0.0000000E+00;  2.9593229E-03;  9.9693188E+02;  1.0004862E-01; -2.5418477E+03;3; -2.7215279E+01;  0.0000000E+00;  7.9522715E+00;0; -1.2463725E-01;  3.9687070E+04;  0.0000000E+00;  5.4565497E-02;  4.0000000E+04;  0.0000000E+00;  4.0027434E+04; -1.2600964E-01;  0.0000000E+00;  1.3723900E-03;  3.7420808E+03;
  5.5345190E-01;  9.9999998E-03;  1.6991003E-01;5848;  3.1686255E-01;  0.0000000E+00;  2.8798378E-03;  9.9699286E+02;  1.0004863E-01; -2.4913308E+03;3; -2.6339226E+01;  0.0000000E+00;  8.2021494E+00;0; -1.2345955E-01;  3.9692750E+04;  0.0000000E+00;  6.9187202E-02;  4.0000000E+04;  0.0000000E+00;  4.0026781E+04; -1.2721533E-01;  0.0000000E+00;  3.7557743E-03;  3.6566909E+03;
  5.5353504E-01;  9.9999998E-03;  1.7990857E-01;5849;  3.1419140E-01;  0.0000000E+00;  2.8429006E-03;  9.9705670E+02;  1.0004853E-01; -2.4384431E+03;3; -2.5463661E+01;  0.0000000E+00;  8.3817406E+00;0; -1.2222140E-01;  3.9698508E+04;  0.0000000E+00;  7.8804575E-02;  4.0000000E+04;  0.0000000E+00;  4.0026180E+04; -1.2901628E-01;  0.0000000E+00;  6.7948862E-03;  3.5631494E+03;
  5.5362093E-01;  9.9999998E-03;  1.8990713E-01;5850;  3.1144229E-01;  0.0000000E+00;  2.8628041E-03;  9.9712085E+02;  1.0004846E-01; -2.3853088E+03;3; -2.4633942E+01;  0.0000000E+00;  8.5378628E+00;0; -1.2112294E-01;  3.9704570E+04;  0.0000000E+00;  7.8710981E-02;  4.0000000E+04;  0.0000000E+00;  4.0025238E+04; -1.3136047E-01;  0.0000000E+00;  1.0237528E-02;  3.4534580E+03;
  5.5370951E-01;  9.9999998E-03;  1.9990538E-01;5851;  3.0863577E-01;  0.0000000E+00;  2.9503889E-03;  9.9718549E+02;  1.0004871E-01; -2.3317798E+03;3; -2.3871887E+01;  0.0000000E+00;  8.6863861E+00;0; -1.2033746E-01;  3.9710840E+04;  0.0000000E+00;  6.3929290E-02;  4.0000000E+04;  0.0000000E+00;  4.0024242E+04; -1.3416959E-01;  0.0000000E+00;  1.3832136E-02;  3.3220596E+03;
  5.5380028E-01;  9.9999998E-03;  2.0990282E-01;5852;  3.0579501E-01;  0.0000000E+00;  3.1160454E-03;  9.9725061E+02;  1.0004868E-01; -2.2778062E+03;3; -2.3204390E+01;  0.0000000E+00;  8.8558931E+00;0; -1.1999729E-01;  3.9717387E+04;  0.0000000E+00;  3.0149270E-02;  4.0000000E+04;  0.0000000E+00;  4.0023094E+04; -1.3734616E-01;  0.0000000E+00;  1.7348876E-02;  3.1733408E+03;
  5.5389106E-01;  9.9999998E-03;  2.1989907E-01;5853;  3.0294621E-01;  0.0000000E+00;  3.3690436E-03;  9.9731958E+02;  1.0004873E-01; -2.2206721E+03;3; -2.2621132E+01;  0.0000000E+00;  9.0380173E+00;0; -1.2017833E-01;  3.9723965E+04;  0.0000000E+00; -2.5808971E-02;  4.0000000E+04;  0.0000000E+00;  4.0022047E+04; -1.4077947E-01;  0.0000000E+00;  2.0601142E-02;  3.0335061E+03;
  5.5397940E-01;  9.9999998E-03;  2.2989453E-01;5854;  3.0012587E-01;  0.0000000E+00;  3.7086180E-03;  9.9739166E+02;  1.0004845E-01; -2.1609702E+03;3; -2.2117378E+01;  0.0000000E+00;  9.2195892E+00;0; -1.2090507E-01;  3.9730684E+04;  0.0000000E+00; -1.0578813E-01;  4.0000000E+04;  0.0000000E+00;  4.0021379E+04; -1.4435847E-01;  0.0000000E+00;  2.3453401E-02;  2.9484092E+03;
  5.6286466E-01;  9.9999998E-03;  6.9958627E-02;5899;  3.3591053E-01;  0.0000000E+00;  4.6837544E-03;  9.9690509E+02;  1.0007910E-01; -2.5640679E+03;3; -3.6335052E+01;  0.0000000E+00;  4.4122472E+00;0; -1.1597386E-01;  3.9653590E+04;  0.0000000E+00; -1.2821599E-02;  4.0000000E+04;  0.0000000E+00;  4.0034113E+04; -1.5143658E-01;  0.0000000E+00;  3.5462726E-02;  4.6120078E+03;
  5.6291789E-01;  9.9999998E-03;  7.9952836E-02;5900;  3.3448663E-01;  0.0000000E+00;  4.8197615E-03;  9.9692322E+02;  1.0007913E-01; -2.5490559E+03;3; -3.5451946E+01;  0.0000000E+00;  4.8055658E+00;0; -1.1924917E-01;  3.9656051E+04;  0.0000000E+00; -1.2333913E-02;  4.0000000E+04;  0.0000000E+00;  4.0033008E+04; -1.4749725E-01;  0.0000000E+00;  2.8248081E-02;  4.4665376E+03;
  5.6297433E-01;  9.9999998E-03;  8.9947663E-02;5901;  3.3291653E-01;  0.0000000E+00;  4.8868130E-03;  9.9694806E+02;  1.0007905E-01; -2.5284641E+03;3; -3.4524525E+01;  0.0000000E+00;  5.1793098E+00;0; -1.2215413E-01;  3.9659152E+04;  0.0000000E+00; -9.5440196E-03;  4.0000000E+04;  0.0000000E+00;  4.0031770E+04; -1.4369114E-01;  0.0000000E+00;  2.1537002E-02;  4.3091914E+03;
  5.6303394E-01;  9.9999998E-03;  9.9943198E-02;5902;  3.3120897E-01;  0.0000000E+00;  4.8927665E-03;  9.9697748E+02;  1.0007909E-01; -2.5041191E+03;3; -3.3562923E+01;  0.0000000E+00;  5.5329037E+00;0; -1.2458195E-01;  3.9662895E+04;  0.0000000E+00; -3.9357254E-03;  4.0000000E+04;  0.0000000E+00;  4.0030582E+04; -1.4017420E-01;  0.0000000E+00;  1.5592244E-02;  4.1512002E+03;
  5.6309611E-01;  9.9999998E-03;  1.0993957E-01;5903;  3.2936180E-01;  0.0000000E+00;  4.8605385E-03;  9.9701544E+02;  1.0007910E-01; -2.4726633E+03;3; -3.2590153E+01;  0.0000000E+00;  5.8818269E+00;0; -1.2646389E-01;  3.9667105E+04;  0.0000000E+00;  4.7765016E-03;  4.0000000E+04;  0.0000000E+00;  4.0029371E+04; -1.3708097E-01;  0.0000000E+00;  1.0617072E-02;  4.0046909E+03;
  5.6316066E-01;  9.9999998E-03;  1.1993679E-01;5904;  3.2738322E-01;  0.0000000E+00;  4.7865557E-03;  9.9706335E+02;  1.0007919E-01; -2.4329609E+03;3; -3.1604939E+01;  0.0000000E+00;  6.1989946E+00;0; -1.2776737E-01;  3.9671766E+04;  0.0000000E+00;  1.6603261E-02;  4.0000000E+04;  0.0000000E+00;  4.0028477E+04; -1.3452683E-01;  0.0000000E+00;  6.7594657E-03;  3.8796970E+03;
  5.6322759E-01;  9.9999998E-03;  1.2993474E-01;5905;  3.2527253E-01;  0.0000000E+00;  4.6889102E-03;  9.9711749E+02;  1.0007913E-01; -2.3880735E+03;3; -3.0641434E+01;  0.0000000E+00;  6.5583382E+00;0; -1.2848791E-01;  3.9676832E+04;  0.0000000E+00;  3.1310186E-02;  4.0000000E+04;  0.0000000E+00;  4.0027695E+04; -1.3260286E-01;  0.0000000E+00;  4.1149338E-03;  3.7816963E+03;
  5.6329656E-01;  9.9999998E-03;  1.3993339E-01;5906;  3.2303506E-01;  0.0000000E+00;  4.5741820E-03;  9.9717694E+02;  1.0007929E-01; -2.3388403E+03;3; -2.9667442E+01;  0.0000000E+00;  6.8752012E+00;0; -1.2864879E-01;  3.9682203E+04;  0.0000000E+00;  4.8487201E-02;  4.0000000E+04;  0.0000000E+00;  4.0027102E+04; -1.3137773E-01;  0.0000000E+00;  2.7289398E-03;  3.7098940E+03;
  5.6336772E-01;  9.9999998E-03;  1.4993261E-01;5907;  3.2067245E-01;  0.0000000E+00;  4.4583664E-03;  9.9724121E+02;  1.0007935E-01; -2.2856074E+03;3; -2.8712223E+01;  0.0000000E+00;  7.1711483E+00;0; -1.2830220E-01;  3.9687809E+04;  0.0000000E+00;  6.7489676E-02;  4.0000000E+04;  0.0000000E+00;  4.0026777E+04; -1.3089880E-01;  0.0000000E+00;  2.5966056E-03;  3.6568789E+03;
  5.6344217E-01;  9.9999998E-03;  1.5993218E-01;5908;  3.1819138E-01;  0.0000000E+00;  4.3532830E-03;  9.9731158E+02;  1.0007913E-01; -2.2272883E+03;3; -2.7783930E+01;  0.0000000E+00;  7.4529886E+00;0; -1.2755473E-01;  3.9693688E+04;  0.0000000E+00;  8.6862624E-02;  4.0000000E+04;  0.0000000E+00;  4.0026477E+04; -1.3119295E-01;  0.0000000E+00;  3.6382198E-03;  3.6108210E+03;
  5.6352109E-01;  9.9999998E-03;  1.6993186E-01;5909;  3.1560093E-01;  0.0000000E+00;  4.2727147E-03;  9.9738397E+02;  1.0007933E-01; -2.1673396E+03;3; -2.6864166E+01;  0.0000000E+00;  7.6852741E+00;0; -1.2657502E-01;  3.9699977E+04;  0.0000000E+00;  1.0358898E-01;  4.0000000E+04;  0.0000000E+00;  4.0026047E+04; -1.3226159E-01;  0.0000000E+00;  5.6865611E-03;  3.5571765E+03;
  5.6360483E-01;  9.9999998E-03;  1.7993139E-01;5910;  3.1291217E-01;  0.0000000E+00;  4.2314399E-03;  9.9746155E+02;  1.0007942E-01; -2.1030452E+03;3; -2.5962490E+01;  0.0000000E+00;  7.8680854E+00;0; -1.2556939E-01;  3.9706762E+04;  0.0000000E+00;  1.1294502E-01;  4.0000000E+04;  0.0000000E+00;  4.0025492E+04; -1.3407567E-01;  0.0000000E+00;  8.5062869E-03;  3.4795537E+03;
  5.6369370E-01;  9.9999998E-03;  1.8993065E-01;5911;  3.1014007E-01;  0.0000000E+00;  4.2454372E-03;  9.9753748E+02;  1.0007939E-01; -2.0401337E+03;3; -2.5089987E+01;  0.0000000E+00;  8.0226717E+00;0; -1.2474627E-01;  3.9713957E+04;  0.0000000E+00;  1.0901055E-01;  4.0000000E+04;  0.0000000E+00;  4.0024535E+04; -1.3657263E-01;  0.0000000E+00;  1.1826357E-02;  3.3604688E+03;
  5.6378728E-01;  9.9999998E-03;  1.9992928E-01;5912;  3.0730277E-01;  0.0000000E+00;  4.3307990E-03;  9.9761633E+02;  1.0007925E-01; -1.9748024E+03;3; -2.4283552E+01;  0.0000000E+00;  8.1749439E+00;0; -1.2428755E-01;  3.9721660E+04;  0.0000000E+00;  8.5802831E-02;  4.0000000E+04;  0.0000000E+00;  4.0023250E+04; -1.3965861E-01;  0.0000000E+00;  1.5371065E-02;  3.1843286E+03;
  5.6388485E-01;  9.9999998E-03;  2.0992655E-01;5913;  3.0442286E-01;  0.0000000E+00;  4.5004338E-03;  9.9769287E+02;  1.0007920E-01; -1.9113970E+03;3; -2.3562855E+01;  0.0000000E+00;  8.3477850E+00;0; -1.2433165E-01;  3.9729680E+04;  0.0000000E+00;  3.8432851E-02;  4.0000000E+04;  0.0000000E+00;  4.0021387E+04; -1.4321640E-01;  0.0000000E+00;  1.8884748E-02;  2.9485945E+03;
  5.6398422E-01;  9.9999998E-03;  2.1992207E-01;5914;  3.0153134E-01;  0.0000000E+00;  4.7542718E-03;  9.9776776E+02;  1.0007947E-01; -1.8493743E+03;3; -2.2918736E+01;  0.0000000E+00;  8.5362616E+00;0; -1.2497894E-01;  3.9738051E+04;  0.0000000E+00; -3.6759153E-02;  4.0000000E+04;  0.0000000E+00;  4.0019309E+04; -1.4711595E-01;  0.0000000E+00;  2.2137005E-02;  2.6774976E+03;
  5.6408131E-01;  9.9999998E-03;  2.2991654E-01;5915;  2.9866579E-01;  0.0000000E+00;  5.0765811E-03;  9.9784534E+02;  1.0007925E-01; -1.7850800E+03;3; -2.2350893E+01;  0.0000000E+00;  8.7390862E+00;0; -1.2633577E-01;  3.9746359E+04;  0.0000000E+00; -1.4327079E-01;  4.0000000E+04;  0.0000000E+00;  4.0017176E+04; -1.5122639E-01;  0.0000000E+00;  2.4890615E-02;  2.4174968E+03;
  5.7297397E-01;  9.9999998E-03;  6.9969133E-02;5960;  3.3438760E-01;  0.0000000E+00;  5.9417123E-03;  9.9730957E+02;  1.0012960E-01; -2.2289663E+03;3; -3.6892845E+01;  0.0000000E+00;  4.1970563E+00;0; -1.1696407E-01;  3.9649281E+04;  0.0000000E+00; -9.5000472E-03;  4.0000000E+04;  0.0000000E+00;  4.0030527E+04; -1.6321011E-01;  0.0000000E+00;  4.6246037E-02;  4.1755488E+03;
  5.7302272E-01;  9.9999998E-03;  7.9964593E-02;5961;  3.3302319E-01;  0.0000000E+00;  6.1288215E-03;  9.9732703E+02;  1.0012975E-01; -2.2144976E+03;3; -3.6021004E+01;  0.0000000E+00;  4.5981040E+00;0; -1.2040920E-01;  3.9651711E+04;  0.0000000E+00; -6.7644282E-03;  4.0000000E+04;  0.0000000E+00;  4.0029586E+04; -1.5830773E-01;  0.0000000E+00;  3.7898533E-02;  4.0464895E+03;
  5.7307363E-01;  9.9999998E-03;  8.9960694E-02;5962;  3.3150515E-01;  0.0000000E+00;  6.2389290E-03;  9.9735120E+02;  1.0012970E-01; -2.1944983E+03;3; -3.5112465E+01;  0.0000000E+00;  4.9474101E+00;0; -1.2346189E-01;  3.9654496E+04;  0.0000000E+00; -1.2373616E-03;  4.0000000E+04;  0.0000000E+00;  4.0028453E+04; -1.5352529E-01;  0.0000000E+00;  3.0063398E-02;  3.9103503E+03;
  5.7312638E-01;  9.9999998E-03;  9.9957541E-02;5963;  3.2984367E-01;  0.0000000E+00;  6.2765777E-03;  9.9737854E+02;  1.0012959E-01; -2.1718323E+03;3; -3.4164597E+01;  0.0000000E+00;  5.2583723E+00;0; -1.2601961E-01;  3.9657918E+04;  0.0000000E+00;  7.3752007E-03;  4.0000000E+04;  0.0000000E+00;  4.0027496E+04; -1.4905144E-01;  0.0000000E+00;  2.3031835E-02;  3.7789912E+03;
  5.7318074E-01;  9.9999998E-03;  1.0995523E-01;5964;  3.2803676E-01;  0.0000000E+00;  6.2677977E-03;  9.9741632E+02;  1.0012990E-01; -2.1405247E+03;3; -3.3195671E+01;  0.0000000E+00;  5.5616941E+00;0; -1.2802155E-01;  3.9661719E+04;  0.0000000E+00;  1.9060817E-02;  4.0000000E+04;  0.0000000E+00;  4.0026605E+04; -1.4505127E-01;  0.0000000E+00;  1.7029721E-02;  3.6644277E+03;
  5.7323706E-01;  9.9999998E-03;  1.1995377E-01;5965;  3.2608894E-01;  0.0000000E+00;  6.2152734E-03;  9.9746155E+02;  1.0012984E-01; -2.1030444E+03;3; -3.2211571E+01;  0.0000000E+00;  5.8476315E+00;0; -1.2944533E-01;  3.9665906E+04;  0.0000000E+00;  3.3542488E-02;  4.0000000E+04;  0.0000000E+00;  4.0025906E+04; -1.4166713E-01;  0.0000000E+00;  1.2221803E-02;  3.5762014E+03;
  5.7329577E-01;  9.9999998E-03;  1.2995307E-01;5966;  3.2400081E-01;  0.0000000E+00;  6.1339200E-03;  9.9751434E+02;  1.0012973E-01; -2.0592927E+03;3; -3.1227924E+01;  0.0000000E+00;  6.1370077E+00;0; -1.3029790E-01;  3.9670605E+04;  0.0000000E+00;  5.0361142E-02;  4.0000000E+04;  0.0000000E+00;  4.0025523E+04; -1.3901421E-01;  0.0000000E+00;  8.7163113E-03;  3.5184944E+03;
  5.7335794E-01;  9.9999998E-03;  1.3995303E-01;5967;  3.2177675E-01;  0.0000000E+00;  6.0312608E-03;  9.9757678E+02;  1.0012983E-01; -2.0075906E+03;3; -3.0244724E+01;  0.0000000E+00;  6.4207578E+00;0; -1.3061310E-01;  3.9675574E+04;  0.0000000E+00;  6.8952605E-02;  4.0000000E+04;  0.0000000E+00;  4.0025316E+04; -1.3718216E-01;  0.0000000E+00;  6.5690624E-03;  3.4886611E+03;
  5.7342517E-01;  9.9999998E-03;  1.4995340E-01;5968;  3.1941858E-01;  0.0000000E+00;  5.9236609E-03;  9.9764545E+02;  1.0012996E-01; -1.9507035E+03;3; -2.9260756E+01;  0.0000000E+00;  6.6792908E+00;0; -1.3045065E-01;  3.9681238E+04;  0.0000000E+00;  8.8480860E-02;  4.0000000E+04;  0.0000000E+00;  4.0025227E+04; -1.3623399E-01;  0.0000000E+00;  5.7833279E-03;  3.4767185E+03;
  5.7349831E-01;  9.9999998E-03;  1.5995394E-01;5969;  3.1693244E-01;  0.0000000E+00;  5.8222492E-03;  9.9772266E+02;  1.0012975E-01; -1.8867056E+03;3; -2.8296148E+01;  0.0000000E+00;  6.9165564E+00;0; -1.2992154E-01;  3.9687418E+04;  0.0000000E+00;  1.0716323E-01;  4.0000000E+04;  0.0000000E+00;  4.0025262E+04; -1.3620725E-01;  0.0000000E+00;  6.2857121E-03;  3.4670642E+03;
  5.7357794E-01;  9.9999998E-03;  1.6995442E-01;5970;  3.1432903E-01;  0.0000000E+00;  5.7401340E-03;  9.9780566E+02;  1.0012994E-01; -1.8179669E+03;3; -2.7351950E+01;  0.0000000E+00;  7.1324611E+00;0; -1.2919909E-01;  3.9694297E+04;  0.0000000E+00;  1.2145004E-01;  4.0000000E+04;  0.0000000E+00;  4.0025016E+04; -1.3710964E-01;  0.0000000E+00;  7.9105459E-03;  3.4397000E+03;
  5.7366431E-01;  9.9999998E-03;  1.7995451E-01;5971;  3.1161967E-01;  0.0000000E+00;  5.6945332E-03;  9.9789319E+02;  1.0013002E-01; -1.7454260E+03;3; -2.6418972E+01;  0.0000000E+00;  7.3078127E+00;0; -1.2849408E-01;  3.9701914E+04;  0.0000000E+00;  1.2588336E-01;  4.0000000E+04;  0.0000000E+00;  4.0024590E+04; -1.3890995E-01;  0.0000000E+00;  1.0415872E-02;  3.3712383E+03;
  5.7375687E-01;  9.9999998E-03;  1.8995394E-01;5972;  3.0881920E-01;  0.0000000E+00;  5.7033864E-03;  9.9798499E+02;  1.0013006E-01; -1.6693792E+03;3; -2.5527452E+01;  0.0000000E+00;  7.4691644E+00;0; -1.2802278E-01;  3.9710262E+04;  0.0000000E+00;  1.1390818E-01;  4.0000000E+04;  0.0000000E+00;  4.0023547E+04; -1.4153786E-01;  0.0000000E+00;  1.3515090E-02;  3.2370049E+03;
  5.7385510E-01;  9.9999998E-03;  1.9995241E-01;5973;  3.0594677E-01;  0.0000000E+00;  5.7840906E-03;  9.9807391E+02;  1.0013010E-01; -1.5957024E+03;3; -2.4682434E+01;  0.0000000E+00;  7.6207929E+00;0; -1.2797447E-01;  3.9719215E+04;  0.0000000E+00;  7.9552844E-02;  4.0000000E+04;  0.0000000E+00;  4.0021914E+04; -1.4488506E-01;  0.0000000E+00;  1.6910596E-02;  3.0145037E+03;
  5.7395768E-01;  9.9999998E-03;  2.0994894E-01;5974;  3.0302575E-01;  0.0000000E+00;  5.9499368E-03;  9.9815991E+02;  1.0013019E-01; -1.5244948E+03;3; -2.3908215E+01;  0.0000000E+00;  7.7824817E+00;0; -1.2849818E-01;  3.9728566E+04;  0.0000000E+00;  1.8387718E-02;  4.0000000E+04;  0.0000000E+00;  4.0019363E+04; -1.4881691E-01;  0.0000000E+00;  2.0318735E-02;  2.6984675E+03;
  5.7406223E-01;  9.9999998E-03;  2.1994306E-01;5975;  3.0008838E-01;  0.0000000E+00;  6.2001529E-03;  9.9824310E+02;  1.0013010E-01; -1.4555587E+03;3; -2.3211742E+01;  0.0000000E+00;  7.9762945E+00;0; -1.2971422E-01;  3.9738383E+04;  0.0000000E+00; -7.3040649E-02;  4.0000000E+04;  0.0000000E+00;  4.0016402E+04; -1.5318574E-01;  0.0000000E+00;  2.3471527E-02;  2.3199375E+03;
  5.7416445E-01;  9.9999998E-03;  2.2993587E-01;5976;  2.9717162E-01;  0.0000000E+00;  6.5137236E-03;  9.9832635E+02;  1.0013002E-01; -1.3865732E+03;3; -2.2578724E+01;  0.0000000E+00;  8.1839905E+00;0; -1.3177034E-01;  3.9748488E+04;  0.0000000E+00; -2.0009449E-01;  4.0000000E+04;  0.0000000E+00;  4.0013188E+04; -1.5784010E-01;  0.0000000E+00;  2.6069766E-02;  1.9375800E+03;
  5.8305424E-01;  9.9999998E-03;  6.9980040E-02;6021;  3.3279848E-01;  0.0000000E+00;  7.2541838E-03;  9.9765906E+02;  1.0021161E-01; -1.9393942E+03;3; -3.7404785E+01;  0.0000000E+00;  3.9502246E+00;0; -1.1754447E-01;  3.9616504E+04;  0.0000000E+00; -3.5953589E-03;  4.0000000E+04;  0.0000000E+00;  4.0026617E+04; -1.7504990E-01;  0.0000000E+00;  5.7505429E-02;  3.7325159E+03;
  5.8309662E-01;  9.9999998E-03;  7.9977147E-02;6022;  3.3150306E-01;  0.0000000E+00;  7.5055608E-03;  9.9766803E+02;  1.0021155E-01; -1.9319871E+03;3; -3.6545876E+01;  0.0000000E+00;  4.3168702E+00;0; -1.2106641E-01;  3.9618035E+04;  0.0000000E+00;  1.6224962E-03;  4.0000000E+04;  0.0000000E+00;  4.0025844E+04; -1.6917534E-01;  0.0000000E+00;  4.8108935E-02;  3.6242119E+03;
  5.8313966E-01;  9.9999998E-03;  8.9974880E-02;6023;  3.3004987E-01;  0.0000000E+00;  7.6574455E-03;  9.9768250E+02;  1.0021185E-01; -1.9199874E+03;3; -3.5640713E+01;  0.0000000E+00;  4.6642423E+00;0; -1.2418272E-01;  3.9620059E+04;  0.0000000E+00;  9.7131683E-03;  4.0000000E+04;  0.0000000E+00;  4.0025043E+04; -1.6340171E-01;  0.0000000E+00;  3.9218985E-02;  3.5142407E+03;
  5.8318335E-01;  9.9999998E-03;  9.9973306E-02;6024;  3.2844326E-01;  0.0000000E+00;  7.7334484E-03;  9.9770374E+02;  1.0021164E-01; -1.9024077E+03;3; -3.4703884E+01;  0.0000000E+00;  4.9477038E+00;0; -1.2679574E-01;  3.9622367E+04;  0.0000000E+00;  2.0568339E-02;  4.0000000E+04;  0.0000000E+00;  4.0024211E+04; -1.5794912E-01;  0.0000000E+00;  3.1153375E-02;  3.4141375E+03;
  5.8322924E-01;  9.9999998E-03;  1.0997239E-01;6025;  3.2668424E-01;  0.0000000E+00;  7.7494378E-03;  9.9773224E+02;  1.0021175E-01; -1.8788036E+03;3; -3.3740349E+01;  0.0000000E+00;  5.2161031E+00;0; -1.2885670E-01;  3.9625223E+04;  0.0000000E+00;  3.3753764E-02;  4.0000000E+04;  0.0000000E+00;  4.0023566E+04; -1.5301587E-01;  0.0000000E+00;  2.4159160E-02;  3.3349446E+03;
  5.8327901E-01;  9.9999998E-03;  1.1997208E-01;6026;  3.2477286E-01;  0.0000000E+00;  7.7216960E-03;  9.9777069E+02;  1.0021181E-01; -1.8469528E+03;3; -3.2752743E+01;  0.0000000E+00;  5.4627147E+00;0; -1.3035560E-01;  3.9628586E+04;  0.0000000E+00;  4.8654165E-02;  4.0000000E+04;  0.0000000E+00;  4.0023215E+04; -1.4877191E-01;  0.0000000E+00;  1.8416319E-02;  3.2847124E+03;
  5.8333379E-01;  9.9999998E-03;  1.2997228E-01;6027;  3.2271281E-01;  0.0000000E+00;  7.6563116E-03;  9.9782001E+02;  1.0021199E-01; -1.8060652E+03;3; -3.1758066E+01;  0.0000000E+00;  5.7001271E+00;0; -1.3131356E-01;  3.9632590E+04;  0.0000000E+00;  6.4630263E-02;  4.0000000E+04;  0.0000000E+00;  4.0023098E+04; -1.4535753E-01;  0.0000000E+00;  1.4043974E-02;  3.2658770E+03;
  5.8339453E-01;  9.9999998E-03;  1.3997284E-01;6028;  3.2050380E-01;  0.0000000E+00;  7.5707808E-03;  9.9787958E+02;  1.0021207E-01; -1.7567334E+03;3; -3.0763136E+01;  0.0000000E+00;  5.9423642E+00;0; -1.3177457E-01;  3.9637211E+04;  0.0000000E+00;  8.1006542E-02;  4.0000000E+04;  0.0000000E+00;  4.0023203E+04; -1.4288101E-01;  0.0000000E+00;  1.1106430E-02;  3.2737170E+03;
  5.8346182E-01;  9.9999998E-03;  1.4997353E-01;6029;  3.1815225E-01;  0.0000000E+00;  7.4719479E-03;  9.9795093E+02;  1.0021212E-01; -1.6976243E+03;3; -2.9758963E+01;  0.0000000E+00;  6.1635337E+00;0; -1.3180718E-01;  3.9642602E+04;  0.0000000E+00;  9.6848272E-02;  4.0000000E+04;  0.0000000E+00;  4.0023531E+04; -1.4142263E-01;  0.0000000E+00;  9.6154436E-03;  3.2959756E+03;
  5.8353627E-01;  9.9999998E-03;  1.5997416E-01;6030;  3.1566182E-01;  0.0000000E+00;  7.3757065E-03;  9.9803363E+02;  1.0021213E-01; -1.6290833E+03;3; -2.8767351E+01;  0.0000000E+00;  6.3591809E+00;0; -1.3152468E-01;  3.9648988E+04;  0.0000000E+00;  1.1024255E-01;  4.0000000E+04;  0.0000000E+00;  4.0023648E+04; -1.4103219E-01;  0.0000000E+00;  9.5074996E-03;  3.3136135E+03;
  5.8361816E-01;  9.9999998E-03;  1.6997452E-01;6031;  3.1304309E-01;  0.0000000E+00;  7.2949617E-03;  9.9812500E+02;  1.0021217E-01; -1.5533820E+03;3; -2.7791107E+01;  0.0000000E+00;  6.5388479E+00;0; -1.3110164E-01;  3.9656301E+04;  0.0000000E+00;  1.1744265E-01;  4.0000000E+04;  0.0000000E+00;  4.0023590E+04; -1.4172457E-01;  0.0000000E+00;  1.0622936E-02;  3.3024375E+03;
  5.8370739E-01;  9.9999998E-03;  1.7997430E-01;6032;  3.1030908E-01;  0.0000000E+00;  7.2444286E-03;  9.9822253E+02;  1.0021210E-01; -1.4725945E+03;3; -2.6841421E+01;  0.0000000E+00;  6.7037768E+00;0; -1.3075249E-01;  3.9664586E+04;  0.0000000E+00;  1.1288081E-01;  4.0000000E+04;  0.0000000E+00;  4.0023062E+04; -1.4346975E-01;  0.0000000E+00;  1.2717264E-02;  3.2347002E+03;
  5.8380312E-01;  9.9999998E-03;  1.8997319E-01;6033;  3.0747584E-01;  0.0000000E+00;  7.2434288E-03;  9.9832227E+02;  1.0021220E-01; -1.3899799E+03;3; -2.5920589E+01;  0.0000000E+00;  6.8446298E+00;0; -1.3069892E-01;  3.9673723E+04;  0.0000000E+00;  9.0513550E-02;  4.0000000E+04;  0.0000000E+00;  4.0021934E+04; -1.4619097E-01;  0.0000000E+00;  1.5492054E-02;  3.0820156E+03;
  5.8390373E-01;  9.9999998E-03;  1.9997062E-01;6034;  3.0456230E-01;  0.0000000E+00;  7.3137754E-03;  9.9841895E+02;  1.0021234E-01; -1.3098837E+03;3; -2.5051802E+01;  0.0000000E+00;  6.9989676E+00;0; -1.3113953E-01;  3.9683613E+04;  0.0000000E+00;  4.5661468E-02;  4.0000000E+04;  0.0000000E+00;  4.0020004E+04; -1.4976935E-01;  0.0000000E+00;  1.8629814E-02;  2.8216633E+03;
  5.8400780E-01;  9.9999998E-03;  2.0996545E-01;6035;  3.0159485E-01;  0.0000000E+00;  7.4661551E-03;  9.9851099E+02;  1.0021227E-01; -1.2336392E+03;3; -2.4239403E+01;  0.0000000E+00;  7.1643562E+00;0; -1.3224000E-01;  3.9694059E+04;  0.0000000E+00; -2.4635816E-02;  4.0000000E+04;  0.0000000E+00;  4.0017094E+04; -1.5405637E-01;  0.0000000E+00;  2.1816377E-02;  2.4549082E+03;
  5.8411223E-01;  9.9999998E-03;  2.1995723E-01;6036;  2.9860657E-01;  0.0000000E+00;  7.7016195E-03;  9.9860046E+02;  1.0021236E-01; -1.1594688E+03;3; -2.3490387E+01;  0.0000000E+00;  7.3428235E+00;0; -1.3414235E-01;  3.9704688E+04;  0.0000000E+00; -1.2345984E-01;  4.0000000E+04;  0.0000000E+00;  4.0013727E+04; -1.5888616E-01;  0.0000000E+00;  2.4743808E-02;  2.0311967E+03;
  5.8421284E-01;  9.9999998E-03;  2.2994749E-01;6037;  2.9563239E-01;  0.0000000E+00;  8.0127232E-03;  9.9869202E+02;  1.0021241E-01; -1.0836194E+03;3; -2.2799742E+01;  0.0000000E+00;  7.5527987E+00;0; -1.3699430E-01;  3.9715539E+04;  0.0000000E+00; -2.5731358E-01;  4.0000000E+04;  0.0000000E+00;  4.0010320E+04; -1.6408741E-01;  0.0000000E+00;  2.7093120E-02;  1.6356936E+03;
  5.9308523E-01;  9.9999998E-03;  6.9991976E-02;6082;  3.3112690E-01;  0.0000000E+00;  8.5913064E-03;  9.9779126E+02;  1.0034383E-01; -1.8299150E+03;3; -3.7887444E+01;  0.0000000E+00;  3.5919960E+00;0; -1.1772630E-01;  3.9527543E+04;  0.0000000E+00;  4.4474853E-03;  4.0000000E+04;  0.0000000E+00;  4.0022574E+04; -1.8688704E-01;  0.0000000E+00;  6.9160745E-02;  3.3318159E+03;
  5.9311855E-01;  9.9999998E-03;  7.9990886E-02;6083;  3.2991692E-01;  0.0000000E+00;  8.9329490E-03;  9.9779022E+02;  1.0034391E-01; -1.8307545E+03;3; -3.7021038E+01;  0.0000000E+00;  4.0029836E+00;0; -1.2118879E-01;  3.9528059E+04;  0.0000000E+00;  1.1821361E-02;  4.0000000E+04;  0.0000000E+00;  4.0021973E+04; -1.8003280E-01;  0.0000000E+00;  5.8844019E-02;  3.2452168E+03;
  5.9315485E-01;  9.9999998E-03;  8.9989826E-02;6084;  3.2853967E-01;  0.0000000E+00;  9.1415299E-03;  9.9779260E+02;  1.0034393E-01; -1.8287792E+03;3; -3.6128216E+01;  0.0000000E+00;  4.3274379E+00;0; -1.2424113E-01;  3.9528863E+04;  0.0000000E+00;  2.1558074E-02;  4.0000000E+04;  0.0000000E+00;  4.0021281E+04; -1.7325734E-01;  0.0000000E+00;  4.9016211E-02;  3.1615510E+03;
  5.9319496E-01;  9.9999998E-03;  9.9988982E-02;6085;  3.2699767E-01;  0.0000000E+00;  9.2601879E-03;  9.9780182E+02;  1.0034414E-01; -1.8211251E+03;3; -3.5192265E+01;  0.0000000E+00;  4.5813479E+00;0; -1.2679499E-01;  3.9530152E+04;  0.0000000E+00;  3.3036415E-02;  4.0000000E+04;  0.0000000E+00;  4.0020777E+04; -1.6681191E-01;  0.0000000E+00;  4.0016927E-02;  3.0913933E+03;
  5.9323955E-01;  9.9999998E-03;  1.0998859E-01;6086;  3.2529414E-01;  0.0000000E+00;  9.3092006E-03;  9.9782281E+02;  1.0034411E-01; -1.8037430E+03;3; -3.4225689E+01;  0.0000000E+00;  4.8326240E+00;0; -1.2881579E-01;  3.9531953E+04;  0.0000000E+00;  4.5397982E-02;  4.0000000E+04;  0.0000000E+00;  4.0020398E+04; -1.6092379E-01;  0.0000000E+00;  3.2108005E-02;  3.0444170E+03;
  5.9328949E-01;  9.9999998E-03;  1.1998860E-01;6087;  3.2342634E-01;  0.0000000E+00;  9.3097389E-03;  9.9785431E+02;  1.0034412E-01; -1.7776698E+03;3; -3.3238331E+01;  0.0000000E+00;  5.0453162E+00;0; -1.3030899E-01;  3.9534543E+04;  0.0000000E+00;  5.7801336E-02;  4.0000000E+04;  0.0000000E+00;  4.0020316E+04; -1.5578979E-01;  0.0000000E+00;  2.5480809E-02;  3.0269192E+03;
  5.9334564E-01;  9.9999998E-03;  1.2998889E-01;6088;  3.2139838E-01;  0.0000000E+00;  9.2666727E-03;  9.9790063E+02;  1.0034423E-01; -1.7393007E+03;3; -3.2236141E+01;  0.0000000E+00;  5.2327714E+00;0; -1.3131125E-01;  3.9537922E+04;  0.0000000E+00;  6.9560573E-02;  4.0000000E+04;  0.0000000E+00;  4.0020406E+04; -1.5157445E-01;  0.0000000E+00;  2.0263197E-02;  3.0395300E+03;
  5.9340847E-01;  9.9999998E-03;  1.3998930E-01;6089;  3.1920952E-01;  0.0000000E+00;  9.1991890E-03;  9.9795898E+02;  1.0034432E-01; -1.6909567E+03;3; -3.1218273E+01;  0.0000000E+00;  5.4202251E+00;0; -1.3187858E-01;  3.9542230E+04;  0.0000000E+00;  8.0016203E-02;  4.0000000E+04;  0.0000000E+00;  4.0020816E+04; -1.4840662E-01;  0.0000000E+00;  1.6528033E-02;  3.0754348E+03;
  5.9347850E-01;  9.9999998E-03;  1.4998962E-01;6090;  3.1686574E-01;  0.0000000E+00;  9.1138883E-03;  9.9803210E+02;  1.0034441E-01; -1.6303660E+03;3; -3.0206007E+01;  0.0000000E+00;  5.6150331E+00;0; -1.3208765E-01;  3.9547500E+04;  0.0000000E+00;  8.8316560E-02;  4.0000000E+04;  0.0000000E+00;  4.0021180E+04; -1.4638540E-01;  0.0000000E+00;  1.4297759E-02;  3.1201245E+03;
  5.9355605E-01;  9.9999998E-03;  1.5998961E-01;6091;  3.1437132E-01;  0.0000000E+00;  9.0264166E-03;  9.9811768E+02;  1.0034477E-01; -1.5594548E+03;3; -2.9191391E+01;  0.0000000E+00;  5.7692633E+00;0; -1.3205238E-01;  3.9553883E+04;  0.0000000E+00;  9.2702731E-02;  4.0000000E+04;  0.0000000E+00;  4.0021551E+04; -1.4557423E-01;  0.0000000E+00;  1.3521844E-02;  3.1519902E+03;
  5.9364104E-01;  9.9999998E-03;  1.6998905E-01;6092;  3.1173643E-01;  0.0000000E+00;  8.9472607E-03;  9.9821362E+02;  1.0034484E-01; -1.4799512E+03;3; -2.8190386E+01;  0.0000000E+00;  5.9102149E+00;0; -1.3194680E-01;  3.9561543E+04;  0.0000000E+00;  8.9757286E-02;  4.0000000E+04;  0.0000000E+00;  4.0021527E+04; -1.4599711E-01;  0.0000000E+00;  1.4050303E-02;  3.1444001E+03;
  5.9373266E-01;  9.9999998E-03;  1.7998767E-01;6093;  3.0897367E-01;  0.0000000E+00;  8.8931732E-03;  9.9831750E+02;  1.0034479E-01; -1.3939293E+03;3; -2.7220993E+01;  0.0000000E+00;  6.0462103E+00;0; -1.3198577E-01;  3.9570137E+04;  0.0000000E+00;  7.4724048E-02;  4.0000000E+04;  0.0000000E+00;  4.0020973E+04; -1.4762662E-01;  0.0000000E+00;  1.5640859E-02;  3.0686169E+03;
  5.9382969E-01;  9.9999998E-03;  1.8998514E-01;6094;  3.0610096E-01;  0.0000000E+00;  8.8809617E-03;  9.9841943E+02;  1.0034519E-01; -1.3094877E+03;3; -2.6282822E+01;  0.0000000E+00;  6.1719575E+00;0; -1.3239673E-01;  3.9579680E+04;  0.0000000E+00;  4.3331157E-02;  4.0000000E+04;  0.0000000E+00;  4.0019711E+04; -1.5038419E-01;  0.0000000E+00;  1.7987464E-02;  2.8980598E+03;
  5.9392989E-01;  9.9999998E-03;  1.9998084E-01;6095;  3.0314034E-01;  0.0000000E+00;  8.9298571E-03;  9.9851782E+02;  1.0034516E-01; -1.2279595E+03;3; -2.5386671E+01;  0.0000000E+00;  6.3049426E+00;0; -1.3339280E-01;  3.9589766E+04;  0.0000000E+00; -6.8160868E-03;  4.0000000E+04;  0.0000000E+00;  4.0017504E+04; -1.5414472E-01;  0.0000000E+00;  2.0751925E-02;  2.6158757E+03;
  5.9403098E-01;  9.9999998E-03;  2.0997311E-01;6096;  3.0012003E-01;  0.0000000E+00;  9.0537546E-03;  9.9861139E+02;  1.0034509E-01; -1.1504313E+03;3; -2.4543488E+01;  0.0000000E+00;  6.4631925E+00;0; -1.3516274E-01;  3.9600062E+04;  0.0000000E+00; -7.7115208E-02;  4.0000000E+04;  0.0000000E+00;  4.0014484E+04; -1.5874678E-01;  0.0000000E+00;  2.3584045E-02;  2.2416145E+03;
  5.9412950E-01;  9.9999998E-03;  2.1996170E-01;6097;  2.9707196E-01;  0.0000000E+00;  9.2594167E-03;  9.9870258E+02;  1.0034521E-01; -1.0748782E+03;3; -2.3749836E+01;  0.0000000E+00;  6.6349030E+00;0; -1.3787746E-01;  3.9610770E+04;  0.0000000E+00; -1.6997603E-01;  4.0000000E+04;  0.0000000E+00;  4.0011457E+04; -1.6400652E-01;  0.0000000E+00;  2.6129054E-02;  1.8544897E+03;
  5.9422106E-01;  9.9999998E-03;  2.2994879E-01;6098;  2.9403010E-01;  0.0000000E+00;  9.5638903E-03;  9.9880328E+02;  1.0034517E-01; -9.9147351E+02;3; -2.3008398E+01;  0.0000000E+00;  6.8316793E+00;0; -1.4165975E-01;  3.9621633E+04;  0.0000000E+00; -2.9129270E-01;  4.0000000E+04;  0.0000000E+00;  4.0008910E+04; -1.6973236E-01;  0.0000000E+00;  2.8072610E-02;  1.5695193E+03;
  6.0306168E-01;  9.9999998E-03;  7.0001967E-02;6143;  3.2934386E-01;  0.0000000E+00;  9.9056140E-03;  9.9758508E+02;  1.0055412E-01; -2.0007228E+03;3; -3.8343174E+01;  0.0000000E+00;  3.1565144E+00;0; -1.1743723E-01;  3.9351484E+04;  0.0000000E+00;  1.2729961E-02;  4.0000000E+04;  0.0000000E+00;  4.0018539E+04; -1.9856949E-01;  0.0000000E+00;  8.1132263E-02;  3.0109727E+03;
  6.0309517E-01;  9.9999998E-03;  8.0001049E-02;6144;  3.2823744E-01;  0.0000000E+00;  1.0384193E-02;  9.9757532E+02;  1.0055444E-01; -2.0087720E+03;3; -3.7475849E+01;  0.0000000E+00;  3.5780363E+00;0; -1.2066188E-01;  3.9351184E+04;  0.0000000E+00;  2.1125544E-02;  4.0000000E+04;  0.0000000E+00;  4.0017992E+04; -1.9074515E-01;  0.0000000E+00;  7.0083268E-02;  2.9414563E+03;
  6.0313308E-01;  9.9999998E-03;  9.0000100E-02;6145;  3.2695025E-01;  0.0000000E+00;  1.0681084E-02;  9.9757098E+02;  1.0055435E-01; -2.0123767E+03;3; -3.6571560E+01;  0.0000000E+00;  3.9286439E+00;0; -1.2347974E-01;  3.9351203E+04;  0.0000000E+00;  3.0744325E-02;  4.0000000E+04;  0.0000000E+00;  4.0017480E+04; -1.8296571E-01;  0.0000000E+00;  5.9485972E-02;  2.8785986E+03;
  6.0317588E-01;  9.9999998E-03;  9.9999376E-02;6146;  3.2548633E-01;  0.0000000E+00;  1.0857440E-02;  9.9757526E+02;  1.0055458E-01; -2.0088212E+03;3; -3.5636333E+01;  0.0000000E+00;  4.1852851E+00;0; -1.2581778E-01;  3.9351762E+04;  0.0000000E+00;  4.0504377E-02;  4.0000000E+04;  0.0000000E+00;  4.0017109E+04; -1.7551306E-01;  0.0000000E+00;  4.9695276E-02;  2.8317129E+03;
  6.0322380E-01;  9.9999998E-03;  1.0999903E-01;6147;  3.2384709E-01;  0.0000000E+00;  1.0950497E-02;  9.9759100E+02;  1.0055471E-01; -1.9957845E+03;3; -3.4671532E+01;  0.0000000E+00;  4.3790097E+00;0; -1.2765828E-01;  3.9353047E+04;  0.0000000E+00;  4.9288001E-02;  4.0000000E+04;  0.0000000E+00;  4.0016969E+04; -1.6864410E-01;  0.0000000E+00;  4.0985823E-02;  2.8088281E+03;
  6.0327739E-01;  9.9999998E-03;  1.1999896E-01;6148;  3.2203239E-01;  0.0000000E+00;  1.0984473E-02;  9.9761981E+02;  1.0055505E-01; -1.9719335E+03;3; -3.3676712E+01;  0.0000000E+00;  4.5677738E+00;0; -1.2902454E-01;  3.9355031E+04;  0.0000000E+00;  5.6243949E-02;  4.0000000E+04;  0.0000000E+00;  4.0017051E+04; -1.6258252E-01;  0.0000000E+00;  3.3557978E-02;  2.8144729E+03;
  6.0333705E-01;  9.9999998E-03;  1.2999901E-01;6149;  3.2004303E-01;  0.0000000E+00;  1.0972196E-02;  9.9766382E+02;  1.0055496E-01; -1.9354904E+03;3; -3.2658333E+01;  0.0000000E+00;  4.7212763E+00;0; -1.2996995E-01;  3.9358102E+04;  0.0000000E+00;  6.0804483E-02;  4.0000000E+04;  0.0000000E+00;  4.0017352E+04; -1.5751742E-01;  0.0000000E+00;  2.7547458E-02;  2.8472542E+03;
  6.0340333E-01;  9.9999998E-03;  1.3999896E-01;6150;  3.1788039E-01;  0.0000000E+00;  1.0927086E-02;  9.9772369E+02;  1.0055532E-01; -1.8858623E+03;3; -3.1631824E+01;  0.0000000E+00;  4.8854904E+00;0; -1.3056399E-01;  3.9362176E+04;  0.0000000E+00;  6.2502794E-02;  4.0000000E+04;  0.0000000E+00;  4.0017801E+04; -1.5360007E-01;  0.0000000E+00;  2.3036081E-02;  2.8984688E+03;
  6.0347664E-01;  9.9999998E-03;  1.4999859E-01;6151;  3.1554735E-01;  0.0000000E+00;  1.0862071E-02;  9.9779895E+02;  1.0055552E-01; -1.8234940E+03;3; -3.0594851E+01;  0.0000000E+00;  5.0166783E+00;0; -1.3088872E-01;  3.9367461E+04;  0.0000000E+00;  6.0779754E-02;  4.0000000E+04;  0.0000000E+00;  4.0018293E+04; -1.5094681E-01;  0.0000000E+00;  2.0058092E-02;  2.9515068E+03;
  6.0355711E-01;  9.9999998E-03;  1.5999760E-01;6152;  3.1305131E-01;  0.0000000E+00;  1.0785777E-02;  9.9788678E+02;  1.0055583E-01; -1.7507557E+03;3; -2.9569052E+01;  0.0000000E+00;  5.1427326E+00;0; -1.3106038E-01;  3.9373988E+04;  0.0000000E+00;  5.4408651E-02;  4.0000000E+04;  0.0000000E+00;  4.0018625E+04; -1.4963767E-01;  0.0000000E+00;  1.8577298E-02;  2.9830061E+03;
  6.0364419E-01;  9.9999998E-03;  1.6999574E-01;6153;  3.1039983E-01;  0.0000000E+00;  1.0713635E-02;  9.9798560E+02;  1.0055596E-01; -1.6688820E+03;3; -2.8548132E+01;  0.0000000E+00;  5.2480564E+00;0; -1.3124971E-01;  3.9381586E+04;  0.0000000E+00;  4.0838376E-02;  4.0000000E+04;  0.0000000E+00;  4.0018535E+04; -1.4970617E-01;  0.0000000E+00;  1.8456465E-02;  2.9659060E+03;
  6.0373688E-01;  9.9999998E-03;  1.7999278E-01;6154;  3.0760658E-01;  0.0000000E+00;  1.0656379E-02;  9.9808691E+02;  1.0055643E-01; -1.5849342E+03;3; -2.7555855E+01;  0.0000000E+00;  5.3406844E+00;0; -1.3167161E-01;  3.9390152E+04;  0.0000000E+00;  1.7151060E-02;  4.0000000E+04;  0.0000000E+00;  4.0017887E+04; -1.5113111E-01;  0.0000000E+00;  1.9459495E-02;  2.8741624E+03;
  6.0383320E-01;  9.9999998E-03;  1.8998836E-01;6155;  3.0468965E-01;  0.0000000E+00;  1.0630441E-02;  9.9818542E+02;  1.0055645E-01; -1.5033567E+03;3; -2.6603840E+01;  0.0000000E+00;  5.4401326E+00;0; -1.3255902E-01;  3.9399336E+04;  0.0000000E+00; -1.8195316E-02;  4.0000000E+04;  0.0000000E+00;  4.0016457E+04; -1.5383539E-01;  0.0000000E+00;  2.1276375E-02;  2.6880540E+03;
  6.0393035E-01;  9.9999998E-03;  1.9998178E-01;6156;  3.0167359E-01;  0.0000000E+00;  1.0652286E-02;  9.9827600E+02;  1.0055643E-01; -1.4282975E+03;3; -2.5691307E+01;  0.0000000E+00;  5.5486755E+00;0; -1.3414037E-01;  3.9408789E+04;  0.0000000E+00; -6.5322742E-02;  4.0000000E+04;  0.0000000E+00;  4.0014246E+04; -1.5768929E-01;  0.0000000E+00;  2.3548912E-02;  2.4041189E+03;
  6.0402566E-01;  9.9999998E-03;  2.0997152E-01;6157;  2.9858899E-01;  0.0000000E+00;  1.0733887E-02;  9.9836261E+02;  1.0055652E-01; -1.3565469E+03;3; -2.4820007E+01;  0.0000000E+00;  5.6773629E+00;0; -1.3663819E-01;  3.9418266E+04;  0.0000000E+00; -1.2419422E-01;  4.0000000E+04;  0.0000000E+00;  4.0011449E+04; -1.6252097E-01;  0.0000000E+00;  2.5882786E-02;  2.0627461E+03;
  6.0411465E-01;  9.9999998E-03;  2.1995707E-01;6158;  2.9547065E-01;  0.0000000E+00;  1.0888144E-02;  9.9845380E+02;  1.0055659E-01; -1.2809939E+03;3; -2.3994774E+01;  0.0000000E+00;  5.8492489E+00;0; -1.4027604E-01;  3.9427906E+04;  0.0000000E+00; -1.9596775E-01;  4.0000000E+04;  0.0000000E+00;  4.0009215E+04; -1.6813137E-01;  0.0000000E+00;  2.7855318E-02;  1.7788025E+03;
  6.0419303E-01;  9.9999998E-03;  2.2994100E-01;6159;  2.9234651E-01;  0.0000000E+00;  1.1165574E-02;  9.9856433E+02;  1.0055656E-01; -1.1894414E+03;3; -2.3204849E+01;  0.0000000E+00;  6.0442319E+00;0; -1.4516066E-01;  3.9437660E+04;  0.0000000E+00; -2.8408831E-01;  4.0000000E+04;  0.0000000E+00;  4.0008406E+04; -1.7430967E-01;  0.0000000E+00;  2.9149015E-02;  1.7018950E+03;
  6.1301625E-01;  9.9999998E-03;  7.0006125E-02;6204;  3.2740077E-01;  0.0000000E+00;  1.1134737E-02;  9.9702051E+02;  1.0088249E-01; -2.4684580E+03;3; -3.8765263E+01;  0.0000000E+00;  2.7267895E+00;0; -1.1650625E-01;  3.9057500E+04;  0.0000000E+00;  1.8573761E-02;  4.0000000E+04;  0.0000000E+00;  4.0014113E+04; -2.0987839E-01;  0.0000000E+00;  9.3372136E-02;  2.7863555E+03;
  6.1305350E-01;  9.9999998E-03;  8.0005363E-02;6205;  3.2642162E-01;  0.0000000E+00;  1.1810729E-02;  9.9701007E+02;  1.0088295E-01; -2.4770996E+03;3; -3.7901703E+01;  0.0000000E+00;  3.0966182E+00;0; -1.1927366E-01;  3.9056879E+04;  0.0000000E+00;  2.6159393E-02;  4.0000000E+04;  0.0000000E+00;  4.0013691E+04; -2.0108627E-01;  0.0000000E+00;  8.1812605E-02;  2.7263879E+03;
  6.1309546E-01;  9.9999998E-03;  9.0004399E-02;6206;  3.2524732E-01;  0.0000000E+00;  1.2246479E-02;  9.9700500E+02;  1.0088317E-01; -2.4812971E+03;3; -3.6985710E+01;  0.0000000E+00;  3.4418728E+00;0; -1.2164518E-01;  3.9056797E+04;  0.0000000E+00;  3.3372995E-02;  4.0000000E+04;  0.0000000E+00;  4.0013156E+04; -1.9229624E-01;  0.0000000E+00;  7.0651054E-02;  2.6756663E+03;
  6.1314219E-01;  9.9999998E-03;  1.0000356E-01;6207;  3.2387760E-01;  0.0000000E+00;  1.2515439E-02;  9.9701111E+02;  1.0088339E-01; -2.4762107E+03;3; -3.6041206E+01;  0.0000000E+00;  3.7191410E+00;0; -1.2356728E-01;  3.9057246E+04;  0.0000000E+00;  3.8868867E-02;  4.0000000E+04;  0.0000000E+00;  4.0013008E+04; -1.8381801E-01;  0.0000000E+00;  6.0250733E-02;  2.6422156E+03;
  6.1319405E-01;  9.9999998E-03;  1.1000293E-01;6208;  3.2231814E-01;  0.0000000E+00;  1.2671394E-02;  9.9703168E+02;  1.0088365E-01; -2.4591743E+03;3; -3.5067211E+01;  0.0000000E+00;  3.9011822E+00;0; -1.2504189E-01;  3.9058473E+04;  0.0000000E+00;  4.1547082E-02;  4.0000000E+04;  0.0000000E+00;  4.0012973E+04; -1.7593643E-01;  0.0000000E+00;  5.0894540E-02;  2.6325332E+03;
  6.1325145E-01;  9.9999998E-03;  1.2000242E-01;6209;  3.2056868E-01;  0.0000000E+00;  1.2751982E-02;  9.9706525E+02;  1.0088419E-01; -2.4313728E+03;3; -3.4061230E+01;  0.0000000E+00;  4.0583196E+00;0; -1.2611222E-01;  3.9060633E+04;  0.0000000E+00;  4.0753264E-02;  4.0000000E+04;  0.0000000E+00;  4.0013098E+04; -1.6890167E-01;  0.0000000E+00;  4.2789441E-02;  2.6493647E+03;
  6.1331493E-01;  9.9999998E-03;  1.3000189E-01;6210;  3.1862879E-01;  0.0000000E+00;  1.2778857E-02;  9.9711322E+02;  1.0088436E-01; -2.3916211E+03;3; -3.3032810E+01;  0.0000000E+00;  4.1885672E+00;0; -1.2684695E-01;  3.9063820E+04;  0.0000000E+00;  3.6205985E-02;  4.0000000E+04;  0.0000000E+00;  4.0013547E+04; -1.6292474E-01;  0.0000000E+00;  3.6077783E-02;  2.6895498E+03;
  6.1338484E-01;  9.9999998E-03;  1.4000113E-01;6211;  3.1650043E-01;  0.0000000E+00;  1.2764760E-02;  9.9717749E+02;  1.0088463E-01; -2.3383884E+03;3; -3.1986382E+01;  0.0000000E+00;  4.3003340E+00;0; -1.2732707E-01;  3.9068047E+04;  0.0000000E+00;  2.7808890E-02;  4.0000000E+04;  0.0000000E+00;  4.0013992E+04; -1.5817720E-01;  0.0000000E+00;  3.0850124E-02;  2.7424553E+03;
  6.1346143E-01;  9.9999998E-03;  1.4999989E-01;6212;  3.1418613E-01;  0.0000000E+00;  1.2724607E-02;  9.9725531E+02;  1.0088516E-01; -2.2738967E+03;3; -3.0933783E+01;  0.0000000E+00;  4.3955498E+00;0; -1.2764077E-01;  3.9073477E+04;  0.0000000E+00;  1.5546313E-02;  4.0000000E+04;  0.0000000E+00;  4.0014402E+04; -1.5479214E-01;  0.0000000E+00;  2.7151382E-02;  2.7895168E+03;
  6.1354446E-01;  9.9999998E-03;  1.5999782E-01;6213;  3.1169108E-01;  0.0000000E+00;  1.2670885E-02;  9.9734619E+02;  1.0088564E-01; -2.1986401E+03;3; -2.9884403E+01;  0.0000000E+00;  4.4749961E+00;0; -1.2790522E-01;  3.9080066E+04;  0.0000000E+00; -1.0097041E-03;  4.0000000E+04;  0.0000000E+00;  4.0014574E+04; -1.5286413E-01;  0.0000000E+00;  2.4958903E-02;  2.8063616E+03;
  6.1363316E-01;  9.9999998E-03;  1.6999467E-01;6214;  3.0902594E-01;  0.0000000E+00;  1.2609452E-02;  9.9744232E+02;  1.0088595E-01; -2.1189885E+03;3; -2.8858894E+01;  0.0000000E+00;  4.5436044E+00;0; -1.2828942E-01;  3.9087531E+04;  0.0000000E+00; -2.2963207E-02;  4.0000000E+04;  0.0000000E+00;  4.0014391E+04; -1.5243885E-01;  0.0000000E+00;  2.4149438E-02;  2.7675093E+03;
  6.1372578E-01;  9.9999998E-03;  1.7999016E-01;6215;  3.0620167E-01;  0.0000000E+00;  1.2555162E-02;  9.9753815E+02;  1.0088625E-01; -2.0395839E+03;3; -2.7851940E+01;  0.0000000E+00;  4.6012468E+00;0; -1.2900637E-01;  3.9095527E+04;  0.0000000E+00; -5.0567377E-02;  4.0000000E+04;  0.0000000E+00;  4.0013469E+04; -1.5350287E-01;  0.0000000E+00;  2.4496490E-02;  2.6524121E+03;
  6.1381984E-01;  9.9999998E-03;  1.8998390E-01;6216;  3.0323744E-01;  0.0000000E+00;  1.2518604E-02;  9.9762415E+02;  1.0088662E-01; -1.9683270E+03;3; -2.6883610E+01;  0.0000000E+00;  4.6562481E+00;0; -1.3029581E-01;  3.9103699E+04;  0.0000000E+00; -8.2659602E-02;  4.0000000E+04;  0.0000000E+00;  4.0011980E+04; -1.5598449E-01;  0.0000000E+00;  2.5688672E-02;  2.4521716E+03;
  6.1391205E-01;  9.9999998E-03;  1.9997527E-01;6217;  3.0015910E-01;  0.0000000E+00;  1.2510324E-02;  9.9770184E+02;  1.0088698E-01; -1.9039836E+03;3; -2.5956263E+01;  0.0000000E+00;  4.7301297E+00;0; -1.3240662E-01;  3.9111801E+04;  0.0000000E+00; -1.1747710E-01;  4.0000000E+04;  0.0000000E+00;  4.0009777E+04; -1.5975274E-01;  0.0000000E+00;  2.7346117E-02;  2.1808511E+03;
  6.1399913E-01;  9.9999998E-03;  2.0996273E-01;6218;  2.9699937E-01;  0.0000000E+00;  1.2541320E-02;  9.9777405E+02;  1.0088703E-01; -1.8441335E+03;3; -2.5071823E+01;  0.0000000E+00;  4.8347826E+00;0; -1.3560416E-01;  3.9119543E+04;  0.0000000E+00; -1.5346684E-01;  4.0000000E+04;  0.0000000E+00;  4.0007555E+04; -1.6463028E-01;  0.0000000E+00;  2.9026125E-02;  1.9048241E+03;
  6.1407655E-01;  9.9999998E-03;  2.1994607E-01;6219;  2.9379368E-01;  0.0000000E+00;  1.2630360E-02;  9.9785583E+02;  1.0088693E-01; -1.7763828E+03;3; -2.4219530E+01;  0.0000000E+00;  4.9856224E+00;0; -1.4017804E-01;  3.9127148E+04;  0.0000000E+00; -1.9025965E-01;  4.0000000E+04;  0.0000000E+00;  4.0006445E+04; -1.7040738E-01;  0.0000000E+00;  3.0229349E-02;  1.7683658E+03;
  6.1414009E-01;  9.9999998E-03;  2.2992773E-01;6220;  2.9056785E-01;  0.0000000E+00;  1.2858718E-02;  9.9797345E+02;  1.0088699E-01; -1.6789541E+03;3; -2.3391535E+01;  0.0000000E+00;  5.1757607E+00;0; -1.4625750E-01;  3.9134945E+04;  0.0000000E+00; -2.2891364E-01;  4.0000000E+04;  0.0000000E+00;  4.0008133E+04; -1.7686304E-01;  0.0000000E+00;  3.0605545E-02;  1.9632662E+03;
  6.2296599E-01;  9.9999998E-03;  7.0004821E-02;6265;  3.2525909E-01;  0.0000000E+00;  1.2257757E-02;  9.9620117E+02;  1.0138033E-01; -3.1472463E+03;3; -3.9134007E+01;  0.0000000E+00;  2.3874707E+00;0; -1.1467473E-01;  3.8617586E+04;  0.0000000E+00;  1.9368367E-02;  4.0000000E+04;  0.0000000E+00;  4.0009129E+04; -2.2047341E-01;  0.0000000E+00;  1.0579868E-01;  2.6594956E+03;
  6.2300712E-01;  9.9999998E-03;  8.0003865E-02;6266;  3.2441980E-01;  0.0000000E+00;  1.3120053E-02;  9.9619928E+02;  1.0138052E-01; -3.1488264E+03;3; -3.8287121E+01;  0.0000000E+00;  2.6416018E+00;0; -1.1672293E-01;  3.8617562E+04;  0.0000000E+00;  2.4025030E-02;  4.0000000E+04;  0.0000000E+00;  4.0008727E+04; -2.1071050E-01;  0.0000000E+00;  9.3987562E-02;  2.5996870E+03;
  6.2305319E-01;  9.9999998E-03;  9.0002716E-02;6267;  3.2338461E-01;  0.0000000E+00;  1.3769911E-02;  9.9620807E+02;  1.0138086E-01; -3.1415181E+03;3; -3.7376911E+01;  0.0000000E+00;  2.8881056E+00;0; -1.1839084E-01;  3.8618184E+04;  0.0000000E+00;  2.6584614E-02;  4.0000000E+04;  0.0000000E+00;  4.0008348E+04; -2.0090076E-01;  0.0000000E+00;  8.2509920E-02;  2.5504399E+03;
  6.2310410E-01;  9.9999998E-03;  1.0000157E-01;6268;  3.2213870E-01;  0.0000000E+00;  1.4196046E-02;  9.9622760E+02;  1.0138158E-01; -3.1253210E+03;3; -3.6405628E+01;  0.0000000E+00;  3.1811650E+00;0; -1.1964657E-01;  3.8619492E+04;  0.0000000E+00;  2.5738826E-02;  4.0000000E+04;  0.0000000E+00;  4.0008098E+04; -1.9137491E-01;  0.0000000E+00;  7.1728341E-02;  2.5187830E+03;
  6.2316012E-01;  9.9999998E-03;  1.1000054E-01;6269;  3.2067958E-01;  0.0000000E+00;  1.4456535E-02;  9.9626062E+02;  1.0138204E-01; -3.0979641E+03;3; -3.5416382E+01;  0.0000000E+00;  3.3719289E+00;0; -1.2051095E-01;  3.8621645E+04;  0.0000000E+00;  2.0628955E-02;  4.0000000E+04;  0.0000000E+00;  4.0008109E+04; -1.8243822E-01;  0.0000000E+00;  6.1927270E-02;  2.5100276E+03;
  6.2322158E-01;  9.9999998E-03;  1.1999955E-01;6270;  3.1901222E-01;  0.0000000E+00;  1.4608458E-02;  9.9630792E+02;  1.0138235E-01; -3.0588049E+03;3; -3.4398643E+01;  0.0000000E+00;  3.4975674E+00;0; -1.2104373E-01;  3.8624727E+04;  0.0000000E+00;  1.0984252E-02;  4.0000000E+04;  0.0000000E+00;  4.0008254E+04; -1.7436107E-01;  0.0000000E+00;  5.3317342E-02;  2.5255447E+03;
  6.2328887E-01;  9.9999998E-03;  1.2999842E-01;6271;  3.1713742E-01;  0.0000000E+00;  1.4689862E-02;  9.9637152E+02;  1.0138321E-01; -3.0061152E+03;3; -3.3351933E+01;  0.0000000E+00;  3.6012218E+00;0; -1.2132584E-01;  3.8628676E+04;  0.0000000E+00; -3.0383545E-03;  4.0000000E+04;  0.0000000E+00;  4.0008500E+04; -1.6737171E-01;  0.0000000E+00;  4.6045873E-02;  2.5605696E+03;
  6.2336224E-01;  9.9999998E-03;  1.3999684E-01;6272;  3.1505576E-01;  0.0000000E+00;  1.4721844E-02;  9.9644806E+02;  1.0138395E-01; -2.9427100E+03;3; -3.2285851E+01;  0.0000000E+00;  3.6732914E+00;0; -1.2144545E-01;  3.8633711E+04;  0.0000000E+00; -2.0999743E-02;  4.0000000E+04;  0.0000000E+00;  4.0008969E+04; -1.6165586E-01;  0.0000000E+00;  4.0210404E-02;  2.6025208E+03;
  6.2344170E-01;  9.9999998E-03;  1.4999455E-01;6273;  3.1277031E-01;  0.0000000E+00;  1.4718366E-02;  9.9653467E+02;  1.0138462E-01; -2.8709595E+03;3; -3.1214754E+01;  0.0000000E+00;  3.7219434E+00;0; -1.2149788E-01;  3.8639555E+04;  0.0000000E+00; -4.2240221E-02;  4.0000000E+04;  0.0000000E+00;  4.0009262E+04; -1.5736042E-01;  0.0000000E+00;  3.5862535E-02;  2.6308669E+03;
  6.2352669E-01;  9.9999998E-03;  1.5999140E-01;6274;  3.1028610E-01;  0.0000000E+00;  1.4692615E-02;  9.9662628E+02;  1.0138531E-01; -2.7950610E+03;3; -3.0148582E+01;  0.0000000E+00;  3.7560167E+00;0; -1.2160198E-01;  3.8646195E+04;  0.0000000E+00; -6.6219561E-02;  4.0000000E+04;  0.0000000E+00;  4.0009242E+04; -1.5459187E-01;  0.0000000E+00;  3.2989886E-02;  2.6207544E+03;
  6.2361586E-01;  9.9999998E-03;  1.6998722E-01;6275;  3.0761075E-01;  0.0000000E+00;  1.4656184E-02;  9.9671820E+02;  1.0138601E-01; -2.7188662E+03;3; -2.9102867E+01;  0.0000000E+00;  3.7790906E+00;0; -1.2192529E-01;  3.8653344E+04;  0.0000000E+00; -9.2085421E-02;  4.0000000E+04;  0.0000000E+00;  4.0008711E+04; -1.5340757E-01;  0.0000000E+00;  3.1482279E-02;  2.5498442E+03;
  6.2370688E-01;  9.9999998E-03;  1.7998162E-01;6276;  3.0475938E-01;  0.0000000E+00;  1.4610932E-02;  9.9680212E+02;  1.0138680E-01; -2.6493379E+03;3; -2.8092001E+01;  0.0000000E+00;  3.7922080E+00;0; -1.2268537E-01;  3.8660445E+04;  0.0000000E+00; -1.1739812E-01;  4.0000000E+04;  0.0000000E+00;  4.0007633E+04; -1.5380833E-01;  0.0000000E+00;  3.1122949E-02;  2.4051599E+03;
  6.2379688E-01;  9.9999998E-03;  1.8997411E-01;6277;  3.0174810E-01;  0.0000000E+00;  1.4568471E-02;  9.9687372E+02;  1.0138742E-01; -2.5900312E+03;3; -2.7120430E+01;  0.0000000E+00;  3.8068810E+00;0; -1.2413241E-01;  3.8667102E+04;  0.0000000E+00; -1.3876314E-01;  4.0000000E+04;  0.0000000E+00;  4.0005934E+04; -1.5573150E-01;  0.0000000E+00;  3.1599086E-02;  2.1910100E+03;
  6.2388223E-01;  9.9999998E-03;  1.9996400E-01;6278;  2.9860285E-01;  0.0000000E+00;  1.4536247E-02;  9.9692999E+02;  1.0138763E-01; -2.5434155E+03;3; -2.6192963E+01;  0.0000000E+00;  3.8550904E+00;0; -1.2654103E-01;  3.8673148E+04;  0.0000000E+00; -1.5259808E-01;  4.0000000E+04;  0.0000000E+00;  4.0003965E+04; -1.5905340E-01;  0.0000000E+00;  3.2512367E-02;  1.9417395E+03;
  6.2395996E-01;  9.9999998E-03;  2.0995012E-01;6279;  2.9535624E-01;  0.0000000E+00;  1.4522896E-02;  9.9698285E+02;  1.0138808E-01; -2.4996147E+03;3; -2.5302805E+01;  0.0000000E+00;  3.9365344E+00;0; -1.3022190E-01;  3.8678559E+04;  0.0000000E+00; -1.5617307E-01;  4.0000000E+04;  0.0000000E+00;  4.0002473E+04; -1.6359879E-01;  0.0000000E+00;  3.3376891E-02;  1.7486167E+03;
  6.2402540E-01;  9.9999998E-03;  2.1993317E-01;6280;  2.9204226E-01;  0.0000000E+00;  1.4552171E-02;  9.9704980E+02;  1.0138813E-01; -2.4441599E+03;3; -2.4434248E+01;  0.0000000E+00;  4.0647573E+00;0; -1.3553618E-01;  3.8683598E+04;  0.0000000E+00; -1.4857011E-01;  4.0000000E+04;  0.0000000E+00;  4.0002672E+04; -1.6916083E-01;  0.0000000E+00;  3.3624649E-02;  1.7725928E+03;
  6.2407607E-01;  9.9999998E-03;  2.2991516E-01;6281;  2.8869265E-01;  0.0000000E+00;  1.4710229E-02;  9.9715802E+02;  1.0138801E-01; -2.3545334E+03;3; -2.3570221E+01;  0.0000000E+00;  4.2292490E+00;0; -1.4271066E-01;  3.8688664E+04;  0.0000000E+00; -1.3102962E-01;  4.0000000E+04;  0.0000000E+00;  4.0006496E+04; -1.7551875E-01;  0.0000000E+00;  3.2808099E-02;  2.2353054E+03;
  6.3292003E-01;  9.9999998E-03;  6.9998637E-02;6326;  3.2289559E-01;  0.0000000E+00;  1.3281711E-02;  9.9533655E+02;  1.0210313E-01; -3.8635618E+03;3; -3.9437786E+01;  0.0000000E+00;  2.0958979E+00;0; -1.1160625E-01;  3.8011863E+04;  0.0000000E+00;  1.3349374E-02;  4.0000000E+04;  0.0000000E+00;  4.0003383E+04; -2.2992051E-01;  0.0000000E+00;  1.1831426E-01;  2.6182393E+03;
  6.3296509E-01;  9.9999998E-03;  7.9997204E-02;6327;  3.2220665E-01;  0.0000000E+00;  1.4325094E-02;  9.9535901E+02;  1.0210349E-01; -3.8449451E+03;3; -3.8606487E+01;  0.0000000E+00;  2.2746093E+00;0; -1.1263480E-01;  3.8013477E+04;  0.0000000E+00;  1.3197762E-02;  4.0000000E+04;  0.0000000E+00;  4.0002902E+04; -2.1918449E-01;  0.0000000E+00;  1.0654969E-01;  2.5483533E+03;
  6.3301545E-01;  9.9999998E-03;  8.9995734E-02;6328;  3.2132131E-01;  0.0000000E+00;  1.5149239E-02;  9.9539166E+02;  1.0210431E-01; -3.8178845E+03;3; -3.7702351E+01;  0.0000000E+00;  2.4432535E+00;0; -1.1328471E-01;  3.8015805E+04;  0.0000000E+00;  9.5045893E-03;  4.0000000E+04;  0.0000000E+00;  4.0002469E+04; -2.0833297E-01;  0.0000000E+00;  9.5048264E-02;  2.4892183E+03;
  6.3307083E-01;  9.9999998E-03;  9.9994414E-02;6329;  3.2022452E-01;  0.0000000E+00;  1.5784634E-02;  9.9544037E+02;  1.0210540E-01; -3.7775403E+03;3; -3.6750370E+01;  0.0000000E+00;  2.5828564E+00;0; -1.1354750E-01;  3.8019051E+04;  0.0000000E+00;  1.2553816E-03;  4.0000000E+04;  0.0000000E+00;  4.0002203E+04; -1.9771050E-01;  0.0000000E+00;  8.4163003E-02;  2.4473928E+03;
  6.3313133E-01;  9.9999998E-03;  1.0999323E-01;6330;  3.1890401E-01;  0.0000000E+00;  1.6244378E-02;  9.9550232E+02;  1.0210623E-01; -3.7262334E+03;3; -3.5727863E+01;  0.0000000E+00;  2.8009722E+00;0; -1.1346006E-01;  3.8023121E+04;  0.0000000E+00; -1.1966425E-02;  4.0000000E+04;  0.0000000E+00;  4.0002105E+04; -1.8763301E-01;  0.0000000E+00;  7.4172944E-02;  2.4276304E+03;
  6.3319707E-01;  9.9999998E-03;  1.1999203E-01;6331;  3.1734592E-01;  0.0000000E+00;  1.6529214E-02;  9.9557825E+02;  1.0210721E-01; -3.6633223E+03;3; -3.4681313E+01;  0.0000000E+00;  2.9042742E+00;0; -1.1309050E-01;  3.8027895E+04;  0.0000000E+00; -2.9938053E-02;  4.0000000E+04;  0.0000000E+00;  4.0002176E+04; -1.7837778E-01;  0.0000000E+00;  6.5287277E-02;  2.4302915E+03;
  6.3326824E-01;  9.9999998E-03;  1.2999050E-01;6332;  3.1555656E-01;  0.0000000E+00;  1.6700115E-02;  9.9566772E+02;  1.0210869E-01; -3.5892014E+03;3; -3.3613075E+01;  0.0000000E+00;  2.9715662E+00;0; -1.1252373E-01;  3.8033590E+04;  0.0000000E+00; -5.1988572E-02;  4.0000000E+04;  0.0000000E+00;  4.0002367E+04; -1.7017943E-01;  0.0000000E+00;  5.7655692E-02;  2.4490654E+03;
  6.3334483E-01;  9.9999998E-03;  1.3998835E-01;6333;  3.1353956E-01;  0.0000000E+00;  1.6799867E-02;  9.9576477E+02;  1.0210975E-01; -3.5087600E+03;3; -3.2520618E+01;  0.0000000E+00;  2.9844348E+00;0; -1.1185116E-01;  3.8039840E+04;  0.0000000E+00; -7.7088684E-02;  4.0000000E+04;  0.0000000E+00;  4.0002598E+04; -1.6322885E-01;  0.0000000E+00;  5.1377691E-02;  2.4694133E+03;
  6.3342643E-01;  9.9999998E-03;  1.4998530E-01;6334;  3.1129745E-01;  0.0000000E+00;  1.6853981E-02;  9.9586548E+02;  1.0211095E-01; -3.4253557E+03;3; -3.1428556E+01;  0.0000000E+00;  2.9932714E+00;0; -1.1117537E-01;  3.8046562E+04;  0.0000000E+00; -1.0391612E-01;  4.0000000E+04;  0.0000000E+00;  4.0002676E+04; -1.5768012E-01;  0.0000000E+00;  4.6504755E-02;  2.4688206E+03;
  6.3351214E-01;  9.9999998E-03;  1.5998121E-01;6335;  3.0883548E-01;  0.0000000E+00;  1.6874678E-02;  9.9596356E+02;  1.0211220E-01; -3.3440747E+03;3; -3.0346157E+01;  0.0000000E+00;  2.9647980E+00;0; -1.1062196E-01;  3.8053473E+04;  0.0000000E+00; -1.3088413E-01;  4.0000000E+04;  0.0000000E+00;  4.0002309E+04; -1.5364940E-01;  0.0000000E+00;  4.3027442E-02;  2.4224023E+03;
  6.3360018E-01;  9.9999998E-03;  1.6997613E-01;6336;  3.0616122E-01;  0.0000000E+00;  1.6870493E-02;  9.9605457E+02;  1.0211340E-01; -3.2686702E+03;3; -2.9290968E+01;  0.0000000E+00;  2.9358552E+00;0; -1.1036600E-01;  3.8060270E+04;  0.0000000E+00; -1.5507433E-01;  4.0000000E+04;  0.0000000E+00;  4.0001418E+04; -1.5120989E-01;  0.0000000E+00;  4.0843893E-02;  2.3118640E+03;
  6.3368797E-01;  9.9999998E-03;  1.7996988E-01;6337;  3.0328622E-01;  0.0000000E+00;  1.6852468E-02;  9.9612714E+02;  1.0211474E-01; -3.2085735E+03;3; -2.8279604E+01;  0.0000000E+00;  2.9134731E+00;0; -1.1063678E-01;  3.8066430E+04;  0.0000000E+00; -1.7187244E-01;  4.0000000E+04;  0.0000000E+00;  4.0000023E+04; -1.5038149E-01;  0.0000000E+00;  3.9744712E-02;  2.1332808E+03;
  6.3377225E-01;  9.9999998E-03;  1.8996198E-01;6338;  3.0022970E-01;  0.0000000E+00;  1.6820733E-02;  9.9618030E+02;  1.0211575E-01; -3.1645254E+03;3; -2.7312988E+01;  0.0000000E+00;  2.8940132E+00;0; -1.1170506E-01;  3.8071434E+04;  0.0000000E+00; -1.7587717E-01;  4.0000000E+04;  0.0000000E+00;  3.9998238E+04; -1.5112203E-01;  0.0000000E+00;  3.9416969E-02;  1.9049548E+03;
  6.3384992E-01;  9.9999998E-03;  1.9995165E-01;6339;  2.9701585E-01;  0.0000000E+00;  1.6779313E-02;  9.9621454E+02;  1.0211677E-01; -3.1361809E+03;3; -2.6392315E+01;  0.0000000E+00;  2.9167151E+00;0; -1.1387821E-01;  3.8075301E+04;  0.0000000E+00; -1.6207294E-01;  4.0000000E+04;  0.0000000E+00;  3.9996484E+04; -1.5332793E-01;  0.0000000E+00;  3.9449714E-02;  1.6804749E+03;
  6.3391799E-01;  9.9999998E-03;  2.0993853E-01;6340;  2.9367289E-01;  0.0000000E+00;  1.6737347E-02;  9.9624548E+02;  1.0211750E-01; -3.1105027E+03;3; -2.5506828E+01;  0.0000000E+00;  2.9826016E+00;0; -1.1751804E-01;  3.8078051E+04;  0.0000000E+00; -1.2758015E-01;  4.0000000E+04;  0.0000000E+00;  3.9995637E+04; -1.5684387E-01;  0.0000000E+00;  3.9325837E-02;  1.5678622E+03;
  6.3397318E-01;  9.9999998E-03;  2.1992405E-01;6341;  2.9023528E-01;  0.0000000E+00;  1.6719963E-02;  9.9628851E+02;  1.0211763E-01; -3.0748499E+03;3; -2.4636654E+01;  0.0000000E+00;  3.0946615E+00;0; -1.2306240E-01;  3.8080141E+04;  0.0000000E+00; -7.3306635E-02;  4.0000000E+04;  0.0000000E+00;  3.9997027E+04; -1.6148464E-01;  0.0000000E+00;  3.8422238E-02;  1.7322574E+03;
  6.3401401E-01;  9.9999998E-03;  2.2990967E-01;6342;  2.8673524E-01;  0.0000000E+00;  1.6815126E-02;  9.9637665E+02;  1.0211737E-01; -3.0018647E+03;3; -2.3756062E+01;  0.0000000E+00;  3.2450588E+00;0; -1.3085274E-01;  3.8082027E+04;  0.0000000E+00; -5.0528185E-03;  4.0000000E+04;  0.0000000E+00;  4.0002422E+04; -1.6705567E-01;  0.0000000E+00;  3.6202922E-02;  2.3934546E+03;
  6.4288789E-01;  9.9999998E-03;  6.9989562E-02;6387;  3.2029462E-01;  0.0000000E+00;  1.4203832E-02;  9.9464722E+02;  1.0309757E-01; -4.4346460E+03;3; -3.9683544E+01;  0.0000000E+00;  1.8375767E+00;0; -1.0689691E-01;  3.7232996E+04;  0.0000000E+00;  2.5054382E-04;  4.0000000E+04;  0.0000000E+00;  3.9996465E+04; -2.3771456E-01;  0.0000000E+00;  1.3081765E-01;  2.6379990E+03;
  6.4293706E-01;  9.9999998E-03;  7.9987459E-02;6388;  3.1977332E-01;  0.0000000E+00;  1.5419930E-02;  9.9470996E+02;  1.0309856E-01; -4.3826479E+03;3; -3.8862602E+01;  0.0000000E+00;  1.9440588E+00;0; -1.0654958E-01;  3.7237297E+04;  0.0000000E+00; -5.8399290E-03;  4.0000000E+04;  0.0000000E+00;  3.9995789E+04; -2.2598752E-01;  0.0000000E+00;  1.1943795E-01;  2.5481968E+03;
  6.4299184E-01;  9.9999998E-03;  8.9985542E-02;6389;  3.1905714E-01;  0.0000000E+00;  1.6426375E-02;  9.9478662E+02;  1.0310004E-01; -4.3191440E+03;3; -3.7973232E+01;  0.0000000E+00;  2.0173957E+00;0; -1.0578610E-01;  3.7242633E+04;  0.0000000E+00; -1.6281158E-02;  4.0000000E+04;  0.0000000E+00;  3.9995246E+04; -2.1403699E-01;  0.0000000E+00;  1.0825089E-01;  2.4684360E+03;
  6.4305180E-01;  9.9999998E-03;  9.9983931E-02;6390;  3.1812292E-01;  0.0000000E+00;  1.7227221E-02;  9.9488007E+02;  1.0310160E-01; -4.2417148E+03;3; -3.7010342E+01;  0.0000000E+00;  2.1269763E+00;0; -1.0461440E-01;  3.7248730E+04;  0.0000000E+00; -3.1587668E-02;  4.0000000E+04;  0.0000000E+00;  3.9994863E+04; -2.0220463E-01;  0.0000000E+00;  9.7590230E-02;  2.4055315E+03;
  6.4311689E-01;  9.9999998E-03;  1.0998263E-01;6391;  3.1695622E-01;  0.0000000E+00;  1.7865911E-02;  9.9498633E+02;  1.0310343E-01; -4.1536689E+03;3; -3.5992393E+01;  0.0000000E+00;  2.1887777E+00;0; -1.0307498E-01;  3.7255645E+04;  0.0000000E+00; -5.1613744E-02;  4.0000000E+04;  0.0000000E+00;  3.9994508E+04; -1.9079852E-01;  0.0000000E+00;  8.7723538E-02;  2.3641096E+03;
  6.4318687E-01;  9.9999998E-03;  1.1998140E-01;6392;  3.1554618E-01;  0.0000000E+00;  1.8369704E-02;  9.9510675E+02;  1.0310514E-01; -4.0539197E+03;3; -3.4922058E+01;  0.0000000E+00;  2.2731991E+00;0; -1.0123419E-01;  3.7263191E+04;  0.0000000E+00; -7.5621314E-02;  4.0000000E+04;  0.0000000E+00;  3.9994566E+04; -1.8008758E-01;  0.0000000E+00;  7.8853391E-02;  2.3439143E+03;
  6.4326167E-01;  9.9999998E-03;  1.2997985E-01;6393;  3.1388149E-01;  0.0000000E+00;  1.8744873E-02;  9.9523267E+02;  1.0310711E-01; -3.9496274E+03;3; -3.3812054E+01;  0.0000000E+00;  2.3254788E+00;0; -9.9173732E-02;  3.7271266E+04;  0.0000000E+00; -1.0243623E-01;  4.0000000E+04;  0.0000000E+00;  3.9994453E+04; -1.7029865E-01;  0.0000000E+00;  7.1124919E-02;  2.3373188E+03;
  6.4334089E-01;  9.9999998E-03;  1.3997754E-01;6394;  3.1195512E-01;  0.0000000E+00;  1.8980259E-02;  9.9536279E+02;  1.0310923E-01; -3.8417793E+03;3; -3.2688286E+01;  0.0000000E+00;  2.2868156E+00;0; -9.6986033E-02;  3.7279555E+04;  0.0000000E+00; -1.3053352E-01;  4.0000000E+04;  0.0000000E+00;  3.9994461E+04; -1.6161729E-01;  0.0000000E+00;  6.4631261E-02;  2.3277412E+03;
  6.4342362E-01;  9.9999998E-03;  1.4997424E-01;6395;  3.0977571E-01;  0.0000000E+00;  1.9125892E-02;  9.9548853E+02;  1.0311161E-01; -3.7376350E+03;3; -3.1562904E+01;  0.0000000E+00;  2.2270198E+00;0; -9.4784684E-02;  3.7287648E+04;  0.0000000E+00; -1.5811318E-01;  4.0000000E+04;  0.0000000E+00;  3.9994270E+04; -1.5419580E-01;  0.0000000E+00;  5.9411116E-02;  2.2908408E+03;
  6.4350867E-01;  9.9999998E-03;  1.5996973E-01;6396;  3.0735117E-01;  0.0000000E+00;  1.9224625E-02;  9.9560083E+02;  1.0311366E-01; -3.6446016E+03;3; -3.0462097E+01;  0.0000000E+00;  2.1370437E+00;0; -9.2713170E-02;  3.7295297E+04;  0.0000000E+00; -1.8264472E-01;  4.0000000E+04;  0.0000000E+00;  3.9993488E+04; -1.4815979E-01;  0.0000000E+00;  5.5446617E-02;  2.2020781E+03;
  6.4359391E-01;  9.9999998E-03;  1.6996428E-01;6397;  3.0468971E-01;  0.0000000E+00;  1.9285120E-02;  9.9569427E+02;  1.0311579E-01; -3.5671726E+03;3; -2.9406040E+01;  0.0000000E+00;  2.0305433E+00;0; -9.0968922E-02;  3.7301984E+04;  0.0000000E+00; -1.9956629E-01;  4.0000000E+04;  0.0000000E+00;  3.9992336E+04; -1.4360428E-01;  0.0000000E+00;  5.2635353E-02;  2.0478433E+03;
  6.4367682E-01;  9.9999998E-03;  1.7995791E-01;6398;  3.0180064E-01;  0.0000000E+00;  1.9313021E-02;  9.9576184E+02;  1.0311797E-01; -3.5112241E+03;3; -2.8405134E+01;  0.0000000E+00;  1.9537146E+00;0; -8.9808926E-02;  3.7307289E+04;  0.0000000E+00; -2.0249237E-01;  4.0000000E+04;  0.0000000E+00;  3.9990645E+04; -1.4058012E-01;  0.0000000E+00;  5.0771192E-02;  1.8341036E+03;
  6.4375454E-01;  9.9999998E-03;  1.8995045E-01;6399;  2.9870152E-01;  0.0000000E+00;  1.9314777E-02;  9.9580219E+02;  1.0312012E-01; -3.4777932E+03;3; -2.7456760E+01;  0.0000000E+00;  1.9219798E+00;0; -8.9536980E-02;  3.7310828E+04;  0.0000000E+00; -1.8433557E-01;  4.0000000E+04;  0.0000000E+00;  3.9988773E+04; -1.3908263E-01;  0.0000000E+00;  4.9545642E-02;  1.5930577E+03;
  6.4382470E-01;  9.9999998E-03;  1.9994159E-01;6400;  2.9541734E-01;  0.0000000E+00;  1.9293951E-02;  9.9581732E+02;  1.0312155E-01; -3.4652505E+03;3; -2.6562508E+01;  0.0000000E+00;  1.9402692E+00;0; -9.0498120E-02;  3.7312703E+04;  0.0000000E+00; -1.3950765E-01;  4.0000000E+04;  0.0000000E+00;  3.9987234E+04; -1.3904825E-01;  0.0000000E+00;  4.8550133E-02;  1.3935607E+03;
  6.4388466E-01;  9.9999998E-03;  2.0993243E-01;6401;  2.9197630E-01;  0.0000000E+00;  1.9250143E-02;  9.9582483E+02;  1.0312276E-01; -3.4590286E+03;3; -2.5705563E+01;  0.0000000E+00;  1.9962273E+00;0; -9.3116224E-02;  3.7312887E+04;  0.0000000E+00; -6.6722155E-02;  4.0000000E+04;  0.0000000E+00;  3.9986934E+04; -1.4036959E-01;  0.0000000E+00;  4.7253374E-02;  1.3453625E+03;
  6.4393151E-01;  9.9999998E-03;  2.1992382E-01;6402;  2.8840464E-01;  0.0000000E+00;  1.9209733E-02;  9.9584210E+02;  1.0312332E-01; -3.4447080E+03;3; -2.4843601E+01;  0.0000000E+00;  2.0888491E+00;0; -9.7918317E-02;  3.7312156E+04;  0.0000000E+00;  2.8180754E-02;  4.0000000E+04;  0.0000000E+00;  3.9989051E+04; -1.4291960E-01;  0.0000000E+00;  4.5001283E-02;  1.6040972E+03;
  6.4396405E-01;  9.9999998E-03;  2.2991715E-01;6403;  2.8473833E-01;  0.0000000E+00;  1.9251905E-02;  9.9589288E+02;  1.0312331E-01; -3.4026353E+03;3; -2.3953953E+01;  0.0000000E+00;  2.2343218E+00;0; -1.0539919E-01;  3.7310887E+04;  0.0000000E+00;  1.2922268E-01;  4.0000000E+04;  0.0000000E+00;  3.9994766E+04; -1.4656793E-01;  0.0000000E+00;  4.1168731E-02;  2.3251050E+03;
  6.5287989E-01;  9.9999998E-03;  6.9978572E-02;6448;  3.1746432E-01;  0.0000000E+00;  1.5002714E-02;  9.9422949E+02;  1.0438142E-01; -4.7806997E+03;3; -3.9874870E+01;  0.0000000E+00;  1.5559611E+00;0; -1.0005951E-01;  3.6290871E+04;  0.0000000E+00; -1.7964445E-02;  4.0000000E+04;  0.0000000E+00;  3.9988016E+04; -2.4327496E-01;  0.0000000E+00;  1.4321545E-01;  2.6842932E+03;
  6.5293354E-01;  9.9999998E-03;  7.9975992E-02;6449;  3.1713387E-01;  0.0000000E+00;  1.6401930E-02;  9.9434601E+02;  1.0438333E-01; -4.6841597E+03;3; -3.9056637E+01;  0.0000000E+00;  1.6286868E+00;0; -9.7886965E-02;  3.6298602E+04;  0.0000000E+00; -2.9996751E-02;  4.0000000E+04;  0.0000000E+00;  3.9987273E+04; -2.3048894E-01;  0.0000000E+00;  1.3260198E-01;  2.5659675E+03;
  6.5299308E-01;  9.9999998E-03;  8.9973807E-02;6450;  3.1660900E-01;  0.0000000E+00;  1.7582545E-02;  9.9448181E+02;  1.0438578E-01; -4.5716704E+03;3; -3.8162586E+01;  0.0000000E+00;  1.6637018E+00;0; -9.5181189E-02;  3.6307469E+04;  0.0000000E+00; -4.6341144E-02;  4.0000000E+04;  0.0000000E+00;  3.9986387E+04; -2.1729670E-01;  0.0000000E+00;  1.2211552E-01;  2.4562339E+03;
  6.5305787E-01;  9.9999998E-03;  9.9972114E-02;6451;  3.1586006E-01;  0.0000000E+00;  1.8561583E-02;  9.9463702E+02;  1.0438836E-01; -4.4430830E+03;3; -3.7204372E+01;  0.0000000E+00;  1.6836125E+00;0; -9.1950789E-02;  3.6317496E+04;  0.0000000E+00; -6.6861175E-02;  4.0000000E+04;  0.0000000E+00;  3.9985676E+04; -2.0401308E-01;  0.0000000E+00;  1.1206229E-01;  2.3626128E+03;
  6.5312761E-01;  9.9999998E-03;  1.0997090E-01;6452;  3.1486523E-01;  0.0000000E+00;  1.9365195E-02;  9.9480530E+02;  1.0439125E-01; -4.3036812E+03;3; -3.6177727E+01;  0.0000000E+00;  1.6568555E+00;0; -8.8226475E-02;  3.6328188E+04;  0.0000000E+00; -9.0803586E-02;  4.0000000E+04;  0.0000000E+00;  3.9985266E+04; -1.9091699E-01;  0.0000000E+00;  1.0269051E-01;  2.2901855E+03;
  6.5320170E-01;  9.9999998E-03;  1.1996984E-01;6453;  3.1361157E-01;  0.0000000E+00;  2.0032063E-02;  9.9498328E+02;  1.0439447E-01; -4.1562300E+03;3; -3.5101490E+01;  0.0000000E+00;  1.6100743E+00;0; -8.4058031E-02;  3.6339266E+04;  0.0000000E+00; -1.1694615E-01;  4.0000000E+04;  0.0000000E+00;  3.9984945E+04; -1.7824662E-01;  0.0000000E+00;  9.4188586E-02;  2.2384604E+03;
  6.5327948E-01;  9.9999998E-03;  1.2996860E-01;6454;  3.1208742E-01;  0.0000000E+00;  2.0588966E-02;  9.9516345E+02;  1.0439768E-01; -4.0069521E+03;3; -3.3960846E+01;  0.0000000E+00;  1.5689040E+00;0; -7.9512849E-02;  3.6350527E+04;  0.0000000E+00; -1.4374936E-01;  4.0000000E+04;  0.0000000E+00;  3.9984742E+04; -1.6620047E-01;  0.0000000E+00;  8.6687624E-02;  2.1987644E+03;
  6.5336025E-01;  9.9999998E-03;  1.3996664E-01;6455;  3.1028765E-01;  0.0000000E+00;  2.1059899E-02;  9.9534155E+02;  1.0440121E-01; -3.8594023E+03;3; -3.2797180E+01;  0.0000000E+00;  1.5034517E+00;0; -7.4685201E-02;  3.6361441E+04;  0.0000000E+00; -1.6945380E-01;  4.0000000E+04;  0.0000000E+00;  3.9984477E+04; -1.5494481E-01;  0.0000000E+00;  8.0259606E-02;  2.1528254E+03;
  6.5344268E-01;  9.9999998E-03;  1.4996354E-01;6456;  3.0820930E-01;  0.0000000E+00;  2.1452002E-02;  9.9550525E+02;  1.0440483E-01; -3.7237532E+03;3; -3.1637831E+01;  0.0000000E+00;  1.4159799E+00;0; -6.9714233E-02;  3.6371500E+04;  0.0000000E+00; -1.9213724E-01;  4.0000000E+04;  0.0000000E+00;  3.9983898E+04; -1.4462793E-01;  0.0000000E+00;  7.4913695E-02;  2.0748389E+03;
  6.5352553E-01;  9.9999998E-03;  1.5995927E-01;6457;  3.0584654E-01;  0.0000000E+00;  2.1721927E-02;  9.9564233E+02;  1.0440877E-01; -3.6102268E+03;3; -3.0518141E+01;  0.0000000E+00;  1.2820319E+00;0; -6.4785041E-02;  3.6380340E+04;  0.0000000E+00; -2.0866685E-01;  4.0000000E+04;  0.0000000E+00;  3.9982773E+04; -1.3539246E-01;  0.0000000E+00;  7.0607416E-02;  1.9412513E+03;
  6.5360665E-01;  9.9999998E-03;  1.6995424E-01;6458;  3.0321011E-01;  0.0000000E+00;  2.1902544E-02;  9.9575018E+02;  1.0441241E-01; -3.5208477E+03;3; -2.9452747E+01;  0.0000000E+00;  1.1333548E+00;0; -6.0137667E-02;  3.6387496E+04;  0.0000000E+00; -2.1342447E-01;  4.0000000E+04;  0.0000000E+00;  3.9981320E+04; -1.2736458E-01;  0.0000000E+00;  6.7226909E-02;  1.7435603E+03;
  6.5368414E-01;  9.9999998E-03;  1.7994869E-01;6459;  3.0031720E-01;  0.0000000E+00;  2.2030661E-02;  9.9582117E+02;  1.0441574E-01; -3.4620352E+03;3; -2.8465130E+01;  0.0000000E+00;  1.0312412E+00;0; -5.6069799E-02;  3.6392484E+04;  0.0000000E+00; -1.9859923E-01;  4.0000000E+04;  0.0000000E+00;  3.9979363E+04; -1.2064055E-01;  0.0000000E+00;  6.4570747E-02;  1.4973129E+03;
  6.5375590E-01;  9.9999998E-03;  1.8994297E-01;6460;  2.9718491E-01;  0.0000000E+00;  2.2108931E-02;  9.9585693E+02;  1.0441896E-01; -3.4324067E+03;3; -2.7573189E+01;  0.0000000E+00;  9.8159099E-01;0; -5.2925721E-02;  3.6395172E+04;  0.0000000E+00; -1.5615606E-01;  4.0000000E+04;  0.0000000E+00;  3.9977457E+04; -1.1527073E-01;  0.0000000E+00;  6.2345006E-02;  1.2471989E+03;
  6.5381914E-01;  9.9999998E-03;  1.9993821E-01;6461;  2.9383129E-01;  0.0000000E+00;  2.2136269E-02;  9.9586566E+02;  1.0442194E-01; -3.4251973E+03;3; -2.6724323E+01;  0.0000000E+00;  9.7395730E-01;0; -5.1114015E-02;  3.6395340E+04;  0.0000000E+00; -8.1181213E-02;  4.0000000E+04;  0.0000000E+00;  3.9976156E+04; -1.1126769E-01;  0.0000000E+00;  6.0153678E-02;  1.0701803E+03;
  6.5387112E-01;  9.9999998E-03;  2.0993575E-01;6462;  2.9029107E-01;  0.0000000E+00;  2.2125110E-02;  9.9585303E+02;  1.0442396E-01; -3.4356660E+03;3; -2.5877964E+01;  0.0000000E+00;  1.0138156E+00;0; -5.1128533E-02;  3.6393664E+04;  0.0000000E+00;  2.3974838E-02;  4.0000000E+04;  0.0000000E+00;  3.9976164E+04; -1.0861323E-01;  0.0000000E+00;  5.7484698E-02;  1.0742793E+03;
  6.5391016E-01;  9.9999998E-03;  2.1993639E-01;6463;  2.8658962E-01;  0.0000000E+00;  2.2091832E-02;  9.9584174E+02;  1.0442541E-01; -3.4449988E+03;3; -2.5034986E+01;  0.0000000E+00;  1.0753334E+00;0; -5.3605448E-02;  3.6390371E+04;  0.0000000E+00;  1.4495386E-01;  4.0000000E+04;  0.0000000E+00;  3.9978387E+04; -1.0728699E-01;  0.0000000E+00;  5.3681541E-02;  1.3660596E+03;
  6.5393555E-01;  9.9999998E-03;  2.2994125E-01;6464;  2.8275391E-01;  0.0000000E+00;  2.2086030E-02;  9.9584222E+02;  1.0442583E-01; -3.4446038E+03;3; -2.4140392E+01;  0.0000000E+00;  1.1829627E+00;0; -5.9262808E-02;  3.6386395E+04;  0.0000000E+00;  2.4942859E-01;  4.0000000E+04;  0.0000000E+00;  3.9983137E+04; -1.0727148E-01;  0.0000000E+00;  4.8008669E-02;  1.9728508E+03;
  6.6290897E-01;  9.9999998E-03;  6.9967285E-02;6509;  3.1443715E-01;  0.0000000E+00;  1.5658332E-02;  9.9400330E+02;  1.0593525E-01; -4.9680903E+03;3; -3.9992851E+01;  0.0000000E+00;  1.3134588E+00;0; -9.0351254E-02;  3.5213359E+04;  0.0000000E+00; -3.6528610E-02;  4.0000000E+04;  0.0000000E+00;  3.9977953E+04; -2.4578500E-01;  0.0000000E+00;  1.5543374E-01;  2.7145459E+03;
  6.6296750E-01;  9.9999998E-03;  7.9964451E-02;6510;  3.1431654E-01;  0.0000000E+00;  1.7219862E-02;  9.9418683E+02;  1.0593858E-01; -4.8160474E+03;3; -3.9175743E+01;  0.0000000E+00;  1.3434396E+00;0; -8.5747719E-02;  3.5225047E+04;  0.0000000E+00; -5.3146712E-02;  4.0000000E+04;  0.0000000E+00;  3.9976836E+04; -2.3176149E-01;  0.0000000E+00;  1.4601377E-01;  2.5609663E+03;
  6.6303211E-01;  9.9999998E-03;  8.9962378E-02;6511;  3.1400740E-01;  0.0000000E+00;  1.8580316E-02;  9.9439655E+02;  1.0594235E-01; -4.6422769E+03;3; -3.8289608E+01;  0.0000000E+00;  1.3311720E+00;0; -8.0361918E-02;  3.5238211E+04;  0.0000000E+00; -7.3194154E-02;  4.0000000E+04;  0.0000000E+00;  3.9975750E+04; -2.1702734E-01;  0.0000000E+00;  1.3666542E-01;  2.4133794E+03;
  6.6310191E-01;  9.9999998E-03;  9.9960998E-02;6512;  3.1347123E-01;  0.0000000E+00;  1.9744931E-02;  9.9462543E+02;  1.0594645E-01; -4.4526553E+03;3; -3.7314972E+01;  0.0000000E+00;  1.2844605E+00;0; -7.4186370E-02;  3.5252391E+04;  0.0000000E+00; -9.5793217E-02;  4.0000000E+04;  0.0000000E+00;  3.9974852E+04; -2.0184357E-01;  0.0000000E+00;  1.2765720E-01;  2.2805972E+03;
  6.6317594E-01;  9.9999998E-03;  1.0996012E-01;6513;  3.1267658E-01;  0.0000000E+00;  2.0730775E-02;  9.9486963E+02;  1.0595115E-01; -4.2503418E+03;3; -3.6281559E+01;  0.0000000E+00;  1.1535637E+00;0; -6.7225292E-02;  3.5267426E+04;  0.0000000E+00; -1.1959366E-01;  4.0000000E+04;  0.0000000E+00;  3.9974039E+04; -1.8643323E-01;  0.0000000E+00;  1.1920793E-01;  2.1685559E+03;
  6.6325355E-01;  9.9999998E-03;  1.1995959E-01;6514;  3.1159964E-01;  0.0000000E+00;  2.1568965E-02;  9.9512347E+02;  1.0595647E-01; -4.0400791E+03;3; -3.5189030E+01;  0.0000000E+00;  9.8921776E-01;0; -5.9499905E-02;  3.5282668E+04;  0.0000000E+00; -1.4300151E-01;  4.0000000E+04;  0.0000000E+00;  3.9973488E+04; -1.7098047E-01;  0.0000000E+00;  1.1148056E-01;  2.0771113E+03;
  6.6333348E-01;  9.9999998E-03;  1.2995909E-01;6515;  3.1022602E-01;  0.0000000E+00;  2.2297204E-02;  9.9537506E+02;  1.0596174E-01; -3.8316433E+03;3; -3.4056736E+01;  0.0000000E+00;  7.8153807E-01;0; -5.1060542E-02;  3.5297523E+04;  0.0000000E+00; -1.6434449E-01;  4.0000000E+04;  0.0000000E+00;  3.9972934E+04; -1.5563731E-01;  0.0000000E+00;  1.0457677E-01;  1.9971053E+03;
  6.6341466E-01;  9.9999998E-03;  1.3995807E-01;6516;  3.0855101E-01;  0.0000000E+00;  2.2949528E-02;  9.9561292E+02;  1.0596744E-01; -3.6345649E+03;3; -3.2859962E+01;  0.0000000E+00;  5.7864529E-01;0; -4.2008542E-02;  3.5311527E+04;  0.0000000E+00; -1.8197642E-01;  4.0000000E+04;  0.0000000E+00;  3.9972355E+04; -1.4053842E-01;  0.0000000E+00;  9.8529883E-02;  1.9094067E+03;
  6.6349584E-01;  9.9999998E-03;  1.4995597E-01;6517;  3.0657160E-01;  0.0000000E+00;  2.3555249E-02;  9.9582739E+02;  1.0597342E-01; -3.4568933E+03;3; -3.1687769E+01;  0.0000000E+00;  4.0544453E-01;0; -3.2523826E-02;  3.5324160E+04;  0.0000000E+00; -1.9423057E-01;  4.0000000E+04;  0.0000000E+00;  3.9971457E+04; -1.2582341E-01;  0.0000000E+00;  9.3299583E-02;  1.7877065E+03;
  6.6357553E-01;  9.9999998E-03;  1.5995270E-01;6518;  3.0429125E-01;  0.0000000E+00;  2.4118684E-02;  9.9600433E+02;  1.0597911E-01; -3.3102822E+03;3; -3.0541409E+01;  0.0000000E+00;  3.4771973E-01;0; -2.2853501E-02;  3.5334727E+04;  0.0000000E+00; -1.9789344E-01;  4.0000000E+04;  0.0000000E+00;  3.9970125E+04; -1.1165235E-01;  0.0000000E+00;  8.8798851E-02;  1.6101494E+03;
  6.6365212E-01;  9.9999998E-03;  1.6994877E-01;6519;  3.0171517E-01;  0.0000000E+00;  2.4619184E-02;  9.9614160E+02;  1.0598463E-01; -3.1965583E+03;3; -2.9477571E+01;  0.0000000E+00;  3.5242826E-01;0; -1.3297126E-02;  3.5343000E+04;  0.0000000E+00; -1.8679054E-01;  4.0000000E+04;  0.0000000E+00;  3.9968277E+04; -9.8195322E-02;  0.0000000E+00;  8.4898196E-02;  1.3737296E+03;
  6.6372406E-01;  9.9999998E-03;  1.7994484E-01;6520;  2.9883555E-01;  0.0000000E+00;  2.4977691E-02;  9.9623260E+02;  1.0599009E-01; -3.1211541E+03;3; -2.8515739E+01;  0.0000000E+00;  3.0986154E-01;0; -4.2119175E-03;  3.5348398E+04;  0.0000000E+00; -1.5240027E-01;  4.0000000E+04;  0.0000000E+00;  3.9966195E+04; -8.5617803E-02;  0.0000000E+00;  8.1405886E-02;  1.1031609E+03;
  6.6378933E-01;  9.9999998E-03;  1.8994273E-01;6521;  2.9567915E-01;  0.0000000E+00;  2.5213635E-02;  9.9627942E+02;  1.0599528E-01; -3.0823901E+03;3; -2.7655634E+01;  0.0000000E+00;  1.7330943E-01;0;  4.0052384E-03;  3.5350828E+04;  0.0000000E+00; -8.6873367E-02;  4.0000000E+04;  0.0000000E+00;  3.9964348E+04; -7.4050426E-02;  0.0000000E+00;  7.8055665E-02;  8.5310620E+02;
  6.6384560E-01;  9.9999998E-03;  1.9994456E-01;6522;  2.9227993E-01;  0.0000000E+00;  2.5348516E-02;  9.9628876E+02;  1.0599980E-01; -3.0746375E+03;3; -2.6815670E+01;  0.0000000E+00;  7.7734515E-02;0;  1.0876879E-02;  3.5350422E+04;  0.0000000E+00;  1.2494439E-02;  4.0000000E+04;  0.0000000E+00;  3.9963328E+04; -6.3611738E-02;  0.0000000E+00;  7.4488617E-02;  7.0770081E+02;
  6.6389126E-01;  9.9999998E-03;  2.0995180E-01;6523;  2.8864107E-01;  0.0000000E+00;  2.5410488E-02;  9.9626947E+02;  1.0600318E-01; -3.0906367E+03;3; -2.6057575E+01;  0.0000000E+00;  1.1078166E-02;0;  1.5795797E-02;  3.5347523E+04;  0.0000000E+00;  1.3764095E-01;  4.0000000E+04;  0.0000000E+00;  3.9963484E+04; -5.4439567E-02;  0.0000000E+00;  7.0235364E-02;  7.5930139E+02;
  6.6392541E-01;  9.9999998E-03;  2.1996510E-01;6524;  2.8481606E-01;  0.0000000E+00;  2.5408452E-02;  9.9623212E+02;  1.0600600E-01; -3.1215984E+03;3; -2.5192165E+01;  0.0000000E+00;  1.9330001E-02;0;  1.7975651E-02;  3.5342492E+04;  0.0000000E+00;  2.6254705E-01;  4.0000000E+04;  0.0000000E+00;  3.9964965E+04; -4.6675459E-02;  0.0000000E+00;  6.4651109E-02;  1.0028787E+03;
  6.6394687E-01;  9.9999998E-03;  2.2998346E-01;6525;  2.8083879E-01;  0.0000000E+00;  2.5366329E-02;  9.9617676E+02;  1.0600812E-01; -3.1674236E+03;3; -2.4292284E+01;  0.0000000E+00;  8.4591672E-02;0;  1.6415745E-02;  3.5336348E+04;  0.0000000E+00;  3.3358949E-01;  4.0000000E+04;  0.0000000E+00;  3.9967477E+04; -4.0490951E-02;  0.0000000E+00;  5.6906696E-02;  1.3283934E+03;
  6.7299402E-01;  9.9999998E-03;  6.9956735E-02;6570;  3.1127858E-01;  0.0000000E+00;  1.6173696E-02;  9.9385962E+02;  1.0771396E-01; -5.0870869E+03;3; -4.0052792E+01;  0.0000000E+00;  1.0732634E+00;0; -7.6235279E-02;  3.4045387E+04;  0.0000000E+00; -4.8157819E-02;  4.0000000E+04;  0.0000000E+00;  3.9966070E+04; -2.4366696E-01;  0.0000000E+00;  1.6743168E-01;  2.6811035E+03;
  6.7305791E-01;  9.9999998E-03;  7.9954222E-02;6571;  3.1138912E-01;  0.0000000E+00;  1.7889855E-02;  9.9412061E+02;  1.0771936E-01; -4.8708989E+03;3; -3.9216187E+01;  0.0000000E+00;  1.0726302E+00;0; -6.8379626E-02;  3.4061023E+04;  0.0000000E+00; -6.6491358E-02;  4.0000000E+04;  0.0000000E+00;  3.9964707E+04; -2.2806078E-01;  0.0000000E+00;  1.5968116E-01;  2.4875652E+03;
  6.7312789E-01;  9.9999998E-03;  8.9952931E-02;6572;  3.1131682E-01;  0.0000000E+00;  1.9416222E-02;  9.9440973E+02;  1.0772525E-01; -4.6313535E+03;3; -3.8324257E+01;  0.0000000E+00;  9.8400044E-01;0; -5.9316188E-02;  3.4078234E+04;  0.0000000E+00; -8.6741194E-02;  4.0000000E+04;  0.0000000E+00;  3.9963219E+04; -2.1127260E-01;  0.0000000E+00;  1.5195641E-01;  2.2957195E+03;
  6.7320263E-01;  9.9999998E-03;  9.9952534E-02;6573;  3.1101552E-01;  0.0000000E+00;  2.0757077E-02;  9.9472321E+02;  1.0773163E-01; -4.3716611E+03;3; -3.7354431E+01;  0.0000000E+00;  8.1788057E-01;0; -4.8998922E-02;  3.4096711E+04;  0.0000000E+00; -1.0736313E-01;  4.0000000E+04;  0.0000000E+00;  3.9961992E+04; -1.9347635E-01;  0.0000000E+00;  1.4447743E-01;  2.1159902E+03;
  6.7328060E-01;  9.9999998E-03;  1.0995279E-01;6574;  3.1044263E-01;  0.0000000E+00;  2.1923563E-02;  9.9505432E+02;  1.0773863E-01; -4.0973521E+03;3; -3.6296280E+01;  0.0000000E+00;  5.8889413E-01;0; -3.7391588E-02;  3.4116016E+04;  0.0000000E+00; -1.2655270E-01;  4.0000000E+04;  0.0000000E+00;  3.9960887E+04; -1.7481112E-01;  0.0000000E+00;  1.3741954E-01;  1.9558342E+03;
  6.7336076E-01;  9.9999998E-03;  1.1995370E-01;6575;  3.0956164E-01;  0.0000000E+00;  2.2946592E-02;  9.9539172E+02;  1.0774657E-01; -3.8178086E+03;3; -3.5190174E+01;  0.0000000E+00;  2.2737846E-01;0; -2.4480656E-02;  3.4135453E+04;  0.0000000E+00; -1.4253296E-01;  4.0000000E+04;  0.0000000E+00;  3.9959973E+04; -1.5538384E-01;  0.0000000E+00;  1.3090318E-01;  1.8162073E+03;
  6.7344171E-01;  9.9999998E-03;  1.2995483E-01;6576;  3.0835381E-01;  0.0000000E+00;  2.3869853E-02;  9.9572137E+02;  1.0775463E-01; -3.5446848E+03;3; -3.4036407E+01;  0.0000000E+00; -1.5514769E-01;0; -1.0298997E-02;  3.4154238E+04;  0.0000000E+00; -1.5373126E-01;  4.0000000E+04;  0.0000000E+00;  3.9959117E+04; -1.3528258E-01;  0.0000000E+00;  1.2498358E-01;  1.6886652E+03;
  6.7352223E-01;  9.9999998E-03;  1.3995543E-01;6577;  3.0680832E-01;  0.0000000E+00;  2.4732407E-02;  9.9603619E+02;  1.0776303E-01; -3.2839060E+03;3; -3.2867947E+01;  0.0000000E+00; -5.0179625E-01;0;  5.0337091E-03;  3.4171633E+04;  0.0000000E+00; -1.5881623E-01;  4.0000000E+04;  0.0000000E+00;  3.9958121E+04; -1.1460243E-01;  0.0000000E+00;  1.1963614E-01;  1.5544822E+03;
  6.7360103E-01;  9.9999998E-03;  1.4995490E-01;6578;  3.0492908E-01;  0.0000000E+00;  2.5566412E-02;  9.9631317E+02;  1.0777172E-01; -3.0544346E+03;3; -3.1697344E+01;  0.0000000E+00; -6.9809276E-01;0;  2.1281622E-02;  3.4187180E+04;  0.0000000E+00; -1.5657106E-01;  4.0000000E+04;  0.0000000E+00;  3.9957004E+04; -9.3469746E-02;  0.0000000E+00;  1.1475137E-01;  1.3880610E+03;
  6.7367721E-01;  9.9999998E-03;  1.5995331E-01;6579;  3.0271375E-01;  0.0000000E+00;  2.6375068E-02;  9.9654797E+02;  1.0778031E-01; -2.8598750E+03;3; -3.0591469E+01;  0.0000000E+00; -6.9537210E-01;0;  3.8118735E-02;  3.4200121E+04;  0.0000000E+00; -1.4410584E-01;  4.0000000E+04;  0.0000000E+00;  3.9955426E+04; -7.2064765E-02;  0.0000000E+00;  1.1018350E-01;  1.1703168E+03;
  6.7374998E-01;  9.9999998E-03;  1.6995133E-01;6580;  3.0017179E-01;  0.0000000E+00;  2.7148172E-02;  9.9672736E+02;  1.0778869E-01; -2.7112886E+03;3; -2.9573700E+01;  0.0000000E+00; -5.1560205E-01;0;  5.5174429E-02;  3.4209996E+04;  0.0000000E+00; -1.1532975E-01;  4.0000000E+04;  0.0000000E+00;  3.9953434E+04; -5.0599162E-02;  0.0000000E+00;  1.0577359E-01;  9.0378882E+02;
  6.7381799E-01;  9.9999998E-03;  1.7995071E-01;6581;  2.9730859E-01;  0.0000000E+00;  2.7870711E-02;  9.9684955E+02;  1.0779621E-01; -2.6100583E+03;3; -2.8593760E+01;  0.0000000E+00; -2.9243320E-01;0;  7.2041191E-02;  3.4216355E+04;  0.0000000E+00; -6.2234458E-02;  4.0000000E+04;  0.0000000E+00;  3.9951242E+04; -2.9308287E-02;  0.0000000E+00;  1.0134948E-01;  6.2120599E+02;
  6.7387933E-01;  9.9999998E-03;  1.8995431E-01;6582;  2.9415888E-01;  0.0000000E+00;  2.8491084E-02;  9.9692279E+02;  1.0780411E-01; -2.5493699E+03;3; -2.7635996E+01;  0.0000000E+00; -2.7534014E-01;0;  8.8282384E-02;  3.4219371E+04;  0.0000000E+00;  2.1301940E-02;  4.0000000E+04;  0.0000000E+00;  3.9949641E+04; -8.4358444E-03;  0.0000000E+00;  9.6718229E-02;  3.9078989E+02;
  6.7393273E-01;  9.9999998E-03;  1.9996430E-01;6583;  2.9072389E-01;  0.0000000E+00;  2.8904434E-02;  9.9695111E+02;  1.0781098E-01; -2.5259141E+03;3; -2.6832329E+01;  0.0000000E+00; -5.3057140E-01;0;  1.0331351E-01;  3.4218945E+04;  0.0000000E+00;  1.3427326E-01;  4.0000000E+04;  0.0000000E+00;  3.9948680E+04;  1.1718743E-02;  0.0000000E+00;  9.1594763E-02;  3.3725815E+02;
  6.7397732E-01;  9.9999998E-03;  2.0998210E-01;6584;  2.8704509E-01;  0.0000000E+00;  2.9125860E-02;  9.9693982E+02;  1.0781736E-01; -2.5352468E+03;3; -2.6044981E+01;  0.0000000E+00; -8.9015239E-01;0;  1.1636201E-01;  3.4215512E+04;  0.0000000E+00;  2.6149717E-01;  4.0000000E+04;  0.0000000E+00;  3.9948777E+04;  3.0809129E-02;  0.0000000E+00;  8.5552886E-02;  4.8080319E+02;
  6.7401123E-01;  9.9999998E-03;  2.2000852E-01;6585;  2.8313193E-01;  0.0000000E+00;  2.9197540E-02;  9.9688916E+02;  1.0782243E-01; -2.5772205E+03;3; -2.5307617E+01;  0.0000000E+00; -1.0757798E+00;0;  1.2636921E-01;  3.4209770E+04;  0.0000000E+00;  3.6402091E-01;  4.0000000E+04;  0.0000000E+00;  3.9949348E+04;  4.8400924E-02;  0.0000000E+00;  7.7968284E-02;  6.3272333E+02;
  6.7403209E-01;  9.9999998E-03;  2.3003905E-01;6586;  2.7902842E-01;  0.0000000E+00;  2.9138543E-02;  9.9679346E+02;  1.0782636E-01; -2.6565256E+03;3; -2.4405077E+01;  0.0000000E+00; -1.1197089E+00;0;  1.3196446E-01;  3.4202480E+04;  0.0000000E+00;  3.6536765E-01;  4.0000000E+04;  0.0000000E+00;  3.9949145E+04;  6.4023100E-02;  0.0000000E+00;  6.7941360E-02;  6.0555548E+02;
  6.8318123E-01;  9.9999998E-03;  6.9953047E-02;6631;  3.0807742E-01;  0.0000000E+00;  1.6511166E-02;  9.9386859E+02;  1.0967047E-01; -5.0796665E+03;3; -4.0070263E+01;  0.0000000E+00;  8.6107534E-01;0; -5.4428086E-02;  3.2842086E+04;  0.0000000E+00; -4.4386037E-02;  4.0000000E+04;  0.0000000E+00;  3.9952508E+04; -2.3365019E-01;  0.0000000E+00;  1.7922211E-01;  2.5362393E+03;
  6.8325108E-01;  9.9999998E-03;  7.9951912E-02;6632;  3.0843136E-01;  0.0000000E+00;  1.8362679E-02;  9.9420166E+02;  1.0967819E-01; -4.8037290E+03;3; -3.9201778E+01;  0.0000000E+00;  8.5321754E-01;0; -4.2282417E-02;  3.2860766E+04;  0.0000000E+00; -6.0174886E-02;  4.0000000E+04;  0.0000000E+00;  3.9950812E+04; -2.1594702E-01;  0.0000000E+00;  1.7366460E-01;  2.2999089E+03;
  6.8332660E-01;  9.9999998E-03;  8.9952141E-02;6633;  3.0861232E-01;  0.0000000E+00;  2.0046690E-02;  9.9457111E+02;  1.0968709E-01; -4.4976689E+03;3; -3.8270927E+01;  0.0000000E+00;  6.9776607E-01;0; -2.8283998E-02;  3.2881445E+04;  0.0000000E+00; -7.6286919E-02;  4.0000000E+04;  0.0000000E+00;  3.9949172E+04; -1.9637543E-01;  0.0000000E+00;  1.6809143E-01;  2.0583362E+03;
  6.8340623E-01;  9.9999998E-03;  9.9953361E-02;6634;  3.0856130E-01;  0.0000000E+00;  2.1562731E-02;  9.9496875E+02;  1.0969654E-01; -4.1682026E+03;3; -3.7271126E+01;  0.0000000E+00;  4.0618414E-01;0; -1.2332872E-02;  3.2903398E+04;  0.0000000E+00; -9.0782903E-02;  4.0000000E+04;  0.0000000E+00;  3.9947434E+04; -1.7499003E-01;  0.0000000E+00;  1.6265716E-01;  1.8239736E+03;
  6.8348861E-01;  9.9999998E-03;  1.0995565E-01;6635;  3.0822790E-01;  0.0000000E+00;  2.2935139E-02;  9.9538483E+02;  1.0970686E-01; -3.8235271E+03;3; -3.6210033E+01;  0.0000000E+00; -6.7270093E-02;0;  5.6659132E-03;  3.2926285E+04;  0.0000000E+00; -1.0161610E-01;  4.0000000E+04;  0.0000000E+00;  3.9945930E+04; -1.5180992E-01;  0.0000000E+00;  1.5747583E-01;  1.6066407E+03;
  6.8357211E-01;  9.9999998E-03;  1.1995900E-01;6636;  3.0756336E-01;  0.0000000E+00;  2.4188422E-02;  9.9580713E+02;  1.0971808E-01; -3.4736665E+03;3; -3.5090908E+01;  0.0000000E+00; -6.0159957E-01;0;  2.5767267E-02;  3.2949242E+04;  0.0000000E+00; -1.0698514E-01;  4.0000000E+04;  0.0000000E+00;  3.9944566E+04; -1.2684184E-01;  0.0000000E+00;  1.5260911E-01;  1.4097266E+03;
  6.8365526E-01;  9.9999998E-03;  1.2996252E-01;6637;  3.0653292E-01;  0.0000000E+00;  2.5346104E-02;  9.9622131E+02;  1.0972952E-01; -3.1305220E+03;3; -3.3929268E+01;  0.0000000E+00; -1.1877780E+00;0;  4.7951102E-02;  3.2971379E+04;  0.0000000E+00; -1.0546234E-01;  4.0000000E+04;  0.0000000E+00;  3.9943297E+04; -1.0009825E-01;  0.0000000E+00;  1.4804935E-01;  1.2268942E+03;
  6.8373704E-01;  9.9999998E-03;  1.3996543E-01;6638;  3.0512270E-01;  0.0000000E+00;  2.6465533E-02;  9.9661188E+02;  1.0974137E-01; -2.8069319E+03;3; -3.2773918E+01;  0.0000000E+00; -1.6187822E+00;0;  7.2076924E-02;  3.2991996E+04;  0.0000000E+00; -9.6032396E-02;  4.0000000E+04;  0.0000000E+00;  3.9942027E+04; -7.1619906E-02;  0.0000000E+00;  1.4369683E-01;  1.0413086E+03;
  6.8381661E-01;  9.9999998E-03;  1.4996707E-01;6639;  3.0333379E-01;  0.0000000E+00;  2.7537288E-02;  9.9695905E+02;  1.0975344E-01; -2.5193403E+03;3; -3.1669022E+01;  0.0000000E+00; -1.7362076E+00;0;  9.7847700E-02;  3.3010176E+04;  0.0000000E+00; -7.7910855E-02;  4.0000000E+04;  0.0000000E+00;  3.9940523E+04; -4.1511983E-02;  0.0000000E+00;  1.3935968E-01;  8.2967804E+02;
  6.8389344E-01;  9.9999998E-03;  1.5996738E-01;6640;  3.0116862E-01;  0.0000000E+00;  2.8595906E-02;  9.9725488E+02;  1.0976561E-01; -2.2742156E+03;3; -3.0720060E+01;  0.0000000E+00; -1.5963386E+00;0;  1.2485770E-01;  3.3025293E+04;  0.0000000E+00; -4.8764065E-02;  4.0000000E+04;  0.0000000E+00;  3.9938699E+04; -9.9628782E-03;  0.0000000E+00;  1.3482058E-01;  5.7671515E+02;
  6.8396729E-01;  9.9999998E-03;  1.6996737E-01;6641;  2.9862851E-01;  0.0000000E+00;  2.9669268E-02;  9.9748688E+02;  1.0977729E-01; -2.0820271E+03;3; -2.9744820E+01;  0.0000000E+00; -1.3548384E+00;0;  1.5264849E-01;  3.3036781E+04;  0.0000000E+00; -3.4298047E-03;  4.0000000E+04;  0.0000000E+00;  3.9936633E+04;  2.2763055E-02;  0.0000000E+00;  1.2988544E-01;  2.9151266E+02;
  6.8403733E-01;  9.9999998E-03;  1.7997013E-01;6642;  2.9576406E-01;  0.0000000E+00;  3.0711154E-02;  9.9765680E+02;  1.0978901E-01; -1.9412434E+03;3; -2.8695282E+01;  0.0000000E+00; -1.1297845E+00;0;  1.8076047E-01;  3.3044426E+04;  0.0000000E+00;  6.4125009E-02;  4.0000000E+04;  0.0000000E+00;  3.9934652E+04;  5.6367338E-02;  0.0000000E+00;  1.2439314E-01;  7.3903191E+01;
  6.8410182E-01;  9.9999998E-03;  1.8997848E-01;6643;  2.9258946E-01;  0.0000000E+00;  3.1680901E-02;  9.9777185E+02;  1.0980008E-01; -1.8459392E+03;3; -2.7731134E+01;  0.0000000E+00; -9.5185399E-01;0;  2.0864189E-01;  3.3048207E+04;  0.0000000E+00;  1.5675227E-01;  4.0000000E+04;  0.0000000E+00;  3.9933094E+04;  9.0428039E-02;  0.0000000E+00;  1.1821385E-01;  2.7005664E+02;
  6.8415946E-01;  9.9999998E-03;  1.9999516E-01;6644;  2.8915673E-01;  0.0000000E+00;  3.2510735E-02;  9.9783917E+02;  1.0981053E-01; -1.7901887E+03;3; -2.6735064E+01;  0.0000000E+00; -9.2056072E-01;0;  2.3562399E-01;  3.3048434E+04;  0.0000000E+00;  2.6876760E-01;  4.0000000E+04;  0.0000000E+00;  3.9932543E+04;  1.2441402E-01;  0.0000000E+00;  1.1120996E-01;  4.4967917E+02;
  6.8420911E-01;  9.9999998E-03;  2.1002296E-01;6645;  2.8546217E-01;  0.0000000E+00;  3.3111829E-02;  9.9785590E+02;  1.0982007E-01; -1.7763125E+03;3; -2.5906021E+01;  0.0000000E+00; -1.2962997E+00;0;  2.6074705E-01;  3.3045422E+04;  0.0000000E+00;  3.7816235E-01;  4.0000000E+04;  0.0000000E+00;  3.9932633E+04;  1.5762758E-01;  0.0000000E+00;  1.0311946E-01;  5.8271594E+02;
  6.8425208E-01;  9.9999998E-03;  2.2006157E-01;6646;  2.8152987E-01;  0.0000000E+00;  3.3420630E-02;  9.9781433E+02;  1.0982914E-01; -1.8107307E+03;3; -2.5115057E+01;  0.0000000E+00; -1.8554153E+00;0;  2.8268841E-01;  3.3039695E+04;  0.0000000E+00;  4.3585476E-01;  4.0000000E+04;  0.0000000E+00;  3.9932195E+04;  1.8931112E-01;  0.0000000E+00;  9.3377300E-02;  6.6426465E+02;
  6.8428659E-01;  9.9999998E-03;  2.3010142E-01;6647;  2.7735689E-01;  0.0000000E+00;  3.3464156E-02;  9.9771136E+02;  1.0983746E-01; -1.8960601E+03;3; -2.4442179E+01;  0.0000000E+00; -2.2927132E+00;0;  2.9967064E-01;  3.3031805E+04;  0.0000000E+00;  3.5050583E-01;  4.0000000E+04;  0.0000000E+00;  3.9929859E+04;  2.1859594E-01;  0.0000000E+00;  8.1074692E-02;  6.9167712E+02;
  6.9395685E-01;  9.9999998E-03;  6.9981813E-02;6692;  3.0482045E-01;  0.0000000E+00;  1.6637798E-02;  9.9429419E+02;  1.1181930E-01; -4.7270757E+03;3; -3.9989304E+01;  0.0000000E+00;  6.0380417E-01;0; -1.6964182E-02;  3.1628736E+04;  0.0000000E+00; -1.7051861E-02;  4.0000000E+04;  0.0000000E+00;  3.9937109E+04; -2.0826474E-01;  0.0000000E+00;  1.9130056E-01;  2.2295994E+03;
  6.9405168E-01;  9.9999998E-03;  7.9986610E-02;6693;  3.0542848E-01;  0.0000000E+00;  1.8601950E-02;  9.9468817E+02;  1.1183242E-01; -4.4006724E+03;3; -3.9108299E+01;  0.0000000E+00;  5.4096180E-01;0;  1.0519624E-03;  3.1647977E+04;  0.0000000E+00; -2.4888311E-02;  4.0000000E+04;  0.0000000E+00;  3.9935086E+04; -1.8759674E-01;  0.0000000E+00;  1.8864870E-01;  1.9457057E+03;
  6.9414711E-01;  9.9999998E-03;  8.9992166E-02;6694;  3.0587921E-01;  0.0000000E+00;  2.0432653E-02;  9.9512518E+02;  1.1184620E-01; -4.0386160E+03;3; -3.8132835E+01;  0.0000000E+00;  3.5426506E-01;0;  2.1840274E-02;  3.1669723E+04;  0.0000000E+00; -3.2075372E-02;  4.0000000E+04;  0.0000000E+00;  3.9932887E+04; -1.6408688E-01;  0.0000000E+00;  1.8592715E-01;  1.6453629E+03;
  6.9424039E-01;  9.9999998E-03;  9.9998675E-02;6695;  3.0609730E-01;  0.0000000E+00;  2.2140903E-02;  9.9559338E+02;  1.1186012E-01; -3.6507334E+03;3; -3.7081059E+01;  0.0000000E+00; -1.1974800E-01;0;  4.5564935E-02;  3.1693461E+04;  0.0000000E+00; -3.6706083E-02;  4.0000000E+04;  0.0000000E+00;  3.9930734E+04; -1.3762829E-01;  0.0000000E+00;  1.8319322E-01;  1.3437314E+03;
  6.9433039E-01;  9.9999998E-03;  1.1000627E-01;6696;  3.0601719E-01;  0.0000000E+00;  2.3757912E-02;  9.9608533E+02;  1.1187458E-01; -3.2431487E+03;3; -3.5962067E+01;  0.0000000E+00; -8.3162642E-01;0;  7.2386086E-02;  3.1718621E+04;  0.0000000E+00; -3.6829993E-02;  4.0000000E+04;  0.0000000E+00;  3.9928684E+04; -1.0808751E-01;  0.0000000E+00;  1.8047360E-01;  1.0542844E+03;
  6.9441551E-01;  9.9999998E-03;  1.2001406E-01;6697;  3.0558041E-01;  0.0000000E+00;  2.5324428E-02;  9.9657959E+02;  1.1188880E-01; -2.8336873E+03;3; -3.4811314E+01;  0.0000000E+00; -1.7004638E+00;0;  1.0240556E-01;  3.1744182E+04;  0.0000000E+00; -3.0719543E-02;  4.0000000E+04;  0.0000000E+00;  3.9926668E+04; -7.5341992E-02;  0.0000000E+00;  1.7774755E-01;  7.8454675E+02;
  6.9449592E-01;  9.9999998E-03;  1.3002110E-01;6698;  3.0473691E-01;  0.0000000E+00;  2.6822831E-02;  9.9706506E+02;  1.1190312E-01; -2.4314846E+03;3; -3.3728210E+01;  0.0000000E+00; -2.3411522E+00;0;  1.3562724E-01;  3.1769234E+04;  0.0000000E+00; -1.6975094E-02;  4.0000000E+04;  0.0000000E+00;  3.9924996E+04; -3.9301760E-02;  0.0000000E+00;  1.7492901E-01;  5.3235571E+02;
  6.9457185E-01;  9.9999998E-03;  1.4002641E-01;6699;  3.0347177E-01;  0.0000000E+00;  2.8215656E-02;  9.9752350E+02;  1.1191732E-01; -2.0517009E+03;3; -3.2696972E+01;  0.0000000E+00; -2.7244742E+00;0;  1.7189227E-01;  3.1792734E+04;  0.0000000E+00;  5.4428871E-03;  4.0000000E+04;  0.0000000E+00;  3.9923316E+04;  5.9147162E-05;  0.0000000E+00;  1.7183313E-01;  2.8515607E+02;
  6.9464511E-01;  9.9999998E-03;  1.5002951E-01;6700;  3.0176902E-01;  0.0000000E+00;  2.9567596E-02;  9.9793768E+02;  1.1193202E-01; -1.7085574E+03;3; -3.1805477E+01;  0.0000000E+00; -2.7429373E+00;0;  2.1084441E-01;  3.1813693E+04;  0.0000000E+00;  3.7272736E-02;  4.0000000E+04;  0.0000000E+00;  3.9921445E+04;  4.2667132E-02;  0.0000000E+00;  1.6817728E-01;  3.1592396E+01;
  6.9471735E-01;  9.9999998E-03;  1.6003062E-01;6701;  2.9961962E-01;  0.0000000E+00;  3.0967772E-02;  9.9829352E+02;  1.1194681E-01; -1.4137572E+03;3; -3.0871140E+01;  0.0000000E+00; -2.4269490E+00;0;  2.5199997E-01;  3.1831285E+04;  0.0000000E+00;  8.0287151E-02;  4.0000000E+04;  0.0000000E+00;  3.9919379E+04;  8.8329472E-02;  0.0000000E+00;  1.6367050E-01;  2.6911310E+02;
  6.9478959E-01;  9.9999998E-03;  1.7003188E-01;6702;  2.9708660E-01;  0.0000000E+00;  3.2409783E-02;  9.9858618E+02;  1.1196169E-01; -1.1712999E+03;3; -2.9842184E+01;  0.0000000E+00; -2.1567976E+00;0;  2.9487199E-01;  3.1844777E+04;  0.0000000E+00;  1.3787384E-01;  4.0000000E+04;  0.0000000E+00;  3.9917203E+04;  1.3678372E-01;  0.0000000E+00;  1.5808828E-01;  5.7900000E+02;
  6.9486171E-01;  9.9999998E-03;  1.8003683E-01;6703;  2.9419139E-01;  0.0000000E+00;  3.3827350E-02;  9.9881421E+02;  1.1197696E-01; -9.8237109E+02;3; -2.8839212E+01;  0.0000000E+00; -1.9173887E+00;0;  3.3888119E-01;  3.1854166E+04;  0.0000000E+00;  2.1299222E-01;  4.0000000E+04;  0.0000000E+00;  3.9915047E+04;  1.8759206E-01;  0.0000000E+00;  1.5128912E-01;  8.7720874E+02;
  6.9493425E-01;  9.9999998E-03;  1.9004895E-01;6704;  2.9101068E-01;  0.0000000E+00;  3.5140887E-02;  9.9898328E+02;  1.1199248E-01; -8.4232861E+02;3; -2.7783161E+01;  0.0000000E+00; -1.7635226E+00;0;  3.8336533E-01;  3.1859283E+04;  0.0000000E+00;  3.0516091E-01;  4.0000000E+04;  0.0000000E+00;  3.9913543E+04;  2.4015862E-01;  0.0000000E+00;  1.4320670E-01;  1.1212563E+03;
  6.9500905E-01;  9.9999998E-03;  2.0007232E-01;6705;  2.8756076E-01;  0.0000000E+00;  3.6310062E-02;  9.9910040E+02;  1.1200856E-01; -7.4529639E+02;3; -2.6752478E+01;  0.0000000E+00; -1.6924154E+00;0;  4.2745769E-01;  3.1860289E+04;  0.0000000E+00;  4.0644750E-01;  4.0000000E+04;  0.0000000E+00;  3.9912523E+04;  2.9364818E-01;  0.0000000E+00;  1.3380952E-01;  1.3010789E+03;
  6.9509101E-01;  9.9999998E-03;  2.1010953E-01;6706;  2.8386003E-01;  0.0000000E+00;  3.7307095E-02;  9.9915454E+02;  1.1202544E-01; -7.0040967E+02;3; -2.5780043E+01;  0.0000000E+00; -1.8668964E+00;0;  4.7013870E-01;  3.1857102E+04;  0.0000000E+00;  4.9548942E-01;  4.0000000E+04;  0.0000000E+00;  3.9911188E+04;  3.4708211E-01;  0.0000000E+00;  1.2305659E-01;  1.4943344E+03;
  6.9518512E-01;  9.9999998E-03;  2.2015606E-01;6707;  2.7990875E-01;  0.0000000E+00;  3.7978448E-02;  9.9913898E+02;  1.1204465E-01; -7.1334729E+02;3; -2.4922762E+01;  0.0000000E+00; -2.3502965E+00;0;  5.0993240E-01;  3.1850098E+04;  0.0000000E+00;  5.2991301E-01;  4.0000000E+04;  0.0000000E+00;  3.9907930E+04;  3.9935234E-01;  0.0000000E+00;  1.1058007E-01;  1.8622223E+03;
  6.9529200E-01;  9.9999998E-03;  2.3019283E-01;6708;  2.7570868E-01;  0.0000000E+00;  3.8292892E-02;  9.9906464E+02;  1.1206595E-01; -7.7492450E+02;3; -2.4070396E+01;  0.0000000E+00; -2.9339943E+00;0;  5.4484785E-01;  3.1839611E+04;  0.0000000E+00;  4.3806705E-01;  4.0000000E+04;  0.0000000E+00;  3.9903426E+04;  4.4922161E-01;  0.0000000E+00;  9.5626257E-02;  2.3191863E+03;
  7.0649225E-01;  9.9999998E-03;  7.0115291E-02;6753;  3.0135968E-01;  0.0000000E+00;  1.6431304E-02;  9.9582983E+02;  1.1427619E-01; -3.4548271E+03;3; -3.9813747E+01;  0.0000000E+00;  3.2020953E-01;0;  5.8400124E-02;  3.0399627E+04;  0.0000000E+00;  4.4323850E-02;  4.0000000E+04;  0.0000000E+00;  3.9918754E+04; -1.4639492E-01;  0.0000000E+00;  2.0479505E-01;  1.6418029E+03;
  7.0655280E-01;  9.9999998E-03;  8.0130048E-02;6754;  3.0227691E-01;  0.0000000E+00;  1.8507617E-02;  9.9625104E+02;  1.1428626E-01; -3.1058582E+03;3; -3.8893070E+01;  0.0000000E+00;  1.7768921E-01;0;  8.4462680E-02;  3.0421602E+04;  0.0000000E+00;  5.0780732E-02;  4.0000000E+04;  0.0000000E+00;  3.9916332E+04; -1.2164233E-01;  0.0000000E+00;  2.0610501E-01;  1.3090625E+03;
  7.0660692E-01;  9.9999998E-03;  9.0145625E-02;6755;  3.0303022E-01;  0.0000000E+00;  2.0489132E-02;  9.9671234E+02;  1.1429593E-01; -2.7237058E+03;3; -3.7848198E+01;  0.0000000E+00; -2.2969836E-01;0;  1.1449385E-01;  3.0446520E+04;  0.0000000E+00;  5.7063170E-02;  4.0000000E+04;  0.0000000E+00;  3.9913672E+04; -9.2696309E-02;  0.0000000E+00;  2.0719016E-01;  9.4383130E+02;
  7.0665288E-01;  9.9999998E-03;  1.0016201E-01;6756;  3.0355927E-01;  0.0000000E+00;  2.2476334E-02;  9.9720612E+02;  1.1430525E-01; -2.3146414E+03;3; -3.6712341E+01;  0.0000000E+00; -9.7254461E-01;0;  1.4875384E-01;  3.0473947E+04;  0.0000000E+00;  6.4297147E-02;  4.0000000E+04;  0.0000000E+00;  3.9910887E+04; -5.9215292E-02;  0.0000000E+00;  2.0796913E-01;  5.6575073E+02;
  7.0669162E-01;  9.9999998E-03;  1.1017809E-01;6757;  3.0375588E-01;  0.0000000E+00;  2.4453569E-02;  9.9772540E+02;  1.1431501E-01; -1.8843926E+03;3; -3.5552097E+01;  0.0000000E+00; -1.9131286E+00;0;  1.8748726E-01;  3.0502939E+04;  0.0000000E+00;  7.3969826E-02;  4.0000000E+04;  0.0000000E+00;  3.9908129E+04; -2.0871753E-02;  0.0000000E+00;  2.0835902E-01;  2.0632864E+02;
  7.0672435E-01;  9.9999998E-03;  1.2019245E-01;6758;  3.0357167E-01;  0.0000000E+00;  2.6431525E-02;  9.9825214E+02;  1.1432445E-01; -1.4480210E+03;3; -3.4384678E+01;  0.0000000E+00; -2.8469081E+00;0;  2.3089027E-01;  3.0532527E+04;  0.0000000E+00;  8.7835312E-02;  4.0000000E+04;  0.0000000E+00;  3.9905637E+04;  2.2642436E-02;  0.0000000E+00;  2.0824784E-01;  2.1667876E+02;
  7.0675468E-01;  9.9999998E-03;  1.3020374E-01;6759;  3.0294764E-01;  0.0000000E+00;  2.8306805E-02;  9.9876990E+02;  1.1433454E-01; -1.0191058E+03;3; -3.3424408E+01;  0.0000000E+00; -3.5513766E+00;0;  2.7903998E-01;  3.0561572E+04;  0.0000000E+00;  1.0787194E-01;  4.0000000E+04;  0.0000000E+00;  3.9903164E+04;  7.1569599E-02;  0.0000000E+00;  2.0747039E-01;  5.4134729E+02;
  7.0678693E-01;  9.9999998E-03;  1.4021102E-01;6760;  3.0182824E-01;  0.0000000E+00;  3.0076392E-02;  9.9926532E+02;  1.1434574E-01; -6.0865869E+02;3; -3.2714314E+01;  0.0000000E+00; -3.8114183E+00;0;  3.3180076E-01;  3.0588768E+04;  0.0000000E+00;  1.3604277E-01;  4.0000000E+04;  0.0000000E+00;  3.9900891E+04;  1.2603882E-01;  0.0000000E+00;  2.0576195E-01;  8.6474335E+02;
  7.0682520E-01;  9.9999998E-03;  1.5021412E-01;6761;  3.0017129E-01;  0.0000000E+00;  3.1866871E-02;  9.9972314E+02;  1.1435840E-01; -2.2937039E+02;3; -3.1918341E+01;  0.0000000E+00; -3.5608134E+00;0;  3.8879240E-01;  3.0613059E+04;  0.0000000E+00;  1.7392577E-01;  4.0000000E+04;  0.0000000E+00;  3.9898637E+04;  1.8603805E-01;  0.0000000E+00;  2.0275433E-01;  1.1885999E+03;
  7.0687437E-01;  9.9999998E-03;  1.6021408E-01;6762;  2.9804292E-01;  0.0000000E+00;  3.3727556E-02;  1.0001255E+03;  1.1437303E-01;  1.0399442E+02;3; -3.0943697E+01;  0.0000000E+00; -3.2586331E+00;0;  4.4957757E-01;  3.0633412E+04;  0.0000000E+00;  2.2313710E-01;  4.0000000E+04;  0.0000000E+00;  3.9896188E+04;  2.5148001E-01;  0.0000000E+00;  1.9809757E-01;  1.5272449E+03;
  7.0693517E-01;  9.9999998E-03;  1.7021450E-01;6763;  2.9550865E-01;  0.0000000E+00;  3.5623144E-02;  1.0004709E+03;  1.1438987E-01;  3.9020126E+02;3; -2.9899080E+01;  0.0000000E+00; -2.9122536E+00;0;  5.1360559E-01;  3.0649314E+04;  0.0000000E+00;  2.8505674E-01;  4.0000000E+04;  0.0000000E+00;  3.9893559E+04;  3.2205945E-01;  0.0000000E+00;  1.9154611E-01;  1.8889847E+03;
  7.0700848E-01;  9.9999998E-03;  1.8021974E-01;6764;  2.9264379E-01;  0.0000000E+00;  3.7494890E-02;  1.0007512E+03;  1.1440820E-01;  6.2228754E+02;3; -2.8824699E+01;  0.0000000E+00; -2.6890683E+00;0;  5.8021271E-01;  3.0660605E+04;  0.0000000E+00;  3.5984755E-01;  4.0000000E+04;  0.0000000E+00;  3.9890730E+04;  3.9721555E-01;  0.0000000E+00;  1.8299718E-01;  2.2714495E+03;
  7.0709670E-01;  9.9999998E-03;  1.9023412E-01;6765;  2.8947341E-01;  0.0000000E+00;  3.9259382E-02;  1.0009755E+03;  1.1442921E-01;  8.0815405E+02;3; -2.7796175E+01;  0.0000000E+00; -2.5311587E+00;0;  6.4852577E-01;  3.0667283E+04;  0.0000000E+00;  4.4582334E-01;  4.0000000E+04;  0.0000000E+00;  3.9887656E+04;  4.7605288E-01;  0.0000000E+00;  1.7247288E-01;  2.6796833E+03;
  7.0719773E-01;  9.9999998E-03;  2.0026121E-01;6766;  2.8602165E-01;  0.0000000E+00;  4.0864263E-02;  1.0011401E+03;  1.1445204E-01;  9.4454175E+02;3; -2.6729151E+01;  0.0000000E+00; -2.4977319E+00;0;  7.1727365E-01;  3.0669760E+04;  0.0000000E+00;  5.3786039E-01;  4.0000000E+04;  0.0000000E+00;  3.9883949E+04;  5.5721194E-01;  0.0000000E+00;  1.6006172E-01;  3.1740508E+03;
  7.0732617E-01;  9.9999998E-03;  2.1029784E-01;6767;  2.8231785E-01;  0.0000000E+00;  4.2213671E-02;  1.0012350E+03;  1.1447926E-01;  1.0231548E+03;3; -2.5677164E+01;  0.0000000E+00; -2.6646397E+00;0;  7.8529060E-01;  3.0667465E+04;  0.0000000E+00;  6.2512219E-01;  4.0000000E+04;  0.0000000E+00;  3.9878223E+04;  6.3943326E-01;  0.0000000E+00;  1.4585730E-01;  3.8955483E+03;
  7.0748687E-01;  9.9999998E-03;  2.2032805E-01;6768;  2.7835917E-01;  0.0000000E+00;  4.3187823E-02;  1.0012689E+03;  1.1451159E-01;  1.0512025E+03;3; -2.4696905E+01;  0.0000000E+00; -3.0282614E+00;0;  8.5075843E-01;  3.0660662E+04;  0.0000000E+00;  6.8843424E-01;  4.0000000E+04;  0.0000000E+00;  3.9870367E+04;  7.2107399E-01;  0.0000000E+00;  1.2968443E-01;  4.8600054E+03;
  7.0765781E-01;  9.9999998E-03;  2.3033302E-01;6769;  2.7411711E-01;  0.0000000E+00;  4.3838572E-02;  1.0012982E+03;  1.1454527E-01;  1.0754974E+03;3; -2.3775093E+01;  0.0000000E+00; -3.7260110E+00;0;  9.1103238E-01;  3.0651096E+04;  0.0000000E+00;  6.9408977E-01;  4.0000000E+04;  0.0000000E+00;  3.9864586E+04;  7.9973197E-01;  0.0000000E+00;  1.1130043E-01;  5.5433936E+03;
  7.1981317E-01;  9.9999998E-03;  7.0204005E-02;6814;  2.9805887E-01;  0.0000000E+00;  1.5677627E-02;  9.9873730E+02;  1.1675600E-01; -1.0461110E+03;3; -3.9550472E+01;  0.0000000E+00; -8.4535249E-02;0;  1.9852899E-01;  2.9321105E+04;  0.0000000E+00;  1.2329704E-01;  4.0000000E+04;  0.0000000E+00;  3.9898617E+04; -1.9719411E-02;  0.0000000E+00;  2.1824840E-01;  7.2675732E+02;
  7.1980447E-01;  9.9999998E-03;  8.0228165E-02;6815;  2.9929301E-01;  0.0000000E+00;  1.7854359E-02;  9.9908795E+02;  1.1675805E-01; -7.5560962E+02;3; -3.8549686E+01;  0.0000000E+00; -3.9554667E-01;0;  2.3371133E-01;  2.9342246E+04;  0.0000000E+00;  1.4601094E-01;  4.0000000E+04;  0.0000000E+00;  3.9896020E+04;  9.3757501E-03;  0.0000000E+00;  2.2433558E-01;  4.3120587E+02;
  7.1978825E-01;  9.9999998E-03;  9.0251923E-02;6816;  3.0036220E-01;  0.0000000E+00;  2.0066176E-02;  9.9947858E+02;  1.1676019E-01; -4.3197446E+02;3; -3.7366505E+01;  0.0000000E+00; -1.0888721E+00;0;  2.7427694E-01;  2.9366289E+04;  0.0000000E+00;  1.6575700E-01;  4.0000000E+04;  0.0000000E+00;  3.9892973E+04;  4.4370193E-02;  0.0000000E+00;  2.2990674E-01;  3.1628946E+02;
  7.1976501E-01;  9.9999998E-03;  1.0027499E-01;6817;  3.0118403E-01;  0.0000000E+00;  2.2421673E-02;  9.9990430E+02;  1.1676251E-01; -7.9303955E+01;3; -3.6139935E+01;  0.0000000E+00; -2.1539328E+00;0;  3.2061246E-01;  2.9392787E+04;  0.0000000E+00;  1.8229659E-01;  4.0000000E+04;  0.0000000E+00;  3.9889707E+04;  8.5893065E-02;  0.0000000E+00;  2.3471940E-01;  6.2138049E+02;
  7.1973622E-01;  9.9999998E-03;  1.1029651E-01;6818;  3.0166283E-01;  0.0000000E+00;  2.4945950E-02;  1.0003569E+03;  1.1676482E-01;  2.9568622E+02;3; -3.5010715E+01;  0.0000000E+00; -3.1957421E+00;0;  3.7310791E-01;  2.9420926E+04;  0.0000000E+00;  1.9642389E-01;  4.0000000E+04;  0.0000000E+00;  3.9886242E+04;  1.3454054E-01;  0.0000000E+00;  2.3856735E-01;  1.0471545E+03;
  7.1970373E-01;  9.9999998E-03;  1.2031583E-01;6819;  3.0173728E-01;  0.0000000E+00;  2.7388839E-02;  1.0008279E+03;  1.1676820E-01;  6.8588538E+02;3; -3.4054600E+01;  0.0000000E+00; -4.1414232E+00;0;  4.3208593E-01;  2.9450053E+04;  0.0000000E+00;  2.1015821E-01;  4.0000000E+04;  0.0000000E+00;  3.9882891E+04;  1.9083238E-01;  0.0000000E+00;  2.4125354E-01;  1.4866584E+03;
  7.1967220E-01;  9.9999998E-03;  1.3033180E-01;6820;  3.0132583E-01;  0.0000000E+00;  2.9723205E-02;  1.0013043E+03;  1.1677202E-01;  1.0805288E+03;3; -3.3390598E+01;  0.0000000E+00; -4.6260085E+00;0;  4.9771613E-01;  2.9479109E+04;  0.0000000E+00;  2.2668058E-01;  4.0000000E+04;  0.0000000E+00;  3.9879797E+04;  2.5518447E-01;  0.0000000E+00;  2.4253164E-01;  1.9124611E+03;
  7.1964812E-01;  9.9999998E-03;  1.4034373E-01;6821;  3.0031267E-01;  0.0000000E+00;  3.1996138E-02;  1.0017726E+03;  1.1677788E-01;  1.4685553E+03;3; -3.2767750E+01;  0.0000000E+00; -4.5087142E+00;0;  5.6993228E-01;  2.9506975E+04;  0.0000000E+00;  2.4968532E-01;  4.0000000E+04;  0.0000000E+00;  3.9876844E+04;  3.2786277E-01;  0.0000000E+00;  2.4206953E-01;  2.3161160E+03;
  7.1963841E-01;  9.9999998E-03;  1.5035142E-01;6822;  2.9874021E-01;  0.0000000E+00;  3.4267887E-02;  1.0022196E+03;  1.1678609E-01;  1.8388049E+03;3; -3.1875353E+01;  0.0000000E+00; -4.2279687E+00;0;  6.4845353E-01;  2.9532373E+04;  0.0000000E+00;  2.8235182E-01;  4.0000000E+04;  0.0000000E+00;  3.9874047E+04;  4.0901250E-01;  0.0000000E+00;  2.3944105E-01;  2.6997649E+03;
  7.1964782E-01;  9.9999998E-03;  1.6035706E-01;6823;  2.9668742E-01;  0.0000000E+00;  3.6606178E-02;  1.0026314E+03;  1.1679715E-01;  2.1800193E+03;3; -3.0955664E+01;  0.0000000E+00; -3.8561599E+00;0;  7.3282152E-01;  2.9554463E+04;  0.0000000E+00;  3.2649043E-01;  4.0000000E+04;  0.0000000E+00;  3.9871324E+04;  4.9856621E-01;  0.0000000E+00;  2.3425530E-01;  3.0758062E+03;
  7.1967828E-01;  9.9999998E-03;  1.7036510E-01;6824;  2.9423809E-01;  0.0000000E+00;  3.9031584E-02;  1.0030010E+03;  1.1681117E-01;  2.4861741E+03;3; -2.9825586E+01;  0.0000000E+00; -3.4775612E+00;0;  8.2241279E-01;  2.9572680E+04;  0.0000000E+00;  3.8162577E-01;  4.0000000E+04;  0.0000000E+00;  3.9868508E+04;  5.9613198E-01;  0.0000000E+00;  2.2628079E-01;  3.4648047E+03;
  7.1973211E-01;  9.9999998E-03;  1.8037826E-01;6825;  2.9144171E-01;  0.0000000E+00;  4.1482765E-02;  1.0033228E+03;  1.1682855E-01;  2.7527261E+03;3; -2.8703018E+01;  0.0000000E+00; -3.1518958E+00;0;  9.1636491E-01;  2.9586875E+04;  0.0000000E+00;  4.4529456E-01;  4.0000000E+04;  0.0000000E+00;  3.9865336E+04;  7.0086789E-01;  0.0000000E+00;  2.1549703E-01;  3.8953281E+03;
  7.1981061E-01;  9.9999998E-03;  1.9039862E-01;6826;  2.8835005E-01;  0.0000000E+00;  4.3889914E-02;  1.0035957E+03;  1.1684910E-01;  2.9788855E+03;3; -2.7538042E+01;  0.0000000E+00; -2.9084969E+00;0;  1.0134635E+00;  2.9596869E+04;  0.0000000E+00;  5.1392519E-01;  4.0000000E+04;  0.0000000E+00;  3.9861340E+04;  8.1138533E-01;  0.0000000E+00;  2.0207821E-01;  4.4180845E+03;
  7.1991318E-01;  9.9999998E-03;  2.0042440E-01;6827;  2.8499827E-01;  0.0000000E+00;  4.6160802E-02;  1.0038146E+03;  1.1687315E-01;  3.1602080E+03;3; -2.6373552E+01;  0.0000000E+00; -2.8454947E+00;0;  1.1120613E+00;  2.9603172E+04;  0.0000000E+00;  5.8278185E-01;  4.0000000E+04;  0.0000000E+00;  3.9855855E+04;  9.2569900E-01;  0.0000000E+00;  1.8636230E-01;  5.1213433E+03;
  7.2003037E-01;  9.9999998E-03;  2.1044783E-01;6828;  2.8138369E-01;  0.0000000E+00;  4.8166882E-02;  1.0039702E+03;  1.1689937E-01;  3.2890891E+03;3; -2.5289762E+01;  0.0000000E+00; -3.0500176E+00;0;  1.2098782E+00;  2.9606453E+04;  0.0000000E+00;  6.4445311E-01;  4.0000000E+04;  0.0000000E+00;  3.9848145E+04;  1.0411090E+00;  0.0000000E+00;  1.6876926E-01;  6.0836880E+03;
  7.2015482E-01;  9.9999998E-03;  2.2045133E-01;6829;  2.7747801E-01;  0.0000000E+00;  4.9858764E-02;  1.0040903E+03;  1.1692580E-01;  3.3886384E+03;3; -2.4284239E+01;  0.0000000E+00; -3.7070026E+00;0;  1.3045857E+00;  2.9607625E+04;  0.0000000E+00;  6.8647265E-01;  4.0000000E+04;  0.0000000E+00;  3.9840164E+04;  1.1547192E+00;  0.0000000E+00;  1.4986646E-01;  7.0852085E+03;
  7.2028863E-01;  9.9999998E-03;  2.3043749E-01;6830;  2.7322203E-01;  0.0000000E+00;  5.1429067E-02;  1.0042160E+03;  1.1695319E-01;  3.4927310E+03;3; -2.3399021E+01;  0.0000000E+00; -4.8851390E+00;0;  1.3953307E+00;  2.9606486E+04;  0.0000000E+00;  6.8733150E-01;  4.0000000E+04;  0.0000000E+00;  3.9834926E+04;  1.2643694E+00;  0.0000000E+00;  1.3096127E-01;  7.7274883E+03;
  7.3205227E-01;  9.9999998E-03;  7.0172958E-02;6875;  2.9531956E-01;  0.0000000E+00;  1.4401819E-02;  1.0014173E+03;  1.1876564E-01;  1.1741454E+03;3; -3.9203762E+01;  0.0000000E+00; -6.5413326E-01;0;  4.0840334E-01;  2.8517205E+04;  0.0000000E+00;  1.6991509E-01;  4.0000000E+04;  0.0000000E+00;  3.9879141E+04;  1.7918359E-01;  0.0000000E+00;  2.2921975E-01;  6.2973358E+02;
  7.3203111E-01;  9.9999998E-03;  8.0196254E-02;6876;  2.9679260E-01;  0.0000000E+00;  1.6664803E-02;  1.0016390E+03;  1.1876963E-01;  1.3578372E+03;3; -3.8084927E+01;  0.0000000E+00; -1.2829696E+00;0;  4.5245618E-01;  2.8529840E+04;  0.0000000E+00;  2.0325077E-01;  4.0000000E+04;  0.0000000E+00;  3.9876707E+04;  2.1241279E-01;  0.0000000E+00;  2.4004337E-01;  9.4587366E+02;
  7.3200417E-01;  9.9999998E-03;  9.0221189E-02;6877;  2.9812381E-01;  0.0000000E+00;  1.9290071E-02;  1.0018984E+03;  1.1877359E-01;  1.5727367E+03;3; -3.6793072E+01;  0.0000000E+00; -2.3899841E+00;0;  5.0332135E-01;  2.8545094E+04;  0.0000000E+00;  2.3138250E-01;  4.0000000E+04;  0.0000000E+00;  3.9873629E+04;  2.5331920E-01;  0.0000000E+00;  2.5000215E-01;  1.3417301E+03;
  7.3197365E-01;  9.9999998E-03;  1.0024747E-01;6878;  2.9917565E-01;  0.0000000E+00;  2.2223201E-02;  1.0021978E+03;  1.1877830E-01;  1.8208192E+03;3; -3.5570026E+01;  0.0000000E+00; -3.3633378E+00;0;  5.6156975E-01;  2.8562787E+04;  0.0000000E+00;  2.5253844E-01;  4.0000000E+04;  0.0000000E+00;  3.9869961E+04;  3.0287933E-01;  0.0000000E+00;  2.5869042E-01;  1.8008466E+03;
  7.3193979E-01;  9.9999998E-03;  1.1027464E-01;6879;  2.9991600E-01;  0.0000000E+00;  2.5184093E-02;  1.0025323E+03;  1.1878340E-01;  2.0979373E+03;3; -3.4439564E+01;  0.0000000E+00; -4.3027697E+00;0;  6.2774622E-01;  2.8582641E+04;  0.0000000E+00;  2.6654091E-01;  4.0000000E+04;  0.0000000E+00;  3.9866090E+04;  3.6196050E-01;  0.0000000E+00;  2.6578572E-01;  2.2987761E+03;
  7.3190540E-01;  9.9999998E-03;  1.2030232E-01;6880;  3.0025601E-01;  0.0000000E+00;  2.8108876E-02;  1.0028969E+03;  1.1878883E-01;  2.3999421E+03;3; -3.3720947E+01;  0.0000000E+00; -4.9645734E+00;0;  7.0236325E-01;  2.8604221E+04;  0.0000000E+00;  2.7536348E-01;  4.0000000E+04;  0.0000000E+00;  3.9862164E+04;  4.3136102E-01;  0.0000000E+00;  2.7100220E-01;  2.8090369E+03;
  7.3187703E-01;  9.9999998E-03;  1.3032967E-01;6881;  3.0002597E-01;  0.0000000E+00;  3.0935466E-02;  1.0032867E+03;  1.1879592E-01;  2.7228840E+03;3; -3.3355923E+01;  0.0000000E+00; -5.2858820E+00;0;  7.8580201E-01;  2.8626570E+04;  0.0000000E+00;  2.8305092E-01;  4.0000000E+04;  0.0000000E+00;  3.9858367E+04;  5.1177061E-01;  0.0000000E+00;  2.7403143E-01;  3.3082290E+03;
  7.3186243E-01;  9.9999998E-03;  1.4035553E-01;6882;  2.9916665E-01;  0.0000000E+00;  3.3633791E-02;  1.0036922E+03;  1.1880499E-01;  3.0587634E+03;3; -3.2647499E+01;  0.0000000E+00; -5.2099328E+00;0;  8.7820101E-01;  2.8648820E+04;  0.0000000E+00;  2.9472575E-01;  4.0000000E+04;  0.0000000E+00;  3.9854734E+04;  6.0370851E-01;  0.0000000E+00;  2.7449247E-01;  3.7796157E+03;
  7.3187083E-01;  9.9999998E-03;  1.5038002E-01;6883;  2.9778755E-01;  0.0000000E+00;  3.6312975E-02;  1.0041004E+03;  1.1881661E-01;  3.3970129E+03;3; -3.1659576E+01;  0.0000000E+00; -4.8603196E+00;0;  9.7946000E-01;  2.8669781E+04;  0.0000000E+00;  3.1498691E-01;  4.0000000E+04;  0.0000000E+00;  3.9851484E+04;  7.0753813E-01;  0.0000000E+00;  2.7192187E-01;  4.2142065E+03;
  7.3191053E-01;  9.9999998E-03;  1.6040370E-01;6884;  2.9594907E-01;  0.0000000E+00;  3.9091878E-02;  1.0045037E+03;  1.1883247E-01;  3.7310159E+03;3; -3.0588745E+01;  0.0000000E+00; -4.3534775E+00;0;  1.0892618E+00;  2.8688316E+04;  0.0000000E+00;  3.4582722E-01;  4.0000000E+04;  0.0000000E+00;  3.9848551E+04;  8.2333606E-01;  0.0000000E+00;  2.6592568E-01;  4.6150991E+03;
  7.3198718E-01;  9.9999998E-03;  1.7042847E-01;6885;  2.9369512E-01;  0.0000000E+00;  4.2048212E-02;  1.0048904E+03;  1.1885265E-01;  4.0513894E+03;3; -2.9456831E+01;  0.0000000E+00; -3.7722075E+00;0;  1.2070222E+00;  2.8703848E+04;  0.0000000E+00;  3.8526687E-01;  4.0000000E+04;  0.0000000E+00;  3.9845602E+04;  9.5069706E-01;  0.0000000E+00;  2.5632510E-01;  5.0025776E+03;
  7.3210019E-01;  9.9999998E-03;  1.8045339E-01;6886;  2.9108018E-01;  0.0000000E+00;  4.5181241E-02;  1.0052513E+03;  1.1887680E-01;  4.3504316E+03;3; -2.8294464E+01;  0.0000000E+00; -3.1576371E+00;0;  1.3315635E+00;  2.8716070E+04;  0.0000000E+00;  4.2829466E-01;  4.0000000E+04;  0.0000000E+00;  3.9842578E+04;  1.0883589E+00;  0.0000000E+00;  2.4320453E-01;  5.4158613E+03;
  7.3223525E-01;  9.9999998E-03;  1.9047832E-01;6887;  2.8815264E-01;  0.0000000E+00;  4.8474513E-02;  1.0055784E+03;  1.1890308E-01;  4.6214258E+03;3; -2.7093699E+01;  0.0000000E+00; -2.6340082E+00;0;  1.4607490E+00;  2.8725578E+04;  0.0000000E+00;  4.6845001E-01;  4.0000000E+04;  0.0000000E+00;  3.9838648E+04;  1.2338170E+00;  0.0000000E+00;  2.2693202E-01;  5.9137378E+03;
  7.3237079E-01;  9.9999998E-03;  2.0050298E-01;6888;  2.8498745E-01;  0.0000000E+00;  5.1821329E-02;  1.0058578E+03;  1.1892910E-01;  4.8529165E+03;3; -2.5710350E+01;  0.0000000E+00; -2.3220003E+00;0;  1.5917760E+00;  2.8733613E+04;  0.0000000E+00;  4.9832818E-01;  4.0000000E+04;  0.0000000E+00;  3.9833438E+04;  1.3835355E+00;  0.0000000E+00;  2.0824046E-01;  6.5787412E+03;
  7.3247313E-01;  9.9999998E-03;  2.1051443E-01;6889;  2.8162128E-01;  0.0000000E+00;  5.5084445E-02;  1.0060842E+03;  1.1895051E-01;  5.0404595E+03;3; -2.4401653E+01;  0.0000000E+00; -2.5695860E+00;0;  1.7210643E+00;  2.8741727E+04;  0.0000000E+00;  5.0836897E-01;  4.0000000E+04;  0.0000000E+00;  3.9827090E+04;  1.5327088E+00;  0.0000000E+00;  1.8835557E-01;  7.3837671E+03;
  7.3254246E-01;  9.9999998E-03;  2.2051138E-01;6890;  2.7797064E-01;  0.0000000E+00;  5.8249407E-02;  1.0062724E+03;  1.1896645E-01;  5.1963999E+03;3; -2.3384687E+01;  0.0000000E+00; -4.1139932E+00;0;  1.8472722E+00;  2.8749842E+04;  0.0000000E+00;  4.8504809E-01;  4.0000000E+04;  0.0000000E+00;  3.9820855E+04;  1.6779081E+00;  0.0000000E+00;  1.6936415E-01;  8.1706108E+03;
  7.3258340E-01;  9.9999998E-03;  2.3049995E-01;6891;  2.7398312E-01;  0.0000000E+00;  6.1191112E-02;  1.0064452E+03;  1.1897864E-01;  5.3395015E+03;3; -2.2571596E+01;  0.0000000E+00; -9.0740147E+00;0;  1.9706920E+00;  2.8757365E+04;  0.0000000E+00;  4.0861052E-01;  4.0000000E+04;  0.0000000E+00;  3.9816547E+04;  1.8163815E+00;  0.0000000E+00;  1.5431058E-01;  8.7134492E+03;
  7.4413043E-01;  9.9999998E-03;  7.0112154E-02;6936;  2.9289427E-01;  0.0000000E+00;  1.2507029E-02;  1.0032314E+03;  1.2031198E-01;  2.6770398E+03;3; -3.8687035E+01;  0.0000000E+00; -1.4125009E+00;0;  7.1943498E-01;  2.7915264E+04;  0.0000000E+00;  1.6122144E-01;  4.0000000E+04;  0.0000000E+00;  3.9859672E+04;  4.8128787E-01;  0.0000000E+00;  2.3814714E-01;  2.0510454E+03;
  7.4407953E-01;  9.9999998E-03;  8.0130525E-02;6937;  2.9459479E-01;  0.0000000E+00;  1.5118700E-02;  1.0032649E+03;  1.2031594E-01;  2.7047910E+03;3; -3.7415512E+01;  0.0000000E+00; -2.4047930E+00;0;  7.7053243E-01;  2.7916994E+04;  0.0000000E+00;  1.9633254E-01;  4.0000000E+04;  0.0000000E+00;  3.9857871E+04;  5.1697433E-01;  0.0000000E+00;  2.5355810E-01;  2.2934019E+03;
  7.4402946E-01;  9.9999998E-03;  9.0152800E-02;6938;  2.9608822E-01;  0.0000000E+00;  1.8079055E-02;  1.0033337E+03;  1.2032098E-01;  2.7617744E+03;3; -3.6113125E+01;  0.0000000E+00; -3.2405245E+00;0;  8.2979882E-01;  2.7921012E+04;  0.0000000E+00;  2.2612560E-01;  4.0000000E+04;  0.0000000E+00;  3.9855125E+04;  5.6216043E-01;  0.0000000E+00;  2.6763836E-01;  2.6379932E+03;
  7.4398309E-01;  9.9999998E-03;  1.0018072E-01;6939;  2.9741222E-01;  0.0000000E+00;  2.1327455E-02;  1.0034457E+03;  1.2032697E-01;  2.8545088E+03;3; -3.4999096E+01;  0.0000000E+00; -4.0425839E+00;0;  8.9797854E-01;  2.7927494E+04;  0.0000000E+00;  2.4752651E-01;  4.0000000E+04;  0.0000000E+00;  3.9851621E+04;  6.1815631E-01;  0.0000000E+00;  2.7982220E-01;  3.0718611E+03;
  7.4394572E-01;  9.9999998E-03;  1.1021411E-01;6940;  2.9847327E-01;  0.0000000E+00;  2.4660263E-02;  1.0036095E+03;  1.2033469E-01;  2.9903013E+03;3; -3.4074898E+01;  0.0000000E+00; -4.9271398E+00;0;  9.7595608E-01;  2.7936523E+04;  0.0000000E+00;  2.5914496E-01;  4.0000000E+04;  0.0000000E+00;  3.9847648E+04;  6.8626994E-01;  0.0000000E+00;  2.8968617E-01;  3.5721316E+03;
  7.4392396E-01;  9.9999998E-03;  1.2025253E-01;6941;  2.9905251E-01;  0.0000000E+00;  2.8002355E-02;  1.0038189E+03;  1.2034384E-01;  3.1637207E+03;3; -3.3648815E+01;  0.0000000E+00; -5.5845284E+00;0;  1.0645998E+00;  2.7947688E+04;  0.0000000E+00;  2.6219642E-01;  4.0000000E+04;  0.0000000E+00;  3.9843465E+04;  7.6771647E-01;  0.0000000E+00;  2.9688331E-01;  4.1090596E+03;
  7.4392331E-01;  9.9999998E-03;  1.3029394E-01;6942;  2.9906008E-01;  0.0000000E+00;  3.1389147E-02;  1.0040790E+03;  1.2035523E-01;  3.3792114E+03;3; -3.2986031E+01;  0.0000000E+00; -5.9216657E+00;0;  1.1645153E+00;  2.7960652E+04;  0.0000000E+00;  2.6054493E-01;  4.0000000E+04;  0.0000000E+00;  3.9839105E+04;  8.6345637E-01;  0.0000000E+00;  3.0105883E-01;  4.6509590E+03;
  7.4394780E-01;  9.9999998E-03;  1.4033486E-01;6943;  2.9852781E-01;  0.0000000E+00;  3.4755699E-02;  1.0043845E+03;  1.2036939E-01;  3.6323286E+03;3; -3.2074856E+01;  0.0000000E+00; -6.0115423E+00;0;  1.2759095E+00;  2.7974824E+04;  0.0000000E+00;  2.5965506E-01;  4.0000000E+04;  0.0000000E+00;  3.9835082E+04;  9.7411370E-01;  0.0000000E+00;  3.0179587E-01;  5.1681382E+03;
  7.4400049E-01;  9.9999998E-03;  1.5037128E-01;6944;  2.9754066E-01;  0.0000000E+00;  3.7920061E-02;  1.0047224E+03;  1.2038495E-01;  3.9122097E+03;3; -3.1005217E+01;  0.0000000E+00; -5.8703318E+00;0;  1.3985730E+00;  2.7989510E+04;  0.0000000E+00;  2.6472402E-01;  4.0000000E+04;  0.0000000E+00;  3.9831473E+04;  1.0999516E+00;  0.0000000E+00;  2.9862145E-01;  5.6366509E+03;
  7.4407911E-01;  9.9999998E-03;  1.6040233E-01;6945;  2.9611263E-01;  0.0000000E+00;  4.1000374E-02;  1.0050829E+03;  1.2040266E-01;  4.2109531E+03;3; -2.9871571E+01;  0.0000000E+00; -5.3467894E+00;0;  1.5318398E+00;  2.8004168E+04;  0.0000000E+00;  2.7798471E-01;  4.0000000E+04;  0.0000000E+00;  3.9828398E+04;  1.2406673E+00;  0.0000000E+00;  2.9117244E-01;  6.0429980E+03;
  7.4417722E-01;  9.9999998E-03;  1.7042908E-01;6946;  2.9427490E-01;  0.0000000E+00;  4.4289399E-02;  1.0054548E+03;  1.2042130E-01;  4.5189795E+03;3; -2.8624659E+01;  0.0000000E+00; -4.4213047E+00;0;  1.6744657E+00;  2.8018426E+04;  0.0000000E+00;  2.9715502E-01;  4.0000000E+04;  0.0000000E+00;  3.9825816E+04;  1.3951126E+00;  0.0000000E+00;  2.7935299E-01;  6.3915327E+03;
  7.4429029E-01;  9.9999998E-03;  1.8045291E-01;6947;  2.9206786E-01;  0.0000000E+00;  4.7992438E-02;  1.0058215E+03;  1.2044035E-01;  4.8228589E+03;3; -2.7308044E+01;  0.0000000E+00; -3.2808583E+00;0;  1.8247020E+00;  2.8031971E+04;  0.0000000E+00;  3.1602421E-01;  4.0000000E+04;  0.0000000E+00;  3.9823480E+04;  1.5612947E+00;  0.0000000E+00;  2.6340729E-01;  6.7048408E+03;
  7.4441749E-01;  9.9999998E-03;  1.9047670E-01;6948;  2.8953475E-01;  0.0000000E+00;  5.2254058E-02;  1.0061800E+03;  1.2045951E-01;  5.1198242E+03;3; -2.5858500E+01;  0.0000000E+00; -1.9384707E+00;0;  1.9805164E+00;  2.8044697E+04;  0.0000000E+00;  3.2612169E-01;  4.0000000E+04;  0.0000000E+00;  3.9821086E+04;  1.7364879E+00;  0.0000000E+00;  2.4402857E-01;  7.0251899E+03;
  7.4452084E-01;  9.9999998E-03;  2.0049167E-01;6949;  2.8679600E-01;  0.0000000E+00;  5.7175063E-02;  1.0065153E+03;  1.2047536E-01;  5.3975317E+03;3; -2.4183624E+01;  0.0000000E+00; -6.1575812E-01;0;  2.1380503E+00;  2.8057668E+04;  0.0000000E+00;  3.1825718E-01;  4.0000000E+04;  0.0000000E+00;  3.9818684E+04;  1.9153699E+00;  0.0000000E+00;  2.2268055E-01;  7.3581436E+03;
  7.4458998E-01;  9.9999998E-03;  2.1049914E-01;6950;  2.8401127E-01;  0.0000000E+00;  6.2718816E-02;  1.0068203E+03;  1.2048677E-01;  5.6501548E+03;3; -2.2300568E+01;  0.0000000E+00; -5.4899496E-01;0;  2.2957063E+00;  2.8070547E+04;  0.0000000E+00;  2.8263730E-01;  4.0000000E+04;  0.0000000E+00;  3.9816297E+04;  2.0935218E+00;  0.0000000E+00;  2.0218441E-01;  7.6747827E+03;
  7.4463886E-01;  9.9999998E-03;  2.2050771E-01;6951;  2.8132325E-01;  0.0000000E+00;  6.8402760E-02;  1.0070875E+03;  1.2049668E-01;  5.8715708E+03;3; -2.0538345E+01;  0.0000000E+00; -5.1619282E+00;0;  2.4548318E+00;  2.8082270E+04;  0.0000000E+00;  2.1037678E-01;  4.0000000E+04;  0.0000000E+00;  3.9813758E+04;  2.2679620E+00;  0.0000000E+00;  1.8686995E-01;  8.0119204E+03;
  7.4465621E-01;  9.9999998E-03;  2.3051719E-01;6952;  2.7866039E-01;  0.0000000E+00;  7.2588891E-02;  1.0073083E+03;  1.2050354E-01;  6.0544712E+03;3; -2.0345253E+01;  0.0000000E+00; -1.4185380E+01;0;  2.6137013E+00;  2.8092508E+04;  0.0000000E+00;  9.6509084E-02;  4.0000000E+04;  0.0000000E+00;  3.9811070E+04;  2.4347773E+00;  0.0000000E+00;  1.7892413E-01;  8.3645498E+03;
  7.5634933E-01;  9.9999998E-03;  7.0109069E-02;6997;  2.9079330E-01;  0.0000000E+00;  1.0053955E-02;  1.0041219E+03;  1.2142861E-01;  3.4147334E+03;3; -3.7878944E+01;  0.0000000E+00; -2.4585617E+00;0;  1.1645297E+00;  2.7475311E+04;  0.0000000E+00;  9.5410079E-02;  4.0000000E+04;  0.0000000E+00;  3.9839090E+04;  9.1974872E-01;  0.0000000E+00;  2.4478097E-01;  3.8784495E+03;
  7.5631148E-01;  9.9999998E-03;  8.0123350E-02;6998;  2.9262134E-01;  0.0000000E+00;  1.2771260E-02;  1.0039490E+03;  1.2143470E-01;  3.2714365E+03;3; -3.6648140E+01;  0.0000000E+00; -3.4333766E+00;0;  1.2215877E+00;  2.7464598E+04;  0.0000000E+00;  1.2305906E-01;  4.0000000E+04;  0.0000000E+00;  3.9838555E+04;  9.5712149E-01;  0.0000000E+00;  2.6446614E-01;  3.9417715E+03;
  7.5626612E-01;  9.9999998E-03;  9.0142138E-02;6999;  2.9438838E-01;  0.0000000E+00;  1.5919335E-02;  1.0038017E+03;  1.2144112E-01;  3.1494717E+03;3; -3.5448322E+01;  0.0000000E+00; -4.3475413E+00;0;  1.2872000E+00;  2.7455766E+04;  0.0000000E+00;  1.4805941E-01;  4.0000000E+04;  0.0000000E+00;  3.9836848E+04;  1.0049793E+00;  0.0000000E+00;  2.8222066E-01;  4.1321021E+03;
  7.5622219E-01;  9.9999998E-03;  1.0016601E-01;7000;  2.9599223E-01;  0.0000000E+00;  1.9361705E-02;  1.0036971E+03;  1.2144810E-01;  3.0628613E+03;3; -3.4238514E+01;  0.0000000E+00; -5.3396239E+00;0;  1.3624866E+00;  2.7449697E+04;  0.0000000E+00;  1.6656615E-01;  4.0000000E+04;  0.0000000E+00;  3.9834191E+04;  1.0651740E+00;  0.0000000E+00;  2.9731259E-01;  4.4477959E+03;
  7.5618994E-01;  9.9999998E-03;  1.1019226E-01;7001;  2.9731461E-01;  0.0000000E+00;  2.3059057E-02;  1.0036525E+03;  1.2145661E-01;  3.0258274E+03;3; -3.3611008E+01;  0.0000000E+00; -6.0680208E+00;0;  1.4486756E+00;  2.7446932E+04;  0.0000000E+00;  1.7578660E-01;  4.0000000E+04;  0.0000000E+00;  3.9830723E+04;  1.1394553E+00;  0.0000000E+00;  3.0922025E-01;  4.8684614E+03;
  7.5617188E-01;  9.9999998E-03;  1.2022059E-01;7002;  2.9826647E-01;  0.0000000E+00;  2.6825950E-02;  1.0036763E+03;  1.2146559E-01;  3.0455789E+03;3; -3.2860111E+01;  0.0000000E+00; -6.7772260E+00;0;  1.5466235E+00;  2.7447721E+04;  0.0000000E+00;  1.7538737E-01;  4.0000000E+04;  0.0000000E+00;  3.9826789E+04;  1.2290833E+00;  0.0000000E+00;  3.1754023E-01;  5.3599297E+03;
  7.5616962E-01;  9.9999998E-03;  1.3025250E-01;7003;  2.9878211E-01;  0.0000000E+00;  3.0684017E-02;  1.0037766E+03;  1.2147544E-01;  3.1287324E+03;3; -3.1924324E+01;  0.0000000E+00; -7.3983836E+00;0;  1.6569335E+00;  2.7452334E+04;  0.0000000E+00;  1.6782109E-01;  4.0000000E+04;  0.0000000E+00;  3.9822559E+04;  1.3350326E+00;  0.0000000E+00;  3.2190096E-01;  5.8802041E+03;
  7.5618422E-01;  9.9999998E-03;  1.4028661E-01;7004;  2.9888391E-01;  0.0000000E+00;  3.4624852E-02;  1.0039470E+03;  1.2148543E-01;  3.2698567E+03;3; -3.0723473E+01;  0.0000000E+00; -7.7363224E+00;0;  1.7798096E+00;  2.7460438E+04;  0.0000000E+00;  1.5752791E-01;  4.0000000E+04;  0.0000000E+00;  3.9818625E+04;  1.4579049E+00;  0.0000000E+00;  3.2190469E-01;  6.3857041E+03;
  7.5621545E-01;  9.9999998E-03;  1.5031989E-01;7005;  2.9868513E-01;  0.0000000E+00;  3.8345139E-02;  1.0041890E+03;  1.2149567E-01;  3.4703342E+03;3; -2.9307817E+01;  0.0000000E+00; -7.7701430E+00;0;  1.9149590E+00;  2.7471525E+04;  0.0000000E+00;  1.4930159E-01;  4.0000000E+04;  0.0000000E+00;  3.9815078E+04;  1.5978191E+00;  0.0000000E+00;  3.1713983E-01;  6.8363105E+03;
  7.5629163E-01;  9.9999998E-03;  1.6034934E-01;7006;  2.9830128E-01;  0.0000000E+00;  4.1745719E-02;  1.0044943E+03;  1.2150734E-01;  3.7232515E+03;3; -2.7307819E+01;  0.0000000E+00; -7.3037014E+00;0;  2.0630741E+00;  2.7484795E+04;  0.0000000E+00;  1.4554332E-01;  4.0000000E+04;  0.0000000E+00;  3.9812328E+04;  1.7556680E+00;  0.0000000E+00;  3.0740613E-01;  7.2013613E+03;
  7.5642097E-01;  9.9999998E-03;  1.7037176E-01;7007;  2.9789841E-01;  0.0000000E+00;  4.5100316E-02;  1.0048495E+03;  1.2152037E-01;  4.0175481E+03;3; -2.4790693E+01;  0.0000000E+00; -6.3287935E+00;0;  2.2234092E+00;  2.7499389E+04;  0.0000000E+00;  1.4484650E-01;  4.0000000E+04;  0.0000000E+00;  3.9810484E+04;  1.9306346E+00;  0.0000000E+00;  2.9277462E-01;  7.4626777E+03;
  7.5656998E-01;  9.9999998E-03;  1.8039112E-01;7008;  2.9758289E-01;  0.0000000E+00;  4.8911080E-02;  1.0052386E+03;  1.2153385E-01;  4.3397930E+03;3; -2.1515467E+01;  0.0000000E+00; -4.8006616E+00;0;  2.3925974E+00;  2.7514590E+04;  0.0000000E+00;  1.4227903E-01;  4.0000000E+04;  0.0000000E+00;  3.9809523E+04;  2.1190095E+00;  0.0000000E+00;  2.7358788E-01;  7.6084399E+03;
  7.5672716E-01;  9.9999998E-03;  1.9041058E-01;7009;  2.9741555E-01;  0.0000000E+00;  5.3809848E-02;  1.0056395E+03;  1.2154675E-01;  4.6719136E+03;3; -1.7308731E+01;  0.0000000E+00; -2.6050727E+00;0;  2.5678401E+00;  2.7529584E+04;  0.0000000E+00;  1.3044548E-01;  4.0000000E+04;  0.0000000E+00;  3.9809516E+04;  2.3170724E+00;  0.0000000E+00;  2.5076762E-01;  7.6344893E+03;
  7.5687832E-01;  9.9999998E-03;  2.0042934E-01;7010;  2.9735053E-01;  0.0000000E+00;  6.0465463E-02;  1.0060396E+03;  1.2155908E-01;  5.0034409E+03;3; -1.2582905E+01;  0.0000000E+00;  1.1080039E-01;0;  2.7468429E+00;  2.7544043E+04;  0.0000000E+00;  1.0129272E-01;  4.0000000E+04;  0.0000000E+00;  3.9810598E+04;  2.5202084E+00;  0.0000000E+00;  2.2663455E-01;  7.5346572E+03;
  7.5701082E-01;  9.9999998E-03;  2.1045363E-01;7011;  2.9725647E-01;  0.0000000E+00;  6.9386572E-02;  1.0064210E+03;  1.2157001E-01;  5.3193652E+03;3; -8.1857634E+00;  0.0000000E+00;  6.5886039E-01;0;  2.9303331E+00;  2.7557340E+04;  0.0000000E+00;  4.7747057E-02;  4.0000000E+04;  0.0000000E+00;  3.9812250E+04;  2.7237654E+00;  0.0000000E+00;  2.0656765E-01;  7.3614224E+03;
  7.5712180E-01;  9.9999998E-03;  2.2048497E-01;7012;  2.9736605E-01;  0.0000000E+00;  7.9257235E-02;  1.0067568E+03;  1.2157986E-01;  5.5975640E+03;3; -4.1708794E+00;  0.0000000E+00; -7.2384558E+00;0;  3.1223977E+00;  2.7569018E+04;  0.0000000E+00; -3.3600327E-02;  4.0000000E+04;  0.0000000E+00;  3.9813285E+04;  2.9236269E+00;  0.0000000E+00;  1.9877085E-01;  7.2497212E+03;
  7.5719905E-01;  9.9999998E-03;  2.3052053E-01;7013;  2.9902667E-01;  0.0000000E+00;  8.5699588E-02;  1.0070175E+03;  1.2158766E-01;  5.8135464E+03;3; -3.8249689E-01;  0.0000000E+00; -1.9983416E+01;0;  3.3194015E+00;  2.7578768E+04;  0.0000000E+00; -1.3680743E-01;  4.0000000E+04;  0.0000000E+00;  3.9812391E+04;  3.1153264E+00;  0.0000000E+00;  2.0407504E-01;  7.3778950E+03;
  7.6879478E-01;  9.9999998E-03;  7.0083030E-02;7058;  2.8907233E-01;  0.0000000E+00;  6.7923362E-03;  1.0042428E+03;  1.2217800E-01;  3.5148352E+03;3; -3.6874947E+01;  0.0000000E+00; -4.2826128E+00;0;  1.7691748E+00;  2.7165689E+04;  0.0000000E+00; -2.0347037E-03;  4.0000000E+04;  0.0000000E+00;  3.9816574E+04;  1.5208900E+00;  0.0000000E+00;  2.4828480E-01;  6.1488481E+03;
  7.6876992E-01;  9.9999998E-03;  8.0085099E-02;7059;  2.9106203E-01;  0.0000000E+00;  9.5900809E-03;  1.0038952E+03;  1.2218282E-01;  3.2268618E+03;3; -3.5549648E+01;  0.0000000E+00; -5.7293572E+00;0;  1.8283324E+00;  2.7144891E+04;  0.0000000E+00;  1.1223225E-02;  4.0000000E+04;  0.0000000E+00;  3.9817910E+04;  1.5567999E+00;  0.0000000E+00;  2.7153254E-01;  5.9455469E+03;
  7.6873523E-01;  9.9999998E-03;  9.0087071E-02;7060;  2.9303372E-01;  0.0000000E+00;  1.3008108E-02;  1.0035645E+03;  1.2218748E-01;  2.9529119E+03;3; -3.4343250E+01;  0.0000000E+00; -7.1314607E+00;0;  1.8956623E+00;  2.7125814E+04;  0.0000000E+00;  2.5804464E-02;  4.0000000E+04;  0.0000000E+00;  3.9818219E+04;  1.6035480E+00;  0.0000000E+00;  2.9211426E-01;  5.8762861E+03;
  7.6868778E-01;  9.9999998E-03;  1.0009230E-01;7061;  2.9500461E-01;  0.0000000E+00;  1.6789595E-02;  1.0032750E+03;  1.2219258E-01;  2.7130330E+03;3; -3.3372475E+01;  0.0000000E+00; -8.3564463E+00;0;  1.9717205E+00;  2.7109566E+04;  0.0000000E+00;  3.8100034E-02;  4.0000000E+04;  0.0000000E+00;  3.9817320E+04;  1.6625623E+00;  0.0000000E+00;  3.0915821E-01;  5.9581328E+03;
  7.6863295E-01;  9.9999998E-03;  1.1010662E-01;7062;  2.9677504E-01;  0.0000000E+00;  2.0814285E-02;  1.0030462E+03;  1.2219787E-01;  2.5235198E+03;3; -3.2395226E+01;  0.0000000E+00; -9.3254843E+00;0;  2.0577273E+00;  2.7097316E+04;  0.0000000E+00;  4.4551931E-02;  4.0000000E+04;  0.0000000E+00;  3.9815336E+04;  1.7356554E+00;  0.0000000E+00;  3.2207200E-01;  6.1836113E+03;
  7.6858568E-01;  9.9999998E-03;  1.2013051E-01;7063;  2.9830763E-01;  0.0000000E+00;  2.5069715E-02;  1.0029023E+03;  1.2220312E-01;  2.4043210E+03;3; -3.1228041E+01;  0.0000000E+00; -1.0204014E+01;0;  2.1552937E+00;  2.7089795E+04;  0.0000000E+00;  4.2813096E-02;  4.0000000E+04;  0.0000000E+00;  3.9812512E+04;  1.8248541E+00;  0.0000000E+00;  3.3043948E-01;  6.5207505E+03;
  7.6858121E-01;  9.9999998E-03;  1.3016261E-01;7064;  2.9969493E-01;  0.0000000E+00;  2.9581964E-02;  1.0028589E+03;  1.2220912E-01;  2.3684724E+03;3; -2.9661064E+01;  0.0000000E+00; -1.0903521E+01;0;  2.2668324E+00;  2.7087641E+04;  0.0000000E+00;  3.2730959E-02;  4.0000000E+04;  0.0000000E+00;  3.9809254E+04;  1.9328985E+00;  0.0000000E+00;  3.3393392E-01;  6.9221221E+03;
  7.6865441E-01;  9.9999998E-03;  1.4020163E-01;7065;  3.0119726E-01;  0.0000000E+00;  3.4115084E-02;  1.0029327E+03;  1.2221663E-01;  2.4295037E+03;3; -2.6894094E+01;  0.0000000E+00; -1.1341474E+01;0;  2.3943329E+00;  2.7090959E+04;  0.0000000E+00;  1.6629154E-02;  4.0000000E+04;  0.0000000E+00;  3.9805887E+04;  2.0620995E+00;  0.0000000E+00;  3.3223331E-01;  7.3345762E+03;
  7.6872474E-01;  9.9999998E-03;  1.5024455E-01;7066;  3.0344412E-01;  0.0000000E+00;  3.8430635E-02;  1.0031012E+03;  1.2222306E-01;  2.5691450E+03;3; -2.2206865E+01;  0.0000000E+00; -1.1241503E+01;0;  2.5331354E+00;  2.7098773E+04;  0.0000000E+00; -1.6058978E-03;  4.0000000E+04;  0.0000000E+00;  3.9803145E+04;  2.2081387E+00;  0.0000000E+00;  3.2499677E-01;  7.6994048E+03;
  7.6878184E-01;  9.9999998E-03;  1.6028753E-01;7067;  3.0731797E-01;  0.0000000E+00;  4.2168695E-02;  1.0033518E+03;  1.2222847E-01;  2.7767307E+03;3; -1.4462875E+01;  0.0000000E+00; -1.0405427E+01;0;  2.6819444E+00;  2.7110508E+04;  0.0000000E+00; -1.9402629E-02;  4.0000000E+04;  0.0000000E+00;  3.9801258E+04;  2.3697503E+00;  0.0000000E+00;  3.1219414E-01;  7.9662788E+03;
  7.6883405E-01;  9.9999998E-03;  1.7032841E-01;7068;  3.1317136E-01;  0.0000000E+00;  4.5706093E-02;  1.0036722E+03;  1.2223317E-01;  3.0420884E+03;3; -5.1965461E+00;  0.0000000E+00; -8.8820457E+00;0;  2.8399684E+00;  2.7125027E+04;  0.0000000E+00; -3.6481448E-02;  4.0000000E+04;  0.0000000E+00;  3.9800359E+04;  2.5458248E+00;  0.0000000E+00;  2.9414365E-01;  8.0984805E+03;
  7.6893365E-01;  9.9999998E-03;  1.8035859E-01;7069;  3.2033643E-01;  0.0000000E+00;  4.9974844E-02;  1.0040573E+03;  1.2223879E-01;  3.3611697E+03;3;  3.6336665E+00;  0.0000000E+00; -6.9100604E+00;0;  3.0080345E+00;  2.7141469E+04;  0.0000000E+00; -5.4789402E-02;  4.0000000E+04;  0.0000000E+00;  3.9800871E+04;  2.7365654E+00;  0.0000000E+00;  2.7146912E-01;  8.0716396E+03;
  7.6905751E-01;  9.9999998E-03;  1.9038467E-01;7070;  3.2808232E-01;  0.0000000E+00;  5.5551786E-02;  1.0044788E+03;  1.2224432E-01;  3.7103716E+03;3;  1.1833591E+01;  0.0000000E+00; -4.5960526E+00;0;  3.1830518E+00;  2.7158498E+04;  0.0000000E+00; -7.8221716E-02;  4.0000000E+04;  0.0000000E+00;  3.9802875E+04;  2.9376283E+00;  0.0000000E+00;  2.4542345E-01;  7.8613379E+03;
  7.6918674E-01;  9.9999998E-03;  2.0040981E-01;7071;  3.3596531E-01;  0.0000000E+00;  6.3021019E-02;  1.0049158E+03;  1.2224994E-01;  4.0724116E+03;3;  1.9364010E+01;  0.0000000E+00; -2.6668017E+00;0;  3.3630297E+00;  2.7175104E+04;  0.0000000E+00; -1.1176021E-01;  4.0000000E+04;  0.0000000E+00;  3.9806480E+04;  3.1442013E+00;  0.0000000E+00;  2.1882838E-01;  7.4488818E+03;
  7.6931405E-01;  9.9999998E-03;  2.1044458E-01;7072;  3.4370011E-01;  0.0000000E+00;  7.3072277E-02;  1.0053446E+03;  1.2225509E-01;  4.4276367E+03;3;  2.6274401E+01;  0.0000000E+00; -3.4489756E+00;0;  3.5501559E+00;  2.7190422E+04;  0.0000000E+00; -1.6020715E-01;  4.0000000E+04;  0.0000000E+00;  3.9811004E+04;  3.3521123E+00;  0.0000000E+00;  1.9804363E-01;  6.9208003E+03;
  7.6943755E-01;  9.9999998E-03;  2.2048774E-01;7073;  3.5123104E-01;  0.0000000E+00;  8.4534414E-02;  1.0057263E+03;  1.2226023E-01;  4.7437554E+03;3;  3.2707230E+01;  0.0000000E+00; -1.2440355E+01;0;  3.7507014E+00;  2.7203586E+04;  0.0000000E+00; -2.2653575E-01;  4.0000000E+04;  0.0000000E+00;  3.9815074E+04;  3.5574696E+00;  0.0000000E+00;  1.9323191E-01;  6.4453013E+03;
  7.6951361E-01;  9.9999998E-03;  2.3053715E-01;7074;  3.5889468E-01;  0.0000000E+00;  9.2253409E-02;  1.0060149E+03;  1.2226382E-01;  4.9829424E+03;3;  3.8216766E+01;  0.0000000E+00; -2.6532946E+01;0;  3.9611201E+00;  2.7214289E+04;  0.0000000E+00; -3.0463946E-01;  4.0000000E+04;  0.0000000E+00;  3.9816219E+04;  3.7547362E+00;  0.0000000E+00;  2.0638391E-01;  6.3153970E+03;
  7.8086007E-01;  9.9999998E-03;  7.0089042E-02;7119;  2.8790307E-01;  0.0000000E+00;  3.2111276E-03;  1.0040127E+03;  1.2261917E-01;  3.3241929E+03;3; -3.5557457E+01;  0.0000000E+00; -7.5619531E+00;0;  2.5012293E+00;  2.6971326E+04;  0.0000000E+00; -8.5476622E-02;  4.0000000E+04;  0.0000000E+00;  3.9793176E+04;  2.2531509E+00;  0.0000000E+00;  2.4807826E-01;  8.7264307E+03;
  7.8086346E-01;  9.9999998E-03;  8.0090351E-02;7120;  2.9008198E-01;  0.0000000E+00;  6.2205326E-03;  1.0035567E+03;  1.2262385E-01;  2.9464548E+03;3; -3.4225208E+01;  0.0000000E+00; -1.0157852E+01;0;  2.5582285E+00;  2.6943633E+04;  0.0000000E+00; -8.9273214E-02;  4.0000000E+04;  0.0000000E+00;  3.9796969E+04;  2.2844565E+00;  0.0000000E+00;  2.7377212E-01;  8.1998125E+03;
  7.8095478E-01;  9.9999998E-03;  9.0092316E-02;7121;  2.9237515E-01;  0.0000000E+00;  9.9743409E-03;  1.0031409E+03;  1.2262952E-01;  2.6019971E+03;3; -3.2969929E+01;  0.0000000E+00; -1.2270936E+01;0;  2.6283829E+00;  2.6918424E+04;  0.0000000E+00; -8.9965217E-02;  4.0000000E+04;  0.0000000E+00;  3.9799758E+04;  2.3323913E+00;  0.0000000E+00;  2.9599172E-01;  7.8141392E+03;
  7.8107166E-01;  9.9999998E-03;  1.0009976E-01;7122;  2.9470244E-01;  0.0000000E+00;  1.4202998E-02;  1.0027702E+03;  1.2263579E-01;  2.2948687E+03;3; -3.1692644E+01;  0.0000000E+00; -1.3894710E+01;0;  2.7081156E+00;  2.6896393E+04;  0.0000000E+00; -8.9678705E-02;  4.0000000E+04;  0.0000000E+00;  3.9801168E+04;  2.3943319E+00;  0.0000000E+00;  3.1378376E-01;  7.5905571E+03;
  7.8116828E-01;  9.9999998E-03;  1.1011492E-01;7123;  2.9710376E-01;  0.0000000E+00;  1.8875403E-02;  1.0024526E+03;  1.2264163E-01;  2.0317852E+03;3; -3.0243521E+01;  0.0000000E+00; -1.5048214E+01;0;  2.7951198E+00;  2.6878049E+04;  0.0000000E+00; -9.1241486E-02;  4.0000000E+04;  0.0000000E+00;  3.9801445E+04;  2.4686322E+00;  0.0000000E+00;  3.2648751E-01;  7.5289409E+03;
  7.8123111E-01;  9.9999998E-03;  1.2014253E-01;7124;  2.9966009E-01;  0.0000000E+00;  2.4029674E-02;  1.0022113E+03;  1.2264675E-01;  1.8319049E+03;3; -2.7813385E+01;  0.0000000E+00; -1.5864103E+01;0;  2.8892832E+00;  2.6864359E+04;  0.0000000E+00; -9.7418144E-02;  4.0000000E+04;  0.0000000E+00;  3.9800582E+04;  2.5556061E+00;  0.0000000E+00;  3.3367699E-01;  7.6065698E+03;
  7.8125733E-01;  9.9999998E-03;  1.3017789E-01;7125;  3.0303779E-01;  0.0000000E+00;  2.9619655E-02;  1.0020625E+03;  1.2265077E-01;  1.7086587E+03;3; -2.3252625E+01;  0.0000000E+00; -1.6214531E+01;0;  2.9908080E+00;  2.6856002E+04;  0.0000000E+00; -1.1009349E-01;  4.0000000E+04;  0.0000000E+00;  3.9799125E+04;  2.6557322E+00;  0.0000000E+00;  3.3507577E-01;  7.7772051E+03;
  7.8125608E-01;  9.9999998E-03;  1.4021927E-01;7126;  3.0857429E-01;  0.0000000E+00;  3.5272162E-02;  1.0020209E+03;  1.2265363E-01;  1.6740944E+03;3; -1.4486419E+01;  0.0000000E+00; -1.5879704E+01;0;  3.1002388E+00;  2.6853385E+04;  0.0000000E+00; -1.2959298E-01;  4.0000000E+04;  0.0000000E+00;  3.9797391E+04;  2.7697158E+00;  0.0000000E+00;  3.3052304E-01;  7.9832954E+03;
  7.8124130E-01;  9.9999998E-03;  1.5026198E-01;7127;  3.1744987E-01;  0.0000000E+00;  4.0199637E-02;  1.0020861E+03;  1.2265576E-01;  1.7282122E+03;3; -2.5515046E+00;  0.0000000E+00; -1.4808198E+01;0;  3.2181456E+00;  2.6856373E+04;  0.0000000E+00; -1.5461136E-01;  4.0000000E+04;  0.0000000E+00;  3.9796066E+04;  2.8981800E+00;  0.0000000E+00;  3.1996563E-01;  8.1647861E+03;
  7.8122377E-01;  9.9999998E-03;  1.6030213E-01;7128;  3.2913277E-01;  0.0000000E+00;  4.4549070E-02;  1.0022617E+03;  1.2265693E-01;  1.8735796E+03;3;  9.2756453E+00;  0.0000000E+00; -1.3257257E+01;0;  3.3451092E+00;  2.6864152E+04;  0.0000000E+00; -1.8275701E-01;  4.0000000E+04;  0.0000000E+00;  3.9795461E+04;  3.0414732E+00;  0.0000000E+00;  3.0363604E-01;  8.2625879E+03;
  7.8121614E-01;  9.9999998E-03;  1.7034341E-01;7129;  3.4266603E-01;  0.0000000E+00;  4.9517870E-02;  1.0025308E+03;  1.2265786E-01;  2.0965684E+03;3;  2.0623863E+01;  0.0000000E+00; -1.1319997E+01;0;  3.4814925E+00;  2.6875986E+04;  0.0000000E+00; -2.1149407E-01;  4.0000000E+04;  0.0000000E+00;  3.9795941E+04;  3.1993620E+00;  0.0000000E+00;  2.8213048E-01;  8.2264639E+03;
  7.8123218E-01;  9.9999998E-03;  1.8038718E-01;7130;  3.5751441E-01;  0.0000000E+00;  5.5390399E-02;  1.0028737E+03;  1.2265831E-01;  2.3805876E+03;3;  3.1440407E+01;  0.0000000E+00; -9.2931795E+00;0;  3.6269674E+00;  2.6890477E+04;  0.0000000E+00; -2.3900549E-01;  4.0000000E+04;  0.0000000E+00;  3.9797793E+04;  3.3704083E+00;  0.0000000E+00;  2.5655916E-01;  8.0322988E+03;
  7.8129172E-01;  9.9999998E-03;  1.9042794E-01;7131;  3.7343353E-01;  0.0000000E+00;  6.2087581E-02;  1.0032685E+03;  1.2265928E-01;  2.7076641E+03;3;  4.1726841E+01;  0.0000000E+00; -7.9714303E+00;0;  3.7811005E+00;  2.6906432E+04;  0.0000000E+00; -2.6467231E-01;  4.0000000E+04;  0.0000000E+00;  3.9801035E+04;  3.5522997E+00;  0.0000000E+00;  2.2880076E-01;  7.6784053E+03;
  7.8139150E-01;  9.9999998E-03;  2.0046100E-01;7132;  3.9015943E-01;  0.0000000E+00;  6.9584936E-02;  1.0036893E+03;  1.2266096E-01;  3.0562686E+03;3;  5.1528404E+01;  0.0000000E+00; -8.7004976E+00;0;  3.9430091E+00;  2.6922381E+04;  0.0000000E+00; -2.8940481E-01;  4.0000000E+04;  0.0000000E+00;  3.9805586E+04;  3.7409704E+00;  0.0000000E+00;  2.0203884E-01;  7.1507275E+03;
  7.8152728E-01;  9.9999998E-03;  2.1049616E-01;7133;  4.0736297E-01;  0.0000000E+00;  7.7879824E-02;  1.0041095E+03;  1.2266275E-01;  3.4043794E+03;3;  6.0907681E+01;  0.0000000E+00; -1.2826027E+01;0;  4.1141901E+00;  2.6937262E+04;  0.0000000E+00; -3.1559128E-01;  4.0000000E+04;  0.0000000E+00;  3.9810996E+04;  3.9325871E+00;  0.0000000E+00;  1.8160295E-01;  6.5011221E+03;
  7.8166878E-01;  9.9999998E-03;  2.2053772E-01;7134;  4.2447254E-01;  0.0000000E+00;  8.6129077E-02;  1.0044873E+03;  1.2266496E-01;  3.7173330E+03;3;  6.9932686E+01;  0.0000000E+00; -2.2510229E+01;0;  4.2975864E+00;  2.6950209E+04;  0.0000000E+00; -3.4689718E-01;  4.0000000E+04;  0.0000000E+00;  3.9816098E+04;  4.1225471E+00;  0.0000000E+00;  1.7503920E-01;  5.8921719E+03;
  7.8176910E-01;  9.9999998E-03;  2.3058681E-01;7135;  4.4103724E-01;  0.0000000E+00;  9.0863742E-02;  1.0047708E+03;  1.2266658E-01;  3.9521719E+03;3;  7.7924988E+01;  0.0000000E+00; -3.2793636E+01;0;  4.4895434E+00;  2.6960521E+04;  0.0000000E+00; -3.8346779E-01;  4.0000000E+04;  0.0000000E+00;  3.9818137E+04;  4.3062863E+00;  0.0000000E+00;  1.8325694E-01;  5.6656528E+03;
  7.9346776E-01;  9.9999998E-03;  7.0167325E-02;7180;  2.8743947E-01;  0.0000000E+00;  5.0545146E-04;  1.0038914E+03;  1.2287763E-01;  3.2237075E+03;3; -3.3858444E+01;  0.0000000E+00; -1.4497783E+01;0;  3.3943555E+00;  2.6864105E+04;  0.0000000E+00; -1.2842619E-01;  4.0000000E+04;  0.0000000E+00;  3.9767781E+04;  3.1506917E+00;  0.0000000E+00;  2.4366371E-01;  1.1675537E+04;
  7.9352486E-01;  9.9999998E-03;  8.0177709E-02;7181;  2.8980792E-01;  0.0000000E+00;  3.9927112E-03;  1.0034065E+03;  1.2288203E-01;  2.8219780E+03;3; -3.2681026E+01;  0.0000000E+00; -1.8012293E+01;0;  3.4444642E+00;  2.6833373E+04;  0.0000000E+00; -1.5008034E-01;  4.0000000E+04;  0.0000000E+00;  3.9774430E+04;  3.1738541E+00;  0.0000000E+00;  2.7061018E-01;  1.0779675E+04;
  7.9358041E-01;  9.9999998E-03;  9.0187639E-02;7182;  2.9249120E-01;  0.0000000E+00;  8.4477831E-03;  1.0029286E+03;  1.2288620E-01;  2.4260754E+03;3; -3.1390066E+01;  0.0000000E+00; -2.0416937E+01;0;  3.4990814E+00;  2.6803482E+04;  0.0000000E+00; -1.6916117E-01;  4.0000000E+04;  0.0000000E+00;  3.9780488E+04;  3.2059481E+00;  0.0000000E+00;  2.9313329E-01;  9.9763008E+03;
  7.9362679E-01;  9.9999998E-03;  1.0020055E-01;7183;  2.9546008E-01;  0.0000000E+00;  1.3626019E-02;  1.0024789E+03;  1.2289020E-01;  2.0535771E+03;3; -2.9585901E+01;  0.0000000E+00; -2.1865677E+01;0;  3.5580478E+00;  2.6775732E+04;  0.0000000E+00; -1.8610589E-01;  4.0000000E+04;  0.0000000E+00;  3.9785387E+04;  3.2477818E+00;  0.0000000E+00;  3.1026590E-01;  9.3264268E+03;
  7.9365867E-01;  9.9999998E-03;  1.1022016E-01;7184;  2.9901755E-01;  0.0000000E+00;  1.9486159E-02;  1.0020775E+03;  1.2289372E-01;  1.7209757E+03;3; -2.6444948E+01;  0.0000000E+00; -2.2466848E+01;0;  3.6214273E+00;  2.6751344E+04;  0.0000000E+00; -2.0220137E-01;  4.0000000E+04;  0.0000000E+00;  3.9788762E+04;  3.3000345E+00;  0.0000000E+00;  3.2139274E-01;  8.8572559E+03;
  7.9365617E-01;  9.9999998E-03;  1.2024970E-01;7185;  3.0405024E-01;  0.0000000E+00;  2.5784930E-02;  1.0017424E+03;  1.2289670E-01;  1.4434786E+03;3; -1.9924887E+01;  0.0000000E+00; -2.2400192E+01;0;  3.6882060E+00;  2.6731324E+04;  0.0000000E+00; -2.1931401E-01;  4.0000000E+04;  0.0000000E+00;  3.9790891E+04;  3.3620203E+00;  0.0000000E+00;  3.2618576E-01;  8.5586729E+03;
  7.9361069E-01;  9.9999998E-03;  1.3028599E-01;7186;  3.1222317E-01;  0.0000000E+00;  3.2193229E-02;  1.0014932E+03;  1.2289850E-01;  1.2369854E+03;3; -8.5092459E+00;  0.0000000E+00; -2.1629486E+01;0;  3.7580132E+00;  2.6716434E+04;  0.0000000E+00; -2.3952568E-01;  4.0000000E+04;  0.0000000E+00;  3.9792070E+04;  3.4334662E+00;  0.0000000E+00;  3.2454714E-01;  8.3909355E+03;
  7.9353982E-01;  9.9999998E-03;  1.4032617E-01;7187;  3.2412070E-01;  0.0000000E+00;  3.7887264E-02;  1.0013495E+03;  1.2289974E-01;  1.1178888E+03;3;  4.8570576E+00;  0.0000000E+00; -2.0285501E+01;0;  3.8324778E+00;  2.6707377E+04;  0.0000000E+00; -2.6448911E-01;  4.0000000E+04;  0.0000000E+00;  3.9792785E+04;  3.5159397E+00;  0.0000000E+00;  3.1653810E-01;  8.2972520E+03;
  7.9346663E-01;  9.9999998E-03;  1.5036872E-01;7188;  3.3943787E-01;  0.0000000E+00;  4.3502145E-02;  1.0013211E+03;  1.2290008E-01;  1.0943856E+03;3;  1.8206362E+01;  0.0000000E+00; -1.8520523E+01;0;  3.9136219E+00;  2.6704064E+04;  0.0000000E+00; -2.9451725E-01;  4.0000000E+04;  0.0000000E+00;  3.9793469E+04;  3.6112959E+00;  0.0000000E+00;  3.0232596E-01;  8.2134131E+03;
  7.9341400E-01;  9.9999998E-03;  1.6041316E-01;7189;  3.5766083E-01;  0.0000000E+00;  4.9924050E-02;  1.0014078E+03;  1.2289959E-01;  1.1661796E+03;3;  3.1415611E+01;  0.0000000E+00; -1.6516310E+01;0;  4.0031624E+00;  2.6706389E+04;  0.0000000E+00; -3.2786453E-01;  4.0000000E+04;  0.0000000E+00;  3.9794637E+04;  3.7208116E+00;  0.0000000E+00;  2.8235075E-01;  8.0770830E+03;
  7.9340446E-01;  9.9999998E-03;  1.7045867E-01;7190;  3.7848961E-01;  0.0000000E+00;  5.6993052E-02;  1.0016028E+03;  1.2289897E-01;  1.3278389E+03;3;  4.4420799E+01;  0.0000000E+00; -1.4771002E+01;0;  4.1022463E+00;  2.6713273E+04;  0.0000000E+00; -3.6049870E-01;  4.0000000E+04;  0.0000000E+00;  3.9796707E+04;  3.8446269E+00;  0.0000000E+00;  2.5761926E-01;  7.8456138E+03;
  7.9345375E-01;  9.9999998E-03;  1.8050492E-01;7191;  4.0165678E-01;  0.0000000E+00;  6.4114459E-02;  1.0018778E+03;  1.2289832E-01;  1.5555642E+03;3;  5.7194431E+01;  0.0000000E+00; -1.4267963E+01;0;  4.2112503E+00;  2.6723588E+04;  0.0000000E+00; -3.8723218E-01;  4.0000000E+04;  0.0000000E+00;  3.9799648E+04;  3.9813879E+00;  0.0000000E+00;  2.2986233E-01;  7.5106260E+03;
  7.9356438E-01;  9.9999998E-03;  1.9054949E-01;7192;  4.2666835E-01;  0.0000000E+00;  7.0640974E-02;  1.0022080E+03;  1.2289808E-01;  1.8291108E+03;3;  6.9656418E+01;  0.0000000E+00; -1.5764729E+01;0;  4.3297462E+00;  2.6735920E+04;  0.0000000E+00; -4.0316322E-01;  4.0000000E+04;  0.0000000E+00;  3.9803293E+04;  4.1282239E+00;  0.0000000E+00;  2.0152219E-01;  7.1009961E+03;
  7.9372060E-01;  9.9999998E-03;  2.0058414E-01;7193;  4.5286891E-01;  0.0000000E+00;  7.5983800E-02;  1.0025571E+03;  1.2289775E-01;  2.1183594E+03;3;  8.1677353E+01;  0.0000000E+00; -1.9413837E+01;0;  4.4565420E+00;  2.6748811E+04;  0.0000000E+00; -4.0506926E-01;  4.0000000E+04;  0.0000000E+00;  3.9807258E+04;  4.2810216E+00;  0.0000000E+00;  1.7552039E-01;  6.6370459E+03;
  7.9390836E-01;  9.9999998E-03;  2.1062084E-01;7194;  4.7935805E-01;  0.0000000E+00;  7.9664834E-02;  1.0028920E+03;  1.2289830E-01;  2.3957568E+03;3;  9.3203545E+01;  0.0000000E+00; -2.5064037E+01;0;  4.5909920E+00;  2.6761016E+04;  0.0000000E+00; -3.9263791E-01;  4.0000000E+04;  0.0000000E+00;  3.9810594E+04;  4.4363441E+00;  0.0000000E+00;  1.5464762E-01;  6.2322510E+03;
  7.9409975E-01;  9.9999998E-03;  2.2066016E-01;7195;  5.0485241E-01;  0.0000000E+00;  8.1162579E-02;  1.0031707E+03;  1.2289882E-01;  2.6266416E+03;3;  1.0387229E+02;  0.0000000E+00; -3.0786125E+01;0;  4.7313538E+00;  2.6771473E+04;  0.0000000E+00; -3.7004074E-01;  4.0000000E+04;  0.0000000E+00;  3.9812125E+04;  4.5907764E+00;  0.0000000E+00;  1.4057751E-01;  6.0630249E+03;
  7.9426599E-01;  9.9999998E-03;  2.3069148E-01;7196;  5.2843785E-01;  0.0000000E+00;  8.0969900E-02;  1.0033771E+03;  1.2289977E-01;  2.7975833E+03;3;  1.1327678E+02;  0.0000000E+00; -3.3550049E+01;0;  4.8761773E+00;  2.6779500E+04;  0.0000000E+00; -3.4594479E-01;  4.0000000E+04;  0.0000000E+00;  3.9811840E+04;  4.7415371E+00;  0.0000000E+00;  1.3464013E-01;  6.0997661E+03;
  8.0600178E-01;  9.9999998E-03;  7.0317417E-02;7241;  2.8876117E-01;  0.0000000E+00;  4.3735071E-03;  1.0036758E+03;  1.2302017E-01;  3.0450037E+03;3; -3.5476997E+01;  0.0000000E+00; -2.7467793E+01;0;  4.3540120E+00;  2.6801572E+04;  0.0000000E+00; -1.2412260E-01;  4.0000000E+04;  0.0000000E+00;  3.9742906E+04;  4.1194019E+00;  0.0000000E+00;  2.3461023E-01;  1.4619684E+04;
  8.0599380E-01;  9.9999998E-03;  8.0323175E-02;7242;  2.9170603E-01;  0.0000000E+00;  8.2481951E-03;  1.0032191E+03;  1.2302326E-01;  2.6666865E+03;3; -3.3718433E+01;  0.0000000E+00; -2.9027964E+01;0;  4.3812628E+00;  2.6770447E+04;  0.0000000E+00; -1.6210493E-01;  4.0000000E+04;  0.0000000E+00;  3.9752836E+04;  4.1197853E+00;  0.0000000E+00;  2.6147723E-01;  1.3324244E+04;
  8.0597305E-01;  9.9999998E-03;  9.0332396E-02;7243;  2.9528540E-01;  0.0000000E+00;  1.3372259E-02;  1.0027513E+03;  1.2302662E-01;  2.2790869E+03;3; -3.0947205E+01;  0.0000000E+00; -2.9829205E+01;0;  4.4083548E+00;  2.6738793E+04;  0.0000000E+00; -2.0252389E-01;  4.0000000E+04;  0.0000000E+00;  3.9762484E+04;  4.1253204E+00;  0.0000000E+00;  2.8303432E-01;  1.2073129E+04;
  8.0595189E-01;  9.9999998E-03;  1.0034589E-01;7244;  3.0013740E-01;  0.0000000E+00;  1.9925611E-02;  1.0022927E+03;  1.2302931E-01;  1.8991897E+03;3; -2.5908501E+01;  0.0000000E+00; -3.0047249E+01;0;  4.4362712E+00;  2.6708287E+04;  0.0000000E+00; -2.4311514E-01;  4.0000000E+04;  0.0000000E+00;  3.9771027E+04;  4.1378851E+00;  0.0000000E+00;  2.9838622E-01;  1.0957252E+04;
  8.0591404E-01;  9.9999998E-03;  1.1036696E-01;7245;  3.0729228E-01;  0.0000000E+00;  2.6940215E-02;  1.0018616E+03;  1.2303177E-01;  1.5421042E+03;3; -1.6794861E+01;  0.0000000E+00; -2.9623646E+01;0;  4.4638753E+00;  2.6679924E+04;  0.0000000E+00; -2.8180206E-01;  4.0000000E+04;  0.0000000E+00;  3.9778102E+04;  4.1568847E+00;  0.0000000E+00;  3.0699056E-01;  1.0027765E+04;
  8.0586040E-01;  9.9999998E-03;  1.2039732E-01;7246;  3.1866357E-01;  0.0000000E+00;  3.3962626E-02;  1.0014744E+03;  1.2303373E-01;  1.2213594E+03;3; -4.3847132E+00;  0.0000000E+00; -2.8585852E+01;0;  4.4912481E+00;  2.6654980E+04;  0.0000000E+00; -3.1731763E-01;  4.0000000E+04;  0.0000000E+00;  3.9783727E+04;  4.1826224E+00;  0.0000000E+00;  3.0862567E-01;  9.2918584E+03;
  8.0578411E-01;  9.9999998E-03;  1.3043423E-01;7247;  3.3502299E-01;  0.0000000E+00;  4.0174585E-02;  1.0011586E+03;  1.2303498E-01;  9.5976654E+02;3;  8.8405828E+00;  0.0000000E+00; -2.6995018E+01;0;  4.5184398E+00;  2.6634461E+04;  0.0000000E+00; -3.4974158E-01;  4.0000000E+04;  0.0000000E+00;  3.9788062E+04;  4.2150645E+00;  0.0000000E+00;  3.0337533E-01;  8.7200801E+03;
  8.0568743E-01;  9.9999998E-03;  1.4047574E-01;7248;  3.5233897E-01;  0.0000000E+00;  4.5741104E-02;  1.0009286E+03;  1.2303530E-01;  7.6927490E+02;3;  2.2443768E+01;  0.0000000E+00; -2.5014267E+01;0;  4.5474982E+00;  2.6618947E+04;  0.0000000E+00; -3.8021785E-01;  4.0000000E+04;  0.0000000E+00;  3.9791656E+04;  4.2559290E+00;  0.0000000E+00;  2.9156911E-01;  8.2590518E+03;
  8.0559796E-01;  9.9999998E-03;  1.5051855E-01;7249;  3.7094140E-01;  0.0000000E+00;  5.1145941E-02;  1.0008011E+03;  1.2303494E-01;  6.6361078E+02;3;  3.6314831E+01;  0.0000000E+00; -2.2968548E+01;0;  4.5808768E+00;  2.6608795E+04;  0.0000000E+00; -4.0998977E-01;  4.0000000E+04;  0.0000000E+00;  3.9794906E+04;  4.3072515E+00;  0.0000000E+00;  2.7362558E-01;  7.8442949E+03;
  8.0554986E-01;  9.9999998E-03;  1.6056128E-01;7250;  3.9341769E-01;  0.0000000E+00;  5.7320766E-02;  1.0007819E+03;  1.2303427E-01;  6.4771185E+02;3;  5.0417885E+01;  0.0000000E+00; -2.1721092E+01;0;  4.6205020E+00;  2.6603951E+04;  0.0000000E+00; -4.3845233E-01;  4.0000000E+04;  0.0000000E+00;  3.9798422E+04;  4.3702044E+00;  0.0000000E+00;  2.5029734E-01;  7.4195640E+03;
  8.0555749E-01;  9.9999998E-03;  1.7060503E-01;7251;  4.2037985E-01;  0.0000000E+00;  6.3513592E-02;  1.0008622E+03;  1.2303326E-01;  7.1427039E+02;3;  6.5025787E+01;  0.0000000E+00; -2.3915903E+01;0;  4.6674242E+00;  2.6603725E+04;  0.0000000E+00; -4.6186259E-01;  4.0000000E+04;  0.0000000E+00;  3.9802176E+04;  4.4444084E+00;  0.0000000E+00;  2.2301584E-01;  6.9570234E+03;
  8.0561870E-01;  9.9999998E-03;  1.8064801E-01;7252;  4.5021129E-01;  0.0000000E+00;  6.7592099E-02;  1.0010137E+03;  1.2303192E-01;  8.3978363E+02;3;  7.9540749E+01;  0.0000000E+00; -2.7484850E+01;0;  4.7221465E+00;  2.6607057E+04;  0.0000000E+00; -4.7416314E-01;  4.0000000E+04;  0.0000000E+00;  3.9806246E+04;  4.5283551E+00;  0.0000000E+00;  1.9379130E-01;  6.4728950E+03;
  8.0572087E-01;  9.9999998E-03;  1.9068545E-01;7253;  4.8164198E-01;  0.0000000E+00;  6.9287300E-02;  1.0012109E+03;  1.2303071E-01;  1.0031186E+03;3;  9.3255104E+01;  0.0000000E+00; -2.9722151E+01;0;  4.7840848E+00;  2.6612684E+04;  0.0000000E+00; -4.6868861E-01;  4.0000000E+04;  0.0000000E+00;  3.9809977E+04;  4.6195612E+00;  0.0000000E+00;  1.6452356E-01;  6.0185093E+03;
  8.0586922E-01;  9.9999998E-03;  2.0070486E-01;7254;  5.1392931E-01;  0.0000000E+00;  6.9402300E-02;  1.0014252E+03;  1.2302935E-01;  1.1806737E+03;3;  1.0618427E+02;  0.0000000E+00; -3.0889994E+01;0;  4.8525681E+00;  2.6619201E+04;  0.0000000E+00; -4.3931869E-01;  4.0000000E+04;  0.0000000E+00;  3.9813586E+04;  4.7159271E+00;  0.0000000E+00;  1.3664100E-01;  5.5900312E+03;
  8.0604833E-01;  9.9999998E-03;  2.1072164E-01;7255;  5.4625261E-01;  0.0000000E+00;  6.8818830E-02;  1.0016254E+03;  1.2302870E-01;  1.3464772E+03;3;  1.1835804E+02;  0.0000000E+00; -3.1084036E+01;0;  4.9264579E+00;  2.6625301E+04;  0.0000000E+00; -3.8179260E-01;  4.0000000E+04;  0.0000000E+00;  3.9816414E+04;  4.8149409E+00;  0.0000000E+00;  1.1151718E-01;  5.2437036E+03;
  8.0623972E-01;  9.9999998E-03;  2.2074257E-01;7256;  5.7780200E-01;  0.0000000E+00;  6.8156272E-02;  1.0017802E+03;  1.2302864E-01;  1.4746561E+03;3;  1.2963031E+02;  0.0000000E+00; -3.0783461E+01;0;  5.0057864E+00;  2.6630047E+04;  0.0000000E+00; -2.9420510E-01;  4.0000000E+04;  0.0000000E+00;  3.9817402E+04;  4.9145021E+00;  0.0000000E+00;  9.1284171E-02;  5.1243818E+03;
  8.0642009E-01;  9.9999998E-03;  2.3076425E-01;7257;  6.0828757E-01;  0.0000000E+00;  6.7061484E-02;  1.0018557E+03;  1.2302886E-01;  1.5372642E+03;3;  1.4053275E+02;  0.0000000E+00; -3.1555929E+01;0;  5.0905395E+00;  2.6632793E+04;  0.0000000E+00; -1.7620690E-01;  4.0000000E+04;  0.0000000E+00;  3.9815469E+04;  5.0129490E+00;  0.0000000E+00;  7.7590622E-02;  5.3510928E+03;
  8.1759048E-01;  9.9999998E-03;  7.0436068E-02;7302;  3.2028270E-01;  0.0000000E+00;  1.9154167E-02;  1.0032332E+03;  1.2309792E-01;  2.6782822E+03;3; -3.6802784E+01;  0.0000000E+00; -3.3398537E+01;0;  5.2240038E+00;  2.6753469E+04;  0.0000000E+00; -9.6700490E-02;  4.0000000E+04;  0.0000000E+00;  3.9722172E+04;  5.0026555E+00;  0.0000000E+00;  2.2134827E-01;  1.7071238E+04;
  8.1775534E-01;  9.9999998E-03;  8.0458112E-02;7303;  3.2870889E-01;  0.0000000E+00;  1.9521423E-02;  1.0028763E+03;  1.2310079E-01;  2.3827244E+03;3; -2.9283211E+01;  0.0000000E+00; -3.5487728E+01;0;  5.2414026E+00;  2.6725656E+04;  0.0000000E+00; -1.4681943E-01;  4.0000000E+04;  0.0000000E+00;  3.9734492E+04;  4.9944925E+00;  0.0000000E+00;  2.4690986E-01;  1.5477346E+04;
  8.1792337E-01;  9.9999998E-03;  9.0462178E-02;7304;  3.3958501E-01;  0.0000000E+00;  2.0982627E-02;  1.0024925E+03;  1.2310333E-01;  2.0647505E+03;3; -2.0581682E+01;  0.0000000E+00; -3.6636398E+01;0;  5.2539911E+00;  2.6696316E+04;  0.0000000E+00; -2.0647050E-01;  4.0000000E+04;  0.0000000E+00;  3.9747137E+04;  4.9877830E+00;  0.0000000E+00;  2.6620832E-01;  1.3856787E+04;
  8.1807899E-01;  9.9999998E-03;  1.0044593E-01;7305;  3.5372761E-01;  0.0000000E+00;  2.4301080E-02;  1.0020957E+03;  1.2310571E-01;  1.7360133E+03;3; -1.0783186E+01;  0.0000000E+00; -3.6848671E+01;0;  5.2603860E+00;  2.6666461E+04;  0.0000000E+00; -2.7101472E-01;  4.0000000E+04;  0.0000000E+00;  3.9759098E+04;  4.9818263E+00;  0.0000000E+00;  2.7855954E-01;  1.2318413E+04;
  8.1807160E-01;  9.9999998E-03;  1.1045135E-01;7306;  3.6814284E-01;  0.0000000E+00;  2.9129609E-02;  1.0016879E+03;  1.2310746E-01;  1.3981918E+03;3; -1.4186826E-01;  0.0000000E+00; -3.6092396E+01;0;  5.2515492E+00;  2.6636969E+04;  0.0000000E+00; -3.3446467E-01;  4.0000000E+04;  0.0000000E+00;  3.9769922E+04;  4.9675999E+00;  0.0000000E+00;  2.8394920E-01;  1.0929335E+04;
  8.1799477E-01;  9.9999998E-03;  1.2047708E-01;7307;  3.8250309E-01;  0.0000000E+00;  3.4973886E-02;  1.0012917E+03;  1.2310861E-01;  1.0699492E+03;3;  1.1382905E+01;  0.0000000E+00; -3.4507061E+01;0;  5.2348180E+00;  2.6609027E+04;  0.0000000E+00; -3.9051321E-01;  4.0000000E+04;  0.0000000E+00;  3.9779180E+04;  4.9526448E+00;  0.0000000E+00;  2.8217301E-01;  9.7387344E+03;
  8.1793165E-01;  9.9999998E-03;  1.3051318E-01;7308;  3.9931121E-01;  0.0000000E+00;  4.1119564E-02;  1.0009291E+03;  1.2310953E-01;  7.6965253E+02;3;  2.3748672E+01;  0.0000000E+00; -3.2434799E+01;0;  5.2158360E+00;  2.6583703E+04;  0.0000000E+00; -4.3516159E-01;  4.0000000E+04;  0.0000000E+00;  3.9786879E+04;  4.9425411E+00;  0.0000000E+00;  2.7329510E-01;  8.7381768E+03;
  8.1788498E-01;  9.9999998E-03;  1.4055681E-01;7309;  4.1858301E-01;  0.0000000E+00;  4.6560213E-02;  1.0006223E+03;  1.2311018E-01;  5.1547168E+02;3;  3.6894478E+01;  0.0000000E+00; -3.1082724E+01;0;  5.1955647E+00;  2.6561936E+04;  0.0000000E+00; -4.6733117E-01;  4.0000000E+04;  0.0000000E+00;  3.9793594E+04;  4.9377460E+00;  0.0000000E+00;  2.5781861E-01;  7.8793110E+03;
  8.1783998E-01;  9.9999998E-03;  1.5060204E-01;7310;  4.3897864E-01;  0.0000000E+00;  5.0001498E-02;  1.0003868E+03;  1.2310991E-01;  3.2044174E+02;3;  5.0791100E+01;  0.0000000E+00; -3.1723337E+01;0;  5.1745114E+00;  2.6544223E+04;  0.0000000E+00; -4.8827884E-01;  4.0000000E+04;  0.0000000E+00;  3.9799738E+04;  4.9379535E+00;  0.0000000E+00;  2.3655818E-01;  7.1004238E+03;
  8.1779450E-01;  9.9999998E-03;  1.6064103E-01;7311;  4.6029714E-01;  0.0000000E+00;  5.1046748E-02;  1.0002322E+03;  1.2310916E-01;  1.9236380E+02;3;  6.5056740E+01;  0.0000000E+00; -3.3444790E+01;0;  5.1541696E+00;  2.6530611E+04;  0.0000000E+00; -4.9944010E-01;  4.0000000E+04;  0.0000000E+00;  3.9805633E+04;  4.9434199E+00;  0.0000000E+00;  2.1074982E-01;  6.3543833E+03;
  8.1775576E-01;  9.9999998E-03;  1.7067188E-01;7312;  4.8273307E-01;  0.0000000E+00;  5.1105477E-02;  1.0001538E+03;  1.2310765E-01;  1.2738673E+02;3;  7.9458694E+01;  0.0000000E+00; -3.4181061E+01;0;  5.1363907E+00;  2.6520891E+04;  0.0000000E+00; -4.9979728E-01;  4.0000000E+04;  0.0000000E+00;  3.9811492E+04;  4.9545302E+00;  0.0000000E+00;  1.8186030E-01;  5.6244521E+03;
  8.1772959E-01;  9.9999998E-03;  1.8069987E-01;7313;  5.0691235E-01;  0.0000000E+00;  5.0836030E-02;  1.0001346E+03;  1.2310629E-01;  1.1148808E+02;3;  9.3874725E+01;  0.0000000E+00; -3.4466896E+01;0;  5.1224546E+00;  2.6514373E+04;  0.0000000E+00; -4.8509863E-01;  4.0000000E+04;  0.0000000E+00;  3.9817074E+04;  4.9711628E+00;  0.0000000E+00;  1.5129170E-01;  4.9225845E+03;
  8.1773776E-01;  9.9999998E-03;  1.9072753E-01;7314;  5.3390521E-01;  0.0000000E+00;  5.0411697E-02;  1.0001533E+03;  1.2310460E-01;  1.2699174E+02;3;  1.0800645E+02;  0.0000000E+00; -3.4484310E+01;0;  5.1134906E+00;  2.6510076E+04;  0.0000000E+00; -4.4848233E-01;  4.0000000E+04;  0.0000000E+00;  3.9822238E+04;  4.9933100E+00;  0.0000000E+00;  1.2018044E-01;  4.2891426E+03;
  8.1781143E-01;  9.9999998E-03;  2.0074022E-01;7315;  5.6830209E-01;  0.0000000E+00;  5.0047290E-02;  1.0001882E+03;  1.2310341E-01;  1.5592528E+02;3;  1.2138654E+02;  0.0000000E+00; -3.4442539E+01;0;  5.1099234E+00;  2.6506865E+04;  0.0000000E+00; -3.8309750E-01;  4.0000000E+04;  0.0000000E+00;  3.9826770E+04;  5.0203671E+00;  0.0000000E+00;  8.9556232E-02;  3.7089824E+03;
  8.1792116E-01;  9.9999998E-03;  2.1074761E-01;7316;  6.0464466E-01;  0.0000000E+00;  4.9486905E-02;  1.0002178E+03;  1.2310246E-01;  1.8041510E+02;3;  1.3417613E+02;  0.0000000E+00; -3.4532612E+01;0;  5.1112781E+00;  2.6503637E+04;  0.0000000E+00; -2.8165188E-01;  4.0000000E+04;  0.0000000E+00;  3.9830945E+04;  5.0509372E+00;  0.0000000E+00;  6.0340907E-02;  3.1849729E+03;
  8.1802619E-01;  9.9999998E-03;  2.2075619E-01;7317;  6.4102536E-01;  0.0000000E+00;  4.8930019E-02;  1.0002243E+03;  1.2310138E-01;  1.8584625E+02;3;  1.4596948E+02;  0.0000000E+00; -3.3620049E+01;0;  5.1177549E+00;  2.6499812E+04;  0.0000000E+00; -1.3566341E-01;  4.0000000E+04;  0.0000000E+00;  3.9834109E+04;  5.0839310E+00;  0.0000000E+00;  3.3823866E-02;  2.7755408E+03;
  8.1805956E-01;  9.9999998E-03;  2.3077443E-01;7318;  6.7658156E-01;  0.0000000E+00;  4.8343632E-02;  1.0001757E+03;  1.2310115E-01;  1.4555653E+02;3;  1.5695729E+02;  0.0000000E+00; -3.3155602E+01;0;  5.1308842E+00;  2.6495379E+04;  0.0000000E+00;  6.3801289E-02;  4.0000000E+04;  0.0000000E+00;  3.9833898E+04;  5.1191468E+00;  0.0000000E+00;  1.1737235E-02;  2.8174644E+03;
  8.2923996E-01;  9.9999998E-03;  7.0437886E-02;7363;  4.2081735E-01;  0.0000000E+00;  1.1938021E-02;  1.0026141E+03;  1.2314552E-01;  2.1653223E+03;3; -1.4673905E+01;  0.0000000E+00; -3.8732105E+01;0;  6.0075812E+00;  2.6709633E+04;  0.0000000E+00; -7.2078861E-02;  4.0000000E+04;  0.0000000E+00;  3.9705066E+04;  5.8052521E+00;  0.0000000E+00;  2.0232937E-01;  1.9048943E+04;
  8.2939517E-01;  9.9999998E-03;  8.0481783E-02;7364;  4.2662540E-01;  0.0000000E+00;  1.4678605E-02;  1.0023771E+03;  1.2314695E-01;  1.9691115E+03;3; -9.0148659E+00;  0.0000000E+00; -4.1167473E+01;0;  5.9991550E+00;  2.6686779E+04;  0.0000000E+00; -1.2950249E-01;  4.0000000E+04;  0.0000000E+00;  3.9719637E+04;  5.7726674E+00;  0.0000000E+00;  2.2648764E-01;  1.7189869E+04;
  8.2956707E-01;  9.9999998E-03;  9.0505332E-02;7365;  4.3487421E-01;  0.0000000E+00;  1.5357413E-02;  1.0021009E+03;  1.2314828E-01;  1.7403141E+03;3; -2.2241261E+00;  0.0000000E+00; -4.2463280E+01;0;  5.9817748E+00;  2.6661213E+04;  0.0000000E+00; -2.0187141E-01;  4.0000000E+04;  0.0000000E+00;  3.9734984E+04;  5.7382274E+00;  0.0000000E+00;  2.4354741E-01;  1.5229578E+04;
  8.2975334E-01;  9.9999998E-03;  1.0051579E-01;7366;  4.4641793E-01;  0.0000000E+00;  1.7952809E-02;  1.0017806E+03;  1.2314939E-01;  1.4749808E+03;3;  5.6896224E+00;  0.0000000E+00; -4.2611332E+01;0;  5.9548368E+00;  2.6633375E+04;  0.0000000E+00; -2.8292626E-01;  4.0000000E+04;  0.0000000E+00;  3.9750156E+04;  5.7018156E+00;  0.0000000E+00;  2.5302106E-01;  1.3296416E+04;
  8.2992637E-01;  9.9999998E-03;  1.1051152E-01;7367;  4.5996001E-01;  0.0000000E+00;  2.1932507E-02;  1.0014225E+03;  1.2315055E-01;  1.1783450E+03;3;  1.4632188E+01;  0.0000000E+00; -4.1660358E+01;0;  5.9166369E+00;  2.6604131E+04;  0.0000000E+00; -3.6336029E-01;  4.0000000E+04;  0.0000000E+00;  3.9764441E+04;  5.6618195E+00;  0.0000000E+00;  2.5481737E-01;  1.1492297E+04;
  8.3005244E-01;  9.9999998E-03;  1.2051565E-01;7368;  4.7322193E-01;  0.0000000E+00;  2.6399365E-02;  1.0010388E+03;  1.2315144E-01;  8.6047888E+02;3;  2.4516365E+01;  0.0000000E+00; -3.9890003E+01;0;  5.8657751E+00;  2.6574332E+04;  0.0000000E+00; -4.3309763E-01;  4.0000000E+04;  0.0000000E+00;  3.9777105E+04;  5.6165466E+00;  0.0000000E+00;  2.4922851E-01;  9.8752510E+03;
  8.3011782E-01;  9.9999998E-03;  1.3052942E-01;7369;  4.8718211E-01;  0.0000000E+00;  3.0106600E-02;  1.0006445E+03;  1.2315199E-01;  5.3392340E+02;3;  3.5302826E+01;  0.0000000E+00; -3.8314678E+01;0;  5.8027306E+00;  2.6545008E+04;  0.0000000E+00; -4.8392633E-01;  4.0000000E+04;  0.0000000E+00;  3.9788270E+04;  5.5659041E+00;  0.0000000E+00;  2.3682655E-01;  8.4549746E+03;
  8.3008915E-01;  9.9999998E-03;  1.4055869E-01;7370;  5.0391650E-01;  0.0000000E+00;  3.2295246E-02;  1.0002615E+03;  1.2315214E-01;  2.1665028E+02;3;  4.6911469E+01;  0.0000000E+00; -3.7879147E+01;0;  5.7280354E+00;  2.6517168E+04;  0.0000000E+00; -5.1183385E-01;  4.0000000E+04;  0.0000000E+00;  3.9798137E+04;  5.5094929E+00;  0.0000000E+00;  2.1854277E-01;  7.2027915E+03;
  8.3000731E-01;  9.9999998E-03;  1.5060094E-01;7371;  5.2366036E-01;  0.0000000E+00;  3.3270374E-02;  9.9991071E+02;  1.2315165E-01; -7.3961296E+01;3;  5.9245270E+01;  0.0000000E+00; -3.8140755E+01;0;  5.6458631E+00;  2.6491457E+04;  0.0000000E+00; -5.1744390E-01;  4.0000000E+04;  0.0000000E+00;  3.9806863E+04;  5.4505763E+00;  0.0000000E+00;  1.9528663E-01;  6.0698354E+03;
  8.2991892E-01;  9.9999998E-03;  1.6063565E-01;7372;  5.4561311E-01;  0.0000000E+00;  3.3576518E-02;  9.9960101E+02;  1.2315089E-01; -3.3050537E+02;3;  7.2147713E+01;  0.0000000E+00; -3.8433449E+01;0;  5.5605030E+00;  2.6468344E+04;  0.0000000E+00; -5.0408518E-01;  4.0000000E+04;  0.0000000E+00;  3.9815219E+04;  5.3922701E+00;  0.0000000E+00;  1.6823287E-01;  5.0126138E+03;
  8.2984215E-01;  9.9999998E-03;  1.7066105E-01;7373;  5.6926489E-01;  0.0000000E+00;  3.3509377E-02;  9.9933539E+02;  1.2314986E-01; -5.5051318E+02;3;  8.5422569E+01;  0.0000000E+00; -3.8510567E+01;0;  5.4746881E+00;  2.6447686E+04;  0.0000000E+00; -4.7412887E-01;  4.0000000E+04;  0.0000000E+00;  3.9823102E+04;  5.3359876E+00;  0.0000000E+00;  1.3870056E-01;  4.0100791E+03;
  8.2947397E-01;  9.9999998E-03;  2.3078948E-01;7379;  7.3977000E-01;  0.0000000E+00;  2.9626912E-02;  9.9809088E+02;  1.2314718E-01; -1.5814309E+03;3;  1.6073083E+02;  0.0000000E+00; -3.4919708E+01;0;  5.0299139E+00;  2.6355229E+04;  0.0000000E+00;  2.8832963E-01;  4.0000000E+04;  0.0000000E+00;  3.9849285E+04;  5.0790291E+00;  0.0000000E+00; -4.9115118E-02;  9.1116986E+02;
  8.2979345E-01;  9.9999998E-03;  1.8068299E-01;7374;  5.9441006E-01;  0.0000000E+00;  3.3147123E-02;  9.9910767E+02;  1.2314911E-01; -7.3916907E+02;3;  9.8883568E+01;  0.0000000E+00; -3.8413578E+01;0;  5.3904486E+00;  2.6429150E+04;  0.0000000E+00; -4.2719167E-01;  4.0000000E+04;  0.0000000E+00;  3.9830543E+04;  5.2826629E+00;  0.0000000E+00;  1.0778552E-01;  3.0581477E+03;
  8.2976294E-01;  9.9999998E-03;  1.9070621E-01;7375;  6.2073350E-01;  0.0000000E+00;  3.2575916E-02;  9.9890662E+02;  1.2314804E-01; -9.0570551E+02;3;  1.1229203E+02;  0.0000000E+00; -3.8101532E+01;0;  5.3087697E+00;  2.6412307E+04;  0.0000000E+00; -3.5934541E-01;  4.0000000E+04;  0.0000000E+00;  3.9837473E+04;  5.2324786E+00;  0.0000000E+00;  7.6290980E-02;  2.1770408E+03;
  8.2955176E-01;  9.9999998E-03;  2.2075413E-01;7378;  7.0610434E-01;  0.0000000E+00;  3.0455517E-02;  9.9836749E+02;  1.2314637E-01; -1.3522886E+03;3;  1.4994366E+02;  0.0000000E+00; -3.5840668E+01;0;  5.0897174E+00;  2.6369180E+04;  0.0000000E+00;  5.7411540E-02;  4.0000000E+04;  0.0000000E+00;  3.9852430E+04;  5.1077843E+00;  0.0000000E+00; -1.8066980E-02;  3.4383298E+02;
  8.2972103E-01;  9.9999998E-03;  2.0071901E-01;7376;  6.4790177E-01;  0.0000000E+00;  3.1835224E-02;  9.9872607E+02;  1.2314731E-01; -1.0552576E+03;3;  1.2551632E+02;  0.0000000E+00; -3.7802673E+01;0;  5.2305012E+00;  2.6396973E+04;  0.0000000E+00; -2.6296875E-01;  4.0000000E+04;  0.0000000E+00;  3.9843801E+04;  5.1857986E+00;  0.0000000E+00;  4.4702705E-02;  1.3511531E+03;
  8.2964641E-01;  9.9999998E-03;  2.1073101E-01;7377;  6.7611086E-01;  0.0000000E+00;  3.1035280E-02;  9.9855859E+02;  1.2314664E-01; -1.1939971E+03;3;  1.3820624E+02;  0.0000000E+00; -3.6929832E+01;0;  5.1568398E+00;  2.6382785E+04;  0.0000000E+00; -1.2728833E-01;  4.0000000E+04;  0.0000000E+00;  3.9849434E+04;  5.1437302E+00;  0.0000000E+00;  1.3109822E-02;  6.0868262E+02;
  8.4114063E-01;  9.9999998E-03;  7.0438914E-02;7424;  5.3976977E-01;  0.0000000E+00;  2.3336364E-03;  1.0018292E+03;  1.2317854E-01;  1.5151254E+03;3;  6.4474254E+00;  0.0000000E+00; -4.2272213E+01;0;  6.6501431E+00;  2.6664340E+04;  0.0000000E+00; -6.2605247E-02;  4.0000000E+04;  0.0000000E+00;  3.9692652E+04;  6.4714088E+00;  0.0000000E+00;  1.7873426E-01;  2.0428240E+04;
  8.4128934E-01;  9.9999998E-03;  8.0506250E-02;7425;  5.4285157E-01;  0.0000000E+00;  8.7909149E-03;  1.0017244E+03;  1.2317836E-01;  1.4283290E+03;3;  1.0096622E+01;  0.0000000E+00; -4.5577564E+01;0;  6.6158628E+00;  2.6647459E+04;  0.0000000E+00; -1.1997464E-01;  4.0000000E+04;  0.0000000E+00;  3.9708773E+04;  6.4146981E+00;  0.0000000E+00;  2.0116477E-01;  1.8389807E+04;
  8.4145290E-01;  9.9999998E-03;  9.0546653E-02;7426;  5.4848742E-01;  0.0000000E+00;  9.4115138E-03;  1.0015649E+03;  1.2317794E-01;  1.2962092E+03;3;  1.4696258E+01;  0.0000000E+00; -4.6987728E+01;0;  6.5675159E+00;  2.6626721E+04;  0.0000000E+00; -1.9391806E-01;  4.0000000E+04;  0.0000000E+00;  3.9726262E+04;  6.3516121E+00;  0.0000000E+00;  2.1590379E-01;  1.6171701E+04;
  8.4162229E-01;  9.9999998E-03;  1.0057449E-01;7427;  5.5725157E-01;  0.0000000E+00;  1.1320686E-02;  1.0013423E+03;  1.2317789E-01;  1.1118541E+03;3;  2.0278025E+01;  0.0000000E+00; -4.7080914E+01;0;  6.5041976E+00;  2.6602135E+04;  0.0000000E+00; -2.7756527E-01;  4.0000000E+04;  0.0000000E+00;  3.9744133E+04;  6.2815633E+00;  0.0000000E+00;  2.2263443E-01;  1.3913393E+04;
  8.4177029E-01;  9.9999998E-03;  1.1058247E-01;7428;  5.6834972E-01;  0.0000000E+00;  1.4319027E-02;  1.0010499E+03;  1.2317728E-01;  8.6963544E+02;3;  2.6812138E+01;  0.0000000E+00; -4.6052502E+01;0;  6.4248762E+00;  2.6574293E+04;  0.0000000E+00; -3.6048695E-01;  4.0000000E+04;  0.0000000E+00;  3.9761242E+04;  6.2033138E+00;  0.0000000E+00;  2.2156259E-01;  1.1741479E+04;
  8.4187925E-01;  9.9999998E-03;  1.2058744E-01;7429;  5.7985270E-01;  0.0000000E+00;  1.7276669E-02;  1.0006922E+03;  1.2317703E-01;  5.7340430E+02;3;  3.4295860E+01;  0.0000000E+00; -4.4642765E+01;0;  6.3292351E+00;  2.6543775E+04;  0.0000000E+00; -4.3080905E-01;  4.0000000E+04;  0.0000000E+00;  3.9777035E+04;  6.1160078E+00;  0.0000000E+00;  2.1322717E-01;  9.7419238E+03;
  8.4194452E-01;  9.9999998E-03;  1.3059597E-01;7430;  5.9143394E-01;  0.0000000E+00;  1.9247632E-02;  1.0002798E+03;  1.2317692E-01;  2.3184999E+02;3;  4.2721916E+01;  0.0000000E+00; -4.3853752E+01;0;  6.2182765E+00;  2.6511408E+04;  0.0000000E+00; -4.7836852E-01;  4.0000000E+04;  0.0000000E+00;  3.9791223E+04;  6.0198569E+00;  0.0000000E+00;  1.9841969E-01;  7.9481377E+03;
  8.4198779E-01;  9.9999998E-03;  1.4060713E-01;7431;  6.0444909E-01;  0.0000000E+00;  2.0115593E-02;  9.9982605E+02;  1.2317660E-01; -1.4406691E+02;3;  5.2037086E+01;  0.0000000E+00; -4.3771736E+01;0;  6.0943565E+00;  2.6477889E+04;  0.0000000E+00; -4.9727002E-01;  4.0000000E+04;  0.0000000E+00;  3.9803871E+04;  5.9162579E+00;  0.0000000E+00;  1.7809844E-01;  6.3472251E+03;
  8.4199828E-01;  9.9999998E-03;  1.5062203E-01;7432;  6.2084848E-01;  0.0000000E+00;  2.0331722E-02;  9.9935046E+02;  1.2317634E-01; -5.3800446E+02;3;  6.2117359E+01;  0.0000000E+00; -4.3791237E+01;0;  5.9594264E+00;  2.6444020E+04;  0.0000000E+00; -4.8719081E-01;  4.0000000E+04;  0.0000000E+00;  3.9815191E+04;  5.8059402E+00;  0.0000000E+00;  1.5348615E-01;  4.8982891E+03;
  8.4197938E-01;  9.9999998E-03;  1.6063748E-01;7433;  6.4097279E-01;  0.0000000E+00;  2.0211611E-02;  9.9886926E+02;  1.2317602E-01; -9.3663245E+02;3;  7.2854912E+01;  0.0000000E+00; -4.3749500E+01;0;  5.8163471E+00;  2.6410516E+04;  0.0000000E+00; -4.5220426E-01;  4.0000000E+04;  0.0000000E+00;  3.9825668E+04;  5.6904235E+00;  0.0000000E+00;  1.2592362E-01;  3.5657083E+03;
  8.4193456E-01;  9.9999998E-03;  1.7065409E-01;7434;  6.6349226E-01;  0.0000000E+00;  1.9890524E-02;  9.9839227E+02;  1.2317562E-01; -1.3317057E+03;3;  8.4011993E+01;  0.0000000E+00; -4.3262741E+01;0;  5.6681318E+00;  2.6377729E+04;  0.0000000E+00; -3.9747187E-01;  4.0000000E+04;  0.0000000E+00;  3.9835242E+04;  5.5714402E+00;  0.0000000E+00;  9.6691370E-02;  2.3314819E+03;
  8.4186691E-01;  9.9999998E-03;  1.8067488E-01;7435;  6.8742555E-01;  0.0000000E+00;  1.9355373E-02;  9.9792566E+02;  1.2317584E-01; -1.7182379E+03;3;  9.5599861E+01;  0.0000000E+00; -4.3014584E+01;0;  5.5177488E+00;  2.6346006E+04;  0.0000000E+00; -3.2665381E-01;  4.0000000E+04;  0.0000000E+00;  3.9844164E+04;  5.4510245E+00;  0.0000000E+00;  6.6724308E-02;  1.2047721E+03;
  8.4177643E-01;  9.9999998E-03;  1.9070235E-01;7436;  7.1214271E-01;  0.0000000E+00;  1.8639525E-02;  9.9747095E+02;  1.2317584E-01; -2.0948467E+03;3;  1.0719938E+02;  0.0000000E+00; -4.2078735E+01;0;  5.3678875E+00;  2.6315518E+04;  0.0000000E+00; -2.3933125E-01;  4.0000000E+04;  0.0000000E+00;  3.9852148E+04;  5.3314290E+00;  0.0000000E+00;  3.6458667E-02;  3.7938486E+02;
  8.4166849E-01;  9.9999998E-03;  2.0072457E-01;7437;  7.3725975E-01;  0.0000000E+00;  1.7759943E-02;  9.9702509E+02;  1.2317649E-01; -2.4641980E+03;3;  1.1879399E+02;  0.0000000E+00; -4.1422207E+01;0;  5.2210608E+00;  2.6286271E+04;  0.0000000E+00; -1.2997480E-01;  4.0000000E+04;  0.0000000E+00;  3.9859133E+04;  5.2152243E+00;  0.0000000E+00;  5.8366614E-03;  8.6182355E+02;
  8.4155220E-01;  9.9999998E-03;  2.1073717E-01;7438;  7.6267058E-01;  0.0000000E+00;  1.6781965E-02;  9.9658929E+02;  1.2317719E-01; -2.8251567E+03;3;  1.2989784E+02;  0.0000000E+00; -3.9710945E+01;0;  5.0791059E+00;  2.6258223E+04;  0.0000000E+00;  9.9297166E-03;  4.0000000E+04;  0.0000000E+00;  3.9864934E+04;  5.1047544E+00;  0.0000000E+00; -2.5648592E-02;  1.6220442E+03;
  8.4142393E-01;  9.9999998E-03;  2.2075769E-01;7439;  7.8833121E-01;  0.0000000E+00;  1.5862007E-02;  9.9613965E+02;  1.2317847E-01; -3.1976191E+03;3;  1.4036436E+02;  0.0000000E+00; -3.8387024E+01;0;  4.9434829E+00;  2.6231232E+04;  0.0000000E+00;  1.8688060E-01;  4.0000000E+04;  0.0000000E+00;  3.9868469E+04;  5.0019107E+00;  0.0000000E+00; -5.8427706E-02;  2.1180291E+03;
  8.4129387E-01;  9.9999998E-03;  2.3079388E-01;7440;  8.1527352E-01;  0.0000000E+00;  1.4325631E-02;  9.9561292E+02;  1.2318074E-01; -3.6339199E+03;3;  1.5027657E+02;  0.0000000E+00; -3.6920494E+01;0;  4.8136706E+00;  2.6204848E+04;  0.0000000E+00;  3.9351010E-01;  4.0000000E+04;  0.0000000E+00;  3.9865035E+04;  4.9084449E+00;  0.0000000E+00; -9.4774038E-02;  1.8596558E+03;
  8.5325134E-01;  9.9999998E-03;  7.0423253E-02;7485;  6.6684449E-01;  0.0000000E+00; -5.3885472E-03;  1.0010250E+03;  1.2319326E-01;  8.4906610E+02;3;  2.5241301E+01;  0.0000000E+00; -4.1556953E+01;0;  7.0770893E+00;  2.6624568E+04;  0.0000000E+00; -5.6704625E-02;  4.0000000E+04;  0.0000000E+00;  3.9686160E+04;  6.9256735E+00;  0.0000000E+00;  1.5141565E-01;  2.1062602E+04;
  8.5337377E-01;  9.9999998E-03;  8.0499917E-02;7486;  6.6765559E-01;  0.0000000E+00;  3.2380272E-03;  1.0010311E+03;  1.2319167E-01;  8.5410144E+02;3;  2.6863207E+01;  0.0000000E+00; -4.7732849E+01;0;  7.0204377E+00;  2.6612988E+04;  0.0000000E+00; -1.0525709E-01;  4.0000000E+04;  0.0000000E+00;  3.9702926E+04;  6.8484516E+00;  0.0000000E+00;  1.7198631E-01;  1.8950596E+04;
  8.5353750E-01;  9.9999998E-03;  9.0552792E-02;7487;  6.7126870E-01;  0.0000000E+00;  5.1517845E-03;  1.0009718E+03;  1.2318987E-01;  8.0492847E+02;3;  2.9201771E+01;  0.0000000E+00; -4.9494045E+01;0;  6.9458904E+00;  2.6596668E+04;  0.0000000E+00; -1.6775504E-01;  4.0000000E+04;  0.0000000E+00;  3.9721645E+04;  6.7613463E+00;  0.0000000E+00;  1.8454409E-01;  1.6588773E+04;
  8.5372323E-01;  9.9999998E-03;  1.0058745E-01;7488;  6.7788684E-01;  0.0000000E+00;  6.5794834E-03;  1.0008310E+03;  1.2318800E-01;  6.8831604E+02;3;  3.2296993E+01;  0.0000000E+00; -4.9719070E+01;0;  6.8523393E+00;  2.6575270E+04;  0.0000000E+00; -2.3827708E-01;  4.0000000E+04;  0.0000000E+00;  3.9741203E+04;  6.6634464E+00;  0.0000000E+00;  1.8889275E-01;  1.4121260E+04;
  8.5390610E-01;  9.9999998E-03;  1.1059773E-01;7489;  6.8703121E-01;  0.0000000E+00;  8.8356398E-03;  1.0005922E+03;  1.2318651E-01;  4.9053970E+02;3;  3.6168255E+01;  0.0000000E+00; -4.8946316E+01;0;  6.7393451E+00;  2.6548824E+04;  0.0000000E+00; -3.0760607E-01;  4.0000000E+04;  0.0000000E+00;  3.9760496E+04;  6.5538678E+00;  0.0000000E+00;  1.8547742E-01;  1.1691082E+04;
  8.5406637E-01;  9.9999998E-03;  1.2060563E-01;7490;  6.9710338E-01;  0.0000000E+00;  1.0900760E-02;  1.0002538E+03;  1.2318535E-01;  2.1021707E+02;3;  4.0839977E+01;  0.0000000E+00; -4.8017792E+01;0;  6.6067252E+00;  2.6517744E+04;  0.0000000E+00; -3.6513329E-01;  4.0000000E+04;  0.0000000E+00;  3.9778520E+04;  6.4316483E+00;  0.0000000E+00;  1.7507692E-01;  9.4035381E+03;
  8.5418719E-01;  9.9999998E-03;  1.3061738E-01;7491;  7.0738256E-01;  0.0000000E+00;  1.2136595E-02;  9.9981439E+02;  1.2318414E-01; -1.5373784E+02;3;  4.6315578E+01;  0.0000000E+00; -4.7566345E+01;0;  6.4552536E+00;  2.6482451E+04;  0.0000000E+00; -4.0162453E-01;  4.0000000E+04;  0.0000000E+00;  3.9795016E+04;  6.2965550E+00;  0.0000000E+00;  1.5869834E-01;  7.3123262E+03;
  8.5426188E-01;  9.9999998E-03;  1.4063022E-01;7492;  7.1825534E-01;  0.0000000E+00;  1.2596064E-02;  9.9928986E+02;  1.2318336E-01; -5.8819269E+02;3;  5.2590355E+01;  0.0000000E+00; -4.7506321E+01;0;  6.2867274E+00;  2.6443826E+04;  0.0000000E+00; -4.1145512E-01;  4.0000000E+04;  0.0000000E+00;  3.9809914E+04;  6.1491971E+00;  0.0000000E+00;  1.3753046E-01;  5.4248301E+03;
  8.5428643E-01;  9.9999998E-03;  1.5064254E-01;7493;  7.3014903E-01;  0.0000000E+00;  1.2574208E-02;  9.9869672E+02;  1.2318292E-01; -1.0794723E+03;3;  5.9645191E+01;  0.0000000E+00; -4.7506092E+01;0;  6.1035237E+00;  2.6402570E+04;  0.0000000E+00; -3.9374629E-01;  4.0000000E+04;  0.0000000E+00;  3.9823324E+04;  5.9906392E+00;  0.0000000E+00;  1.1288474E-01;  3.7194104E+03;
  8.5427427E-01;  9.9999998E-03;  1.6065377E-01;7494;  7.4422121E-01;  0.0000000E+00;  1.2251830E-02;  9.9805103E+02;  1.2318268E-01; -1.6142960E+03;3;  6.7360306E+01;  0.0000000E+00; -4.7212193E+01;0;  5.9088464E+00;  2.6359369E+04;  0.0000000E+00; -3.5207906E-01;  4.0000000E+04;  0.0000000E+00;  3.9835480E+04;  5.8227401E+00;  0.0000000E+00;  8.6106442E-02;  2.1792688E+03;
  8.5424346E-01;  9.9999998E-03;  1.7066535E-01;7495;  7.6145440E-01;  0.0000000E+00;  1.1720507E-02;  9.9736469E+02;  1.2318327E-01; -2.1827903E+03;3;  7.5669830E+01;  0.0000000E+00; -4.6965141E+01;0;  5.7062945E+00;  2.6315020E+04;  0.0000000E+00; -2.9227597E-01;  4.0000000E+04;  0.0000000E+00;  3.9846484E+04;  5.6479025E+00;  0.0000000E+00;  5.8392085E-02;  8.5667157E+02;
  8.5420591E-01;  9.9999998E-03;  1.8068062E-01;7496;  7.8202945E-01;  0.0000000E+00;  1.1006920E-02;  9.9665363E+02;  1.2318414E-01; -2.7717734E+03;3;  8.4226662E+01;  0.0000000E+00; -4.6164211E+01;0;  5.4994135E+00;  2.6269955E+04;  0.0000000E+00; -2.1920198E-01;  4.0000000E+04;  0.0000000E+00;  3.9856547E+04;  5.4688616E+00;  0.0000000E+00;  3.0551909E-02;  8.1797205E+02;
  8.5415822E-01;  9.9999998E-03;  1.9070147E-01;7497;  8.0392474E-01;  0.0000000E+00;  1.0135737E-02;  9.9592474E+02;  1.2318558E-01; -3.3754690E+03;3;  9.2959938E+01;  0.0000000E+00; -4.5310596E+01;0;  5.2914166E+00;  2.6224926E+04;  0.0000000E+00; -1.3447826E-01;  4.0000000E+04;  0.0000000E+00;  3.9865461E+04;  5.2885041E+00;  0.0000000E+00;  2.9126857E-03;  1.8787351E+03;
  8.5409480E-01;  9.9999998E-03;  2.0072192E-01;7498;  8.2625896E-01;  0.0000000E+00;  9.0368018E-03;  9.9518927E+02;  1.2318773E-01; -3.9846943E+03;3;  1.0169452E+02;  0.0000000E+00; -4.4250168E+01;0;  5.0855284E+00;  2.6180549E+04;  0.0000000E+00; -3.5609432E-02;  4.0000000E+04;  0.0000000E+00;  3.9872973E+04;  5.1102991E+00;  0.0000000E+00; -2.4770791E-02;  2.8574082E+03;
  8.5401553E-01;  9.9999998E-03;  2.1072951E-01;7499;  8.4835482E-01;  0.0000000E+00;  7.9248305E-03;  9.9446039E+02;  1.2319024E-01; -4.5883911E+03;3;  1.1008787E+02;  0.0000000E+00; -4.2666431E+01;0;  4.8846793E+00;  2.6137252E+04;  0.0000000E+00;  8.2102656E-02;  4.0000000E+04;  0.0000000E+00;  3.9879793E+04;  4.9377093E+00;  0.0000000E+00; -5.3030159E-02;  3.7605757E+03;
  8.5392684E-01;  9.9999998E-03;  2.2074248E-01;7500;  8.6997253E-01;  0.0000000E+00;  6.7050317E-03;  9.9372876E+02;  1.2319335E-01; -5.1944077E+03;3;  1.1785618E+02;  0.0000000E+00; -4.0909863E+01;0;  4.6903062E+00;  2.6095172E+04;  0.0000000E+00;  2.2091140E-01;  4.0000000E+04;  0.0000000E+00;  3.9884672E+04;  4.7731743E+00;  0.0000000E+00; -8.2868055E-02;  4.4430986E+03;
  8.5381293E-01;  9.9999998E-03;  2.3077193E-01;7501;  8.9134282E-01;  0.0000000E+00;  4.8227436E-03;  9.9294800E+02;  1.2319724E-01; -5.8411069E+03;3;  1.2520490E+02;  0.0000000E+00; -3.9091507E+01;0;  4.5023541E+00;  2.6054562E+04;  0.0000000E+00;  3.7149760E-01;  4.0000000E+04;  0.0000000E+00;  3.9883676E+04;  4.6193690E+00;  0.0000000E+00; -1.1701500E-01;  4.3976255E+03;
  8.6574066E-01;  9.9999998E-03;  7.0375644E-02;7546;  7.9510611E-01;  0.0000000E+00; -9.1159074E-03;  1.0003530E+03;  1.2316803E-01;  2.9235568E+02;3;  4.1684696E+01;  0.0000000E+00; -3.8445595E+01;0;  7.2379560E+00;  2.6606783E+04;  0.0000000E+00; -3.0316027E-02;  4.0000000E+04;  0.0000000E+00;  3.9686480E+04;  7.1170335E+00;  0.0000000E+00;  1.2092241E-01;  2.0851893E+04;
  8.6586952E-01;  9.9999998E-03;  8.0467120E-02;7547;  7.9481530E-01;  0.0000000E+00; -4.7050868E-05;  1.0004184E+03;  1.2316505E-01;  3.4656125E+02;3;  4.1338833E+01;  0.0000000E+00; -4.7444328E+01;0;  7.1665072E+00;  2.6598406E+04;  0.0000000E+00; -6.2075078E-02;  4.0000000E+04;  0.0000000E+00;  3.9703098E+04;  7.0269790E+00;  0.0000000E+00;  1.3952833E-01;  1.8778020E+04;
  8.6601615E-01;  9.9999998E-03;  9.0539686E-02;7548;  7.9666150E-01;  0.0000000E+00;  3.4165138E-03;  1.0004170E+03;  1.2316175E-01;  3.4537622E+02;3;  4.1380791E+01;  0.0000000E+00; -4.9682911E+01;0;  7.0730634E+00;  2.6584832E+04;  0.0000000E+00; -1.0350402E-01;  4.0000000E+04;  0.0000000E+00;  3.9721906E+04;  6.9228148E+00;  0.0000000E+00;  1.5024865E-01;  1.6398504E+04;
  8.6617368E-01;  9.9999998E-03;  1.0058039E-01;7549;  8.0093807E-01;  0.0000000E+00;  4.4739931E-03;  1.0003229E+03;  1.2315897E-01;  2.6737515E+02;3;  4.1848248E+01;  0.0000000E+00; -5.0114433E+01;0;  6.9572406E+00;  2.6565430E+04;  0.0000000E+00; -1.5075091E-01;  4.0000000E+04;  0.0000000E+00;  3.9742066E+04;  6.8042111E+00;  0.0000000E+00;  1.5302932E-01;  1.3860233E+04;
  8.6633110E-01;  9.9999998E-03;  1.1059443E-01;7550;  8.0739880E-01;  0.0000000E+00;  6.1253118E-03;  1.0001121E+03;  1.2315608E-01;  9.2811104E+01;3;  4.2798401E+01;  0.0000000E+00; -4.9674122E+01;0;  6.8191633E+00;  2.6539770E+04;  0.0000000E+00; -1.9761533E-01;  4.0000000E+04;  0.0000000E+00;  3.9762355E+04;  6.6707377E+00;  0.0000000E+00;  1.4842550E-01;  1.1313284E+04;
  8.6647278E-01;  9.9999998E-03;  1.2060592E-01;7551;  8.1457114E-01;  0.0000000E+00;  7.5796014E-03;  9.9977325E+02;  1.2315369E-01; -1.8779427E+02;3;  4.4282539E+01;  0.0000000E+00; -4.9133465E+01;0;  6.6590919E+00;  2.6507947E+04;  0.0000000E+00; -2.3690920E-01;  4.0000000E+04;  0.0000000E+00;  3.9781605E+04;  6.5217447E+00;  0.0000000E+00;  1.3734713E-01;  8.8736367E+03;
  8.6659056E-01;  9.9999998E-03;  1.3061973E-01;7552;  8.2209861E-01;  0.0000000E+00;  8.3888127E-03;  9.9930585E+02;  1.2315214E-01; -5.7493451E+02;3;  4.6330902E+01;  0.0000000E+00; -4.8875359E+01;0;  6.4781122E+00;  2.6470160E+04;  0.0000000E+00; -2.6221830E-01;  4.0000000E+04;  0.0000000E+00;  3.9799387E+04;  6.3572526E+00;  0.0000000E+00;  1.2085982E-01;  6.6090127E+03;
  8.6667848E-01;  9.9999998E-03;  1.4063443E-01;7553;  8.3017749E-01;  0.0000000E+00;  8.6203758E-03;  9.9871411E+02;  1.2315120E-01; -1.0650552E+03;3;  4.8981350E+01;  0.0000000E+00; -4.8774986E+01;0;  6.2779708E+00;  2.6427074E+04;  0.0000000E+00; -2.6933977E-01;  4.0000000E+04;  0.0000000E+00;  3.9815582E+04;  6.1777763E+00;  0.0000000E+00;  1.0019451E-01;  4.5418027E+03;
  8.6673349E-01;  9.9999998E-03;  1.5064734E-01;7554;  8.3890378E-01;  0.0000000E+00;  8.4480206E-03;  9.9801501E+02;  1.2315065E-01; -1.6440867E+03;3;  5.2267555E+01;  0.0000000E+00; -4.8641384E+01;0;  6.0609574E+00;  2.6379432E+04;  0.0000000E+00; -2.5707853E-01;  4.0000000E+04;  0.0000000E+00;  3.9830324E+04;  5.9842625E+00;  0.0000000E+00;  7.6694906E-02;  2.6674028E+03;
  8.6675948E-01;  9.9999998E-03;  1.6065763E-01;7555;  8.4866768E-01;  0.0000000E+00;  7.9852575E-03;  9.9722614E+02;  1.2315060E-01; -2.2974656E+03;3;  5.6135468E+01;  0.0000000E+00; -4.8197395E+01;0;  5.8299532E+00;  2.6328020E+04;  0.0000000E+00; -2.2733615E-01;  4.0000000E+04;  0.0000000E+00;  3.9843598E+04;  5.7782035E+00;  0.0000000E+00;  5.1749859E-02;  1.0186111E+03;
  8.6676663E-01;  9.9999998E-03;  1.7066690E-01;7556;  8.6021477E-01;  0.0000000E+00;  7.2736330E-03;  9.9636505E+02;  1.2315217E-01; -3.0106287E+03;3;  6.0607746E+01;  0.0000000E+00; -4.7953159E+01;0;  5.5884733E+00;  2.6273920E+04;  0.0000000E+00; -1.8403426E-01;  4.0000000E+04;  0.0000000E+00;  3.9855609E+04;  5.5619159E+00;  0.0000000E+00;  2.6557513E-02;  8.2718774E+02;
  8.6676085E-01;  9.9999998E-03;  1.8067740E-01;7557;  8.7334770E-01;  0.0000000E+00;  6.3361372E-03;  9.9545129E+02;  1.2315381E-01; -3.7674822E+03;3;  6.5401337E+01;  0.0000000E+00; -4.7120819E+01;0;  5.3404479E+00;  2.6218055E+04;  0.0000000E+00; -1.2996212E-01;  4.0000000E+04;  0.0000000E+00;  3.9866445E+04;  5.3385515E+00;  0.0000000E+00;  1.8961984E-03;  2.1507686E+03;
  8.6674511E-01;  9.9999998E-03;  1.9069187E-01;7558;  8.8785982E-01;  0.0000000E+00;  5.1775812E-03;  9.9450232E+02;  1.2315661E-01; -4.5534629E+03;3;  7.0527092E+01;  0.0000000E+00; -4.6662106E+01;0;  5.0899777E+00;  2.6161408E+04;  0.0000000E+00; -6.4862058E-02;  4.0000000E+04;  0.0000000E+00;  3.9875953E+04;  5.1119733E+00;  0.0000000E+00; -2.1995697E-02;  3.4011296E+03;
  8.6671978E-01;  9.9999998E-03;  2.0070630E-01;7559;  9.0379518E-01;  0.0000000E+00;  3.7643947E-03;  9.9353381E+02;  1.2316002E-01; -5.3556357E+03;3;  7.5658989E+01;  0.0000000E+00; -4.5824787E+01;0;  4.8411727E+00;  2.6104818E+04;  0.0000000E+00;  1.3586855E-02;  4.0000000E+04;  0.0000000E+00;  3.9884148E+04;  4.8866305E+00;  0.0000000E+00; -4.5458030E-02;  4.4964707E+03;
  8.6668760E-01;  9.9999998E-03;  2.1070530E-01;7560;  9.2083257E-01;  0.0000000E+00;  2.2750709E-03;  9.9257300E+02;  1.2316394E-01; -6.1513926E+03;3;  8.0411270E+01;  0.0000000E+00; -4.4211391E+01;0;  4.5977373E+00;  2.6049004E+04;  0.0000000E+00;  1.0747947E-01;  4.0000000E+04;  0.0000000E+00;  3.9892078E+04;  4.6669097E+00;  0.0000000E+00; -6.9172397E-02;  5.5601064E+03;
  8.6665106E-01;  9.9999998E-03;  2.2070648E-01;7561;  9.3748945E-01;  0.0000000E+00;  7.0935074E-04;  9.9162433E+02;  1.2316873E-01; -6.9371265E+03;3;  8.4727715E+01;  0.0000000E+00; -4.2883766E+01;0;  4.3613491E+00;  2.5994475E+04;  0.0000000E+00;  2.1667562E-01;  4.0000000E+04;  0.0000000E+00;  3.9899449E+04;  4.4555101E+00;  0.0000000E+00; -9.4161011E-02;  6.5569790E+03;
  8.6659020E-01;  9.9999998E-03;  2.3072203E-01;7562;  9.5281434E-01;  0.0000000E+00; -1.5353513E-03;  9.9066278E+02;  1.2317398E-01; -7.7335747E+03;3;  8.8703247E+01;  0.0000000E+00; -4.0989529E+01;0;  4.1317091E+00;  2.5941537E+04;  0.0000000E+00;  3.3443487E-01;  4.0000000E+04;  0.0000000E+00;  3.9903254E+04;  4.2552829E+00;  0.0000000E+00; -1.2357365E-01;  7.1298994E+03;
  8.7835300E-01;  9.9999998E-03;  7.0370935E-02;7607;  9.1659200E-01;  0.0000000E+00; -8.7449802E-03;  1.0001550E+03;  1.2308337E-01;  1.2834874E+02;3;  5.6056015E+01;  0.0000000E+00; -3.6529266E+01;0;  7.1053391E+00;  2.6633229E+04;  0.0000000E+00;  2.5352981E-02;  4.0000000E+04;  0.0000000E+00;  3.9694434E+04;  7.0160632E+00;  0.0000000E+00;  8.9275897E-02;  1.9745828E+04;
  8.7844610E-01;  9.9999998E-03;  8.0463305E-02;7608;  9.1506749E-01;  0.0000000E+00;  2.5621898E-04;  1.0002095E+03;  1.2307921E-01;  1.7356691E+02;3;  5.3816677E+01;  0.0000000E+00; -4.5287712E+01;0;  7.0280757E+00;  2.6625104E+04;  0.0000000E+00;  1.3371105E-02;  4.0000000E+04;  0.0000000E+00;  3.9709844E+04;  6.9220614E+00;  0.0000000E+00;  1.0601413E-01;  1.7813854E+04;
  8.7855625E-01;  9.9999998E-03;  9.0535752E-02;7609;  9.1507006E-01;  0.0000000E+00;  3.7421123E-03;  1.0001956E+03;  1.2307505E-01;  1.6201543E+02;3;  5.1608967E+01;  0.0000000E+00; -4.7699429E+01;0;  6.9271994E+00;  2.6611605E+04;  0.0000000E+00; -5.7146461E-03;  4.0000000E+04;  0.0000000E+00;  3.9727828E+04;  6.8117952E+00;  0.0000000E+00;  1.1540404E-01;  1.5551209E+04;
  8.7868047E-01;  9.9999998E-03;  1.0057441E-01;7610;  9.1684818E-01;  0.0000000E+00;  4.2664395E-03;  1.0000849E+03;  1.2307086E-01;  7.0295502E+01;3;  4.9458714E+01;  0.0000000E+00; -4.8362148E+01;0;  6.8023667E+00;  2.6591783E+04;  0.0000000E+00; -3.0073611E-02;  4.0000000E+04;  0.0000000E+00;  3.9747293E+04;  6.6848965E+00;  0.0000000E+00;  1.1747035E-01;  1.3097688E+04;
  8.7881124E-01;  9.9999998E-03;  1.1058836E-01;7611;  9.2021745E-01;  0.0000000E+00;  5.1976102E-03;  9.9984827E+02;  1.2306720E-01; -1.2568275E+02;3;  4.7423557E+01;  0.0000000E+00; -4.8364799E+01;0;  6.6538239E+00;  2.6565236E+04;  0.0000000E+00; -5.6614380E-02;  4.0000000E+04;  0.0000000E+00;  3.9767086E+04;  6.5410323E+00;  0.0000000E+00;  1.1279140E-01;  1.0598738E+04;
  8.7893218E-01;  9.9999998E-03;  1.2060118E-01;7612;  9.2363501E-01;  0.0000000E+00;  5.9907357E-03;  9.9947437E+02;  1.2306398E-01; -4.3534775E+02;3;  4.5560108E+01;  0.0000000E+00; -4.8271488E+01;0;  6.4821572E+00;  2.6531689E+04;  0.0000000E+00; -8.1576139E-02;  4.0000000E+04;  0.0000000E+00;  3.9786250E+04;  6.3798690E+00;  0.0000000E+00;  1.0228802E-01;  8.1703291E+03;
  8.7903976E-01;  9.9999998E-03;  1.3061520E-01;7613;  9.2718500E-01;  0.0000000E+00;  6.3598505E-03;  9.9895612E+02;  1.2306146E-01; -8.6452448E+02;3;  4.3938435E+01;  0.0000000E+00; -4.8228470E+01;0;  6.2885127E+00;  2.6491365E+04;  0.0000000E+00; -1.0122274E-01;  4.0000000E+04;  0.0000000E+00;  3.9804160E+04;  6.2015061E+00;  0.0000000E+00;  8.7006547E-02;  5.8855601E+03;
  8.7913173E-01;  9.9999998E-03;  1.4062999E-01;7614;  9.3104118E-01;  0.0000000E+00;  6.3548246E-03;  9.9829834E+02;  1.2305947E-01; -1.4093131E+03;3;  4.2628799E+01;  0.0000000E+00; -4.8150734E+01;0;  6.0745225E+00;  2.6444807E+04;  0.0000000E+00; -1.1256785E-01;  4.0000000E+04;  0.0000000E+00;  3.9820691E+04;  6.0063767E+00;  0.0000000E+00;  6.8145640E-02;  3.7737595E+03;
  8.7920684E-01;  9.9999998E-03;  1.5064169E-01;7615;  9.3549192E-01;  0.0000000E+00;  6.0360394E-03;  9.9751489E+02;  1.2305896E-01; -2.0581621E+03;3;  4.1696388E+01;  0.0000000E+00; -4.7985855E+01;0;  5.8424034E+00;  2.6392766E+04;  0.0000000E+00; -1.1383102E-01;  4.0000000E+04;  0.0000000E+00;  3.9835762E+04;  5.7953854E+00;  0.0000000E+00;  4.7017835E-02;  1.8388574E+03;
  8.7926471E-01;  9.9999998E-03;  1.6064972E-01;7616;  9.4057953E-01;  0.0000000E+00;  5.3894934E-03;  9.9662616E+02;  1.2305886E-01; -2.7942378E+03;3;  4.1202526E+01;  0.0000000E+00; -4.7683281E+01;0;  5.5949030E+00;  2.6336100E+04;  0.0000000E+00; -1.0463214E-01;  4.0000000E+04;  0.0000000E+00;  3.9849422E+04;  5.5699291E+00;  0.0000000E+00;  2.4973836E-02;  2.8124176E+02;
  8.7930989E-01;  9.9999998E-03;  1.7065533E-01;7617;  9.4638997E-01;  0.0000000E+00;  4.5082862E-03;  9.9564783E+02;  1.2305992E-01; -3.6044595E+03;3;  4.1115700E+01;  0.0000000E+00; -4.7327152E+01;0;  5.3354626E+00;  2.6276020E+04;  0.0000000E+00; -8.5355543E-02;  4.0000000E+04;  0.0000000E+00;  3.9861707E+04;  5.3322892E+00;  0.0000000E+00;  3.1733031E-03;  1.6125494E+03;
  8.7935019E-01;  9.9999998E-03;  1.8066123E-01;7618;  9.5337504E-01;  0.0000000E+00;  3.3072098E-03;  9.9460791E+02;  1.2306171E-01; -4.4657241E+03;3;  4.1329025E+01;  0.0000000E+00; -4.6550690E+01;0;  5.0681400E+00;  2.6213717E+04;  0.0000000E+00; -5.5318773E-02;  4.0000000E+04;  0.0000000E+00;  3.9872785E+04;  5.0858083E+00;  0.0000000E+00; -1.7668433E-02;  3.0704978E+03;
  8.7939143E-01;  9.9999998E-03;  1.9067025E-01;7619;  9.6150976E-01;  0.0000000E+00;  1.8730800E-03;  9.9352753E+02;  1.2306461E-01; -5.3605063E+03;3;  4.1904308E+01;  0.0000000E+00; -4.5827209E+01;0;  4.7973232E+00;  2.6150334E+04;  0.0000000E+00; -1.1845701E-02;  4.0000000E+04;  0.0000000E+00;  3.9882566E+04;  4.8346691E+00;  0.0000000E+00; -3.7345737E-02;  4.3834980E+03;
  8.7943089E-01;  9.9999998E-03;  2.0067944E-01;7620;  9.7087145E-01;  0.0000000E+00;  2.3326758E-04;  9.9242401E+02;  1.2306853E-01; -6.2744419E+03;3;  4.2772869E+01;  0.0000000E+00; -4.5254215E+01;0;  4.5276060E+00;  2.6086809E+04;  0.0000000E+00;  4.8501700E-02;  4.0000000E+04;  0.0000000E+00;  3.9891211E+04;  4.5837765E+00;  0.0000000E+00; -5.6170344E-02;  5.5432842E+03;
  8.7946874E-01;  9.9999998E-03;  2.1067137E-01;7621;  9.8127633E-01;  0.0000000E+00; -1.5948080E-03;  9.9133270E+02;  1.2307318E-01; -7.1782573E+03;3;  4.3389179E+01;  0.0000000E+00; -4.3860825E+01;0;  4.2631054E+00;  2.6024082E+04;  0.0000000E+00;  1.2804650E-01;  4.0000000E+04;  0.0000000E+00;  3.9899824E+04;  4.3380661E+00;  0.0000000E+00; -7.4960850E-02;  6.7205117E+03;
  8.7950802E-01;  9.9999998E-03;  2.2066350E-01;7622;  9.9195105E-01;  0.0000000E+00; -3.4383715E-03;  9.9026721E+02;  1.2307863E-01; -8.0606982E+03;3;  4.4121807E+01;  0.0000000E+00; -4.3433941E+01;0;  4.0060930E+00;  2.5962695E+04;  0.0000000E+00;  2.2784555E-01;  4.0000000E+04;  0.0000000E+00;  3.9908988E+04;  4.1007366E+00;  0.0000000E+00; -9.4643638E-02;  7.9567700E+03;
  8.7952930E-01;  9.9999998E-03;  2.3066613E-01;7623;  1.0007051E+00;  0.0000000E+00; -5.7761571E-03;  9.8922290E+02;  1.2308408E-01; -8.9256143E+03;3;  4.4475357E+01;  0.0000000E+00; -4.1041904E+01;0;  3.7565405E+00;  2.5902949E+04;  0.0000000E+00;  3.4714547E-01;  4.0000000E+04;  0.0000000E+00;  3.9917316E+04;  3.8746777E+00;  0.0000000E+00; -1.1813707E-01;  9.0845781E+03;
  8.9098740E-01;  9.9999998E-03;  7.0373341E-02;7668;  1.0282134E+00;  0.0000000E+00; -5.3415741E-03;  1.0005077E+03;  1.2290608E-01;  4.2046103E+02;3;  6.9467888E+01;  0.0000000E+00; -3.5393063E+01;0;  6.7002220E+00;  2.6720969E+04;  0.0000000E+00;  8.6619265E-02;  4.0000000E+04;  0.0000000E+00;  3.9709609E+04;  6.6421366E+00;  0.0000000E+00;  5.8085587E-02;  1.7819545E+04;
  8.9105010E-01;  9.9999998E-03;  8.0458634E-02;7669;  1.0249648E+00;  0.0000000E+00;  2.4041825E-03;  1.0004756E+03;  1.2290141E-01;  3.9390442E+02;3;  6.5377388E+01;  0.0000000E+00; -4.2090343E+01;0;  6.6274724E+00;  2.6709775E+04;  0.0000000E+00;  8.9741528E-02;  4.0000000E+04;  0.0000000E+00;  3.9723160E+04;  6.5543756E+00;  0.0000000E+00;  7.3096953E-02;  1.6110662E+04;
  8.9112520E-01;  9.9999998E-03;  9.0519324E-02;7670;  1.0224290E+00;  0.0000000E+00;  3.1896492E-03;  1.0003760E+03;  1.2289670E-01;  3.1137195E+02;3;  6.0925041E+01;  0.0000000E+00; -4.4743279E+01;0;  6.5317283E+00;  2.6693049E+04;  0.0000000E+00;  8.5899398E-02;  4.0000000E+04;  0.0000000E+00;  3.9739277E+04;  6.4500284E+00;  0.0000000E+00;  8.1699632E-02;  1.4081658E+04;
  8.9121044E-01;  9.9999998E-03;  1.0055719E-01;7671;  1.0208814E+00;  0.0000000E+00;  2.9848865E-03;  1.0001772E+03;  1.2289202E-01;  1.4680083E+02;3;  5.6149868E+01;  0.0000000E+00; -4.5479729E+01;0;  6.4123478E+00;  2.6670166E+04;  0.0000000E+00;  7.5786613E-02;  4.0000000E+04;  0.0000000E+00;  3.9756910E+04;  6.3285060E+00;  0.0000000E+00;  8.3841719E-02;  1.1854101E+04;
  8.9129937E-01;  9.9999998E-03;  1.1057239E-01;7672;  1.0200022E+00;  0.0000000E+00;  3.1400819E-03;  9.9986249E+02;  1.2288754E-01; -1.1387671E+02;3;  5.1067360E+01;  0.0000000E+00; -4.5977741E+01;0;  6.2696891E+00;  2.6640662E+04;  0.0000000E+00;  6.0961653E-02;  4.0000000E+04;  0.0000000E+00;  3.9775055E+04;  6.1896081E+00;  0.0000000E+00;  8.0081128E-02;  9.5593467E+03;
  8.9138180E-01;  9.9999998E-03;  1.2058592E-01;7673;  1.0185242E+00;  0.0000000E+00;  3.3408531E-03;  9.9941327E+02;  1.2288377E-01; -4.8591318E+02;3;  4.5757782E+01;  0.0000000E+00; -4.6220917E+01;0;  6.1044149E+00;  2.6604398E+04;  0.0000000E+00;  4.3607064E-02;  4.0000000E+04;  0.0000000E+00;  3.9792730E+04;  6.0331707E+00;  0.0000000E+00;  7.1244225E-02;  7.3039766E+03;
  8.9146209E-01;  9.9999998E-03;  1.3059935E-01;7674;  1.0168564E+00;  0.0000000E+00;  3.3993372E-03;  9.9882806E+02;  1.2288108E-01; -9.7054254E+02;3;  4.0338665E+01;  0.0000000E+00; -4.6268623E+01;0;  5.9173045E+00;  2.6561590E+04;  0.0000000E+00;  2.6329787E-02;  4.0000000E+04;  0.0000000E+00;  3.9809504E+04;  5.8590169E+00;  0.0000000E+00;  5.8287498E-02;  5.1581440E+03;
  8.9154285E-01;  9.9999998E-03;  1.4061196E-01;7675;  1.0151684E+00;  0.0000000E+00;  3.2479048E-03;  9.9811206E+02;  1.2287861E-01; -1.5634702E+03;3;  3.4917141E+01;  0.0000000E+00; -4.6233902E+01;0;  5.7097154E+00;  2.6512811E+04;  0.0000000E+00;  1.1803118E-02;  4.0000000E+04;  0.0000000E+00;  3.9825047E+04;  5.6673942E+00;  0.0000000E+00;  4.2321201E-02;  3.1520977E+03;
  8.9162701E-01;  9.9999998E-03;  1.5062086E-01;7676;  1.0139323E+00;  0.0000000E+00;  2.8644151E-03;  9.9728101E+02;  1.2287720E-01; -2.2517136E+03;3;  2.9594309E+01;  0.0000000E+00; -4.6003811E+01;0;  5.4835825E+00;  2.6458922E+04;  0.0000000E+00;  2.5181635E-03;  4.0000000E+04;  0.0000000E+00;  3.9839410E+04;  5.4590273E+00;  0.0000000E+00;  2.4555361E-02;  1.2900094E+03;
  8.9171100E-01;  9.9999998E-03;  1.6062553E-01;7677;  1.0134051E+00;  0.0000000E+00;  2.2439896E-03;  9.9635052E+02;  1.2287670E-01; -3.0222913E+03;3;  2.4508060E+01;  0.0000000E+00; -4.5586617E+01;0;  5.2416835E+00;  2.6400727E+04;  0.0000000E+00;  5.0398544E-04;  4.0000000E+04;  0.0000000E+00;  3.9852457E+04;  5.2354507E+00;  0.0000000E+00;  6.2327981E-03;  4.2788306E+02;
  8.9179856E-01;  9.9999998E-03;  1.7062880E-01;7678;  1.0135498E+00;  0.0000000E+00;  1.3275824E-03;  9.9534174E+02;  1.2287732E-01; -3.8577285E+03;3;  1.9622591E+01;  0.0000000E+00; -4.5167061E+01;0;  4.9873042E+00;  2.6339623E+04;  0.0000000E+00;  7.8162989E-03;  4.0000000E+04;  0.0000000E+00;  3.9864488E+04;  4.9989119E+00;  0.0000000E+00; -1.1607762E-02;  1.9995721E+03;
  8.9189744E-01;  9.9999998E-03;  1.8063235E-01;7679;  1.0146415E+00;  0.0000000E+00;  1.0377718E-04;  9.9428180E+02;  1.2287876E-01; -4.7354668E+03;3;  1.5106038E+01;  0.0000000E+00; -4.4535374E+01;0;  4.7244215E+00;  2.6276727E+04;  0.0000000E+00;  2.7109571E-02;  4.0000000E+04;  0.0000000E+00;  3.9875160E+04;  4.7527366E+00;  0.0000000E+00; -2.8315037E-02;  3.4273733E+03;
  8.9200687E-01;  9.9999998E-03;  1.9063798E-01;7680;  1.0169531E+00;  0.0000000E+00; -1.3947595E-03;  9.9319080E+02;  1.2288107E-01; -5.6389707E+03;3;  1.0869970E+01;  0.0000000E+00; -4.3738846E+01;0;  4.4577045E+00;  2.6213217E+04;  0.0000000E+00;  6.1750829E-02;  4.0000000E+04;  0.0000000E+00;  3.9884703E+04;  4.5014248E+00;  0.0000000E+00; -4.3720346E-02;  4.7142754E+03;
  8.9212394E-01;  9.9999998E-03;  2.0064434E-01;7681;  1.0206007E+00;  0.0000000E+00; -3.1075764E-03;  9.9208508E+02;  1.2288468E-01; -6.5546646E+03;3;  6.7435756E+00;  0.0000000E+00; -4.3286392E+01;0;  4.1917877E+00;  2.6149922E+04;  0.0000000E+00;  1.1562822E-01;  4.0000000E+04;  0.0000000E+00;  3.9893094E+04;  4.2499251E+00;  0.0000000E+00; -5.8137361E-02;  5.8605244E+03;
  8.9225203E-01;  9.9999998E-03;  2.1063387E-01;7682;  1.0252204E+00;  0.0000000E+00; -5.0747786E-03;  9.9100244E+02;  1.2288892E-01; -7.4512549E+03;3;  2.5277343E+00;  0.0000000E+00; -4.1957684E+01;0;  3.9306629E+00;  2.6087936E+04;  0.0000000E+00;  1.9285907E-01;  4.0000000E+04;  0.0000000E+00;  3.9901766E+04;  4.0031247E+00;  0.0000000E+00; -7.2461873E-02;  7.0428135E+03;
  8.9238554E-01;  9.9999998E-03;  2.2062168E-01;7683;  1.0298585E+00;  0.0000000E+00; -7.2328802E-03;  9.8996069E+02;  1.2289350E-01; -8.3139814E+03;3; -1.7264229E+00;  0.0000000E+00; -4.1017593E+01;0;  3.6765585E+00;  2.6027521E+04;  0.0000000E+00;  2.9795736E-01;  4.0000000E+04;  0.0000000E+00;  3.9911402E+04;  3.7646286E+00;  0.0000000E+00; -8.8070102E-02;  8.3516279E+03;
  8.9250612E-01;  9.9999998E-03;  2.3061791E-01;7684;  1.0330355E+00;  0.0000000E+00; -9.5023727E-03;  9.8895209E+02;  1.2289851E-01; -9.1492129E+03;3; -5.1401715E+00;  0.0000000E+00; -4.0694466E+01;0;  3.4308479E+00;  2.5968904E+04;  0.0000000E+00;  4.3470985E-01;  4.0000000E+04;  0.0000000E+00;  3.9921531E+04;  3.5374815E+00;  0.0000000E+00; -1.0663357E-01;  9.7088506E+03;
  9.0365797E-01;  9.9999998E-03;  7.0359416E-02;7729;  1.1295305E+00;  0.0000000E+00; -2.0257093E-03;  1.0012267E+03;  1.2259659E-01;  1.0157737E+03;3;  8.2812759E+01;  0.0000000E+00; -3.4380753E+01;0;  6.0674500E+00;  2.6877590E+04;  0.0000000E+00;  1.0885345E-01;  4.0000000E+04;  0.0000000E+00;  3.9730996E+04;  6.0386553E+00;  0.0000000E+00;  2.8794944E-02;  1.5214007E+04;
  9.0368646E-01;  9.9999998E-03;  8.0424823E-02;7730;  1.1230569E+00;  0.0000000E+00; -1.1028606E-03;  1.0010519E+03;  1.2259236E-01;  8.7105786E+02;3;  7.6751488E+01;  0.0000000E+00; -4.0582912E+01;0;  6.0098314E+00;  2.6860404E+04;  0.0000000E+00;  1.1596819E-01;  4.0000000E+04;  0.0000000E+00;  3.9742223E+04;  5.9674811E+00;  0.0000000E+00;  4.2350303E-02;  1.3783760E+04;
  9.0371978E-01;  9.9999998E-03;  9.0470113E-02;7731;  1.1167421E+00;  0.0000000E+00; -1.6642548E-03;  1.0008107E+03;  1.2258811E-01;  6.7125934E+02;3;  7.0125710E+01;  0.0000000E+00; -4.1222488E+01;0;  5.9317665E+00;  2.6838062E+04;  0.0000000E+00;  1.1623607E-01;  4.0000000E+04;  0.0000000E+00;  3.9755719E+04;  5.8812499E+00;  0.0000000E+00;  5.0516810E-02;  1.2073923E+04;
  9.0375572E-01;  9.9999998E-03;  1.0050970E-01;7732;  1.1104535E+00;  0.0000000E+00; -1.9153863E-03;  1.0004783E+03;  1.2258408E-01;  3.9604291E+02;3;  6.2712799E+01;  0.0000000E+00; -4.1748619E+01;0;  5.8324113E+00;  2.6809936E+04;  0.0000000E+00;  1.1082067E-01;  4.0000000E+04;  0.0000000E+00;  3.9770516E+04;  5.7791204E+00;  0.0000000E+00;  5.3290848E-02;  1.0183363E+04;
  9.0379071E-01;  9.9999998E-03;  1.1053345E-01;7733;  1.1038609E+00;  0.0000000E+00; -1.9933449E-03;  1.0000415E+03;  1.2258015E-01;  3.4352665E+01;3;  5.4607616E+01;  0.0000000E+00; -4.2133472E+01;0;  5.7119670E+00;  2.6775957E+04;  0.0000000E+00;  1.0170058E-01;  4.0000000E+04;  0.0000000E+00;  3.9785871E+04;  5.6608577E+00;  0.0000000E+00;  5.1109079E-02;  8.2207217E+03;
  9.0382552E-01;  9.9999998E-03;  1.2054993E-01;7734;  1.0966771E+00;  0.0000000E+00; -1.9373239E-03;  9.9949396E+02;  1.2257668E-01; -4.1904321E+02;3;  4.5962944E+01;  0.0000000E+00; -4.2237030E+01;0;  5.5706658E+00;  2.6736256E+04;  0.0000000E+00;  9.1370679E-02;  4.0000000E+04;  0.0000000E+00;  3.9801152E+04;  5.5260062E+00;  0.0000000E+00;  4.4659749E-02;  6.2770601E+03;
  9.0386695E-01;  9.9999998E-03;  1.3056543E-01;7735;  1.0891252E+00;  0.0000000E+00; -1.8598804E-03;  9.9883807E+02;  1.2257371E-01; -9.6217023E+02;3;  3.6891773E+01;  0.0000000E+00; -4.2133354E+01;0;  5.4089298E+00;  2.6691393E+04;  0.0000000E+00;  8.2419246E-02;  4.0000000E+04;  0.0000000E+00;  3.9815656E+04;  5.3741398E+00;  0.0000000E+00;  3.4790061E-02;  4.4131162E+03;
  9.0392685E-01;  9.9999998E-03;  1.4057717E-01;7736;  1.0818708E+00;  0.0000000E+00; -1.8772844E-03;  9.9808374E+02;  1.2257147E-01; -1.5868350E+03;3;  2.7511688E+01;  0.0000000E+00; -4.1906448E+01;0;  5.2275581E+00;  2.6642094E+04;  0.0000000E+00;  7.7334054E-02;  4.0000000E+04;  0.0000000E+00;  3.9829180E+04;  5.2050891E+00;  0.0000000E+00;  2.2469234E-02;  2.6597124E+03;
  9.0401006E-01;  9.9999998E-03;  1.5058453E-01;7737;  1.0751362E+00;  0.0000000E+00; -2.0565563E-03;  9.9724908E+02;  1.2256978E-01; -2.2779827E+03;3;  1.7958296E+01;  0.0000000E+00; -4.1452003E+01;0;  5.0282335E+00;  2.6589289E+04;  0.0000000E+00;  7.8421712E-02;  4.0000000E+04;  0.0000000E+00;  3.9841797E+04;  5.0194807E+00;  0.0000000E+00;  8.7528611E-03;  1.0406023E+03;
  9.0411520E-01;  9.9999998E-03;  1.6058861E-01;7738;  1.0688993E+00;  0.0000000E+00; -2.4426009E-03;  9.9634808E+02;  1.2256909E-01; -3.0240640E+03;3;  8.4178600E+00;  0.0000000E+00; -4.0727615E+01;0;  4.8135571E+00;  2.6533971E+04;  0.0000000E+00;  8.7525308E-02;  4.0000000E+04;  0.0000000E+00;  3.9853387E+04;  4.8188648E+00;  0.0000000E+00; -5.3075226E-03;  6.2221051E+02;
  9.0424877E-01;  9.9999998E-03;  1.7059068E-01;7739;  1.0635378E+00;  0.0000000E+00; -3.0701801E-03;  9.9540546E+02;  1.2256889E-01; -3.8046436E+03;3; -9.8667085E-01;  0.0000000E+00; -3.9799599E+01;0;  4.5866547E+00;  2.6477211E+04;  0.0000000E+00;  1.0606484E-01;  4.0000000E+04;  0.0000000E+00;  3.9864074E+04;  4.6054997E+00;  0.0000000E+00; -1.8845178E-02;  1.9735089E+03;
  9.0441507E-01;  9.9999998E-03;  1.8059340E-01;7740;  1.0593039E+00;  0.0000000E+00; -3.9442363E-03;  9.9443695E+02;  1.2256909E-01; -4.6065923E+03;3; -1.0203022E+01;  0.0000000E+00; -3.8811352E+01;0;  4.3515220E+00;  2.6420162E+04;  0.0000000E+00;  1.3510638E-01;  4.0000000E+04;  0.0000000E+00;  3.9873656E+04;  4.3828335E+00;  0.0000000E+00; -3.1311404E-02;  3.2505723E+03;
  9.0460443E-01;  9.9999998E-03;  1.9059888E-01;7741;  1.0559990E+00;  0.0000000E+00; -5.0138482E-03;  9.9346448E+02;  1.2257015E-01; -5.4118950E+03;3; -1.9051237E+01;  0.0000000E+00; -3.7708973E+01;0;  4.1129465E+00;  2.6363795E+04;  0.0000000E+00;  1.7596497E-01;  4.0000000E+04;  0.0000000E+00;  3.9882188E+04;  4.1554923E+00;  0.0000000E+00; -4.2545658E-02;  4.4090054E+03;
  9.0480125E-01;  9.9999998E-03;  2.0060597E-01;7742;  1.0537938E+00;  0.0000000E+00; -6.3088993E-03;  9.9250006E+02;  1.2257234E-01; -6.2104814E+03;3; -2.7732075E+01;  0.0000000E+00; -3.6593254E+01;0;  3.8756521E+00;  2.6308637E+04;  0.0000000E+00;  2.3164801E-01;  4.0000000E+04;  0.0000000E+00;  3.9889797E+04;  3.9284818E+00;  0.0000000E+00; -5.2829795E-02;  5.4384478E+03;
  9.0500528E-01;  9.9999998E-03;  2.1059692E-01;7743;  1.0521944E+00;  0.0000000E+00; -7.8304419E-03;  9.9156989E+02;  1.2257493E-01; -6.9807349E+03;3; -3.6092339E+01;  0.0000000E+00; -3.5523754E+01;0;  3.6435628E+00;  2.6255350E+04;  0.0000000E+00;  3.0738172E-01;  4.0000000E+04;  0.0000000E+00;  3.9897598E+04;  3.7064435E+00;  0.0000000E+00; -6.2880829E-02;  6.4998062E+03;
  9.0521300E-01;  9.9999998E-03;  2.2058147E-01;7744;  1.0506470E+00;  0.0000000E+00; -9.4914166E-03;  9.9069830E+02;  1.2257783E-01; -7.7024683E+03;3; -4.3814816E+01;  0.0000000E+00; -3.4307755E+01;0;  3.4190137E+00;  2.6204082E+04;  0.0000000E+00;  4.0927497E-01;  4.0000000E+04;  0.0000000E+00;  3.9906918E+04;  3.4927816E+00;  0.0000000E+00; -7.3767945E-02;  7.7558862E+03;
  9.0541780E-01;  9.9999998E-03;  2.3057081E-01;7745;  1.0486926E+00;  0.0000000E+00; -1.1277760E-02;  9.8988501E+02;  1.2258083E-01; -8.3758779E+03;3; -5.0744007E+01;  0.0000000E+00; -3.3636753E+01;0;  3.2030151E+00;  2.6154879E+04;  0.0000000E+00;  5.4129702E-01;  4.0000000E+04;  0.0000000E+00;  3.9918086E+04;  3.2899988E+00;  0.0000000E+00; -8.6983770E-02;  9.2353223E+03;
  9.1636789E-01;  9.9999998E-03;  7.0298821E-02;7790;  1.2189586E+00;  0.0000000E+00; -6.3844230E-03;  1.0022307E+03;  1.2215950E-01;  1.8470588E+03;3;  9.6558578E+01;  0.0000000E+00; -3.0108459E+01;0;  5.2655249E+00;  2.7099541E+04;  0.0000000E+00;  5.9385359E-02;  4.0000000E+04;  0.0000000E+00;  3.9756949E+04;  5.2629318E+00;  0.0000000E+00;  2.5928994E-03;  1.2112533E+04;
  9.1635650E-01;  9.9999998E-03;  8.0340832E-02;7791;  1.2085259E+00;  0.0000000E+00; -6.9571920E-03;  1.0018997E+03;  1.2215702E-01;  1.5728577E+03;3;  8.8974655E+01;  0.0000000E+00; -3.1805351E+01;0;  5.2323737E+00;  2.7075404E+04;  0.0000000E+00;  5.8753587E-02;  4.0000000E+04;  0.0000000E+00;  3.9765715E+04;  5.2176676E+00;  0.0000000E+00;  1.4706033E-02;  1.0985140E+04;
  9.1634154E-01;  9.9999998E-03;  9.0374433E-02;7792;  1.1975842E+00;  0.0000000E+00; -7.2176834E-03;  1.0014965E+03;  1.2215418E-01;  1.2391377E+03;3;  8.0364090E+01;  0.0000000E+00; -3.3123699E+01;0;  5.1829929E+00;  2.7046316E+04;  0.0000000E+00;  5.4913152E-02;  4.0000000E+04;  0.0000000E+00;  3.9776152E+04;  5.1603537E+00;  0.0000000E+00;  2.2639154E-02;  9.6432598E+03;
  9.1632313E-01;  9.9999998E-03;  1.0041363E-01;7793;  1.1855968E+00;  0.0000000E+00; -7.2206203E-03;  1.0010144E+03;  1.2215141E-01;  8.3987762E+02;3;  7.0689522E+01;  0.0000000E+00; -3.4021515E+01;0;  5.1162796E+00;  2.7012455E+04;  0.0000000E+00;  5.0656438E-02;  4.0000000E+04;  0.0000000E+00;  3.9787676E+04;  5.0899620E+00;  0.0000000E+00;  2.6317559E-02;  8.1621987E+03;
  9.1630554E-01;  9.9999998E-03;  1.1044848E-01;7794;  1.1729442E+00;  0.0000000E+00; -7.0028487E-03;  1.0004533E+03;  1.2214913E-01;  3.7537372E+02;3;  5.9968277E+01;  0.0000000E+00; -3.4530239E+01;0;  5.0315752E+00;  2.6973992E+04;  0.0000000E+00;  4.9282417E-02;  4.0000000E+04;  0.0000000E+00;  3.9799547E+04;  5.0055451E+00;  0.0000000E+00;  2.6030226E-02;  6.6223188E+03;
  9.1629875E-01;  9.9999998E-03;  1.2046899E-01;7795;  1.1598672E+00;  0.0000000E+00; -6.6222376E-03;  9.9981494E+02;  1.2214682E-01; -1.5323897E+02;3;  4.8442379E+01;  0.0000000E+00; -3.4397346E+01;0;  4.9286075E+00;  2.6931658E+04;  0.0000000E+00;  5.3874321E-02;  4.0000000E+04;  0.0000000E+00;  3.9811461E+04;  4.9062734E+00;  0.0000000E+00;  2.2334114E-02;  5.0936763E+03;
  9.1631842E-01;  9.9999998E-03;  1.3048726E-01;7796;  1.1472040E+00;  0.0000000E+00; -6.2633362E-03;  9.9911407E+02;  1.2214492E-01; -7.3352344E+02;3;  3.6288734E+01;  0.0000000E+00; -3.3666805E+01;0;  4.8070345E+00;  2.6886381E+04;  0.0000000E+00;  6.6675231E-02;  4.0000000E+04;  0.0000000E+00;  3.9822766E+04;  4.7910943E+00;  0.0000000E+00;  1.5940132E-02;  3.6244485E+03;
  9.1637570E-01;  9.9999998E-03;  1.4050375E-01;7797;  1.1353337E+00;  0.0000000E+00; -5.9273001E-03;  9.9836230E+02;  1.2214310E-01; -1.3560034E+03;3;  2.3720211E+01;  0.0000000E+00; -3.2505737E+01;0;  4.6675858E+00;  2.6839246E+04;  0.0000000E+00;  8.8867128E-02;  4.0000000E+04;  0.0000000E+00;  3.9833402E+04;  4.6599174E+00;  0.0000000E+00;  7.6685026E-03;  2.2474768E+03;
  9.1647094E-01;  9.9999998E-03;  1.5051779E-01;7798;  1.1237999E+00;  0.0000000E+00; -5.7082982E-03;  9.9758270E+02;  1.2214135E-01; -2.0015295E+03;3;  1.0724511E+01;  0.0000000E+00; -3.1639050E+01;0;  4.5121546E+00;  2.6791291E+04;  0.0000000E+00;  1.2086471E-01;  4.0000000E+04;  0.0000000E+00;  3.9843383E+04;  4.5137672E+00;  0.0000000E+00; -1.6127540E-03;  1.0347036E+03;
  9.1659266E-01;  9.9999998E-03;  1.6053174E-01;7799;  1.1122245E+00;  0.0000000E+00; -5.6013283E-03;  9.9678790E+02;  1.2213980E-01; -2.6595898E+03;3; -2.3170817E+00;  0.0000000E+00; -3.0506285E+01;0;  4.3437152E+00;  2.6743309E+04;  0.0000000E+00;  1.6208877E-01;  4.0000000E+04;  0.0000000E+00;  3.9852766E+04;  4.3547931E+00;  0.0000000E+00; -1.1077730E-02;  7.4474487E+02;
  9.1674471E-01;  9.9999998E-03;  1.7054495E-01;7800;  1.1014847E+00;  0.0000000E+00; -5.6823669E-03;  9.9599841E+02;  1.2213898E-01; -3.3132551E+03;3; -1.5326998E+01;  0.0000000E+00; -2.9349745E+01;0;  4.1651826E+00;  2.6696150E+04;  0.0000000E+00;  2.1035349E-01;  4.0000000E+04;  0.0000000E+00;  3.9861258E+04;  4.1852446E+00;  0.0000000E+00; -2.0061741E-02;  1.6838319E+03;
  9.1693968E-01;  9.9999998E-03;  1.8055601E-01;7801;  1.0919508E+00;  0.0000000E+00; -5.9573315E-03;  9.9522534E+02;  1.2213755E-01; -3.9533455E+03;3; -2.8111221E+01;  0.0000000E+00; -2.7974188E+01;0;  3.9799554E+00;  2.6650850E+04;  0.0000000E+00;  2.6232910E-01;  4.0000000E+04;  0.0000000E+00;  3.9869012E+04;  4.0080686E+00;  0.0000000E+00; -2.8113184E-02;  2.6815457E+03;
  9.1717958E-01;  9.9999998E-03;  1.9056506E-01;7802;  1.0837096E+00;  0.0000000E+00; -6.4493958E-03;  9.9448297E+02;  1.2213690E-01; -4.5680156E+03;3; -4.0594299E+01;  0.0000000E+00; -2.6468328E+01;0;  3.7921970E+00;  2.6607984E+04;  0.0000000E+00;  3.1569943E-01;  4.0000000E+04;  0.0000000E+00;  3.9875863E+04;  3.8272424E+00;  0.0000000E+00; -3.5045385E-02;  3.5901814E+03;
  9.1745031E-01;  9.9999998E-03;  2.0057260E-01;7803;  1.0766704E+00;  0.0000000E+00; -7.1705924E-03;  9.9377490E+02;  1.2213652E-01; -5.1543042E+03;3; -5.2667686E+01;  0.0000000E+00; -2.4991917E+01;0;  3.6063125E+00;  2.6567777E+04;  0.0000000E+00;  3.7160796E-01;  4.0000000E+04;  0.0000000E+00;  3.9881762E+04;  3.6472933E+00;  0.0000000E+00; -4.0980846E-02;  4.3856865E+03;
  9.1773409E-01;  9.9999998E-03;  2.1056265E-01;7804;  1.0710036E+00;  0.0000000E+00; -8.2444055E-03;  9.9312036E+02;  1.2213683E-01; -5.6962217E+03;3; -6.4405266E+01;  0.0000000E+00; -2.3264330E+01;0;  3.4259176E+00;  2.6530141E+04;  0.0000000E+00;  4.3547028E-01;  4.0000000E+04;  0.0000000E+00;  3.9888023E+04;  3.4724612E+00;  0.0000000E+00; -4.6543539E-02;  5.2255483E+03;
  9.1802233E-01;  9.9999998E-03;  2.2054343E-01;7805;  1.0659128E+00;  0.0000000E+00; -9.4586154E-03;  9.9253845E+02;  1.2213725E-01; -6.1780259E+03;3; -7.5384102E+01;  0.0000000E+00; -2.1731812E+01;0;  3.2531903E+00;  2.6494990E+04;  0.0000000E+00;  5.1353419E-01;  4.0000000E+04;  0.0000000E+00;  3.9896402E+04;  3.3056865E+00;  0.0000000E+00; -5.2496139E-02;  6.3180601E+03;
  9.1829532E-01;  9.9999998E-03;  2.3052783E-01;7806;  1.0602212E+00;  0.0000000E+00; -1.0594313E-02;  9.9202594E+02;  1.2213797E-01; -6.6023843E+03;3; -8.5113243E+01;  0.0000000E+00; -1.9773062E+01;0;  3.0895975E+00;  2.6461678E+04;  0.0000000E+00;  6.0186654E-01;  4.0000000E+04;  0.0000000E+00;  3.9907609E+04;  3.1491168E+00;  0.0000000E+00; -5.9519257E-02;  7.7443838E+03;
  9.2901349E-01;  9.9999998E-03;  7.0206739E-02;7851;  1.2933886E+00;  0.0000000E+00; -1.1249175E-02;  1.0032316E+03;  1.2160923E-01;  2.6754543E+03;3;  1.1138261E+02;  0.0000000E+00; -1.5415225E+01;0;  4.3706560E+00;  2.7370133E+04;  0.0000000E+00; -4.4619638E-02;  4.0000000E+04;  0.0000000E+00;  3.9785738E+04;  4.3904047E+00;  0.0000000E+00; -1.9748906E-02;  8.7261318E+03;
  9.2897046E-01;  9.9999998E-03;  8.0230422E-02;7852;  1.2790201E+00;  0.0000000E+00; -1.1322228E-02;  1.0027718E+03;  1.2160835E-01;  2.2946997E+03;3;  1.0264224E+02;  0.0000000E+00; -1.8740126E+01;0;  4.3666601E+00;  2.7340512E+04;  0.0000000E+00; -5.7341710E-02;  4.0000000E+04;  0.0000000E+00;  3.9792113E+04;  4.3756905E+00;  0.0000000E+00; -9.0301959E-03;  7.8911743E+03;
  9.2891788E-01;  9.9999998E-03;  9.0251245E-02;7853;  1.2637433E+00;  0.0000000E+00; -1.1363367E-02;  1.0022488E+03;  1.2160784E-01;  1.8617368E+03;3;  9.2478180E+01;  0.0000000E+00; -2.0606840E+01;0;  4.3515267E+00;  2.7306756E+04;  0.0000000E+00; -6.5714099E-02;  4.0000000E+04;  0.0000000E+00;  3.9799422E+04;  4.3528967E+00;  0.0000000E+00; -1.3701125E-03;  6.9223428E+03;
  9.2885596E-01;  9.9999998E-03;  1.0027631E-01;7854;  1.2461503E+00;  0.0000000E+00; -1.1212382E-02;  1.0016641E+03;  1.2160734E-01;  1.3776506E+03;3;  8.0957703E+01;  0.0000000E+00; -2.1404840E+01;0;  4.3242221E+00;  2.7269254E+04;  0.0000000E+00; -6.5383770E-02;  4.0000000E+04;  0.0000000E+00;  3.9807410E+04;  4.3210936E+00;  0.0000000E+00;  3.1284674E-03;  5.8749023E+03;
  9.2880213E-01;  9.9999998E-03;  1.1029714E-01;7855;  1.2282903E+00;  0.0000000E+00; -1.0499186E-02;  1.0010261E+03;  1.2160728E-01;  8.4944806E+02;3;  6.8390373E+01;  0.0000000E+00; -2.1387867E+01;0;  4.2827778E+00;  2.7229039E+04;  0.0000000E+00; -5.2409146E-02;  4.0000000E+04;  0.0000000E+00;  3.9815598E+04;  4.2781038E+00;  0.0000000E+00;  4.6738638E-03;  4.8004409E+03;
  9.2878938E-01;  9.9999998E-03;  1.2031063E-01;7856;  1.2121822E+00;  0.0000000E+00; -9.7231567E-03;  1.0003596E+03;  1.2160640E-01;  2.9765720E+02;3;  5.4677898E+01;  0.0000000E+00; -2.1877602E+01;0;  4.2250857E+00;  2.7187426E+04;  0.0000000E+00; -2.4290731E-02;  4.0000000E+04;  0.0000000E+00;  3.9823574E+04;  4.2214088E+00;  0.0000000E+00;  3.6770955E-03;  3.7417932E+03;
  9.2887795E-01;  9.9999998E-03;  1.3034049E-01;7857;  1.2025392E+00;  0.0000000E+00; -9.6808560E-03;  9.9968188E+02;  1.2160543E-01; -2.6336127E+02;3;  3.9832027E+01;  0.0000000E+00; -2.2006012E+01;0;  4.1479573E+00;  2.7146197E+04;  0.0000000E+00;  1.9471660E-02;  4.0000000E+04;  0.0000000E+00;  3.9831273E+04;  4.1473012E+00;  0.0000000E+00;  6.5594929E-04;  2.7326870E+03;
  9.2904037E-01;  9.9999998E-03;  1.4037570E-01;7858;  1.1952517E+00;  0.0000000E+00; -9.8720146E-03;  9.9901862E+02;  1.2160400E-01; -8.1248560E+02;3;  2.4188143E+01;  0.0000000E+00; -2.1816465E+01;0;  4.0554199E+00;  2.7106383E+04;  0.0000000E+00;  7.7597402E-02;  4.0000000E+04;  0.0000000E+00;  3.9838582E+04;  4.0590487E+00;  0.0000000E+00; -3.6288400E-03;  1.8198649E+03;
  9.2923367E-01;  9.9999998E-03;  1.5040240E-01;7859;  1.1854948E+00;  0.0000000E+00; -9.9407472E-03;  9.9838092E+02;  1.2160149E-01; -1.3404381E+03;3;  8.2005472E+00;  0.0000000E+00; -2.1204075E+01;0;  3.9523914E+00;  2.7068672E+04;  0.0000000E+00;  1.4739233E-01;  4.0000000E+04;  0.0000000E+00;  3.9845254E+04;  3.9608462E+00;  0.0000000E+00; -8.4548984E-03;  1.1095964E+03;
  9.2944729E-01;  9.9999998E-03;  1.6041929E-01;7860;  1.1733885E+00;  0.0000000E+00; -9.8823309E-03;  9.9778613E+02;  1.2159887E-01; -1.8328589E+03;3; -7.8432274E+00;  0.0000000E+00; -2.0236057E+01;0;  3.8415811E+00;  2.7033910E+04;  0.0000000E+00;  2.2481468E-01;  4.0000000E+04;  0.0000000E+00;  3.9851594E+04;  3.8548615E+00;  0.0000000E+00; -1.3280324E-02;  9.3885004E+02;
  9.2966968E-01;  9.9999998E-03;  1.7043263E-01;7861;  1.1598508E+00;  0.0000000E+00; -9.7799050E-03;  9.9724365E+02;  1.2159570E-01; -2.2819514E+03;3; -2.3758314E+01;  0.0000000E+00; -1.9012602E+01;0;  3.7258310E+00;  2.7002289E+04;  0.0000000E+00;  3.0392990E-01;  4.0000000E+04;  0.0000000E+00;  3.9857570E+04;  3.7435646E+00;  0.0000000E+00; -1.7733635E-02;  1.3914393E+03;
  9.2989755E-01;  9.9999998E-03;  1.8045112E-01;7862;  1.1457002E+00;  0.0000000E+00; -9.6831731E-03;  9.9675476E+02;  1.2159266E-01; -2.6866797E+03;3; -3.9292339E+01;  0.0000000E+00; -1.7492393E+01;0;  3.6077538E+00;  2.6973896E+04;  0.0000000E+00;  3.7815496E-01;  4.0000000E+04;  0.0000000E+00;  3.9863141E+04;  3.6293612E+00;  0.0000000E+00; -2.1607380E-02;  2.0262640E+03;
  9.3013918E-01;  9.9999998E-03;  1.9047123E-01;7863;  1.1315178E+00;  0.0000000E+00; -9.6289860E-03;  9.9632410E+02;  1.2158992E-01; -3.0431948E+03;3; -5.4289295E+01;  0.0000000E+00; -1.5775694E+01;0;  3.4898901E+00;  2.6948904E+04;  0.0000000E+00;  4.4273666E-01;  4.0000000E+04;  0.0000000E+00;  3.9868418E+04;  3.5147111E+00;  0.0000000E+00; -2.4820963E-02;  2.6620508E+03;
  9.3038964E-01;  9.9999998E-03;  2.0049253E-01;7864;  1.1176590E+00;  0.0000000E+00; -9.6780062E-03;  9.9594086E+02;  1.2158674E-01; -3.3604785E+03;3; -6.8583000E+01;  0.0000000E+00; -1.3929445E+01;0;  3.3749759E+00;  2.6927031E+04;  0.0000000E+00;  4.9626544E-01;  4.0000000E+04;  0.0000000E+00;  3.9872930E+04;  3.4024169E+00;  0.0000000E+00; -2.7440952E-02;  3.2301257E+03;
  9.3064708E-01;  9.9999998E-03;  2.1049911E-01;7865;  1.1047744E+00;  0.0000000E+00; -9.9015320E-03;  9.9561115E+02;  1.2158449E-01; -3.6334478E+03;3; -8.2061874E+01;  0.0000000E+00; -1.2018469E+01;0;  3.2651544E+00;  2.6907803E+04;  0.0000000E+00;  5.4026252E-01;  4.0000000E+04;  0.0000000E+00;  3.9877676E+04;  3.2948925E+00;  0.0000000E+00; -2.9738227E-02;  3.8057468E+03;
  9.3091214E-01;  9.9999998E-03;  2.2049540E-01;7866;  1.0931101E+00;  0.0000000E+00; -1.0340185E-02;  9.9534186E+02;  1.2158230E-01; -3.8563787E+03;3; -9.4766769E+01;  0.0000000E+00; -1.0110817E+01;0;  3.1614850E+00;  2.6890803E+04;  0.0000000E+00;  5.7603234E-01;  4.0000000E+04;  0.0000000E+00;  3.9883762E+04;  3.1937890E+00;  0.0000000E+00; -3.2303974E-02;  4.5285576E+03;
  9.3121469E-01;  9.9999998E-03;  2.3049268E-01;7867;  1.0830561E+00;  0.0000000E+00; -1.0914051E-02;  9.9513965E+02;  1.2158055E-01; -4.0237446E+03;3; -1.0669206E+02;  0.0000000E+00; -8.0477467E+00;0;  3.0641887E+00;  2.6876504E+04;  0.0000000E+00;  5.9938407E-01;  4.0000000E+04;  0.0000000E+00;  3.9891402E+04;  3.1000571E+00;  0.0000000E+00; -3.5868295E-02;  5.4251699E+03;
  9.4076693E-01;  9.9999998E-03;  7.0137344E-02;7912;  1.3453937E+00;  0.0000000E+00; -1.0753420E-02;  1.0036919E+03;  1.2097250E-01;  3.0560879E+03;3;  1.1845457E+02;  0.0000000E+00; -3.3509357E+00;0;  3.5186608E+00;  2.7658229E+04;  0.0000000E+00; -1.3091746E-01;  4.0000000E+04;  0.0000000E+00;  3.9814020E+04;  3.5554433E+00;  0.0000000E+00; -3.6782399E-02;  5.4161733E+03;
  9.4079024E-01;  9.9999998E-03;  8.0147080E-02;7913;  1.3295333E+00;  0.0000000E+00; -1.1588638E-02;  1.0032040E+03;  1.2097279E-01;  2.6521941E+03;3;  1.1431490E+02;  0.0000000E+00; -7.1991162E+00;0;  3.5346336E+00;  2.7628018E+04;  0.0000000E+00; -1.4845854E-01;  4.0000000E+04;  0.0000000E+00;  3.9818418E+04;  3.5622149E+00;  0.0000000E+00; -2.7581131E-02;  4.8158140E+03;
  9.4081342E-01;  9.9999998E-03;  9.0150975E-02;7914;  1.3098166E+00;  0.0000000E+00; -1.1755410E-02;  1.0026655E+03;  1.2097278E-01;  2.2064607E+03;3;  1.0437068E+02;  0.0000000E+00; -8.3476229E+00;0;  3.5445385E+00;  2.7594775E+04;  0.0000000E+00; -1.5410744E-01;  4.0000000E+04;  0.0000000E+00;  3.9823309E+04;  3.5650759E+00;  0.0000000E+00; -2.0537468E-02;  4.1600088E+03;
  9.4085467E-01;  9.9999998E-03;  1.0015292E-01;7915;  1.2907506E+00;  0.0000000E+00; -1.1633992E-02;  1.0020875E+03;  1.2097298E-01;  1.7279656E+03;3;  9.1944054E+01;  0.0000000E+00; -9.6569624E+00;0;  3.5455270E+00;  2.7559596E+04;  0.0000000E+00; -1.4359312E-01;  4.0000000E+04;  0.0000000E+00;  3.9828207E+04;  3.5612838E+00;  0.0000000E+00; -1.5756851E-02;  3.4894497E+03;
  9.4099468E-01;  9.9999998E-03;  1.1016835E-01;7916;  1.2786556E+00;  0.0000000E+00; -1.1879708E-02;  1.0014974E+03;  1.2097268E-01;  1.2395029E+03;3;  7.7466591E+01;  0.0000000E+00; -1.0165074E+01;0;  3.5315237E+00;  2.7524518E+04;  0.0000000E+00; -1.1410885E-01;  4.0000000E+04;  0.0000000E+00;  3.9833066E+04;  3.5446680E+00;  0.0000000E+00; -1.3144262E-02;  2.8290464E+03;
  9.4122577E-01;  9.9999998E-03;  1.2020706E-01;7917;  1.2768924E+00;  0.0000000E+00; -1.2785359E-02;  1.0009204E+03;  1.2097184E-01;  7.6189587E+02;3;  6.1067329E+01;  0.0000000E+00; -1.0670877E+01;0;  3.5035479E+00;  2.7490971E+04;  0.0000000E+00; -6.4777084E-02;  4.0000000E+04;  0.0000000E+00;  3.9837586E+04;  3.5157735E+00;  0.0000000E+00; -1.2225516E-02;  2.2207859E+03;
  9.4143462E-01;  9.9999998E-03;  1.3024315E-01;7918;  1.2720624E+00;  0.0000000E+00; -1.3438785E-02;  1.0003667E+03;  1.2097073E-01;  3.0353391E+02;3;  4.3992020E+01;  0.0000000E+00; -1.1192562E+01;0;  3.4708884E+00;  2.7459365E+04;  0.0000000E+00;  2.5635043E-03;  4.0000000E+04;  0.0000000E+00;  3.9841609E+04;  3.4831698E+00;  0.0000000E+00; -1.2281529E-02;  1.7030581E+03;
  9.4162780E-01;  9.9999998E-03;  1.4027242E-01;7919;  1.2624241E+00;  0.0000000E+00; -1.3641396E-02;  9.9986340E+02;  1.2096907E-01; -1.1308486E+02;3;  2.6751474E+01;  0.0000000E+00; -1.1380479E+01;0;  3.4341762E+00;  2.7430943E+04;  0.0000000E+00;  8.3726183E-02;  4.0000000E+04;  0.0000000E+00;  3.9845203E+04;  3.4470167E+00;  0.0000000E+00; -1.2840395E-02;  1.3153242E+03;
  9.4182724E-01;  9.9999998E-03;  1.5029380E-01;7920;  1.2491698E+00;  0.0000000E+00; -1.3530813E-02;  9.9943109E+02;  1.2096624E-01; -4.7093903E+02;3;  9.4222708E+00;  0.0000000E+00; -1.1097391E+01;0;  3.3934519E+00;  2.7406953E+04;  0.0000000E+00;  1.7369580E-01;  4.0000000E+04;  0.0000000E+00;  3.9848402E+04;  3.4069879E+00;  0.0000000E+00; -1.3536074E-02;  1.1128273E+03;
  9.4204015E-01;  9.9999998E-03;  1.6030923E-01;7921;  1.2337837E+00;  0.0000000E+00; -1.3104644E-02;  9.9908038E+02;  1.2096277E-01; -7.6124646E+02;3; -7.7582316E+00;  0.0000000E+00; -1.0323040E+01;0;  3.3499019E+00;  2.7387809E+04;  0.0000000E+00;  2.6650783E-01;  4.0000000E+04;  0.0000000E+00;  3.9851449E+04;  3.3640223E+00;  0.0000000E+00; -1.4120288E-02;  1.1232845E+03;
  9.4225800E-01;  9.9999998E-03;  1.7032561E-01;7922;  1.2170913E+00;  0.0000000E+00; -1.2460658E-02;  9.9881372E+02;  1.2095863E-01; -9.8193561E+02;3; -2.4669184E+01;  0.0000000E+00; -9.0206966E+00;0;  3.3055367E+00;  2.7373361E+04;  0.0000000E+00;  3.5465893E-01;  4.0000000E+04;  0.0000000E+00;  3.9854480E+04;  3.3200054E+00;  0.0000000E+00; -1.4468759E-02;  1.2914679E+03;
  9.4247180E-01;  9.9999998E-03;  1.8034826E-01;7923;  1.1994934E+00;  0.0000000E+00; -1.1697517E-02;  9.9862683E+02;  1.2095391E-01; -1.1366582E+03;3; -4.1165333E+01;  0.0000000E+00; -7.2029519E+00;0;  3.2622511E+00;  2.7363148E+04;  0.0000000E+00;  4.3045822E-01;  4.0000000E+04;  0.0000000E+00;  3.9857574E+04;  3.2767739E+00;  0.0000000E+00; -1.4522755E-02;  1.5430045E+03;
  9.4267195E-01;  9.9999998E-03;  1.9038509E-01;7924;  1.1813437E+00;  0.0000000E+00; -1.0966677E-02;  9.9850330E+02;  1.2094916E-01; -1.2389333E+03;3; -5.7170094E+01;  0.0000000E+00; -5.2604284E+00;0;  3.2216096E+00;  2.7356340E+04;  0.0000000E+00;  4.8824427E-01;  4.0000000E+04;  0.0000000E+00;  3.9860773E+04;  3.2358534E+00;  0.0000000E+00; -1.4243784E-02;  1.8219513E+03;
  9.4286090E-01;  9.9999998E-03;  2.0042728E-01;7925;  1.1631063E+00;  0.0000000E+00; -1.0319466E-02;  9.9842120E+02;  1.2094478E-01; -1.3068690E+03;3; -7.2607277E+01;  0.0000000E+00; -3.6343215E+00;0;  3.1845915E+00;  2.7352229E+04;  0.0000000E+00;  5.2525628E-01;  4.0000000E+04;  0.0000000E+00;  3.9863348E+04;  3.1981723E+00;  0.0000000E+00; -1.3580828E-02;  2.0507534E+03;
  9.4304579E-01;  9.9999998E-03;  2.1045360E-01;7926;  1.1452433E+00;  0.0000000E+00; -9.7929547E-03;  9.9837555E+02;  1.2094054E-01; -1.3446588E+03;3; -8.7178749E+01;  0.0000000E+00; -2.1642399E+00;0;  3.1518764E+00;  2.7350082E+04;  0.0000000E+00;  5.4046685E-01;  4.0000000E+04;  0.0000000E+00;  3.9865395E+04;  3.1643784E+00;  0.0000000E+00; -1.2501922E-02;  2.2227180E+03;
  9.4324446E-01;  9.9999998E-03;  2.2046834E-01;7927;  1.1279799E+00;  0.0000000E+00; -9.3384637E-03;  9.9836237E+02;  1.2093641E-01; -1.3555590E+03;3; -1.0067660E+02;  0.0000000E+00; -5.4512221E-01;0;  3.1239300E+00;  2.7349744E+04;  0.0000000E+00;  5.3249550E-01;  4.0000000E+04;  0.0000000E+00;  3.9867539E+04;  3.1348429E+00;  0.0000000E+00; -1.0912797E-02;  2.3641826E+03;
  9.4347662E-01;  9.9999998E-03;  2.3048016E-01;7928;  1.1115860E+00;  0.0000000E+00; -9.0039922E-03;  9.9837720E+02;  1.2093294E-01; -1.3432698E+03;3; -1.1339268E+02;  0.0000000E+00;  7.2657406E-01;0;  3.1010871E+00;  2.7351197E+04;  0.0000000E+00;  4.9395204E-01;  4.0000000E+04;  0.0000000E+00;  3.9869324E+04;  3.1099453E+00;  0.0000000E+00; -8.8582272E-03;  2.4468276E+03;
  9.5209819E-01;  9.9999998E-03;  7.0074610E-02;7973;  1.3555673E+00;  0.0000000E+00; -7.9849754E-03;  1.0033903E+03;  1.2026574E-01;  2.8059900E+03;3;  7.1294197E+01;  0.0000000E+00;  4.8120239E-01;0;  2.7369635E+00;  2.7944461E+04;  0.0000000E+00; -1.4563003E-01;  4.0000000E+04;  0.0000000E+00;  3.9840840E+04;  2.7870889E+00;  0.0000000E+00; -5.0125338E-02;  2.2484988E+03;
  9.5215344E-01;  9.9999998E-03;  8.0076560E-02;7974;  1.3531886E+00;  0.0000000E+00; -9.0765785E-03;  1.0029661E+03;  1.2026664E-01;  2.4549431E+03;3;  8.0474030E+01;  0.0000000E+00; -3.4581232E-01;0;  2.7697167E+00;  2.7918650E+04;  0.0000000E+00; -1.5351944E-01;  4.0000000E+04;  0.0000000E+00;  3.9843754E+04;  2.8120971E+00;  0.0000000E+00; -4.2380303E-02;  1.8447719E+03;
  9.5223671E-01;  9.9999998E-03;  9.0073489E-02;7975;  1.3430284E+00;  0.0000000E+00; -1.0156176E-02;  1.0025085E+03;  1.2026735E-01;  2.0761719E+03;3;  1.1045348E+02;  0.0000000E+00; -3.0998940E+00;0;  2.7997496E+00;  2.7891469E+04;  0.0000000E+00; -1.4572191E-01;  4.0000000E+04;  0.0000000E+00;  3.9846562E+04;  2.8358755E+00;  0.0000000E+00; -3.6125798E-02;  1.4536808E+03;
  9.5241737E-01;  9.9999998E-03;  1.0007898E-01;7976;  1.3309637E+00;  0.0000000E+00; -1.0749337E-02;  1.0020445E+03;  1.2026743E-01;  1.6920710E+03;3;  9.9855743E+01;  0.0000000E+00; -3.7701242E+00;0;  2.8215683E+00;  2.7864699E+04;  0.0000000E+00; -1.2041710E-01;  4.0000000E+04;  0.0000000E+00;  3.9848988E+04;  2.8530171E+00;  0.0000000E+00; -3.1448931E-02;  1.1022660E+03;
  9.5267105E-01;  9.9999998E-03;  1.1010046E-01;7977;  1.3265492E+00;  0.0000000E+00; -1.1903698E-02;  1.0015895E+03;  1.2026718E-01;  1.3155677E+03;3;  8.3815468E+01;  0.0000000E+00; -3.6004567E+00;0;  2.8361800E+00;  2.7839578E+04;  0.0000000E+00; -7.7801630E-02;  4.0000000E+04;  0.0000000E+00;  3.9850922E+04;  2.8642821E+00;  0.0000000E+00; -2.8102184E-02;  8.4033466E+02;
  9.5293158E-01;  9.9999998E-03;  1.2012795E-01;7978;  1.3226439E+00;  0.0000000E+00; -1.3027410E-02;  1.0011708E+03;  1.2026618E-01;  9.6906079E+02;3;  6.6653908E+01;  0.0000000E+00; -3.6844547E+00;0;  2.8485947E+00;  2.7817197E+04;  0.0000000E+00; -2.0218955E-02;  4.0000000E+04;  0.0000000E+00;  3.9852227E+04;  2.8741386E+00;  0.0000000E+00; -2.5543880E-02;  7.1044800E+02;
  9.5317739E-01;  9.9999998E-03;  1.3015828E-01;7979;  1.3154458E+00;  0.0000000E+00; -1.3840647E-02;  1.0008084E+03;  1.2026482E-01;  6.6902631E+02;3;  4.9325821E+01;  0.0000000E+00; -3.7027011E+00;0;  2.8610940E+00;  2.7798533E+04;  0.0000000E+00;  4.8623275E-02;  4.0000000E+04;  0.0000000E+00;  3.9852863E+04;  2.8843935E+00;  0.0000000E+00; -2.3299383E-02;  7.2424951E+02;
  9.5340592E-01;  9.9999998E-03;  1.4019309E-01;7980;  1.3047545E+00;  0.0000000E+00; -1.4249027E-02;  1.0005195E+03;  1.2026241E-01;  4.2996704E+02;3;  3.2134544E+01;  0.0000000E+00; -3.1311090E+00;0;  2.8748391E+00;  2.7784543E+04;  0.0000000E+00;  1.2469529E-01;  4.0000000E+04;  0.0000000E+00;  3.9853066E+04;  2.8958583E+00;  0.0000000E+00; -2.1019317E-02;  8.3846460E+02;
  9.5360512E-01;  9.9999998E-03;  1.5023370E-01;7981;  1.2907805E+00;  0.0000000E+00; -1.4218827E-02;  1.0003198E+03;  1.2025984E-01;  2.6470810E+02;3;  1.4918060E+01;  0.0000000E+00; -2.6403279E+00;0;  2.8914177E+00;  2.7775693E+04;  0.0000000E+00;  2.0415448E-01;  4.0000000E+04;  0.0000000E+00;  3.9852973E+04;  2.9098995E+00;  0.0000000E+00; -1.8481739E-02;  9.9633167E+02;
  9.5378566E-01;  9.9999998E-03;  1.6027905E-01;7982;  1.2744406E+00;  0.0000000E+00; -1.3648206E-02;  1.0002119E+03;  1.2025587E-01;  1.7532054E+02;3; -2.0377471E+00;  0.0000000E+00; -1.5923058E+00;0;  2.9111319E+00;  2.7772119E+04;  0.0000000E+00;  2.8219059E-01;  4.0000000E+04;  0.0000000E+00;  3.9852727E+04;  2.9267879E+00;  0.0000000E+00; -1.5656011E-02;  1.1575077E+03;
  9.5395607E-01;  9.9999998E-03;  1.7032316E-01;7983;  1.2562370E+00;  0.0000000E+00; -1.2467162E-02;  1.0001959E+03;  1.2025147E-01;  1.6209955E+02;3; -1.8605055E+01;  0.0000000E+00;  2.6592734E-01;0;  2.9343190E+00;  2.7773512E+04;  0.0000000E+00;  3.5182151E-01;  4.0000000E+04;  0.0000000E+00;  3.9852617E+04;  2.9469218E+00;  0.0000000E+00; -1.2602840E-02;  1.2956603E+03;
  9.5411617E-01;  9.9999998E-03;  1.8036491E-01;7984;  1.2369744E+00;  0.0000000E+00; -1.1039484E-02;  1.0002578E+03;  1.2024629E-01;  2.1330392E+02;3; -3.5248047E+01;  0.0000000E+00;  1.6784568E+00;0;  2.9613905E+00;  2.7779197E+04;  0.0000000E+00;  4.0514937E-01;  4.0000000E+04;  0.0000000E+00;  3.9852742E+04;  2.9707091E+00;  0.0000000E+00; -9.3185594E-03;  1.3959789E+03;
  9.5426512E-01;  9.9999998E-03;  1.9040455E-01;7985;  1.2175270E+00;  0.0000000E+00; -9.4007896E-03;  1.0003734E+03;  1.2024076E-01;  3.0900388E+02;3; -5.1466850E+01;  0.0000000E+00;  3.0331323E+00;0;  2.9925649E+00;  2.7787951E+04;  0.0000000E+00;  4.3549818E-01;  4.0000000E+04;  0.0000000E+00;  3.9852641E+04;  2.9981699E+00;  0.0000000E+00; -5.6050555E-03;  1.4577344E+03;
  9.5440811E-01;  9.9999998E-03;  2.0044287E-01;7986;  1.1985691E+00;  0.0000000E+00; -7.8252647E-03;  1.0005213E+03;  1.2023559E-01;  4.3144025E+02;3; -6.6978584E+01;  0.0000000E+00;  4.3878756E+00;0;  3.0277998E+00;  2.7798971E+04;  0.0000000E+00;  4.3876857E-01;  4.0000000E+04;  0.0000000E+00;  3.9851621E+04;  3.0288825E+00;  0.0000000E+00; -1.0826187E-03;  1.5081724E+03;
  9.5456421E-01;  9.9999998E-03;  2.1046966E-01;7987;  1.1801875E+00;  0.0000000E+00; -6.5611880E-03;  1.0006861E+03;  1.2023052E-01;  5.6778699E+02;3; -8.1390541E+01;  0.0000000E+00;  6.1921778E+00;0;  3.0668128E+00;  2.7811570E+04;  0.0000000E+00;  4.1351372E-01;  4.0000000E+04;  0.0000000E+00;  3.9849410E+04;  3.0622129E+00;  0.0000000E+00;  4.5998786E-03;  1.5942638E+03;
  9.5473510E-01;  9.9999998E-03;  2.2048178E-01;7988;  1.1619880E+00;  0.0000000E+00; -5.9741358E-03;  1.0008613E+03;  1.2022543E-01;  7.1281500E+02;3; -9.5041451E+01;  0.0000000E+00;  7.2682424E+00;0;  3.1090090E+00;  2.7825145E+04;  0.0000000E+00;  3.5955477E-01;  4.0000000E+04;  0.0000000E+00;  3.9846812E+04;  3.0979114E+00;  0.0000000E+00;  1.1097667E-02;  1.7246935E+03;
  9.5491338E-01;  9.9999998E-03;  2.3048446E-01;7989;  1.1439879E+00;  0.0000000E+00; -5.4422719E-03;  1.0010503E+03;  1.2022108E-01;  8.6918787E+02;3; -1.0772888E+02;  0.0000000E+00;  8.2158070E+00;0;  3.1546109E+00;  2.7838934E+04;  0.0000000E+00;  2.7373806E-01;  4.0000000E+04;  0.0000000E+00;  3.9844758E+04;  3.1355796E+00;  0.0000000E+00;  1.9031389E-02;  1.8116327E+03;
  9.6331942E-01;  9.9999998E-03;  7.0044063E-02;8034;  1.3553636E+00;  0.0000000E+00; -6.4009987E-03;  1.0022573E+03;  1.1950088E-01;  1.8678502E+03;3;  7.0156342E+01;  0.0000000E+00;  2.6430323E+00;0;  2.0387652E+00;  2.8220682E+04;  0.0000000E+00; -7.4439421E-02;  4.0000000E+04;  0.0000000E+00;  3.9865363E+04;  2.1000214E+00;  0.0000000E+00; -6.1256129E-02;  6.7255725E+02;
  9.6345735E-01;  9.9999998E-03;  8.0035806E-02;8035;  1.3540283E+00;  0.0000000E+00; -7.2668218E-03;  1.0019819E+03;  1.1950153E-01;  1.6400740E+03;3;  6.9008156E+01;  0.0000000E+00;  2.7180977E+00;0;  2.0827487E+00;  2.8204297E+04;  0.0000000E+00; -6.0337614E-02;  4.0000000E+04;  0.0000000E+00;  3.9867176E+04;  2.1377919E+00;  0.0000000E+00; -5.5043206E-02;  9.3773535E+02;
  9.6366024E-01;  9.9999998E-03;  9.0035915E-02;8036;  1.3525875E+00;  0.0000000E+00; -8.1341323E-03;  1.0016980E+03;  1.1950205E-01;  1.4050962E+03;3;  6.7552132E+01;  0.0000000E+00;  2.7383349E+00;0;  2.1259608E+00;  2.8188471E+04;  0.0000000E+00; -3.2749370E-02;  4.0000000E+04;  0.0000000E+00;  3.9868500E+04;  2.1757562E+00;  0.0000000E+00; -4.9795374E-02;  1.1384006E+03;
  9.6389395E-01;  9.9999998E-03;  1.0004331E-01;8037;  1.3510332E+00;  0.0000000E+00; -9.0117948E-03;  1.0014278E+03;  1.1950219E-01;  1.1814636E+03;3;  6.5795692E+01;  0.0000000E+00;  2.7252872E+00;0;  2.1699274E+00;  2.8174238E+04;  0.0000000E+00;  5.7470757E-03;  4.0000000E+04;  0.0000000E+00;  3.9868973E+04;  2.2153540E+00;  0.0000000E+00; -4.5426689E-02;  1.2470388E+03;
  9.6414691E-01;  9.9999998E-03;  1.1005796E-01;8038;  1.3492087E+00;  0.0000000E+00; -9.9760918E-03;  1.0011868E+03;  1.1950157E-01;  9.8200018E+02;3;  6.3431664E+01;  0.0000000E+00;  2.3165588E+00;0;  2.2153268E+00;  2.8162873E+04;  0.0000000E+00;  5.0814845E-02;  4.0000000E+04;  0.0000000E+00;  3.9868590E+04;  2.2569718E+00;  0.0000000E+00; -4.1645106E-02;  1.2595748E+03;
  9.6442109E-01;  9.9999998E-03;  1.2008010E-01;8039;  1.3461108E+00;  0.0000000E+00; -1.1164446E-02;  1.0009998E+03;  1.1949979E-01;  8.2732245E+02;3;  5.9660053E+01;  0.0000000E+00;  1.5479615E+00;0;  2.2627459E+00;  2.8155500E+04;  0.0000000E+00;  9.8060913E-02;  4.0000000E+04;  0.0000000E+00;  3.9867340E+04;  2.3007956E+00;  0.0000000E+00; -3.8049627E-02;  1.1871846E+03;
  9.6471602E-01;  9.9999998E-03;  1.3011198E-01;8040;  1.3397458E+00;  0.0000000E+00; -1.2217394E-02;  1.0008802E+03;  1.1949658E-01;  7.2837915E+02;3;  5.1380737E+01;  0.0000000E+00;  1.5757152E+00;0;  2.3135297E+00;  2.8153133E+04;  0.0000000E+00;  1.4431107E-01;  4.0000000E+04;  0.0000000E+00;  3.9865266E+04;  2.3477678E+00;  0.0000000E+00; -3.4238186E-02;  1.0547219E+03;
  9.6499813E-01;  9.9999998E-03;  1.4014919E-01;8041;  1.3300840E+00;  0.0000000E+00; -1.2794179E-02;  1.0008401E+03;  1.1949287E-01;  6.9523157E+02;3;  3.7998749E+01;  0.0000000E+00;  2.4855154E+00;0;  2.3705232E+00;  2.8155863E+04;  0.0000000E+00;  1.8816988E-01;  4.0000000E+04;  0.0000000E+00;  3.9862645E+04;  2.4004233E+00;  0.0000000E+00; -2.9900147E-02;  9.1410443E+02;
  9.6521562E-01;  9.9999998E-03;  1.5018891E-01;8042;  1.3175371E+00;  0.0000000E+00; -1.2704868E-02;  1.0008832E+03;  1.1948888E-01;  7.3083856E+02;3;  2.3310963E+01;  0.0000000E+00;  4.2707868E+00;0;  2.4366679E+00;  2.8163246E+04;  0.0000000E+00;  2.2979705E-01;  4.0000000E+04;  0.0000000E+00;  3.9859562E+04;  2.4615612E+00;  0.0000000E+00; -2.4893304E-02;  8.6105627E+02;
  9.6535289E-01;  9.9999998E-03;  1.6023181E-01;8043;  1.3020563E+00;  0.0000000E+00; -1.2116436E-02;  1.0010087E+03;  1.1948581E-01;  8.3460779E+02;3;  7.9741063E+00;  0.0000000E+00;  6.3294654E+00;0;  2.5125098E+00;  2.8174646E+04;  0.0000000E+00;  2.6845405E-01;  4.0000000E+04;  0.0000000E+00;  3.9856438E+04;  2.5318167E+00;  0.0000000E+00; -1.9306829E-02;  9.6715533E+02;
  9.6544600E-01;  9.9999998E-03;  1.7027481E-01;8044;  1.2851536E+00;  0.0000000E+00; -1.1288231E-02;  1.0012095E+03;  1.1948251E-01;  1.0008175E+03;3; -7.9099069E+00;  0.0000000E+00;  7.7881007E+00;0;  2.5960305E+00;  2.8189840E+04;  0.0000000E+00;  2.9999050E-01;  4.0000000E+04;  0.0000000E+00;  3.9853508E+04;  2.6093743E+00;  0.0000000E+00; -1.3343873E-02;  1.1786404E+03;
  9.6554613E-01;  9.9999998E-03;  1.8031332E-01;8045;  1.2681717E+00;  0.0000000E+00; -1.0260571E-02;  1.0014784E+03;  1.1947730E-01;  1.2233507E+03;3; -2.3647062E+01;  0.0000000E+00;  9.1120377E+00;0;  2.6848595E+00;  2.8208840E+04;  0.0000000E+00;  3.1723940E-01;  4.0000000E+04;  0.0000000E+00;  3.9851043E+04;  2.6919832E+00;  0.0000000E+00; -7.1238060E-03;  1.4113060E+03;
  9.6565682E-01;  9.9999998E-03;  1.9034843E-01;8046;  1.2516254E+00;  0.0000000E+00; -9.0941787E-03;  1.0017922E+03;  1.1947177E-01;  1.4829718E+03;3; -3.8681309E+01;  0.0000000E+00;  1.0683777E+01;0;  2.7781880E+00;  2.8230459E+04;  0.0000000E+00;  3.1281129E-01;  4.0000000E+04;  0.0000000E+00;  3.9848730E+04;  2.7787573E+00;  0.0000000E+00; -5.6939205E-04;  1.6391652E+03;
  9.6576315E-01;  9.9999998E-03;  2.0038447E-01;8047;  1.2355042E+00;  0.0000000E+00; -8.2915081E-03;  1.0021279E+03;  1.1946622E-01;  1.7607419E+03;3; -5.3140812E+01;  0.0000000E+00;  1.1878851E+01;0;  2.8752027E+00;  2.8253379E+04;  0.0000000E+00;  2.8159639E-01;  4.0000000E+04;  0.0000000E+00;  3.9846043E+04;  2.8688500E+00;  0.0000000E+00;  6.3526598E-03;  1.9174017E+03;
  9.6585733E-01;  9.9999998E-03;  2.1041144E-01;8048;  1.2199329E+00;  0.0000000E+00; -7.6252441E-03;  1.0024622E+03;  1.1946105E-01;  2.0374265E+03;3; -6.7004982E+01;  0.0000000E+00;  1.2448692E+01;0;  2.9744904E+00;  2.8276371E+04;  0.0000000E+00;  2.2164610E-01;  4.0000000E+04;  0.0000000E+00;  3.9842629E+04;  2.9607317E+00;  0.0000000E+00;  1.3758701E-02;  2.2855305E+03;
  9.6594554E-01;  9.9999998E-03;  2.2042629E-01;8049;  1.2049010E+00;  0.0000000E+00; -6.9420440E-03;  1.0027850E+03;  1.1945643E-01;  2.3044434E+03;3; -8.0026764E+01;  0.0000000E+00;  1.3042418E+01;0;  3.0746245E+00;  2.8298734E+04;  0.0000000E+00;  1.3336182E-01;  4.0000000E+04;  0.0000000E+00;  3.9839129E+04;  3.0527196E+00;  0.0000000E+00;  2.1905046E-02;  2.6924883E+03;
  9.6605057E-01;  9.9999998E-03;  2.3043624E-01;8050;  1.1905279E+00;  0.0000000E+00; -6.1844066E-03;  1.0030945E+03;  1.1945196E-01;  2.5606084E+03;3; -9.2133408E+01;  0.0000000E+00;  1.3546794E+01;0;  3.1746824E+00;  2.8320346E+04;  0.0000000E+00;  1.7272767E-02;  4.0000000E+04;  0.0000000E+00;  3.9835445E+04;  3.1434233E+00;  0.0000000E+00;  3.1258997E-02;  3.1180586E+03;
  9.7478539E-01;  9.9999998E-03;  7.0016973E-02;8095;  1.3545994E+00;  0.0000000E+00; -5.5135805E-03;  1.0003506E+03;  1.1868434E-01;  2.9005151E+02;3;  6.9910316E+01;  0.0000000E+00;  4.2830129E+00;0;  1.4343410E+00;  2.8487605E+04;  0.0000000E+00;  5.0054125E-02;  4.0000000E+04;  0.0000000E+00;  3.9887164E+04;  1.5059144E+00;  0.0000000E+00; -7.1573481E-02;  3.3111267E+03;
  9.7496897E-01;  9.9999998E-03;  8.0007814E-02;8096;  1.3534635E+00;  0.0000000E+00; -6.1732642E-03;  1.0002943E+03;  1.1868431E-01;  2.4340167E+02;3;  6.8769356E+01;  0.0000000E+00;  4.7321305E+00;0;  1.4881238E+00;  2.8484889E+04;  0.0000000E+00;  9.0155296E-02;  4.0000000E+04;  0.0000000E+00;  3.9888227E+04;  1.5550319E+00;  0.0000000E+00; -6.6908076E-02;  3.4603638E+03;
  9.7518086E-01;  9.9999998E-03;  9.0001956E-02;8097;  1.3522843E+00;  0.0000000E+00; -6.7842966E-03;  1.0002556E+03;  1.1868338E-01;  2.1144685E+02;3;  6.7413254E+01;  0.0000000E+00;  5.0896692E+00;0;  1.5468243E+00;  2.8484387E+04;  0.0000000E+00;  1.3623035E-01;  4.0000000E+04;  0.0000000E+00;  3.9888324E+04;  1.6095581E+00;  0.0000000E+00; -6.2733732E-02;  3.4979739E+03;
  9.7544205E-01;  9.9999998E-03;  1.0000212E-01;8098;  1.3510568E+00;  0.0000000E+00; -7.3664109E-03;  1.0002493E+03;  1.1868162E-01;  2.0621873E+02;3;  6.5915924E+01;  0.0000000E+00;  5.4327664E+00;0;  1.6095008E+00;  2.8487047E+04;  0.0000000E+00;  1.8138371E-01;  4.0000000E+04;  0.0000000E+00;  3.9887406E+04;  1.6684551E+00;  0.0000000E+00; -5.8954362E-02;  3.4112112E+03;
  9.7578752E-01;  9.9999998E-03;  1.1001661E-01;8099;  1.3497796E+00;  0.0000000E+00; -8.0092335E-03;  1.0002809E+03;  1.1867677E-01;  2.3245047E+02;3;  6.4048088E+01;  0.0000000E+00;  5.5365481E+00;0;  1.6752876E+00;  2.8494355E+04;  0.0000000E+00;  2.1843912E-01;  4.0000000E+04;  0.0000000E+00;  3.9885609E+04;  1.7305934E+00;  0.0000000E+00; -5.5305880E-02;  3.1979656E+03;
  9.7613752E-01;  9.9999998E-03;  1.2003347E-01;8100;  1.3482859E+00;  0.0000000E+00; -8.7723564E-03;  1.0003717E+03;  1.1867160E-01;  3.0749899E+02;3;  6.1661919E+01;  0.0000000E+00;  5.5821395E+00;0;  1.7485576E+00;  2.8506031E+04;  0.0000000E+00;  2.4147889E-01;  4.0000000E+04;  0.0000000E+00;  3.9882594E+04;  1.7998532E+00;  0.0000000E+00; -5.1295694E-02;  2.8488396E+03;
  9.7644877E-01;  9.9999998E-03;  1.3004802E-01;8101;  1.3451670E+00;  0.0000000E+00; -9.6105449E-03;  1.0005237E+03;  1.1866671E-01;  4.3323737E+02;3;  5.6738483E+01;  0.0000000E+00;  5.6447282E+00;0;  1.8320339E+00;  2.8521525E+04;  0.0000000E+00;  2.4956061E-01;  4.0000000E+04;  0.0000000E+00;  3.9878719E+04;  1.8785425E+00;  0.0000000E+00; -4.6508707E-02;  2.3723059E+03;
  9.7670949E-01;  9.9999998E-03;  1.4006244E-01;8102;  1.3387343E+00;  0.0000000E+00; -1.0034566E-02;  1.0007363E+03;  1.1866188E-01;  6.0917188E+02;3;  4.7163536E+01;  0.0000000E+00;  7.1254940E+00;0;  1.9270289E+00;  2.8540625E+04;  0.0000000E+00;  2.4622439E-01;  4.0000000E+04;  0.0000000E+00;  3.9873828E+04;  1.9677407E+00;  0.0000000E+00; -4.0711798E-02;  1.7966798E+03;
  9.7690618E-01;  9.9999998E-03;  1.5008520E-01;8103;  1.3293790E+00;  0.0000000E+00; -9.9654188E-03;  1.0010090E+03;  1.1865795E-01;  8.3471075E+02;3;  3.4428761E+01;  0.0000000E+00;  9.3116732E+00;0;  2.0345449E+00;  2.8562816E+04;  0.0000000E+00;  2.3677176E-01;  4.0000000E+04;  0.0000000E+00;  3.9868500E+04;  2.0683918E+00;  0.0000000E+00; -3.3846792E-02;  1.1845959E+03;
  9.7701013E-01;  9.9999998E-03;  1.6012195E-01;8104;  1.3184499E+00;  0.0000000E+00; -9.7476868E-03;  1.0013398E+03;  1.1865548E-01;  1.1083759E+03;3;  2.0288435E+01;  0.0000000E+00;  1.1451084E+01;0;  2.1551809E+00;  2.8587471E+04;  0.0000000E+00;  2.2494446E-01;  4.0000000E+04;  0.0000000E+00;  3.9862840E+04;  2.1811953E+00;  0.0000000E+00; -2.6014280E-02;  7.1621863E+02;
  9.7705716E-01;  9.9999998E-03;  1.7016648E-01;8105;  1.3069837E+00;  0.0000000E+00; -9.4396872E-03;  1.0017180E+03;  1.1865327E-01;  1.4212915E+03;3;  6.1018372E+00;  0.0000000E+00;  1.3344165E+01;0;  2.2864780E+00;  2.8614115E+04;  0.0000000E+00;  2.1013913E-01;  4.0000000E+04;  0.0000000E+00;  3.9857699E+04;  2.3039539E+00;  0.0000000E+00; -1.7475782E-02;  7.7849872E+02;
  9.7707051E-01;  9.9999998E-03;  1.8021399E-01;8106;  1.2952105E+00;  0.0000000E+00; -9.2912661E-03;  1.0021377E+03;  1.1865113E-01;  1.7684287E+03;3; -7.9658394E+00;  0.0000000E+00;  1.5011413E+01;0;  2.4259174E+00;  2.8642139E+04;  0.0000000E+00;  1.8755402E-01;  4.0000000E+04;  0.0000000E+00;  3.9853160E+04;  2.4343870E+00;  0.0000000E+00; -8.4696868E-03;  1.2028920E+03;
  9.7706759E-01;  9.9999998E-03;  1.9026177E-01;8107;  1.2837944E+00;  0.0000000E+00; -9.4316211E-03;  1.0025803E+03;  1.1864902E-01;  2.1345996E+03;3; -2.1995012E+01;  0.0000000E+00;  1.5377495E+01;0;  2.5706837E+00;  2.8670953E+04;  0.0000000E+00;  1.5064532E-01;  4.0000000E+04;  0.0000000E+00;  3.9848977E+04;  2.5699356E+00;  0.0000000E+00;  7.4817793E-04;  1.6792307E+03;
  9.7706801E-01;  9.9999998E-03;  2.0030670E-01;8108;  1.2730541E+00;  0.0000000E+00; -9.5771588E-03;  1.0030229E+03;  1.1864617E-01;  2.5007703E+03;3; -3.5221588E+01;  0.0000000E+00;  1.5767899E+01;0;  2.7177908E+00;  2.8699945E+04;  0.0000000E+00;  9.3572602E-02;  4.0000000E+04;  0.0000000E+00;  3.9844898E+04;  2.7078640E+00;  0.0000000E+00;  9.9267950E-03;  2.1961506E+03;
  9.7711575E-01;  9.9999998E-03;  2.1033479E-01;8109;  1.2632971E+00;  0.0000000E+00; -9.7526778E-03;  1.0034576E+03;  1.1864170E-01;  2.8603308E+03;3; -4.7603298E+01;  0.0000000E+00;  1.6195419E+01;0;  2.8638892E+00;  2.8729383E+04;  0.0000000E+00;  1.1858598E-02;  4.0000000E+04;  0.0000000E+00;  3.9840859E+04;  2.8452024E+00;  0.0000000E+00;  1.8686851E-02;  2.7087507E+03;
  9.7716337E-01;  9.9999998E-03;  2.2034739E-01;8110;  1.2546948E+00;  0.0000000E+00; -9.7825890E-03;  1.0038827E+03;  1.1863703E-01;  3.2120010E+03;3; -5.9101028E+01;  0.0000000E+00;  1.6256315E+01;0;  3.0073378E+00;  2.8757277E+04;  0.0000000E+00; -9.3972310E-02;  4.0000000E+04;  0.0000000E+00;  3.9838145E+04;  2.9806201E+00;  0.0000000E+00;  2.6717689E-02;  3.0803030E+03;
  9.7720385E-01;  9.9999998E-03;  2.3035963E-01;8111;  1.2471083E+00;  0.0000000E+00; -9.4536087E-03;  1.0042839E+03;  1.1863301E-01;  3.5439475E+03;3; -6.9730110E+01;  0.0000000E+00;  1.6129253E+01;0;  3.1466417E+00;  2.8782879E+04;  0.0000000E+00; -2.2375624E-01;  4.0000000E+04;  0.0000000E+00;  3.9836191E+04;  3.1124687E+00;  0.0000000E+00;  3.4172993E-02;  3.3661443E+03;
  9.8654962E-01;  9.9999998E-03;  7.0011951E-02;8156;  1.3533852E+00;  0.0000000E+00; -4.9210344E-03;  9.9791064E+02;  1.1781925E-01; -1.7281035E+03;3;  6.9833626E+01;  0.0000000E+00;  5.8964868E+00;0;  9.4690543E-01;  2.8757689E+04;  0.0000000E+00;  1.6610716E-01;  4.0000000E+04;  0.0000000E+00;  3.9905500E+04;  1.0291473E+00;  0.0000000E+00; -8.2241848E-02;  5.5594390E+03;
  9.8680878E-01;  9.9999998E-03;  7.9997726E-02;8157;  1.3524282E+00;  0.0000000E+00; -5.4635853E-03;  9.9811188E+02;  1.1781489E-01; -1.5616129E+03;3;  6.8824203E+01;  0.0000000E+00;  6.6214733E+00;0;  1.0060281E+00;  2.8772289E+04;  0.0000000E+00;  2.2473076E-01;  4.0000000E+04;  0.0000000E+00;  3.9906145E+04;  1.0852436E+00;  0.0000000E+00; -7.9215541E-02;  5.6282930E+03;
  9.8712432E-01;  9.9999998E-03;  8.9994363E-02;8158;  1.3514725E+00;  0.0000000E+00; -5.9593134E-03;  9.9835309E+02;  1.1780921E-01; -1.3621423E+03;3;  6.7583900E+01;  0.0000000E+00;  7.2203202E+00;0;  1.0720602E+00;  2.8790961E+04;  0.0000000E+00;  2.8091863E-01;  4.0000000E+04;  0.0000000E+00;  3.9905785E+04;  1.1484588E+00;  0.0000000E+00; -7.6398656E-02;  5.5671553E+03;
  9.8744982E-01;  9.9999998E-03;  9.9997111E-02;8159;  1.3505594E+00;  0.0000000E+00; -6.4489492E-03;  9.9864246E+02;  1.1780313E-01; -1.1227932E+03;3;  6.6142006E+01;  0.0000000E+00;  7.6796031E+00;0;  1.1470032E+00;  2.8813631E+04;  0.0000000E+00;  3.2441598E-01;  4.0000000E+04;  0.0000000E+00;  3.9904086E+04;  1.2205524E+00;  0.0000000E+00; -7.3549211E-02;  5.3530049E+03;
  9.8776549E-01;  9.9999998E-03;  1.1000206E-01;8160;  1.3497050E+00;  0.0000000E+00; -6.9819205E-03;  9.9898181E+02;  1.1779736E-01; -8.4208807E+02;3;  6.4414360E+01;  0.0000000E+00;  8.0263224E+00;0;  1.2321707E+00;  2.8839873E+04;  0.0000000E+00;  3.4649390E-01;  4.0000000E+04;  0.0000000E+00;  3.9901277E+04;  1.3024573E+00;  0.0000000E+00; -7.0286676E-02;  4.9790381E+03;
  9.8806065E-01;  9.9999998E-03;  1.2000705E-01;8161;  1.3488530E+00;  0.0000000E+00; -7.6082805E-03;  9.9936707E+02;  1.1779158E-01; -5.2347882E+02;3;  6.2558849E+01;  0.0000000E+00;  8.3304825E+00;0;  1.3287458E+00;  2.8869354E+04;  0.0000000E+00;  3.4288460E-01;  4.0000000E+04;  0.0000000E+00;  3.9897156E+04;  1.3949227E+00;  0.0000000E+00; -6.6176899E-02;  4.4474404E+03;
  9.8832273E-01;  9.9999998E-03;  1.3001078E-01;8162;  1.3474405E+00;  0.0000000E+00; -8.3006928E-03;  9.9978662E+02;  1.1778619E-01; -1.7648006E+02;3;  6.0097179E+01;  0.0000000E+00;  8.6295624E+00;0;  1.4379778E+00;  2.8901355E+04;  0.0000000E+00;  3.1506944E-01;  4.0000000E+04;  0.0000000E+00;  3.9892039E+04;  1.4988209E+00;  0.0000000E+00; -6.0843144E-02;  3.7671785E+03;
  9.8854035E-01;  9.9999998E-03;  1.4001334E-01;8163;  1.3435336E+00;  0.0000000E+00; -8.7617757E-03;  1.0002359E+03;  1.1778147E-01;  1.9511287E+02;3;  5.4213806E+01;  0.0000000E+00;  9.5796795E+00;0;  1.5608512E+00;  2.8935209E+04;  0.0000000E+00;  2.6939955E-01;  4.0000000E+04;  0.0000000E+00;  3.9885852E+04;  1.6149124E+00;  0.0000000E+00; -5.4061208E-02;  2.9577444E+03;
  9.8871028E-01;  9.9999998E-03;  1.5001832E-01;8164;  1.3374074E+00;  0.0000000E+00; -8.9221708E-03;  1.0007053E+03;  1.1777715E-01;  5.8326556E+02;3;  4.4263138E+01;  0.0000000E+00;  1.1729620E+01;0;  1.6977423E+00;  2.8970258E+04;  0.0000000E+00;  2.1418065E-01;  4.0000000E+04;  0.0000000E+00;  3.9878855E+04;  1.7435294E+00;  0.0000000E+00; -4.5787040E-02;  2.0547996E+03;
  9.8880708E-01;  9.9999998E-03;  1.6003591E-01;8165;  1.3304349E+00;  0.0000000E+00; -8.8964608E-03;  1.0011937E+03;  1.1777428E-01;  9.8719128E+02;3;  3.2804234E+01;  0.0000000E+00;  1.3906893E+01;0;  1.8488954E+00;  2.9005828E+04;  0.0000000E+00;  1.5612973E-01;  4.0000000E+04;  0.0000000E+00;  3.9871660E+04;  1.8850108E+00;  0.0000000E+00; -3.6115371E-02;  1.1221572E+03;
  9.8884881E-01;  9.9999998E-03;  1.7006840E-01;8166;  1.3234624E+00;  0.0000000E+00; -9.2152217E-03;  1.0016957E+03;  1.1777202E-01;  1.4024548E+03;3;  2.0445042E+01;  0.0000000E+00;  1.5883183E+01;0;  2.0123551E+00;  2.9041295E+04;  0.0000000E+00;  9.8004706E-02;  4.0000000E+04;  0.0000000E+00;  3.9864754E+04;  2.0376616E+00;  0.0000000E+00; -2.5306365E-02;  3.0951984E+02;
  9.8885906E-01;  9.9999998E-03;  1.8010807E-01;8167;  1.3172100E+00;  0.0000000E+00; -9.7813150E-03;  1.0022084E+03;  1.1777035E-01;  1.8264937E+03;3;  7.8891721E+00;  0.0000000E+00;  1.7045797E+01;0;  2.1850557E+00;  2.9076248E+04;  0.0000000E+00;  3.8062163E-02;  4.0000000E+04;  0.0000000E+00;  3.9858633E+04;  2.1987731E+00;  0.0000000E+00; -1.3717298E-02;  6.5819110E+02;
  9.8884791E-01;  9.9999998E-03;  1.9015040E-01;8168;  1.3119946E+00;  0.0000000E+00; -1.0413834E-02;  1.0027231E+03;  1.1776864E-01;  2.2521111E+03;3; -4.1473598E+00;  0.0000000E+00;  1.7733051E+01;0;  2.3636160E+00;  2.9110357E+04;  0.0000000E+00; -2.7837144E-02;  4.0000000E+04;  0.0000000E+00;  3.9853621E+04;  2.3653667E+00;  0.0000000E+00; -1.7507504E-03;  1.3158618E+03;
  9.8882252E-01;  9.9999998E-03;  2.0019168E-01;8169;  1.3078830E+00;  0.0000000E+00; -1.1047588E-02;  1.0032243E+03;  1.1776634E-01;  2.6665889E+03;3; -1.5452619E+01;  0.0000000E+00;  1.8072699E+01;0;  2.5443180E+00;  2.9143031E+04;  0.0000000E+00; -1.0352276E-01;  4.0000000E+04;  0.0000000E+00;  3.9849402E+04;  2.5342271E+00;  0.0000000E+00;  1.0090712E-02;  1.8913322E+03;
  9.8879057E-01;  9.9999998E-03;  2.1022482E-01;8170;  1.3051149E+00;  0.0000000E+00; -1.1597278E-02;  1.0037028E+03;  1.1776429E-01;  3.0624336E+03;3; -2.5927776E+01;  0.0000000E+00;  1.8033306E+01;0;  2.7232976E+00;  2.9173791E+04;  0.0000000E+00; -1.9355613E-01;  4.0000000E+04;  0.0000000E+00;  3.9846023E+04;  2.7021310E+00;  0.0000000E+00;  2.1166589E-02;  2.3636338E+03;
  9.8875725E-01;  9.9999998E-03;  2.2024460E-01;8171;  1.3039138E+00;  0.0000000E+00; -1.1851971E-02;  1.0041648E+03;  1.1776171E-01;  3.4444768E+03;3; -3.5467911E+01;  0.0000000E+00;  1.7745033E+01;0;  2.8972261E+00;  2.9202121E+04;  0.0000000E+00; -3.0157757E-01;  4.0000000E+04;  0.0000000E+00;  3.9844773E+04;  2.8662922E+00;  0.0000000E+00;  3.0933958E-02;  2.5882720E+03;
  9.8874438E-01;  9.9999998E-03;  2.3026757E-01;8172;  1.3045785E+00;  0.0000000E+00; -1.1301614E-02;  1.0045918E+03;  1.1775828E-01;  3.7976313E+03;3; -4.3973499E+01;  0.0000000E+00;  1.7380714E+01;0;  3.0648818E+00;  2.9228098E+04;  0.0000000E+00; -4.2943093E-01;  4.0000000E+04;  0.0000000E+00;  3.9844660E+04;  3.0245895E+00;  0.0000000E+00;  4.0292248E-02;  2.7062847E+03;
  9.9882942E-01;  9.9999998E-03;  7.0046991E-02;8217;  1.3518331E+00;  0.0000000E+00; -4.7186180E-03;  9.9532892E+02;  1.1690434E-01; -3.8621013E+03;3;  6.9513985E+01;  0.0000000E+00;  7.5240178E+00;0;  5.8490098E-01;  2.9054684E+04;  0.0000000E+00;  2.1442439E-01;  4.0000000E+04;  0.0000000E+00;  3.9920113E+04;  6.7960405E-01;  0.0000000E+00; -9.4703093E-02;  7.3380073E+03;
  9.9906194E-01;  9.9999998E-03;  8.0045402E-02;8218;  1.3510882E+00;  0.0000000E+00; -5.2490048E-03;  9.9580804E+02;  1.1689869E-01; -3.4659021E+03;3;  6.8533394E+01;  0.0000000E+00;  8.4580669E+00;0;  6.5031636E-01;  2.9086514E+04;  0.0000000E+00;  2.7399272E-01;  4.0000000E+04;  0.0000000E+00;  3.9920172E+04;  7.4355245E-01;  0.0000000E+00; -9.3236119E-02;  7.3091357E+03;
  9.9930191E-01;  9.9999998E-03;  9.0043686E-02;8219;  1.3503898E+00;  0.0000000E+00; -5.7369848E-03;  9.9634357E+02;  1.1689266E-01; -3.0231370E+03;3;  6.7409058E+01;  0.0000000E+00;  9.3111019E+00;0;  7.2588438E-01;  2.9122707E+04;  0.0000000E+00;  3.2644778E-01;  4.0000000E+04;  0.0000000E+00;  3.9919332E+04;  8.1755430E-01;  0.0000000E+00; -9.1669917E-02;  7.1480371E+03;
  9.9954247E-01;  9.9999998E-03;  1.0004182E-01;8220;  1.3497748E+00;  0.0000000E+00; -6.2053408E-03;  9.9693109E+02;  1.1688677E-01; -2.5373567E+03;3;  6.6102386E+01;  0.0000000E+00;  9.9883318E+00;0;  8.1235206E-01;  2.9162613E+04;  0.0000000E+00;  3.6208263E-01;  4.0000000E+04;  0.0000000E+00;  3.9917266E+04;  9.0208811E-01;  0.0000000E+00; -8.9736022E-02;  6.8383794E+03;
  9.9978757E-01;  9.9999998E-03;  1.1003923E-01;8221;  1.3492703E+00;  0.0000000E+00; -6.7070080E-03;  9.9755396E+02;  1.1688097E-01; -2.0223600E+03;3;  6.4585991E+01;  0.0000000E+00;  1.0473409E+01;0;  9.1040468E-01;  2.9205541E+04;  0.0000000E+00;  3.7269223E-01;  4.0000000E+04;  0.0000000E+00;  3.9913977E+04;  9.9744731E-01;  0.0000000E+00; -8.7042630E-02;  6.3752671E+03;
  1.0000203E+00;  9.9999998E-03;  1.2003611E-01;8222;  1.3488657E+00;  0.0000000E+00; -7.2918441E-03;  9.9820020E+02;  1.1687499E-01; -1.4880536E+03;3;  6.2925156E+01;  0.0000000E+00;  1.0898744E+01;0;  1.0212762E+00;  2.9250518E+04;  0.0000000E+00;  3.5416105E-01;  4.0000000E+04;  0.0000000E+00;  3.9909402E+04;  1.1043947E+00;  0.0000000E+00; -8.3118469E-02;  5.7573184E+03;
  1.0002345E+00;  9.9999998E-03;  1.3003206E-01;8223;  1.3482952E+00;  0.0000000E+00; -7.9475716E-03;  9.9884747E+02;  1.1686939E-01; -9.5286835E+02;3;  6.1265259E+01;  0.0000000E+00;  1.1278024E+01;0;  1.1458356E+00;  2.9296346E+04;  0.0000000E+00;  3.0764875E-01;  4.0000000E+04;  0.0000000E+00;  3.9903809E+04;  1.2234064E+00;  0.0000000E+00; -7.7570751E-02;  4.9916753E+03;
  1.0006117E+00;  9.9999998E-03;  2.2017311E-01;8232;  1.3464062E+00;  0.0000000E+00; -1.2476935E-02;  1.0036962E+03;  1.1684388E-01;  3.0558845E+03;3; -1.2867115E+01;  0.0000000E+00;  1.7115456E+01;0;  2.7416553E+00;  2.9634961E+04;  0.0000000E+00; -4.7769231E-01;  4.0000000E+04;  0.0000000E+00;  3.9851418E+04;  2.7053850E+00;  0.0000000E+00;  3.6270402E-02;  2.1244277E+03;
  1.0006294E+00;  9.9999998E-03;  2.3019505E-01;8233;  1.3550953E+00;  0.0000000E+00; -1.0812495E-02;  1.0041011E+03;  1.1683888E-01;  3.3906836E+03;3; -1.8280598E+01;  0.0000000E+00;  1.8018435E+01;0;  2.9231021E+00;  2.9659525E+04;  0.0000000E+00; -5.7817078E-01;  4.0000000E+04;  0.0000000E+00;  3.9853164E+04;  2.8701184E+00;  0.0000000E+00;  5.2983794E-02;  2.0383624E+03;
  1.0006256E+00;  9.9999998E-03;  2.1015751E-01;8231;  1.3404559E+00;  0.0000000E+00; -1.2752399E-02;  1.0032610E+03;  1.1684711E-01;  2.6961475E+03;3; -6.0962820E+00;  0.0000000E+00;  1.7101572E+01;0;  2.5550847E+00;  2.9607756E+04;  0.0000000E+00; -3.7728235E-01;  4.0000000E+04;  0.0000000E+00;  3.9851699E+04;  2.5331085E+00;  0.0000000E+00;  2.1976229E-02;  1.9894606E+03;
  1.0004228E+00;  9.9999998E-03;  1.4002666E-01;8224;  1.3461355E+00;  0.0000000E+00; -8.4572053E-03;  9.9948645E+02;  1.1686476E-01; -4.2458966E+02;3;  5.7657051E+01;  0.0000000E+00;  1.2103034E+01;0;  1.2846521E+00;  2.9342125E+04;  0.0000000E+00;  2.3894227E-01;  4.0000000E+04;  0.0000000E+00;  3.9897102E+04;  1.3548019E+00;  0.0000000E+00; -7.0149764E-02;  4.0937874E+03;
  1.0006407E+00;  9.9999998E-03;  2.0012985E-01;8230;  1.3365095E+00;  0.0000000E+00; -1.2373096E-02;  1.0028067E+03;  1.1685008E-01;  2.3204438E+03;3;  1.8606200E+00;  0.0000000E+00;  1.7449652E+01;0;  2.3629243E+00;  2.9577357E+04;  0.0000000E+00; -2.8306621E-01;  4.0000000E+04;  0.0000000E+00;  3.9855199E+04;  2.3555562E+00;  0.0000000E+00;  7.3681404E-03;  1.4950760E+03;
  1.0006560E+00;  9.9999998E-03;  1.9009683E-01;8229;  1.3344272E+00;  0.0000000E+00; -1.1672736E-02;  1.0023228E+03;  1.1685237E-01;  1.9203970E+03;3;  1.0929390E+01;  0.0000000E+00;  1.7702440E+01;0;  2.1680002E+00;  2.9544197E+04;  0.0000000E+00; -1.9554935E-01;  4.0000000E+04;  0.0000000E+00;  3.9860086E+04;  2.1755967E+00;  0.0000000E+00; -7.5965212E-03;  8.3156537E+02;
  1.0005683E+00;  9.9999998E-03;  1.5002126E-01;8225;  1.3427856E+00;  0.0000000E+00; -8.8327704E-03;  1.0001035E+03;  1.1686029E-01;  8.5548317E+01;3;  5.0412586E+01;  0.0000000E+00;  1.3539163E+01;0;  1.4380014E+00;  2.9386832E+04;  0.0000000E+00;  1.5614302E-01;  4.0000000E+04;  0.0000000E+00;  3.9889520E+04;  1.4987570E+00;  0.0000000E+00; -6.0755614E-02;  3.0901626E+03;
  1.0006657E+00;  9.9999998E-03;  1.8006499E-01;8228;  1.3342278E+00;  0.0000000E+00; -1.0803320E-02;  1.0018064E+03;  1.1685386E-01;  1.4934445E+03;3;  2.0836624E+01;  0.0000000E+00;  1.7656528E+01;0;  1.9742024E+00;  2.9508393E+04;  0.0000000E+00; -1.1027870E-01;  4.0000000E+04;  0.0000000E+00;  3.9866262E+04;  1.9966110E+00;  0.0000000E+00; -2.2408558E-02;  2.3217775E+02;
  1.0006652E+00;  9.9999998E-03;  1.7003854E-01;8227;  1.3358579E+00;  0.0000000E+00; -9.9638691E-03;  1.0012627E+03;  1.1685532E-01;  1.0439229E+03;3;  3.1319382E+01;  0.0000000E+00;  1.6992716E+01;0;  1.7854933E+00;  2.9470166E+04;  0.0000000E+00; -2.2680344E-02;  4.0000000E+04;  0.0000000E+00;  3.9873457E+04;  1.8220199E+00;  0.0000000E+00; -3.6526717E-02;  1.0017265E+03;
  1.0006516E+00;  9.9999998E-03;  1.6002318E-01;8226;  1.3389759E+00;  0.0000000E+00; -9.2924573E-03;  1.0006973E+03;  1.1685731E-01;  5.7656262E+02;3;  4.1375690E+01;  0.0000000E+00;  1.5605740E+01;0;  1.6054938E+00;  2.9429693E+04;  0.0000000E+00;  6.7045823E-02;  4.0000000E+04;  0.0000000E+00;  3.9881461E+04;  1.6549556E+00;  0.0000000E+00; -4.9461883E-02;  2.0325635E+03;
  1.0112087E+00;  9.9999998E-03;  7.0126936E-02;8278;  1.3500861E+00;  0.0000000E+00; -4.9348846E-03;  9.9315784E+02;  1.1596134E-01; -5.6548110E+03;3;  6.8987534E+01;  0.0000000E+00;  9.0559168E+00;0;  3.6397639E-01;  2.9399127E+04;  0.0000000E+00;  1.7723340E-01;  4.0000000E+04;  0.0000000E+00;  3.9930113E+04;  4.7361583E-01;  0.0000000E+00; -1.0963944E-01;  8.5087354E+03;
  1.0113261E+00;  9.9999998E-03;  8.0129839E-02;8279;  1.3495756E+00;  0.0000000E+00; -5.5307127E-03;  9.9386005E+02;  1.1595704E-01; -5.0744409E+03;3;  6.8156174E+01;  0.0000000E+00;  1.0167801E+01;0;  4.3378887E-01;  2.9443539E+04;  0.0000000E+00;  2.2239587E-01;  4.0000000E+04;  0.0000000E+00;  3.9929566E+04;  5.4327881E-01;  0.0000000E+00; -1.0948995E-01;  8.3782520E+03;
  1.0114623E+00;  9.9999998E-03;  9.0125196E-02;8280;  1.3491304E+00;  0.0000000E+00; -6.0867132E-03;  9.9462323E+02;  1.1595261E-01; -4.4436792E+03;3;  6.7261894E+01;  0.0000000E+00;  1.1212734E+01;0;  5.1431537E-01;  2.9492623E+04;  0.0000000E+00;  2.6154736E-01;  4.0000000E+04;  0.0000000E+00;  3.9928332E+04;  6.2336826E-01;  0.0000000E+00; -1.0905287E-01;  8.1384175E+03;
  1.0116118E+00;  9.9999998E-03;  1.0011665E-01;8281;  1.3488021E+00;  0.0000000E+00; -6.6224835E-03;  9.9543091E+02;  1.1594732E-01; -3.7761731E+03;3;  6.6027473E+01;  0.0000000E+00;  1.2127251E+01;0;  6.0627353E-01;  2.9545277E+04;  0.0000000E+00;  2.8714353E-01;  4.0000000E+04;  0.0000000E+00;  3.9926043E+04;  7.1428305E-01;  0.0000000E+00; -1.0800953E-01;  7.7733037E+03;
  1.0117666E+00;  9.9999998E-03;  1.1010536E-01;8282;  1.3486160E+00;  0.0000000E+00; -7.1645477E-03;  9.9626031E+02;  1.1594211E-01; -3.0906936E+03;3;  6.4603798E+01;  0.0000000E+00;  1.3005416E+01;0;  7.1048033E-01;  2.9600268E+04;  0.0000000E+00;  2.9209739E-01;  4.0000000E+04;  0.0000000E+00;  3.9922641E+04;  8.1639129E-01;  0.0000000E+00; -1.0591096E-01;  7.2756494E+03;
  1.0119299E+00;  9.9999998E-03;  1.2009268E-01;8283;  1.3485721E+00;  0.0000000E+00; -7.7729803E-03;  9.9709473E+02;  1.1593700E-01; -2.4010342E+03;3;  6.3063374E+01;  0.0000000E+00;  1.3630355E+01;0;  8.2758659E-01;  2.9656111E+04;  0.0000000E+00;  2.7159908E-01;  4.0000000E+04;  0.0000000E+00;  3.9918207E+04;  9.2986494E-01;  0.0000000E+00; -1.0227836E-01;  6.6457007E+03;
  1.0124556E+00;  9.9999998E-03;  2.1011609E-01;8292;  1.3692350E+00;  0.0000000E+00; -1.3437846E-02;  1.0024707E+03;  1.1590708E-01;  2.0418888E+03;3;  8.1925068E+00;  0.0000000E+00;  2.0140726E+01;0;  2.3683202E+00;  3.0039916E+04;  0.0000000E+00; -5.5361903E-01;  4.0000000E+04;  0.0000000E+00;  3.9858938E+04;  2.3470736E+00;  0.0000000E+00;  2.1246780E-02;  1.5253123E+03;
  1.0124829E+00;  9.9999998E-03;  2.2012515E-01;8293;  1.3809569E+00;  0.0000000E+00; -1.2682804E-02;  1.0028473E+03;  1.1590227E-01;  2.3531055E+03;3;  4.3577180E+00;  0.0000000E+00;  2.1684891E+01;0;  2.5487132E+00;  3.0064648E+04;  0.0000000E+00; -6.5946227E-01;  4.0000000E+04;  0.0000000E+00;  3.9859195E+04;  2.5077603E+00;  0.0000000E+00;  4.0952943E-02;  1.6434152E+03;
  1.0125445E+00;  9.9999998E-03;  2.3014373E-01;8294;  1.3956381E+00;  0.0000000E+00; -1.0600610E-02;  1.0031981E+03;  1.1589540E-01;  2.6430383E+03;3;  2.1288335E+00;  0.0000000E+00;  2.3710239E+01;0;  2.7237308E+00;  3.0086531E+04;  0.0000000E+00; -7.5446206E-01;  4.0000000E+04;  0.0000000E+00;  3.9862344E+04;  2.6592691E+00;  0.0000000E+00;  6.4461775E-02;  1.5401636E+03;
  1.0124364E+00;  9.9999998E-03;  2.0009825E-01;8291;  1.3596956E+00;  0.0000000E+00; -1.3517140E-02;  1.0020777E+03;  1.1591101E-01;  1.7170753E+03;3;  1.3456918E+01;  0.0000000E+00;  1.9364372E+01;0;  2.1816120E+00;  3.0011605E+04;  0.0000000E+00; -4.4781360E-01;  4.0000000E+04;  0.0000000E+00;  3.9862586E+04;  2.1792979E+00;  0.0000000E+00;  2.3141741E-03;  1.0737953E+03;
  1.0120946E+00;  9.9999998E-03;  1.3007943E-01;8284;  1.3484684E+00;  0.0000000E+00; -8.4547810E-03;  9.9790515E+02;  1.1593197E-01; -1.7312839E+03;3;  6.1785507E+01;  0.0000000E+00;  1.4266416E+01;0;  9.5815009E-01;  2.9711664E+04;  0.0000000E+00;  2.2457998E-01;  4.0000000E+04;  0.0000000E+00;  3.9912828E+04;  1.0548205E+00;  0.0000000E+00; -9.6670449E-02;  5.8866841E+03;
  1.0124335E+00;  9.9999998E-03;  1.9007778E-01;8290;  1.3523691E+00;  0.0000000E+00; -1.3134576E-02;  1.0016438E+03;  1.1591391E-01;  1.3584690E+03;3;  2.0235640E+01;  0.0000000E+00;  1.9214430E+01;0;  1.9907929E+00;  2.9979939E+04;  0.0000000E+00; -3.4631470E-01;  4.0000000E+04;  0.0000000E+00;  3.9868043E+04;  2.0069726E+00;  0.0000000E+00; -1.6179668E-02;  6.7654254E+02;
  1.0122460E+00;  9.9999998E-03;  1.4006634E-01;8285;  1.3475136E+00;  0.0000000E+00; -9.0807676E-03;  9.9867499E+02;  1.1592689E-01; -1.0950386E+03;3;  5.8484268E+01;  0.0000000E+00;  1.5376479E+01;0;  1.1024302E+00;  2.9765375E+04;  0.0000000E+00;  1.5367416E-01;  4.0000000E+04;  0.0000000E+00;  3.9906180E+04;  1.1911919E+00;  0.0000000E+00; -8.8761739E-02;  5.0072041E+03;
  1.0124446E+00;  9.9999998E-03;  1.8005966E-01;8289;  1.3475873E+00;  0.0000000E+00; -1.2409831E-02;  1.0011622E+03;  1.1591578E-01;  9.6055310E+02;3;  2.8335646E+01;  0.0000000E+00;  1.9543465E+01;0;  1.7993383E+00;  2.9944803E+04;  0.0000000E+00; -2.4632920E-01;  4.0000000E+04;  0.0000000E+00;  3.9874832E+04;  1.8333158E+00;  0.0000000E+00; -3.3977479E-02;  1.0558752E+03;
  1.0123693E+00;  9.9999998E-03;  1.5005431E-01;8286;  1.3461926E+00;  0.0000000E+00; -9.7197890E-03;  9.9938885E+02;  1.1592297E-01; -5.0505530E+02;3;  5.2957943E+01;  0.0000000E+00;  1.6781687E+01;0;  1.2601295E+00;  2.9816184E+04;  0.0000000E+00;  6.4069994E-02;  4.0000000E+04;  0.0000000E+00;  3.9898734E+04;  1.3385190E+00;  0.0000000E+00; -7.8389473E-02;  4.0254155E+03;
  1.0124665E+00;  9.9999998E-03;  1.7004785E-01;8288;  1.3453332E+00;  0.0000000E+00; -1.1502372E-02;  1.0006295E+03;  1.1591731E-01;  5.2017609E+02;3;  3.7165974E+01;  0.0000000E+00;  1.9223429E+01;0;  1.6110786E+00;  2.9906092E+04;  0.0000000E+00; -1.4323099E-01;  4.0000000E+04;  0.0000000E+00;  3.9882637E+04;  1.6617138E+00;  0.0000000E+00; -5.0635274E-02;  1.9509442E+03;
  1.0124496E+00;  9.9999998E-03;  1.6004667E-01;8287;  1.3451054E+00;  0.0000000E+00; -1.0579332E-02;  1.0000415E+03;  1.1591928E-01;  3.4284348E+01;3;  4.5468735E+01;  0.0000000E+00;  1.8237127E+01;0;  1.4302758E+00;  2.9863250E+04;  0.0000000E+00; -3.7414785E-02;  4.0000000E+04;  0.0000000E+00;  3.9890742E+04;  1.4958724E+00;  0.0000000E+00; -6.5596588E-02;  2.9822795E+03;
  1.0234579E+00;  9.9999998E-03;  7.0166983E-02;8339;  1.3482548E+00;  0.0000000E+00; -5.5450513E-03;  9.9174500E+02;  1.1501051E-01; -6.8191709E+03;3;  6.8346008E+01;  0.0000000E+00;  1.0455122E+01;0;  2.7484828E-01;  2.9801021E+04;  0.0000000E+00;  9.2343263E-02;  4.0000000E+04;  0.0000000E+00;  3.9935883E+04;  4.0215591E-01;  0.0000000E+00; -1.2730762E-01;  9.1159121E+03;
  1.0234896E+00;  9.9999998E-03;  8.0184624E-02;8340;  1.3479683E+00;  0.0000000E+00; -6.2657841E-03;  9.9255377E+02;  1.1500684E-01; -6.1510615E+03;3;  6.7696503E+01;  0.0000000E+00;  1.1915115E+01;0;  3.4538656E-01;  2.9852025E+04;  0.0000000E+00;  1.1440774E-01;  4.0000000E+04;  0.0000000E+00;  3.9934707E+04;  4.7363192E-01;  0.0000000E+00; -1.2824537E-01;  8.8867041E+03;
  1.0235153E+00;  9.9999998E-03;  9.0177052E-02;8341;  1.3477536E+00;  0.0000000E+00; -6.9670719E-03;  9.9342944E+02;  1.1500418E-01; -5.4277109E+03;3;  6.6955200E+01;  0.0000000E+00;  1.3306725E+01;0;  4.2670369E-01;  2.9907438E+04;  0.0000000E+00;  1.3378696E-01;  4.0000000E+04;  0.0000000E+00;  3.9932988E+04;  5.5540353E-01;  0.0000000E+00; -1.2869982E-01;  8.5755762E+03;
  1.0235637E+00;  9.9999998E-03;  1.0016286E-01;8342;  1.3476771E+00;  0.0000000E+00; -7.6388731E-03;  9.9434814E+02;  1.1500088E-01; -4.6687588E+03;3;  6.5886169E+01;  0.0000000E+00;  1.4375383E+01;0;  5.1931757E-01;  2.9966359E+04;  0.0000000E+00;  1.4573559E-01;  4.0000000E+04;  0.0000000E+00;  3.9930496E+04;  6.4768261E-01;  0.0000000E+00; -1.2836502E-01;  8.1728032E+03;
  1.0236331E+00;  9.9999998E-03;  1.1014670E-01;8343;  1.3477918E+00;  0.0000000E+00; -8.3168894E-03;  9.9528693E+02;  1.1499732E-01; -3.8932632E+03;3;  6.4623833E+01;  0.0000000E+00;  1.5535401E+01;0;  6.2374330E-01;  3.0027346E+04;  0.0000000E+00;  1.4497210E-01;  4.0000000E+04;  0.0000000E+00;  3.9927277E+04;  7.5050724E-01;  0.0000000E+00; -1.2676392E-01;  7.6725728E+03;
  1.0237195E+00;  9.9999998E-03;  1.2012955E-01;8344;  1.3480637E+00;  0.0000000E+00; -9.0366434E-03;  9.9621777E+02;  1.1499330E-01; -3.1243181E+03;3;  6.3116085E+01;  0.0000000E+00;  1.6514278E+01;0;  7.4035209E-01;  3.0088893E+04;  0.0000000E+00;  1.2667666E-01;  4.0000000E+04;  0.0000000E+00;  3.9923141E+04;  8.6371452E-01;  0.0000000E+00; -1.2336240E-01;  7.0728882E+03;
  1.0238249E+00;  9.9999998E-03;  1.3011298E-01;8345;  1.3482934E+00;  0.0000000E+00; -9.8176906E-03;  9.9711505E+02;  1.1498875E-01; -2.3830969E+03;3;  6.1369133E+01;  0.0000000E+00;  1.7546026E+01;0;  8.6921716E-01;  3.0149371E+04;  0.0000000E+00;  8.7606400E-02;  4.0000000E+04;  0.0000000E+00;  3.9918258E+04;  9.8688972E-01;  0.0000000E+00; -1.1767256E-01;  6.3755312E+03;
  1.0239418E+00;  9.9999998E-03;  1.4009792E-01;8346;  1.3483294E+00;  0.0000000E+00; -1.0665504E-02;  9.9795685E+02;  1.1498415E-01; -1.6877209E+03;3;  5.7919559E+01;  0.0000000E+00;  1.9017708E+01;0;  1.0099857E+00;  3.0207193E+04;  0.0000000E+00;  2.6807806E-02;  4.0000000E+04;  0.0000000E+00;  3.9912402E+04;  1.1192825E+00;  0.0000000E+00; -1.0929681E-01;  5.5839277E+03;
  1.0240536E+00;  9.9999998E-03;  1.5008493E-01;8347;  1.3487204E+00;  0.0000000E+00; -1.1670830E-02;  9.9872150E+02;  1.1497967E-01; -1.0561128E+03;3;  5.2670635E+01;  0.0000000E+00;  2.0523252E+01;0;  1.1617726E+00;  3.0261125E+04;  0.0000000E+00; -5.4282371E-02;  4.0000000E+04;  0.0000000E+00;  3.9905820E+04;  1.2597611E+00;  0.0000000E+00; -9.7988434E-02;  4.7055615E+03;
  1.0241477E+00;  9.9999998E-03;  1.6007607E-01;8348;  1.3500366E+00;  0.0000000E+00; -1.2893001E-02;  9.9939880E+02;  1.1497550E-01; -4.9659256E+02;3;  4.5871815E+01;  0.0000000E+00;  2.1794748E+01;0;  1.3230591E+00;  3.0310299E+04;  0.0000000E+00; -1.5109167E-01;  4.0000000E+04;  0.0000000E+00;  3.9898582E+04;  1.4068120E+00;  0.0000000E+00; -8.3752908E-02;  3.7645935E+03;
  1.0242032E+00;  9.9999998E-03;  1.7007250E-01;8349;  1.3533242E+00;  0.0000000E+00; -1.4129847E-02;  9.9999115E+02;  1.1497191E-01; -7.2868843E+00;3;  3.8186825E+01;  0.0000000E+00;  2.2640814E+01;0;  1.4916176E+00;  3.0354236E+04;  0.0000000E+00; -2.5586966E-01;  4.0000000E+04;  0.0000000E+00;  3.9890840E+04;  1.5584691E+00;  0.0000000E+00; -6.6851549E-02;  2.8110823E+03;
  1.0242044E+00;  9.9999998E-03;  1.8007411E-01;8350;  1.3593634E+00;  0.0000000E+00; -1.5136616E-02;  1.0005002E+03;  1.1496912E-01;  4.1318600E+02;3;  3.0933586E+01;  0.0000000E+00;  2.3436350E+01;0;  1.6646266E+00;  3.0392754E+04;  0.0000000E+00; -3.6464071E-01;  4.0000000E+04;  0.0000000E+00;  3.9883355E+04;  1.7123860E+00;  0.0000000E+00; -4.7759406E-02;  1.9281559E+03;
  1.0241936E+00;  9.9999998E-03;  1.9008087E-01;8351;  1.3683161E+00;  0.0000000E+00; -1.5733609E-02;  1.0009388E+03;  1.1496656E-01;  7.7556110E+02;3;  2.5135662E+01;  0.0000000E+00;  2.4187281E+01;0;  1.8384564E+00;  3.0426557E+04;  0.0000000E+00; -4.8032421E-01;  4.0000000E+04;  0.0000000E+00;  3.9876355E+04;  1.8655263E+00;  0.0000000E+00; -2.7069874E-02;  1.2708000E+03;
  1.0242131E+00;  9.9999998E-03;  2.0008978E-01;8352;  1.3798621E+00;  0.0000000E+00; -1.5871743E-02;  1.0013178E+03;  1.1496229E-01;  1.0886010E+03;3;  2.1055647E+01;  0.0000000E+00;  2.5409565E+01;0;  2.0092902E+00;  3.0456367E+04;  0.0000000E+00; -6.0778892E-01;  4.0000000E+04;  0.0000000E+00;  3.9870609E+04;  2.0145304E+00;  0.0000000E+00; -5.2402909E-03;  1.0991234E+03;
  1.0242670E+00;  9.9999998E-03;  2.1009882E-01;8353;  1.3934677E+00;  0.0000000E+00; -1.5684927E-02;  1.0016501E+03;  1.1495680E-01;  1.3630375E+03;3;  1.8431168E+01;  0.0000000E+00;  2.6928925E+01;0;  2.1739659E+00;  3.0482615E+04;  0.0000000E+00; -7.5162429E-01;  4.0000000E+04;  0.0000000E+00;  3.9866887E+04;  2.1565647E+00;  0.0000000E+00;  1.7401243E-02;  1.3417129E+03;
  1.0243390E+00;  9.9999998E-03;  2.2010310E-01;8354;  1.4090619E+00;  0.0000000E+00; -1.5074025E-02;  1.0019635E+03;  1.1494998E-01;  1.6219130E+03;3;  1.7048119E+01;  0.0000000E+00;  2.8813942E+01;0;  2.3304975E+00;  3.0505379E+04;  0.0000000E+00; -9.1185629E-01;  4.0000000E+04;  0.0000000E+00;  3.9866945E+04;  2.2896447E+00;  0.0000000E+00;  4.0852826E-02;  1.5787048E+03;
  1.0244350E+00;  9.9999998E-03;  2.3011844E-01;8355;  1.4274591E+00;  0.0000000E+00; -1.3315842E-02;  1.0022558E+03;  1.1494172E-01;  1.8633555E+03;3;  1.6919672E+01;  0.0000000E+00;  3.0944967E+01;0;  2.4800751E+00;  3.0524855E+04;  0.0000000E+00; -1.0809097E+00;  4.0000000E+04;  0.0000000E+00;  3.9870195E+04;  2.4124434E+00;  0.0000000E+00;  6.7631677E-02;  1.7862975E+03;
  1.0351174E+00;  9.9999998E-03;  7.0081897E-02;8400;  1.3464400E+00;  0.0000000E+00; -6.4425874E-03;  9.9113422E+02;  1.1408191E-01; -7.3196411E+03;3;  6.7743332E+01;  0.0000000E+00;  1.1822371E+01;0;  2.9734105E-01;  3.0249293E+04;  0.0000000E+00;  1.3069312E-02;  4.0000000E+04;  0.0000000E+00;  3.9938375E+04;  4.4410014E-01;  0.0000000E+00; -1.4675908E-01;  9.2677969E+03;
  1.0351501E+00;  9.9999998E-03;  8.0112651E-02;8401;  1.3463508E+00;  0.0000000E+00; -7.3654405E-03;  9.9193878E+02;  1.1407694E-01; -6.6553931E+03;3;  6.7036346E+01;  0.0000000E+00;  1.3289323E+01;0;  3.6673605E-01;  3.0301973E+04;  0.0000000E+00;  1.0861383E-02;  4.0000000E+04;  0.0000000E+00;  3.9936438E+04;  5.1530755E-01;  0.0000000E+00; -1.4857148E-01;  8.9435156E+03;
  1.0351750E+00;  9.9999998E-03;  9.0143986E-02;8402;  1.3463733E+00;  0.0000000E+00; -8.2809292E-03;  9.9281451E+02;  1.1407281E-01; -5.9323442E+03;3;  6.6614548E+01;  0.0000000E+00;  1.5161854E+01;0;  4.4637316E-01;  3.0359186E+04;  0.0000000E+00;  6.6932444E-03;  4.0000000E+04;  0.0000000E+00;  3.9934109E+04;  5.9615982E-01;  0.0000000E+00; -1.4978664E-01;  8.5569658E+03;
  1.0352137E+00;  9.9999998E-03;  1.0014693E-01;8403;  1.3464783E+00;  0.0000000E+00; -9.2512527E-03;  9.9373474E+02;  1.1406776E-01; -5.1726328E+03;3;  6.5803833E+01;  0.0000000E+00;  1.6658211E+01;0;  5.3630400E-01;  3.0419861E+04;  0.0000000E+00; -5.9487415E-04;  4.0000000E+04;  0.0000000E+00;  3.9931246E+04;  6.8634599E-01;  0.0000000E+00; -1.5004197E-01;  8.1133628E+03;
  1.0352725E+00;  9.9999998E-03;  1.1013956E-01;8404;  1.3468533E+00;  0.0000000E+00; -1.0162293E-02;  9.9467920E+02;  1.1406291E-01; -4.3928413E+03;3;  6.4347374E+01;  0.0000000E+00;  1.7926517E+01;0;  6.3673484E-01;  3.0482650E+04;  0.0000000E+00; -1.3460389E-02;  4.0000000E+04;  0.0000000E+00;  3.9928051E+04;  7.8558666E-01;  0.0000000E+00; -1.4885183E-01;  7.6147812E+03;
  1.0353343E+00;  9.9999998E-03;  1.2012904E-01;8405;  1.3473685E+00;  0.0000000E+00; -1.1176883E-02;  9.9562091E+02;  1.1405791E-01; -3.6153677E+03;3;  6.3050571E+01;  0.0000000E+00;  1.9606764E+01;0;  7.4755943E-01;  3.0545564E+04;  0.0000000E+00; -3.4988858E-02;  4.0000000E+04;  0.0000000E+00;  3.9924359E+04;  8.9315945E-01;  0.0000000E+00; -1.4560004E-01;  7.0611499E+03;
  1.0353954E+00;  9.9999998E-03;  1.3011830E-01;8406;  1.3481287E+00;  0.0000000E+00; -1.2214769E-02;  9.9653436E+02;  1.1405389E-01; -2.8612241E+03;3;  6.0443798E+01;  0.0000000E+00;  2.1248533E+01;0;  8.6836827E-01;  3.0606994E+04;  0.0000000E+00; -6.8659864E-02;  4.0000000E+04;  0.0000000E+00;  3.9920074E+04;  1.0080922E+00;  0.0000000E+00; -1.3972390E-01;  6.4512339E+03;
  1.0354824E+00;  9.9999998E-03;  1.4010899E-01;8407;  1.3492438E+00;  0.0000000E+00; -1.3489568E-02;  9.9739215E+02;  1.1404925E-01; -2.1529944E+03;3;  5.6222118E+01;  0.0000000E+00;  2.3126085E+01;0;  9.9841249E-01;  3.0665893E+04;  0.0000000E+00; -1.1764107E-01;  4.0000000E+04;  0.0000000E+00;  3.9915320E+04;  1.1292125E+00;  0.0000000E+00; -1.3080001E-01;  5.7831909E+03;
  1.0355909E+00;  9.9999998E-03;  1.5010214E-01;8408;  1.3513844E+00;  0.0000000E+00; -1.4988054E-02;  9.9817670E+02;  1.1404416E-01; -1.5052964E+03;3;  5.0500359E+01;  0.0000000E+00;  2.4614370E+01;0;  1.1362059E+00;  3.0721016E+04;  0.0000000E+00; -1.8324310E-01;  4.0000000E+04;  0.0000000E+00;  3.9909867E+04;  1.2547292E+00;  0.0000000E+00; -1.1852325E-01;  5.0543281E+03;
  1.0357097E+00;  9.9999998E-03;  1.6009840E-01;8409;  1.3551931E+00;  0.0000000E+00; -1.6733862E-02;  9.9886499E+02;  1.1403838E-01; -9.3702759E+02;3;  4.3750629E+01;  0.0000000E+00;  2.6273113E+01;0;  1.2796637E+00;  3.0771203E+04;  0.0000000E+00; -2.6315656E-01;  4.0000000E+04;  0.0000000E+00;  3.9903906E+04;  1.3825287E+00;  0.0000000E+00; -1.0286497E-01;  4.2705479E+03;
  1.0358227E+00;  9.9999998E-03;  1.7009814E-01;8410;  1.3616517E+00;  0.0000000E+00; -1.8378554E-02;  9.9946069E+02;  1.1403304E-01; -4.4523557E+02;3;  3.7034901E+01;  0.0000000E+00;  2.7514324E+01;0;  1.4261043E+00;  3.0816080E+04;  0.0000000E+00; -3.5441610E-01;  4.0000000E+04;  0.0000000E+00;  3.9897363E+04;  1.5102321E+00;  0.0000000E+00; -8.4127836E-02;  3.4549246E+03;
  1.0359081E+00;  9.9999998E-03;  1.8009953E-01;8411;  1.3712050E+00;  0.0000000E+00; -1.9651579E-02;  9.9996210E+02;  1.1402781E-01; -3.1296259E+01;3;  3.1777178E+01;  0.0000000E+00;  2.8774698E+01;0;  1.5725579E+00;  3.0855273E+04;  0.0000000E+00; -4.6269125E-01;  4.0000000E+04;  0.0000000E+00;  3.9890574E+04;  1.6354179E+00;  0.0000000E+00; -6.2859975E-02;  2.6577156E+03;
  1.0359501E+00;  9.9999998E-03;  1.9010064E-01;8412;  1.3836014E+00;  0.0000000E+00; -2.0414449E-02;  1.0003774E+03;  1.1402298E-01;  3.1158408E+02;3;  2.8585751E+01;  0.0000000E+00;  3.0139019E+01;0;  1.7162380E+00;  3.0888924E+04;  0.0000000E+00; -5.9895217E-01;  4.0000000E+04;  0.0000000E+00;  3.9884059E+04;  1.7559432E+00;  0.0000000E+00; -3.9705161E-02;  1.9827343E+03;
  1.0359854E+00;  9.9999998E-03;  2.0010222E-01;8413;  1.3981700E+00;  0.0000000E+00; -2.0836676E-02;  1.0007215E+03;  1.1401736E-01;  5.9561072E+02;3;  2.7035067E+01;  0.0000000E+00;  3.1542547E+01;0;  1.8543223E+00;  3.0917861E+04;  0.0000000E+00; -7.7715313E-01;  4.0000000E+04;  0.0000000E+00;  3.9878180E+04;  1.8696884E+00;  0.0000000E+00; -1.5366111E-02;  1.6182861E+03;
  1.0360460E+00;  9.9999998E-03;  2.1010415E-01;8414;  1.4143630E+00;  0.0000000E+00; -2.1004330E-02;  1.0010163E+03;  1.1401092E-01;  8.3898962E+02;3;  2.6465914E+01;  0.0000000E+00;  3.3132515E+01;0;  1.9841021E+00;  3.0943000E+04;  0.0000000E+00; -1.0113258E+00;  4.0000000E+04;  0.0000000E+00;  3.9874199E+04;  1.9746228E+00;  0.0000000E+00;  9.4792545E-03;  1.7081716E+03;
  1.0361278E+00;  9.9999998E-03;  2.2010608E-01;8415;  1.4321339E+00;  0.0000000E+00; -2.0866737E-02;  1.0012842E+03;  1.1400399E-01;  1.0602224E+03;3;  2.6837572E+01;  0.0000000E+00;  3.4544743E+01;0;  2.1038270E+00;  3.0964250E+04;  0.0000000E+00; -1.3131641E+00;  4.0000000E+04;  0.0000000E+00;  3.9873531E+04;  2.0695376E+00;  0.0000000E+00;  3.4289371E-02;  2.1190337E+03;
  1.0362390E+00;  9.9999998E-03;  2.3011911E-01;8416;  1.4521223E+00;  0.0000000E+00; -1.9878222E-02;  1.0015255E+03;  1.1399531E-01;  1.2594065E+03;3;  2.8091034E+01;  0.0000000E+00;  3.6042145E+01;0;  2.2138927E+00;  3.0982268E+04;  0.0000000E+00; -1.6909165E+00;  4.0000000E+04;  0.0000000E+00;  3.9875613E+04;  2.1537428E+00;  0.0000000E+00;  6.0149811E-02;  2.7097383E+03;
  1.0464939E+00;  9.9999998E-03;  7.0013359E-02;8461;  1.3446944E+00;  0.0000000E+00; -7.5775580E-03;  9.9116815E+02;  1.1317581E-01; -7.2869556E+03;3;  6.7318001E+01;  0.0000000E+00;  1.3128981E+01;0;  4.1007107E-01;  3.0736375E+04;  0.0000000E+00; -3.2908097E-02;  4.0000000E+04;  0.0000000E+00;  3.9938242E+04;  5.7781595E-01;  0.0000000E+00; -1.6774487E-01;  9.0751494E+03;
  1.0464936E+00;  9.9999998E-03;  8.0029063E-02;8462;  1.3447533E+00;  0.0000000E+00; -8.8024652E-03;  9.9188452E+02;  1.1317153E-01; -6.6958809E+03;3;  6.6468872E+01;  0.0000000E+00;  1.4746918E+01;0;  4.7681326E-01;  3.0784727E+04;  0.0000000E+00; -5.4240130E-02;  4.0000000E+04;  0.0000000E+00;  3.9935445E+04;  6.4680988E-01;  0.0000000E+00; -1.6999660E-01;  8.6541367E+03;
  1.0465015E+00;  9.9999998E-03;  9.0058029E-02;8463;  1.3449973E+00;  0.0000000E+00; -1.0018221E-02;  9.9267065E+02;  1.1316698E-01; -6.0472646E+03;3;  6.5699448E+01;  0.0000000E+00;  1.6448889E+01;0;  5.5278575E-01;  3.0837977E+04;  0.0000000E+00; -7.9648323E-02;  4.0000000E+04;  0.0000000E+00;  3.9932367E+04;  7.2436887E-01;  0.0000000E+00; -1.7158313E-01;  8.1907432E+03;
  1.0465175E+00;  9.9999998E-03;  1.0009581E-01;8464;  1.3453342E+00;  0.0000000E+00; -1.1316519E-02;  9.9351379E+02;  1.1316200E-01; -5.3515820E+03;3;  6.5658440E+01;  0.0000000E+00;  1.8733704E+01;0;  6.3778293E-01;  3.0895021E+04;  0.0000000E+00; -1.0778107E-01;  4.0000000E+04;  0.0000000E+00;  3.9928938E+04;  8.0985302E-01;  0.0000000E+00; -1.7207012E-01;  7.6991055E+03;
  1.0465438E+00;  9.9999998E-03;  1.1010650E-01;8465;  1.3458867E+00;  0.0000000E+00; -1.2703098E-02;  9.9439069E+02;  1.1315687E-01; -4.6281128E+03;3;  6.4001137E+01;  0.0000000E+00;  2.0477121E+01;0;  7.3110557E-01;  3.0954695E+04;  0.0000000E+00; -1.3768531E-01;  4.0000000E+04;  0.0000000E+00;  3.9925625E+04;  9.0203828E-01;  0.0000000E+00; -1.7093273E-01;  7.1924873E+03;
  1.0465944E+00;  9.9999998E-03;  1.2010678E-01;8466;  1.3468584E+00;  0.0000000E+00; -1.4158374E-02;  9.9527826E+02;  1.1315127E-01; -3.8957881E+03;3;  6.1804630E+01;  0.0000000E+00;  2.2661324E+01;0;  8.3240217E-01;  3.1015244E+04;  0.0000000E+00; -1.6981290E-01;  4.0000000E+04;  0.0000000E+00;  3.9922223E+04;  9.9999404E-01;  0.0000000E+00; -1.6759185E-01;  6.6793911E+03;
  1.0466758E+00;  9.9999998E-03;  1.3010499E-01;8467;  1.3483769E+00;  0.0000000E+00; -1.5797649E-02;  9.9614941E+02;  1.1314493E-01; -3.1769856E+03;3;  5.7871784E+01;  0.0000000E+00;  2.4924582E+01;0;  9.4082570E-01;  3.1075447E+04;  0.0000000E+00; -2.0582744E-01;  4.0000000E+04;  0.0000000E+00;  3.9918695E+04;  1.1022633E+00;  0.0000000E+00; -1.6143765E-01;  6.1603350E+03;
  1.0467840E+00;  9.9999998E-03;  1.4010283E-01;8468;  1.3509254E+00;  0.0000000E+00; -1.7741254E-02;  9.9698163E+02;  1.1313808E-01; -2.4903481E+03;3;  5.3045452E+01;  0.0000000E+00;  2.7129890E+01;0;  1.0549030E+00;  3.1133898E+04;  0.0000000E+00; -2.4805272E-01;  4.0000000E+04;  0.0000000E+00;  3.9915008E+04;  1.2068200E+00;  0.0000000E+00; -1.5191692E-01;  5.6278979E+03;
  1.0469147E+00;  9.9999998E-03;  1.5010159E-01;8469;  1.3551743E+00;  0.0000000E+00; -1.9893223E-02;  9.9775146E+02;  1.1313029E-01; -1.8551569E+03;3;  4.6738224E+01;  0.0000000E+00;  2.9162338E+01;0;  1.1726805E+00;  3.1189096E+04;  0.0000000E+00; -2.9835862E-01;  4.0000000E+04;  0.0000000E+00;  3.9911059E+04;  1.3113339E+00;  0.0000000E+00; -1.3865343E-01;  5.0684722E+03;
  1.0470545E+00;  9.9999998E-03;  1.6010296E-01;8470;  1.3617263E+00;  0.0000000E+00; -2.2291122E-02;  9.9844617E+02;  1.1312295E-01; -1.2819866E+03;3;  4.0553349E+01;  0.0000000E+00;  3.0640903E+01;0;  1.2917010E+00;  3.1239885E+04;  0.0000000E+00; -3.5734448E-01;  4.0000000E+04;  0.0000000E+00;  3.9906551E+04;  1.4132969E+00;  0.0000000E+00; -1.2159602E-01;  4.4700015E+03;
  1.0472031E+00;  9.9999998E-03;  1.7010684E-01;8471;  1.3712199E+00;  0.0000000E+00; -2.4485603E-02;  9.9905328E+02;  1.1311550E-01; -7.8106586E+02;3;  3.5621582E+01;  0.0000000E+00;  3.1987234E+01;0;  1.4091432E+00;  3.1285811E+04;  0.0000000E+00; -4.3325365E-01;  4.0000000E+04;  0.0000000E+00;  3.9901539E+04;  1.5102931E+00;  0.0000000E+00; -1.0114988E-01;  3.8338672E+03;
  1.0473593E+00;  9.9999998E-03;  1.8011197E-01;8472;  1.3837123E+00;  0.0000000E+00; -2.6254714E-02;  9.9957025E+02;  1.1310829E-01; -3.5455707E+02;3;  3.2761311E+01;  0.0000000E+00;  3.3298172E+01;0;  1.5220244E+00;  3.1326434E+04;  0.0000000E+00; -5.4427719E-01;  4.0000000E+04;  0.0000000E+00;  3.9896121E+04;  1.6000636E+00;  0.0000000E+00; -7.8039207E-02;  3.1864028E+03;
  1.0475162E+00;  9.9999998E-03;  1.9011740E-01;8473;  1.3986589E+00;  0.0000000E+00; -2.7577825E-02;  9.9999756E+02;  1.1310045E-01; -2.0161858E+00;3;  3.1764145E+01;  0.0000000E+00;  3.4718002E+01;0;  1.6276383E+00;  3.1362029E+04;  0.0000000E+00; -7.1687424E-01;  4.0000000E+04;  0.0000000E+00;  3.9890469E+04;  1.6807752E+00;  0.0000000E+00; -5.3136840E-02;  2.6025474E+03;
  1.0476573E+00;  9.9999998E-03;  2.0012198E-01;8474;  1.4151258E+00;  0.0000000E+00; -2.8554887E-02;  1.0003492E+03;  1.1309281E-01;  2.8806613E+02;3;  3.1981930E+01;  0.0000000E+00;  3.6124020E+01;0;  1.7239960E+00;  3.1392688E+04;  0.0000000E+00; -9.8314154E-01;  4.0000000E+04;  0.0000000E+00;  3.9884984E+04;  1.7513914E+00;  0.0000000E+00; -2.7395356E-02;  2.2537068E+03;
  1.0477691E+00;  9.9999998E-03;  2.1012625E-01;8475;  1.4327059E+00;  0.0000000E+00; -2.9233718E-02;  1.0006333E+03;  1.1308490E-01;  5.2252802E+02;3;  3.3011345E+01;  0.0000000E+00;  3.7280495E+01;0;  1.8098873E+00;  3.1418766E+04;  0.0000000E+00; -1.3793874E+00;  4.0000000E+04;  0.0000000E+00;  3.9880500E+04;  1.8117597E+00;  0.0000000E+00; -1.8724463E-03;  2.3775669E+03;
  1.0478551E+00;  9.9999998E-03;  2.2013122E-01;8476;  1.4510387E+00;  0.0000000E+00; -2.9526010E-02;  1.0008774E+03;  1.1307801E-01;  7.2384448E+02;3;  3.4514042E+01;  0.0000000E+00;  3.8162418E+01;0;  1.8846868E+00;  3.1440109E+04;  0.0000000E+00; -1.9429840E+00;  4.0000000E+04;  0.0000000E+00;  3.9878008E+04;  1.8623221E+00;  0.0000000E+00;  2.2364730E-02;  3.0440522E+03;
  1.0479031E+00;  9.9999998E-03;  2.3014131E-01;8477;  1.4706118E+00;  0.0000000E+00; -2.9060839E-02;  1.0010890E+03;  1.1307240E-01;  8.9841028E+02;3;  3.6393482E+01;  0.0000000E+00;  3.8996853E+01;0;  1.9495385E+00;  3.1456701E+04;  0.0000000E+00; -2.6890092E+00;  4.0000000E+04;  0.0000000E+00;  3.9878301E+04;  1.9043332E+00;  0.0000000E+00;  4.5205191E-02;  4.1254189E+03;
  1.0577140E+00;  9.9999998E-03;  6.9987617E-02;8522;  1.3430507E+00;  0.0000000E+00; -8.9420853E-03;  9.9166339E+02;  1.1229584E-01; -6.8731812E+03;3;  6.6895386E+01;  0.0000000E+00;  1.4426259E+01;0;  5.9738755E-01;  3.1250037E+04;  0.0000000E+00; -3.9897665E-02;  4.0000000E+04;  0.0000000E+00;  3.9936141E+04;  7.8691280E-01;  0.0000000E+00; -1.8952528E-01;  8.6298076E+03;
  1.0576987E+00;  9.9999998E-03;  7.9989567E-02;8523;  1.3432674E+00;  0.0000000E+00; -1.0536406E-02;  9.9223090E+02;  1.1229211E-01; -6.4053115E+03;3;  6.6138634E+01;  0.0000000E+00;  1.6273027E+01;0;  6.5993607E-01;  3.1290371E+04;  0.0000000E+00; -7.2336242E-02;  4.0000000E+04;  0.0000000E+00;  3.9932430E+04;  8.5178822E-01;  0.0000000E+00; -1.9185212E-01;  8.1226372E+03;
  1.0576900E+00;  9.9999998E-03;  9.0001151E-02;8524;  1.3436782E+00;  0.0000000E+00; -1.2184682E-02;  9.9287054E+02;  1.1228824E-01; -5.8779272E+03;3;  6.5050117E+01;  0.0000000E+00;  1.8220003E+01;0;  7.3003513E-01;  3.1335664E+04;  0.0000000E+00; -1.1247482E-01;  4.0000000E+04;  0.0000000E+00;  3.9928508E+04;  9.2344004E-01;  0.0000000E+00; -1.9340490E-01;  7.5832983E+03;
  1.0576899E+00;  9.9999998E-03;  1.0002630E-01;8525;  1.3442881E+00;  0.0000000E+00; -1.3939398E-02;  9.9357367E+02;  1.1228382E-01; -5.2982529E+03;3;  6.4588135E+01;  0.0000000E+00;  2.0787560E+01;0;  8.0710548E-01;  3.1385180E+04;  0.0000000E+00; -1.5759580E-01;  4.0000000E+04;  0.0000000E+00;  3.9924633E+04;  1.0008533E+00;  0.0000000E+00; -1.9374782E-01;  7.0406367E+03;
  1.0577002E+00;  9.9999998E-03;  1.1006595E-01;8526;  1.3452564E+00;  0.0000000E+00; -1.5911238E-02;  9.9432178E+02;  1.1227863E-01; -4.6814731E+03;3;  6.2241608E+01;  0.0000000E+00;  2.3331610E+01;0;  8.9031905E-01;  3.1437863E+04;  0.0000000E+00; -2.0443085E-01;  4.0000000E+04;  0.0000000E+00;  3.9920945E+04;  1.0826545E+00;  0.0000000E+00; -1.9233544E-01;  6.5202100E+03;
  1.0577284E+00;  9.9999998E-03;  1.2009023E-01;8527;  1.3469938E+00;  0.0000000E+00; -1.8107370E-02;  9.9510040E+02;  1.1227299E-01; -4.0395283E+03;3;  5.8568142E+01;  0.0000000E+00;  2.6126648E+01;0;  9.7840655E-01;  3.1492396E+04;  0.0000000E+00; -2.5014102E-01;  4.0000000E+04;  0.0000000E+00;  3.9917660E+04;  1.1669594E+00;  0.0000000E+00; -1.8855283E-01;  6.0390347E+03;
  1.0577846E+00;  9.9999998E-03;  1.3009842E-01;8528;  1.3498713E+00;  0.0000000E+00; -2.0612761E-02;  9.9588544E+02;  1.1226650E-01; -3.3922720E+03;3;  5.3558964E+01;  0.0000000E+00;  2.8860771E+01;0;  1.0700313E+00;  3.1547646E+04;  0.0000000E+00; -2.9321712E-01;  4.0000000E+04;  0.0000000E+00;  3.9914742E+04;  1.2518013E+00;  0.0000000E+00; -1.8177000E-01;  5.6026333E+03;
  1.0578666E+00;  9.9999998E-03;  1.4010517E-01;8529;  1.3544233E+00;  0.0000000E+00; -2.3407107E-02;  9.9665765E+02;  1.1225939E-01; -2.7555813E+03;3;  4.7203678E+01;  0.0000000E+00;  3.1219475E+01;0;  1.1634456E+00;  3.1602379E+04;  0.0000000E+00; -3.3359891E-01;  4.0000000E+04;  0.0000000E+00;  3.9912098E+04;  1.3348371E+00;  0.0000000E+00; -1.7139147E-01;  5.2003394E+03;
  1.0579708E+00;  9.9999998E-03;  1.5011142E-01;8530;  1.3613245E+00;  0.0000000E+00; -2.6342027E-02;  9.9739856E+02;  1.1225174E-01; -2.1447424E+03;3;  4.0983379E+01;  0.0000000E+00;  3.3041950E+01;0;  1.2564286E+00;  3.1655352E+04;  0.0000000E+00; -3.7207243E-01;  4.0000000E+04;  0.0000000E+00;  3.9909492E+04;  1.4134240E+00;  0.0000000E+00; -1.5699543E-01;  4.8081743E+03;
  1.0580949E+00;  9.9999998E-03;  1.6011639E-01;8531;  1.3707110E+00;  0.0000000E+00; -2.9338634E-02;  9.9808521E+02;  1.1224345E-01; -1.5786281E+03;3;  3.6349903E+01;  0.0000000E+00;  3.4285023E+01;0;  1.3464216E+00;  3.1705361E+04;  0.0000000E+00; -4.1501182E-01;  4.0000000E+04;  0.0000000E+00;  3.9906590E+04;  1.4849856E+00;  0.0000000E+00; -1.3856404E-01;  4.3983286E+03;
  1.0582337E+00;  9.9999998E-03;  1.7012057E-01;8532;  1.3827291E+00;  0.0000000E+00; -3.2019418E-02;  9.9870648E+02;  1.1223535E-01; -1.0664292E+03;3;  3.3943451E+01;  0.0000000E+00;  3.5357521E+01;0;  1.4306071E+00;  3.1751670E+04;  0.0000000E+00; -4.8476484E-01;  4.0000000E+04;  0.0000000E+00;  3.9903367E+04;  1.5472060E+00;  0.0000000E+00; -1.1659898E-01;  3.9545745E+03;
  1.0583838E+00;  9.9999998E-03;  1.8012418E-01;8533;  1.3969889E+00;  0.0000000E+00; -3.4261614E-02;  9.9925262E+02;  1.1222716E-01; -6.1615558E+02;3;  3.3360840E+01;  0.0000000E+00;  3.6429043E+01;0;  1.5063486E+00;  3.1793688E+04;  0.0000000E+00; -6.1857074E-01;  4.0000000E+04;  0.0000000E+00;  3.9899500E+04;  1.5983496E+00;  0.0000000E+00; -9.2000976E-02;  3.4908267E+03;
  1.0585444E+00;  9.9999998E-03;  1.9012767E-01;8534;  1.4130347E+00;  0.0000000E+00; -3.6059160E-02;  9.9972095E+02;  1.1221920E-01; -2.3006674E+02;3;  3.4019886E+01;  0.0000000E+00;  3.7400276E+01;0;  1.5715423E+00;  3.1831307E+04;  0.0000000E+00; -8.6053258E-01;  4.0000000E+04;  0.0000000E+00;  3.9895180E+04;  1.6374409E+00;  0.0000000E+00; -6.5898672E-02;  3.0819998E+03;
  1.0587108E+00;  9.9999998E-03;  2.0013198E-01;8535;  1.4302151E+00;  0.0000000E+00; -3.7431303E-02;  1.0001143E+03;  1.1221133E-01;  9.4246605E+01;3;  3.5414219E+01;  0.0000000E+00;  3.8310329E+01;0;  1.6248163E+00;  3.1864371E+04;  0.0000000E+00; -1.2584831E+00;  4.0000000E+04;  0.0000000E+00;  3.9890754E+04;  1.6643449E+00;  0.0000000E+00; -3.9528638E-02;  2.9071956E+03;
  1.0588831E+00;  9.9999998E-03;  2.1013547E-01;8536;  1.4480344E+00;  0.0000000E+00; -3.8429104E-02;  1.0004442E+03;  1.1220343E-01;  3.6617142E+02;3;  3.7258015E+01;  0.0000000E+00;  3.9147106E+01;0;  1.6654298E+00;  3.1892836E+04;  0.0000000E+00; -1.8668761E+00;  4.0000000E+04;  0.0000000E+00;  3.9887039E+04;  1.6797150E+00;  0.0000000E+00; -1.4285161E-02;  3.2481782E+03;
  1.0590534E+00;  9.9999998E-03;  2.2014003E-01;8537;  1.4662199E+00;  0.0000000E+00; -3.8982734E-02;  1.0007241E+03;  1.1219571E-01;  5.9691284E+02;3;  3.9323334E+01;  0.0000000E+00;  3.9935936E+01;0;  1.6933240E+00;  3.1916742E+04;  0.0000000E+00; -2.7512219E+00;  4.0000000E+04;  0.0000000E+00;  3.9885066E+04;  1.6849526E+00;  0.0000000E+00;  8.3713168E-03;  4.2759365E+03;
  1.0592158E+00;  9.9999998E-03;  2.3014797E-01;8538;  1.4856143E+00;  0.0000000E+00; -3.8633201E-02;  1.0009615E+03;  1.1218832E-01;  7.9266400E+02;3;  4.1665340E+01;  0.0000000E+00;  4.0745502E+01;0;  1.7101496E+00;  3.1935805E+04;  0.0000000E+00; -3.9781497E+00;  4.0000000E+04;  0.0000000E+00;  3.9885879E+04;  1.6819839E+00;  0.0000000E+00;  2.8165653E-02;  6.0074097E+03;
  1.0688161E+00;  9.9999998E-03;  6.9996260E-02;8583;  1.3415082E+00;  0.0000000E+00; -1.0661665E-02;  9.9241431E+02;  1.1144744E-01; -6.2486294E+03;3;  6.6086700E+01;  0.0000000E+00;  1.5340172E+01;0;  8.4266275E-01;  3.1775736E+04;  0.0000000E+00; -1.7583804E-02;  4.0000000E+04;  0.0000000E+00;  3.9932469E+04;  1.0536199E+00;  0.0000000E+00; -2.1095712E-01;  8.0132046E+03;
  1.0688080E+00;  9.9999998E-03;  7.9988338E-02;8584;  1.3419411E+00;  0.0000000E+00; -1.2635804E-02;  9.9281165E+02;  1.1144437E-01; -5.9213428E+03;3;  6.5241974E+01;  0.0000000E+00;  1.8097881E+01;0;  8.9913774E-01;  3.1806139E+04;  0.0000000E+00; -5.1986445E-02;  4.0000000E+04;  0.0000000E+00;  3.9927996E+04;  1.1121317E+00;  0.0000000E+00; -2.1299401E-01;  7.4417158E+03;
  1.0688049E+00;  9.9999998E-03;  8.9986481E-02;8585;  1.3426043E+00;  0.0000000E+00; -1.4821712E-02;  9.9327258E+02;  1.1144062E-01; -5.5416157E+03;3;  6.3886707E+01;  0.0000000E+00;  2.0380957E+01;0;  9.6110326E-01;  3.1841377E+04;  0.0000000E+00; -9.7616315E-02;  4.0000000E+04;  0.0000000E+00;  3.9923344E+04;  1.1752445E+00;  0.0000000E+00; -2.1414120E-01;  6.8449741E+03;
  1.0688068E+00;  9.9999998E-03;  9.9994875E-02;8586;  1.3437005E+00;  0.0000000E+00; -1.7237933E-02;  9.9379926E+02;  1.1143650E-01; -5.1077793E+03;3;  6.0984188E+01;  0.0000000E+00;  2.3500374E+01;0;  1.0274768E+00;  3.1880791E+04;  0.0000000E+00; -1.5140708E-01;  4.0000000E+04;  0.0000000E+00;  3.9918938E+04;  1.2414416E+00;  0.0000000E+00; -2.1396479E-01;  6.2608374E+03;
  1.0688124E+00;  9.9999998E-03;  1.1001678E-01;8587;  1.3457857E+00;  0.0000000E+00; -2.0060088E-02;  9.9438318E+02;  1.1143159E-01; -4.6268071E+03;3;  5.5704304E+01;  0.0000000E+00;  2.7042624E+01;0;  1.0969102E+00;  3.1923932E+04;  0.0000000E+00; -2.0878772E-01;  4.0000000E+04;  0.0000000E+00;  3.9914961E+04;  1.3088371E+00;  0.0000000E+00; -2.1192682E-01;  5.7266816E+03;
  1.0688275E+00;  9.9999998E-03;  1.2005540E-01;8588;  1.3492999E+00;  0.0000000E+00; -2.3311598E-02;  9.9501666E+02;  1.1142649E-01; -4.1049814E+03;3;  4.8700569E+01;  0.0000000E+00;  3.0482292E+01;0;  1.1680238E+00;  3.1969945E+04;  0.0000000E+00; -2.6456067E-01;  4.0000000E+04;  0.0000000E+00;  3.9911699E+04;  1.3754258E+00;  0.0000000E+00; -2.0740195E-01;  5.2698604E+03;
  1.0688574E+00;  9.9999998E-03;  1.3010001E-01;8589;  1.3547511E+00;  0.0000000E+00; -2.6903063E-02;  9.9568732E+02;  1.1142036E-01; -3.5525156E+03;3;  4.1085033E+01;  0.0000000E+00;  3.2911312E+01;0;  1.2390494E+00;  3.2017906E+04;  0.0000000E+00; -3.1416655E-01;  4.0000000E+04;  0.0000000E+00;  3.9909270E+04;  1.4387834E+00;  0.0000000E+00; -1.9973394E-01;  4.9008662E+03;
  1.0689082E+00;  9.9999998E-03;  1.4012289E-01;8590;  1.3625168E+00;  0.0000000E+00; -3.0564245E-02;  9.9637286E+02;  1.1141343E-01; -2.9877729E+03;3;  3.5053875E+01;  0.0000000E+00;  3.4356327E+01;0;  1.3078644E+00;  3.2066969E+04;  0.0000000E+00; -3.5460663E-01;  4.0000000E+04;  0.0000000E+00;  3.9907457E+04;  1.4962195E+00;  0.0000000E+00; -1.8835507E-01;  4.6111489E+03;
  1.0689744E+00;  9.9999998E-03;  1.5013711E-01;8591;  1.3724626E+00;  0.0000000E+00; -3.4113187E-02;  9.9705908E+02;  1.1140648E-01; -2.4224915E+03;3;  3.1449795E+01;  0.0000000E+00;  3.5306717E+01;0;  1.3722885E+00;  3.2115717E+04;  0.0000000E+00; -3.8561144E-01;  4.0000000E+04;  0.0000000E+00;  3.9906148E+04;  1.5451058E+00;  0.0000000E+00; -1.7281733E-01;  4.3695688E+03;
  1.0690534E+00;  9.9999998E-03;  1.6014645E-01;8592;  1.3842428E+00;  0.0000000E+00; -3.7419111E-02;  9.9772223E+02;  1.1139878E-01; -1.8762645E+03;3;  3.0483681E+01;  0.0000000E+00;  3.5972015E+01;0;  1.4298863E+00;  3.2163316E+04;  0.0000000E+00; -4.2183790E-01;  4.0000000E+04;  0.0000000E+00;  3.9904773E+04;  1.5830232E+00;  0.0000000E+00; -1.5313679E-01;  4.1346216E+03;
  1.0691438E+00;  9.9999998E-03;  1.7015070E-01;8593;  1.3977242E+00;  0.0000000E+00; -4.0354330E-02;  9.9834741E+02;  1.1139130E-01; -1.3612693E+03;3;  3.0799162E+01;  0.0000000E+00;  3.6639339E+01;0;  1.4781560E+00;  3.2208818E+04;  0.0000000E+00; -5.0340819E-01;  4.0000000E+04;  0.0000000E+00;  3.9903078E+04;  1.6080889E+00;  0.0000000E+00; -1.2993288E-01;  3.8738738E+03;
  1.0692475E+00;  9.9999998E-03;  1.8015069E-01;8594;  1.4126813E+00;  0.0000000E+00; -4.2787306E-02;  9.9891907E+02;  1.1138372E-01; -8.9037000E+02;3;  3.2197456E+01;  0.0000000E+00;  3.7339973E+01;0;  1.5150183E+00;  3.2251645E+04;  0.0000000E+00; -6.8715245E-01;  4.0000000E+04;  0.0000000E+00;  3.9900684E+04;  1.6192987E+00;  0.0000000E+00; -1.0428037E-01;  3.5939880E+03;
  1.0693655E+00;  9.9999998E-03;  1.9014877E-01;8595;  1.4284712E+00;  0.0000000E+00; -4.4802010E-02;  9.9943365E+02;  1.1137634E-01; -4.6651285E+02;3;  3.4154499E+01;  0.0000000E+00;  3.7832512E+01;0;  1.5391173E+00;  3.2291133E+04;  0.0000000E+00; -1.0347713E+00;  4.0000000E+04;  0.0000000E+00;  3.9897762E+04;  1.6166320E+00;  0.0000000E+00; -7.7514641E-02;  3.3867297E+03;
  1.0695000E+00;  9.9999998E-03;  2.0014720E-01;8596;  1.4449598E+00;  0.0000000E+00; -4.6344604E-02;  9.9988635E+02;  1.1136863E-01; -9.3625519E+01;3;  3.6468777E+01;  0.0000000E+00;  3.8264664E+01;0;  1.5498816E+00;  3.2327148E+04;  0.0000000E+00; -1.6032815E+00;  4.0000000E+04;  0.0000000E+00;  3.9894695E+04;  1.6009883E+00;  0.0000000E+00; -5.1106676E-02;  3.4703472E+03;
  1.0696505E+00;  9.9999998E-03;  2.1014766E-01;8597;  1.4619212E+00;  0.0000000E+00; -4.7450203E-02;  1.0002820E+03;  1.1136099E-01;  2.3231786E+02;3;  3.8880901E+01;  0.0000000E+00;  3.8625832E+01;0;  1.5473673E+00;  3.2359117E+04;  0.0000000E+00; -2.4463935E+00;  4.0000000E+04;  0.0000000E+00;  3.9892117E+04;  1.5740563E+00;  0.0000000E+00; -2.6688984E-02;  4.1209297E+03;
  1.0698117E+00;  9.9999998E-03;  2.2015172E-01;8598;  1.4794337E+00;  0.0000000E+00; -4.7940344E-02;  1.0006244E+03;  1.1135308E-01;  5.1431274E+02;3;  4.1189999E+01;  0.0000000E+00;  3.9057602E+01;0;  1.5324140E+00;  3.2386828E+04;  0.0000000E+00; -3.6205890E+00;  4.0000000E+04;  0.0000000E+00;  3.9890980E+04;  1.5381856E+00;  0.0000000E+00; -5.7716458E-03;  5.4886851E+03;
  1.0699737E+00;  9.9999998E-03;  2.3016202E-01;8599;  1.4976062E+00;  0.0000000E+00; -4.7372498E-02;  1.0009142E+03;  1.1134586E-01;  7.5299908E+02;3;  4.3286953E+01;  0.0000000E+00;  3.9567600E+01;0;  1.5077119E+00;  3.2409650E+04;  0.0000000E+00; -5.1779327E+00;  4.0000000E+04;  0.0000000E+00;  3.9891539E+04;  1.4962482E+00;  0.0000000E+00;  1.1463697E-02;  7.5811748E+03;
  1.0798236E+00;  9.9999998E-03;  7.0021547E-02;8644;  1.3401499E+00;  0.0000000E+00; -1.2906570E-02;  9.9325403E+02;  1.1063586E-01; -5.5512622E+03;3;  6.3088020E+01;  0.0000000E+00;  1.7116795E+01;0;  1.1266221E+00;  3.2299539E+04;  0.0000000E+00;  1.7532596E-02;  4.0000000E+04;  0.0000000E+00;  3.9927598E+04;  1.3573455E+00;  0.0000000E+00; -2.3072334E-01;  7.2961719E+03;
  1.0798290E+00;  9.9999998E-03;  8.0012672E-02;8645;  1.3411003E+00;  0.0000000E+00; -1.5397467E-02;  9.9347186E+02;  1.1063306E-01; -5.3719873E+03;3;  6.0238346E+01;  0.0000000E+00;  2.0327892E+01;0;  1.1742433E+00;  3.2319512E+04;  0.0000000E+00; -1.1411206E-02;  4.0000000E+04;  0.0000000E+00;  3.9922629E+04;  1.4063338E+00;  0.0000000E+00; -2.3209043E-01;  6.6883384E+03;
  1.0798409E+00;  9.9999998E-03;  9.0005279E-02;8646;  1.3428067E+00;  0.0000000E+00; -1.8299537E-02;  9.9374908E+02;  1.1062942E-01; -5.1438564E+03;3;  5.1024815E+01;  0.0000000E+00;  2.5336079E+01;0;  1.2250236E+00;  3.2343756E+04;  0.0000000E+00; -5.3577505E-02;  4.0000000E+04;  0.0000000E+00;  3.9917488E+04;  1.4574844E+00;  0.0000000E+00; -2.3246069E-01;  6.0629790E+03;
  1.0798562E+00;  9.9999998E-03;  1.0000443E-01;8647;  1.3464345E+00;  0.0000000E+00; -2.1944150E-02;  9.9409680E+02;  1.1062569E-01; -4.8577002E+03;3;  3.7927952E+01;  0.0000000E+00;  2.9881338E+01;0;  1.2774225E+00;  3.2372361E+04;  0.0000000E+00; -1.0618389E-01;  4.0000000E+04;  0.0000000E+00;  3.9912730E+04;  1.5088365E+00;  0.0000000E+00; -2.3141393E-01;  5.4617402E+03;
  1.0798736E+00;  9.9999998E-03;  1.1001412E-01;8648;  1.3524462E+00;  0.0000000E+00; -2.6076851E-02;  9.9450433E+02;  1.1062098E-01; -4.5223491E+03;3;  2.5011896E+01;  0.0000000E+00;  3.2461910E+01;0;  1.3298266E+00;  3.2404879E+04;  0.0000000E+00; -1.6433458E-01;  4.0000000E+04;  0.0000000E+00;  3.9908473E+04;  1.5582738E+00;  0.0000000E+00; -2.2844720E-01;  4.9275366E+03;
  1.0798928E+00;  9.9999998E-03;  1.2003837E-01;8649;  1.3607455E+00;  0.0000000E+00; -3.0323371E-02;  9.9498016E+02;  1.1061615E-01; -4.1307886E+03;3;  1.6535997E+01;  0.0000000E+00;  3.3153111E+01;0;  1.3805220E+00;  3.2441062E+04;  0.0000000E+00; -2.2177303E-01;  4.0000000E+04;  0.0000000E+00;  3.9905207E+04;  1.6034914E+00;  0.0000000E+00; -2.2296947E-01;  4.4951924E+03;
  1.0799133E+00;  9.9999998E-03;  1.3007937E-01;8650;  1.3708018E+00;  0.0000000E+00; -3.4430914E-02;  9.9551184E+02;  1.1061052E-01; -3.6932712E+03;3;  1.2805212E+01;  0.0000000E+00;  3.3130440E+01;0;  1.4276245E+00;  3.2480320E+04;  0.0000000E+00; -2.7207431E-01;  4.0000000E+04;  0.0000000E+00;  3.9903078E+04;  1.6419650E+00;  0.0000000E+00; -2.1434058E-01;  4.1818491E+03;
  1.0799341E+00;  9.9999998E-03;  1.4013243E-01;8651;  1.3820723E+00;  0.0000000E+00; -3.8210917E-02;  9.9608990E+02;  1.1060482E-01; -3.2175964E+03;3;  1.3207535E+01;  0.0000000E+00;  3.3443130E+01;0;  1.4690951E+00;  3.2521951E+04;  0.0000000E+00; -3.0997604E-01;  4.0000000E+04;  0.0000000E+00;  3.9902008E+04;  1.6710496E+00;  0.0000000E+00; -2.0195445E-01;  3.9802644E+03;
  1.0799595E+00;  9.9999998E-03;  1.5017368E-01;8652;  1.3942270E+00;  0.0000000E+00; -4.1703906E-02;  9.9669794E+02;  1.1059856E-01; -2.7172019E+03;3;  1.5327487E+01;  0.0000000E+00;  3.3616245E+01;0;  1.5028584E+00;  3.2565012E+04;  0.0000000E+00; -3.3609337E-01;  4.0000000E+04;  0.0000000E+00;  3.9901648E+04;  1.6882528E+00;  0.0000000E+00; -1.8539435E-01;  3.8582632E+03;
  1.0799917E+00;  9.9999998E-03;  1.6019367E-01;8653;  1.4068680E+00;  0.0000000E+00; -4.4909861E-02;  9.9731598E+02;  1.1059196E-01; -2.2086177E+03;3;  1.8582365E+01;  0.0000000E+00;  3.3833668E+01;0;  1.5267452E+00;  3.2608670E+04;  0.0000000E+00; -3.7650838E-01;  4.0000000E+04;  0.0000000E+00;  3.9901613E+04;  1.6914971E+00;  0.0000000E+00; -1.6475192E-01;  3.7661729E+03;
  1.0800322E+00;  9.9999998E-03;  1.7020056E-01;8654;  1.4197897E+00;  0.0000000E+00; -4.7733143E-02;  9.9792841E+02;  1.1058573E-01; -1.7046945E+03;3;  2.2575428E+01;  0.0000000E+00;  3.4230141E+01;0;  1.5387369E+00;  3.2652266E+04;  0.0000000E+00; -4.8940235E-01;  4.0000000E+04;  0.0000000E+00;  3.9901188E+04;  1.6794649E+00;  0.0000000E+00; -1.4072803E-01;  3.6564478E+03;
  1.0800844E+00;  9.9999998E-03;  1.8019904E-01;8655;  1.4330447E+00;  0.0000000E+00; -5.0201505E-02;  9.9851331E+02;  1.1057901E-01; -1.2233851E+03;3;  2.6618870E+01;  0.0000000E+00;  3.4485229E+01;0;  1.5373698E+00;  3.2694779E+04;  0.0000000E+00; -7.5072443E-01;  4.0000000E+04;  0.0000000E+00;  3.9899996E+04;  1.6518701E+00;  0.0000000E+00; -1.1450024E-01;  3.5296680E+03;
  1.0801544E+00;  9.9999998E-03;  1.9019282E-01;8656;  1.4470025E+00;  0.0000000E+00; -5.2166585E-02;  9.9906372E+02;  1.1057217E-01; -7.7042853E+02;3;  3.0624596E+01;  0.0000000E+00;  3.4813965E+01;0;  1.5220491E+00;  3.2735883E+04;  0.0000000E+00; -1.2347755E+00;  4.0000000E+04;  0.0000000E+00;  3.9898039E+04;  1.6095558E+00;  0.0000000E+00; -8.7506749E-02;  3.5044956E+03;
  1.0802450E+00;  9.9999998E-03;  2.0018637E-01;8657;  1.4615427E+00;  0.0000000E+00; -5.3747866E-02;  9.9956335E+02;  1.1056504E-01; -3.5931421E+02;3;  3.4289280E+01;  0.0000000E+00;  3.5099289E+01;0;  1.4929641E+00;  3.2774566E+04;  0.0000000E+00; -1.9982201E+00;  4.0000000E+04;  0.0000000E+00;  3.9895668E+04;  1.5543499E+00;  0.0000000E+00; -6.1385736E-02;  3.8426143E+03;
  1.0803558E+00;  9.9999998E-03;  2.1018310E-01;8658;  1.4765469E+00;  0.0000000E+00; -5.4823570E-02;  1.0000154E+03;  1.1055747E-01;  1.2751931E+01;3;  3.7445736E+01;  0.0000000E+00;  3.5489346E+01;0;  1.4510369E+00;  3.2810301E+04;  0.0000000E+00; -3.0763547E+00;  4.0000000E+04;  0.0000000E+00;  3.9893477E+04;  1.4888963E+00;  0.0000000E+00; -3.7859276E-02;  4.7970620E+03;
  1.0804842E+00;  9.9999998E-03;  2.2018592E-01;8659;  1.4918741E+00;  0.0000000E+00; -5.5231288E-02;  1.0004155E+03;  1.1054996E-01;  3.4184540E+02;3;  4.0037731E+01;  0.0000000E+00;  3.5600296E+01;0;  1.3978653E+00;  3.2842211E+04;  0.0000000E+00; -4.4920855E+00;  4.0000000E+04;  0.0000000E+00;  3.9892168E+04;  1.4163661E+00;  0.0000000E+00; -1.8500824E-02;  6.4303765E+03;
  1.0806197E+00;  9.9999998E-03;  2.3019555E-01;8660;  1.5079644E+00;  0.0000000E+00; -5.4755222E-02;  1.0007585E+03;  1.1054301E-01;  6.2414130E+02;3;  4.2414440E+01;  0.0000000E+00;  3.5999313E+01;0;  1.3362044E+00;  3.2869395E+04;  0.0000000E+00; -6.2518086E+00;  4.0000000E+04;  0.0000000E+00;  3.9891652E+04;  1.3404138E+00;  0.0000000E+00; -4.2093741E-03;  8.6889834E+03;
  1.0907832E+00;  9.9999998E-03;  7.0035301E-02;8705;  1.3411120E+00;  0.0000000E+00; -1.6195808E-02;  9.9404498E+02;  1.0986359E-01; -4.8945425E+03;3;  3.5011539E+01;  0.0000000E+00;  2.3769176E+01;0;  1.4279658E+00;  3.2810172E+04;  0.0000000E+00;  4.9840849E-02;  4.0000000E+04;  0.0000000E+00;  3.9921891E+04;  1.6755043E+00;  0.0000000E+00; -2.4753860E-01;  6.5304697E+03;
  1.0907997E+00;  9.9999998E-03;  8.0037907E-02;8706;  1.3458835E+00;  0.0000000E+00; -2.0096865E-02;  9.9410339E+02;  1.0986109E-01; -4.8465229E+03;3;  1.0661571E+01;  0.0000000E+00;  2.9452473E+01;0;  1.4630899E+00;  3.2820281E+04;  0.0000000E+00;  2.9926024E-02;  4.0000000E+04;  0.0000000E+00;  3.9916535E+04;  1.7110142E+00;  0.0000000E+00; -2.4792419E-01;  5.9192021E+03;
  1.0908184E+00;  9.9999998E-03;  9.0037242E-02;8707;  1.3537881E+00;  0.0000000E+00; -2.4502374E-02;  9.9421643E+02;  1.0985785E-01; -4.7535786E+03;3; -5.7721429E+00;  0.0000000E+00;  3.0094032E+01;0;  1.4988012E+00;  3.2834117E+04;  0.0000000E+00; -3.2763772E-03;  4.0000000E+04;  0.0000000E+00;  3.9911234E+04;  1.7460130E+00;  0.0000000E+00; -2.4721186E-01;  5.3006289E+03;
  1.0908406E+00;  9.9999998E-03;  1.0003741E-01;8708;  1.3641211E+00;  0.0000000E+00; -2.8883198E-02;  9.9439520E+02;  1.0985418E-01; -4.6066460E+03;3; -1.3779703E+01;  0.0000000E+00;  2.8571825E+01;0;  1.5336316E+00;  3.2852121E+04;  0.0000000E+00; -4.7365613E-02;  4.0000000E+04;  0.0000000E+00;  3.9906273E+04;  1.7786590E+00;  0.0000000E+00; -2.4502741E-01;  4.7168081E+03;
  1.0908675E+00;  9.9999998E-03;  1.1004386E-01;8709;  1.3762589E+00;  0.0000000E+00; -3.2980394E-02;  9.9464459E+02;  1.0985030E-01; -4.4016592E+03;3; -1.5236914E+01;  0.0000000E+00;  2.7687273E+01;0;  1.5659070E+00;  3.2874246E+04;  0.0000000E+00; -9.7613700E-02;  4.0000000E+04;  0.0000000E+00;  3.9902117E+04;  1.8068408E+00;  0.0000000E+00; -2.4093376E-01;  4.2097217E+03;
  1.0909001E+00;  9.9999998E-03;  1.2006081E-01;8710;  1.3896743E+00;  0.0000000E+00; -3.6786780E-02;  9.9496118E+02;  1.0984549E-01; -4.1414111E+03;3; -1.3910079E+01;  0.0000000E+00;  2.6957951E+01;0;  1.5938046E+00;  3.2900535E+04;  0.0000000E+00; -1.4765683E-01;  4.0000000E+04;  0.0000000E+00;  3.9899023E+04;  1.8282101E+00;  0.0000000E+00; -2.3440550E-01;  3.8144275E+03;
  1.0909297E+00;  9.9999998E-03;  1.3009058E-01;8711;  1.4036202E+00;  0.0000000E+00; -4.0272471E-02;  9.9535687E+02;  1.0984115E-01; -3.8162065E+03;3; -1.0723930E+01;  0.0000000E+00;  2.6691027E+01;0;  1.6152685E+00;  3.2930598E+04;  0.0000000E+00; -1.9060959E-01;  4.0000000E+04;  0.0000000E+00;  3.9897211E+04;  1.8401186E+00;  0.0000000E+00; -2.2485024E-01;  3.5507410E+03;
  1.0909436E+00;  9.9999998E-03;  1.4013503E-01;8712;  1.4172184E+00;  0.0000000E+00; -4.3506049E-02;  9.9581219E+02;  1.0983583E-01; -3.4419727E+03;3; -6.2432775E+00;  0.0000000E+00;  2.6874815E+01;0;  1.6282526E+00;  3.2963953E+04;  0.0000000E+00; -2.2061102E-01;  4.0000000E+04;  0.0000000E+00;  3.9896617E+04;  1.8399245E+00;  0.0000000E+00; -2.1167178E-01;  3.4155129E+03;
  1.0909401E+00;  9.9999998E-03;  1.5019019E-01;8713;  1.4301012E+00;  0.0000000E+00; -4.6482265E-02;  9.9632593E+02;  1.0983093E-01; -3.0197371E+03;3; -9.8180586E-01;  0.0000000E+00;  2.6988634E+01;0;  1.6309983E+00;  3.3000055E+04;  0.0000000E+00; -2.4218874E-01;  4.0000000E+04;  0.0000000E+00;  3.9896949E+04;  1.8254216E+00;  0.0000000E+00; -1.9442327E-01;  3.3788779E+03;
  1.0909271E+00;  9.9999998E-03;  1.6023494E-01;8714;  1.4421680E+00;  0.0000000E+00; -4.9194105E-02;  9.9687976E+02;  1.0982613E-01; -2.5645344E+03;3;  4.8262672E+00;  0.0000000E+00;  2.7459000E+01;0;  1.6218256E+00;  3.3038484E+04;  0.0000000E+00; -2.9544649E-01;  4.0000000E+04;  0.0000000E+00;  3.9897719E+04;  1.7950491E+00;  0.0000000E+00; -1.7322351E-01;  3.3869189E+03;
  1.0909187E+00;  9.9999998E-03;  1.7025422E-01;8715;  1.4534843E+00;  0.0000000E+00; -5.1672857E-02;  9.9745270E+02;  1.0982145E-01; -2.0936523E+03;3;  1.0712330E+01;  0.0000000E+00;  2.7784063E+01;0;  1.5994066E+00;  3.3078391E+04;  0.0000000E+00; -4.5693323E-01;  4.0000000E+04;  0.0000000E+00;  3.9898184E+04;  1.7482318E+00;  0.0000000E+00; -1.4882514E-01;  3.3809873E+03;
  1.0909288E+00;  9.9999998E-03;  1.8025687E-01;8716;  1.4641979E+00;  0.0000000E+00; -5.3870060E-02;  9.9802374E+02;  1.0981593E-01; -1.6242847E+03;3;  1.6781363E+01;  0.0000000E+00;  2.8163496E+01;0;  1.5630094E+00;  3.3119383E+04;  0.0000000E+00; -8.1809777E-01;  4.0000000E+04;  0.0000000E+00;  3.9897734E+04;  1.6853881E+00;  0.0000000E+00; -1.2237868E-01;  3.3635864E+03;
  1.0909599E+00;  9.9999998E-03;  1.9025104E-01;8717;  1.4744806E+00;  0.0000000E+00; -5.5785265E-02;  9.9857751E+02;  1.0980964E-01; -1.1691221E+03;3;  2.2559210E+01;  0.0000000E+00;  2.8556293E+01;0;  1.5126865E+00;  3.3160562E+04;  0.0000000E+00; -1.4566665E+00;  4.0000000E+04;  0.0000000E+00;  3.9896180E+04;  1.6079893E+00;  0.0000000E+00; -9.5302835E-02;  3.4888330E+03;
  1.0910131E+00;  9.9999998E-03;  2.0024411E-01;8718;  1.4846736E+00;  0.0000000E+00; -5.7421476E-02;  9.9910162E+02;  1.0980347E-01; -7.3835736E+02;3;  2.8057467E+01;  0.0000000E+00;  2.8870913E+01;0;  1.4492830E+00;  3.3200891E+04;  0.0000000E+00; -2.4166548E+00;  4.0000000E+04;  0.0000000E+00;  3.9893738E+04;  1.5185250E+00;  0.0000000E+00; -6.9242030E-02;  4.0487136E+03;
  1.0910854E+00;  9.9999998E-03;  2.1023986E-01;8719;  1.4952990E+00;  0.0000000E+00; -5.8661975E-02;  9.9958759E+02;  1.0979625E-01; -3.3894974E+02;3;  3.2846264E+01;  0.0000000E+00;  2.9385265E+01;0;  1.3742652E+00;  3.3239414E+04;  0.0000000E+00; -3.7011306E+00;  4.0000000E+04;  0.0000000E+00;  3.9891039E+04;  1.4202986E+00;  0.0000000E+00; -4.6033341E-02;  5.2405620E+03;
  1.0911725E+00;  9.9999998E-03;  2.2024088E-01;8720;  1.5061961E+00;  0.0000000E+00; -5.9572179E-02;  1.0000217E+03;  1.0978939E-01;  1.7831543E+01;3;  3.7000542E+01;  0.0000000E+00;  2.9770281E+01;0;  1.2890731E+00;  3.3274809E+04;  0.0000000E+00; -5.2795887E+00;  4.0000000E+04;  0.0000000E+00;  3.9888250E+04;  1.3170787E+00;  0.0000000E+00; -2.8005576E-02;  7.0193950E+03;
  1.0912677E+00;  9.9999998E-03;  2.3024569E-01;8721;  1.5185041E+00;  0.0000000E+00; -5.9847452E-02;  1.0004067E+03;  1.0978258E-01;  3.3419067E+02;3;  4.0605297E+01;  0.0000000E+00;  3.0006418E+01;0;  1.1961167E+00;  3.3306371E+04;  0.0000000E+00; -7.0895348E+00;  4.0000000E+04;  0.0000000E+00;  3.9886145E+04;  1.2131472E+00;  0.0000000E+00; -1.7030526E-02;  9.2425049E+03;
  1.1017125E+00;  9.9999998E-03;  7.0037626E-02;8766;  1.3611113E+00;  0.0000000E+00; -2.2619521E-02;  9.9472003E+02;  1.0913479E-01; -4.3336226E+03;3; -4.2136116E+01;  0.0000000E+00;  2.0753963E+01;0;  1.7231245E+00;  3.3299410E+04;  0.0000000E+00;  6.9460712E-02;  4.0000000E+04;  0.0000000E+00;  3.9915152E+04;  1.9833652E+00;  0.0000000E+00; -2.6024073E-01;  5.7438145E+03;
  1.1017486E+00;  9.9999998E-03;  8.0046192E-02;8767;  1.3726680E+00;  0.0000000E+00; -2.6565282E-02;  9.9465308E+02;  1.0913187E-01; -4.3885396E+03;3; -4.2759888E+01;  0.0000000E+00;  1.8989792E+01;0;  1.7431417E+00;  3.3301363E+04;  0.0000000E+00;  5.7631046E-02;  4.0000000E+04;  0.0000000E+00;  3.9909945E+04;  2.0025804E+00;  0.0000000E+00; -2.5943875E-01;  5.1666035E+03;
  1.1017863E+00;  9.9999998E-03;  9.0057530E-02;8768;  1.3854271E+00;  0.0000000E+00; -3.0273795E-02;  9.9463605E+02;  1.0912883E-01; -4.4025083E+03;3; -4.0764233E+01;  0.0000000E+00;  1.8062605E+01;0;  1.7614998E+00;  3.3306777E+04;  0.0000000E+00;  3.3922534E-02;  4.0000000E+04;  0.0000000E+00;  3.9904758E+04;  2.0189841E+00;  0.0000000E+00; -2.5748432E-01;  4.5921582E+03;
  1.1018220E+00;  9.9999998E-03;  1.0006965E-01;8769;  1.3989165E+00;  0.0000000E+00; -3.3767957E-02;  9.9468048E+02;  1.0912533E-01; -4.3660405E+03;3; -3.7342735E+01;  0.0000000E+00;  1.7909595E+01;0;  1.7765284E+00;  3.3315840E+04;  0.0000000E+00;  5.9151580E-04;  4.0000000E+04;  0.0000000E+00;  3.9900023E+04;  2.0305953E+00;  0.0000000E+00; -2.5406694E-01;  4.0619077E+03;
  1.1018525E+00;  9.9999998E-03;  1.1008169E-01;8770;  1.4128957E+00;  0.0000000E+00; -3.7093714E-02;  9.9479175E+02;  1.0912158E-01; -4.2746870E+03;3; -3.3178028E+01;  0.0000000E+00;  1.7719242E+01;0;  1.7864890E+00;  3.3328902E+04;  0.0000000E+00; -3.7843220E-02;  4.0000000E+04;  0.0000000E+00;  3.9896203E+04;  2.0353110E+00;  0.0000000E+00; -2.4882199E-01;  3.6148396E+03;
  1.1018773E+00;  9.9999998E-03;  1.2009899E-01;8771;  1.4271981E+00;  0.0000000E+00; -4.0179919E-02;  9.9497870E+02;  1.0911749E-01; -4.1212090E+03;3; -2.8329960E+01;  0.0000000E+00;  1.8018637E+01;0;  1.7897079E+00;  3.3346137E+04;  0.0000000E+00; -7.5265825E-02;  4.0000000E+04;  0.0000000E+00;  3.9893473E+04;  2.0310047E+00;  0.0000000E+00; -2.4129671E-01;  3.2805386E+03;
  1.1018959E+00;  9.9999998E-03;  1.3012490E-01;8772;  1.4417357E+00;  0.0000000E+00; -4.3026280E-02;  9.9524084E+02;  1.0911340E-01; -3.9060464E+03;3; -2.3230230E+01;  0.0000000E+00;  1.8216574E+01;0;  1.7845356E+00;  3.3367336E+04;  0.0000000E+00; -1.0503211E-01;  4.0000000E+04;  0.0000000E+00;  3.9891973E+04;  2.0155003E+00;  0.0000000E+00; -2.3096462E-01;  3.0741294E+03;
  1.1019073E+00;  9.9999998E-03;  1.4015974E-01;8773;  1.4565920E+00;  0.0000000E+00; -4.5543361E-02;  9.9558276E+02;  1.0910960E-01; -3.6254333E+03;3; -1.7793175E+01;  0.0000000E+00;  1.8586319E+01;0;  1.7694161E+00;  3.3392340E+04;  0.0000000E+00; -1.2206112E-01;  4.0000000E+04;  0.0000000E+00;  3.9891746E+04;  1.9866909E+00;  0.0000000E+00; -2.1727473E-01;  2.9913052E+03;
  1.1018988E+00;  9.9999998E-03;  1.5020417E-01;8774;  1.4709429E+00;  0.0000000E+00; -4.7796752E-02;  9.9599036E+02;  1.0910607E-01; -3.2909204E+03;3; -1.2129752E+01;  0.0000000E+00;  1.9060112E+01;0;  1.7427777E+00;  3.3420969E+04;  0.0000000E+00; -1.3902953E-01;  4.0000000E+04;  0.0000000E+00;  3.9892484E+04;  1.9425771E+00;  0.0000000E+00; -1.9979945E-01;  3.0064622E+03;
  1.1018618E+00;  9.9999998E-03;  1.6025417E-01;8775;  1.4836811E+00;  0.0000000E+00; -4.9854815E-02;  9.9645795E+02;  1.0910277E-01; -2.9071555E+03;3; -5.9976573E+00;  0.0000000E+00;  1.9592539E+01;0;  1.7032598E+00;  3.3452840E+04;  0.0000000E+00; -2.1309182E-01;  4.0000000E+04;  0.0000000E+00;  3.9893715E+04;  1.8818636E+00;  0.0000000E+00; -1.7860375E-01;  3.0694060E+03;
  1.1018157E+00;  9.9999998E-03;  1.7028908E-01;8776;  1.4948831E+00;  0.0000000E+00; -5.1755004E-02;  9.9696704E+02;  1.0909955E-01; -2.4893403E+03;3;  3.8257724E-01;  0.0000000E+00;  2.0253790E+01;0;  1.6503215E+00;  3.3487816E+04;  0.0000000E+00; -4.3743905E-01;  4.0000000E+04;  0.0000000E+00;  3.9894570E+04;  1.8046644E+00;  0.0000000E+00; -1.5434289E-01;  3.1196826E+03;
  1.1017863E+00;  9.9999998E-03;  1.8029992E-01;8777;  1.5051200E+00;  0.0000000E+00; -5.3489305E-02;  9.9749530E+02;  1.0909595E-01; -2.0557627E+03;3;  6.8928862E+00;  0.0000000E+00;  2.0969349E+01;0;  1.5841973E+00;  3.3525281E+04;  0.0000000E+00; -9.1127968E-01;  4.0000000E+04;  0.0000000E+00;  3.9894496E+04;  1.7122310E+00;  0.0000000E+00; -1.2803377E-01;  3.1780613E+03;
  1.1017872E+00;  9.9999998E-03;  1.9029854E-01;8778;  1.5146896E+00;  0.0000000E+00; -5.5093993E-02;  9.9802356E+02;  1.0909138E-01; -1.6221747E+03;3;  1.3435970E+01;  0.0000000E+00;  2.1397964E+01;0;  1.5057527E+00;  3.3564363E+04;  0.0000000E+00; -1.7069080E+00;  4.0000000E+04;  0.0000000E+00;  3.9893070E+04;  1.6066203E+00;  0.0000000E+00; -1.0086758E-01;  3.4426597E+03;
  1.1018203E+00;  9.9999998E-03;  2.0029478E-01;8779;  1.5236709E+00;  0.0000000E+00; -5.6555349E-02;  9.9853711E+02;  1.0908552E-01; -1.2006650E+03;3;  1.9858482E+01;  0.0000000E+00;  2.1780697E+01;0;  1.4165412E+00;  3.3604172E+04;  0.0000000E+00; -2.8456988E+00;  4.0000000E+04;  0.0000000E+00;  3.9890441E+04;  1.4907928E+00;  0.0000000E+00; -7.4251547E-02;  4.2046538E+03;
  1.1018778E+00;  9.9999998E-03;  2.1029346E-01;8780;  1.5319192E+00;  0.0000000E+00; -5.7952974E-02;  9.9901257E+02;  1.0907925E-01; -8.1041675E+02;3;  2.6102947E+01;  0.0000000E+00;  2.2005766E+01;0;  1.3182919E+00;  3.3643188E+04;  0.0000000E+00; -4.2968287E+00;  4.0000000E+04;  0.0000000E+00;  3.9886746E+04;  1.3683580E+00;  0.0000000E+00; -5.0066121E-02;  5.5710562E+03;
  1.1019492E+00;  9.9999998E-03;  2.2029594E-01;8781;  1.5390620E+00;  0.0000000E+00; -5.9218530E-02;  9.9944629E+02;  1.0907288E-01; -4.5446683E+02;3;  3.1776791E+01;  0.0000000E+00;  2.2164005E+01;0;  1.2124424E+00;  3.3680086E+04;  0.0000000E+00; -5.9910140E+00;  4.0000000E+04;  0.0000000E+00;  3.9882176E+04;  1.2431979E+00;  0.0000000E+00; -3.0755475E-02;  7.4265894E+03;
  1.1020211E+00;  9.9999998E-03;  2.3030010E-01;8782;  1.5438216E+00;  0.0000000E+00; -6.0549997E-02;  9.9982886E+02;  1.0906639E-01; -1.4044792E+02;3;  3.6822590E+01;  0.0000000E+00;  2.2590115E+01;0;  1.0982374E+00;  3.3713883E+04;  0.0000000E+00; -7.8131924E+00;  4.0000000E+04;  0.0000000E+00;  3.9877527E+04;  1.1187104E+00;  0.0000000E+00; -2.0472994E-02;  9.5703350E+03;
  1.1126107E+00;  9.9999998E-03;  7.0040442E-02;8827;  1.3995426E+00;  0.0000000E+00; -2.6001234E-02;  9.9526141E+02;  1.0845098E-01; -3.8829202E+03;3; -5.9876419E+01;  0.0000000E+00;  8.0836163E+00;0;  1.9917412E+00;  3.3763086E+04;  0.0000000E+00;  7.3491253E-02;  4.0000000E+04;  0.0000000E+00;  3.9907770E+04;  2.2594573E+00;  0.0000000E+00; -2.6771614E-01;  4.9511484E+03;
  1.1126645E+00;  9.9999998E-03;  8.0049753E-02;8828;  1.4115433E+00;  0.0000000E+00; -2.9413022E-02;  9.9511969E+02;  1.0844792E-01; -3.9990310E+03;3; -5.5876926E+01;  0.0000000E+00;  8.6384897E+00;0;  1.9950063E+00;  3.3759539E+04;  0.0000000E+00;  6.5293387E-02;  4.0000000E+04;  0.0000000E+00;  3.9902773E+04;  2.2607248E+00;  0.0000000E+00; -2.6571849E-01;  4.4438320E+03;
  1.1127199E+00;  9.9999998E-03;  9.0064220E-02;8829;  1.4243566E+00;  0.0000000E+00; -3.2704670E-02;  9.9501184E+02;  1.0844465E-01; -4.0873484E+03;3; -5.1574612E+01;  0.0000000E+00;  9.0979452E+00;0;  1.9944961E+00;  3.3758758E+04;  0.0000000E+00;  4.7189873E-02;  4.0000000E+04;  0.0000000E+00;  3.9898145E+04;  2.2570770E+00;  0.0000000E+00; -2.6258093E-01;  3.9501855E+03;
  1.1127732E+00;  9.9999998E-03;  1.0008365E-01;8830;  1.4377612E+00;  0.0000000E+00; -3.5823647E-02;  9.9496497E+02;  1.0844152E-01; -4.1257500E+03;3; -4.6969688E+01;  0.0000000E+00;  9.4813604E+00;0;  1.9887110E+00;  3.3761254E+04;  0.0000000E+00;  2.1756709E-02;  4.0000000E+04;  0.0000000E+00;  3.9894043E+04;  2.2467637E+00;  0.0000000E+00; -2.5805271E-01;  3.5073616E+03;
  1.1128187E+00;  9.9999998E-03;  1.1010654E-01;8831;  1.4514532E+00;  0.0000000E+00; -3.8789973E-02;  9.9497620E+02;  1.0843761E-01; -4.1164893E+03;3; -4.1957424E+01;  0.0000000E+00;  1.0043571E+01;0;  1.9760945E+00;  3.3767383E+04;  0.0000000E+00; -6.4069643E-03;  4.0000000E+04;  0.0000000E+00;  3.9890754E+04;  2.2279356E+00;  0.0000000E+00; -2.5184104E-01;  3.1484233E+03;
  1.1128505E+00;  9.9999998E-03;  1.2013109E-01;8832;  1.4651092E+00;  0.0000000E+00; -4.1603785E-02;  9.9505853E+02;  1.0843383E-01; -4.0490198E+03;3; -3.6617695E+01;  0.0000000E+00;  1.0743783E+01;0;  1.9551631E+00;  3.3777270E+04;  0.0000000E+00; -3.1359762E-02;  4.0000000E+04;  0.0000000E+00;  3.9888594E+04;  2.1987348E+00;  0.0000000E+00; -2.4357168E-01;  2.8959456E+03;
  1.1128625E+00;  9.9999998E-03;  1.3015646E-01;8833;  1.4785411E+00;  0.0000000E+00; -4.4206645E-02;  9.9521826E+02;  1.0843031E-01; -3.9181213E+03;3; -3.1094999E+01;  0.0000000E+00;  1.1344214E+01;0;  1.9245757E+00;  3.3790977E+04;  0.0000000E+00; -4.6954077E-02;  4.0000000E+04;  0.0000000E+00;  3.9887629E+04;  2.1573541E+00;  0.0000000E+00; -2.3277846E-01;  2.7573606E+03;
  1.1128564E+00;  9.9999998E-03;  1.4018612E-01;8834;  1.4918530E+00;  0.0000000E+00; -4.6545066E-02;  9.9545270E+02;  1.0842761E-01; -3.7260383E+03;3; -2.5328115E+01;  0.0000000E+00;  1.2053925E+01;0;  1.8832383E+00;  3.3808551E+04;  0.0000000E+00; -5.0207164E-02;  4.0000000E+04;  0.0000000E+00;  3.9887703E+04;  2.1021810E+00;  0.0000000E+00; -2.1894267E-01;  2.7229011E+03;
  1.1128365E+00;  9.9999998E-03;  1.5022035E-01;8835;  1.5053297E+00;  0.0000000E+00; -4.8624624E-02;  9.9576001E+02;  1.0842521E-01; -3.4742317E+03;3; -1.9626656E+01;  0.0000000E+00;  1.2895307E+01;0;  1.8301795E+00;  3.3829859E+04;  0.0000000E+00; -6.6969864E-02;  4.0000000E+04;  0.0000000E+00;  3.9888617E+04;  2.0318639E+00;  0.0000000E+00; -2.0168452E-01;  2.7658079E+03;
  1.1128017E+00;  9.9999998E-03;  1.6025861E-01;8836;  1.5186257E+00;  0.0000000E+00; -5.0472379E-02;  9.9612854E+02;  1.0842290E-01; -3.1722720E+03;3; -1.3845660E+01;  0.0000000E+00;  1.3776938E+01;0;  1.7646106E+00;  3.3855000E+04;  0.0000000E+00; -1.7367695E-01;  4.0000000E+04;  0.0000000E+00;  3.9889863E+04;  1.9456962E+00;  0.0000000E+00; -1.8108554E-01;  2.8441423E+03;
  1.1127421E+00;  9.9999998E-03;  1.7029428E-01;8837;  1.5301604E+00;  0.0000000E+00; -5.2289050E-02;  9.9655206E+02;  1.0842133E-01; -2.8252891E+03;3; -7.6212635E+00;  0.0000000E+00;  1.4454025E+01;0;  1.6863595E+00;  3.3883738E+04;  0.0000000E+00; -4.7651890E-01;  4.0000000E+04;  0.0000000E+00;  3.9890867E+04;  1.8440666E+00;  0.0000000E+00; -1.5770711E-01;  2.9196968E+03;
  1.1126856E+00;  9.9999998E-03;  1.8031166E-01;8838;  1.5403527E+00;  0.0000000E+00; -5.4088559E-02;  9.9700598E+02;  1.0841881E-01; -2.4533408E+03;3; -1.3957684E+00;  0.0000000E+00;  1.5062939E+01;0;  1.5963943E+00;  3.3915824E+04;  0.0000000E+00; -1.0745348E+00;  4.0000000E+04;  0.0000000E+00;  3.9890930E+04;  1.7288762E+00;  0.0000000E+00; -1.3248187E-01;  3.0533684E+03;
  1.1126603E+00;  9.9999998E-03;  1.9031464E-01;8839;  1.5497265E+00;  0.0000000E+00; -5.5920769E-02;  9.9747949E+02;  1.0841530E-01; -2.0653552E+03;3;  4.0990319E+00;  0.0000000E+00;  1.5618166E+01;0;  1.4962118E+00;  3.3950688E+04;  0.0000000E+00; -2.0219519E+00;  4.0000000E+04;  0.0000000E+00;  3.9889727E+04;  1.6028109E+00;  0.0000000E+00; -1.0659904E-01;  3.4833464E+03;
  1.1126740E+00;  9.9999998E-03;  2.0031334E-01;8840;  1.5574816E+00;  0.0000000E+00; -5.8190212E-02;  9.9794946E+02;  1.0841110E-01; -1.6802372E+03;3;  6.6626420E+00;  0.0000000E+00;  1.5241446E+01;0;  1.3871388E+00;  3.3987188E+04;  0.0000000E+00; -3.3101599E+00;  4.0000000E+04;  0.0000000E+00;  3.9887488E+04;  1.4690546E+00;  0.0000000E+00; -8.1915691E-02;  4.4407314E+03;
  1.1127187E+00;  9.9999998E-03;  2.1031268E-01;8841;  1.5617726E+00;  0.0000000E+00; -6.0990456E-02;  9.9840192E+02;  1.0840574E-01; -1.3094735E+03;3;  5.5158687E+00;  0.0000000E+00;  1.5247725E+01;0;  1.2693081E+00;  3.4023602E+04;  0.0000000E+00; -4.8801007E+00;  4.0000000E+04;  0.0000000E+00;  3.9884398E+04;  1.3308172E+00;  0.0000000E+00; -6.1509144E-02;  5.9267217E+03;
  1.1127816E+00;  9.9999998E-03;  2.2031486E-01;8842;  1.5619723E+00;  0.0000000E+00; -6.3521869E-02;  9.9881506E+02;  1.0839964E-01; -9.7094733E+02;3;  4.2006083E+00;  0.0000000E+00;  1.5941481E+01;0;  1.1425581E+00;  3.4058691E+04;  0.0000000E+00; -6.6517811E+00;  4.0000000E+04;  0.0000000E+00;  3.9880742E+04;  1.1909533E+00;  0.0000000E+00; -4.8395146E-02;  7.8007124E+03;
  1.1128490E+00;  9.9999998E-03;  2.3031826E-01;8843;  1.5592785E+00;  0.0000000E+00; -6.5379687E-02;  9.9919366E+02;  1.0839400E-01; -6.6070581E+02;3;  4.6923385E+00;  0.0000000E+00;  1.7051596E+01;0;  1.0067385E+00;  3.4091215E+04;  0.0000000E+00; -8.5274963E+00;  4.0000000E+04;  0.0000000E+00;  3.9877281E+04;  1.0522568E+00;  0.0000000E+00; -4.5518290E-02;  9.9136924E+03;
  1.1234736E+00;  9.9999998E-03;  7.0042528E-02;8888;  1.4422575E+00;  0.0000000E+00; -2.6600184E-02;  9.9570117E+02;  1.0781345E-01; -3.5158572E+03;3; -6.4761856E+01;  0.0000000E+00;  2.9355791E+00;0;  2.2168992E+00;  3.4200695E+04;  0.0000000E+00;  6.3639604E-02;  4.0000000E+04;  0.0000000E+00;  3.9899328E+04;  2.4863040E+00;  0.0000000E+00; -2.6940495E-01;  4.1556948E+03;
  1.1235443E+00;  9.9999998E-03;  8.0052175E-02;8889;  1.4530883E+00;  0.0000000E+00; -2.9967155E-02;  9.9552747E+02;  1.0781040E-01; -3.6579104E+03;3; -6.0726013E+01;  0.0000000E+00;  3.5309424E+00;0;  2.2034121E+00;  3.4194504E+04;  0.0000000E+00;  5.3724341E-02;  4.0000000E+04;  0.0000000E+00;  3.9895215E+04;  2.4698129E+00;  0.0000000E+00; -2.6640078E-01;  3.7490535E+03;
  1.1236165E+00;  9.9999998E-03;  9.0067156E-02;8890;  1.4645420E+00;  0.0000000E+00; -3.3207595E-02;  9.9538531E+02;  1.0780702E-01; -3.7741230E+03;3; -5.6319794E+01;  0.0000000E+00;  4.1221905E+00;0;  2.1845109E+00;  3.4190383E+04;  0.0000000E+00;  3.5559665E-02;  4.0000000E+04;  0.0000000E+00;  3.9891387E+04;  2.4468265E+00;  0.0000000E+00; -2.6231560E-01;  3.3654849E+03;
  1.1236856E+00;  9.9999998E-03;  1.0008781E-01;8891;  1.4764216E+00;  0.0000000E+00; -3.6305040E-02;  9.9528430E+02;  1.0780335E-01; -3.8566504E+03;3; -5.1693794E+01;  0.0000000E+00;  4.7653942E+00;0;  2.1589632E+00;  3.4188910E+04;  0.0000000E+00;  1.2506345E-02;  4.0000000E+04;  0.0000000E+00;  3.9888117E+04;  2.4159219E+00;  0.0000000E+00; -2.5695872E-01;  3.0362083E+03;
  1.1237468E+00;  9.9999998E-03;  1.1011277E-01;8892;  1.4885222E+00;  0.0000000E+00; -3.9252028E-02;  9.9524115E+02;  1.0779959E-01; -3.8918979E+03;3; -4.6816883E+01;  0.0000000E+00;  5.4207773E+00;0;  2.1255419E+00;  3.4190504E+04;  0.0000000E+00; -1.0377385E-02;  4.0000000E+04;  0.0000000E+00;  3.9885730E+04;  2.3756480E+00;  0.0000000E+00; -2.5010607E-01;  2.7858342E+03;
  1.1237922E+00;  9.9999998E-03;  1.2013926E-01;8893;  1.5006475E+00;  0.0000000E+00; -4.2043164E-02;  9.9525757E+02;  1.0779635E-01; -3.8784590E+03;3; -4.1618828E+01;  0.0000000E+00;  6.1473198E+00;0;  2.0830748E+00;  3.4195230E+04;  0.0000000E+00; -2.7128430E-02;  4.0000000E+04;  0.0000000E+00;  3.9884336E+04;  2.3245320E+00;  0.0000000E+00; -2.4145712E-01;  2.6276689E+03;
  1.1238151E+00;  9.9999998E-03;  1.3016489E-01;8894;  1.5125064E+00;  0.0000000E+00; -4.4656847E-02;  9.9533795E+02;  1.0779310E-01; -3.8126846E+03;3; -3.6174370E+01;  0.0000000E+00;  7.1143384E+00;0;  2.0305674E+00;  3.4203273E+04;  0.0000000E+00; -3.2089904E-02;  4.0000000E+04;  0.0000000E+00;  3.9883855E+04;  2.2611673E+00;  0.0000000E+00; -2.3059982E-01;  2.5603071E+03;
  1.1238128E+00;  9.9999998E-03;  1.4018881E-01;8895;  1.5239661E+00;  0.0000000E+00; -4.7086127E-02;  9.9548462E+02;  1.0779066E-01; -3.6927720E+03;3; -3.0472046E+01;  0.0000000E+00;  7.8645205E+00;0;  1.9672416E+00;  3.4214801E+04;  0.0000000E+00; -2.7191719E-02;  4.0000000E+04;  0.0000000E+00;  3.9884137E+04;  2.1842952E+00;  0.0000000E+00; -2.1705349E-01;  2.5676892E+03;
  1.1237937E+00;  9.9999998E-03;  1.5021226E-01;8896;  1.5352038E+00;  0.0000000E+00; -4.9272776E-02;  9.9569739E+02;  1.0778848E-01; -3.5187632E+03;3; -2.4742420E+01;  0.0000000E+00;  8.8868599E+00;0;  1.8925600E+00;  3.4229750E+04;  0.0000000E+00; -5.8258384E-02;  4.0000000E+04;  0.0000000E+00;  3.9885098E+04;  2.0930674E+00;  0.0000000E+00; -2.0050736E-01;  2.6232842E+03;
  1.1237707E+00;  9.9999998E-03;  1.6023675E-01;8897;  1.5464028E+00;  0.0000000E+00; -5.1225353E-02;  9.9596869E+02;  1.0778689E-01; -3.2968862E+03;3; -1.9287128E+01;  0.0000000E+00;  1.0066935E+01;0;  1.8063216E+00;  3.4248523E+04;  0.0000000E+00; -2.2308509E-01;  4.0000000E+04;  0.0000000E+00;  3.9886227E+04;  1.9874054E+00;  0.0000000E+00; -1.8108381E-01;  2.7012710E+03;
  1.1237434E+00;  9.9999998E-03;  1.7026153E-01;8898;  1.5566629E+00;  0.0000000E+00; -5.3147994E-02;  9.9628778E+02;  1.0778499E-01; -3.0359651E+03;3; -1.4197819E+01;  0.0000000E+00;  1.1084455E+01;0;  1.7089059E+00;  3.4270785E+04;  0.0000000E+00; -6.3275826E-01;  4.0000000E+04;  0.0000000E+00;  3.9887223E+04;  1.8682379E+00;  0.0000000E+00; -1.5933198E-01;  2.8140999E+03;
  1.1237062E+00;  9.9999998E-03;  1.8027946E-01;8899;  1.5647064E+00;  0.0000000E+00; -5.5257402E-02;  9.9664673E+02;  1.0778292E-01; -2.7424346E+03;3; -1.0040540E+01;  0.0000000E+00;  1.1819472E+01;0;  1.6014313E+00;  3.4296250E+04;  0.0000000E+00; -1.3748379E+00;  4.0000000E+04;  0.0000000E+00;  3.9887590E+04;  1.7375977E+00;  0.0000000E+00; -1.3616647E-01;  3.0869878E+03;
  1.1236833E+00;  9.9999998E-03;  1.9028772E-01;8900;  1.5698533E+00;  0.0000000E+00; -5.7665359E-02;  9.9702795E+02;  1.0778034E-01; -2.4306619E+03;3; -7.7681584E+00;  0.0000000E+00;  1.2095359E+01;0;  1.4852788E+00;  3.4324488E+04;  0.0000000E+00; -2.4846869E+00;  4.0000000E+04;  0.0000000E+00;  3.9887250E+04;  1.5982260E+00;  0.0000000E+00; -1.1294716E-01;  3.7540205E+03;
  1.1236879E+00;  9.9999998E-03;  2.0029239E-01;8901;  1.5714049E+00;  0.0000000E+00; -6.0196340E-02;  9.9741711E+02;  1.0777653E-01; -2.1123921E+03;3; -6.9253683E+00;  0.0000000E+00;  1.2441244E+01;0;  1.3613460E+00;  3.4354281E+04;  0.0000000E+00; -3.9409196E+00;  4.0000000E+04;  0.0000000E+00;  3.9886363E+04;  1.4528927E+00;  0.0000000E+00; -9.1546632E-02;  4.9453008E+03;
  1.1237150E+00;  9.9999998E-03;  2.1029876E-01;8902;  1.5699863E+00;  0.0000000E+00; -6.2587477E-02;  9.9779419E+02;  1.0777166E-01; -1.8039620E+03;3; -5.9619322E+00;  0.0000000E+00;  1.3022187E+01;0;  1.2300647E+00;  3.4384336E+04;  0.0000000E+00; -5.6912346E+00;  4.0000000E+04;  0.0000000E+00;  3.9884984E+04;  1.3044055E+00;  0.0000000E+00; -7.4340738E-02;  6.6084131E+03;
  1.1237525E+00;  9.9999998E-03;  2.2030768E-01;8903;  1.5661978E+00;  0.0000000E+00; -6.4321876E-02;  9.9815051E+02;  1.0776701E-01; -1.5125448E+03;3; -3.5028331E+00;  0.0000000E+00;  1.4195803E+01;0;  1.0920153E+00;  3.4413223E+04;  0.0000000E+00; -7.6794529E+00;  4.0000000E+04;  0.0000000E+00;  3.9883402E+04;  1.1553884E+00;  0.0000000E+00; -6.3373081E-02;  8.6527148E+03;
  1.1237738E+00;  9.9999998E-03;  2.3031455E-01;8904;  1.5611045E+00;  0.0000000E+00; -6.5155923E-02;  9.9850116E+02;  1.0776252E-01; -1.2257660E+03;3;  2.1895334E-01;  0.0000000E+00;  1.5278518E+01;0;  9.4850671E-01;  3.4440801E+04;  0.0000000E+00; -9.7398081E+00;  4.0000000E+04;  0.0000000E+00;  3.9883035E+04;  1.0084687E+00;  0.0000000E+00; -5.9962038E-02;  1.0893227E+04;
  1.1342874E+00;  9.9999998E-03;  7.0045158E-02;8948;  1.4854889E+00;  0.0000000E+00; -2.6090520E-02;  9.9609808E+02;  1.0722311E-01; -3.1841675E+03;3; -6.6065002E+01;  0.0000000E+00;  1.0192554E+00;0;  2.3872535E+00;  3.4613988E+04;  0.0000000E+00;  4.2940177E-02;  4.0000000E+04;  0.0000000E+00;  3.9889992E+04;  2.6524594E+00;  0.0000000E+00; -2.6520595E-01;  3.3514617E+03;
  1.1343722E+00;  9.9999998E-03;  8.0055453E-02;8949;  1.4945769E+00;  0.0000000E+00; -2.9431082E-02;  9.9593872E+02;  1.0722001E-01; -3.3141704E+03;3; -6.2368408E+01;  0.0000000E+00;  1.3942286E+00;0;  2.3590934E+00;  3.4607648E+04;  0.0000000E+00;  2.7406279E-02;  4.0000000E+04;  0.0000000E+00;  3.9886961E+04;  2.6206110E+00;  0.0000000E+00; -2.6151752E-01;  3.0673040E+03;
  1.1344589E+00;  9.9999998E-03;  9.0070762E-02;8950;  1.5042113E+00;  0.0000000E+00; -3.2647312E-02;  9.9579797E+02;  1.0721641E-01; -3.4289429E+03;3; -5.8300583E+01;  0.0000000E+00;  1.7731842E+00;0;  2.3244612E+00;  3.4602801E+04;  0.0000000E+00;  4.8513124E-03;  4.0000000E+04;  0.0000000E+00;  3.9884227E+04;  2.5813043E+00;  0.0000000E+00; -2.5684315E-01;  2.8128391E+03;
  1.1345416E+00;  9.9999998E-03;  1.0009115E-01;8951;  1.5141708E+00;  0.0000000E+00; -3.5755061E-02;  9.9569519E+02;  1.0721309E-01; -3.5127805E+03;3; -5.3941795E+01;  0.0000000E+00;  2.2695632E+00;0;  2.2824264E+00;  3.4599961E+04;  0.0000000E+00; -2.0578599E-02;  4.0000000E+04;  0.0000000E+00;  3.9882141E+04;  2.5334773E+00;  0.0000000E+00; -2.5105104E-01;  2.6114656E+03;
  1.1346146E+00;  9.9999998E-03;  1.1011491E-01;8952;  1.5241870E+00;  0.0000000E+00; -3.8702682E-02;  9.9563159E+02;  1.0720950E-01; -3.5646194E+03;3; -4.9341785E+01;  0.0000000E+00;  2.8334303E+00;0;  2.2320871E+00;  3.4599340E+04;  0.0000000E+00; -4.3273099E-02;  4.0000000E+04;  0.0000000E+00;  3.9880781E+04;  2.4760628E+00;  0.0000000E+00; -2.4397576E-01;  2.4784529E+03;
  1.1346711E+00;  9.9999998E-03;  1.2013879E-01;8953;  1.5341256E+00;  0.0000000E+00; -4.1500993E-02;  9.9561749E+02;  1.0720626E-01; -3.5760525E+03;3; -4.4397938E+01;  0.0000000E+00;  3.4752460E+00;0;  2.1726093E+00;  3.4601020E+04;  0.0000000E+00; -5.7170205E-02;  4.0000000E+04;  0.0000000E+00;  3.9880223E+04;  2.4079864E+00;  0.0000000E+00; -2.3537704E-01;  2.4168447E+03;
  1.1347052E+00;  9.9999998E-03;  1.3015996E-01;8954;  1.5439390E+00;  0.0000000E+00; -4.4102762E-02;  9.9564563E+02;  1.0720329E-01; -3.5530691E+03;3; -3.9229862E+01;  0.0000000E+00;  4.1605520E+00;0;  2.1033032E+00;  3.4605328E+04;  0.0000000E+00; -5.7401273E-02;  4.0000000E+04;  0.0000000E+00;  3.9880168E+04;  2.3281875E+00;  0.0000000E+00; -2.2488426E-01;  2.4165437E+03;
  1.1347140E+00;  9.9999998E-03;  1.4017642E-01;8955;  1.5533594E+00;  0.0000000E+00; -4.6471361E-02;  9.9573108E+02;  1.0720108E-01; -3.4833667E+03;3; -3.3975185E+01;  0.0000000E+00;  5.1047511E+00;0;  2.0236993E+00;  3.4612246E+04;  0.0000000E+00; -5.8775868E-02;  4.0000000E+04;  0.0000000E+00;  3.9880836E+04;  2.2357688E+00;  0.0000000E+00; -2.1206950E-01;  2.4570574E+03;
  1.1347023E+00;  9.9999998E-03;  1.5018845E-01;8956;  1.5621481E+00;  0.0000000E+00; -4.8635267E-02;  9.9586121E+02;  1.0719927E-01; -3.3771543E+03;3; -2.8811216E+01;  0.0000000E+00;  6.1260395E+00;0;  1.9336480E+00;  3.4621930E+04;  0.0000000E+00; -1.3604262E-01;  4.0000000E+04;  0.0000000E+00;  3.9881742E+04;  2.1303780E+00;  0.0000000E+00; -1.9672997E-01;  2.5202856E+03;
  1.1346842E+00;  9.9999998E-03;  1.6019854E-01;8957;  1.5700929E+00;  0.0000000E+00; -5.0628502E-02;  9.9603967E+02;  1.0719790E-01; -3.2315505E+03;3; -2.4102282E+01;  0.0000000E+00;  7.0274687E+00;0;  1.8334328E+00;  3.4634605E+04;  0.0000000E+00; -3.9983836E-01;  4.0000000E+04;  0.0000000E+00;  3.9882707E+04;  2.0124602E+00;  0.0000000E+00; -1.7902739E-01;  2.6152285E+03;
  1.1346725E+00;  9.9999998E-03;  1.7020935E-01;8958;  1.5764726E+00;  0.0000000E+00; -5.2619848E-02;  9.9625629E+02;  1.0719576E-01; -3.0548137E+03;3; -2.0397816E+01;  0.0000000E+00;  7.8031502E+00;0;  1.7238350E+00;  3.4650172E+04;  0.0000000E+00; -9.5391154E-01;  4.0000000E+04;  0.0000000E+00;  3.9883719E+04;  1.8833081E+00;  0.0000000E+00; -1.5947311E-01;  2.8275479E+03;
  1.1346716E+00;  9.9999998E-03;  1.8022034E-01;8959;  1.5801851E+00;  0.0000000E+00; -5.4749336E-02;  9.9650482E+02;  1.0719343E-01; -2.8519998E+03;3; -1.8007074E+01;  0.0000000E+00;  8.3096867E+00;0;  1.6060057E+00;  3.4668250E+04;  0.0000000E+00; -1.8645557E+00;  4.0000000E+04;  0.0000000E+00;  3.9884891E+04;  1.7449192E+00;  0.0000000E+00; -1.3891348E-01;  3.3365840E+03;
  1.1346869E+00;  9.9999998E-03;  1.9022995E-01;8960;  1.5809659E+00;  0.0000000E+00; -5.7061359E-02;  9.9677631E+02;  1.0719027E-01; -2.6304998E+03;3; -1.6337320E+01;  0.0000000E+00;  8.7153931E+00;0;  1.4810457E+00;  3.4688117E+04;  0.0000000E+00; -3.1519630E+00;  4.0000000E+04;  0.0000000E+00;  3.9886324E+04;  1.5996641E+00;  0.0000000E+00; -1.1861838E-01;  4.3100122E+03;
  1.1347200E+00;  9.9999998E-03;  2.0024008E-01;8961;  1.5788733E+00;  0.0000000E+00; -5.9346125E-02;  9.9705127E+02;  1.0718608E-01; -2.4060737E+03;3; -1.4142599E+01;  0.0000000E+00;  9.1118717E+00;0;  1.3496226E+00;  3.4708398E+04;  0.0000000E+00; -4.8161669E+00;  4.0000000E+04;  0.0000000E+00;  3.9888094E+04;  1.4498899E+00;  0.0000000E+00; -1.0026725E-01;  5.8031646E+03;
  1.1347648E+00;  9.9999998E-03;  2.1025531E-01;8962;  1.5745130E+00;  0.0000000E+00; -6.1200026E-02;  9.9731262E+02;  1.0718122E-01; -2.1928313E+03;3; -1.1067152E+01;  0.0000000E+00;  9.9340897E+00;0;  1.2122128E+00;  3.4727969E+04;  0.0000000E+00; -6.8888860E+00;  4.0000000E+04;  0.0000000E+00;  3.9890316E+04;  1.2977937E+00;  0.0000000E+00; -8.5580982E-02;  7.8329492E+03;
  1.1347955E+00;  9.9999998E-03;  2.2027427E-01;8963;  1.5683116E+00;  0.0000000E+00; -6.2311981E-02;  9.9755237E+02;  1.0717659E-01; -1.9971567E+03;3; -7.1448154E+00;  0.0000000E+00;  1.0764447E+01;0;  1.0694580E+00;  3.4745801E+04;  0.0000000E+00; -9.3941860E+00;  4.0000000E+04;  0.0000000E+00;  3.9892652E+04;  1.1452810E+00;  0.0000000E+00; -7.5822987E-02;  1.0432128E+04;
  1.1347930E+00;  9.9999998E-03;  2.3029196E-01;8964;  1.5610654E+00;  0.0000000E+00; -6.2517434E-02;  9.9780225E+02;  1.0717251E-01; -1.7932791E+03;3; -2.1308014E+00;  0.0000000E+00;  1.1895778E+01;0;  9.2282438E-01;  3.4763172E+04;  0.0000000E+00; -1.2173390E+01;  4.0000000E+04;  0.0000000E+00;  3.9896090E+04;  9.9414170E-01;  0.0000000E+00; -7.1317330E-02;  1.3467268E+04;
  1.1450372E+00;  9.9999998E-03;  7.0054837E-02;9007;  1.5274123E+00;  0.0000000E+00; -2.4944110E-02;  9.9651831E+02;  1.0668024E-01; -2.8339482E+03;3; -6.5660927E+01;  0.0000000E+00; -3.4038228E-01;0;  2.4982502E+00;  3.5005598E+04;  0.0000000E+00;  1.3952000E-02;  4.0000000E+04;  0.0000000E+00;  3.9879637E+04;  2.7536039E+00;  0.0000000E+00; -2.5535378E-01;  2.5325803E+03;
  1.1451285E+00;  9.9999998E-03;  8.0067135E-02;9008;  1.5345237E+00;  0.0000000E+00; -2.8178288E-02;  9.9639648E+02;  1.0667666E-01; -2.9330454E+03;3; -6.2342392E+01;  0.0000000E+00; -1.3326587E-01;0;  2.4591928E+00;  3.5000984E+04;  0.0000000E+00; -8.4001962E-03;  4.0000000E+04;  0.0000000E+00;  3.9877875E+04;  2.7105951E+00;  0.0000000E+00; -2.5140250E-01;  2.3800754E+03;
  1.1452206E+00;  9.9999998E-03;  9.0083763E-02;9009;  1.5420176E+00;  0.0000000E+00; -3.1281516E-02;  9.9629718E+02;  1.0667370E-01; -3.0137988E+03;3; -5.8608437E+01;  0.0000000E+00;  1.3684553E-01;0;  2.4131570E+00;  3.4997328E+04;  0.0000000E+00; -3.6636364E-02;  4.0000000E+04;  0.0000000E+00;  3.9876469E+04;  2.6597505E+00;  0.0000000E+00; -2.4659353E-01;  2.2604990E+03;
  1.1453086E+00;  9.9999998E-03;  1.0010429E-01;9010;  1.5497507E+00;  0.0000000E+00; -3.4267500E-02;  9.9621588E+02;  1.0667016E-01; -3.0799011E+03;3; -5.4612446E+01;  0.0000000E+00;  4.1396078E-01;0;  2.3595378E+00;  3.4995000E+04;  0.0000000E+00; -6.6119544E-02;  4.0000000E+04;  0.0000000E+00;  3.9875625E+04;  2.6003768E+00;  0.0000000E+00; -2.4083911E-01;  2.1881460E+03;
  1.1453854E+00;  9.9999998E-03;  1.1012661E-01;9011;  1.5574954E+00;  0.0000000E+00; -3.7080877E-02;  9.9616486E+02;  1.0666703E-01; -3.1213655E+03;3; -5.0421036E+01;  0.0000000E+00;  8.4044713E-01;0;  2.2977083E+00;  3.4993902E+04;  0.0000000E+00; -9.1115877E-02;  4.0000000E+04;  0.0000000E+00;  3.9875293E+04;  2.5317268E+00;  0.0000000E+00; -2.3401846E-01;  2.1684077E+03;
  1.1454443E+00;  9.9999998E-03;  1.2014767E-01;9012;  1.5650065E+00;  0.0000000E+00; -3.9743874E-02;  9.9614368E+02;  1.0666406E-01; -3.1385388E+03;3; -4.5834660E+01;  0.0000000E+00;  1.1341186E+00;0;  2.2271008E+00;  3.4994387E+04;  0.0000000E+00; -1.0578340E-01;  4.0000000E+04;  0.0000000E+00;  3.9875641E+04;  2.4530277E+00;  0.0000000E+00; -2.2592697E-01;  2.1950076E+03;
  1.1454803E+00;  9.9999998E-03;  1.3016365E-01;9013;  1.5722104E+00;  0.0000000E+00; -4.2202454E-02;  9.9615045E+02;  1.0666156E-01; -3.1330278E+03;3; -4.1129482E+01;  0.0000000E+00;  1.7278116E+00;0;  2.1472685E+00;  3.4996402E+04;  0.0000000E+00; -1.0999244E-01;  4.0000000E+04;  0.0000000E+00;  3.9876188E+04;  2.3634965E+00;  0.0000000E+00; -2.1622796E-01;  2.2507651E+03;
  1.1454918E+00;  9.9999998E-03;  1.4017275E-01;9014;  1.5788395E+00;  0.0000000E+00; -4.4413913E-02;  9.9618799E+02;  1.0665983E-01; -3.1024570E+03;3; -3.6632812E+01;  0.0000000E+00;  2.5107172E+00;0;  2.0580444E+00;  3.4999914E+04;  0.0000000E+00; -1.4707205E-01;  4.0000000E+04;  0.0000000E+00;  3.9877023E+04;  2.2626374E+00;  0.0000000E+00; -2.0459302E-01;  2.3184600E+03;
  1.1454865E+00;  9.9999998E-03;  1.5017606E-01;9015;  1.5845740E+00;  0.0000000E+00; -4.6410181E-02;  9.9625348E+02;  1.0665809E-01; -3.0491489E+03;3; -3.2459026E+01;  0.0000000E+00;  3.2452843E+00;0;  1.9596380E+00;  3.5005219E+04;  0.0000000E+00; -3.1580725E-01;  4.0000000E+04;  0.0000000E+00;  3.9877781E+04;  2.1505644E+00;  0.0000000E+00; -1.9092639E-01;  2.4014766E+03;
  1.1454780E+00;  9.9999998E-03;  1.6017704E-01;9016;  1.5888408E+00;  0.0000000E+00; -4.8295848E-02;  9.9634637E+02;  1.0665652E-01; -2.9735767E+03;3; -2.8945839E+01;  0.0000000E+00;  3.8733406E+00;0;  1.8526801E+00;  3.5012508E+04;  0.0000000E+00; -7.2978586E-01;  4.0000000E+04;  0.0000000E+00;  3.9878688E+04;  2.0280726E+00;  0.0000000E+00; -1.7539255E-01;  2.5631218E+03;
  1.1454839E+00;  9.9999998E-03;  1.7017895E-01;9017;  1.5912935E+00;  0.0000000E+00; -5.0212130E-02;  9.9646594E+02;  1.0665454E-01; -2.8762610E+03;3; -2.6345087E+01;  0.0000000E+00;  4.2825694E+00;0;  1.7381182E+00;  3.5021480E+04;  0.0000000E+00; -1.4723059E+00;  4.0000000E+04;  0.0000000E+00;  3.9879965E+04;  1.8965446E+00;  0.0000000E+00; -1.5842637E-01;  2.9585422E+03;
  1.1455145E+00;  9.9999998E-03;  1.8018305E-01;9018;  1.5913857E+00;  0.0000000E+00; -5.2256059E-02;  9.9660742E+02;  1.0665154E-01; -2.7610759E+03;3; -2.4066986E+01;  0.0000000E+00;  4.5524044E+00;0;  1.6169931E+00;  3.5031668E+04;  0.0000000E+00; -2.5777957E+00;  4.0000000E+04;  0.0000000E+00;  3.9881992E+04;  1.7577636E+00;  0.0000000E+00; -1.4077060E-01;  3.7573691E+03;
  1.1455678E+00;  9.9999998E-03;  1.9019113E-01;9019;  1.5892491E+00;  0.0000000E+00; -5.4460686E-02;  9.9675275E+02;  1.0664772E-01; -2.6427727E+03;3; -2.1881485E+01;  0.0000000E+00;  4.9514799E+00;0;  1.4900154E+00;  3.5042113E+04;  0.0000000E+00; -4.0543084E+00;  4.0000000E+04;  0.0000000E+00;  3.9885125E+04;  1.6136072E+00;  0.0000000E+00; -1.2359181E-01;  5.0317905E+03;
  1.1456294E+00;  9.9999998E-03;  2.0020518E-01;9020;  1.5848548E+00;  0.0000000E+00; -5.6541532E-02;  9.9688904E+02;  1.0664303E-01; -2.5317917E+03;3; -1.8972101E+01;  0.0000000E+00;  5.5871553E+00;0;  1.3574070E+00;  3.5051098E+04;  0.0000000E+00; -5.9423723E+00;  4.0000000E+04;  0.0000000E+00;  3.9889750E+04;  1.4657363E+00;  0.0000000E+00; -1.0832926E-01;  6.8186392E+03;
  1.1456798E+00;  9.9999998E-03;  2.1022727E-01;9021;  1.5780988E+00;  0.0000000E+00; -5.7963625E-02;  9.9700256E+02;  1.0663843E-01; -2.4394001E+03;3; -1.5616995E+01;  0.0000000E+00;  6.4224997E+00;0;  1.2193184E+00;  3.5057695E+04;  0.0000000E+00; -8.3553038E+00;  4.0000000E+04;  0.0000000E+00;  3.9895340E+04;  1.3152627E+00;  0.0000000E+00; -9.5944226E-02;  9.2198408E+03;
  1.1456951E+00;  9.9999998E-03;  2.2025390E-01;9022;  1.5695175E+00;  0.0000000E+00; -5.8560468E-02;  9.9710181E+02;  1.0663421E-01; -2.3586255E+03;3; -1.0741114E+01;  0.0000000E+00;  7.4477100E+00;0;  1.0761267E+00;  3.5062539E+04;  0.0000000E+00; -1.1364882E+01;  4.0000000E+04;  0.0000000E+00;  3.9901418E+04;  1.1630063E+00;  0.0000000E+00; -8.6879566E-02;  1.2334669E+04;
  1.1456507E+00;  9.9999998E-03;  2.3028067E-01;9023;  1.5602456E+00;  0.0000000E+00; -5.7525706E-02;  9.9724823E+02;  1.0663146E-01; -2.2394688E+03;3; -4.2511969E+00;  0.0000000E+00;  8.4071102E+00;0;  9.3324387E-01;  3.5069262E+04;  0.0000000E+00; -1.4620609E+01;  4.0000000E+04;  0.0000000E+00;  3.9908105E+04;  1.0100796E+00;  0.0000000E+00; -7.6835737E-02;  1.5819883E+04;
  1.1557091E+00;  9.9999998E-03;  7.0076235E-02;9066;  1.5666558E+00;  0.0000000E+00; -2.3091154E-02;  9.9699115E+02;  1.0618352E-01; -2.4418003E+03;3; -6.3839451E+01;  0.0000000E+00; -1.4786201E+00;0;  2.5512376E+00;  3.5377105E+04;  0.0000000E+00; -2.1028873E-02;  4.0000000E+04;  0.0000000E+00;  3.9868215E+04;  2.7916095E+00;  0.0000000E+00; -2.4037206E-01;  1.7045018E+03;
  1.1557971E+00;  9.9999998E-03;  8.0092423E-02;9067;  1.5717521E+00;  0.0000000E+00; -2.6097488E-02;  9.9692902E+02;  1.0618026E-01; -2.4921860E+03;3; -6.0915905E+01;  0.0000000E+00; -1.4867672E+00;0;  2.5061257E+00;  3.5375199E+04;  0.0000000E+00; -4.8867609E-02;  4.0000000E+04;  0.0000000E+00;  3.9867809E+04;  2.7427669E+00;  0.0000000E+00; -2.3664127E-01;  1.6790294E+03;
  1.1558837E+00;  9.9999998E-03;  9.0111829E-02;9068;  1.5769795E+00;  0.0000000E+00; -2.8972728E-02;  9.9688171E+02;  1.0617755E-01; -2.5304778E+03;3; -5.7678577E+01;  0.0000000E+00; -1.3842685E+00;0;  2.4540627E+00;  3.5373895E+04;  0.0000000E+00; -8.1079848E-02;  4.0000000E+04;  0.0000000E+00;  3.9867824E+04;  2.6862679E+00;  0.0000000E+00; -2.3220514E-01;  1.6857727E+03;
  1.1559639E+00;  9.9999998E-03;  1.0013358E-01;9069;  1.5822327E+00;  0.0000000E+00; -3.1699747E-02;  9.9684253E+02;  1.0617431E-01; -2.5622427E+03;3; -5.4174843E+01;  0.0000000E+00; -1.2564949E+00;0;  2.3946495E+00;  3.5372988E+04;  0.0000000E+00; -1.1310142E-01;  4.0000000E+04;  0.0000000E+00;  3.9868191E+04;  2.6216562E+00;  0.0000000E+00; -2.2700658E-01;  1.7296361E+03;
  1.1560322E+00;  9.9999998E-03;  1.1015525E-01;9070;  1.5873934E+00;  0.0000000E+00; -3.4289725E-02;  9.9682159E+02;  1.0617180E-01; -2.5791667E+03;3; -5.0353764E+01;  0.0000000E+00; -1.1657392E+00;0;  2.3274899E+00;  3.5372723E+04;  0.0000000E+00; -1.3964841E-01;  4.0000000E+04;  0.0000000E+00;  3.9868910E+04;  2.5484288E+00;  0.0000000E+00; -2.2093901E-01;  1.8065735E+03;
  1.1560826E+00;  9.9999998E-03;  1.2017366E-01;9071;  1.5922617E+00;  0.0000000E+00; -3.6678001E-02;  9.9680542E+02;  1.0616905E-01; -2.5922349E+03;3; -4.6387260E+01;  0.0000000E+00; -9.0028548E-01;0;  2.2521884E+00;  3.5372820E+04;  0.0000000E+00; -1.5685591E-01;  4.0000000E+04;  0.0000000E+00;  3.9869902E+04;  2.4659948E+00;  0.0000000E+00; -2.1380635E-01;  1.9028872E+03;
  1.1561118E+00;  9.9999998E-03;  1.3018523E-01;9072;  1.5966030E+00;  0.0000000E+00; -3.8875453E-02;  9.9680402E+02;  1.0616738E-01; -2.5933728E+03;3; -4.2534233E+01;  0.0000000E+00; -5.0823486E-01;0;  2.1684928E+00;  3.5373406E+04;  0.0000000E+00; -1.8465899E-01;  4.0000000E+04;  0.0000000E+00;  3.9870945E+04;  2.3738239E+00;  0.0000000E+00; -2.0533113E-01;  2.0010497E+03;
  1.1561220E+00;  9.9999998E-03;  1.4018843E-01;9073;  1.6001661E+00;  0.0000000E+00; -4.0856987E-02;  9.9681104E+02;  1.0616587E-01; -2.5876577E+03;3; -3.8909733E+01;  0.0000000E+00; -9.5232323E-02;0;  2.0765047E+00;  3.5374637E+04;  0.0000000E+00; -3.0100405E-01;  4.0000000E+04;  0.0000000E+00;  3.9871805E+04;  2.2718225E+00;  0.0000000E+00; -1.9531776E-01;  2.0990828E+03;
  1.1561222E+00;  9.9999998E-03;  1.5018614E-01;9074;  1.6026683E+00;  0.0000000E+00; -4.2673990E-02;  9.9682233E+02;  1.0616429E-01; -2.5785164E+03;3; -3.5706230E+01;  0.0000000E+00;  2.9096404E-01;0;  1.9767056E+00;  3.5376383E+04;  0.0000000E+00; -6.1926204E-01;  4.0000000E+04;  0.0000000E+00;  3.9872648E+04;  2.1604459E+00;  0.0000000E+00; -1.8374044E-01;  2.2416760E+03;
  1.1561270E+00;  9.9999998E-03;  1.6018209E-01;9075;  1.6037860E+00;  0.0000000E+00; -4.4433866E-02;  9.9684570E+02;  1.0616264E-01; -2.5595051E+03;3; -3.2787258E+01;  0.0000000E+00;  5.9172171E-01;0;  1.8698801E+00;  3.5378707E+04;  0.0000000E+00; -1.2403938E+00;  4.0000000E+04;  0.0000000E+00;  3.9873578E+04;  2.0406113E+00;  0.0000000E+00; -1.7073119E-01;  2.5613918E+03;
  1.1561526E+00;  9.9999998E-03;  1.7017984E-01;9076;  1.6034817E+00;  0.0000000E+00; -4.6271380E-02;  9.9687604E+02;  1.0616022E-01; -2.5348672E+03;3; -3.0271042E+01;  0.0000000E+00;  8.1235349E-01;0;  1.7569884E+00;  3.5381492E+04;  0.0000000E+00; -2.2117410E+00;  4.0000000E+04;  0.0000000E+00;  3.9875156E+04;  1.9136144E+00;  0.0000000E+00; -1.5662597E-01;  3.2279893E+03;
  1.1562085E+00;  9.9999998E-03;  1.8018104E-01;9077;  1.6014675E+00;  0.0000000E+00; -4.8281629E-02;  9.9690631E+02;  1.0615709E-01; -2.5102554E+03;3; -2.7843296E+01;  0.0000000E+00;  1.0836173E+00;0;  1.6388519E+00;  3.5383922E+04;  0.0000000E+00; -3.5264940E+00;  4.0000000E+04;  0.0000000E+00;  3.9878113E+04;  1.7809174E+00;  0.0000000E+00; -1.4206558E-01;  4.3135757E+03;
  1.1562904E+00;  9.9999998E-03;  1.9018824E-01;9078;  1.5974414E+00;  0.0000000E+00; -5.0420254E-02;  9.9692511E+02;  1.0615265E-01; -2.4949590E+03;3; -2.5715719E+01;  0.0000000E+00;  1.3143817E+00;0;  1.5157187E+00;  3.5384457E+04;  0.0000000E+00; -5.1841040E+00;  4.0000000E+04;  0.0000000E+00;  3.9882820E+04;  1.6437961E+00;  0.0000000E+00; -1.2807733E-01;  5.8187363E+03;
  1.1563760E+00;  9.9999998E-03;  2.0020439E-01;9079;  1.5910760E+00;  0.0000000E+00; -5.2291755E-02;  9.9690948E+02;  1.0614813E-01; -2.5075652E+03;3; -2.3357565E+01;  0.0000000E+00;  1.8755906E+00;0;  1.3871665E+00;  3.5381180E+04;  0.0000000E+00; -7.2818451E+00;  4.0000000E+04;  0.0000000E+00;  3.9889465E+04;  1.5028919E+00;  0.0000000E+00; -1.1572538E-01;  7.8239795E+03;
  1.1564324E+00;  9.9999998E-03;  2.1022971E-01;9080;  1.5819470E+00;  0.0000000E+00; -5.3532731E-02;  9.9685608E+02;  1.0614341E-01; -2.5508538E+03;3; -2.0153364E+01;  0.0000000E+00;  2.8764811E+00;0;  1.2521635E+00;  3.5374062E+04;  0.0000000E+00; -1.0006913E+01;  4.0000000E+04;  0.0000000E+00;  3.9897500E+04;  1.3578086E+00;  0.0000000E+00; -1.0564505E-01;  1.0512391E+04;
  1.1564292E+00;  9.9999998E-03;  2.2026131E-01;9081;  1.5705581E+00;  0.0000000E+00; -5.3276073E-02;  9.9680316E+02;  1.0614035E-01; -2.5938008E+03;3; -1.4894290E+01;  0.0000000E+00;  4.2520218E+00;0;  1.1125075E+00;  3.5365832E+04;  0.0000000E+00; -1.3377990E+01;  4.0000000E+04;  0.0000000E+00;  3.9905777E+04;  1.2076778E+00;  0.0000000E+00; -9.5170334E-02;  1.3911625E+04;
  1.1563374E+00;  9.9999998E-03;  2.3029481E-01;9082;  1.5588286E+00;  0.0000000E+00; -5.1295612E-02;  9.9684381E+02;  1.0613864E-01; -2.5608899E+03;3; -5.8363819E+00;  0.0000000E+00;  4.8342161E+00;0;  9.7474241E-01;  3.5363703E+04;  0.0000000E+00; -1.6621695E+01;  4.0000000E+04;  0.0000000E+00;  3.9913457E+04;  1.0530586E+00;  0.0000000E+00; -7.8316227E-02;  1.7218512E+04;
  1.1662984E+00;  9.9999998E-03;  7.0107803E-02;9125;  1.6023747E+00;  0.0000000E+00; -2.0495750E-02;  9.9752008E+02;  1.0573126E-01; -2.0056658E+03;3; -6.0853973E+01;  0.0000000E+00; -2.4570837E+00;0;  2.5518868E+00;  3.5728645E+04;  0.0000000E+00; -5.8631167E-02;  4.0000000E+04;  0.0000000E+00;  3.9856117E+04;  2.7728789E+00;  0.0000000E+00; -2.2099212E-01;  8.8998126E+02;
  1.1663742E+00;  9.9999998E-03;  8.0129065E-02;9126;  1.6054178E+00;  0.0000000E+00; -2.3157543E-02;  9.9752203E+02;  1.0572915E-01; -2.0040221E+03;3; -5.8362000E+01;  0.0000000E+00; -2.6385183E+00;0;  2.5059235E+00;  3.5729520E+04;  0.0000000E+00; -8.9110605E-02;  4.0000000E+04;  0.0000000E+00;  3.9856910E+04;  2.7238953E+00;  0.0000000E+00; -2.1797183E-01;  9.7368304E+02;
  1.1664463E+00;  9.9999998E-03;  9.0152480E-02;9127;  1.6083919E+00;  0.0000000E+00; -2.5683800E-02;  9.9752832E+02;  1.0572647E-01; -1.9989104E+03;3; -5.5700283E+01;  0.0000000E+00; -2.7261908E+00;0;  2.4534106E+00;  3.5730570E+04;  0.0000000E+00; -1.2191673E-01;  4.0000000E+04;  0.0000000E+00;  3.9858090E+04;  2.6678269E+00;  0.0000000E+00; -2.1441627E-01;  1.0846748E+03;
  1.1665101E+00;  9.9999998E-03;  1.0017605E-01;9128;  1.6112212E+00;  0.0000000E+00; -2.8072394E-02;  9.9753369E+02;  1.0572413E-01; -1.9945275E+03;3; -5.2745720E+01;  0.0000000E+00; -2.8216593E+00;0;  2.3940778E+00;  3.5731523E+04;  0.0000000E+00; -1.5311521E-01;  4.0000000E+04;  0.0000000E+00;  3.9859504E+04;  2.6043527E+00;  0.0000000E+00; -2.1027504E-01;  1.2190004E+03;
  1.1665615E+00;  9.9999998E-03;  1.1019722E-01;9129;  1.6137960E+00;  0.0000000E+00; -3.0325163E-02;  9.9754071E+02;  1.0572212E-01; -1.9888040E+03;3; -4.9589211E+01;  0.0000000E+00; -2.8534012E+00;0;  2.3276234E+00;  3.5732258E+04;  0.0000000E+00; -1.7877328E-01;  4.0000000E+04;  0.0000000E+00;  3.9861113E+04;  2.5330508E+00;  0.0000000E+00; -2.0542729E-01;  1.3652378E+03;
  1.1665967E+00;  9.9999998E-03;  1.2021299E-01;9130;  1.6159972E+00;  0.0000000E+00; -3.2403182E-02;  9.9753876E+02;  1.0572006E-01; -1.9903702E+03;3; -4.6380741E+01;  0.0000000E+00; -2.7952538E+00;0;  2.2537572E+00;  3.5732551E+04;  0.0000000E+00; -2.0750454E-01;  4.0000000E+04;  0.0000000E+00;  3.9862578E+04;  2.4534361E+00;  0.0000000E+00; -1.9967884E-01;  1.5073756E+03;
  1.1666148E+00;  9.9999998E-03;  1.3022050E-01;9131;  1.6175617E+00;  0.0000000E+00; -3.4320533E-02;  9.9753302E+02;  1.0571858E-01; -1.9949850E+03;3; -4.3256058E+01;  0.0000000E+00; -2.6514466E+00;0;  2.1724057E+00;  3.5732379E+04;  0.0000000E+00; -2.9732355E-01;  4.0000000E+04;  0.0000000E+00;  3.9863879E+04;  2.3652651E+00;  0.0000000E+00; -1.9285931E-01;  1.6403866E+03;
  1.1666217E+00;  9.9999998E-03;  1.4022081E-01;9132;  1.6183722E+00;  0.0000000E+00; -3.6072407E-02;  9.9751575E+02;  1.0571729E-01; -2.0089583E+03;3; -4.0271381E+01;  0.0000000E+00; -2.5359042E+00;0;  2.0838757E+00;  3.5731664E+04;  0.0000000E+00; -5.5437946E-01;  4.0000000E+04;  0.0000000E+00;  3.9864852E+04;  2.2687652E+00;  0.0000000E+00; -1.8488947E-01;  1.7980106E+03;
  1.1666276E+00;  9.9999998E-03;  1.5021677E-01;9133;  1.6183565E+00;  0.0000000E+00; -3.7740987E-02;  9.9748547E+02;  1.0571612E-01; -2.0334399E+03;3; -3.7501869E+01;  0.0000000E+00; -2.4926851E+00;0;  1.9887967E+00;  3.5730277E+04;  0.0000000E+00; -1.0882812E+00;  4.0000000E+04;  0.0000000E+00;  3.9865734E+04;  2.1645627E+00;  0.0000000E+00; -1.7576601E-01;  2.0935491E+03;
  1.1666460E+00;  9.9999998E-03;  1.6021217E-01;9134;  1.6173731E+00;  0.0000000E+00; -3.9413802E-02;  9.9744739E+02;  1.0571413E-01; -2.0642268E+03;3; -3.4855202E+01;  0.0000000E+00; -2.4662778E+00;0;  1.8880280E+00;  3.5728363E+04;  0.0000000E+00; -1.9670576E+00;  4.0000000E+04;  0.0000000E+00;  3.9866840E+04;  2.0535831E+00;  0.0000000E+00; -1.6555516E-01;  2.6929260E+03;
  1.1666892E+00;  9.9999998E-03;  1.7021054E-01;9135;  1.6154331E+00;  0.0000000E+00; -4.1226290E-02;  9.9739691E+02;  1.0571153E-01; -2.1050208E+03;3; -3.2538998E+01;  0.0000000E+00; -2.5007048E+00;0;  1.7824402E+00;  3.5725465E+04;  0.0000000E+00; -3.1860378E+00;  4.0000000E+04;  0.0000000E+00;  3.9868777E+04;  1.9369243E+00;  0.0000000E+00; -1.5448412E-01;  3.6657720E+03;
  1.1667622E+00;  9.9999998E-03;  1.8021370E-01;9136;  1.6122224E+00;  0.0000000E+00; -4.3175254E-02;  9.9732556E+02;  1.0570765E-01; -2.1626604E+03;3; -3.0654013E+01;  0.0000000E+00; -2.5791731E+00;0;  1.6726539E+00;  3.5720410E+04;  0.0000000E+00; -4.6914806E+00;  4.0000000E+04;  0.0000000E+00;  3.9872227E+04;  1.8156881E+00;  0.0000000E+00; -1.4303426E-01;  4.9594019E+03;
  1.1668541E+00;  9.9999998E-03;  1.9022395E-01;9137;  1.6070844E+00;  0.0000000E+00; -4.5305744E-02;  9.9721594E+02;  1.0570367E-01; -2.2512246E+03;3; -2.9072081E+01;  0.0000000E+00; -2.4898405E+00;0;  1.5583069E+00;  3.5711184E+04;  0.0000000E+00; -6.4725051E+00;  4.0000000E+04;  0.0000000E+00;  3.9877703E+04;  1.6904508E+00;  0.0000000E+00; -1.3214387E-01;  6.5476865E+03;
  1.1668341E+00;  9.9999998E-03;  2.3033643E-01;9141;  1.5577129E+00;  0.0000000E+00; -4.4609774E-02;  9.9664081E+02;  1.0569227E-01; -2.7162947E+03;3; -7.0660448E+00;  0.0000000E+00;  4.1637492E-01;0;  1.0412490E+00;  3.5653023E+04;  0.0000000E+00; -1.7109138E+01;  4.0000000E+04;  0.0000000E+00;  3.9908910E+04;  1.1179579E+00;  0.0000000E+00; -7.6708958E-02;  1.6520961E+04;
  1.1669391E+00;  9.9999998E-03;  2.0024265E-01;9138;  1.5990313E+00;  0.0000000E+00; -4.7101445E-02;  9.9705286E+02;  1.0569940E-01; -2.3830198E+03;3; -2.7512697E+01;  0.0000000E+00; -1.9232030E+00;0;  1.4379911E+00;  3.5696723E+04;  0.0000000E+00; -8.6544809E+00;  4.0000000E+04;  0.0000000E+00;  3.9885078E+04;  1.5604882E+00;  0.0000000E+00; -1.2249703E-01;  8.5515850E+03;
  1.1669596E+00;  9.9999998E-03;  2.2029966E-01;9140;  1.5721298E+00;  0.0000000E+00; -4.7180548E-02;  9.9667145E+02;  1.0569310E-01; -2.6914028E+03;3; -2.0266752E+01;  0.0000000E+00;  9.7126836E-01;0;  1.1743224E+00;  3.5659688E+04;  0.0000000E+00; -1.4653186E+01;  4.0000000E+04;  0.0000000E+00;  3.9902770E+04;  1.2752349E+00;  0.0000000E+00; -1.0091255E-01;  1.4253292E+04;
  1.1669855E+00;  9.9999998E-03;  2.1026866E-01;9139;  1.5871258E+00;  0.0000000E+00; -4.8103426E-02;  9.9685046E+02;  1.0569555E-01; -2.5466018E+03;3; -2.5145334E+01;  0.0000000E+00; -5.6544375E-01;0;  1.3092452E+00;  3.5677793E+04;  0.0000000E+00; -1.1433909E+01;  4.0000000E+04;  0.0000000E+00;  3.9893770E+04;  1.4231339E+00;  0.0000000E+00; -1.1388860E-01;  1.1171291E+04;
  1.1768075E+00;  9.9999998E-03;  7.0145771E-02;9183;  1.6341525E+00;  0.0000000E+00; -1.7237250E-02;  9.9809650E+02;  1.0532337E-01; -1.5334135E+03;3; -5.6996517E+01;  0.0000000E+00; -3.2549686E+00;0;  2.5084846E+00;  3.6058523E+04;  0.0000000E+00; -9.3646675E-02;  4.0000000E+04;  0.0000000E+00;  3.9843195E+04;  2.7065125E+00;  0.0000000E+00; -1.9802779E-01;  1.5396938E+02;
  1.1768680E+00;  9.9999998E-03;  8.0172233E-02;9184;  1.6353794E+00;  0.0000000E+00; -1.9467300E-02;  9.9814471E+02;  1.0532121E-01; -1.4945796E+03;3; -5.4995289E+01;  0.0000000E+00; -3.5549114E+00;0;  2.4664247E+00;  3.6061746E+04;  0.0000000E+00; -1.2352742E-01;  4.0000000E+04;  0.0000000E+00;  3.9845031E+04;  2.6625819E+00;  0.0000000E+00; -1.9615711E-01;  3.0420251E+02;
  1.1769216E+00;  9.9999998E-03;  9.0198994E-02;9185;  1.6363804E+00;  0.0000000E+00; -2.1592449E-02;  9.9819153E+02;  1.0531932E-01; -1.4568079E+03;3; -5.2847569E+01;  0.0000000E+00; -3.8338935E+00;0;  2.4184589E+00;  3.6064680E+04;  0.0000000E+00; -1.5336695E-01;  4.0000000E+04;  0.0000000E+00;  3.9847180E+04;  2.6123877E+00;  0.0000000E+00; -1.9392882E-01;  4.7928906E+02;
  1.1769651E+00;  9.9999998E-03;  1.0022376E-01;9186;  1.6371017E+00;  0.0000000E+00; -2.3606801E-02;  9.9823413E+02;  1.0531750E-01; -1.4224526E+03;3; -5.0500080E+01;  0.0000000E+00; -4.0678000E+00;0;  2.3643110E+00;  3.6067043E+04;  0.0000000E+00; -1.8026106E-01;  4.0000000E+04;  0.0000000E+00;  3.9849371E+04;  2.5555849E+00;  0.0000000E+00; -1.9127403E-01;  6.6438818E+02;
  1.1769961E+00;  9.9999998E-03;  1.1024389E-01;9187;  1.6374403E+00;  0.0000000E+00; -2.5495445E-02;  9.9826050E+02;  1.0531595E-01; -1.4012130E+03;3; -4.8032372E+01;  0.0000000E+00; -4.2336583E+00;0;  2.3036735E+00;  3.6068543E+04;  0.0000000E+00; -2.0913069E-01;  4.0000000E+04;  0.0000000E+00;  3.9851410E+04;  2.4917185E+00;  0.0000000E+00; -1.8804505E-01;  8.4496985E+02;
  1.1770135E+00;  9.9999998E-03;  1.2025660E-01;9188;  1.6373444E+00;  0.0000000E+00; -2.7253820E-02;  9.9826770E+02;  1.0531422E-01; -1.3953937E+03;3; -4.5445095E+01;  0.0000000E+00; -4.3887200E+00;0;  2.2363629E+00;  3.6068965E+04;  0.0000000E+00; -2.8484339E-01;  4.0000000E+04;  0.0000000E+00;  3.9853219E+04;  2.4204605E+00;  0.0000000E+00; -1.8409765E-01;  1.0168624E+03;
  1.1770201E+00;  9.9999998E-03;  1.3026182E-01;9189;  1.6366831E+00;  0.0000000E+00; -2.8922355E-02;  9.9825702E+02;  1.0531331E-01; -1.4039843E+03;3; -4.2863064E+01;  0.0000000E+00; -4.5189261E+00;0;  2.1624773E+00;  3.6067930E+04;  0.0000000E+00; -5.0102657E-01;  4.0000000E+04;  0.0000000E+00;  3.9854582E+04;  2.3418496E+00;  0.0000000E+00; -1.7937234E-01;  1.2101752E+03;
  1.1770242E+00;  9.9999998E-03;  1.4026172E-01;9190;  1.6355833E+00;  0.0000000E+00; -3.0503757E-02;  9.9821472E+02;  1.0531215E-01; -1.4380707E+03;3; -4.0284592E+01;  0.0000000E+00; -4.6558385E+00;0;  2.0824409E+00;  3.6065426E+04;  0.0000000E+00; -9.7160709E-01;  4.0000000E+04;  0.0000000E+00;  3.9855684E+04;  2.2562876E+00;  0.0000000E+00; -1.7384660E-01;  1.5301018E+03;
  1.1770366E+00;  9.9999998E-03;  1.5025894E-01;9191;  1.6341040E+00;  0.0000000E+00; -3.2051712E-02;  9.9814960E+02;  1.0531085E-01; -1.4905410E+03;3; -3.7741371E+01;  0.0000000E+00; -4.8892856E+00;0;  1.9969833E+00;  3.6061496E+04;  0.0000000E+00; -1.7803078E+00;  4.0000000E+04;  0.0000000E+00;  3.9856699E+04;  2.1644700E+00;  0.0000000E+00; -1.6748667E-01;  2.1298542E+03;
  1.1770667E+00;  9.9999998E-03;  1.6025738E-01;9192;  1.6320449E+00;  0.0000000E+00; -3.3651777E-02;  9.9806018E+02;  1.0530879E-01; -1.5625403E+03;3; -3.5392475E+01;  0.0000000E+00; -5.0930514E+00;0;  1.9069989E+00;  3.6055773E+04;  0.0000000E+00; -2.9411404E+00;  4.0000000E+04;  0.0000000E+00;  3.9858023E+04;  2.0672669E+00;  0.0000000E+00; -1.6026802E-01;  3.0716575E+03;
  1.1771204E+00;  9.9999998E-03;  1.7026025E-01;9193;  1.6295900E+00;  0.0000000E+00; -3.5417959E-02;  9.9794238E+02;  1.0530579E-01; -1.6573754E+03;3; -3.3539074E+01;  0.0000000E+00; -5.3486552E+00;0;  1.8133867E+00;  3.6047664E+04;  0.0000000E+00; -4.3842716E+00;  4.0000000E+04;  0.0000000E+00;  3.9860398E+04;  1.9656768E+00;  0.0000000E+00; -1.5229008E-01;  4.2778652E+03;
  1.1771971E+00;  9.9999998E-03;  1.8026988E-01;9194;  1.6255845E+00;  0.0000000E+00; -3.7397046E-02;  9.9778320E+02;  1.0530285E-01; -1.7855564E+03;3; -3.2095490E+01;  0.0000000E+00; -5.6257820E+00;0;  1.7163490E+00;  3.6035793E+04;  0.0000000E+00; -6.0052342E+00;  4.0000000E+04;  0.0000000E+00;  3.9863973E+04;  1.8602767E+00;  0.0000000E+00; -1.4392765E-01;  5.6271860E+03;
  1.1772860E+00;  9.9999998E-03;  1.9028568E-01;9195;  1.6196866E+00;  0.0000000E+00; -3.9510697E-02;  9.9755621E+02;  1.0529859E-01; -1.9683044E+03;3; -3.1531311E+01;  0.0000000E+00; -5.6665864E+00;0;  1.6151069E+00;  3.6018324E+04;  0.0000000E+00; -7.7814970E+00;  4.0000000E+04;  0.0000000E+00;  3.9869273E+04;  1.7510126E+00;  0.0000000E+00; -1.3590559E-01;  7.0994473E+03;
  1.1773584E+00;  9.9999998E-03;  2.0030716E-01;9196;  1.6098006E+00;  0.0000000E+00; -4.1285098E-02;  9.9726770E+02;  1.0529541E-01; -2.2005959E+03;3; -3.0882479E+01;  0.0000000E+00; -5.2129040E+00;0;  1.5065217E+00;  3.5994715E+04;  0.0000000E+00; -9.8314857E+00;  4.0000000E+04;  0.0000000E+00;  3.9876098E+04;  1.6350894E+00;  0.0000000E+00; -1.2856770E-01;  8.8236641E+03;
  1.1771728E+00;  9.9999998E-03;  2.3039438E-01;9199;  1.5578592E+00;  0.0000000E+00; -3.7913766E-02;  9.9670282E+02;  1.0528975E-01; -2.6557966E+03;3; -1.0273932E+01;  0.0000000E+00; -4.0846353E+00;0;  1.1252681E+00;  3.5941461E+04;  0.0000000E+00; -1.5176279E+01;  4.0000000E+04;  0.0000000E+00;  3.9896586E+04;  1.1978875E+00;  0.0000000E+00; -7.2619483E-02;  1.3221145E+04;
  1.1773818E+00;  9.9999998E-03;  2.1033105E-01;9197;  1.5950650E+00;  0.0000000E+00; -4.2081073E-02;  9.9695673E+02;  1.0529254E-01; -2.4510681E+03;3; -3.0054167E+01;  0.0000000E+00; -4.1987972E+00;0;  1.3867171E+00;  3.5967773E+04;  0.0000000E+00; -1.2235831E+01;  4.0000000E+04;  0.0000000E+00;  3.9884422E+04;  1.5072262E+00;  0.0000000E+00; -1.2050913E-01;  1.0908154E+04;
  1.1773243E+00;  9.9999998E-03;  2.2035767E-01;9198;  1.5756376E+00;  0.0000000E+00; -4.0682007E-02;  9.9673407E+02;  1.0529081E-01; -2.6304302E+03;3; -2.6085836E+01;  0.0000000E+00; -2.2566967E+00;0;  1.2562996E+00;  3.5945766E+04;  0.0000000E+00; -1.4501720E+01;  4.0000000E+04;  0.0000000E+00;  3.9893105E+04;  1.3602536E+00;  0.0000000E+00; -1.0395391E-01;  1.2884552E+04;
  1.1872464E+00;  9.9999998E-03;  7.0185341E-02;9240;  1.6622210E+00;  0.0000000E+00; -1.3554390E-02;  9.9866577E+02;  1.0495604E-01; -1.0700105E+03;3; -5.2499752E+01;  0.0000000E+00; -3.7846024E+00;0;  2.4303229E+00;  3.6364414E+04;  0.0000000E+00; -1.2000969E-01;  4.0000000E+04;  0.0000000E+00;  3.9829855E+04;  2.6025822E+00;  0.0000000E+00; -1.7225941E-01;  5.8357196E+02;
  1.1872904E+00;  9.9999998E-03;  8.0215693E-02;9241;  1.6620042E+00;  0.0000000E+00; -1.5343272E-02;  9.9874255E+02;  1.0495412E-01; -1.0083752E+03;3; -5.0919163E+01;  0.0000000E+00; -4.2706428E+00;0;  2.3958607E+00;  3.6368879E+04;  0.0000000E+00; -1.4639574E-01;  4.0000000E+04;  0.0000000E+00;  3.9832387E+04;  2.5677416E+00;  0.0000000E+00; -1.7188090E-01;  4.0147501E+02;
  1.1873261E+00;  9.9999998E-03;  9.0244077E-02;9242;  1.6615592E+00;  0.0000000E+00; -1.7077399E-02;  9.9881305E+02;  1.0495257E-01; -9.5186060E+02;3; -4.9193172E+01;  0.0000000E+00; -4.6884012E+00;0;  2.3561895E+00;  3.6372891E+04;  0.0000000E+00; -1.7080463E-01;  4.0000000E+04;  0.0000000E+00;  3.9835070E+04;  2.5275068E+00;  0.0000000E+00; -1.7131735E-01;  2.3874040E+02;
  1.1873510E+00;  9.9999998E-03;  1.0026839E-01;9243;  1.6608099E+00;  0.0000000E+00; -1.8733382E-02;  9.9887268E+02;  1.0495173E-01; -9.0400372E+02;3; -4.7318962E+01;  0.0000000E+00; -5.0339017E+00;0;  2.3109400E+00;  3.6375895E+04;  0.0000000E+00; -1.9840029E-01;  4.0000000E+04;  0.0000000E+00;  3.9837547E+04;  2.4814126E+00;  0.0000000E+00; -1.7047258E-01;  1.9839038E+02;
  1.1873657E+00;  9.9999998E-03;  1.3030216E-01;9246;  1.6565738E+00;  0.0000000E+00; -2.3277231E-02;  9.9889014E+02;  1.0494867E-01; -8.8999286E+02;3; -4.1029583E+01;  0.0000000E+00; -5.9827371E+00;0;  2.1400180E+00;  3.6375535E+04;  0.0000000E+00; -8.7881047E-01;  4.0000000E+04;  0.0000000E+00;  3.9842902E+04;  2.3053207E+00;  0.0000000E+00; -1.6530278E-01;  9.5311493E+02;
  1.1873699E+00;  9.9999998E-03;  1.4030427E-01;9247;  1.6547754E+00;  0.0000000E+00; -2.4734220E-02;  9.9882843E+02;  1.0494760E-01; -9.3950946E+02;3; -3.8850861E+01;  0.0000000E+00; -6.3061471E+00;0;  2.0720685E+00;  3.6371375E+04;  0.0000000E+00; -1.6291488E+00;  4.0000000E+04;  0.0000000E+00;  3.9844113E+04;  2.2346489E+00;  0.0000000E+00; -1.6258049E-01;  1.5965765E+03;
  1.1873637E+00;  9.9999998E-03;  1.1028628E-01;9244;  1.6597072E+00;  0.0000000E+00; -2.0315157E-02;  9.9891199E+02;  1.0495090E-01; -8.7249969E+02;3; -4.5315876E+01;  0.0000000E+00; -5.3676085E+00;0;  2.2598348E+00;  3.6377617E+04;  0.0000000E+00; -2.6674235E-01;  4.0000000E+04;  0.0000000E+00;  3.9839848E+04;  2.4290614E+00;  0.0000000E+00; -1.6922656E-01;  3.3687354E+02;
  1.1873665E+00;  9.9999998E-03;  1.2029690E-01;9245;  1.6582665E+00;  0.0000000E+00; -2.1817114E-02;  9.9891565E+02;  1.0494960E-01; -8.6953510E+02;3; -4.3180355E+01;  0.0000000E+00; -5.6798458E+00;0;  2.2027860E+00;  3.6377543E+04;  0.0000000E+00; -4.5723581E-01;  4.0000000E+04;  0.0000000E+00;  3.9841637E+04;  2.3702953E+00;  0.0000000E+00; -1.6750927E-01;  5.6985608E+02;
  1.1873889E+00;  9.9999998E-03;  1.5030561E-01;9248;  1.6528001E+00;  0.0000000E+00; -2.6152655E-02;  9.9873425E+02;  1.0494605E-01; -1.0150207E+03;3; -3.6792206E+01;  0.0000000E+00; -6.7226167E+00;0;  1.9998044E+00;  3.6365031E+04;  0.0000000E+00; -2.7436147E+00;  4.0000000E+04;  0.0000000E+00;  3.9845328E+04;  2.1590440E+00;  0.0000000E+00; -1.5923963E-01;  2.5425776E+03;
  1.1874310E+00;  9.9999998E-03;  1.6030867E-01;9249;  1.6507257E+00;  0.0000000E+00; -2.7734328E-02;  9.9860480E+02;  1.0494389E-01; -1.1188142E+03;3; -3.5003212E+01;  0.0000000E+00; -6.9972839E+00;0;  1.9242971E+00;  3.6356180E+04;  0.0000000E+00; -4.1645737E+00;  4.0000000E+04;  0.0000000E+00;  3.9846984E+04;  2.0794771E+00;  0.0000000E+00; -1.5517999E-01;  3.7264766E+03;
  1.1874971E+00;  9.9999998E-03;  1.7031705E-01;9250;  1.6476709E+00;  0.0000000E+00; -2.9443882E-02;  9.9842828E+02;  1.0494125E-01; -1.2603000E+03;3; -3.3820679E+01;  0.0000000E+00; -7.5148115E+00;0;  1.8463566E+00;  3.6343543E+04;  0.0000000E+00; -5.7557311E+00;  4.0000000E+04;  0.0000000E+00;  3.9849641E+04;  1.9967022E+00;  0.0000000E+00; -1.5034550E-01;  5.0069556E+03;
  1.1875815E+00;  9.9999998E-03;  1.8033178E-01;9251;  1.6434746E+00;  0.0000000E+00; -3.1440858E-02;  9.9818646E+02;  1.0493830E-01; -1.4541462E+03;3; -3.3180927E+01;  0.0000000E+00; -7.8262863E+00;0;  1.7661226E+00;  3.6325527E+04;  0.0000000E+00; -7.3824482E+00;  4.0000000E+04;  0.0000000E+00;  3.9853562E+04;  1.9111722E+00;  0.0000000E+00; -1.4504953E-01;  6.2562427E+03;
  1.1874514E+00;  9.9999998E-03;  2.3045635E-01;9256;  1.5609099E+00;  0.0000000E+00; -3.1131258E-02;  9.9697552E+02;  1.0492800E-01; -2.4252534E+03;3; -2.0037199E+01;  0.0000000E+00; -6.9796662E+00;0;  1.2221253E+00;  3.6222887E+04;  0.0000000E+00; -1.1486959E+01;  4.0000000E+04;  0.0000000E+00;  3.9880805E+04;  1.2868180E+00;  0.0000000E+00; -6.4692758E-02;  8.6140215E+03;
  1.1876649E+00;  9.9999998E-03;  1.9035172E-01;9252;  1.6361690E+00;  0.0000000E+00; -3.3430692E-02;  9.9786694E+02;  1.0493488E-01; -1.7102972E+03;3; -3.3510002E+01;  0.0000000E+00; -7.9754300E+00;0;  1.6815675E+00;  3.6300648E+04;  0.0000000E+00; -9.0207882E+00;  4.0000000E+04;  0.0000000E+00;  3.9858621E+04;  1.8211396E+00;  0.0000000E+00; -1.3957202E-01;  7.4671060E+03;
  1.1876086E+00;  9.9999998E-03;  2.2041914E-01;9255;  1.5825517E+00;  0.0000000E+00; -3.3663195E-02;  9.9695172E+02;  1.0492852E-01; -2.4441924E+03;3; -3.1657427E+01;  0.0000000E+00; -5.6507959E+00;0;  1.3546646E+00;  3.6220785E+04;  0.0000000E+00; -1.2872841E+01;  4.0000000E+04;  0.0000000E+00;  3.9880812E+04;  1.4567679E+00;  0.0000000E+00; -1.0210335E-01;  1.0186346E+04;
  1.1877164E+00;  9.9999998E-03;  2.0037375E-01;9253;  1.6240654E+00;  0.0000000E+00; -3.5031110E-02;  9.9748199E+02;  1.0493191E-01; -2.0188832E+03;3; -3.3842281E+01;  0.0000000E+00; -7.8146448E+00;0;  1.5878875E+00;  3.6270168E+04;  0.0000000E+00; -1.0724521E+01;  4.0000000E+04;  0.0000000E+00;  3.9864953E+04;  1.7215787E+00;  0.0000000E+00; -1.3369118E-01;  8.7213623E+03;
  1.1877055E+00;  9.9999998E-03;  2.1039496E-01;9254;  1.6060817E+00;  0.0000000E+00; -3.5505183E-02;  9.9713104E+02;  1.0492952E-01; -2.3002817E+03;3; -3.3955708E+01;  0.0000000E+00; -6.8726821E+00;0;  1.4791114E+00;  3.6239730E+04;  0.0000000E+00; -1.2313334E+01;  4.0000000E+04;  0.0000000E+00;  3.9872938E+04;  1.6036949E+00;  0.0000000E+00; -1.2458348E-01;  9.9015381E+03;
  1.1976305E+00;  9.9999998E-03;  7.0220165E-02;9297;  1.6875377E+00;  0.0000000E+00; -9.9892244E-03;  9.9919562E+02;  1.0462737E-01; -6.4173792E+02;3; -4.7117798E+01;  0.0000000E+00; -4.1396832E+00;0;  2.3265305E+00;  3.6643977E+04;  0.0000000E+00; -1.3312303E-01;  4.0000000E+04;  0.0000000E+00;  3.9816461E+04;  2.4708774E+00;  0.0000000E+00; -1.4434698E-01;  1.1462329E+03;
  1.1976616E+00;  9.9999998E-03;  8.0252141E-02;9298;  1.6867377E+00;  0.0000000E+00; -1.1365011E-02;  9.9927734E+02;  1.0462612E-01; -5.7653210E+02;3; -4.5944725E+01;  0.0000000E+00; -4.6547341E+00;0;  2.3018427E+00;  3.6648629E+04;  0.0000000E+00; -1.5479168E-01;  4.0000000E+04;  0.0000000E+00;  3.9819105E+04;  2.4475124E+00;  0.0000000E+00; -1.4566967E-01;  9.5574414E+02;
  1.1976839E+00;  9.9999998E-03;  9.0280466E-02;9299;  1.6857924E+00;  0.0000000E+00; -1.2718087E-02;  9.9935510E+02;  1.0462525E-01; -5.1451691E+02;3; -4.4609337E+01;  0.0000000E+00; -5.1616249E+00;0;  2.2726123E+00;  3.6652527E+04;  0.0000000E+00; -1.8337902E-01;  4.0000000E+04;  0.0000000E+00;  3.9821660E+04;  2.4195967E+00;  0.0000000E+00; -1.4698425E-01;  7.7035315E+02;
  1.1976953E+00;  9.9999998E-03;  1.0030313E-01;9300;  1.6846474E+00;  0.0000000E+00; -1.4055148E-02;  9.9941034E+02;  1.0462444E-01; -4.7043301E+02;3; -4.3135929E+01;  0.0000000E+00; -5.6031690E+00;0;  2.2384026E+00;  3.6655285E+04;  0.0000000E+00; -2.5192657E-01;  4.0000000E+04;  0.0000000E+00;  3.9824137E+04;  2.3866241E+00;  0.0000000E+00; -1.4822158E-01;  6.1569043E+02;
  1.1976975E+00;  9.9999998E-03;  1.1031894E-01;9301;  1.6832988E+00;  0.0000000E+00; -1.5384452E-02;  9.9943677E+02;  1.0462359E-01; -4.4931934E+02;3; -4.1544117E+01;  0.0000000E+00; -6.0204453E+00;0;  2.1989627E+00;  3.6656297E+04;  0.0000000E+00; -4.3145955E-01;  4.0000000E+04;  0.0000000E+00;  3.9826125E+04;  2.3482804E+00;  0.0000000E+00; -1.4931776E-01;  5.6440875E+02;
  1.1976953E+00;  9.9999998E-03;  1.2032942E-01;9302;  1.6817718E+00;  0.0000000E+00; -1.6695494E-02;  9.9942981E+02;  1.0462268E-01; -4.5488348E+02;3; -3.9844090E+01;  0.0000000E+00; -6.4003196E+00;0;  2.1543112E+00;  3.6655312E+04;  0.0000000E+00; -8.2104397E-01;  4.0000000E+04;  0.0000000E+00;  3.9827754E+04;  2.3045411E+00;  0.0000000E+00; -1.5022987E-01;  7.7032202E+02;
  1.1976963E+00;  9.9999998E-03;  1.3033637E-01;9303;  1.6801386E+00;  0.0000000E+00; -1.8014694E-02;  9.9938641E+02;  1.0462218E-01; -4.8950113E+02;3; -3.8146278E+01;  0.0000000E+00; -6.7903452E+00;0;  2.1048114E+00;  3.6652020E+04;  0.0000000E+00; -1.5205840E+00;  4.0000000E+04;  0.0000000E+00;  3.9829004E+04;  2.2557366E+00;  0.0000000E+00; -1.5092511E-01;  1.3181152E+03;
  1.1977091E+00;  9.9999998E-03;  1.4034173E-01;9304;  1.6784533E+00;  0.0000000E+00; -1.9377677E-02;  9.9930865E+02;  1.0462150E-01; -5.5155286E+02;3; -3.6531181E+01;  0.0000000E+00; -7.1826930E+00;0;  2.0511971E+00;  3.6646426E+04;  0.0000000E+00; -2.5867236E+00;  4.0000000E+04;  0.0000000E+00;  3.9830195E+04;  2.2025299E+00;  0.0000000E+00; -1.5133290E-01;  2.1900562E+03;
  1.1977417E+00;  9.9999998E-03;  1.5034761E-01;9305;  1.6767379E+00;  0.0000000E+00; -2.0785887E-02;  9.9918622E+02;  1.0461936E-01; -6.4921283E+02;3; -3.5062206E+01;  0.0000000E+00; -7.6810770E+00;0;  1.9945949E+00;  3.6638102E+04;  0.0000000E+00; -3.9885259E+00;  4.0000000E+04;  0.0000000E+00;  3.9831691E+04;  2.1458890E+00;  0.0000000E+00; -1.5129416E-01;  3.3177087E+03;
  1.1977993E+00;  9.9999998E-03;  1.6035654E-01;9306;  1.6744307E+00;  0.0000000E+00; -2.2310063E-02;  9.9902545E+02;  1.0461769E-01; -7.7743372E+02;3; -3.4044098E+01;  0.0000000E+00; -8.0980291E+00;0;  1.9361917E+00;  3.6626086E+04;  0.0000000E+00; -5.5945153E+00;  4.0000000E+04;  0.0000000E+00;  3.9833840E+04;  2.0868025E+00;  0.0000000E+00; -1.5061076E-01;  4.5629126E+03;
  1.1978778E+00;  9.9999998E-03;  1.7037062E-01;9307;  1.6714340E+00;  0.0000000E+00; -2.4126459E-02;  9.9878912E+02;  1.0461441E-01; -9.6592688E+02;3; -3.3464008E+01;  0.0000000E+00; -8.5755768E+00;0;  1.8769412E+00;  3.6608930E+04;  0.0000000E+00; -7.2247348E+00;  4.0000000E+04;  0.0000000E+00;  3.9836996E+04;  2.0261965E+00;  0.0000000E+00; -1.4925528E-01;  5.7566895E+03;
  1.1979629E+00;  9.9999998E-03;  1.8039024E-01;9308;  1.6661649E+00;  0.0000000E+00; -2.5989141E-02;  9.9847369E+02;  1.0461146E-01; -1.2174926E+03;3; -3.3815029E+01;  0.0000000E+00; -8.8484564E+00;0;  1.8162998E+00;  3.6584938E+04;  0.0000000E+00; -8.7467136E+00;  4.0000000E+04;  0.0000000E+00;  3.9841051E+04;  1.9634255E+00;  0.0000000E+00; -1.4712569E-01;  6.7862710E+03;
  1.1977437E+00;  9.9999998E-03;  2.3051785E-01;9313;  1.5746202E+00;  0.0000000E+00; -2.5864083E-02;  9.9730542E+02;  1.0460353E-01; -2.1496804E+03;3; -3.6362129E+01;  0.0000000E+00; -6.6204391E+00;0;  1.3336782E+00;  3.6486695E+04;  0.0000000E+00; -7.6639957E+00;  4.0000000E+04;  0.0000000E+00;  3.9863152E+04;  1.3986647E+00;  0.0000000E+00; -6.4986423E-02;  4.6613472E+03;
  1.1980301E+00;  9.9999998E-03;  1.9041306E-01;9309;  1.6570594E+00;  0.0000000E+00; -2.7787982E-02;  9.9807410E+02;  1.0460869E-01; -1.5361810E+03;3; -3.5289276E+01;  0.0000000E+00; -9.3569565E+00;0;  1.7509537E+00;  3.6553836E+04;  0.0000000E+00; -1.0125757E+01;  4.0000000E+04;  0.0000000E+00;  3.9846074E+04;  1.8951129E+00;  0.0000000E+00; -1.4415918E-01;  7.6415479E+03;
  1.1978707E+00;  9.9999998E-03;  2.2048172E-01;9312;  1.5965732E+00;  0.0000000E+00; -2.7385065E-02;  9.9725739E+02;  1.0460440E-01; -2.1878101E+03;3; -3.8247925E+01;  0.0000000E+00; -7.0828986E+00;0;  1.4631609E+00;  3.6480625E+04;  0.0000000E+00; -1.0141284E+01;  4.0000000E+04;  0.0000000E+00;  3.9865934E+04;  1.5645421E+00;  0.0000000E+00; -1.0138120E-01;  6.8344048E+03;
  1.1980492E+00;  9.9999998E-03;  2.0043546E-01;9310;  1.6423957E+00;  0.0000000E+00; -2.9071309E-02;  9.9765692E+02;  1.0460696E-01; -1.8689193E+03;3; -3.6797863E+01;  0.0000000E+00; -9.0184450E+00;0;  1.6740911E+00;  3.6519723E+04;  0.0000000E+00; -1.1257616E+01;  4.0000000E+04;  0.0000000E+00;  3.9852422E+04;  1.8133055E+00;  0.0000000E+00; -1.3921441E-01;  8.2698975E+03;
  1.1979945E+00;  9.9999998E-03;  2.1045606E-01;9311;  1.6215409E+00;  0.0000000E+00; -2.9013578E-02;  9.9734515E+02;  1.0460532E-01; -2.1176797E+03;3; -3.8257000E+01;  0.0000000E+00; -8.5721149E+00;0;  1.5788858E+00;  3.6491609E+04;  0.0000000E+00; -1.1563876E+01;  4.0000000E+04;  0.0000000E+00;  3.9860098E+04;  1.7062310E+00;  0.0000000E+00; -1.2734523E-01;  8.2332803E+03;
  1.2079779E+00;  9.9999998E-03;  7.0245236E-02;9353;  1.7118878E+00;  0.0000000E+00; -7.0122038E-03;  9.9965265E+02;  1.0433472E-01; -2.7550891E+02;3; -4.0816536E+01;  0.0000000E+00; -4.4055409E+00;0;  2.2052958E+00;  3.6895703E+04;  0.0000000E+00; -1.3586035E-01;  4.0000000E+04;  0.0000000E+00;  3.9802875E+04;  2.3201084E+00;  0.0000000E+00; -1.1481250E-01;  1.5746597E+03;
  1.2080010E+00;  9.9999998E-03;  8.0277219E-02;9354;  1.7115146E+00;  0.0000000E+00; -8.0757886E-03;  9.9972125E+02;  1.0433410E-01; -2.2109419E+02;3; -3.9853806E+01;  0.0000000E+00; -4.9908199E+00;0;  2.1910510E+00;  3.6899445E+04;  0.0000000E+00; -1.7062797E-01;  4.0000000E+04;  0.0000000E+00;  3.9805207E+04;  2.3089781E+00;  0.0000000E+00; -1.1792709E-01;  1.4227288E+03;
  1.2080153E+00;  9.9999998E-03;  9.0304196E-02;9355;  1.7110329E+00;  0.0000000E+00; -9.1671152E-03;  9.9977936E+02;  1.0433363E-01; -1.7500182E+02;3; -3.8771412E+01;  0.0000000E+00; -5.5233192E+00;0;  2.1729171E+00;  3.6902359E+04;  0.0000000E+00; -2.4940720E-01;  4.0000000E+04;  0.0000000E+00;  3.9807230E+04;  2.2941926E+00;  0.0000000E+00; -1.2127544E-01;  1.2846964E+03;
  1.2080216E+00;  9.9999998E-03;  1.0032498E-01;9356;  1.7104211E+00;  0.0000000E+00; -1.0275719E-02;  9.9980811E+02;  1.0433270E-01; -1.5216875E+02;3; -3.7612881E+01;  0.0000000E+00; -5.9928575E+00;0;  2.1504016E+00;  3.6903777E+04;  0.0000000E+00; -4.3320224E-01;  4.0000000E+04;  0.0000000E+00;  3.9809039E+04;  2.2752452E+00;  0.0000000E+00; -1.2484369E-01;  1.1892185E+03;
  1.2080226E+00;  9.9999998E-03;  1.1034048E-01;9357;  1.7096912E+00;  0.0000000E+00; -1.1421360E-02;  9.9981256E+02;  1.0433219E-01; -1.4867052E+02;3; -3.6386482E+01;  0.0000000E+00; -6.5439324E+00;0;  2.1232939E+00;  3.6903551E+04;  0.0000000E+00; -8.0986708E-01;  4.0000000E+04;  0.0000000E+00;  3.9810555E+04;  2.2518950E+00;  0.0000000E+00; -1.2860116E-01;  1.2133188E+03;
  1.2080250E+00;  9.9999998E-03;  1.2035246E-01;9358;  1.7087718E+00;  0.0000000E+00; -1.2586444E-02;  9.9978522E+02;  1.0433151E-01; -1.7032088E+02;3; -3.5143559E+01;  0.0000000E+00; -6.9463630E+00;0;  2.0917385E+00;  3.6901227E+04;  0.0000000E+00; -1.4737078E+00;  4.0000000E+04;  0.0000000E+00;  3.9811801E+04;  2.2242339E+00;  0.0000000E+00; -1.3249531E-01;  1.5004983E+03;
  1.2080361E+00;  9.9999998E-03;  1.3036238E-01;9359;  1.7078784E+00;  0.0000000E+00; -1.3852599E-02;  9.9972174E+02;  1.0433103E-01; -2.2066400E+02;3; -3.3930260E+01;  0.0000000E+00; -7.4251881E+00;0;  2.0563433E+00;  3.6896648E+04;  0.0000000E+00; -2.4911923E+00;  4.0000000E+04;  0.0000000E+00;  3.9812949E+04;  2.1928008E+00;  0.0000000E+00; -1.3645746E-01;  2.1482373E+03;
  1.2080646E+00;  9.9999998E-03;  1.4037217E-01;9360;  1.7068907E+00;  0.0000000E+00; -1.5167252E-02;  9.9962164E+02;  1.0432944E-01; -3.0007510E+02;3; -3.2951881E+01;  0.0000000E+00; -7.8968339E+00;0;  2.0181534E+00;  3.6889324E+04;  0.0000000E+00; -3.8577549E+00;  4.0000000E+04;  0.0000000E+00;  3.9814305E+04;  2.1585116E+00;  0.0000000E+00; -1.4035822E-01;  3.1163887E+03;
  1.2081158E+00;  9.9999998E-03;  1.5038386E-01;9361;  1.7056025E+00;  0.0000000E+00; -1.6599491E-02;  9.9947168E+02;  1.0432761E-01; -4.1899536E+02;3; -3.2269943E+01;  0.0000000E+00; -8.3980350E+00;0;  1.9785901E+00;  3.6878703E+04;  0.0000000E+00; -5.4712906E+00;  4.0000000E+04;  0.0000000E+00;  3.9816168E+04;  2.1226051E+00;  0.0000000E+00; -1.4401492E-01;  4.2702524E+03;
  1.2081892E+00;  9.9999998E-03;  1.6039886E-01;9362;  1.7038186E+00;  0.0000000E+00; -1.8316224E-02;  9.9926477E+02;  1.0432535E-01; -5.8304095E+02;3; -3.1976900E+01;  0.0000000E+00; -8.8900738E+00;0;  1.9391363E+00;  3.6863074E+04;  0.0000000E+00; -7.1492238E+00;  4.0000000E+04;  0.0000000E+00;  3.9818863E+04;  2.0864418E+00;  0.0000000E+00; -1.4730553E-01;  5.4270454E+03;
  1.2082741E+00;  9.9999998E-03;  1.7041855E-01;9363;  1.7004926E+00;  0.0000000E+00; -2.0114951E-02;  9.9897528E+02;  1.0432311E-01; -8.1257550E+02;3; -3.2512070E+01;  0.0000000E+00; -9.3081560E+00;0;  1.9005263E+00;  3.6840828E+04;  0.0000000E+00; -8.7103786E+00;  4.0000000E+04;  0.0000000E+00;  3.9822523E+04;  2.0505111E+00;  0.0000000E+00; -1.4998487E-01;  6.4250103E+03;
  1.2083498E+00;  9.9999998E-03;  1.8044224E-01;9364;  1.6941128E+00;  0.0000000E+00; -2.1926457E-02;  9.9859338E+02;  1.0432047E-01; -1.1153489E+03;3; -3.4086464E+01;  0.0000000E+00; -9.2940540E+00;0;  1.8611799E+00;  3.6810910E+04;  0.0000000E+00; -1.0045917E+01;  4.0000000E+04;  0.0000000E+00;  3.9827031E+04;  2.0130327E+00;  0.0000000E+00; -1.5185277E-01;  7.1791914E+03;
  1.2083904E+00;  9.9999998E-03;  1.9046709E-01;9365;  1.6832225E+00;  0.0000000E+00; -2.3444138E-02;  9.9815503E+02;  1.0431880E-01; -1.4628811E+03;3; -3.6769596E+01;  0.0000000E+00; -9.5711708E+00;0;  1.8165685E+00;  3.6775742E+04;  0.0000000E+00; -1.1061972E+01;  4.0000000E+04;  0.0000000E+00;  3.9832488E+04;  1.9685688E+00;  0.0000000E+00; -1.5200029E-01;  7.6329844E+03;
  1.2083689E+00;  9.9999998E-03;  2.0049071E-01;9366;  1.6665705E+00;  0.0000000E+00; -2.4369936E-02;  9.9775592E+02;  1.0431704E-01; -1.7793668E+03;3; -3.9475227E+01;  0.0000000E+00; -8.9443083E+00;0;  1.7581396E+00;  3.6742309E+04;  0.0000000E+00; -1.1380294E+01;  4.0000000E+04;  0.0000000E+00;  3.9838910E+04;  1.9066571E+00;  0.0000000E+00; -1.4851744E-01;  7.5134482E+03;
  1.2082804E+00;  9.9999998E-03;  2.1051475E-01;9367;  1.6457212E+00;  0.0000000E+00; -2.4485322E-02;  9.9753583E+02;  1.0431591E-01; -1.9540115E+03;3; -4.2451279E+01;  0.0000000E+00; -8.2948761E+00;0;  1.6802133E+00;  3.6720973E+04;  0.0000000E+00; -1.0255469E+01;  4.0000000E+04;  0.0000000E+00;  3.9845387E+04;  1.8180445E+00;  0.0000000E+00; -1.3783118E-01;  6.2978906E+03;
  1.2081679E+00;  9.9999998E-03;  2.2054608E-01;9368;  1.6257745E+00;  0.0000000E+00; -2.4696151E-02;  9.9748370E+02;  1.0431536E-01; -1.9954584E+03;3; -4.5209213E+01;  0.0000000E+00; -6.9729004E+00;0;  1.5838274E+00;  3.6715613E+04;  0.0000000E+00; -7.7978539E+00;  4.0000000E+04;  0.0000000E+00;  3.9847062E+04;  1.7058737E+00;  0.0000000E+00; -1.2204634E-01;  4.2222061E+03;
  1.2081065E+00;  9.9999998E-03;  2.3058024E-01;9369;  1.6077422E+00;  0.0000000E+00; -2.5534185E-02;  9.9740552E+02;  1.0431399E-01; -2.0575510E+03;3; -4.7778748E+01;  0.0000000E+00; -5.7375073E+00;0;  1.4642684E+00;  3.6714816E+04;  0.0000000E+00; -6.4301667E+00;  4.0000000E+04;  0.0000000E+00;  3.9841996E+04;  1.5707929E+00;  0.0000000E+00; -1.0652450E-01;  3.0893921E+03;
  1.2183053E+00;  9.9999998E-03;  7.0259929E-02;9408;  1.7361044E+00;  0.0000000E+00; -4.6559302E-03;  1.0000201E+03;  1.0407539E-01;  1.5870831E+01;3; -3.3733875E+01;  0.0000000E+00; -4.9009142E+00;0;  2.0739086E+00;  3.7119703E+04;  0.0000000E+00; -1.7208625E-01;  4.0000000E+04;  0.0000000E+00;  3.9789301E+04;  2.1580255E+00;  0.0000000E+00; -8.4116973E-02;  1.8624783E+03;
  1.2183250E+00;  9.9999998E-03;  8.0290027E-02;9409;  1.7365052E+00;  0.0000000E+00; -5.4032779E-03;  1.0000562E+03;  1.0407528E-01;  4.4231113E+01;3; -3.2928135E+01;  0.0000000E+00; -5.6662030E+00;0;  2.0695920E+00;  3.7121695E+04;  0.0000000E+00; -2.7147785E-01;  4.0000000E+04;  0.0000000E+00;  3.9790684E+04;  2.1586556E+00;  0.0000000E+00; -8.9063615E-02;  1.7784285E+03;
  1.2183377E+00;  9.9999998E-03;  9.0314694E-02;9410;  1.7368937E+00;  0.0000000E+00; -6.2254453E-03;  1.0000767E+03;  1.0407477E-01;  6.0382919E+01;3; -3.2042431E+01;  0.0000000E+00; -6.3367014E+00;0;  2.0620017E+00;  3.7122668E+04;  0.0000000E+00; -4.7424710E-01;  4.0000000E+04;  0.0000000E+00;  3.9791934E+04;  2.1565661E+00;  0.0000000E+00; -9.4564371E-02;  1.7214274E+03;
  1.2183459E+00;  9.9999998E-03;  1.0033435E-01;9411;  1.7372772E+00;  0.0000000E+00; -7.1107945E-03;  1.0000718E+03;  1.0407434E-01;  5.6626270E+01;3; -3.1157528E+01;  0.0000000E+00; -6.9644752E+00;0;  2.0506036E+00;  3.7122160E+04;  0.0000000E+00; -8.5654056E-01;  4.0000000E+04;  0.0000000E+00;  3.9792832E+04;  2.1512566E+00;  0.0000000E+00; -1.0065288E-01;  1.7351659E+03;
  1.2183529E+00;  9.9999998E-03;  1.1035094E-01;9412;  1.7376134E+00;  0.0000000E+00; -8.0487225E-03;  1.0000444E+03;  1.0407386E-01;  3.4933449E+01;3; -3.0284319E+01;  0.0000000E+00; -7.5063419E+00;0;  2.0352881E+00;  3.7120070E+04;  0.0000000E+00; -1.5031698E+00;  4.0000000E+04;  0.0000000E+00;  3.9793688E+04;  2.1425986E+00;  0.0000000E+00; -1.0731051E-01;  1.9121707E+03;
  1.2183670E+00;  9.9999998E-03;  1.2036561E-01;9413;  1.7379800E+00;  0.0000000E+00; -9.1164038E-03;  9.9998755E+02;  1.0407323E-01; -9.8131971E+00;3; -2.9457247E+01;  0.0000000E+00; -8.0572844E+00;0;  2.0164435E+00;  3.7116082E+04;  0.0000000E+00; -2.4806783E+00;  4.0000000E+04;  0.0000000E+00;  3.9794414E+04;  2.1309025E+00;  0.0000000E+00; -1.1445893E-01;  2.3654888E+03;
  1.2183949E+00;  9.9999998E-03;  1.3038005E-01;9414;  1.7383546E+00;  0.0000000E+00; -1.0237859E-02;  9.9989813E+02;  1.0407217E-01; -8.0241280E+01;3; -2.8841974E+01;  0.0000000E+00; -8.5803165E+00;0;  1.9950683E+00;  3.7109824E+04;  0.0000000E+00; -3.8021529E+00;  4.0000000E+04;  0.0000000E+00;  3.9795477E+04;  2.1170344E+00;  0.0000000E+00; -1.2196617E-01;  3.1327568E+03;
  1.2184443E+00;  9.9999998E-03;  1.4039557E-01;9415;  1.7384913E+00;  0.0000000E+00; -1.1466159E-02;  9.9977057E+02;  1.0407093E-01; -1.8071269E+02;3; -2.8587273E+01;  0.0000000E+00; -9.1133862E+00;0;  1.9726557E+00;  3.7100430E+04;  0.0000000E+00; -5.3955579E+00;  4.0000000E+04;  0.0000000E+00;  3.9796930E+04;  2.1023033E+00;  0.0000000E+00; -1.2964766E-01;  4.1331572E+03;
  1.2185137E+00;  9.9999998E-03;  1.5041353E-01;9416;  1.7381711E+00;  0.0000000E+00; -1.3058799E-02;  9.9958325E+02;  1.0406873E-01; -3.2826239E+02;3; -2.8623043E+01;  0.0000000E+00; -9.7848530E+00;0;  1.9510006E+00;  3.7086398E+04;  0.0000000E+00; -7.1059737E+00;  4.0000000E+04;  0.0000000E+00;  3.9799195E+04;  2.0884149E+00;  0.0000000E+00; -1.3741432E-01;  5.2092480E+03;
  1.2185965E+00;  9.9999998E-03;  1.6043495E-01;9417;  1.7367743E+00;  0.0000000E+00; -1.4887766E-02;  9.9932520E+02;  1.0406713E-01; -5.3147064E+02;3; -2.9399031E+01;  0.0000000E+00; -1.0253871E+01;0;  1.9316950E+00;  3.7066176E+04;  0.0000000E+00; -8.7438831E+00;  4.0000000E+04;  0.0000000E+00;  3.9802520E+04;  2.0768037E+00;  0.0000000E+00; -1.4510868E-01;  6.1893931E+03;
  1.2186779E+00;  9.9999998E-03;  1.7045993E-01;9418;  1.7331040E+00;  0.0000000E+00; -1.6827159E-02;  9.9896857E+02;  1.0406485E-01; -8.1234650E+02;3; -3.1200714E+01;  0.0000000E+00; -1.0837898E+01;0;  1.9148397E+00;  3.7038008E+04;  0.0000000E+00; -1.0166248E+01;  4.0000000E+04;  0.0000000E+00;  3.9806711E+04;  2.0673444E+00;  0.0000000E+00; -1.5250467E-01;  6.9559116E+03;
  1.2187330E+00;  9.9999998E-03;  1.8048778E-01;9419;  1.7256880E+00;  0.0000000E+00; -1.8800437E-02;  9.9853357E+02;  1.0406262E-01; -1.1548910E+03;3; -3.3828186E+01;  0.0000000E+00; -1.0637136E+01;0;  1.8973018E+00;  3.7003422E+04;  0.0000000E+00; -1.1269155E+01;  4.0000000E+04;  0.0000000E+00;  3.9811836E+04;  2.0567141E+00;  0.0000000E+00; -1.5941226E-01;  7.4359297E+03;
  1.2187387E+00;  9.9999998E-03;  1.9051552E-01;9420;  1.7134348E+00;  0.0000000E+00; -2.0518329E-02;  9.9809686E+02;  1.0406119E-01; -1.4987750E+03;3; -3.7573174E+01;  0.0000000E+00; -1.0396144E+01;0;  1.8727200E+00;  3.6967156E+04;  0.0000000E+00; -1.1812875E+01;  4.0000000E+04;  0.0000000E+00;  3.9817672E+04;  2.0375035E+00;  0.0000000E+00; -1.6478343E-01;  7.4627607E+03;
  1.2186813E+00;  9.9999998E-03;  2.0054449E-01;9421;  1.6970695E+00;  0.0000000E+00; -2.1837911E-02;  9.9777466E+02;  1.0406069E-01; -1.7526080E+03;3; -4.1713333E+01;  0.0000000E+00; -9.5513163E+00;0;  1.8342589E+00;  3.6938910E+04;  0.0000000E+00; -1.1218299E+01;  4.0000000E+04;  0.0000000E+00;  3.9823254E+04;  2.0012991E+00;  0.0000000E+00; -1.6704026E-01;  6.6209541E+03;
  1.2185857E+00;  9.9999998E-03;  2.1057947E-01;9422;  1.6810482E+00;  0.0000000E+00; -2.3274213E-02;  9.9759772E+02;  1.0405959E-01; -1.8921080E+03;3; -4.6536774E+01;  0.0000000E+00; -8.8886003E+00;0;  1.7830834E+00;  3.6924832E+04;  0.0000000E+00; -9.2570524E+00;  4.0000000E+04;  0.0000000E+00;  3.9824777E+04;  1.9503758E+00;  0.0000000E+00; -1.6729230E-01;  4.7937935E+03;
  1.2185185E+00;  9.9999998E-03;  2.2061856E-01;9423;  1.6675647E+00;  0.0000000E+00; -2.5668178E-02;  9.9742084E+02;  1.0405872E-01; -2.0314923E+03;3; -5.1328400E+01;  0.0000000E+00; -7.6886129E+00;0;  1.7156986E+00;  3.6916941E+04;  0.0000000E+00; -7.6345978E+00;  4.0000000E+04;  0.0000000E+00;  3.9819191E+04;  1.8886170E+00;  0.0000000E+00; -1.7291844E-01;  3.3549209E+03;
  1.2185249E+00;  9.9999998E-03;  2.3064637E-01;9424;  1.6488796E+00;  0.0000000E+00; -2.7895529E-02;  9.9712671E+02;  1.0405697E-01; -2.2631709E+03;3; -5.6431709E+01;  0.0000000E+00; -6.1841574E+00;0;  1.5996006E+00;  3.6900496E+04;  0.0000000E+00; -8.7610292E+00;  4.0000000E+04;  0.0000000E+00;  3.9814480E+04;  1.7792704E+00;  0.0000000E+00; -1.7966984E-01;  4.3936543E+03;
  1.2286214E+00;  9.9999998E-03;  7.0262276E-02;9462;  1.7587147E+00;  0.0000000E+00; -1.9752819E-03;  1.0002997E+03;  1.0384734E-01;  2.3428114E+02;3; -2.6266436E+01;  0.0000000E+00; -6.7764592E+00;0;  1.9393699E+00;  3.7316977E+04;  0.0000000E+00; -3.3392158E-01;  4.0000000E+04;  0.0000000E+00;  3.9775656E+04;  1.9921377E+00;  0.0000000E+00; -5.2767757E-02;  2.0190337E+03;
  1.2286408E+00;  9.9999998E-03;  8.0289058E-02;9463;  1.7601892E+00;  0.0000000E+00; -2.4717229E-03;  1.0002864E+03;  1.0384659E-01;  2.2384032E+02;3; -2.5606375E+01;  0.0000000E+00; -7.3275185E+00;0;  1.9435765E+00;  3.7316574E+04;  0.0000000E+00; -5.6834841E-01;  4.0000000E+04;  0.0000000E+00;  3.9775801E+04;  2.0031075E+00;  0.0000000E+00; -5.9531055E-02;  2.0256019E+03;
  1.2286558E+00;  9.9999998E-03;  9.0311788E-02;9464;  1.7618508E+00;  0.0000000E+00; -3.0481778E-03;  1.0002622E+03;  1.0384625E-01;  2.0501367E+02;3; -2.4924417E+01;  0.0000000E+00; -7.8717036E+00;0;  1.9450438E+00;  3.7315090E+04;  0.0000000E+00; -9.7205621E-01;  4.0000000E+04;  0.0000000E+00;  3.9775875E+04;  2.0122612E+00;  0.0000000E+00; -6.7217387E-02;  2.0861460E+03;
  1.2286701E+00;  9.9999998E-03;  1.0033196E-01;9465;  1.7636232E+00;  0.0000000E+00; -3.6691220E-03;  1.0002204E+03;  1.0384639E-01;  1.7230272E+02;3; -2.4339384E+01;  0.0000000E+00; -8.4043922E+00;0;  1.9433007E+00;  3.7312465E+04;  0.0000000E+00; -1.6196089E+00;  4.0000000E+04;  0.0000000E+00;  3.9775844E+04;  2.0191960E+00;  0.0000000E+00; -7.5895354E-02;  2.2611311E+03;
  1.2286896E+00;  9.9999998E-03;  1.1035078E-01;9466;  1.7654825E+00;  0.0000000E+00; -4.4489633E-03;  1.0001582E+03;  1.0384630E-01;  1.2365720E+02;3; -2.3780252E+01;  0.0000000E+00; -9.0017433E+00;0;  1.9384469E+00;  3.7308328E+04;  0.0000000E+00; -2.5728750E+00;  4.0000000E+04;  0.0000000E+00;  3.9776012E+04;  2.0239911E+00;  0.0000000E+00; -8.5544281E-02;  2.6340835E+03;
  1.2287221E+00;  9.9999998E-03;  1.2036962E-01;9467;  1.7674595E+00;  0.0000000E+00; -5.3812535E-03;  1.0000624E+03;  1.0384486E-01;  4.8827953E+01;3; -2.3412718E+01;  0.0000000E+00; -9.5807877E+00;0;  1.9312934E+00;  3.7302336E+04;  0.0000000E+00; -3.8519511E+00;  4.0000000E+04;  0.0000000E+00;  3.9776391E+04;  2.0273426E+00;  0.0000000E+00; -9.6049182E-02;  3.2594172E+03;
  1.2287724E+00;  9.9999998E-03;  1.3038942E-01;9468;  1.7693784E+00;  0.0000000E+00; -6.4315815E-03;  9.9994122E+02;  1.0384399E-01; -4.5937435E+01;3; -2.3399004E+01;  0.0000000E+00; -1.0095323E+01;0;  1.9233811E+00;  3.7293672E+04;  0.0000000E+00; -5.4081330E+00;  4.0000000E+04;  0.0000000E+00;  3.9777199E+04;  2.0306027E+00;  0.0000000E+00; -1.0722158E-01;  4.1083354E+03;
  1.2288417E+00;  9.9999998E-03;  1.4041097E-01;9469;  1.7708703E+00;  0.0000000E+00; -7.6487856E-03;  9.9977063E+02;  1.0384283E-01; -1.7926726E+02;3; -2.3983068E+01;  0.0000000E+00; -1.0548025E+01;0;  1.9167708E+00;  3.7280770E+04;  0.0000000E+00; -7.1168766E+00;  4.0000000E+04;  0.0000000E+00;  3.9778992E+04;  2.0356069E+00;  0.0000000E+00; -1.1883601E-01;  5.0710142E+03;
  1.2289217E+00;  9.9999998E-03;  1.5043554E-01;9470;  1.7713976E+00;  0.0000000E+00; -9.2100669E-03;  9.9952716E+02;  1.0384075E-01; -3.6955206E+02;3; -2.5219885E+01;  0.0000000E+00; -1.1464556E+01;0;  1.9135358E+00;  3.7262039E+04;  0.0000000E+00; -8.8075008E+00;  4.0000000E+04;  0.0000000E+00;  3.9781852E+04;  2.0442986E+00;  0.0000000E+00; -1.3076277E-01;  6.0019824E+03;
  1.2290022E+00;  9.9999998E-03;  1.6046368E-01;9471;  1.7702097E+00;  0.0000000E+00; -1.1088139E-02;  9.9920123E+02;  1.0383897E-01; -6.2423401E+02;3; -2.7205694E+01;  0.0000000E+00; -1.2130324E+01;0;  1.9149773E+00;  3.7235953E+04;  0.0000000E+00; -1.0325624E+01;  4.0000000E+04;  0.0000000E+00;  3.9785715E+04;  2.0578840E+00;  0.0000000E+00; -1.4290673E-01;  6.7773105E+03;
  1.2290659E+00;  9.9999998E-03;  1.7049578E-01;9472;  1.7660848E+00;  0.0000000E+00; -1.3229242E-02;  9.9878857E+02;  1.0383740E-01; -9.4666718E+02;3; -3.0211790E+01;  0.0000000E+00; -1.2330000E+01;0;  1.9199153E+00;  3.7202578E+04;  0.0000000E+00; -1.1569211E+01;  4.0000000E+04;  0.0000000E+00;  3.9790352E+04;  2.0751746E+00;  0.0000000E+00; -1.5525928E-01;  7.3246904E+03;
  1.2290907E+00;  9.9999998E-03;  1.8052949E-01;9473;  1.7579650E+00;  0.0000000E+00; -1.5393929E-02;  9.9833441E+02;  1.0383559E-01; -1.3015719E+03;3; -3.4337914E+01;  0.0000000E+00; -1.2367031E+01;0;  1.9241725E+00;  3.7165820E+04;  0.0000000E+00; -1.2376574E+01;  4.0000000E+04;  0.0000000E+00;  3.9795574E+04;  2.0915260E+00;  0.0000000E+00; -1.6735348E-01;  7.5360391E+03;
  1.2290609E+00;  9.9999998E-03;  1.9056483E-01;9474;  1.7460377E+00;  0.0000000E+00; -1.7461468E-02;  9.9794379E+02;  1.0383468E-01; -1.6068815E+03;3; -3.9074192E+01;  0.0000000E+00; -1.1678161E+01;0;  1.9218603E+00;  3.7133242E+04;  0.0000000E+00; -1.2350430E+01;  4.0000000E+04;  0.0000000E+00;  3.9800379E+04;  2.1004479E+00;  0.0000000E+00; -1.7858754E-01;  7.1387681E+03;
  1.2289857E+00;  9.9999998E-03;  2.0060574E-01;9475;  1.7333438E+00;  0.0000000E+00; -1.9560868E-02;  9.9768243E+02;  1.0383445E-01; -1.8111924E+03;3; -4.4392673E+01;  0.0000000E+00; -1.1004708E+01;0;  1.9131322E+00;  3.7112766E+04;  0.0000000E+00; -1.1135416E+01;  4.0000000E+04;  0.0000000E+00;  3.9801473E+04;  2.1020896E+00;  0.0000000E+00; -1.8895741E-01;  5.9040371E+03;
  1.2289126E+00;  9.9999998E-03;  2.1065280E-01;9476;  1.7228431E+00;  0.0000000E+00; -2.2709331E-02;  9.9744611E+02;  1.0383313E-01; -1.9960055E+03;3; -5.0770618E+01;  0.0000000E+00; -1.0398973E+01;0;  1.8969468E+00;  3.7101562E+04;  0.0000000E+00; -9.5937614E+00;  4.0000000E+04;  0.0000000E+00;  3.9794816E+04;  2.1023874E+00;  0.0000000E+00; -2.0544061E-01;  4.5549048E+03;
  1.2288922E+00;  9.9999998E-03;  2.2069271E-01;9477;  1.7109770E+00;  0.0000000E+00; -2.6599634E-02;  9.9711414E+02;  1.0383202E-01; -2.2555181E+03;3; -5.7091736E+01;  0.0000000E+00; -9.5352154E+00;0;  1.8517919E+00;  3.7086742E+04;  0.0000000E+00; -9.7895212E+00;  4.0000000E+04;  0.0000000E+00;  3.9784355E+04;  2.0833526E+00;  0.0000000E+00; -2.3156075E-01;  4.8298789E+03;
  1.2289633E+00;  9.9999998E-03;  2.3070806E-01;9478;  1.6857953E+00;  0.0000000E+00; -2.8822670E-02;  9.9655011E+02;  1.0383016E-01; -2.6962014E+03;3; -6.3396740E+01;  0.0000000E+00; -6.8226247E+00;0;  1.7179588E+00;  3.7045562E+04;  0.0000000E+00; -1.3419068E+01;  4.0000000E+04;  0.0000000E+00;  3.9785852E+04;  1.9657227E+00;  0.0000000E+00; -2.4776389E-01;  7.9280293E+03;
  1.2389259E+00;  9.9999998E-03;  7.0251599E-02;9515;  1.7789011E+00;  0.0000000E+00;  1.2623211E-03;  1.0004935E+03;  1.0364658E-01;  3.8245566E+02;3; -1.8869349E+01;  0.0000000E+00; -7.9135098E+00;0;  1.8082693E+00;  3.7489609E+04;  0.0000000E+00; -7.2645587E-01;  4.0000000E+04;  0.0000000E+00;  3.9761641E+04;  1.8295143E+00;  0.0000000E+00; -2.1245059E-02;  2.0802681E+03;
  1.2389474E+00;  9.9999998E-03;  8.0275223E-02;9516;  1.7817473E+00;  0.0000000E+00;  9.0443349E-04;  1.0004373E+03;  1.0364675E-01;  3.3884549E+02;3; -1.8329353E+01;  0.0000000E+00; -8.2608957E+00;0;  1.8189856E+00;  3.7486688E+04;  0.0000000E+00; -1.1696438E+00;  4.0000000E+04;  0.0000000E+00;  3.9760711E+04;  1.8487048E+00;  0.0000000E+00; -2.9719280E-02;  2.2067173E+03;
  1.2389696E+00;  9.9999998E-03;  9.0296954E-02;9517;  1.7849108E+00;  0.0000000E+00;  5.1763206E-04;  1.0003682E+03;  1.0364679E-01;  2.8535245E+02;3; -1.7886187E+01;  0.0000000E+00; -8.6154613E+00;0;  1.8274941E+00;  3.7482969E+04;  0.0000000E+00; -1.8367938E+00;  4.0000000E+04;  0.0000000E+00;  3.9759582E+04;  1.8669856E+00;  0.0000000E+00; -3.9491370E-02;  2.4269487E+03;
  1.2389970E+00;  9.9999998E-03;  1.0031831E-01;9518;  1.7882714E+00;  0.0000000E+00;  6.4801723E-05;  1.0002872E+03;  1.0364692E-01;  2.2253059E+02;3; -1.7556356E+01;  0.0000000E+00; -9.0034370E+00;0;  1.8335158E+00;  3.7478113E+04;  0.0000000E+00; -2.7825167E+00;  4.0000000E+04;  0.0000000E+00;  3.9758711E+04;  1.8841815E+00;  0.0000000E+00; -5.0665714E-02;  2.7967734E+03;
  1.2390364E+00;  9.9999998E-03;  1.1034033E-01;9519;  1.7917255E+00;  0.0000000E+00; -4.7913240E-04;  1.0001776E+03;  1.0364562E-01;  1.3763338E+02;3; -1.7457823E+01;  0.0000000E+00; -9.4692240E+00;0;  1.8375047E+00;  3.7471680E+04;  0.0000000E+00; -4.0291901E+00;  4.0000000E+04;  0.0000000E+00;  3.9758250E+04;  1.9007093E+00;  0.0000000E+00; -6.3204527E-02;  3.3578535E+03;
  1.2390909E+00;  9.9999998E-03;  1.2036397E-01;9520;  1.7952156E+00;  0.0000000E+00; -1.2489954E-03;  1.0000430E+03;  1.0364434E-01;  3.3344433E+01;3; -1.7637003E+01;  0.0000000E+00; -1.0185658E+01;0;  1.8408186E+00;  3.7462871E+04;  0.0000000E+00; -5.5438943E+00;  4.0000000E+04;  0.0000000E+00;  3.9758355E+04;  1.9177961E+00;  0.0000000E+00; -7.6977521E-02;  4.1024194E+03;
  1.2391604E+00;  9.9999998E-03;  1.3038926E-01;9521;  1.7984669E+00;  0.0000000E+00; -2.2470148E-03;  9.9987726E+02;  1.0364383E-01; -9.5085709E+01;3; -1.8383881E+01;  0.0000000E+00; -1.0880676E+01;0;  1.8455738E+00;  3.7450262E+04;  0.0000000E+00; -7.2287331E+00;  4.0000000E+04;  0.0000000E+00;  3.9759590E+04;  1.9373311E+00;  0.0000000E+00; -9.1757268E-02;  4.9605703E+03;
  1.2392401E+00;  9.9999998E-03;  1.4041671E-01;9522;  1.8008785E+00;  0.0000000E+00; -3.5084796E-03;  9.9964337E+02;  1.0364218E-01; -2.7627820E+02;3; -2.0043114E+01;  0.0000000E+00; -1.1614325E+01;0;  1.8541641E+00;  3.7432301E+04;  0.0000000E+00; -8.9376726E+00;  4.0000000E+04;  0.0000000E+00;  3.9761891E+04;  1.9614547E+00;  0.0000000E+00; -1.0729057E-01;  5.8225894E+03;
  1.2393183E+00;  9.9999998E-03;  1.5044825E-01;9523;  1.8016894E+00;  0.0000000E+00; -5.1137344E-03;  9.9933801E+02;  1.0364070E-01; -5.1280768E+02;3; -2.2711267E+01;  0.0000000E+00; -1.2298821E+01;0;  1.8684703E+00;  3.7407617E+04;  0.0000000E+00; -1.0519179E+01;  4.0000000E+04;  0.0000000E+00;  3.9765348E+04;  1.9918853E+00;  0.0000000E+00; -1.2341495E-01;  6.5803667E+03;
  1.2393811E+00;  9.9999998E-03;  1.6048603E-01;9524;  1.8000484E+00;  0.0000000E+00; -7.1096690E-03;  9.9894965E+02;  1.0363936E-01; -8.1363074E+02;3; -2.6539637E+01;  0.0000000E+00; -1.3031424E+01;0;  1.8887892E+00;  3.7376281E+04;  0.0000000E+00; -1.1863165E+01;  4.0000000E+04;  0.0000000E+00;  3.9769559E+04;  2.0289075E+00;  0.0000000E+00; -1.4011833E-01;  7.1619121E+03;
  1.2394143E+00;  9.9999998E-03;  1.7052791E-01;9525;  1.7951715E+00;  0.0000000E+00; -9.3314778E-03;  9.9851196E+02;  1.0363835E-01; -1.1526320E+03;3; -3.1532341E+01;  0.0000000E+00; -1.3151752E+01;0;  1.9130043E+00;  3.7340535E+04;  0.0000000E+00; -1.2858301E+01;  4.0000000E+04;  0.0000000E+00;  3.9774109E+04;  2.0702484E+00;  0.0000000E+00; -1.5724410E-01;  7.4961934E+03;
  1.2394042E+00;  9.9999998E-03;  1.8057147E-01;9526;  1.7869774E+00;  0.0000000E+00; -1.1535550E-02;  9.9809186E+02;  1.0363739E-01; -1.4780511E+03;3; -3.7188129E+01;  0.0000000E+00; -1.3194215E+01;0;  1.9375974E+00;  3.7306496E+04;  0.0000000E+00; -1.3246887E+01;  4.0000000E+04;  0.0000000E+00;  3.9778020E+04;  2.1116033E+00;  0.0000000E+00; -1.7400590E-01;  7.4184814E+03;
  1.2393512E+00;  9.9999998E-03;  1.9061911E-01;9527;  1.7770132E+00;  0.0000000E+00; -1.3857964E-02;  9.9775922E+02;  1.0363641E-01; -1.7358110E+03;3; -4.3454548E+01;  0.0000000E+00; -1.2997319E+01;0;  1.9605463E+00;  3.7281617E+04;  0.0000000E+00; -1.2730870E+01;  4.0000000E+04;  0.0000000E+00;  3.9778980E+04;  2.1510808E+00;  0.0000000E+00; -1.9053464E-01;  6.7513877E+03;
  1.2392803E+00;  9.9999998E-03;  2.0067400E-01;9528;  1.7679032E+00;  0.0000000E+00; -1.6713612E-02;  9.9749988E+02;  1.0363523E-01; -1.9368320E+03;3; -4.9888283E+01;  0.0000000E+00; -1.2433331E+01;0;  1.9835492E+00;  3.7268598E+04;  0.0000000E+00; -1.1579404E+01;  4.0000000E+04;  0.0000000E+00;  3.9772324E+04;  2.1929028E+00;  0.0000000E+00; -2.0935361E-01;  5.7618320E+03;
  1.2392373E+00;  9.9999998E-03;  2.1072569E-01;9529;  1.7584149E+00;  0.0000000E+00; -2.0506022E-02;  9.9719019E+02;  1.0363409E-01; -2.1768450E+03;3; -5.6953331E+01;  0.0000000E+00; -1.1691729E+01;0;  1.9920758E+00;  3.7258250E+04;  0.0000000E+00; -1.1164769E+01;  4.0000000E+04;  0.0000000E+00;  3.9758863E+04;  2.2280657E+00;  0.0000000E+00; -2.3598994E-01;  5.5925977E+03;
  1.2392691E+00;  9.9999998E-03;  2.2075593E-01;9530;  1.7429748E+00;  0.0000000E+00; -2.4418008E-02;  9.9668591E+02;  1.0363282E-01; -2.5674309E+03;3; -6.4075096E+01;  0.0000000E+00; -1.0758070E+01;0;  1.9481175E+00;  3.7228414E+04;  0.0000000E+00; -1.3408878E+01;  4.0000000E+04;  0.0000000E+00;  3.9751238E+04;  2.2162189E+00;  0.0000000E+00; -2.6810148E-01;  7.4442759E+03;
  1.2394055E+00;  9.9999998E-03;  2.3075883E-01;9531;  1.7113116E+00;  0.0000000E+00; -2.5354223E-02;  9.9573871E+02;  1.0363222E-01; -3.3008521E+03;3; -6.9884239E+01;  0.0000000E+00; -7.4009500E+00;0;  1.7911763E+00;  3.7149477E+04;  0.0000000E+00; -1.8125900E+01;  4.0000000E+04;  0.0000000E+00;  3.9762699E+04;  2.0630708E+00;  0.0000000E+00; -2.7189451E-01;  1.1044930E+04;
  1.2492222E+00;  9.9999998E-03;  7.0228092E-02;9567;  1.7967163E+00;  0.0000000E+00;  4.2253998E-03;  1.0006351E+03;  1.0347273E-01;  4.8737042E+02;3; -1.1847323E+01;  0.0000000E+00; -7.7605510E+00;0;  1.6861795E+00;  3.7640305E+04;  0.0000000E+00; -1.4363059E+00;  4.0000000E+04;  0.0000000E+00;  3.9747555E+04;  1.6761268E+00;  0.0000000E+00;  1.0052720E-02;  2.1190530E+03;
  1.2492509E+00;  9.9999998E-03;  8.0250226E-02;9568;  1.8009866E+00;  0.0000000E+00;  4.0855454E-03;  1.0005366E+03;  1.0347234E-01;  4.1180130E+02;3; -1.1473079E+01;  0.0000000E+00; -8.0604820E+00;0;  1.7011696E+00;  3.7635410E+04;  0.0000000E+00; -2.1508930E+00;  4.0000000E+04;  0.0000000E+00;  3.9745430E+04;  1.7010908E+00;  0.0000000E+00;  7.8837256E-05;  2.4007134E+03;
  1.2492869E+00;  9.9999998E-03;  9.0272926E-02;9569;  1.8055766E+00;  0.0000000E+00;  3.9084367E-03;  1.0004222E+03;  1.0347181E-01;  3.2397754E+02;3; -1.1165669E+01;  0.0000000E+00; -8.4416380E+00;0;  1.7146043E+00;  3.7629559E+04;  0.0000000E+00; -3.1163445E+00;  4.0000000E+04;  0.0000000E+00;  3.9743605E+04;  1.7261621E+00;  0.0000000E+00; -1.1557848E-02;  2.8055249E+03;
  1.2493337E+00;  9.9999998E-03;  1.0029703E-01;9570;  1.8103771E+00;  0.0000000E+00;  3.6912668E-03;  1.0002902E+03;  1.0347071E-01;  2.2262103E+02;3; -1.1107272E+01;  0.0000000E+00; -8.7929697E+00;0;  1.7265313E+00;  3.7622199E+04;  0.0000000E+00; -4.3523421E+00;  4.0000000E+04;  0.0000000E+00;  3.9742105E+04;  1.7515266E+00;  0.0000000E+00; -2.4995290E-02;  3.3568694E+03;
  1.2493937E+00;  9.9999998E-03;  1.1032306E-01;9571;  1.8152596E+00;  0.0000000E+00;  3.3973979E-03;  1.0001434E+03;  1.0347047E-01;  1.1002332E+02;3; -1.1456447E+01;  0.0000000E+00; -9.1766834E+00;0;  1.7379258E+00;  3.7612637E+04;  0.0000000E+00; -5.8359861E+00;  4.0000000E+04;  0.0000000E+00;  3.9741426E+04;  1.7781217E+00;  0.0000000E+00; -4.0195968E-02;  4.0480042E+03;
  1.2494644E+00;  9.9999998E-03;  1.2035096E-01;9572;  1.8199208E+00;  0.0000000E+00;  2.9142848E-03;  9.9996698E+02;  1.0347027E-01; -2.5331886E+01;3; -1.2328216E+01;  0.0000000E+00; -9.7990170E+00;0;  1.7506368E+00;  3.7599617E+04;  0.0000000E+00; -7.4899955E+00;  4.0000000E+04;  0.0000000E+00;  3.9741906E+04;  1.8076138E+00;  0.0000000E+00; -5.6977049E-02;  4.8316064E+03;
  1.2495426E+00;  9.9999998E-03;  1.3038082E-01;9573;  1.8238316E+00;  0.0000000E+00;  2.1197763E-03;  9.9972864E+02;  1.0346869E-01; -2.0817125E+02;3; -1.4058645E+01;  0.0000000E+00; -1.0474742E+01;0;  1.7669543E+00;  3.7581668E+04;  0.0000000E+00; -9.1916142E+00;  4.0000000E+04;  0.0000000E+00;  3.9743645E+04;  1.8420340E+00;  0.0000000E+00; -7.5079724E-02;  5.6280674E+03;
  1.2496171E+00;  9.9999998E-03;  1.4041455E-01;9574;  1.8262095E+00;  0.0000000E+00;  9.4224175E-04;  9.9943311E+02;  1.0346739E-01; -4.3482672E+02;3; -1.7180441E+01;  0.0000000E+00; -1.1461978E+01;0;  1.7889781E+00;  3.7557766E+04;  0.0000000E+00; -1.0796741E+01;  4.0000000E+04;  0.0000000E+00;  3.9746922E+04;  1.8832135E+00;  0.0000000E+00; -9.4235413E-02;  6.3484888E+03;
  1.2496772E+00;  9.9999998E-03;  1.5045586E-01;9575;  1.8262464E+00;  0.0000000E+00; -7.3033368E-04;  9.9907654E+02;  1.0346660E-01; -7.0827008E+02;3; -2.1718443E+01;  0.0000000E+00; -1.2420750E+01;0;  1.8174547E+00;  3.7528000E+04;  0.0000000E+00; -1.2189598E+01;  4.0000000E+04;  0.0000000E+00;  3.9751148E+04;  1.9318436E+00;  0.0000000E+00; -1.1438894E-01;  6.9286797E+03;
  1.2497132E+00;  9.9999998E-03;  1.6050427E-01;9576;  1.8231890E+00;  0.0000000E+00; -2.7771094E-03;  9.9866046E+02;  1.0346558E-01; -1.0273722E+03;3; -2.7688988E+01;  0.0000000E+00; -1.3010903E+01;0;  1.8510941E+00;  3.7494016E+04;  0.0000000E+00; -1.3283804E+01;  4.0000000E+04;  0.0000000E+00;  3.9755387E+04;  1.9864604E+00;  0.0000000E+00; -1.3536628E-01;  7.3211270E+03;
  1.2497110E+00;  9.9999998E-03;  1.7055677E-01;9577;  1.8168693E+00;  0.0000000E+00; -5.0428705E-03;  9.9825024E+02;  1.0346448E-01; -1.3419773E+03;3; -3.4797794E+01;  0.0000000E+00; -1.3170507E+01;0;  1.8869828E+00;  3.7461051E+04;  0.0000000E+00; -1.3872800E+01;  4.0000000E+04;  0.0000000E+00;  3.9758902E+04;  2.0438392E+00;  0.0000000E+00; -1.5685643E-01;  7.4011650E+03;
  1.2496719E+00;  9.9999998E-03;  1.8061265E-01;9578;  1.8079867E+00;  0.0000000E+00; -7.2297449E-03;  9.9791534E+02;  1.0346403E-01; -1.5989080E+03;3; -4.2298023E+01;  0.0000000E+00; -1.2608165E+01;0;  1.9229133E+00;  3.7435574E+04;  0.0000000E+00; -1.3735019E+01;  4.0000000E+04;  0.0000000E+00;  3.9759859E+04;  2.1005354E+00;  0.0000000E+00; -1.7762202E-01;  7.0442847E+03;
  1.2496065E+00;  9.9999998E-03;  1.9067532E-01;9579;  1.7981755E+00;  0.0000000E+00; -9.5727993E-03;  9.9766846E+02;  1.0346316E-01; -1.7883820E+03;3; -4.9606415E+01;  0.0000000E+00; -1.2280728E+01;0;  1.9584737E+00;  3.7422734E+04;  0.0000000E+00; -1.2892040E+01;  4.0000000E+04;  0.0000000E+00;  3.9754008E+04;  2.1563079E+00;  0.0000000E+00; -1.9783419E-01;  6.3200723E+03;
  1.2495497E+00;  9.9999998E-03;  2.0073587E-01;9580;  1.7877696E+00;  0.0000000E+00; -1.2467245E-02;  9.9744244E+02;  1.0346179E-01; -1.9618615E+03;3; -5.5800083E+01;  0.0000000E+00; -1.1664407E+01;0;  1.9862108E+00;  3.7417891E+04;  0.0000000E+00; -1.2087926E+01;  4.0000000E+04;  0.0000000E+00;  3.9741305E+04;  2.2064652E+00;  0.0000000E+00; -2.2025447E-01;  5.8583511E+03;
  1.2495397E+00;  9.9999998E-03;  2.1077986E-01;9581;  1.7745197E+00;  0.0000000E+00; -1.5579996E-02;  9.9712421E+02;  1.0346016E-01; -2.2059907E+03;3; -6.1753067E+01;  0.0000000E+00; -1.0668258E+01;0;  1.9860301E+00;  3.7405836E+04;  0.0000000E+00; -1.2658737E+01;  4.0000000E+04;  0.0000000E+00;  3.9729383E+04;  2.2301409E+00;  0.0000000E+00; -2.4411085E-01;  6.5098140E+03;
  1.2496496E+00;  9.9999998E-03;  2.2079806E-01;9582;  1.7556509E+00;  0.0000000E+00; -1.8058429E-02;  9.9622333E+02;  1.0345986E-01; -2.8967065E+03;3; -6.7271820E+01;  0.0000000E+00; -9.2944469E+00;0;  1.9322337E+00;  3.7338523E+04;  0.0000000E+00; -1.7068165E+01;  4.0000000E+04;  0.0000000E+00;  3.9730613E+04;  2.1939802E+00;  0.0000000E+00; -2.6174650E-01;  9.5117715E+03;
  1.2498353E+00;  9.9999998E-03;  2.3079565E-01;9583;  1.7245308E+00;  0.0000000E+00; -1.7524967E-02;  9.9477966E+02;  1.0346089E-01; -4.0032522E+03;3; -7.3077209E+01;  0.0000000E+00; -6.3898444E+00;0;  1.7845622E+00;  3.7215570E+04;  0.0000000E+00; -1.8929255E+01;  4.0000000E+04;  0.0000000E+00;  3.9749707E+04;  2.0251801E+00;  0.0000000E+00; -2.4061789E-01;  1.1136092E+04;
  1.2595227E+00;  9.9999998E-03;  7.0194162E-02;9617;  1.8121576E+00;  0.0000000E+00;  6.7291525E-03;  1.0007171E+03;  1.0332013E-01;  5.4412891E+02;3; -5.5638819E+00;  0.0000000E+00; -6.7732201E+00;0;  1.5770249E+00;  3.7771961E+04;  0.0000000E+00; -2.5112295E+00;  4.0000000E+04;  0.0000000E+00;  3.9733363E+04;  1.5362320E+00;  0.0000000E+00;  4.0792886E-02;  2.2270425E+03;
  1.2595661E+00;  9.9999998E-03;  8.0217011E-02;9618;  1.8176734E+00;  0.0000000E+00;  7.0291264E-03;  1.0005863E+03;  1.0332014E-01;  4.4487006E+02;3; -5.2292089E+00;  0.0000000E+00; -7.0275664E+00;0;  1.5943526E+00;  3.7765137E+04;  0.0000000E+00; -3.5354366E+00;  4.0000000E+04;  0.0000000E+00;  3.9730555E+04;  1.5647062E+00;  0.0000000E+00;  2.9646412E-02;  2.6788225E+03;
  1.2596190E+00;  9.9999998E-03;  9.0242527E-02;9619;  1.8235365E+00;  0.0000000E+00;  7.3519899E-03;  1.0004394E+03;  1.0331967E-01;  3.3340619E+02;3; -5.1016288E+00;  0.0000000E+00; -7.3690643E+00;0;  1.6111145E+00;  3.7756914E+04;  0.0000000E+00; -4.7999530E+00;  4.0000000E+04;  0.0000000E+00;  3.9728379E+04;  1.5945781E+00;  0.0000000E+00;  1.6536310E-02;  3.2482473E+03;
  1.2596828E+00;  9.9999998E-03;  1.0027082E-01;9620;  1.8295608E+00;  0.0000000E+00;  7.5910245E-03;  1.0002625E+03;  1.0331848E-01;  1.9916083E+02;3; -5.3598223E+00;  0.0000000E+00; -7.7552075E+00;0;  1.6277503E+00;  3.7746281E+04;  0.0000000E+00; -6.2846718E+00;  4.0000000E+04;  0.0000000E+00;  3.9726898E+04;  1.6264679E+00;  0.0000000E+00;  1.2823170E-03;  3.9234634E+03;
  1.2597541E+00;  9.9999998E-03;  1.1030121E-01;9621;  1.8354254E+00;  0.0000000E+00;  7.6742973E-03;  1.0000624E+03;  1.0331807E-01;  4.7389534E+01;3; -6.2426848E+00;  0.0000000E+00; -8.1754971E+00;0;  1.6456152E+00;  3.7732285E+04;  0.0000000E+00; -7.9270225E+00;  4.0000000E+04;  0.0000000E+00;  3.9726723E+04;  1.6617041E+00;  0.0000000E+00; -1.6088864E-02;  4.6674233E+03;
  1.2598282E+00;  9.9999998E-03;  1.2033335E-01;9622;  1.8405750E+00;  0.0000000E+00;  7.4930526E-03;  9.9982880E+02;  1.0331807E-01; -1.2985799E+02;3; -8.0313215E+00;  0.0000000E+00; -8.8501062E+00;0;  1.6666145E+00;  3.7713902E+04;  0.0000000E+00; -9.6211929E+00;  4.0000000E+04;  0.0000000E+00;  3.9727953E+04;  1.7019745E+00;  0.0000000E+00; -3.5360005E-02;  5.4192012E+03;
  1.2598965E+00;  9.9999998E-03;  1.3036862E-01;9623;  1.8443022E+00;  0.0000000E+00;  6.8879439E-03;  9.9954346E+02;  1.0331738E-01; -3.4632117E+02;3; -1.1067493E+01;  0.0000000E+00; -9.5677357E+00;0;  1.6926101E+00;  3.7690586E+04;  0.0000000E+00; -1.1229832E+01;  4.0000000E+04;  0.0000000E+00;  3.9730973E+04;  1.7488872E+00;  0.0000000E+00; -5.6277040E-02;  6.1048130E+03;
  1.2599518E+00;  9.9999998E-03;  1.4041123E-01;9624;  1.8457968E+00;  0.0000000E+00;  5.8206734E-03;  9.9920544E+02;  1.0331616E-01; -6.0263287E+02;3; -1.5843921E+01;  0.0000000E+00; -1.0281329E+01;0;  1.7245898E+00;  3.7662066E+04;  0.0000000E+00; -1.2633806E+01;  4.0000000E+04;  0.0000000E+00;  3.9735309E+04;  1.8031117E+00;  0.0000000E+00; -7.8521810E-02;  6.6671724E+03;
  1.2599863E+00;  9.9999998E-03;  1.5046401E-01;9625;  1.8441643E+00;  0.0000000E+00;  4.2307377E-03;  9.9882074E+02;  1.0331527E-01; -8.9441992E+02;3; -2.2432556E+01;  0.0000000E+00; -1.1403458E+01;0;  1.7612147E+00;  3.7630113E+04;  0.0000000E+00; -1.3755791E+01;  4.0000000E+04;  0.0000000E+00;  3.9739875E+04;  1.8631421E+00;  0.0000000E+00; -1.0192735E-01;  7.0728115E+03;
  1.2599899E+00;  9.9999998E-03;  1.6052310E-01;9626;  1.8390267E+00;  0.0000000E+00;  2.2207303E-03;  9.9844464E+02;  1.0331471E-01; -1.1796713E+03;3; -3.0358433E+01;  0.0000000E+00; -1.1950814E+01;0;  1.7992500E+00;  3.7598883E+04;  0.0000000E+00; -1.4439084E+01;  4.0000000E+04;  0.0000000E+00;  3.9743594E+04;  1.9255549E+00;  0.0000000E+00; -1.2630489E-01;  7.2340225E+03;
  1.2599608E+00;  9.9999998E-03;  1.7058463E-01;9627;  1.8306577E+00;  0.0000000E+00;  1.7894540E-04;  9.9813550E+02;  1.0331432E-01; -1.4141609E+03;3; -3.7970982E+01;  0.0000000E+00; -1.1458450E+01;0;  1.8353151E+00;  3.7574320E+04;  0.0000000E+00; -1.4472724E+01;  4.0000000E+04;  0.0000000E+00;  3.9745621E+04;  1.9856673E+00;  0.0000000E+00; -1.5035225E-01;  7.0351553E+03;
  1.2599010E+00;  9.9999998E-03;  1.8065213E-01;9628;  1.8202647E+00;  0.0000000E+00; -1.6192594E-03;  9.9794330E+02;  1.0331327E-01; -1.5600646E+03;3; -4.5364307E+01;  0.0000000E+00; -1.0529971E+01;0;  1.8694509E+00;  3.7563453E+04;  0.0000000E+00; -1.3735960E+01;  4.0000000E+04;  0.0000000E+00;  3.9742289E+04;  2.0412118E+00;  0.0000000E+00; -1.7176093E-01;  6.4281255E+03;
  1.2598366E+00;  9.9999998E-03;  1.9072081E-01;9629;  1.8092911E+00;  0.0000000E+00; -3.6778601E-03;  9.9782849E+02;  1.0331205E-01; -1.6472635E+03;3; -5.1663696E+01;  0.0000000E+00; -1.0391649E+01;0;  1.9006839E+00;  3.7564707E+04;  0.0000000E+00; -1.2661565E+01;  4.0000000E+04;  0.0000000E+00;  3.9731863E+04;  2.0921283E+00;  0.0000000E+00; -1.9144434E-01;  5.7617100E+03;
  1.2598082E+00;  9.9999998E-03;  2.0077643E-01;9630;  1.7969174E+00;  0.0000000E+00; -6.0121929E-03;  9.9764508E+02;  1.0331082E-01; -1.7864475E+03;3; -5.7240887E+01;  0.0000000E+00; -9.3935823E+00;0;  1.9170113E+00;  3.7562715E+04;  0.0000000E+00; -1.2436161E+01;  4.0000000E+04;  0.0000000E+00;  3.9719789E+04;  2.1268020E+00;  0.0000000E+00; -2.0979077E-01;  5.8207407E+03;
  1.2598755E+00;  9.9999998E-03;  2.1081075E-01;9631;  1.7807850E+00;  0.0000000E+00; -7.9449164E-03;  9.9697284E+02;  1.0331075E-01; -2.2962188E+03;3; -6.3122280E+01;  0.0000000E+00; -8.5383978E+00;0;  1.8980052E+00;  3.7517699E+04;  0.0000000E+00; -1.5304512E+01;  4.0000000E+04;  0.0000000E+00;  3.9714605E+04;  2.1186628E+00;  0.0000000E+00; -2.2065763E-01;  7.7017446E+03;
  1.2600484E+00;  9.9999998E-03;  2.2082128E-01;9632;  1.7572073E+00;  0.0000000E+00; -8.3064511E-03;  9.9553198E+02;  1.0331137E-01; -3.3885183E+03;3; -6.9419914E+01;  0.0000000E+00; -6.2463241E+00;0;  1.8140882E+00;  3.7401559E+04;  0.0000000E+00; -1.8672949E+01;  4.0000000E+04;  0.0000000E+00;  3.9725477E+04;  2.0229011E+00;  0.0000000E+00; -2.0881282E-01;  9.9476855E+03;
  1.2602104E+00;  9.9999998E-03;  2.3082480E-01;9633;  1.7265900E+00;  0.0000000E+00; -5.7243533E-03;  9.9396832E+02;  1.0331406E-01; -4.5735410E+03;3; -7.5097198E+01;  0.0000000E+00; -3.7936792E+00;0;  1.6779150E+00;  3.7270465E+04;  0.0000000E+00; -1.0687305E+01;  4.0000000E+04;  0.0000000E+00;  3.9742555E+04;  1.8264509E+00;  0.0000000E+00; -1.4853601E-01;  6.1440557E+03;
  1.2698212E+00;  9.9999998E-03;  7.0161827E-02;9665;  1.8253784E+00;  0.0000000E+00;  8.8651478E-03;  1.0007633E+03;  1.0318833E-01;  5.7205798E+02;3; -2.2128588E-01;  0.0000000E+00; -5.2203054E+00;0;  1.4831909E+00;  3.7886434E+04;  0.0000000E+00; -3.9424458E+00;  4.0000000E+04;  0.0000000E+00;  3.9718973E+04;  1.4125828E+00;  0.0000000E+00;  7.0608102E-02;  2.4642820E+03;
  1.2698817E+00;  9.9999998E-03;  8.0187455E-02;9666;  1.8318808E+00;  0.0000000E+00;  9.6285846E-03;  1.0006032E+03;  1.0318843E-01;  4.5203650E+02;3;  1.2272266E-01;  0.0000000E+00; -5.2616029E+00;0;  1.5016292E+00;  3.7877309E+04;  0.0000000E+00; -5.2845340E+00;  4.0000000E+04;  0.0000000E+00;  3.9716336E+04;  1.4429668E+00;  0.0000000E+00;  5.8662370E-02;  3.0603140E+03;
  1.2699494E+00;  9.9999998E-03;  9.0216704E-02;9667;  1.8386344E+00;  0.0000000E+00;  1.0496009E-02;  1.0004114E+03;  1.0318741E-01;  3.0826935E+02;3;  1.2731421E-01;  0.0000000E+00; -5.3052235E+00;0;  1.5207440E+00;  3.7865711E+04;  0.0000000E+00; -6.8205924E+00;  4.0000000E+04;  0.0000000E+00;  3.9714449E+04;  1.4762033E+00;  0.0000000E+00;  4.4540633E-02;  3.7397520E+03;
  1.2700200E+00;  9.9999998E-03;  1.0024876E-01;9668;  1.8453466E+00;  0.0000000E+00;  1.1396633E-02;  1.0002010E+03;  1.0318719E-01;  1.5059264E+02;3; -4.3270311E-01;  0.0000000E+00; -5.3993478E+00;0;  1.5413641E+00;  3.7850906E+04;  0.0000000E+00; -8.4925318E+00;  4.0000000E+04;  0.0000000E+00;  3.9713832E+04;  1.5132682E+00;  0.0000000E+00;  2.8095864E-02;  4.4695405E+03;
  1.2700871E+00;  9.9999998E-03;  1.1028326E-01;9669;  1.8516197E+00;  0.0000000E+00;  1.2152541E-02;  9.9996124E+02;  1.0318719E-01; -2.9026333E+01;3; -1.8695486E+00;  0.0000000E+00; -5.7080975E+00;0;  1.5650457E+00;  3.7832578E+04;  0.0000000E+00; -1.0203160E+01;  4.0000000E+04;  0.0000000E+00;  3.9714609E+04;  1.5556632E+00;  0.0000000E+00;  9.3825124E-03;  5.1991670E+03;
  1.2701463E+00;  9.9999998E-03;  1.2032057E-01;9670;  1.8568176E+00;  0.0000000E+00;  1.2528082E-02;  9.9968469E+02;  1.0318621E-01; -2.3621182E+02;3; -4.6696091E+00;  0.0000000E+00; -6.4527893E+00;0;  1.5934250E+00;  3.7810168E+04;  0.0000000E+00; -1.1820730E+01;  4.0000000E+04;  0.0000000E+00;  3.9717387E+04;  1.6048123E+00;  0.0000000E+00; -1.1387262E-02;  5.8638105E+03;
  1.2701952E+00;  9.9999998E-03;  1.3036463E-01;9671;  1.8600295E+00;  0.0000000E+00;  1.2272689E-02;  9.9937390E+02;  1.0318545E-01; -4.6900058E+02;3; -9.2337961E+00;  0.0000000E+00; -7.5888524E+00;0;  1.6270121E+00;  3.7783535E+04;  0.0000000E+00; -1.3229650E+01;  4.0000000E+04;  0.0000000E+00;  3.9721711E+04;  1.6610572E+00;  0.0000000E+00; -3.4045130E-02;  6.4137017E+03;
  1.2702280E+00;  9.9999998E-03;  1.4042102E-01;9672;  1.8602078E+00;  0.0000000E+00;  1.1228976E-02;  9.9903137E+02;  1.0318550E-01; -7.2557196E+02;3; -1.5925787E+01;  0.0000000E+00; -8.8129435E+00;0;  1.6639628E+00;  3.7753844E+04;  0.0000000E+00; -1.4379494E+01;  4.0000000E+04;  0.0000000E+00;  3.9726109E+04;  1.7225710E+00;  0.0000000E+00; -5.8608137E-02;  6.8343838E+03;
  1.2702379E+00;  9.9999998E-03;  1.5048467E-01;9673;  1.8565449E+00;  0.0000000E+00;  9.6356189E-03;  9.9868396E+02;  1.0318502E-01; -9.8576715E+02;3; -2.4248245E+01;  0.0000000E+00; -9.7522659E+00;0;  1.7001929E+00;  3.7724500E+04;  0.0000000E+00; -1.5150168E+01;  4.0000000E+04;  0.0000000E+00;  3.9730148E+04;  1.7847764E+00;  0.0000000E+00; -8.4583484E-02;  7.0638745E+03;
  1.2702187E+00;  9.9999998E-03;  1.6054988E-01;9674;  1.8491880E+00;  0.0000000E+00;  7.9322467E-03;  9.9840820E+02;  1.0318473E-01; -1.1923793E+03;3; -3.2332928E+01;  0.0000000E+00; -9.5764952E+00;0;  1.7320725E+00;  3.7701461E+04;  0.0000000E+00; -1.5295177E+01;  4.0000000E+04;  0.0000000E+00;  3.9733090E+04;  1.8425585E+00;  0.0000000E+00; -1.1048605E-01;  6.9755190E+03;
  1.2701710E+00;  9.9999998E-03;  1.7061743E-01;9675;  1.8390867E+00;  0.0000000E+00;  6.3415212E-03;  9.9827063E+02;  1.0318369E-01; -1.2955070E+03;3; -3.9601643E+01;  0.0000000E+00; -8.9229755E+00;0;  1.7580941E+00;  3.7691328E+04;  0.0000000E+00; -1.4644300E+01;  4.0000000E+04;  0.0000000E+00;  3.9733141E+04;  1.8924007E+00;  0.0000000E+00; -1.3430664E-01;  6.4862358E+03;
  1.2701139E+00;  9.9999998E-03;  1.8068837E-01;9676;  1.8279183E+00;  0.0000000E+00;  5.0050346E-03;  9.9822394E+02;  1.0318264E-01; -1.3305660E+03;3; -4.6374489E+01;  0.0000000E+00; -8.1511183E+00;0;  1.7823974E+00;  3.7693941E+04;  0.0000000E+00; -1.3591415E+01;  4.0000000E+04;  0.0000000E+00;  3.9727055E+04;  1.9357237E+00;  0.0000000E+00; -1.5332626E-01;  5.8378892E+03;
  1.2700819E+00;  9.9999998E-03;  1.9075149E-01;9677;  1.8156743E+00;  0.0000000E+00;  3.4939451E-03;  9.9813635E+02;  1.0318165E-01; -1.3962656E+03;3; -5.2214306E+01;  0.0000000E+00; -7.4244347E+00;0;  1.7976943E+00;  3.7696312E+04;  0.0000000E+00; -1.3066113E+01;  4.0000000E+04;  0.0000000E+00;  3.9717875E+04;  1.9657888E+00;  0.0000000E+00; -1.6809455E-01;  5.6139912E+03;
  1.2701169E+00;  9.9999998E-03;  2.0079981E-01;9678;  1.8011297E+00;  0.0000000E+00;  2.3094309E-03;  9.9767450E+02;  1.0318117E-01; -1.7421836E+03;3; -5.7956139E+01;  0.0000000E+00; -6.3916268E+00;0;  1.7924706E+00;  3.7669055E+04;  0.0000000E+00; -1.4580523E+01;  4.0000000E+04;  0.0000000E+00;  3.9710160E+04;  1.9659709E+00;  0.0000000E+00; -1.7350034E-01;  6.6067710E+03;
  1.2702616E+00;  9.9999998E-03;  2.1082672E-01;9679;  1.7806530E+00;  0.0000000E+00;  2.0286725E-03;  9.9635608E+02;  1.0318248E-01; -2.7294277E+03;3; -6.4240616E+01;  0.0000000E+00; -4.8715415E+00;0;  1.7328684E+00;  3.7568293E+04;  0.0000000E+00; -1.7692430E+01;  4.0000000E+04;  0.0000000E+00;  3.9713141E+04;  1.8942051E+00;  0.0000000E+00; -1.6133662E-01;  8.5318564E+03;
  1.2704195E+00;  9.9999998E-03;  2.2084059E-01;9680;  1.7553133E+00;  0.0000000E+00;  4.0640729E-03;  9.9477399E+02;  1.0318474E-01; -3.9136709E+03;3; -7.0176430E+01;  0.0000000E+00; -2.8083286E+00;0;  1.6389334E+00;  3.7440266E+04;  0.0000000E+00; -1.2647804E+01;  4.0000000E+04;  0.0000000E+00;  3.9724703E+04;  1.7487375E+00;  0.0000000E+00; -1.0980403E-01;  6.5151226E+03;
  1.2704731E+00;  9.9999998E-03;  2.3085466E-01;9681;  1.7261479E+00;  0.0000000E+00;  8.2120122E-03;  9.9392871E+02;  1.0318659E-01; -4.5463530E+03;3; -7.4543129E+01;  0.0000000E+00; -8.4002233E-01;0;  1.5233843E+00;  3.7370375E+04;  0.0000000E+00;  8.5996819E+00;  4.0000000E+04;  0.0000000E+00;  3.9732836E+04;  1.5365016E+00;  0.0000000E+00; -1.3117257E-02;  5.0031255E+03;
  1.2801158E+00;  9.9999998E-03;  7.0139207E-02;9712;  1.8364487E+00;  0.0000000E+00;  1.0663535E-02;  1.0007553E+03;  1.0307461E-01;  5.5827362E+02;3;  4.3011560E+00;  0.0000000E+00; -3.3749547E+00;0;  1.4049481E+00;  3.7984008E+04;  0.0000000E+00; -5.6508703E+00;  4.0000000E+04;  0.0000000E+00;  3.9704664E+04;  1.3057879E+00;  0.0000000E+00;  9.9160239E-02;  2.8044539E+03;
  1.2801884E+00;  9.9999998E-03;  8.0169261E-02;9713;  1.8433284E+00;  0.0000000E+00;  1.1880829E-02;  1.0005563E+03;  1.0307418E-01;  4.1117334E+02;3;  4.3291650E+00;  0.0000000E+00; -3.0741401E+00;0;  1.4236068E+00;  3.7971535E+04;  0.0000000E+00; -7.2947898E+00;  4.0000000E+04;  0.0000000E+00;  3.9702754E+04;  1.3368225E+00;  0.0000000E+00;  8.6784214E-02;  3.4972612E+03;
  1.2802569E+00;  9.9999998E-03;  9.0202644E-02;9714;  1.8502947E+00;  0.0000000E+00;  1.3286665E-02;  1.0003431E+03;  1.0307426E-01;  2.5353372E+02;3;  3.9564722E+00;  0.0000000E+00; -2.7695038E+00;0;  1.4441656E+00;  3.7956574E+04;  0.0000000E+00; -9.0535421E+00;  4.0000000E+04;  0.0000000E+00;  3.9702012E+04;  1.3720393E+00;  0.0000000E+00;  7.2126314E-02;  4.2302183E+03;
  1.2803144E+00;  9.9999998E-03;  1.0023868E-01;9715;  1.8571872E+00;  0.0000000E+00;  1.4866902E-02;  1.0001194E+03;  1.0307401E-01;  8.8174599E+01;3;  2.9660501E+00;  0.0000000E+00; -2.5311801E+00;0;  1.4680562E+00;  3.7939242E+04;  0.0000000E+00; -1.0823835E+01;  4.0000000E+04;  0.0000000E+00;  3.9702715E+04;  1.4128979E+00;  0.0000000E+00;  5.5158250E-02;  4.9540527E+03;
  1.2803590E+00;  9.9999998E-03;  1.1027880E-01;9716;  1.8636742E+00;  0.0000000E+00;  1.6463568E-02;  9.9988812E+02;  1.0307375E-01; -8.2663948E+01;3;  1.1461149E+00;  0.0000000E+00; -2.6129718E+00;0;  1.4972605E+00;  3.7919977E+04;  0.0000000E+00; -1.2473280E+01;  4.0000000E+04;  0.0000000E+00;  3.9705172E+04;  1.4611225E+00;  0.0000000E+00;  3.6137931E-02;  5.6088403E+03;
  1.2803940E+00;  9.9999998E-03;  1.2032789E-01;9717;  1.8690391E+00;  0.0000000E+00;  1.7707260E-02;  9.9963934E+02;  1.0307361E-01; -2.6647565E+02;3; -2.1119072E+00;  0.0000000E+00; -3.2771301E+00;0;  1.5330106E+00;  3.7897992E+04;  0.0000000E+00; -1.3902190E+01;  4.0000000E+04;  0.0000000E+00;  3.9708785E+04;  1.5176604E+00;  0.0000000E+00;  1.5350235E-02;  6.1541406E+03;
  1.2804255E+00;  9.9999998E-03;  1.3038801E-01;9718;  1.8718691E+00;  0.0000000E+00;  1.7951803E-02;  9.9933862E+02;  1.0307342E-01; -4.8862668E+02;3; -8.2189960E+00;  0.0000000E+00; -5.4213910E+00;0;  1.5725414E+00;  3.7871957E+04;  0.0000000E+00; -1.5112631E+01;  4.0000000E+04;  0.0000000E+00;  3.9712910E+04;  1.5801154E+00;  0.0000000E+00; -7.5741014E-03;  6.5976987E+03;
  1.2804493E+00;  9.9999998E-03;  1.4045393E-01;9719;  1.8703985E+00;  0.0000000E+00;  1.6958440E-02;  9.9899823E+02;  1.0307283E-01; -7.4009308E+02;3; -1.6949699E+01;  0.0000000E+00; -7.0849681E+00;0;  1.6072830E+00;  3.7843305E+04;  0.0000000E+00; -1.6061632E+01;  4.0000000E+04;  0.0000000E+00;  3.9716695E+04;  1.6406678E+00;  0.0000000E+00; -3.3384752E-02;  6.9246699E+03;
  1.2804457E+00;  9.9999998E-03;  1.5052082E-01;9720;  1.8644910E+00;  0.0000000E+00;  1.5496057E-02;  9.9873132E+02;  1.0307192E-01; -9.3728564E+02;3; -2.5544014E+01;  0.0000000E+00; -7.4929132E+00;0;  1.6320866E+00;  3.7820617E+04;  0.0000000E+00; -1.6432577E+01;  4.0000000E+04;  0.0000000E+00;  3.9720148E+04;  1.6925647E+00;  0.0000000E+00; -6.0478106E-02;  6.9866689E+03;
  1.2804098E+00;  9.9999998E-03;  1.6058794E-01;9721;  1.8554691E+00;  0.0000000E+00;  1.4184498E-02;  9.9864465E+02;  1.0307120E-01; -1.0013638E+03;3; -3.2973148E+01;  0.0000000E+00; -7.1571107E+00;0;  1.6483185E+00;  3.7812566E+04;  0.0000000E+00; -1.5881704E+01;  4.0000000E+04;  0.0000000E+00;  3.9722207E+04;  1.7341570E+00;  0.0000000E+00; -8.5838392E-02;  6.6200288E+03;
  1.2803624E+00;  9.9999998E-03;  1.7065836E-01;9722;  1.8449441E+00;  0.0000000E+00;  1.3178430E-02;  9.9867334E+02;  1.0307097E-01; -9.8024792E+02;3; -3.9812771E+01;  0.0000000E+00; -6.1981459E+00;0;  1.6608517E+00;  3.7816977E+04;  0.0000000E+00; -1.4820365E+01;  4.0000000E+04;  0.0000000E+00;  3.9719762E+04;  1.7673765E+00;  0.0000000E+00; -1.0652483E-01;  6.0298276E+03;
  1.2803361E+00;  9.9999998E-03;  1.8072502E-01;9723;  1.8331746E+00;  0.0000000E+00;  1.2317479E-02;  9.9863855E+02;  1.0307001E-01; -1.0059611E+03;3; -4.6183704E+01;  0.0000000E+00; -5.6222854E+00;0;  1.6670432E+00;  3.7820492E+04;  0.0000000E+00; -1.4178812E+01;  4.0000000E+04;  0.0000000E+00;  3.9713578E+04;  1.7875700E+00;  0.0000000E+00; -1.2052683E-01;  5.7207095E+03;
  1.2803611E+00;  9.9999998E-03;  1.9078055E-01;9724;  1.8190960E+00;  0.0000000E+00;  1.1838548E-02;  9.9828839E+02;  1.0306999E-01; -1.2646625E+03;3; -5.2563885E+01;  0.0000000E+00; -4.1899652E+00;0;  1.6555309E+00;  3.7800297E+04;  0.0000000E+00; -1.4907756E+01;  4.0000000E+04;  0.0000000E+00;  3.9707160E+04;  1.7792661E+00;  0.0000000E+00; -1.2373522E-01;  6.1968945E+03;
  1.2804836E+00;  9.9999998E-03;  2.0082045E-01;9725;  1.7999738E+00;  0.0000000E+00;  1.2267812E-02;  9.9707806E+02;  1.0307124E-01; -2.1585686E+03;3; -5.8609558E+01;  0.0000000E+00; -2.6675918E+00;0;  1.5994204E+00;  3.7710926E+04;  0.0000000E+00; -1.7162775E+01;  4.0000000E+04;  0.0000000E+00;  3.9705723E+04;  1.7072845E+00;  0.0000000E+00; -1.0786406E-01;  7.5453140E+03;
  1.2806215E+00;  9.9999998E-03;  2.1084705E-01;9726;  1.7778203E+00;  0.0000000E+00;  1.4463671E-02;  9.9558856E+02;  1.0307375E-01; -3.2583044E+03;3; -6.4252190E+01;  0.0000000E+00; -7.4522698E-01;0;  1.5251207E+00;  3.7595516E+04;  0.0000000E+00; -1.2938452E+01;  4.0000000E+04;  0.0000000E+00;  3.9710496E+04;  1.5834656E+00;  0.0000000E+00; -5.8344796E-02;  6.0856826E+03;
  1.2806917E+00;  9.9999998E-03;  2.2086754E-01;9727;  1.7534387E+00;  0.0000000E+00;  1.8088095E-02;  9.9459723E+02;  1.0307575E-01; -3.9900679E+03;3; -6.9699768E+01;  0.0000000E+00;  6.2617195E-01;0;  1.4448910E+00;  3.7516363E+04;  0.0000000E+00;  4.9813075E+00;  4.0000000E+04;  0.0000000E+00;  3.9716215E+04;  1.4174263E+00;  0.0000000E+00;  2.7464686E-02;  3.4049021E+03;
  1.2805983E+00;  9.9999998E-03;  2.3088627E-01;9728;  1.7301385E+00;  0.0000000E+00;  2.0618649E-02;  9.9525818E+02;  1.0307447E-01; -3.5024460E+03;3; -7.2337257E+01;  0.0000000E+00;  1.9950478E-01;0;  1.3696052E+00;  3.7564121E+04;  0.0000000E+00;  3.2950684E+01;  4.0000000E+04;  0.0000000E+00;  3.9717992E+04;  1.2532381E+00;  0.0000000E+00;  1.1636712E-01;  1.5254979E+04;
  1.2903967E+00;  9.9999998E-03;  7.0132881E-02;9758;  1.8448390E+00;  0.0000000E+00;  1.1914453E-02;  1.0006798E+03;  1.0297849E-01;  4.9485147E+02;3;  7.5549126E+00;  0.0000000E+00; -8.7044960E-01;0;  1.3387468E+00;  3.8064242E+04;  0.0000000E+00; -7.4899302E+00;  4.0000000E+04;  0.0000000E+00;  3.9690082E+04;  1.2127953E+00;  0.0000000E+00;  1.2595154E-01;  3.1621733E+03;
  1.2904637E+00;  9.9999998E-03;  8.0168553E-02;9759;  1.8514605E+00;  0.0000000E+00;  1.3523145E-02;  1.0004667E+03;  1.0297799E-01;  3.3967041E+02;3;  7.1608324E+00;  0.0000000E+00; -3.1579450E-01;0;  1.3561988E+00;  3.8049562E+04;  0.0000000E+00; -9.3969231E+00;  4.0000000E+04;  0.0000000E+00;  3.9689625E+04;  1.2428231E+00;  0.0000000E+00;  1.1337567E-01;  3.9093760E+03;
  1.2905060E+00;  9.9999998E-03;  9.0207651E-02;9760;  1.8584946E+00;  0.0000000E+00;  1.5532100E-02;  1.0002960E+03;  1.0297814E-01;  2.1541396E+02;3;  6.3425298E+00;  0.0000000E+00; -7.0939288E-03;0;  1.3777848E+00;  3.8035980E+04;  0.0000000E+00; -1.1283391E+01;  4.0000000E+04;  0.0000000E+00;  3.9690441E+04;  1.2791461E+00;  0.0000000E+00;  9.8638788E-02;  4.6401089E+03;
  1.2905327E+00;  9.9999998E-03;  1.0025220E-01;9761;  1.8656219E+00;  0.0000000E+00;  1.7885059E-02;  1.0001476E+03;  1.0297814E-01;  1.0739884E+02;3;  4.7749305E+00;  0.0000000E+00;  4.8105210E-01;0;  1.4051576E+00;  3.8022656E+04;  0.0000000E+00; -1.3020089E+01;  4.0000000E+04;  0.0000000E+00;  3.9692621E+04;  1.3232338E+00;  0.0000000E+00;  8.1923760E-02;  5.2978013E+03;
  1.2905576E+00;  9.9999998E-03;  1.1030521E-01;9762;  1.8721629E+00;  0.0000000E+00;  2.0531246E-02;  9.9997864E+02;  1.0297810E-01; -1.5527982E+01;3;  2.3075178E+00;  0.0000000E+00;  1.0646170E+00;0;  1.4396528E+00;  3.8006984E+04;  0.0000000E+00; -1.4538186E+01;  4.0000000E+04;  0.0000000E+00;  3.9695727E+04;  1.3756734E+00;  0.0000000E+00;  6.3979372E-02;  5.8556343E+03;
  1.2905864E+00;  9.9999998E-03;  1.2036850E-01;9763;  1.8771513E+00;  0.0000000E+00;  2.3072476E-02;  9.9974481E+02;  1.0297771E-01; -1.8567682E+02;3; -1.4487469E+00;  0.0000000E+00;  6.6441047E-01;0;  1.4809320E+00;  3.7986699E+04;  0.0000000E+00; -1.5865827E+01;  4.0000000E+04;  0.0000000E+00;  3.9699035E+04;  1.4353623E+00;  0.0000000E+00;  4.5569647E-02;  6.3302808E+03;
  1.2906147E+00;  9.9999998E-03;  1.3043925E-01;9764;  1.8792557E+00;  0.0000000E+00;  2.4219340E-02;  9.9945410E+02;  1.0297742E-01; -3.9722922E+02;3; -8.8694382E+00;  0.0000000E+00; -3.0105946E+00;0;  1.5227267E+00;  3.7962418E+04;  0.0000000E+00; -1.7028316E+01;  4.0000000E+04;  0.0000000E+00;  3.9701699E+04;  1.4975626E+00;  0.0000000E+00;  2.5163965E-02;  6.7364766E+03;
  1.2906300E+00;  9.9999998E-03;  1.4050853E-01;9765;  1.8761748E+00;  0.0000000E+00;  2.3427170E-02;  9.9918536E+02;  1.0297704E-01; -5.9272870E+02;3; -1.8503159E+01;  0.0000000E+00; -4.7115512E+00;0;  1.5467808E+00;  3.7940086E+04;  0.0000000E+00; -1.7765436E+01;  4.0000000E+04;  0.0000000E+00;  3.9704371E+04;  1.5467334E+00;  0.0000000E+00;  4.7393492E-05;  6.9711958E+03;
  1.2906164E+00;  9.9999998E-03;  1.5057403E-01;9766;  1.8683177E+00;  0.0000000E+00;  2.2554221E-02;  9.9909113E+02;  1.0297664E-01; -6.6130969E+02;3; -2.5963884E+01;  0.0000000E+00; -4.9756823E+00;0;  1.5505233E+00;  3.7930648E+04;  0.0000000E+00; -1.7593899E+01;  4.0000000E+04;  0.0000000E+00;  3.9707352E+04;  1.5749046E+00;  0.0000000E+00; -2.4381254E-02;  6.8302837E+03;
  1.2905841E+00;  9.9999998E-03;  1.6063949E-01;9767;  1.8589863E+00;  0.0000000E+00;  2.1858148E-02;  9.9916376E+02;  1.0297549E-01; -6.0851550E+02;3; -3.2641602E+01;  0.0000000E+00; -4.5091968E+00;0;  1.5498806E+00;  3.7935578E+04;  0.0000000E+00; -1.6597559E+01;  4.0000000E+04;  0.0000000E+00;  3.9708262E+04;  1.5950432E+00;  0.0000000E+00; -4.5162551E-02;  6.3524287E+03;
  1.2905638E+00;  9.9999998E-03;  1.7070550E-01;9768;  1.8486345E+00;  0.0000000E+00;  2.1261005E-02;  9.9919928E+02;  1.0297483E-01; -5.8268402E+02;3; -3.8993690E+01;  0.0000000E+00; -3.8698454E+00;0;  1.5457666E+00;  3.7941590E+04;  0.0000000E+00; -1.5706319E+01;  4.0000000E+04;  0.0000000E+00;  3.9705059E+04;  1.6059129E+00;  0.0000000E+00; -6.0146321E-02;  5.9624751E+03;
  1.2905887E+00;  9.9999998E-03;  1.8076606E-01;9769;  1.8357457E+00;  0.0000000E+00;  2.0949421E-02;  9.9889056E+02;  1.0297515E-01; -8.0728564E+02;3; -4.5699390E+01;  0.0000000E+00; -2.6637149E+00;0;  1.5231707E+00;  3.7923645E+04;  0.0000000E+00; -1.5888079E+01;  4.0000000E+04;  0.0000000E+00;  3.9699477E+04;  1.5887686E+00;  0.0000000E+00; -6.5597951E-02;  6.1294072E+03;
  1.2907027E+00;  9.9999998E-03;  1.9081438E-01;9770;  1.8170695E+00;  0.0000000E+00;  2.1979969E-02;  9.9769971E+02;  1.0297679E-01; -1.6735615E+03;3; -5.2669315E+01;  0.0000000E+00; -3.4093398E-01;0;  1.4522970E+00;  3.7837070E+04;  0.0000000E+00; -1.7197031E+01;  4.0000000E+04;  0.0000000E+00;  3.9695891E+04;  1.5012976E+00;  0.0000000E+00; -4.9000680E-02;  6.9386616E+03;
  1.2908227E+00;  9.9999998E-03;  2.0085236E-01;9771;  1.7965620E+00;  0.0000000E+00;  2.4617575E-02;  9.9629028E+02;  1.0297916E-01; -2.6984470E+03;3; -5.8508675E+01;  0.0000000E+00;  1.3912973E+00;0;  1.3767511E+00;  3.7733129E+04;  0.0000000E+00; -1.2610871E+01;  4.0000000E+04;  0.0000000E+00;  3.9694371E+04;  1.3770155E+00;  0.0000000E+00; -2.6436592E-04;  5.4502612E+03;
  1.2908921E+00;  9.9999998E-03;  2.1087980E-01;9772;  1.7749834E+00;  0.0000000E+00;  2.8405381E-02;  9.9529688E+02;  1.0298094E-01; -3.4206484E+03;3; -6.3064449E+01;  0.0000000E+00;  2.3091278E+00;0;  1.3096598E+00;  3.7657105E+04;  0.0000000E+00;  3.7757974E+00;  4.0000000E+04;  0.0000000E+00;  3.9696453E+04;  1.2278931E+00;  0.0000000E+00;  8.1766702E-02;  2.8838025E+03;
  1.2908297E+00;  9.9999998E-03;  2.2090064E-01;9773;  1.7550824E+00;  0.0000000E+00;  3.0324465E-02;  9.9572906E+02;  1.0298001E-01; -3.1066121E+03;3; -6.7429543E+01;  0.0000000E+00;  1.4192338E+00;0;  1.2549038E+00;  3.7687105E+04;  0.0000000E+00;  3.0193874E+01;  4.0000000E+04;  0.0000000E+00;  3.9699098E+04;  1.0961611E+00;  0.0000000E+00;  1.5874271E-01;  1.2695438E+04;
  1.3006322E+00;  9.9999998E-03;  7.0153698E-02;9802;  1.8502455E+00;  0.0000000E+00;  1.2085370E-02;  1.0005674E+03;  1.0289643E-01;  4.0615378E+02;3;  9.2843580E+00;  0.0000000E+00;  1.3578956E+00;0;  1.2751753E+00;  3.8132793E+04;  0.0000000E+00; -9.2847204E+00;  4.0000000E+04;  0.0000000E+00;  3.9674227E+04;  1.1252290E+00;  0.0000000E+00;  1.4994636E-01;  3.4581809E+03;
  1.3006614E+00;  9.9999998E-03;  8.0197833E-02;9803;  1.8570504E+00;  0.0000000E+00;  1.4195989E-02;  1.0004726E+03;  1.0289617E-01;  3.3821707E+02;3;  8.4769363E+00;  0.0000000E+00;  2.0909653E+00;0;  1.2920134E+00;  3.8125184E+04;  0.0000000E+00; -1.1361271E+01;  4.0000000E+04;  0.0000000E+00;  3.9675191E+04;  1.1547433E+00;  0.0000000E+00;  1.3727006E-01;  4.2056284E+03;
  1.3006811E+00;  9.9999998E-03;  9.0244941E-02;9804;  1.8643039E+00;  0.0000000E+00;  1.7069660E-02;  1.0004077E+03;  1.0289591E-01;  2.9179193E+02;3;  7.0746026E+00;  0.0000000E+00;  3.0282023E+00;0;  1.3152616E+00;  3.8118371E+04;  0.0000000E+00; -1.3278648E+01;  4.0000000E+04;  0.0000000E+00;  3.9677434E+04;  1.1921746E+00;  0.0000000E+00;  1.2308706E-01;  4.8834360E+03;
  1.3007011E+00;  9.9999998E-03;  1.0029940E-01;9805;  1.8713083E+00;  0.0000000E+00;  2.0533176E-02;  1.0003253E+03;  1.0289562E-01;  2.3282835E+02;3;  5.0012121E+00;  0.0000000E+00;  3.7437167E+00;0;  1.3453672E+00;  3.8109492E+04;  0.0000000E+00; -1.4984631E+01;  4.0000000E+04;  0.0000000E+00;  3.9680371E+04;  1.2374371E+00;  0.0000000E+00;  1.0793000E-01;  5.4734844E+03;
  1.3007246E+00;  9.9999998E-03;  1.1036432E-01;9806;  1.8773860E+00;  0.0000000E+00;  2.4436444E-02;  1.0001946E+03;  1.0289539E-01;  1.3923068E+02;3;  1.9155223E+00;  0.0000000E+00;  4.0882096E+00;0;  1.3829885E+00;  3.8097203E+04;  0.0000000E+00; -1.6511770E+01;  4.0000000E+04;  0.0000000E+00;  3.9683121E+04;  1.2900240E+00;  0.0000000E+00;  9.2964470E-02;  5.9902578E+03;
  1.3007520E+00;  9.9999998E-03;  1.2043767E-01;9807;  1.8818301E+00;  0.0000000E+00;  2.8306661E-02;  9.9999658E+02;  1.0289557E-01; -2.4313040E+00;3; -2.4795864E+00;  0.0000000E+00;  3.9169655E+00;0;  1.4273425E+00;  3.8080559E+04;  0.0000000E+00; -1.7915720E+01;  4.0000000E+04;  0.0000000E+00;  3.9684781E+04;  1.3481089E+00;  0.0000000E+00;  7.9233699E-02;  6.4572148E+03;
  1.3007737E+00;  9.9999998E-03;  1.3051412E-01;9808;  1.8836588E+00;  0.0000000E+00;  3.0736806E-02;  9.9977966E+02;  1.0289537E-01; -1.5768764E+02;3; -1.1152210E+01;  0.0000000E+00; -4.8676682E-01;0;  1.4712888E+00;  3.8064074E+04;  0.0000000E+00; -1.9077925E+01;  4.0000000E+04;  0.0000000E+00;  3.9685203E+04;  1.4064584E+00;  0.0000000E+00;  6.4830437E-02;  6.8318584E+03;
  1.3007803E+00;  9.9999998E-03;  1.4058225E-01;9809;  1.8786392E+00;  0.0000000E+00;  3.0365638E-02;  9.9966980E+02;  1.0289541E-01; -2.3629420E+02;3; -1.8933493E+01;  0.0000000E+00; -2.2771518E+00;0;  1.4725592E+00;  3.8054781E+04;  0.0000000E+00; -1.9449835E+01;  4.0000000E+04;  0.0000000E+00;  3.9686523E+04;  1.4295167E+00;  0.0000000E+00;  4.3042589E-02;  6.9203174E+03;
  1.3007678E+00;  9.9999998E-03;  1.5064132E-01;9810;  1.8708203E+00;  0.0000000E+00;  3.0318866E-02;  9.9976013E+02;  1.0289498E-01; -1.7163687E+02;3; -2.5023338E+01;  0.0000000E+00; -2.5116413E+00;0;  1.4604830E+00;  3.8058961E+04;  0.0000000E+00; -1.8624872E+01;  4.0000000E+04;  0.0000000E+00;  3.9689457E+04;  1.4353474E+00;  0.0000000E+00;  2.5135569E-02;  6.5781929E+03;
  1.3007649E+00;  9.9999998E-03;  1.6070032E-01;9811;  1.8618683E+00;  0.0000000E+00;  3.0581992E-02;  9.9980182E+02;  1.0289435E-01; -1.4182292E+02;3; -3.1266705E+01;  0.0000000E+00; -2.6965818E+00;0;  1.4470147E+00;  3.8061645E+04;  0.0000000E+00; -1.7598558E+01;  4.0000000E+04;  0.0000000E+00;  3.9690203E+04;  1.4327451E+00;  0.0000000E+00;  1.4269635E-02;  6.2035728E+03;
  1.3008089E+00;  9.9999998E-03;  1.7076124E-01;9812;  1.8494941E+00;  0.0000000E+00;  3.0903321E-02;  9.9936450E+02;  1.0289440E-01; -4.5473740E+02;3; -3.8633663E+01;  0.0000000E+00; -2.0249281E+00;0;  1.4065250E+00;  3.8032523E+04;  0.0000000E+00; -1.7621496E+01;  4.0000000E+04;  0.0000000E+00;  3.9686074E+04;  1.3948752E+00;  0.0000000E+00;  1.1649861E-02;  6.3029160E+03;
  1.3009121E+00;  9.9999998E-03;  1.8081903E-01;9813;  1.8325477E+00;  0.0000000E+00;  3.1448122E-02;  9.9818658E+02;  1.0289571E-01; -1.2973625E+03;3; -4.5225391E+01;  0.0000000E+00;  9.9650812E-01;0;  1.3198249E+00;  3.7951332E+04;  0.0000000E+00; -1.7608412E+01;  4.0000000E+04;  0.0000000E+00;  3.9678055E+04;  1.2993705E+00;  0.0000000E+00;  2.0454442E-02;  6.4941665E+03;
  1.3010173E+00;  9.9999998E-03;  1.9086692E-01;9814;  1.8139169E+00;  0.0000000E+00;  3.3640694E-02;  9.9683844E+02;  1.0289779E-01; -2.2614470E+03;3; -5.1644058E+01;  0.0000000E+00;  3.2870145E+00;0;  1.2321171E+00;  3.7857438E+04;  0.0000000E+00; -1.1819496E+01;  4.0000000E+04;  0.0000000E+00;  3.9670289E+04;  1.1737394E+00;  0.0000000E+00;  5.8377638E-02;  4.6475918E+03;
  1.3010789E+00;  9.9999998E-03;  2.0089807E-01;9815;  1.7945762E+00;  0.0000000E+00;  3.7206244E-02;  9.9593781E+02;  1.0289965E-01; -2.9053545E+03;3; -5.6812325E+01;  0.0000000E+00;  3.7867727E+00;0;  1.1625164E+00;  3.7790254E+04;  0.0000000E+00;  4.5302935E+00;  4.0000000E+04;  0.0000000E+00;  3.9669844E+04;  1.0327286E+00;  0.0000000E+00;  1.2978776E-01;  2.6780474E+03;
  1.3010298E+00;  9.9999998E-03;  2.1091795E-01;9816;  1.7769874E+00;  0.0000000E+00;  3.9157178E-02;  9.9635034E+02;  1.0289902E-01; -2.6105291E+03;3; -6.0243538E+01;  0.0000000E+00;  3.0693305E+00;0;  1.1156509E+00;  3.7817031E+04;  0.0000000E+00;  2.9823240E+01;  4.0000000E+04;  0.0000000E+00;  3.9674434E+04;  9.1552645E-01;  0.0000000E+00;  2.0012443E-01;  1.1287374E+04;
  1.3107939E+00;  9.9999998E-03;  7.0214696E-02;9844;  1.8553038E+00;  0.0000000E+00;  1.2088739E-02;  1.0006207E+03;  1.0282646E-01;  4.3629776E+02;3;  1.0383291E+01;  0.0000000E+00;  3.4986179E+00;0;  1.2108014E+00;  3.8208422E+04;  0.0000000E+00; -1.0949254E+01;  4.0000000E+04;  0.0000000E+00;  3.9654586E+04;  1.0398095E+00;  0.0000000E+00;  1.7099191E-01;  3.6448113E+03;
  1.3108120E+00;  9.9999998E-03;  8.0263130E-02;9845;  1.8625852E+00;  0.0000000E+00;  1.5010704E-02;  1.0006404E+03;  1.0282648E-01;  4.5010797E+02;3;  9.3283539E+00;  0.0000000E+00;  4.2922430E+00;0;  1.2297926E+00;  3.8207934E+04;  0.0000000E+00; -1.3143734E+01;  4.0000000E+04;  0.0000000E+00;  3.9656938E+04;  1.0709318E+00;  0.0000000E+00;  1.5886076E-01;  4.3550249E+03;
  1.3108311E+00;  9.9999998E-03;  9.0317644E-02;9846;  1.8700134E+00;  0.0000000E+00;  1.8742109E-02;  1.0006491E+03;  1.0282592E-01;  4.5620837E+02;3;  7.5833116E+00;  0.0000000E+00;  5.0847373E+00;0;  1.2563086E+00;  3.8206172E+04;  0.0000000E+00; -1.5154195E+01;  4.0000000E+04;  0.0000000E+00;  3.9659812E+04;  1.1103215E+00;  0.0000000E+00;  1.4598702E-01;  4.9954722E+03;
  1.3108538E+00;  9.9999998E-03;  1.0038079E-01;9847;  1.8769586E+00;  0.0000000E+00;  2.3155773E-02;  1.0006153E+03;  1.0282592E-01;  4.3239511E+02;3;  5.1022096E+00;  0.0000000E+00;  5.5132113E+00;0;  1.2905946E+00;  3.8201227E+04;  0.0000000E+00; -1.6991957E+01;  4.0000000E+04;  0.0000000E+00;  3.9662445E+04;  1.1572309E+00;  0.0000000E+00;  1.3336366E-01;  5.5715981E+03;
  1.3108791E+00;  9.9999998E-03;  1.1045276E-01;9848;  1.8831848E+00;  0.0000000E+00;  2.8273443E-02;  1.0005263E+03;  1.0282595E-01;  3.6987689E+02;3;  1.7026941E+00;  0.0000000E+00;  5.5977144E+00;0;  1.3359544E+00;  3.8193539E+04;  0.0000000E+00; -1.8688990E+01;  4.0000000E+04;  0.0000000E+00;  3.9663688E+04;  1.2127645E+00;  0.0000000E+00;  1.2318997E-01;  6.0949443E+03;
  1.3109043E+00;  9.9999998E-03;  1.2052907E-01;9849;  1.8889970E+00;  0.0000000E+00;  3.4293815E-02;  1.0003973E+03;  1.0282572E-01;  2.7921677E+02;3; -3.2577746E+00;  0.0000000E+00;  3.6042762E+00;0;  1.4018533E+00;  3.8184336E+04;  0.0000000E+00; -2.0174690E+01;  4.0000000E+04;  0.0000000E+00;  3.9663402E+04;  1.2820355E+00;  0.0000000E+00;  1.1981784E-01;  6.5456870E+03;
  1.3109232E+00;  9.9999998E-03;  1.3060056E-01;9850;  1.8890173E+00;  0.0000000E+00;  3.4637857E-02;  1.0003024E+03;  1.0282569E-01;  2.1252562E+02;3; -1.0454077E+01;  0.0000000E+00; -7.6648265E-01;0;  1.4225737E+00;  3.8177660E+04;  0.0000000E+00; -2.1037685E+01;  4.0000000E+04;  0.0000000E+00;  3.9662746E+04;  1.3217235E+00;  0.0000000E+00;  1.0085023E-01;  6.7970713E+03;
  1.3109236E+00;  9.9999998E-03;  1.4065646E-01;9851;  1.8836708E+00;  0.0000000E+00;  3.4617141E-02;  1.0004338E+03;  1.0282557E-01;  3.0484042E+02;3; -1.5865405E+01;  0.0000000E+00; -1.1033400E+00;0;  1.4048315E+00;  3.8184684E+04;  0.0000000E+00; -2.0346369E+01;  4.0000000E+04;  0.0000000E+00;  3.9665930E+04;  1.3234823E+00;  0.0000000E+00;  8.1349246E-02;  6.5433677E+03;
  1.3109404E+00;  9.9999998E-03;  1.5071304E-01;9852;  1.8754908E+00;  0.0000000E+00;  3.6436878E-02;  1.0004090E+03;  1.0282525E-01;  2.8740723E+02;3; -2.2156141E+01;  0.0000000E+00; -9.1014129E-01;0;  1.3782229E+00;  3.8181543E+04;  0.0000000E+00; -1.9392574E+01;  4.0000000E+04;  0.0000000E+00;  3.9667344E+04;  1.3020011E+00;  0.0000000E+00;  7.6221786E-02;  6.2422520E+03;
  1.3110083E+00;  9.9999998E-03;  1.6077816E-01;9853;  1.8623283E+00;  0.0000000E+00;  3.8162790E-02;  9.9972229E+02;  1.0282576E-01; -1.9511232E+02;3; -3.0228508E+01;  0.0000000E+00;  2.8044122E-01;0;  1.3062727E+00;  3.8135695E+04;  0.0000000E+00; -1.9342432E+01;  4.0000000E+04;  0.0000000E+00;  3.9660723E+04;  1.2268046E+00;  0.0000000E+00;  7.9468191E-02;  6.3074629E+03;
  1.3111093E+00;  9.9999998E-03;  1.7084147E-01;9854;  1.8467588E+00;  0.0000000E+00;  3.8811821E-02;  9.9849304E+02;  1.0282750E-01; -1.0586168E+03;3; -3.7290276E+01;  0.0000000E+00;  3.1899157E+00;0;  1.2021160E+00;  3.8053766E+04;  0.0000000E+00; -1.7712025E+01;  4.0000000E+04;  0.0000000E+00;  3.9649059E+04;  1.1178888E+00;  0.0000000E+00;  8.4227249E-02;  5.9000815E+03;
  1.3112056E+00;  9.9999998E-03;  1.8089397E-01;9855;  1.8304763E+00;  0.0000000E+00;  4.0630188E-02;  9.9718237E+02;  1.0282958E-01; -1.9789559E+03;3; -4.3832729E+01;  0.0000000E+00;  5.2367415E+00;0;  1.1068294E+00;  3.7966004E+04;  0.0000000E+00; -9.9373503E+00;  4.0000000E+04;  0.0000000E+00;  3.9637305E+04;  9.9575078E-01;  0.0000000E+00;  1.1107865E-01;  3.5273879E+03;
  1.3112485E+00;  9.9999998E-03;  1.9092630E-01;9856;  1.8139170E+00;  0.0000000E+00;  4.3469172E-02;  9.9653137E+02;  1.0283109E-01; -2.4359907E+03;3; -4.9832790E+01;  0.0000000E+00;  5.6920748E+00;0;  1.0347376E+00;  3.7919160E+04;  0.0000000E+00;  7.4588785E+00;  4.0000000E+04;  0.0000000E+00;  3.9634906E+04;  8.7046587E-01;  0.0000000E+00;  1.6427171E-01;  2.8950413E+03;
  1.3112026E+00;  9.9999998E-03;  2.0093915E-01;9857;  1.7979171E+00;  0.0000000E+00;  4.6341330E-02;  9.9709540E+02;  1.0283011E-01; -2.0400455E+03;3; -5.3502331E+01;  0.0000000E+00;  4.6805496E+00;0;  9.9361598E-01;  3.7951848E+04;  0.0000000E+00;  3.1982710E+01;  4.0000000E+04;  0.0000000E+00;  3.9645473E+04;  7.5796080E-01;  0.0000000E+00;  2.3565519E-01;  1.0799654E+04;
  1.3209305E+00;  9.9999998E-03;  7.0311390E-02;9883;  1.8639609E+00;  0.0000000E+00;  1.3561171E-02;  1.0008436E+03;  1.0276815E-01;  5.8148462E+02;3;  1.2661706E+01;  0.0000000E+00;  5.0206280E+00;0;  1.1639531E+00;  3.8294707E+04;  0.0000000E+00; -1.2680354E+01;  4.0000000E+04;  0.0000000E+00;  3.9628914E+04;  9.7277766E-01;  0.0000000E+00;  1.9117534E-01;  3.7683640E+03;
  1.3209532E+00;  9.9999998E-03;  8.0365025E-02;9884;  1.8721578E+00;  0.0000000E+00;  1.7319327E-02;  1.0009120E+03;  1.0276755E-01;  6.2853680E+02;3;  1.1817127E+01;  0.0000000E+00;  5.3283954E+00;0;  1.1939429E+00;  3.8297754E+04;  0.0000000E+00; -1.5094454E+01;  4.0000000E+04;  0.0000000E+00;  3.9631441E+04;  1.0133687E+00;  0.0000000E+00;  1.8057418E-01;  4.4664321E+03;
  1.3209777E+00;  9.9999998E-03;  9.0424098E-02;9885;  1.8807198E+00;  0.0000000E+00;  2.2014288E-02;  1.0009594E+03;  1.0276733E-01;  6.6120471E+02;3;  1.0424762E+01;  0.0000000E+00;  5.4451351E+00;0;  1.2371904E+00;  3.8299254E+04;  0.0000000E+00; -1.7304195E+01;  4.0000000E+04;  0.0000000E+00;  3.9633863E+04;  1.0665300E+00;  0.0000000E+00;  1.7066039E-01;  5.0977393E+03;
  1.3210053E+00;  9.9999998E-03;  1.0048874E-01;9886;  1.8892953E+00;  0.0000000E+00;  2.7851200E-02;  1.0009605E+03;  1.0276745E-01;  6.6190747E+02;3;  8.1941109E+00;  0.0000000E+00;  5.4624557E+00;0;  1.2976273E+00;  3.8297863E+04;  0.0000000E+00; -1.9271584E+01;  4.0000000E+04;  0.0000000E+00;  3.9635555E+04;  1.1336150E+00;  0.0000000E+00;  1.6401236E-01;  5.6537798E+03;
  1.3210354E+00;  9.9999998E-03;  1.1055986E-01;9887;  1.8981338E+00;  0.0000000E+00;  3.5203449E-02;  1.0008985E+03;  1.0276705E-01;  6.1915057E+02;3;  4.7784009E+00;  0.0000000E+00;  4.4919009E+00;0;  1.3868028E+00;  3.8293555E+04;  0.0000000E+00; -2.1012478E+01;  4.0000000E+04;  0.0000000E+00;  3.9635316E+04;  1.2210816E+00;  0.0000000E+00;  1.6572122E-01;  6.1434697E+03;
  1.3210628E+00;  9.9999998E-03;  1.2062527E-01;9888;  1.9016634E+00;  0.0000000E+00;  3.5993580E-02;  1.0008502E+03;  1.0276692E-01;  5.8584827E+02;3; -1.3306197E+00;  0.0000000E+00;  5.1472578E-02;0;  1.4264265E+00;  3.8289727E+04;  0.0000000E+00; -2.1959503E+01;  4.0000000E+04;  0.0000000E+00;  3.9635512E+04;  1.2781001E+00;  0.0000000E+00;  1.4832643E-01;  6.4055737E+03;
  1.3210820E+00;  9.9999998E-03;  1.3067631E-01;9889;  1.8973697E+00;  0.0000000E+00;  3.6383796E-02;  1.0009308E+03;  1.0276693E-01;  6.4135284E+02;3; -6.4426904E+00;  0.0000000E+00; -4.3162964E-02;0;  1.3964131E+00;  3.8291738E+04;  0.0000000E+00; -2.1403961E+01;  4.0000000E+04;  0.0000000E+00;  3.9639805E+04;  1.2673193E+00;  0.0000000E+00;  1.2909378E-01;  6.2329321E+03;
  1.3211231E+00;  9.9999998E-03;  1.4073843E-01;9890;  1.8884689E+00;  0.0000000E+00;  3.8598422E-02;  1.0006813E+03;  1.0276739E-01;  4.6939407E+02;3; -1.3073584E+01;  0.0000000E+00;  8.1382608E-01;0;  1.3330334E+00;  3.8274289E+04;  0.0000000E+00; -2.0822248E+01;  4.0000000E+04;  0.0000000E+00;  3.9638031E+04;  1.2105536E+00;  0.0000000E+00;  1.2247981E-01;  6.0815547E+03;
  1.3211937E+00;  9.9999998E-03;  1.5081215E-01;9891;  1.8759593E+00;  0.0000000E+00;  4.0256165E-02;  9.9990216E+02;  1.0276827E-01; -6.7381157E+01;3; -2.0351379E+01;  0.0000000E+00;  2.3611608E+00;0;  1.2307860E+00;  3.8226496E+04;  0.0000000E+00; -1.9868431E+01;  4.0000000E+04;  0.0000000E+00;  3.9625793E+04;  1.1115572E+00;  0.0000000E+00;  1.1922874E-01;  5.8459434E+03;
  1.3212833E+00;  9.9999998E-03;  1.6088331E-01;9892;  1.8619494E+00;  0.0000000E+00;  4.0955070E-02;  9.9870673E+02;  1.0276972E-01; -8.9078198E+02;3; -2.8082407E+01;  0.0000000E+00;  4.4366941E+00;0;  1.1092899E+00;  3.8153426E+04;  0.0000000E+00; -1.5951571E+01;  4.0000000E+04;  0.0000000E+00;  3.9607559E+04;  9.9310851E-01;  0.0000000E+00;  1.1618139E-01;  4.7417285E+03;
  1.3213670E+00;  9.9999998E-03;  1.7093664E-01;9893;  1.8480741E+00;  0.0000000E+00;  4.2557038E-02;  9.9752167E+02;  1.0277160E-01; -1.7067235E+03;3; -3.4818211E+01;  0.0000000E+00;  6.3720732E+00;0;  1.0080259E+00;  3.8077457E+04;  0.0000000E+00; -5.4482040E+00;  4.0000000E+04;  0.0000000E+00;  3.9593008E+04;  8.7820417E-01;  0.0000000E+00;  1.2982178E-01;  1.7063855E+03;
  1.3213975E+00;  9.9999998E-03;  1.8095991E-01;9894;  1.8335291E+00;  0.0000000E+00;  4.6120755E-02;  9.9715509E+02;  1.0277251E-01; -1.9590410E+03;3; -4.0981197E+01;  0.0000000E+00;  7.2561626E+00;0;  9.3723565E-01;  3.8047027E+04;  0.0000000E+00;  1.3381645E+01;  4.0000000E+04;  0.0000000E+00;  3.9596031E+04;  7.6031256E-01;  0.0000000E+00;  1.7692308E-01;  4.0711794E+03;
  1.3310772E+00;  9.9999998E-03;  7.0428401E-02;9919;  1.8816255E+00;  0.0000000E+00;  1.7091462E-02;  1.0010781E+03;  1.0271817E-01;  7.2765363E+02;3;  1.7992743E+01;  0.0000000E+00;  4.7504015E+00;0;  1.2028100E+00;  3.8382770E+04;  0.0000000E+00; -1.4629140E+01;  4.0000000E+04;  0.0000000E+00;  3.9595539E+04;  9.8954940E-01;  0.0000000E+00;  2.1326062E-01;  3.8907766E+03;
  1.3311075E+00;  9.9999998E-03;  8.0480702E-02;9920;  1.8918452E+00;  0.0000000E+00;  2.2000549E-02;  1.0011484E+03;  1.0271805E-01;  7.7499268E+02;3;  1.7141106E+01;  0.0000000E+00;  4.9306154E+00;0;  1.2684445E+00;  3.8385945E+04;  0.0000000E+00; -1.7097137E+01;  4.0000000E+04;  0.0000000E+00;  3.9598098E+04;  1.0619574E+00;  0.0000000E+00;  2.0648718E-01;  4.5244399E+03;
  1.3311402E+00;  9.9999998E-03;  9.0536684E-02;9921;  1.9022661E+00;  0.0000000E+00;  2.8519386E-02;  1.0011874E+03;  1.0271792E-01;  8.0132495E+02;3;  1.5532095E+01;  0.0000000E+00;  5.1107731E+00;0;  1.3546678E+00;  3.8386602E+04;  0.0000000E+00; -1.9213366E+01;  4.0000000E+04;  0.0000000E+00;  3.9600367E+04;  1.1502669E+00;  0.0000000E+00;  2.0440085E-01;  5.0638579E+03;
  1.3311774E+00;  9.9999998E-03;  1.0059834E-01;9922;  1.9113361E+00;  0.0000000E+00;  3.5775732E-02;  1.0011442E+03;  1.0271771E-01;  7.7206146E+02;3;  1.2258626E+01;  0.0000000E+00;  3.6604342E+00;0;  1.4501981E+00;  3.8382352E+04;  0.0000000E+00; -2.0954447E+01;  4.0000000E+04;  0.0000000E+00;  3.9601496E+04;  1.2420382E+00;  0.0000000E+00;  2.0815977E-01;  5.5076699E+03;
  1.3312154E+00;  9.9999998E-03;  1.1065435E-01;9923;  1.9132193E+00;  0.0000000E+00;  3.6352523E-02;  1.0010832E+03;  1.0271760E-01;  7.3081689E+02;3;  6.9670825E+00;  0.0000000E+00;  1.4235555E+00;0;  1.4611752E+00;  3.8375562E+04;  0.0000000E+00; -2.1721254E+01;  4.0000000E+04;  0.0000000E+00;  3.9603867E+04;  1.2705853E+00;  0.0000000E+00;  1.9058987E-01;  5.7000205E+03;
  1.3312532E+00;  9.9999998E-03;  1.2071116E-01;9924;  1.9088860E+00;  0.0000000E+00;  3.7433941E-02;  1.0009862E+03;  1.0271759E-01;  6.6537079E+02;3;  1.8052752E+00;  0.0000000E+00;  1.7095454E+00;0;  1.4096038E+00;  3.8366789E+04;  0.0000000E+00; -2.1480099E+01;  4.0000000E+04;  0.0000000E+00;  3.9605168E+04;  1.2354186E+00;  0.0000000E+00;  1.7418531E-01;  5.6358691E+03;
  1.3313022E+00;  9.9999998E-03;  1.3078162E-01;9925;  1.9009091E+00;  0.0000000E+00;  3.9167713E-02;  1.0006099E+03;  1.0271797E-01;  4.1142038E+02;3; -4.1470971E+00;  0.0000000E+00;  2.4845314E+00;0;  1.3231353E+00;  3.8344711E+04;  0.0000000E+00; -2.0525461E+01;  4.0000000E+04;  0.0000000E+00;  3.9598336E+04;  1.1602989E+00;  0.0000000E+00;  1.6283630E-01;  5.3976934E+03;
  1.3313639E+00;  9.9999998E-03;  1.4086230E-01;9926;  1.8901764E+00;  0.0000000E+00;  3.9709754E-02;  9.9987360E+02;  1.0271911E-01; -8.5272415E+01;3; -1.0473970E+01;  0.0000000E+00;  3.3367560E+00;0;  1.2005199E+00;  3.8305617E+04;  0.0000000E+00; -1.7760441E+01;  4.0000000E+04;  0.0000000E+00;  3.9580586E+04;  1.0531439E+00;  0.0000000E+00;  1.4737611E-01;  4.6949399E+03;
  1.3314334E+00;  9.9999998E-03;  1.5093869E-01;9927;  1.8793273E+00;  0.0000000E+00;  3.9380059E-02;  9.9887415E+02;  1.0272083E-01; -7.5929785E+02;3; -1.6528992E+01;  0.0000000E+00;  4.0962667E+00;0;  1.0777646E+00;  3.8252492E+04;  0.0000000E+00; -1.0774531E+01;  4.0000000E+04;  0.0000000E+00;  3.9556402E+04;  9.4949931E-01;  0.0000000E+00;  1.2826528E-01;  2.8990027E+03;
  1.3314964E+00;  9.9999998E-03;  1.6098320E-01;9928;  1.8670411E+00;  0.0000000E+00;  4.0801015E-02;  9.9803564E+02;  1.0272241E-01; -1.3245828E+03;3; -2.3161736E+01;  0.0000000E+00;  5.9232330E+00;0;  9.6231592E-01;  3.8199203E+04;  0.0000000E+00;  2.8946171E+00;  4.0000000E+04;  0.0000000E+00;  3.9545289E+04;  8.3390725E-01;  0.0000000E+00;  1.2840870E-01;  8.3867035E+02;
  1.3315158E+00;  9.9999998E-03;  1.7098872E-01;9929;  1.8535458E+00;  0.0000000E+00;  4.5604777E-02;  9.9804449E+02;  1.0272301E-01; -1.3185796E+03;3; -3.0127247E+01;  0.0000000E+00;  7.3067770E+00;0;  8.8497180E-01;  3.8185473E+04;  0.0000000E+00;  2.2709997E+01;  4.0000000E+04;  0.0000000E+00;  3.9560195E+04;  7.1134454E-01;  0.0000000E+00;  1.7362727E-01;  6.0483501E+03;
  1.3412560E+00;  9.9999998E-03;  7.0511661E-02;9953;  1.9041032E+00;  0.0000000E+00;  2.2624794E-02;  1.0011179E+03;  1.0267829E-01;  7.3782593E+02;3;  2.2395588E+01;  0.0000000E+00;  4.7840776E+00;0;  1.3498034E+00;  3.8448898E+04;  0.0000000E+00; -1.5214222E+01;  4.0000000E+04;  0.0000000E+00;  3.9561852E+04;  1.1097156E+00;  0.0000000E+00;  2.4008788E-01;  3.6196909E+03;
  1.3412933E+00;  9.9999998E-03;  8.0561742E-02;9954;  1.9107870E+00;  0.0000000E+00;  2.8663464E-02;  1.0011425E+03;  1.0267814E-01;  7.5396960E+02;3;  2.0619904E+01;  0.0000000E+00;  5.2164898E+00;0;  1.4008479E+00;  3.8447488E+04;  0.0000000E+00; -1.7172434E+01;  4.0000000E+04;  0.0000000E+00;  3.9565277E+04;  1.1612619E+00;  0.0000000E+00;  2.3958597E-01;  4.0589868E+03;
  1.3413345E+00;  9.9999998E-03;  9.0623565E-02;9955;  1.9170756E+00;  0.0000000E+00;  3.4589291E-02;  1.0010800E+03;  1.0267784E-01;  7.1268060E+02;3;  1.7714573E+01;  0.0000000E+00;  5.0163665E+00;0;  1.4591169E+00;  3.8441848E+04;  0.0000000E+00; -1.8798950E+01;  4.0000000E+04;  0.0000000E+00;  3.9566289E+04;  1.2181333E+00;  0.0000000E+00;  2.4098366E-01;  4.4297148E+03;
  1.3413775E+00;  9.9999998E-03;  1.0069085E-01;9956;  1.9198701E+00;  0.0000000E+00;  3.6297303E-02;  1.0009381E+03;  1.0267770E-01;  6.1893353E+02;3;  1.3185919E+01;  0.0000000E+00;  3.2063463E+00;0;  1.4707321E+00;  3.8432398E+04;  0.0000000E+00; -1.9642189E+01;  4.0000000E+04;  0.0000000E+00;  3.9564699E+04;  1.2420714E+00;  0.0000000E+00;  2.2866067E-01;  4.6246660E+03;
  1.3414207E+00;  9.9999998E-03;  1.1075936E-01;9957;  1.9174221E+00;  0.0000000E+00;  3.6930364E-02;  1.0007366E+03;  1.0267766E-01;  4.8595987E+02;3;  8.5991325E+00;  0.0000000E+00;  3.4608357E+00;0;  1.4160650E+00;  3.8420699E+04;  0.0000000E+00; -1.9127527E+01;  4.0000000E+04;  0.0000000E+00;  3.9560711E+04;  1.2057171E+00;  0.0000000E+00;  2.1034783E-01;  4.5071021E+03;
  1.3414661E+00;  9.9999998E-03;  1.2083910E-01;9958;  1.9120816E+00;  0.0000000E+00;  3.7419703E-02;  1.0003519E+03;  1.0267837E-01;  2.3214206E+02;3;  4.1816573E+00;  0.0000000E+00;  3.7278476E+00;0;  1.3276776E+00;  3.8403641E+04;  0.0000000E+00; -1.6897072E+01;  4.0000000E+04;  0.0000000E+00;  3.9547984E+04;  1.1373264E+00;  0.0000000E+00;  1.9035128E-01;  4.0087258E+03;
  1.3415166E+00;  9.9999998E-03;  1.3092494E-01;9959;  1.9063019E+00;  0.0000000E+00;  3.6981985E-02;  9.9971423E+02;  1.0267911E-01; -1.8847594E+02;3;  8.7852508E-02;  0.0000000E+00;  3.8615029E+00;0;  1.2360215E+00;  3.8377180E+04;  0.0000000E+00; -1.1547434E+01;  4.0000000E+04;  0.0000000E+00;  3.9525031E+04;  1.0719000E+00;  0.0000000E+00;  1.6412145E-01;  2.8618333E+03;
  1.3415695E+00;  9.9999998E-03;  1.4098944E-01;9960;  1.8975167E+00;  0.0000000E+00;  3.6608495E-02;  9.9901990E+02;  1.0268040E-01; -6.4637866E+02;3; -5.3886423E+00;  0.0000000E+00;  4.1909590E+00;0;  1.1117586E+00;  3.8343109E+04;  0.0000000E+00; -1.0201393E+00;  4.0000000E+04;  0.0000000E+00;  3.9505473E+04;  9.7389829E-01;  0.0000000E+00;  1.3786034E-01;  1.1325497E+03;
  1.3416077E+00;  9.9999998E-03;  1.5101542E-01;9961;  1.8871074E+00;  0.0000000E+00;  3.8021401E-02;  9.9870850E+02;  1.0268109E-01; -8.5170129E+02;3; -1.1298410E+01;  0.0000000E+00;  5.4601450E+00;0;  9.9254143E-01;  3.8319461E+04;  0.0000000E+00;  1.5172657E+01;  4.0000000E+04;  0.0000000E+00;  3.9505164E+04;  8.6389452E-01;  0.0000000E+00;  1.2864694E-01;  3.7059546E+03;
  1.3416085E+00;  9.9999998E-03;  1.6100182E-01;9962;  1.8743347E+00;  0.0000000E+00;  4.3591887E-02;  9.9922913E+02;  1.0268100E-01; -5.0835471E+02;3; -1.8150618E+01;  0.0000000E+00;  6.5861611E+00;0;  9.0117669E-01;  3.8331273E+04;  0.0000000E+00;  3.4694405E+01;  4.0000000E+04;  0.0000000E+00;  3.9534152E+04;  7.3179662E-01;  0.0000000E+00;  1.6938004E-01;  8.2179912E+03;
  1.3514472E+00;  9.9999998E-03;  7.0560202E-02;9984;  1.9103820E+00;  0.0000000E+00;  2.6409693E-02;  1.0009624E+03;  1.0264324E-01;  6.2036023E+02;3;  2.2952753E+01;  0.0000000E+00;  5.9279027E+00;0;  1.3392351E+00;  3.8492926E+04;  0.0000000E+00; -1.2853814E+01;  4.0000000E+04;  0.0000000E+00;  3.9531223E+04;  1.0748645E+00;  0.0000000E+00;  2.6437059E-01;  2.7185254E+03;
  1.3514868E+00;  9.9999998E-03;  8.0638871E-02;9985;  1.9156203E+00;  0.0000000E+00;  3.0976949E-02;  1.0008583E+03;  1.0264274E-01;  5.5322388E+02;3;  2.0841120E+01;  0.0000000E+00;  6.2274270E+00;0;  1.3718131E+00;  3.8488016E+04;  0.0000000E+00; -1.4255813E+01;  4.0000000E+04;  0.0000000E+00;  3.9528234E+04;  1.1097778E+00;  0.0000000E+00;  2.6203525E-01;  3.0123093E+03;
  1.3515291E+00;  9.9999998E-03;  9.0722494E-02;9986;  1.9198438E+00;  0.0000000E+00;  3.4364510E-02;  1.0006580E+03;  1.0264252E-01;  4.2409583E+02;3;  1.7904484E+01;  0.0000000E+00;  5.8205214E+00;0;  1.3943808E+00;  3.8479496E+04;  0.0000000E+00; -1.4564484E+01;  4.0000000E+04;  0.0000000E+00;  3.9521434E+04;  1.1382570E+00;  0.0000000E+00;  2.5612372E-01;  3.0896938E+03;
  1.3515711E+00;  9.9999998E-03;  1.0080851E-01;9987;  1.9228011E+00;  0.0000000E+00;  3.5129957E-02;  1.0003832E+03;  1.0264271E-01;  2.4690372E+02;3;  1.4496587E+01;  0.0000000E+00;  4.3569465E+00;0;  1.3969758E+00;  3.8469664E+04;  0.0000000E+00; -1.3003238E+01;  4.0000000E+04;  0.0000000E+00;  3.9509984E+04;  1.1585625E+00;  0.0000000E+00;  2.3841323E-01;  2.8093511E+03;
  1.3516121E+00;  9.9999998E-03;  1.1089503E-01;9988;  1.9230918E+00;  0.0000000E+00;  3.4508936E-02;  1.0000165E+03;  1.0264307E-01;  1.0600316E+01;3;  1.1355828E+01;  0.0000000E+00;  4.0058165E+00;0;  1.3612897E+00;  3.8458695E+04;  0.0000000E+00; -8.5830765E+00;  4.0000000E+04;  0.0000000E+00;  3.9492531E+04;  1.1504461E+00;  0.0000000E+00;  2.1084367E-01;  2.0633052E+03;
  1.3516515E+00;  9.9999998E-03;  1.2096764E-01;9989;  1.9195331E+00;  0.0000000E+00;  3.3578269E-02;  9.9962787E+02;  1.0264374E-01; -2.3975214E+02;3;  8.4165411E+00;  0.0000000E+00;  4.2391644E+00;0;  1.2737522E+00;  3.8446047E+04;  0.0000000E+00; -7.8086391E-02;  4.0000000E+04;  0.0000000E+00;  3.9474766E+04;  1.0957863E+00;  0.0000000E+00;  1.7796586E-01;  1.3270934E+03;
  1.3516868E+00;  9.9999998E-03;  1.3101161E-01;9990;  1.9138731E+00;  0.0000000E+00;  3.3473272E-02;  9.9937091E+02;  1.0264427E-01; -4.0527518E+02;3;  4.6723304E+00;  0.0000000E+00;  4.6735101E+00;0;  1.1713274E+00;  3.8433785E+04;  0.0000000E+00;  1.3115538E+01;  4.0000000E+04;  0.0000000E+00;  3.9466887E+04;  1.0227009E+00;  0.0000000E+00;  1.4862642E-01;  3.0956069E+03;
  1.3517053E+00;  9.9999998E-03;  1.4101490E-01;9991;  1.9059579E+00;  0.0000000E+00;  3.5865426E-02;  9.9959937E+02;  1.0264482E-01; -2.5811450E+02;3;  1.4507112E-01;  0.0000000E+00;  5.5798950E+00;0;  1.0713946E+00;  3.8435715E+04;  0.0000000E+00;  2.9883726E+01;  4.0000000E+04;  0.0000000E+00;  3.9482789E+04;  9.2984396E-01;  0.0000000E+00;  1.4155056E-01;  6.3629858E+03;
  1.3616275E+00;  9.9999998E-03;  7.0628315E-02;10011;  1.9132071E+00;  0.0000000E+00;  2.8014123E-02;  1.0007279E+03;  1.0261508E-01;  4.5785184E+02;3;  2.3001692E+01;  0.0000000E+00;  7.2768636E+00;0;  1.2596445E+00;  3.8533711E+04;  0.0000000E+00; -7.3826776E+00;  4.0000000E+04;  0.0000000E+00;  3.9492520E+04;  9.7690815E-01;  0.0000000E+00;  2.8273642E-01;  1.4343453E+03;
  1.3616662E+00;  9.9999998E-03;  8.0722407E-02;10012;  1.9199831E+00;  0.0000000E+00;  3.2649733E-02;  1.0005210E+03;  1.0261499E-01;  3.2764859E+02;3;  2.0821198E+01;  0.0000000E+00;  7.3519516E+00;0;  1.3200691E+00;  3.8527195E+04;  0.0000000E+00; -6.2246056E+00;  4.0000000E+04;  0.0000000E+00;  3.9482832E+04;  1.0376313E+00;  0.0000000E+00;  2.8243780E-01;  1.2916572E+03;
  1.3617066E+00;  9.9999998E-03;  9.0823643E-02;10013;  1.9254431E+00;  0.0000000E+00;  3.4544878E-02;  1.0001929E+03;  1.0261521E-01;  1.2130048E+02;3;  1.8188152E+01;  0.0000000E+00;  6.0093231E+00;0;  1.3565626E+00;  3.8518414E+04;  0.0000000E+00; -2.7456341E+00;  4.0000000E+04;  0.0000000E+00;  3.9465961E+04;  1.0856016E+00;  0.0000000E+00;  2.7096108E-01;  1.0112980E+03;
  1.3617436E+00;  9.9999998E-03;  1.0090638E-01;10014;  1.9274896E+00;  0.0000000E+00;  3.4331534E-02;  9.9991473E+02;  1.0261551E-01; -5.3635742E+01;3;  1.5563985E+01;  0.0000000E+00;  5.2297778E+00;0;  1.3357413E+00;  3.8512023E+04;  0.0000000E+00;  4.1829109E+00;  4.0000000E+04;  0.0000000E+00;  3.9450469E+04;  1.0891085E+00;  0.0000000E+00;  2.4663277E-01;  1.3966698E+03;
  1.3617744E+00;  9.9999998E-03;  1.1096035E-01;10015;  1.9271729E+00;  0.0000000E+00;  3.3566259E-02;  9.9980414E+02;  1.0261574E-01; -1.2315426E+02;3;  1.3081396E+01;  0.0000000E+00;  4.9842215E+00;0;  1.2826927E+00;  3.8510340E+04;  0.0000000E+00;  1.4874268E+01;  4.0000000E+04;  0.0000000E+00;  3.9443480E+04;  1.0671784E+00;  0.0000000E+00;  2.1551435E-01;  3.0562776E+03;
  1.3617938E+00;  9.9999998E-03;  1.2098273E-01;10016;  1.9232087E+00;  0.0000000E+00;  3.3193555E-02;  1.0000126E+03;  1.0261591E-01;  7.9450603E+00;3;  1.1230171E+01;  0.0000000E+00;  5.0096955E+00;0;  1.1845322E+00;  3.8518707E+04;  0.0000000E+00;  2.8661945E+01;  4.0000000E+04;  0.0000000E+00;  3.9451328E+04;  1.0004414E+00;  0.0000000E+00;  1.8409073E-01;  5.4618506E+03;
  1.3717904E+00;  9.9999998E-03;  7.0644729E-02;10033;  1.9167562E+00;  0.0000000E+00;  3.0592738E-02;  1.0007650E+03;  1.0259066E-01;  4.6920480E+02;3;  2.3271866E+01;  0.0000000E+00;  8.8189087E+00;0;  1.1864703E+00;  3.8581168E+04;  0.0000000E+00;  3.1515541E+00;  4.0000000E+04;  0.0000000E+00;  3.9464926E+04;  8.8088059E-01;  0.0000000E+00;  3.0558965E-01;  5.9440723E+02;
  1.3718250E+00;  9.9999998E-03;  8.0735832E-02;10034;  1.9225762E+00;  0.0000000E+00;  3.3465043E-02;  1.0005867E+03;  1.0259055E-01;  3.5978751E+02;3;  2.1432501E+01;  0.0000000E+00;  8.1306896E+00;0;  1.2295127E+00;  3.8576488E+04;  0.0000000E+00;  8.3603649E+00;  4.0000000E+04;  0.0000000E+00;  3.9455926E+04;  9.2965734E-01;  0.0000000E+00;  2.9985538E-01;  1.4427805E+03;
  1.3718568E+00;  9.9999998E-03;  9.0814687E-02;10035;  1.9265838E+00;  0.0000000E+00;  3.5497479E-02;  1.0004608E+03;  1.0259059E-01;  2.8263110E+02;3;  1.9464071E+01;  0.0000000E+00;  7.5949025E+00;0;  1.2450314E+00;  3.8574723E+04;  0.0000000E+00;  1.6498734E+01;  4.0000000E+04;  0.0000000E+00;  3.9447801E+04;  9.5542461E-01;  0.0000000E+00;  2.8960678E-01;  2.7761150E+03;
 -3.7433213E-04;  9.9999998E-03;  2.4001652E-01;2501;  5.3670980E-02;  0.0000000E+00; -2.5597787E-02;  9.9672546E+02;  1.0000000E-01; -2.7129109E+03;3; -2.4393375E+00;  0.0000000E+00; -4.3514744E+01;0;  1.2210244E+00;  3.9791480E+04;  0.0000000E+00; -3.1014389E-01;  4.0000000E+04;  0.0000000E+00;  3.9942742E+04;  1.1739607E+00;  0.0000000E+00;  4.7063764E-02;  6.9076519E+03;
 -3.9294022E-04;  9.9999998E-03;  2.5004342E-01;2502;  3.4435004E-02;  0.0000000E+00; -1.9955166E-02;  9.9747980E+02;  1.0000000E-01; -2.0879409E+03;3; -1.3650808E+01;  0.0000000E+00; -4.6804157E+01;0;  1.1037153E+00;  3.9856992E+04;  0.0000000E+00; -2.8654209E-01;  4.0000000E+04;  0.0000000E+00;  3.9937637E+04;  1.0374420E+00;  0.0000000E+00;  6.6273347E-02;  7.5932773E+03;
 -3.8916894E-04;  9.9999998E-03;  2.6006791E-01;2503;  2.1030914E-02;  0.0000000E+00; -1.5799735E-02;  9.9816113E+02;  1.0000000E-01; -1.5234631E+03;3; -2.2041771E+01;  0.0000000E+00; -5.1091404E+01;0;  9.8442960E-01;  3.9913836E+04;  0.0000000E+00; -2.4973464E-01;  4.0000000E+04;  0.0000000E+00;  3.9935473E+04;  9.0066755E-01;  0.0000000E+00;  8.3762050E-02;  7.8987642E+03;
 -3.6709011E-04;  9.9999998E-03;  2.7009016E-01;2504;  1.3022693E-02;  0.0000000E+00; -1.3248482E-02;  9.9875409E+02;  1.0000000E-01; -1.0322178E+03;3; -2.6898548E+01;  0.0000000E+00; -5.5177387E+01;0;  8.6572284E-01;  3.9960691E+04;  0.0000000E+00; -2.0489112E-01;  4.0000000E+04;  0.0000000E+00;  3.9936629E+04;  7.6698816E-01;  0.0000000E+00;  9.8734692E-02;  7.8098403E+03;
 -3.3265457E-04;  9.9999998E-03;  2.8011039E-01;2505;  8.7041082E-03;  0.0000000E+00; -1.1910966E-02;  9.9924670E+02;  1.0000000E-01; -6.2408112E+02;3; -2.7848417E+01;  0.0000000E+00; -5.7800945E+01;0;  7.4983442E-01;  3.9996684E+04;  0.0000000E+00; -1.5755019E-01;  4.0000000E+04;  0.0000000E+00;  3.9940535E+04;  6.3951498E-01;  0.0000000E+00;  1.1031941E-01;  7.3507812E+03;
 -2.9071589E-04;  9.9999998E-03;  2.9012963E-01;2506;  6.2823850E-03;  0.0000000E+00; -1.1477021E-02;  9.9963562E+02;  1.0000000E-01; -3.0186801E+02;3; -2.5875938E+01;  0.0000000E+00; -5.8700565E+01;0;  6.3858259E-01;  4.0022027E+04;  0.0000000E+00; -1.1262453E-01;  4.0000000E+04;  0.0000000E+00;  3.9946824E+04;  5.2100974E-01;  0.0000000E+00;  1.1757284E-01;  6.5903721E+03;
  9.7086411E-03;  9.9999998E-03;  2.3996079E-01;2561;  8.1053555E-02;  0.0000000E+00; -3.6553625E-02;  9.9582794E+02;  1.0000000E-01; -3.4564949E+03;3;  3.0862262E+00;  0.0000000E+00; -2.9083437E+01;0;  1.2447795E+00;  3.9728211E+04;  0.0000000E+00; -3.7878498E-01;  4.0000000E+04;  0.0000000E+00;  3.9934590E+04;  1.1986489E+00;  0.0000000E+00;  4.6130542E-02;  7.8548135E+03;
  9.6699810E-03;  9.9999998E-03;  2.4998805E-01;2562;  5.9895746E-02;  0.0000000E+00; -3.3099148E-02;  9.9665070E+02;  1.0000000E-01; -2.7748352E+03;3; -7.2273960E+00;  0.0000000E+00; -3.9038013E+01;0;  1.1383623E+00;  3.9800973E+04;  0.0000000E+00; -3.6221713E-01;  4.0000000E+04;  0.0000000E+00;  3.9927227E+04;  1.0701904E+00;  0.0000000E+00;  6.8171903E-02;  8.8098076E+03;
  9.6544977E-03;  9.9999998E-03;  2.6001588E-01;2563;  4.3006141E-02;  0.0000000E+00; -2.9769966E-02;  9.9741266E+02;  1.0000000E-01; -2.1435444E+03;3; -1.5536558E+01;  0.0000000E+00; -4.9997990E+01;0;  1.0268854E+00;  3.9865707E+04;  0.0000000E+00; -3.2762164E-01;  4.0000000E+04;  0.0000000E+00;  3.9923637E+04;  9.3834388E-01;  0.0000000E+00;  8.8541485E-02;  9.3282178E+03;
  9.6594421E-03;  9.9999998E-03;  2.7004355E-01;2564;  3.0356703E-02;  0.0000000E+00; -2.6710302E-02;  9.9809399E+02;  1.0000000E-01; -1.5790664E+03;3; -2.1169371E+01;  0.0000000E+00; -6.0070831E+01;0;  9.1300523E-01;  3.9920609E+04;  0.0000000E+00; -2.7977645E-01;  4.0000000E+04;  0.0000000E+00;  3.9923633E+04;  8.0667090E-01;  0.0000000E+00;  1.0633432E-01;  9.3798477E+03;
  9.6812677E-03;  9.9999998E-03;  2.8007007E-01;2565;  2.1603171E-02;  0.0000000E+00; -2.4196547E-02;  9.9868103E+02;  1.0000000E-01; -1.0927593E+03;3; -2.3494579E+01;  0.0000000E+00; -6.6622345E+01;0;  7.9927492E-01;  3.9964465E+04;  0.0000000E+00; -2.2471549E-01;  4.0000000E+04;  0.0000000E+00;  3.9927215E+04;  6.7872518E-01;  0.0000000E+00;  1.2054975E-01;  8.9785420E+03;
  9.7158430E-03;  9.9999998E-03;  2.9009601E-01;2566;  1.5560963E-02;  0.0000000E+00; -2.2205971E-02;  9.9916486E+02;  1.0000000E-01; -6.9188165E+02;3; -2.2019951E+01;  0.0000000E+00; -6.8892853E+01;0;  6.8782234E-01;  3.9997145E+04;  0.0000000E+00; -1.6860794E-01;  4.0000000E+04;  0.0000000E+00;  3.9933777E+04;  5.5778790E-01;  0.0000000E+00;  1.3003445E-01;  8.1906899E+03;
  9.7574880E-03;  9.9999998E-03;  3.0012488E-01;2567;  1.0578294E-02;  0.0000000E+00; -2.0330999E-02;  9.9954010E+02;  1.0000000E-01; -3.8102628E+02;3; -1.9263468E+01;  0.0000000E+00; -6.8057610E+01;0;  5.8026975E-01;  4.0019051E+04;  0.0000000E+00; -1.1688087E-01;  4.0000000E+04;  0.0000000E+00;  3.9942422E+04;  4.4669241E-01;  0.0000000E+00;  1.3357733E-01;  7.1372368E+03;
  1.9797966E-02;  9.9999998E-03;  2.3991121E-01;2622;  9.7348988E-02;  0.0000000E+00; -3.4131475E-02;  9.9492407E+02;  1.0000000E-01; -4.2053130E+03;3;  9.7423544E+00;  0.0000000E+00; -1.5615054E+01;0;  1.2233728E+00;  3.9663121E+04;  0.0000000E+00; -4.1687799E-01;  4.0000000E+04;  0.0000000E+00;  3.9927738E+04;  1.1823332E+00;  0.0000000E+00;  4.1039597E-02;  8.6228418E+03;
  1.9738046E-02;  9.9999998E-03;  2.4993394E-01;2623;  7.5259827E-02;  0.0000000E+00; -3.3152342E-02;  9.9578961E+02;  1.0000000E-01; -3.4882471E+03;3;  1.9365232E+00;  0.0000000E+00; -2.4909348E+01;0;  1.1342418E+00;  3.9741488E+04;  0.0000000E+00; -4.1218641E-01;  4.0000000E+04;  0.0000000E+00;  3.9918059E+04;  1.0685357E+00;  0.0000000E+00;  6.5706193E-02;  9.8945703E+03;
  1.9703040E-02;  9.9999998E-03;  2.5995862E-01;2624;  5.7098474E-02;  0.0000000E+00; -3.2427188E-02;  9.9661005E+02;  1.0000000E-01; -2.8085132E+03;3; -4.1598864E+00;  0.0000000E+00; -3.7157673E+01;0;  1.0368668E+00;  3.9812910E+04;  0.0000000E+00; -3.8626990E-01;  4.0000000E+04;  0.0000000E+00;  3.9912379E+04;  9.4790888E-01;  0.0000000E+00;  8.8957906E-02;  1.0681833E+04;
  1.9691043E-02;  9.9999998E-03;  2.6998582E-01;2625;  4.2956818E-02;  0.0000000E+00; -3.1989075E-02;  9.9736450E+02;  1.0000000E-01; -2.1834443E+03;3; -8.6579199E+00;  0.0000000E+00; -5.0569725E+01;0;  9.3370318E-01;  3.9875105E+04;  0.0000000E+00; -3.4233004E-01;  4.0000000E+04;  0.0000000E+00;  3.9910809E+04;  8.2399857E-01;  0.0000000E+00;  1.0970464E-01;  1.0934028E+04;
  1.9698728E-02;  9.9999998E-03;  2.8001526E-01;2626;  3.2317843E-02;  0.0000000E+00; -3.1665836E-02;  9.9803705E+02;  1.0000000E-01; -1.6262750E+03;3; -1.1088707E+01;  0.0000000E+00; -6.2205688E+01;0;  8.2734466E-01;  3.9926629E+04;  0.0000000E+00; -2.8578404E-01;  4.0000000E+04;  0.0000000E+00;  3.9913375E+04;  7.0060682E-01;  0.0000000E+00;  1.2673786E-01;  1.0648803E+04;
  1.9722711E-02;  9.9999998E-03;  2.9004720E-01;2627;  2.4040477E-02;  0.0000000E+00; -3.0946955E-02;  9.9861224E+02;  1.0000000E-01; -1.1497452E+03;3; -1.1138158E+01;  0.0000000E+00; -6.9641235E+01;0;  7.2016817E-01;  3.9966590E+04;  0.0000000E+00; -2.2330384E-01;  4.0000000E+04;  0.0000000E+00;  3.9919871E+04;  5.8148736E-01;  0.0000000E+00;  1.3868083E-01;  9.8831631E+03;
  1.9757207E-02;  9.9999998E-03;  3.0008397E-01;2628;  1.6874859E-02;  0.0000000E+00; -2.9308397E-02;  9.9908270E+02;  1.0000000E-01; -7.5997852E+02;3; -9.2024364E+00;  0.0000000E+00; -7.2023079E+01;0;  6.1413157E-01;  3.9995457E+04;  0.0000000E+00; -1.6164255E-01;  4.0000000E+04;  0.0000000E+00;  3.9929156E+04;  4.7006840E-01;  0.0000000E+00;  1.4406320E-01;  8.7575361E+03;
  2.9901270E-02;  9.9999998E-03;  2.3985894E-01;2683;  1.1069725E-01;  0.0000000E+00; -2.8457539E-02;  9.9406403E+02;  1.0000000E-01; -4.9178364E+03;3;  1.7931551E+01;  0.0000000E+00; -9.8319740E+00;0;  1.1649499E+00;  3.9599836E+04;  0.0000000E+00; -4.0421021E-01;  4.0000000E+04;  0.0000000E+00;  3.9923008E+04;  1.1326121E+00;  0.0000000E+00;  3.2337725E-02;  9.1563467E+03;
  2.9815994E-02;  9.9999998E-03;  2.4987911E-01;2684;  8.6841382E-02;  0.0000000E+00; -2.8009932E-02;  9.9493970E+02;  1.0000000E-01; -4.1923755E+03;3;  1.3153654E+01;  0.0000000E+00; -1.8348852E+01;0;  1.0971491E+00;  3.9681613E+04;  0.0000000E+00; -4.1788381E-01;  4.0000000E+04;  0.0000000E+00;  3.9910488E+04;  1.0380239E+00;  0.0000000E+00;  5.9125226E-02;  1.0778150E+04;
  2.9756116E-02;  9.9999998E-03;  2.5990224E-01;2685;  6.6821694E-02;  0.0000000E+00; -2.8237561E-02;  9.9579517E+02;  1.0000000E-01; -3.4836052E+03;3;  9.6306190E+00;  0.0000000E+00; -3.0388702E+01;0;  1.0181187E+00;  3.9757938E+04;  0.0000000E+00; -4.1009587E-01;  4.0000000E+04;  0.0000000E+00;  3.9902234E+04;  9.3318802E-01;  0.0000000E+00;  8.4930673E-02;  1.1878985E+04;
  2.9721618E-02;  9.9999998E-03;  2.6993066E-01;2686;  5.0618865E-02;  0.0000000E+00; -2.8979938E-02;  9.9660455E+02;  1.0000000E-01; -2.8130562E+03;3;  6.9235682E+00;  0.0000000E+00; -4.4157852E+01;0;  9.2986310E-01;  3.9826227E+04;  0.0000000E+00; -3.8078907E-01;  4.0000000E+04;  0.0000000E+00;  3.9898688E+04;  8.2141733E-01;  0.0000000E+00;  1.0844575E-01;  1.2384026E+04;
  2.9710682E-02;  9.9999998E-03;  2.7996385E-01;2687;  3.7880596E-02;  0.0000000E+00; -3.0009903E-02;  9.9734808E+02;  1.0000000E-01; -2.1970737E+03;3;  4.7709284E+00;  0.0000000E+00; -5.6940441E+01;0;  8.3486319E-01;  3.9884516E+04;  0.0000000E+00; -3.3300993E-01;  4.0000000E+04;  0.0000000E+00;  3.9900004E+04;  7.0662999E-01;  0.0000000E+00;  1.2823322E-01;  1.2269559E+04;
  2.9721452E-02;  9.9999998E-03;  2.8999960E-01;2688;  2.7980445E-02;  0.0000000E+00; -3.0999498E-02;  9.9800482E+02;  1.0000000E-01; -1.6529902E+03;3;  3.5444310E+00;  0.0000000E+00; -6.6108910E+01;0;  7.3566985E-01;  3.9931645E+04;  0.0000000E+00; -2.7248845E-01;  4.0000000E+04;  0.0000000E+00;  3.9905980E+04;  5.9298277E-01;  0.0000000E+00;  1.4268711E-01;  1.1577171E+04;
  2.9749895E-02;  9.9999998E-03;  3.0004245E-01;2689;  1.9952035E-02;  0.0000000E+00; -3.1457439E-02;  9.9856482E+02;  1.0000000E-01; -1.1890034E+03;3;  4.1940980E+00;  0.0000000E+00; -6.9943512E+01;0;  6.3449407E-01;  3.9967367E+04;  0.0000000E+00; -2.0651631E-01;  4.0000000E+04;  0.0000000E+00;  3.9915488E+04;  4.8439765E-01;  0.0000000E+00;  1.5009645E-01;  1.0422763E+04;
  4.0011037E-02;  9.9999998E-03;  2.3980513E-01;2744;  1.2446469E-01;  0.0000000E+00; -2.3832537E-02;  9.9327240E+02;  1.0000000E-01; -5.5736694E+03;3;  2.7010647E+01;  0.0000000E+00; -4.1611238E+00;0;  1.0794485E+00;  3.9540152E+04;  0.0000000E+00; -3.2488391E-01;  4.0000000E+04;  0.0000000E+00;  3.9920375E+04;  1.0588645E+00;  0.0000000E+00;  2.0584036E-02;  9.4158438E+03;
  3.9897464E-02;  9.9999998E-03;  2.4982499E-01;2745;  9.8730206E-02;  0.0000000E+00; -2.3007544E-02;  9.9412946E+02;  1.0000000E-01; -4.8636157E+03;3;  2.6428690E+01;  0.0000000E+00; -1.1693092E+01;0;  1.0350738E+00;  3.9622902E+04;  0.0000000E+00; -3.6542675E-01;  4.0000000E+04;  0.0000000E+00;  3.9905023E+04;  9.8614097E-01;  0.0000000E+00;  4.8932817E-02;  1.1404513E+04;
  3.9809838E-02;  9.9999998E-03;  2.5984848E-01;2746;  7.6179951E-02;  0.0000000E+00; -2.2893829E-02;  9.9499146E+02;  1.0000000E-01; -4.1494629E+03;3;  2.6224279E+01;  0.0000000E+00; -2.4260248E+01;0;  9.7687399E-01;  3.9702137E+04;  0.0000000E+00; -3.8837191E-01;  4.0000000E+04;  0.0000000E+00;  3.9893969E+04;  9.0002978E-01;  0.0000000E+00;  7.6844215E-02;  1.2847941E+04;
  3.9749201E-02;  9.9999998E-03;  2.6987901E-01;2747;  5.7296854E-02;  0.0000000E+00; -2.3437841E-02;  9.9583148E+02;  1.0000000E-01; -3.4535320E+03;3;  2.5506315E+01;  0.0000000E+00; -4.0328285E+01;0;  9.0621221E-01;  3.9774910E+04;  0.0000000E+00; -3.8819531E-01;  4.0000000E+04;  0.0000000E+00;  3.9888176E+04;  8.0342960E-01;  0.0000000E+00;  1.0278264E-01;  1.3644156E+04;
  3.9717294E-02;  9.9999998E-03;  2.7991769E-01;2748;  4.2105012E-02;  0.0000000E+00; -2.4598250E-02;  9.9662683E+02;  1.0000000E-01; -2.7945876E+03;3;  2.3680649E+01;  0.0000000E+00; -5.6164997E+01;0;  8.2524866E-01;  3.9838922E+04;  0.0000000E+00; -3.6319378E-01;  4.0000000E+04;  0.0000000E+00;  3.9887840E+04;  7.0017290E-01;  0.0000000E+00;  1.2507574E-01;  1.3745039E+04;
  3.9712865E-02;  9.9999998E-03;  2.8995913E-01;2749;  3.0199422E-02;  0.0000000E+00; -2.6220076E-02;  9.9735406E+02;  1.0000000E-01; -2.1920862E+03;3;  2.1111155E+01;  0.0000000E+00; -6.7666985E+01;0;  7.3656768E-01;  3.9892523E+04;  0.0000000E+00; -3.1614414E-01;  4.0000000E+04;  0.0000000E+00;  3.9892805E+04;  5.9467334E-01;  0.0000000E+00;  1.4189433E-01;  1.3171954E+04;
  3.9733879E-02;  9.9999998E-03;  3.0001000E-01;2750;  2.1017835E-02;  0.0000000E+00; -2.7824607E-02;  9.9799908E+02;  1.0000000E-01; -1.6577308E+03;3;  1.9592211E+01;  0.0000000E+00; -7.2087563E+01;0;  6.4262205E-01;  3.9934973E+04;  0.0000000E+00; -2.5372565E-01;  4.0000000E+04;  0.0000000E+00;  3.9902336E+04;  4.9126977E-01;  0.0000000E+00;  1.5135227E-01;  1.2031503E+04;
  5.0117362E-02;  9.9999998E-03;  2.3975766E-01;2805;  1.3870287E-01;  0.0000000E+00; -2.0689711E-02;  9.9256250E+02;  1.0000000E-01; -6.1618506E+03;3;  3.5687057E+01;  0.0000000E+00;  1.2611463E+00;0;  9.7675830E-01;  3.9484312E+04;  0.0000000E+00; -1.7205209E-01;  4.0000000E+04;  0.0000000E+00;  3.9920129E+04;  9.7049892E-01;  0.0000000E+00;  6.2593594E-03;  9.3749355E+03;
  4.9974967E-02;  9.9999998E-03;  2.4977750E-01;2806;  1.1169529E-01;  0.0000000E+00; -1.9459007E-02;  9.9336517E+02;  1.0000000E-01; -5.4968320E+03;3;  4.0463131E+01;  0.0000000E+00; -4.6111460E+00;0;  9.5611376E-01;  3.9565461E+04;  0.0000000E+00; -2.4934429E-01;  4.0000000E+04;  0.0000000E+00;  3.9901891E+04;  9.2051315E-01;  0.0000000E+00;  3.5600610E-02;  1.1728479E+04;
  4.9857963E-02;  9.9999998E-03;  2.5980258E-01;2807;  8.6709209E-02;  0.0000000E+00; -1.8728349E-02;  9.9420142E+02;  1.0000000E-01; -4.8040122E+03;3;  4.4960911E+01;  0.0000000E+00; -1.6381851E+01;0;  9.1968733E-01;  3.9645273E+04;  0.0000000E+00; -3.1775677E-01;  4.0000000E+04;  0.0000000E+00;  3.9888020E+04;  8.5452569E-01;  0.0000000E+00;  6.5161638E-02;  1.3526320E+04;
  4.9770731E-02;  9.9999998E-03;  2.6983476E-01;2808;  6.4854339E-02;  0.0000000E+00; -1.8583249E-02;  9.9505011E+02;  1.0000000E-01; -4.1008716E+03;3;  4.7543419E+01;  0.0000000E+00; -3.3745522E+01;0;  8.6796886E-01;  3.9720738E+04;  0.0000000E+00; -3.6370811E-01;  4.0000000E+04;  0.0000000E+00;  3.9879691E+04;  7.7481848E-01;  0.0000000E+00;  9.3150392E-02;  1.4636376E+04;
  4.9717300E-02;  9.9999998E-03;  2.7987784E-01;2809;  4.6946671E-02;  0.0000000E+00; -1.9159712E-02;  9.9587939E+02;  1.0000000E-01; -3.4138293E+03;3;  4.6770260E+01;  0.0000000E+00; -5.3601917E+01;0;  8.0259591E-01;  3.9789273E+04;  0.0000000E+00; -3.7790248E-01;  4.0000000E+04;  0.0000000E+00;  3.9877477E+04;  6.8494499E-01;  0.0000000E+00;  1.1765094E-01;  1.4983891E+04;
  4.9698208E-02;  9.9999998E-03;  2.8992599E-01;2810;  3.3039775E-02;  0.0000000E+00; -2.0500204E-02;  9.9666437E+02;  1.0000000E-01; -2.7635269E+03;3;  4.2753586E+01;  0.0000000E+00; -7.0150803E+01;0;  7.2600377E-01;  3.9848559E+04;  0.0000000E+00; -3.5787663E-01;  4.0000000E+04;  0.0000000E+00;  3.9881219E+04;  5.8937681E-01;  0.0000000E+00;  1.3662696E-01;  1.4567313E+04;
  4.9711205E-02;  9.9999998E-03;  2.9998571E-01;2811;  2.2544097E-02;  0.0000000E+00; -2.2442985E-02;  9.9738635E+02;  1.0000000E-01; -2.1653708E+03;3;  3.7557198E+01;  0.0000000E+00; -7.7982834E+01;0;  6.4084941E-01;  3.9897473E+04;  0.0000000E+00; -3.0835238E-01;  4.0000000E+04;  0.0000000E+00;  3.9890320E+04;  4.9276912E-01;  0.0000000E+00;  1.4808030E-01;  1.3479706E+04;
  6.0214654E-02;  9.9999998E-03;  2.3972210E-01;2866;  1.5306431E-01;  0.0000000E+00; -1.9031916E-02;  9.9191687E+02;  1.0000000E-01; -6.6966997E+03;3;  4.1780041E+01;  0.0000000E+00;  6.9062095E+00;0;  8.6581367E-01;  3.9431234E+04;  0.0000000E+00;  4.9289182E-02;  4.0000000E+04;  0.0000000E+00;  3.9922551E+04;  8.7592936E-01;  0.0000000E+00; -1.0115687E-02;  9.0233672E+03;
  6.0044304E-02;  9.9999998E-03;  2.4974176E-01;2867;  1.2606481E-01;  0.0000000E+00; -1.7874148E-02;  9.9263513E+02;  1.0000000E-01; -6.1016548E+03;3;  5.3151474E+01;  0.0000000E+00;  2.4094002E+00;0;  8.6764699E-01;  3.9508191E+04;  0.0000000E+00; -7.2543979E-02;  4.0000000E+04;  0.0000000E+00;  3.9901398E+04;  8.4802282E-01;  0.0000000E+00;  1.9624200E-02;  1.1719087E+04;
  5.9897915E-02;  9.9999998E-03;  2.5976849E-01;2868;  9.9151723E-02;  0.0000000E+00; -1.6535163E-02;  9.9342206E+02;  1.0000000E-01; -5.4497227E+03;3;  6.3726475E+01;  0.0000000E+00; -7.7528653E+00;0;  8.5259104E-01;  3.9586434E+04;  0.0000000E+00; -1.9764185E-01;  4.0000000E+04;  0.0000000E+00;  3.9884824E+04;  8.0223238E-01;  0.0000000E+00;  5.0358638E-02;  1.3864231E+04;
  5.9783854E-02;  9.9999998E-03;  2.6980254E-01;2869;  7.4506231E-02;  0.0000000E+00; -1.5577047E-02;  9.9425220E+02;  1.0000000E-01; -4.7619395E+03;3;  7.1182991E+01;  0.0000000E+00; -2.4554777E+01;0;  8.2005525E-01;  3.9662785E+04;  0.0000000E+00; -3.0338389E-01;  4.0000000E+04;  0.0000000E+00;  3.9873934E+04;  7.4001914E-01;  0.0000000E+00;  8.0036134E-02;  1.5294797E+04;
  5.9708528E-02;  9.9999998E-03;  2.7984771E-01;2870;  5.3521074E-02;  0.0000000E+00; -1.5269448E-02;  9.9509705E+02;  1.0000000E-01; -4.0620085E+03;3;  7.3122604E+01;  0.0000000E+00; -4.6413567E+01;0;  7.7092642E-01;  3.9734434E+04;  0.0000000E+00; -3.7182370E-01;  4.0000000E+04;  0.0000000E+00;  3.9869578E+04;  6.6445327E-01;  0.0000000E+00;  1.0647316E-01;  1.5906367E+04;
  5.9675768E-02;  9.9999998E-03;  2.8990224E-01;2871;  3.6953546E-02;  0.0000000E+00; -1.5804814E-02;  9.9593036E+02;  1.0000000E-01; -3.3716084E+03;3;  6.8487167E+01;  0.0000000E+00; -6.7992203E+01;0;  7.0726520E-01;  3.9798645E+04;  0.0000000E+00; -3.9361009E-01;  4.0000000E+04;  0.0000000E+00;  3.9871926E+04;  5.7983184E-01;  0.0000000E+00;  1.2743337E-01;  1.5673857E+04;
  5.9682801E-02;  9.9999998E-03;  2.9996976E-01;2872;  2.4595220E-02;  0.0000000E+00; -1.7234592E-02;  9.9672113E+02;  1.0000000E-01; -2.7164663E+03;3;  5.9529003E+01;  0.0000000E+00; -8.1731483E+01;0;  6.3184392E-01;  3.9853773E+04;  0.0000000E+00; -3.6935315E-01;  4.0000000E+04;  0.0000000E+00;  3.9880375E+04;  4.9101520E-01;  0.0000000E+00;  1.4082870E-01;  1.4673751E+04;
  7.0302501E-02;  9.9999998E-03;  2.3970060E-01;2927;  1.6619442E-01;  0.0000000E+00; -1.7829752E-02;  9.9131744E+02;  1.0000000E-01; -7.1933276E+03;3;  4.4987595E+01;  0.0000000E+00;  1.3705452E+01;0;  7.5405693E-01;  3.9379215E+04;  0.0000000E+00;  3.3390018E-01;  4.0000000E+04;  0.0000000E+00;  3.9927562E+04;  7.8202033E-01;  0.0000000E+00; -2.7963411E-02;  8.3690791E+03;
  7.0105776E-02;  9.9999998E-03;  2.4971938E-01;2928;  1.4082761E-01;  0.0000000E+00; -1.7588058E-02;  9.9192084E+02;  1.0000000E-01; -6.6934404E+03;3;  6.3011799E+01;  0.0000000E+00;  1.0335999E+01;0;  7.7598453E-01;  3.9449344E+04;  0.0000000E+00;  1.7691809E-01;  4.0000000E+04;  0.0000000E+00;  3.9903824E+04;  7.7446163E-01;  0.0000000E+00;  1.5229210E-03;  1.1362041E+04;
  6.9931298E-02;  9.9999998E-03;  2.5974715E-01;2929;  1.1327572E-01;  0.0000000E+00; -1.6367298E-02;  9.9262933E+02;  1.0000000E-01; -6.1064443E+03;3;  8.0316971E+01;  0.0000000E+00;  1.5445293E+00;0;  7.8089827E-01;  3.9523730E+04;  0.0000000E+00;  9.3434332E-04;  4.0000000E+04;  0.0000000E+00;  3.9884574E+04;  7.4797827E-01;  0.0000000E+00;  3.2919984E-02;  1.3828218E+04;
  6.9789782E-02;  9.9999998E-03;  2.6978317E-01;2930;  8.6252905E-02;  0.0000000E+00; -1.4771052E-02;  9.9341986E+02;  1.0000000E-01; -5.4515000E+03;3;  9.3736816E+01;  0.0000000E+00; -1.4171612E+01;0;  7.6694179E-01;  3.9599312E+04;  0.0000000E+00; -1.6663256E-01;  4.0000000E+04;  0.0000000E+00;  3.9871172E+04;  7.0301861E-01;  0.0000000E+00;  6.3923210E-02;  1.5569453E+04;
  6.9693141E-02;  9.9999998E-03;  2.7982867E-01;2931;  6.2061142E-02;  0.0000000E+00; -1.3404116E-02;  9.9426794E+02;  1.0000000E-01; -4.7489028E+03;3;  9.9917122E+01;  0.0000000E+00; -3.6107986E+01;0;  7.3400491E-01;  3.9672777E+04;  0.0000000E+00; -3.0096355E-01;  4.0000000E+04;  0.0000000E+00;  3.9864680E+04;  6.4194328E-01;  0.0000000E+00;  9.2061631E-02;  1.6449602E+04;
  6.9646567E-02;  9.9999998E-03;  2.8988916E-01;2932;  4.2270638E-02;  0.0000000E+00; -1.2748032E-02;  9.9513855E+02;  1.0000000E-01; -4.0276392E+03;3;  9.6531303E+01;  0.0000000E+00; -6.0549992E+01;0;  6.8355525E-01;  3.9741344E+04;  0.0000000E+00; -3.8411364E-01;  4.0000000E+04;  0.0000000E+00;  3.9865527E+04;  5.6866193E-01;  0.0000000E+00;  1.1489329E-01;  1.6419865E+04;
  6.9648311E-02;  9.9999998E-03;  2.9996324E-01;2933;  2.7475212E-02;  0.0000000E+00; -1.3019989E-02;  9.9599664E+02;  1.0000000E-01; -3.3166963E+03;3;  8.4866524E+01;  0.0000000E+00; -8.0474426E+01;0;  6.1831838E-01;  3.9802648E+04;  0.0000000E+00; -4.0789476E-01;  4.0000000E+04;  0.0000000E+00;  3.9873074E+04;  4.8810056E-01;  0.0000000E+00;  1.3021782E-01;  1.5538710E+04;
  8.0383606E-02;  9.9999998E-03;  2.3969309E-01;2988;  1.7711093E-01;  0.0000000E+00; -1.6333235E-02;  9.9073608E+02;  1.0000000E-01; -7.6749922E+03;3;  4.5453102E+01;  0.0000000E+00;  2.1247292E+01;0;  6.4742565E-01;  3.9326148E+04;  0.0000000E+00;  7.0944846E-01;  4.0000000E+04;  0.0000000E+00;  3.9934914E+04;  6.9401455E-01;  0.0000000E+00; -4.6588913E-02;  7.4483965E+03;
  8.0162585E-02;  9.9999998E-03;  2.4971025E-01;2989;  1.5459605E-01;  0.0000000E+00; -1.7433463E-02;  9.9119812E+02;  1.0000000E-01; -7.2921885E+03;3;  6.9410645E+01;  0.0000000E+00;  1.9537411E+01;0;  6.8638432E-01;  3.9387027E+04;  0.0000000E+00;  5.6060874E-01;  4.0000000E+04;  0.0000000E+00;  3.9909105E+04;  7.0448655E-01;  0.0000000E+00; -1.8102214E-02;  1.0670094E+04;
  7.9962835E-02;  9.9999998E-03;  2.5973728E-01;2990;  1.2790160E-01;  0.0000000E+00; -1.7075039E-02;  9.9180450E+02;  1.0000000E-01; -6.7898320E+03;3;  9.3448524E+01;  0.0000000E+00;  1.2068971E+01;0;  7.0917314E-01;  3.9455457E+04;  0.0000000E+00;  3.6918533E-01;  4.0000000E+04;  0.0000000E+00;  3.9887527E+04;  6.9582963E-01;  0.0000000E+00;  1.3343535E-02;  1.3410935E+04;
  7.9794295E-02;  9.9999998E-03;  2.6977447E-01;2991;  9.9621296E-02;  0.0000000E+00; -1.5519714E-02;  9.9253955E+02;  1.0000000E-01; -6.1808618E+03;3;  1.1372493E+02;  0.0000000E+00; -2.5523250E+00;0;  7.1259642E-01;  3.9528504E+04;  0.0000000E+00;  1.5664795E-01;  4.0000000E+04;  0.0000000E+00;  3.9871703E+04;  6.6733795E-01;  0.0000000E+00;  4.5258481E-02;  1.5435561E+04;
  7.9675592E-02;  9.9999998E-03;  2.7982050E-01;2992;  7.2794624E-02;  0.0000000E+00; -1.3532843E-02;  9.9337506E+02;  1.0000000E-01; -5.4886343E+03;3;  1.2529934E+02;  0.0000000E+00; -2.3981274E+01;0;  6.9529378E-01;  3.9602918E+04;  0.0000000E+00; -5.0626218E-02;  4.0000000E+04;  0.0000000E+00;  3.9863117E+04;  6.2041491E-01;  0.0000000E+00;  7.4878857E-02;  1.6575426E+04;
  7.9613023E-02;  9.9999998E-03;  2.8988615E-01;2993;  4.9541198E-02;  0.0000000E+00; -1.1633272E-02;  9.9427698E+02;  1.0000000E-01; -4.7413965E+03;3;  1.2478029E+02;  0.0000000E+00; -4.9652630E+01;0;  6.5787661E-01;  3.9675496E+04;  0.0000000E+00; -2.2418164E-01;  4.0000000E+04;  0.0000000E+00;  3.9862242E+04;  5.5835921E-01;  0.0000000E+00;  9.9517398E-02;  1.6757982E+04;
  7.9609223E-02;  9.9999998E-03;  2.9996660E-01;2994;  3.1410027E-02;  0.0000000E+00; -1.0305014E-02;  9.9520184E+02;  1.0000000E-01; -3.9751958E+03;3;  1.1179962E+02;  0.0000000E+00; -7.3772095E+01;0;  6.0279578E-01;  3.9743098E+04;  0.0000000E+00; -3.3876997E-01;  4.0000000E+04;  0.0000000E+00;  3.9868719E+04;  4.8599166E-01;  0.0000000E+00;  1.1680414E-01;  1.6024507E+04;
  9.0462215E-02;  9.9999998E-03;  2.3969811E-01;3049;  1.8555303E-01;  0.0000000E+00; -1.4282653E-02;  9.9014923E+02;  1.0000000E-01; -8.1611514E+03;3;  4.4334206E+01;  0.0000000E+00;  2.8899002E+01;0;  5.5029577E-01;  3.9270656E+04;  0.0000000E+00;  1.2522653E+00;  4.0000000E+04;  0.0000000E+00;  3.9944645E+04;  6.1551148E-01;  0.0000000E+00; -6.5215692E-02;  6.3740786E+03;
  9.0220146E-02;  9.9999998E-03;  2.4971238E-01;3050;  1.6658641E-01;  0.0000000E+00; -1.6841918E-02;  9.9044739E+02;  1.0000000E-01; -7.9141460E+03;3;  7.2570900E+01;  0.0000000E+00;  2.9390900E+01;0;  6.0300148E-01;  3.9319949E+04;  0.0000000E+00;  1.2021022E+00;  4.0000000E+04;  0.0000000E+00;  3.9917211E+04;  6.4155960E-01;  0.0000000E+00; -3.8558155E-02;  9.7247529E+03;
  8.9996338E-02;  9.9999998E-03;  2.5973776E-01;3051;  1.4196378E-01;  0.0000000E+00; -1.7800165E-02;  9.9093079E+02;  1.0000000E-01; -7.5136636E+03;3;  1.0269537E+02;  0.0000000E+00;  2.3824883E+01;0;  6.4126468E-01;  3.9380277E+04;  0.0000000E+00;  1.0733659E+00;  4.0000000E+04;  0.0000000E+00;  3.9893461E+04;  6.4907229E-01;  0.0000000E+00; -7.8076124E-03;  1.2671264E+04;
  8.9801058E-02;  9.9999998E-03;  2.6977551E-01;3052;  1.1357701E-01;  0.0000000E+00; -1.6941804E-02;  9.9159277E+02;  1.0000000E-01; -6.9652344E+03;3;  1.2966469E+02;  0.0000000E+00;  1.0567587E+01;0;  6.6051048E-01;  3.9449445E+04;  0.0000000E+00;  8.6313450E-01;  4.0000000E+04;  0.0000000E+00;  3.9875547E+04;  6.3603067E-01;  0.0000000E+00;  2.4479806E-02;  1.4930413E+04;
  8.9659534E-02;  9.9999998E-03;  2.7982271E-01;3053;  8.4770605E-02;  0.0000000E+00; -1.4778190E-02;  9.9240802E+02;  1.0000000E-01; -6.2897969E+03;3;  1.4758458E+02;  0.0000000E+00; -1.0197467E+01;0;  6.5790850E-01;  3.9524027E+04;  0.0000000E+00;  5.8848906E-01;  4.0000000E+04;  0.0000000E+00;  3.9864855E+04;  6.0261428E-01;  0.0000000E+00;  5.5294219E-02;  1.6299823E+04;
  8.9579128E-02;  9.9999998E-03;  2.8989205E-01;3054;  5.8357026E-02;  0.0000000E+00; -1.1952453E-02;  9.9333966E+02;  1.0000000E-01; -5.5179668E+03;3;  1.5127953E+02;  0.0000000E+00; -3.6403355E+01;0;  6.3296944E-01;  3.9600316E+04;  0.0000000E+00;  2.8777799E-01;  4.0000000E+04;  0.0000000E+00;  3.9862180E+04;  5.5129915E-01;  0.0000000E+00;  8.1670284E-02;  1.6686832E+04;
  8.9568377E-02;  9.9999998E-03;  2.9997957E-01;3055;  3.6814041E-02;  0.0000000E+00; -9.2030969E-03;  9.9433148E+02;  1.0000000E-01; -4.6962617E+03;3;  1.3891194E+02;  0.0000000E+00; -6.3236134E+01;0;  5.8761740E-01;  3.9674336E+04;  0.0000000E+00;  1.4159419E-02;  4.0000000E+04;  0.0000000E+00;  3.9867336E+04;  4.8662505E-01;  0.0000000E+00;  1.0099234E-01;  1.6120010E+04;
  1.0054508E-01;  9.9999998E-03;  2.3971286E-01;3110;  1.9196230E-01;  0.0000000E+00; -1.1783275E-02;  9.8954907E+02;  1.0000000E-01; -8.6583721E+03;3;  4.2131332E+01;  0.0000000E+00;  3.5924980E+01;0;  4.6546102E-01;  3.9211930E+04;  0.0000000E+00;  2.0747411E+00;  4.0000000E+04;  0.0000000E+00;  3.9956406E+04;  5.4850876E-01;  0.0000000E+00; -8.3047748E-02;  5.4837681E+03;
  1.0028598E-01;  9.9999998E-03;  2.4972272E-01;3111;  1.7655143E-01;  0.0000000E+00; -1.5584988E-02;  9.8965820E+02;  1.0000000E-01; -8.5680039E+03;3;  7.2541489E+01;  0.0000000E+00;  3.9221241E+01;0;  5.2880192E-01;  3.9247387E+04;  0.0000000E+00;  2.2722979E+00;  4.0000000E+04;  0.0000000E+00;  3.9927828E+04;  5.8790618E-01;  0.0000000E+00; -5.9104294E-02;  8.8053398E+03;
  1.0003723E-01;  9.9999998E-03;  2.5974637E-01;3112;  1.5486810E-01;  0.0000000E+00; -1.8067872E-02;  9.8999927E+02;  1.0000000E-01; -8.2853945E+03;3;  1.0749443E+02;  0.0000000E+00;  3.6226891E+01;0;  5.8021206E-01;  3.9297891E+04;  0.0000000E+00;  2.3445268E+00;  4.0000000E+04;  0.0000000E+00;  3.9902453E+04;  6.1015022E-01;  0.0000000E+00; -2.9938146E-02;  1.1865548E+04;
  9.9819414E-02;  9.9999998E-03;  2.6978227E-01;3113;  1.2772158E-01;  0.0000000E+00; -1.8491888E-02;  9.9057343E+02;  1.0000000E-01; -7.8097539E+03;3;  1.4110387E+02;  0.0000000E+00;  2.4909128E+01;0;  6.1369377E-01;  3.9361777E+04;  0.0000000E+00;  2.2378054E+00;  4.0000000E+04;  0.0000000E+00;  3.9882594E+04;  6.1172044E-01;  0.0000000E+00;  1.9733235E-03;  1.4281498E+04;
  9.9650882E-02;  9.9999998E-03;  2.7983314E-01;3114;  9.7829007E-02;  0.0000000E+00; -1.6771089E-02;  9.9136169E+02;  1.0000000E-01; -7.1566860E+03;3;  1.6594597E+02;  0.0000000E+00;  5.1268377E+00;0;  6.2477773E-01;  3.9435887E+04;  0.0000000E+00;  1.9368023E+00;  4.0000000E+04;  0.0000000E+00;  3.9869875E+04;  5.9122264E-01;  0.0000000E+00;  3.3555105E-02;  1.5811459E+04;
  9.9550217E-02;  9.9999998E-03;  2.8990617E-01;3115;  6.8634838E-02;  0.0000000E+00; -1.3418581E-02;  9.9232080E+02;  1.0000000E-01; -6.3620913E+03;3;  1.7507654E+02;  0.0000000E+00; -2.1219343E+01;0;  6.1149496E-01;  3.9515891E+04;  0.0000000E+00;  1.4817697E+00;  4.0000000E+04;  0.0000000E+00;  3.9865355E+04;  5.4995918E-01;  0.0000000E+00;  6.1535776E-02;  1.6346756E+04;
  9.9530108E-02;  9.9999998E-03;  3.0000162E-01;3116;  4.3519665E-02;  0.0000000E+00; -9.3378061E-03;  9.9338452E+02;  1.0000000E-01; -5.4807827E+03;3;  1.6471423E+02;  0.0000000E+00; -5.0262276E+01;0;  5.7500786E-01;  3.9596887E+04;  0.0000000E+00;  9.6095663E-01;  4.0000000E+04;  0.0000000E+00;  3.9868777E+04;  4.9202752E-01;  0.0000000E+00;  8.2980342E-02;  1.5920732E+04;
  1.1064404E-01;  9.9999998E-03;  2.3973297E-01;3171;  1.9678695E-01;  0.0000000E+00; -8.8892421E-03;  9.8893475E+02;  1.0000000E-01; -9.1673447E+03;3;  3.8720402E+01;  0.0000000E+00;  4.1681541E+01;0;  3.9427325E-01;  3.9150660E+04;  0.0000000E+00;  3.2903788E+00;  4.0000000E+04;  0.0000000E+00;  3.9969770E+04;  4.9357966E-01;  0.0000000E+00; -9.9306405E-02;  5.5521992E+03;
  1.1036969E-01;  9.9999998E-03;  2.4973750E-01;3172;  1.8454187E-01;  0.0000000E+00; -1.3597420E-02;  9.8883740E+02;  1.0000000E-01; -9.2479844E+03;3;  6.9945435E+01;  0.0000000E+00;  4.8013062E+01;0;  4.6558085E-01;  3.9170242E+04;  0.0000000E+00;  3.9525826E+00;  4.0000000E+04;  0.0000000E+00;  3.9940770E+04;  5.4455757E-01;  0.0000000E+00; -7.8976721E-02;  8.6435410E+03;
  1.1010014E-01;  9.9999998E-03;  2.5975731E-01;3173;  1.6628413E-01;  0.0000000E+00; -1.7548898E-02;  9.8901648E+02;  1.0000000E-01; -9.0996436E+03;3;  1.0788641E+02;  0.0000000E+00;  4.8223808E+01;0;  5.2812135E-01;  3.9208984E+04;  0.0000000E+00;  4.4500341E+00;  4.0000000E+04;  0.0000000E+00;  3.9914316E+04;  5.8057421E-01;  0.0000000E+00; -5.2452870E-02;  1.1738757E+04;
  1.0985660E-01;  9.9999998E-03;  2.6979244E-01;3174;  1.4151694E-01;  0.0000000E+00; -1.9675151E-02;  9.8948889E+02;  1.0000000E-01; -8.7082471E+03;3;  1.4720920E+02;  0.0000000E+00;  3.9828815E+01;0;  5.7462078E-01;  3.9266168E+04;  0.0000000E+00;  4.6404181E+00;  4.0000000E+04;  0.0000000E+00;  3.9892633E+04;  5.9652483E-01;  0.0000000E+00; -2.1904051E-02;  1.4239415E+04;
  1.0965995E-01;  9.9999998E-03;  2.7984679E-01;3175;  1.1168985E-01;  0.0000000E+00; -1.9079842E-02;  9.9024237E+02;  1.0000000E-01; -8.0840176E+03;3;  1.7923735E+02;  0.0000000E+00;  2.1737133E+01;0;  5.9860855E-01;  3.9339250E+04;  0.0000000E+00;  4.4366407E+00;  4.0000000E+04;  0.0000000E+00;  3.9877863E+04;  5.8887255E-01;  0.0000000E+00;  9.7359866E-03;  1.5817072E+04;
  1.0953435E-01;  9.9999998E-03;  2.8992566E-01;3176;  8.0330014E-02;  0.0000000E+00; -1.5773049E-02;  9.9122937E+02;  1.0000000E-01; -7.2663125E+03;3;  1.9533887E+02;  0.0000000E+00; -4.6347952E+00;0;  5.9618270E-01;  3.9423188E+04;  0.0000000E+00;  3.8507054E+00;  4.0000000E+04;  0.0000000E+00;  3.9871262E+04;  5.5713958E-01;  0.0000000E+00;  3.9043128E-02;  1.6346184E+04;
  1.0949978E-01;  9.9999998E-03;  3.0003172E-01;3177;  5.1652037E-02;  0.0000000E+00; -1.0577536E-02;  9.9236621E+02;  1.0000000E-01; -6.3244624E+03;3;  1.8882771E+02;  0.0000000E+00; -3.5682995E+01;0;  5.6737769E-01;  3.9511773E+04;  0.0000000E+00;  2.9965613E+00;  4.0000000E+04;  0.0000000E+00;  3.9872539E+04;  5.0466996E-01;  0.0000000E+00;  6.2707752E-02;  1.5898392E+04;
  1.2076622E-01;  9.9999998E-03;  2.3975654E-01;3232;  2.0028557E-01;  0.0000000E+00; -5.6160558E-03;  9.8832715E+02;  1.0000000E-01; -9.6707383E+03;3;  3.3691849E+01;  0.0000000E+00;  4.5776394E+01;0;  3.3704856E-01;  3.9088965E+04;  0.0000000E+00;  4.9652829E+00;  4.0000000E+04;  0.0000000E+00;  3.9984285E+04;  4.5025811E-01;  0.0000000E+00; -1.1320954E-01;  7.2576343E+03;
  1.2048596E-01;  9.9999998E-03;  2.4975282E-01;3233;  1.9068833E-01;  0.0000000E+00; -1.0856146E-02;  9.8800446E+02;  1.0000000E-01; -9.9380889E+03;3;  6.4543999E+01;  0.0000000E+00;  5.4640251E+01;0;  4.1410375E-01;  3.9090496E+04;  0.0000000E+00;  6.3826938E+00;  4.0000000E+04;  0.0000000E+00;  3.9955574E+04;  5.1148391E-01;  0.0000000E+00; -9.7380176E-02;  1.0311580E+04;
  1.2019888E-01;  9.9999998E-03;  2.5976679E-01;3234;  1.7589678E-01;  0.0000000E+00; -1.6045028E-02;  9.8799872E+02;  1.0000000E-01; -9.9428291E+03;3;  1.0362924E+02;  0.0000000E+00;  5.8282322E+01;0;  4.8623556E-01;  3.9115477E+04;  0.0000000E+00;  7.6454859E+00;  4.0000000E+04;  0.0000000E+00;  3.9928328E+04;  5.6090999E-01;  0.0000000E+00; -7.4674435E-02;  1.3638427E+04;
  1.1992627E-01;  9.9999998E-03;  2.6980174E-01;3235;  1.5434074E-01;  0.0000000E+00; -1.9961867E-02;  9.8835345E+02;  1.0000000E-01; -9.6489609E+03;3;  1.4713580E+02;  0.0000000E+00;  5.3781597E+01;0;  5.4508877E-01;  3.9164512E+04;  0.0000000E+00;  8.4749727E+00;  4.0000000E+04;  0.0000000E+00;  3.9905336E+04;  5.9186083E-01;  0.0000000E+00; -4.6772078E-02;  1.6392463E+04;
  1.1970076E-01;  9.9999998E-03;  2.7985936E-01;3236;  1.2607871E-01;  0.0000000E+00; -2.1174662E-02;  9.8906177E+02;  1.0000000E-01; -9.0621133E+03;3;  1.8663487E+02;  0.0000000E+00;  3.8682301E+01;0;  5.8191013E-01;  3.9235469E+04;  0.0000000E+00;  8.6496468E+00;  4.0000000E+04;  0.0000000E+00;  3.9888578E+04;  5.9812176E-01;  0.0000000E+00; -1.6211629E-02;  1.8056777E+04;
  1.1954369E-01;  9.9999998E-03;  2.8994620E-01;3237;  9.3557827E-02;  0.0000000E+00; -1.8756615E-02;  9.9007599E+02;  1.0000000E-01; -8.2218408E+03;3;  2.1117265E+02;  0.0000000E+00;  1.2940518E+01;0;  5.9002513E-01;  3.9323648E+04;  0.0000000E+00;  8.0788441E+00;  4.0000000E+04;  0.0000000E+00;  3.9879359E+04;  5.7621801E-01;  0.0000000E+00;  1.3807133E-02;  1.8415789E+04;
  1.1948659E-01;  9.9999998E-03;  3.0006570E-01;3238;  6.1477326E-02;  0.0000000E+00; -1.2889611E-02;  9.9128741E+02;  1.0000000E-01; -7.2182148E+03;3;  2.1098743E+02;  0.0000000E+00; -2.0354141E+01;0;  5.6763989E-01;  3.9420559E+04;  0.0000000E+00;  6.8517895E+00;  4.0000000E+04;  0.0000000E+00;  3.9877719E+04;  5.2789766E-01;  0.0000000E+00;  3.9742209E-02;  1.7577025E+04;
  1.3093005E-01;  9.9999998E-03;  2.3978122E-01;3293;  2.0268092E-01;  0.0000000E+00; -1.9112636E-03;  9.8775751E+02;  1.0000000E-01; -1.0142676E+04;3;  2.7494106E+01;  0.0000000E+00;  4.7362804E+01;0;  2.9332677E-01;  3.9029719E+04;  0.0000000E+00;  7.0678215E+00;  4.0000000E+04;  0.0000000E+00;  3.9999434E+04;  4.1730711E-01;  0.0000000E+00; -1.2398034E-01;  1.0305920E+04;
  1.3064958E-01;  9.9999998E-03;  2.4976735E-01;3294;  1.9527401E-01;  0.0000000E+00; -7.4003837E-03;  9.8719507E+02;  1.0000000E-01; -1.0608638E+04;3;  5.6653450E+01;  0.0000000E+00;  5.8163410E+01;0;  3.7443376E-01;  3.9011516E+04;  0.0000000E+00;  9.5957632E+00;  4.0000000E+04;  0.0000000E+00;  3.9971832E+04;  4.8787627E-01;  0.0000000E+00; -1.1344250E-01;  1.4160507E+04;
  1.3034689E-01;  9.9999998E-03;  2.5977492E-01;3295;  1.8350412E-01;  0.0000000E+00; -1.3350688E-02;  9.8698639E+02;  1.0000000E-01; -1.0781521E+04;3;  9.5319756E+01;  0.0000000E+00;  6.5209595E+01;0;  4.5503324E-01;  3.9020309E+04;  0.0000000E+00;  1.2099746E+01;  4.0000000E+04;  0.0000000E+00;  3.9944707E+04;  5.5076331E-01;  0.0000000E+00; -9.5730074E-02;  1.8526029E+04;
  1.3005005E-01;  9.9999998E-03;  2.6980814E-01;3296;  1.6560198E-01;  0.0000000E+00; -1.8866871E-02;  9.8719397E+02;  1.0000000E-01; -1.0609575E+04;3;  1.4128566E+02;  0.0000000E+00;  6.4927864E+01;0;  5.2611703E-01;  3.9058957E+04;  0.0000000E+00;  1.4124396E+01;  4.0000000E+04;  0.0000000E+00;  3.9920547E+04;  5.9815282E-01;  0.0000000E+00; -7.2035804E-02;  2.2345748E+04;
  1.2978451E-01;  9.9999998E-03;  2.7987248E-01;3297;  1.4023437E-01;  0.0000000E+00; -2.2312226E-02;  9.8784045E+02;  1.0000000E-01; -1.0073937E+04;3;  1.8753595E+02;  0.0000000E+00;  5.3985104E+01;0;  5.7667482E-01;  3.9126938E+04;  0.0000000E+00;  1.5206903E+01;  4.0000000E+04;  0.0000000E+00;  3.9901488E+04;  6.2087697E-01;  0.0000000E+00; -4.4202119E-02;  2.4776119E+04;
  1.2959167E-01;  9.9999998E-03;  2.8996438E-01;3298;  1.0813530E-01;  0.0000000E+00; -2.1759450E-02;  9.8887152E+02;  1.0000000E-01; -9.2197383E+03;3;  2.2188037E+02;  0.0000000E+00;  3.0298315E+01;0;  5.9619927E-01;  3.9218883E+04;  0.0000000E+00;  1.5029544E+01;  4.0000000E+04;  0.0000000E+00;  3.9889301E+04;  6.1095160E-01;  0.0000000E+00; -1.4752343E-02;  2.5287869E+04;
  1.2950134E-01;  9.9999998E-03;  3.0009821E-01;3299;  7.3329024E-02;  0.0000000E+00; -1.6125038E-02;  9.9015985E+02;  1.0000000E-01; -8.1523613E+03;3;  2.3101868E+02;  0.0000000E+00; -5.1799440E+00;0;  5.7953918E-01;  3.9325047E+04;  0.0000000E+00;  1.3515841E+01;  4.0000000E+04;  0.0000000E+00;  3.9883730E+04;  5.6634772E-01;  0.0000000E+00;  1.3191469E-02;  2.3835283E+04;
  1.4113572E-01;  9.9999998E-03;  2.3980935E-01;3354;  2.0441848E-01;  0.0000000E+00;  1.9616028E-03;  9.8727533E+02;  1.0000000E-01; -1.0542170E+04;3;  2.0461470E+01;  0.0000000E+00;  4.5282253E+01;0;  2.6240936E-01;  3.8977562E+04;  0.0000000E+00;  9.4237280E+00;  4.0000000E+04;  0.0000000E+00;  4.0014461E+04;  3.9329690E-01;  0.0000000E+00; -1.3088754E-01;  1.4023826E+04;
  1.4087968E-01;  9.9999998E-03;  2.4978136E-01;3355;  1.9839279E-01;  0.0000000E+00; -3.1700011E-03;  9.8645312E+02;  1.0000000E-01; -1.1223336E+04;3;  4.6934582E+01;  0.0000000E+00;  5.7440197E+01;0;  3.4616572E-01;  3.8937109E+04;  0.0000000E+00;  1.3436614E+01;  4.0000000E+04;  0.0000000E+00;  3.9989094E+04;  4.7230384E-01;  0.0000000E+00; -1.2613814E-01;  1.9594938E+04;
  1.4057954E-01;  9.9999998E-03;  2.5977793E-01;3356;  1.8923765E-01;  0.0000000E+00; -9.5219836E-03;  9.8600287E+02;  1.0000000E-01; -1.1596362E+04;3;  8.3652977E+01;  0.0000000E+00;  6.6729202E+01;0;  4.3431327E-01;  3.8926211E+04;  0.0000000E+00;  1.7784451E+01;  4.0000000E+04;  0.0000000E+00;  3.9963016E+04;  5.4885870E-01;  0.0000000E+00; -1.1454544E-01;  2.6164963E+04;
  1.4024737E-01;  9.9999998E-03;  2.6981324E-01;3357;  1.7487042E-01;  0.0000000E+00; -1.6141141E-02;  9.8603247E+02;  1.0000000E-01; -1.1571820E+04;3;  1.3016168E+02;  0.0000000E+00;  7.0513550E+01;0;  5.1792210E-01;  3.8951461E+04;  0.0000000E+00;  2.1801445E+01;  4.0000000E+04;  0.0000000E+00;  3.9938051E+04;  6.1456144E-01;  0.0000000E+00; -9.6639328E-02;  3.2438357E+04;
  1.3993780E-01;  9.9999998E-03;  2.7987897E-01;3358;  1.5327242E-01;  0.0000000E+00; -2.1693353E-02;  9.8658472E+02;  1.0000000E-01; -1.1114302E+04;3;  1.8180089E+02;  0.0000000E+00;  6.4609352E+01;0;  5.8393478E-01;  3.9014098E+04;  0.0000000E+00;  2.4668869E+01;  4.0000000E+04;  0.0000000E+00;  3.9916621E+04;  6.5759397E-01;  0.0000000E+00; -7.3659211E-02;  3.7058461E+04;
  1.3968922E-01;  9.9999998E-03;  2.8997669E-01;3359;  1.2350446E-01;  0.0000000E+00; -2.3795296E-02;  9.8762634E+02;  1.0000000E-01; -1.0251363E+04;3;  2.2717625E+02;  0.0000000E+00;  4.4929169E+01;0;  6.1763692E-01;  3.9110145E+04;  0.0000000E+00;  2.5628386E+01;  4.0000000E+04;  0.0000000E+00;  3.9900484E+04;  6.6456831E-01;  0.0000000E+00; -4.6931401E-02;  3.8873637E+04;
  1.3955498E-01;  9.9999998E-03;  3.0012271E-01;3360;  8.7402195E-02;  0.0000000E+00; -1.9695390E-02;  9.8898181E+02;  1.0000000E-01; -9.1283828E+03;3;  2.4894051E+02;  0.0000000E+00;  8.2275095E+00;0;  6.0777497E-01;  3.9226367E+04;  0.0000000E+00;  2.4175510E+01;  4.0000000E+04;  0.0000000E+00;  3.9889566E+04;  6.2589079E-01;  0.0000000E+00; -1.8115848E-02;  3.7243809E+04;
  1.5140250E-01;  9.9999998E-03;  2.3983923E-01;3415;  2.0547627E-01;  0.0000000E+00;  6.1099175E-03;  9.8692017E+02;  1.0000000E-01; -1.0836384E+04;3;  1.2925229E+01;  0.0000000E+00;  4.0327965E+01;0;  2.4345751E-01;  3.8936398E+04;  0.0000000E+00;  1.1688321E+01;  4.0000000E+04;  0.0000000E+00;  4.0028609E+04;  3.7663764E-01;  0.0000000E+00; -1.3318013E-01;  1.7709621E+04;
  1.5118596E-01;  9.9999998E-03;  2.4979976E-01;3416;  2.0060086E-01;  0.0000000E+00;  1.6177500E-03;  9.8581982E+02;  1.0000000E-01; -1.1748013E+04;3;  3.6681717E+01;  0.0000000E+00;  5.1005939E+01;0;  3.2889622E-01;  3.8871434E+04;  0.0000000E+00;  1.7473883E+01;  4.0000000E+04;  0.0000000E+00;  4.0006379E+04;  4.6323782E-01;  0.0000000E+00; -1.3434160E-01;  2.5645654E+04;
  1.5091224E-01;  9.9999998E-03;  2.5978246E-01;3417;  1.9322841E-01;  0.0000000E+00; -4.4702813E-03;  9.8508008E+02;  1.0000000E-01; -1.2360884E+04;3;  7.0520721E+01;  0.0000000E+00;  6.1195904E+01;0;  4.2369920E-01;  3.8835750E+04;  0.0000000E+00;  2.4257036E+01;  4.0000000E+04;  0.0000000E+00;  3.9982590E+04;  5.5317712E-01;  0.0000000E+00; -1.2947792E-01;  3.5509844E+04;
  1.5056975E-01;  9.9999998E-03;  2.6980278E-01;3418;  1.8193835E-01;  0.0000000E+00; -1.1647940E-02;  9.8485901E+02;  1.0000000E-01; -1.2544039E+04;3;  1.1619385E+02;  0.0000000E+00;  6.7474327E+01;0;  5.1971632E-01;  3.8840949E+04;  0.0000000E+00;  3.1246212E+01;  4.0000000E+04;  0.0000000E+00;  3.9958270E+04;  6.3859546E-01;  0.0000000E+00; -1.1887915E-01;  4.5844617E+04;
  1.5018694E-01;  9.9999998E-03;  2.7986890E-01;3419;  1.6449514E-01;  0.0000000E+00; -1.8758072E-02;  9.8528705E+02;  1.0000000E-01; -1.2189383E+04;3;  1.7144377E+02;  0.0000000E+00;  6.6373810E+01;0;  6.0343647E-01;  3.8895680E+04;  0.0000000E+00;  3.7185593E+01;  4.0000000E+04;  0.0000000E+00;  3.9934688E+04;  7.0634860E-01;  0.0000000E+00; -1.0291210E-01;  5.4669770E+04;
  1.4986353E-01;  9.9999998E-03;  2.8997025E-01;3420;  1.3859870E-01;  0.0000000E+00; -2.3647049E-02;  9.8631812E+02;  1.0000000E-01; -1.1335185E+04;3;  2.2760109E+02;  0.0000000E+00;  5.1996307E+01;0;  6.5579462E-01;  3.8995012E+04;  0.0000000E+00;  4.0572891E+01;  4.0000000E+04;  0.0000000E+00;  3.9914031E+04;  7.3765755E-01;  0.0000000E+00; -8.1862926E-02;  5.9747938E+04;
  1.4966245E-01;  9.9999998E-03;  3.0012679E-01;3421;  1.0362177E-01;  0.0000000E+00; -2.2415565E-02;  9.8773975E+02;  1.0000000E-01; -1.0157391E+04;3;  2.6528445E+02;  0.0000000E+00;  1.6662546E+01;0;  6.5766943E-01;  3.9122918E+04;  0.0000000E+00;  4.0008083E+01;  4.0000000E+04;  0.0000000E+00;  3.9895871E+04;  7.1247190E-01;  0.0000000E+00; -5.4802462E-02;  5.9164641E+04;
  1.6172642E-01;  9.9999998E-03;  2.3987330E-01;3476;  2.0594826E-01;  0.0000000E+00;  1.0549931E-02;  9.8672827E+02;  1.0000000E-01; -1.0995392E+04;3;  5.7532263E+00;  0.0000000E+00;  3.1600046E+01;0;  2.3601343E-01;  3.8910188E+04;  0.0000000E+00;  1.3351310E+01;  4.0000000E+04;  0.0000000E+00;  4.0040797E+04;  3.6610544E-01;  0.0000000E+00; -1.3009201E-01;  2.0545416E+04;
  1.6159783E-01;  9.9999998E-03;  2.4982306E-01;3477;  2.0197891E-01;  0.0000000E+00;  6.8160817E-03;  9.8531647E+02;  1.0000000E-01; -1.2165038E+04;3;  2.6261314E+01;  0.0000000E+00;  3.9502052E+01;0;  3.2206458E-01;  3.8817059E+04;  0.0000000E+00;  2.0891176E+01;  4.0000000E+04;  0.0000000E+00;  4.0022773E+04;  4.5888960E-01;  0.0000000E+00; -1.3682503E-01;  3.0954377E+04;
  1.6136518E-01;  9.9999998E-03;  2.5978857E-01;3478;  1.9592427E-01;  0.0000000E+00;  1.5998805E-03;  9.8422882E+02;  1.0000000E-01; -1.3066099E+04;3;  5.7632023E+01;  0.0000000E+00;  4.6819519E+01;0;  4.2270726E-01;  3.8750594E+04;  0.0000000E+00;  3.0392591E+01;  4.0000000E+04;  0.0000000E+00;  4.0003043E+04;  5.6117165E-01;  0.0000000E+00; -1.3846439E-01;  4.4679629E+04;
  1.6102567E-01;  9.9999998E-03;  2.6978165E-01;3479;  1.8705054E-01;  0.0000000E+00; -5.3602094E-03;  9.8367413E+02;  1.0000000E-01; -1.3525690E+04;3;  1.0189313E+02;  0.0000000E+00;  5.3304924E+01;0;  5.3067112E-01;  3.8726531E+04;  0.0000000E+00;  4.1179985E+01;  4.0000000E+04;  0.0000000E+00;  3.9982070E+04;  6.6643715E-01;  0.0000000E+00; -1.3576603E-01;  6.0427379E+04;
  1.6059287E-01;  9.9999998E-03;  2.7982667E-01;3480;  1.7357847E-01;  0.0000000E+00; -1.3163010E-02;  9.8386700E+02;  1.0000000E-01; -1.3365893E+04;3;  1.5951089E+02;  0.0000000E+00;  5.5266689E+01;0;  6.3372940E-01;  3.8762727E+04;  0.0000000E+00;  5.1756119E+01;  4.0000000E+04;  0.0000000E+00;  3.9958727E+04;  7.6231498E-01;  0.0000000E+00; -1.2858559E-01;  7.5820133E+04;
  1.6015784E-01;  9.9999998E-03;  2.8992698E-01;3481;  1.5274672E-01;  0.0000000E+00; -2.0229883E-02;  9.8486829E+02;  1.0000000E-01; -1.2536336E+04;3;  2.2498674E+02;  0.0000000E+00;  4.6731701E+01;0;  7.1088833E-01;  3.8863746E+04;  0.0000000E+00;  5.9635780E+01;  4.0000000E+04;  0.0000000E+00;  3.9933438E+04;  8.2710409E-01;  0.0000000E+00; -1.1621577E-01;  8.7176836E+04;
  1.5985227E-01;  9.9999998E-03;  3.0008748E-01;3482;  1.2157685E-01;  0.0000000E+00; -2.2537624E-02;  9.8638275E+02;  1.0000000E-01; -1.1281655E+04;3;  2.8068420E+02;  0.0000000E+00;  1.5535280E+01;0;  7.3427618E-01;  3.9006707E+04;  0.0000000E+00;  6.1725418E+01;  4.0000000E+04;  0.0000000E+00;  3.9906562E+04;  8.2931471E-01;  0.0000000E+00; -9.5038503E-02;  9.0151781E+04;
  1.7204817E-01;  9.9999998E-03;  2.3991977E-01;3537;  2.0586938E-01;  0.0000000E+00;  1.5176025E-02;  9.8674054E+02;  1.0000000E-01; -1.0985220E+04;3; -5.5381876E-01;  0.0000000E+00;  1.9650450E+01;0;  2.3989850E-01;  3.8903242E+04;  0.0000000E+00;  1.3865590E+01;  4.0000000E+04;  0.0000000E+00;  4.0049270E+04;  3.6092433E-01;  0.0000000E+00; -1.2102583E-01;  2.1685820E+04;
  1.7202637E-01;  9.9999998E-03;  2.4986944E-01;3538;  2.0243341E-01;  0.0000000E+00;  1.2366800E-02;  9.8500378E+02;  1.0000000E-01; -1.2424092E+04;3;  1.7253754E+01;  0.0000000E+00;  2.2896002E+01;0;  3.2539910E-01;  3.8781215E+04;  0.0000000E+00;  2.2632706E+01;  4.0000000E+04;  0.0000000E+00;  4.0035285E+04;  4.5754522E-01;  0.0000000E+00; -1.3214612E-01;  3.3868566E+04;
  1.7188661E-01;  9.9999998E-03;  2.5981578E-01;3539;  1.9773757E-01;  0.0000000E+00;  8.2301879E-03;  9.8349475E+02;  1.0000000E-01; -1.3674279E+04;3;  4.5969063E+01;  0.0000000E+00;  2.4532488E+01;0;  4.3084210E-01;  3.8676941E+04;  0.0000000E+00;  3.4331657E+01;  4.0000000E+04;  0.0000000E+00;  4.0021141E+04;  5.7005870E-01;  0.0000000E+00; -1.3921660E-01;  5.0828762E+04;
  1.7159501E-01;  9.9999998E-03;  2.6977569E-01;3540;  1.9062555E-01;  0.0000000E+00;  2.4790431E-03;  9.8247827E+02;  1.0000000E-01; -1.4516428E+04;3;  8.9051369E+01;  0.0000000E+00;  2.5653748E+01;0;  5.5011892E-01;  3.8610934E+04;  0.0000000E+00;  4.8846275E+01;  4.0000000E+04;  0.0000000E+00;  4.0006918E+04;  6.9320464E-01;  0.0000000E+00; -1.4308573E-01;  7.2045570E+04;
  1.7114989E-01;  9.9999998E-03;  2.7977520E-01;3541;  1.8079732E-01;  0.0000000E+00; -4.9499231E-03;  9.8228589E+02;  1.0000000E-01; -1.4675781E+04;3;  1.4897115E+02;  0.0000000E+00;  2.7108015E+01;0;  6.7350549E-01;  3.8611297E+04;  0.0000000E+00;  6.5139198E+01;  4.0000000E+04;  0.0000000E+00;  3.9989820E+04;  8.1821424E-01;  0.0000000E+00; -1.4470875E-01;  9.5720906E+04;
  1.7062409E-01;  9.9999998E-03;  2.8983971E-01;3542;  1.6576470E-01;  0.0000000E+00; -1.2769219E-02;  9.8312939E+02;  1.0000000E-01; -1.3976986E+04;3;  2.2309660E+02;  0.0000000E+00;  2.3324068E+01;0;  7.8256679E-01;  3.8698469E+04;  0.0000000E+00;  8.0132103E+01;  4.0000000E+04;  0.0000000E+00;  3.9965430E+04;  9.2501783E-01;  0.0000000E+00; -1.4245103E-01;  1.1718980E+05;
  1.7016597E-01;  9.9999998E-03;  2.9998410E-01;3543;  1.4103222E-01;  0.0000000E+00; -1.8103078E-02;  9.8479883E+02;  1.0000000E-01; -1.2593865E+04;3;  2.9582660E+02;  0.0000000E+00; -9.6102870E-01;0;  8.4302741E-01;  3.8859527E+04;  0.0000000E+00;  8.8375137E+01;  4.0000000E+04;  0.0000000E+00;  3.9931637E+04;  9.7440779E-01;  0.0000000E+00; -1.3138036E-01;  1.2866553E+05;
  1.8229078E-01;  9.9999998E-03;  2.3997276E-01;3598;  2.0520364E-01;  0.0000000E+00;  1.9929709E-02;  9.8699426E+02;  1.0000000E-01; -1.0775003E+04;3; -5.1894140E+00;  0.0000000E+00;  6.0186019E+00;0;  2.5469136E-01;  3.8919805E+04;  0.0000000E+00;  1.2926959E+01;  4.0000000E+04;  0.0000000E+00;  4.0053164E+04;  3.6027426E-01;  0.0000000E+00; -1.0558289E-01;  2.0661223E+04;
  1.8234079E-01;  9.9999998E-03;  2.4993379E-01;3599;  2.0221014E-01;  0.0000000E+00;  1.7968876E-02;  9.8499536E+02;  1.0000000E-01; -1.2431055E+04;3;  1.0196251E+01;  0.0000000E+00;  3.0608923E+00;0;  3.3810782E-01;  3.8774945E+04;  0.0000000E+00;  2.2081575E+01;  4.0000000E+04;  0.0000000E+00;  4.0041582E+04;  4.5748687E-01;  0.0000000E+00; -1.1937904E-01;  3.3379770E+04;
  1.8229784E-01;  9.9999998E-03;  2.5988111E-01;3600;  1.9819392E-01;  0.0000000E+00;  1.4970135E-02;  9.8307062E+02;  1.0000000E-01; -1.4025677E+04;3;  3.6046928E+01;  0.0000000E+00; -3.4931531E+00;0;  4.4609523E-01;  3.8635359E+04;  0.0000000E+00;  3.4745178E+01;  4.0000000E+04;  0.0000000E+00;  4.0031129E+04;  5.7577753E-01;  0.0000000E+00; -1.2968230E-01;  5.1829625E+04;
  1.8211254E-01;  9.9999998E-03;  2.6982734E-01;3601;  1.9315074E-01;  0.0000000E+00;  1.0725535E-02;  9.8147803E+02;  1.0000000E-01; -1.5345096E+04;3;  7.7254387E+01;  0.0000000E+00; -1.3501136E+01;0;  5.7611084E-01;  3.8519449E+04;  0.0000000E+00;  5.1348583E+01;  4.0000000E+04;  0.0000000E+00;  4.0022602E+04;  7.1353137E-01;  0.0000000E+00; -1.3742054E-01;  7.6257430E+04;
  1.8175055E-01;  9.9999998E-03;  2.7978176E-01;3602;  1.8653704E-01;  0.0000000E+00;  5.1367977E-03;  9.8064978E+02;  1.0000000E-01; -1.6031299E+04;3;  1.3753836E+02;  0.0000000E+00; -2.2871901E+01;0;  7.2131860E-01;  3.8460523E+04;  0.0000000E+00;  7.2042419E+01;  4.0000000E+04;  0.0000000E+00;  4.0015914E+04;  8.6505640E-01;  0.0000000E+00; -1.4373779E-01;  1.0653086E+05;
  1.8122806E-01;  9.9999998E-03;  2.8977174E-01;3603;  1.7798997E-01;  0.0000000E+00; -1.6365764E-03;  9.8104352E+02;  1.0000000E-01; -1.5705086E+04;3;  2.1799863E+02;  0.0000000E+00; -2.8073368E+01;0;  8.7073314E-01;  3.8499645E+04;  0.0000000E+00;  9.5104073E+01;  4.0000000E+04;  0.0000000E+00;  4.0005570E+04;  1.0196601E+00;  0.0000000E+00; -1.4892694E-01;  1.3975223E+05;
  1.8064635E-01;  9.9999998E-03;  2.9984820E-01;3604;  1.6278519E-01;  0.0000000E+00; -7.7951015E-03;  9.8275635E+02;  1.0000000E-01; -1.4286015E+04;3;  3.0616608E+02;  0.0000000E+00; -4.3385921E+01;0;  9.9372154E-01;  3.8657070E+04;  0.0000000E+00;  1.1406032E+02;  4.0000000E+04;  0.0000000E+00;  3.9977488E+04;  1.1415973E+00;  0.0000000E+00; -1.4787573E-01;  1.6636380E+05;
  1.9244321E-01;  9.9999998E-03;  2.4001567E-01;3659;  2.0394602E-01;  0.0000000E+00;  2.4883274E-02;  9.8749658E+02;  1.0000000E-01; -1.0358867E+04;3; -8.1202011E+00;  0.0000000E+00; -6.4703989E+00;0;  2.7987376E-01;  3.8959191E+04;  0.0000000E+00;  1.0589644E+01;  4.0000000E+04;  0.0000000E+00;  4.0053359E+04;  3.6324811E-01;  0.0000000E+00; -8.3374359E-02;  1.7609295E+04;
  1.9253041E-01;  9.9999998E-03;  2.4998680E-01;3660;  2.0117757E-01;  0.0000000E+00;  2.3672439E-02;  9.8535010E+02;  1.0000000E-01; -1.2137187E+04;3;  5.4371691E+00;  0.0000000E+00; -1.5377427E+01;0;  3.5921741E-01;  3.8801359E+04;  0.0000000E+00;  1.9263252E+01;  4.0000000E+04;  0.0000000E+00;  4.0043238E+04;  4.5668733E-01;  0.0000000E+00; -9.7469941E-02;  2.9517787E+04;
  1.9253030E-01;  9.9999998E-03;  2.5994557E-01;3661;  1.9772787E-01;  0.0000000E+00;  2.1510137E-02;  9.8315588E+02;  1.0000000E-01; -1.3955012E+04;3;  2.8534552E+01;  0.0000000E+00; -3.0880714E+01;0;  4.6664172E-01;  3.8639621E+04;  0.0000000E+00;  3.1794390E+01;  4.0000000E+04;  0.0000000E+00;  4.0033910E+04;  5.7518870E-01;  0.0000000E+00; -1.0854696E-01;  4.7794508E+04;
  1.9239745E-01;  9.9999998E-03;  2.6990727E-01;3662;  1.9390006E-01;  0.0000000E+00;  1.8428711E-02;  9.8112646E+02;  1.0000000E-01; -1.5636347E+04;3;  6.5587631E+01;  0.0000000E+00; -5.4431683E+01;0;  6.0251713E-01;  3.8489941E+04;  0.0000000E+00;  4.9077229E+01;  4.0000000E+04;  0.0000000E+00;  4.0025168E+04;  7.1978086E-01;  0.0000000E+00; -1.1726376E-01;  7.3307031E+04;
  1.9213766E-01;  9.9999998E-03;  2.7987260E-01;3663;  1.9165891E-01;  0.0000000E+00;  1.4797207E-02;  9.7957776E+02;  1.0000000E-01; -1.6919422E+04;3;  1.2119585E+02;  0.0000000E+00; -8.5052338E+01;0;  7.7160442E-01;  3.8375672E+04;  0.0000000E+00;  7.1269730E+01;  4.0000000E+04;  0.0000000E+00;  4.0018691E+04;  8.9493883E-01;  0.0000000E+00; -1.2333440E-01;  1.0594815E+05;
  1.9178420E-01;  9.9999998E-03;  2.8983277E-01;3664;  1.9308032E-01;  0.0000000E+00;  1.1154110E-02;  9.7891254E+02;  1.0000000E-01; -1.7470566E+04;3;  1.9610138E+02;  0.0000000E+00; -1.1308446E+02;0;  9.8445708E-01;  3.8323973E+04;  0.0000000E+00;  9.6872353E+01;  4.0000000E+04;  0.0000000E+00;  4.0017336E+04;  1.1098452E+00;  0.0000000E+00; -1.2538807E-01;  1.4318411E+05;
  1.9134422E-01;  9.9999998E-03;  2.9981670E-01;3665;  1.9478229E-01;  0.0000000E+00;  7.8808730E-03;  9.7951379E+02;  1.0000000E-01; -1.6972457E+04;3;  2.8481894E+02;  0.0000000E+00; -1.3417047E+02;0;  1.2323247E+00;  3.8373133E+04;  0.0000000E+00;  1.2211884E+02;  4.0000000E+04;  0.0000000E+00;  4.0012629E+04;  1.3543501E+00;  0.0000000E+00; -1.2202537E-01;  1.7918620E+05;
  2.0252842E-01;  9.9999998E-03;  2.4003372E-01;3720;  2.0219609E-01;  0.0000000E+00;  2.9491151E-02;  9.8821838E+02;  1.0000000E-01; -9.7608594E+03;3; -9.8741083E+00;  0.0000000E+00; -1.5342670E+01;0;  3.1406879E-01;  3.9016969E+04;  0.0000000E+00;  7.2231770E+00;  4.0000000E+04;  0.0000000E+00;  4.0052316E+04;  3.6931300E-01;  0.0000000E+00; -5.5244204E-02;  1.3311116E+04;
  2.0263560E-01;  9.9999998E-03;  2.5001034E-01;3721;  1.9927974E-01;  0.0000000E+00;  2.9480843E-02;  9.8605170E+02;  1.0000000E-01; -1.1555919E+04;3;  2.4514534E+00;  0.0000000E+00; -2.7625242E+01;0;  3.8853902E-01;  3.8855531E+04;  0.0000000E+00;  1.4663815E+01;  4.0000000E+04;  0.0000000E+00;  4.0044176E+04;  4.5408249E-01;  0.0000000E+00; -6.5543488E-02;  2.3119145E+04;
  2.0264485E-01;  9.9999998E-03;  2.5997794E-01;3722;  1.9612107E-01;  0.0000000E+00;  2.8021168E-02;  9.8377209E+02;  1.0000000E-01; -1.3444508E+04;3;  2.3645657E+01;  0.0000000E+00; -4.8205536E+01;0;  4.9209207E-01;  3.8685281E+04;  0.0000000E+00;  2.6245527E+01;  4.0000000E+04;  0.0000000E+00;  4.0036129E+04;  5.6599504E-01;  0.0000000E+00; -7.3902972E-02;  3.9895754E+04;
  2.0250849E-01;  9.9999998E-03;  2.6995879E-01;3723;  1.9317237E-01;  0.0000000E+00;  2.5310021E-02;  9.8155035E+02;  1.0000000E-01; -1.5285196E+04;3;  5.6636230E+01;  0.0000000E+00; -8.1971893E+01;0;  6.2630516E-01;  3.8522922E+04;  0.0000000E+00;  4.3728863E+01;  4.0000000E+04;  0.0000000E+00;  4.0025023E+04;  7.0830095E-01;  0.0000000E+00; -8.1995808E-02;  6.5612961E+04;
  2.0225394E-01;  9.9999998E-03;  2.7997333E-01;3724;  1.9740146E-01;  0.0000000E+00;  2.2544486E-02;  9.7956049E+02;  1.0000000E-01; -1.6933742E+04;3;  1.0315460E+02;  0.0000000E+00; -1.3623325E+02;0;  8.1749403E-01;  3.8388332E+04;  0.0000000E+00;  6.7251785E+01;  4.0000000E+04;  0.0000000E+00;  4.0003406E+04;  9.0405744E-01;  0.0000000E+00; -8.6563431E-02;  1.0008273E+05;
  2.0199826E-01;  9.9999998E-03;  2.8999177E-01;3725;  2.1289027E-01;  0.0000000E+00;  2.4644712E-02;  9.7792889E+02;  1.0000000E-01; -1.8285506E+04;3;  1.6452200E+02;  0.0000000E+00; -2.0097997E+02;0;  1.1279255E+00;  3.8283133E+04;  0.0000000E+00;  9.2011902E+01;  4.0000000E+04;  0.0000000E+00;  3.9980191E+04;  1.1900558E+00;  0.0000000E+00; -6.2130302E-02;  1.3618042E+05;
  2.0184568E-01;  9.9999998E-03;  3.0001152E-01;3726;  2.2919449E-01;  0.0000000E+00;  3.0325664E-02;  9.7637555E+02;  1.0000000E-01; -1.9572434E+04;3;  2.1719040E+02;  0.0000000E+00; -2.6368726E+02;0;  1.5407302E+00;  3.8182812E+04;  0.0000000E+00;  1.0863400E+02;  4.0000000E+04;  0.0000000E+00;  3.9958480E+04;  1.5532390E+00;  0.0000000E+00; -1.2508780E-02;  1.6026497E+05;
  2.1257609E-01;  9.9999998E-03;  2.4002537E-01;3781;  2.0036460E-01;  0.0000000E+00;  3.1824850E-02;  9.8910028E+02;  1.0000000E-01; -9.0302129E+03;3; -1.1134200E+01;  0.0000000E+00; -1.9018999E+01;0;  3.5237876E-01;  3.9085859E+04;  0.0000000E+00;  3.3703599E+00;  4.0000000E+04;  0.0000000E+00;  4.0052672E+04;  3.7868658E-01;  0.0000000E+00; -2.6307814E-02;  9.2442168E+03;
  2.1269318E-01;  9.9999998E-03;  2.5000307E-01;3782;  1.9719650E-01;  0.0000000E+00;  3.2722261E-02;  9.8703815E+02;  1.0000000E-01; -1.0738658E+04;3;  2.0626451E-01;  0.0000000E+00; -3.1436934E+01;0;  4.1920847E-01;  3.8928855E+04;  0.0000000E+00;  9.0565367E+00;  4.0000000E+04;  0.0000000E+00;  4.0048285E+04;  4.5065206E-01;  0.0000000E+00; -3.1443603E-02;  1.5694832E+04;
  2.1269934E-01;  9.9999998E-03;  2.5997433E-01;3783;  1.9410957E-01;  0.0000000E+00;  3.2839730E-02;  9.8483942E+02;  1.0000000E-01; -1.2560236E+04;3;  1.9112785E+01;  0.0000000E+00; -5.0825817E+01;0;  5.1855594E-01;  3.8760980E+04;  0.0000000E+00;  1.9084547E+01;  4.0000000E+04;  0.0000000E+00;  4.0044062E+04;  5.4983461E-01;  0.0000000E+00; -3.1278670E-02;  2.9791311E+04;
  2.1254273E-01;  9.9999998E-03;  2.6996455E-01;3784;  1.9180778E-01;  0.0000000E+00;  3.0011469E-02;  9.8265247E+02;  1.0000000E-01; -1.4372086E+04;3;  4.9183640E+01;  0.0000000E+00; -8.3100616E+01;0;  6.4265645E-01;  3.8599840E+04;  0.0000000E+00;  3.6494957E+01;  4.0000000E+04;  0.0000000E+00;  4.0033789E+04;  6.8101293E-01;  0.0000000E+00; -3.8356468E-02;  5.5068555E+04;
  2.1226659E-01;  9.9999998E-03;  2.7999744E-01;3785;  2.0148167E-01;  0.0000000E+00;  2.5971806E-02;  9.8057098E+02;  1.0000000E-01; -1.6096581E+04;3;  8.9349373E+01;  0.0000000E+00; -1.4075978E+02;0;  8.3157164E-01;  3.8464828E+04;  0.0000000E+00;  6.2232807E+01;  4.0000000E+04;  0.0000000E+00;  4.0004859E+04;  8.8210809E-01;  0.0000000E+00; -5.0536469E-02;  9.2421648E+04;
  2.1202148E-01;  9.9999998E-03;  2.9003236E-01;3786;  2.1797757E-01;  0.0000000E+00;  2.7820315E-02;  9.7868567E+02;  1.0000000E-01; -1.7658512E+04;3;  1.4517992E+02;  0.0000000E+00; -2.1556496E+02;0;  1.1442614E+00;  3.8349449E+04;  0.0000000E+00;  8.9640152E+01;  4.0000000E+04;  0.0000000E+00;  3.9971129E+04;  1.1683913E+00;  0.0000000E+00; -2.4130009E-02;  1.3215897E+05;
  2.1191466E-01;  9.9999998E-03;  3.0007848E-01;3787;  2.3679015E-01;  0.0000000E+00;  3.4394838E-02;  9.7654083E+02;  1.0000000E-01; -1.9435498E+04;3;  1.8615981E+02;  0.0000000E+00; -2.9889331E+02;0;  1.5865457E+00;  3.8220477E+04;  0.0000000E+00;  1.0578864E+02;  4.0000000E+04;  0.0000000E+00;  3.9931562E+04;  1.5458539E+00;  0.0000000E+00;  4.0691912E-02;  1.5554638E+05;
  2.2260553E-01;  9.9999998E-03;  2.4001472E-01;3842;  1.9924957E-01;  0.0000000E+00;  3.1417694E-02;  9.9001904E+02;  1.0000000E-01; -8.2690498E+03;3; -1.3319146E+01;  0.0000000E+00; -1.6520874E+01;0;  3.9102489E-01;  3.9158270E+04;  0.0000000E+00; -3.8237637E-01;  4.0000000E+04;  0.0000000E+00;  4.0052621E+04;  3.9226234E-01;  0.0000000E+00; -1.2374558E-03;  7.4180063E+03;
  2.2272949E-01;  9.9999998E-03;  2.4999650E-01;3843;  1.9630900E-01;  0.0000000E+00;  3.2082375E-02;  9.8813043E+02;  1.0000000E-01; -9.8336963E+03;3; -3.8931830E+00;  0.0000000E+00; -2.6414549E+01;0;  4.4450393E-01;  3.9011535E+04;  0.0000000E+00;  3.2347662E+00;  4.0000000E+04;  0.0000000E+00;  4.0051367E+04;  4.4923756E-01;  0.0000000E+00; -4.7336295E-03;  9.2393701E+03;
  2.2273728E-01;  9.9999998E-03;  2.5997394E-01;3844;  1.9366395E-01;  0.0000000E+00;  3.1859446E-02;  9.8608063E+02;  1.0000000E-01; -1.1531920E+04;3;  1.1639676E+01;  0.0000000E+00; -4.2172211E+01;0;  5.2817029E-01;  3.8852285E+04;  0.0000000E+00;  1.1022465E+01;  4.0000000E+04;  0.0000000E+00;  4.0050129E+04;  5.3240317E-01;  0.0000000E+00; -4.2328760E-03;  1.8718506E+04;
  2.2257420E-01;  9.9999998E-03;  2.6997602E-01;3845;  1.9326331E-01;  0.0000000E+00;  2.9194396E-02;  9.8396948E+02;  1.0000000E-01; -1.3280957E+04;3;  3.5119450E+01;  0.0000000E+00; -6.9714989E+01;0;  6.3777137E-01;  3.8698195E+04;  0.0000000E+00;  2.7092104E+01;  4.0000000E+04;  0.0000000E+00;  4.0038145E+04;  6.4966500E-01;  0.0000000E+00; -1.1893637E-02;  4.1287766E+04;
  2.2232392E-01;  9.9999998E-03;  2.8000572E-01;3846;  2.0332904E-01;  0.0000000E+00;  2.3802016E-02;  9.8186218E+02;  1.0000000E-01; -1.5026833E+04;3;  6.8812904E+01;  0.0000000E+00; -1.1966106E+02;0;  7.9361725E-01;  3.8560871E+04;  0.0000000E+00;  5.2284668E+01;  4.0000000E+04;  0.0000000E+00;  4.0009102E+04;  8.3210015E-01;  0.0000000E+00; -3.8482882E-02;  7.7504789E+04;
  2.2211990E-01;  9.9999998E-03;  2.9002976E-01;3847;  2.1743855E-01;  0.0000000E+00;  2.1992126E-02;  9.7984900E+02;  1.0000000E-01; -1.6694736E+04;3;  1.1359215E+02;  0.0000000E+00; -1.8705882E+02;0;  1.0459901E+00;  3.8432691E+04;  0.0000000E+00;  7.9596024E+01;  4.0000000E+04;  0.0000000E+00;  3.9978789E+04;  1.0867040E+00;  0.0000000E+00; -4.0713962E-02;  1.1689335E+05;
  2.2204266E-01;  9.9999998E-03;  3.0005732E-01;3848;  2.3292035E-01;  0.0000000E+00;  2.3604585E-02;  9.7756738E+02;  1.0000000E-01; -1.8585004E+04;3;  1.4960933E+02;  0.0000000E+00; -2.6064352E+02;0;  1.4063743E+00;  3.8287121E+04;  0.0000000E+00;  9.6462166E+01;  4.0000000E+04;  0.0000000E+00;  3.9945641E+04;  1.4181149E+00;  0.0000000E+00; -1.1740528E-02;  1.4113267E+05;
  2.3262052E-01;  9.9999998E-03;  2.4001247E-01;3903;  1.9908872E-01;  0.0000000E+00;  2.9030791E-02;  9.9087714E+02;  1.0000000E-01; -7.5581064E+03;3; -1.5840095E+01;  0.0000000E+00; -1.3813601E+01;0;  4.2849588E-01;  3.9228277E+04;  0.0000000E+00; -3.4527385E+00;  4.0000000E+04;  0.0000000E+00;  4.0050035E+04;  4.1033369E-01;  0.0000000E+00;  1.8162176E-02;  8.3768535E+03;
  2.3275301E-01;  9.9999998E-03;  2.5000134E-01;3904;  1.9664338E-01;  0.0000000E+00;  2.9218826E-02;  9.8918530E+02;  1.0000000E-01; -8.9597949E+03;3; -8.6898918E+00;  0.0000000E+00; -2.1450741E+01;0;  4.6541631E-01;  3.9095762E+04;  0.0000000E+00; -1.9110112E+00;  4.0000000E+04;  0.0000000E+00;  4.0050230E+04;  4.5118624E-01;  0.0000000E+00;  1.4230084E-02;  7.4905620E+03;
  2.3277995E-01;  9.9999998E-03;  2.5998595E-01;3905;  1.9496016E-01;  0.0000000E+00;  2.8258266E-02;  9.8730560E+02;  1.0000000E-01; -1.0517085E+04;3;  2.8556871E+00;  0.0000000E+00; -3.3732342E+01;0;  5.2764511E-01;  3.8948918E+04;  0.0000000E+00;  3.0239046E+00;  4.0000000E+04;  0.0000000E+00;  4.0049617E+04;  5.1669848E-01;  0.0000000E+00;  1.0946620E-02;  9.0799297E+03;
  2.3264246E-01;  9.9999998E-03;  2.6998612E-01;3906;  1.9628432E-01;  0.0000000E+00;  2.5017044E-02;  9.8532996E+02;  1.0000000E-01; -1.2153828E+04;3;  2.0239376E+01;  0.0000000E+00; -5.5183491E+01;0;  6.1119038E-01;  3.8802973E+04;  0.0000000E+00;  1.5934276E+01;  4.0000000E+04;  0.0000000E+00;  4.0040023E+04;  6.1560047E-01;  0.0000000E+00; -4.4100806E-03;  2.5147734E+04;
  2.3244184E-01;  9.9999998E-03;  2.7999610E-01;3907;  2.0460972E-01;  0.0000000E+00;  1.9781655E-02;  9.8333209E+02;  1.0000000E-01; -1.3809040E+04;3;  4.6367405E+01;  0.0000000E+00; -9.1612076E+01;0;  7.2820586E-01;  3.8664289E+04;  0.0000000E+00;  3.7606922E+01;  4.0000000E+04;  0.0000000E+00;  4.0021469E+04;  7.6737630E-01;  0.0000000E+00; -3.9170459E-02;  5.5918570E+04;
  2.3227917E-01;  9.9999998E-03;  2.9000077E-01;3908;  2.1556044E-01;  0.0000000E+00;  1.6351406E-02;  9.8136786E+02;  1.0000000E-01; -1.5436353E+04;3;  8.0637154E+01;  0.0000000E+00; -1.4097160E+02;0;  9.1497308E-01;  3.8527832E+04;  0.0000000E+00;  6.2241440E+01;  4.0000000E+04;  0.0000000E+00;  4.0003492E+04;  9.7790462E-01;  0.0000000E+00; -6.2931523E-02;  9.1254461E+04;
  2.3221305E-01;  9.9999998E-03;  3.0000758E-01;3909;  2.2703899E-01;  0.0000000E+00;  1.5181563E-02;  9.7918799E+02;  1.0000000E-01; -1.7242375E+04;3;  1.1276456E+02;  0.0000000E+00; -1.9546352E+02;0;  1.1855811E+00;  3.8377152E+04;  0.0000000E+00;  7.9314011E+01;  4.0000000E+04;  0.0000000E+00;  3.9984043E+04;  1.2491771E+00;  0.0000000E+00; -6.3595995E-02;  1.1562166E+05;
  2.4262990E-01;  9.9999998E-03;  2.4001917E-01;3964;  2.0005284E-01;  0.0000000E+00;  2.5276439E-02;  9.9160876E+02;  1.0000000E-01; -6.9520005E+03;3; -1.8353449E+01;  0.0000000E+00; -1.1537974E+01;0;  4.6378529E-01;  3.9291297E+04;  0.0000000E+00; -5.4769020E+00;  4.0000000E+04;  0.0000000E+00;  4.0044645E+04;  4.3281829E-01;  0.0000000E+00;  3.0966993E-02;  9.8129658E+03;
  2.4277936E-01;  9.9999998E-03;  2.5001454E-01;3965;  1.9849475E-01;  0.0000000E+00;  2.4729054E-02;  9.9012085E+02;  1.0000000E-01; -8.1847061E+03;3; -1.3429739E+01;  0.0000000E+00; -1.7381132E+01;0;  4.8157284E-01;  3.9175199E+04;  0.0000000E+00; -5.7942357E+00;  4.0000000E+04;  0.0000000E+00;  4.0044438E+04;  4.5774597E-01;  0.0000000E+00;  2.3826867E-02;  1.0072098E+04;
  2.4283481E-01;  9.9999998E-03;  2.6000220E-01;3966;  1.9785169E-01;  0.0000000E+00;  2.3128230E-02;  9.8843982E+02;  1.0000000E-01; -9.5774072E+03;3; -5.4328132E+00;  0.0000000E+00; -2.6605921E+01;0;  5.1927829E-01;  3.9043762E+04;  0.0000000E+00; -3.8158941E+00;  4.0000000E+04;  0.0000000E+00;  4.0044191E+04;  5.0486845E-01;  0.0000000E+00;  1.4409818E-02;  8.0146030E+03;
  2.4274112E-01;  9.9999998E-03;  2.6998937E-01;3967;  1.9934694E-01;  0.0000000E+00;  2.0090397E-02;  9.8670013E+02;  1.0000000E-01; -1.1018700E+04;3;  7.1800761E+00;  0.0000000E+00; -4.1032639E+01;0;  5.7512778E-01;  3.8908438E+04;  0.0000000E+00;  4.7787838E+00;  4.0000000E+04;  0.0000000E+00;  4.0042750E+04;  5.8074117E-01;  0.0000000E+00; -5.6133866E-03;  1.0272976E+04;
  2.4258348E-01;  9.9999998E-03;  2.7997741E-01;3968;  2.0517203E-01;  0.0000000E+00;  1.5793230E-02;  9.8496405E+02;  1.0000000E-01; -1.2456980E+04;3;  2.6572054E+01;  0.0000000E+00; -6.3293461E+01;0;  6.5603077E-01;  3.8774363E+04;  0.0000000E+00;  2.1509418E+01;  4.0000000E+04;  0.0000000E+00;  4.0040113E+04;  6.9760776E-01;  0.0000000E+00; -4.1576970E-02;  3.2793520E+04;
  2.4244899E-01;  9.9999998E-03;  2.8996509E-01;3969;  2.1327165E-01;  0.0000000E+00;  1.2268760E-02;  9.8320709E+02;  1.0000000E-01; -1.3912593E+04;3;  5.2720490E+01;  0.0000000E+00; -9.3893341E+01;0;  7.8784138E-01;  3.8639035E+04;  0.0000000E+00;  4.2143776E+01;  4.0000000E+04;  0.0000000E+00;  4.0037723E+04;  8.6243045E-01;  0.0000000E+00; -7.4589059E-02;  6.2148062E+04;
  2.4238913E-01;  9.9999998E-03;  2.9995778E-01;3970;  2.2133601E-01;  0.0000000E+00;  1.0063387E-02;  9.8122998E+02;  1.0000000E-01; -1.5550621E+04;3;  8.0347153E+01;  0.0000000E+00; -1.2896307E+02;0;  9.8314595E-01;  3.8490973E+04;  0.0000000E+00;  5.8072014E+01;  4.0000000E+04;  0.0000000E+00;  4.0031586E+04;  1.0753832E+00;  0.0000000E+00; -9.2237249E-02;  8.4769883E+04;
  2.5264221E-01;  9.9999998E-03;  2.4002999E-01;4025;  2.0256296E-01;  0.0000000E+00;  2.0265238E-02;  9.9218933E+02;  1.0000000E-01; -6.4709771E+03;3; -2.0112877E+01;  0.0000000E+00; -1.0012167E+01;0;  4.9511275E-01;  3.9344590E+04;  0.0000000E+00; -6.3559289E+00;  4.0000000E+04;  0.0000000E+00;  4.0037184E+04;  4.5932728E-01;  0.0000000E+00;  3.5785463E-02;  1.0330772E+04;
  2.5280482E-01;  9.9999998E-03;  2.5002712E-01;4026;  2.0158792E-01;  0.0000000E+00;  1.9286549E-02;  9.9093018E+02;  1.0000000E-01; -7.5141572E+03;3; -1.6903849E+01;  0.0000000E+00; -1.4257900E+01;0;  4.9391189E-01;  3.9246699E+04;  0.0000000E+00; -7.9633379E+00;  4.0000000E+04;  0.0000000E+00;  4.0036922E+04;  4.6920976E-01;  0.0000000E+00;  2.4702122E-02;  1.2256751E+04;
  2.5289324E-01;  9.9999998E-03;  2.6001260E-01;4027;  2.0135672E-01;  0.0000000E+00;  1.7464528E-02;  9.8949652E+02;  1.0000000E-01; -8.7019258E+03;3; -1.1619440E+01;  0.0000000E+00; -2.0616526E+01;0;  5.0738961E-01;  3.9133043E+04;  0.0000000E+00; -8.4555063E+00;  4.0000000E+04;  0.0000000E+00;  4.0038469E+04;  4.9783275E-01;  0.0000000E+00;  9.5568746E-03;  1.2858799E+04;
  2.5285691E-01;  9.9999998E-03;  2.6998755E-01;4028;  2.0241171E-01;  0.0000000E+00;  1.4976248E-02;  9.8803717E+02;  1.0000000E-01; -9.9109785E+03;3; -2.8009453E+00;  0.0000000E+00; -2.9106394E+01;0;  5.3713262E-01;  3.9010629E+04;  0.0000000E+00; -4.4685035E+00;  4.0000000E+04;  0.0000000E+00;  4.0046336E+04;  5.4994637E-01;  0.0000000E+00; -1.2813767E-02;  8.8245830E+03;
  2.5272897E-01;  9.9999998E-03;  2.7996144E-01;4029;  2.0571269E-01;  0.0000000E+00;  1.2066024E-02;  9.8661633E+02;  1.0000000E-01; -1.1088130E+04;3;  1.1204556E+01;  0.0000000E+00; -4.1065250E+01;0;  5.8997905E-01;  3.8887504E+04;  0.0000000E+00;  7.1178751E+00;  4.0000000E+04;  0.0000000E+00;  4.0057641E+04;  6.3310796E-01;  0.0000000E+00; -4.3128885E-02;  1.3957119E+04;
  2.5261223E-01;  9.9999998E-03;  2.8994003E-01;4030;  2.1113805E-01;  0.0000000E+00;  9.2439801E-03;  9.8511407E+02;  1.0000000E-01; -1.2332688E+04;3;  3.0506649E+01;  0.0000000E+00; -5.7691448E+01;0;  6.7975497E-01;  3.8760363E+04;  0.0000000E+00;  2.3128786E+01;  4.0000000E+04;  0.0000000E+00;  4.0067121E+04;  7.5486541E-01;  0.0000000E+00; -7.5110421E-02;  3.5519047E+04;
  2.5255528E-01;  9.9999998E-03;  2.9992503E-01;4031;  2.1657908E-01;  0.0000000E+00;  7.0350850E-03;  9.8337817E+02;  1.0000000E-01; -1.3770869E+04;3;  5.2792282E+01;  0.0000000E+00; -7.7595901E+01;0;  8.1803018E-01;  3.8621039E+04;  0.0000000E+00;  3.6845253E+01;  4.0000000E+04;  0.0000000E+00;  4.0070598E+04;  9.1626048E-01;  0.0000000E+00; -9.8230287E-02;  5.4751852E+04;
  2.6265436E-01;  9.9999998E-03;  2.4003935E-01;4086;  2.0580716E-01;  0.0000000E+00;  1.4760089E-02;  9.9263226E+02;  1.0000000E-01; -6.1040244E+03;3; -2.1312420E+01;  0.0000000E+00; -8.6473751E+00;0;  5.2290565E-01;  3.9387551E+04;  0.0000000E+00; -6.1784091E+00;  4.0000000E+04;  0.0000000E+00;  4.0029535E+04;  4.8851013E-01;  0.0000000E+00;  3.4395516E-02;  9.6782822E+03;
  2.6282454E-01;  9.9999998E-03;  2.5003448E-01;4087;  2.0512374E-01;  0.0000000E+00;  1.3543997E-02;  9.9161938E+02;  1.0000000E-01; -6.9431611E+03;3; -1.9508844E+01;  0.0000000E+00; -1.1488716E+01;0;  5.0441378E-01;  3.9308266E+04;  0.0000000E+00; -8.3943443E+00;  4.0000000E+04;  0.0000000E+00;  4.0029930E+04;  4.8524898E-01;  0.0000000E+00;  1.9164801E-02;  1.2547801E+04;
  2.6294377E-01;  9.9999998E-03;  2.6001456E-01;4088;  2.0503904E-01;  0.0000000E+00;  1.1777882E-02;  9.9047833E+02;  1.0000000E-01; -7.8885171E+03;3; -1.6173346E+01;  0.0000000E+00; -1.5452729E+01;0;  4.9624163E-01;  3.9214016E+04;  0.0000000E+00; -1.0439960E+01;  4.0000000E+04;  0.0000000E+00;  4.0035352E+04;  4.9698219E-01;  0.0000000E+00; -7.4055791E-04;  1.5433983E+04;
  2.6296207E-01;  9.9999998E-03;  2.6998216E-01;4089;  2.0515922E-01;  0.0000000E+00;  1.0114006E-02;  9.8932477E+02;  1.0000000E-01; -8.8442432E+03;3; -1.0108068E+01;  0.0000000E+00; -2.0045246E+01;0;  5.0460267E-01;  3.9108332E+04;  0.0000000E+00; -1.0040333E+01;  4.0000000E+04;  0.0000000E+00;  4.0050910E+04;  5.2681231E-01;  0.0000000E+00; -2.2209615E-02;  1.5595559E+04;
  2.6288858E-01;  9.9999998E-03;  2.7995080E-01;4090;  2.0634380E-01;  0.0000000E+00;  8.5574510E-03;  9.8815686E+02;  1.0000000E-01; -9.8118203E+03;3; -3.9468023E-01;  0.0000000E+00; -2.5768496E+01;0;  5.3625506E-01;  3.8996969E+04;  0.0000000E+00; -4.2287908E+00;  4.0000000E+04;  0.0000000E+00;  4.0070512E+04;  5.8001053E-01;  0.0000000E+00; -4.3755449E-02;  1.1182875E+04;
  2.6278746E-01;  9.9999998E-03;  2.8992718E-01;4091;  2.0932084E-01;  0.0000000E+00;  6.7778453E-03;  9.8688391E+02;  1.0000000E-01; -1.0866408E+04;3;  1.3206069E+01;  0.0000000E+00; -3.3918461E+01;0;  5.9594727E-01;  3.8881504E+04;  0.0000000E+00;  6.7351494E+00;  4.0000000E+04;  0.0000000E+00;  4.0085840E+04;  6.6348058E-01;  0.0000000E+00; -6.7533307E-02;  1.5768401E+04;
  2.6272780E-01;  9.9999998E-03;  2.9990947E-01;4092;  2.1282692E-01;  0.0000000E+00;  4.8547462E-03;  9.8538263E+02;  1.0000000E-01; -1.2110225E+04;3;  3.0018808E+01;  0.0000000E+00; -4.4042217E+01;0;  6.8943924E-01;  3.8755055E+04;  0.0000000E+00;  1.7659113E+01;  4.0000000E+04;  0.0000000E+00;  4.0094758E+04;  7.8049856E-01;  0.0000000E+00; -9.1059312E-02;  2.9148107E+04;
  2.7267984E-01;  9.9999998E-03;  2.4004225E-01;4147;  2.0960899E-01;  0.0000000E+00;  9.2995465E-03;  9.9296783E+02;  1.0000000E-01; -5.8260078E+03;3; -2.1682098E+01;  0.0000000E+00; -7.5543656E+00;0;  5.4803807E-01;  3.9420266E+04;  0.0000000E+00; -5.2983046E+00;  4.0000000E+04;  0.0000000E+00;  4.0023473E+04;  5.1909620E-01;  0.0000000E+00;  2.8941879E-02;  8.2488242E+03;
  2.7283761E-01;  9.9999998E-03;  2.5003466E-01;4148;  2.0870799E-01;  0.0000000E+00;  8.0645140E-03;  9.9220111E+02;  1.0000000E-01; -6.4612490E+03;3; -2.0839966E+01;  0.0000000E+00; -9.3935871E+00;0;  5.1601887E-01;  3.9358973E+04;  0.0000000E+00; -7.4834676E+00;  4.0000000E+04;  0.0000000E+00;  4.0025293E+04;  5.0544721E-01;  0.0000000E+00;  1.0571676E-02;  1.1181478E+04;
  2.7297220E-01;  9.9999998E-03;  2.6001009E-01;4149;  2.0807371E-01;  0.0000000E+00;  6.6692354E-03;  9.9136554E+02;  1.0000000E-01; -7.1534761E+03;3; -1.9059883E+01;  0.0000000E+00; -1.1525755E+01;0;  4.9155310E-01;  3.9284945E+04;  0.0000000E+00; -9.9808950E+00;  4.0000000E+04;  0.0000000E+00;  4.0034738E+04;  5.0283617E-01;  0.0000000E+00; -1.1283059E-02;  1.4879890E+04;
  2.7304292E-01;  9.9999998E-03;  2.6997569E-01;4150;  2.0742816E-01;  0.0000000E+00;  5.7819928E-03;  9.9050958E+02;  1.0000000E-01; -7.8626411E+03;3; -1.5350327E+01;  0.0000000E+00; -1.3751550E+01;0;  4.8362032E-01;  3.9198395E+04;  0.0000000E+00; -1.1722196E+01;  4.0000000E+04;  0.0000000E+00;  4.0054930E+04;  5.1387346E-01;  0.0000000E+00; -3.0253150E-02;  1.8076562E+04;
  2.7304006E-01;  9.9999998E-03;  2.7994537E-01;4151;  2.0721711E-01;  0.0000000E+00;  5.2493094E-03;  9.8956195E+02;  1.0000000E-01; -8.6477051E+03;3; -8.9435501E+00;  0.0000000E+00; -1.6402691E+01;0;  4.9873823E-01;  3.9101887E+04;  0.0000000E+00; -1.0733182E+01;  4.0000000E+04;  0.0000000E+00;  4.0077242E+04;  5.4232699E-01;  0.0000000E+00; -4.3588758E-02;  1.8212441E+04;
  2.7298108E-01;  9.9999998E-03;  2.8992325E-01;4152;  2.0829011E-01;  0.0000000E+00;  4.3101208E-03;  9.8845996E+02;  1.0000000E-01; -9.5607168E+03;3;  6.8320349E-02;  0.0000000E+00; -2.0028639E+01;0;  5.3472376E-01;  3.8998496E+04;  0.0000000E+00; -5.4653020E+00;  4.0000000E+04;  0.0000000E+00;  4.0093906E+04;  5.9374464E-01;  0.0000000E+00; -5.9020907E-02;  1.4632619E+04;
  2.7293211E-01;  9.9999998E-03;  2.9990545E-01;4153;  2.1002893E-01;  0.0000000E+00;  2.9178215E-03;  9.8715442E+02;  1.0000000E-01; -1.0642315E+04;3;  1.2027983E+01;  0.0000000E+00; -2.4617430E+01;0;  5.9445786E-01;  3.8884816E+04;  0.0000000E+00;  1.4659412E+00;  4.0000000E+04;  0.0000000E+00;  4.0105031E+04;  6.7229080E-01;  0.0000000E+00; -7.7832930E-02;  1.4453463E+04;
  2.8271809E-01;  9.9999998E-03;  2.4003784E-01;4208;  2.1386114E-01;  0.0000000E+00;  4.1269716E-03;  9.9322467E+02;  1.0000000E-01; -5.6132236E+03;3; -2.1038128E+01;  0.0000000E+00; -7.0154200E+00;0;  5.7030433E-01;  3.9444250E+04;  0.0000000E+00; -4.0502520E+00;  4.0000000E+04;  0.0000000E+00;  4.0019988E+04;  5.4942012E-01;  0.0000000E+00;  2.0884240E-02;  6.4822544E+03;
  2.8286192E-01;  9.9999998E-03;  2.5002843E-01;4209;  2.1256448E-01;  0.0000000E+00;  2.7911167E-03;  9.9267987E+02;  1.0000000E-01; -6.0645688E+03;3; -2.1004705E+01;  0.0000000E+00; -8.0872555E+00;0;  5.2822971E-01;  3.9399285E+04;  0.0000000E+00; -5.9198699E+00;  4.0000000E+04;  0.0000000E+00;  4.0023184E+04;  5.2904421E-01;  0.0000000E+00; -8.1448292E-04;  9.0488896E+03;
  2.8299576E-01;  9.9999998E-03;  2.6000160E-01;4210;  2.1137278E-01;  0.0000000E+00;  1.7104934E-03;  9.9212933E+02;  1.0000000E-01; -6.5207041E+03;3; -2.0107691E+01;  0.0000000E+00; -9.2508917E+00;0;  4.9145344E-01;  3.9344328E+04;  0.0000000E+00; -8.1872387E+00;  4.0000000E+04;  0.0000000E+00;  4.0035969E+04;  5.1603550E-01;  0.0000000E+00; -2.4582053E-02;  1.2616706E+04;
  2.8309754E-01;  9.9999998E-03;  2.6996884E-01;4211;  2.0958444E-01;  0.0000000E+00;  1.7537620E-03;  9.9155316E+02;  1.0000000E-01; -6.9980239E+03;3; -1.8436354E+01;  0.0000000E+00; -1.0056146E+01;0;  4.7400352E-01;  3.9278129E+04;  0.0000000E+00; -1.0529668E+01;  4.0000000E+04;  0.0000000E+00;  4.0057840E+04;  5.1246732E-01;  0.0000000E+00; -3.8463809E-02;  1.6790521E+04;
  2.8315479E-01;  9.9999998E-03;  2.7994317E-01;4212;  2.0839728E-01;  0.0000000E+00;  1.9184054E-03;  9.9082257E+02;  1.0000000E-01; -7.6033398E+03;3; -1.4915288E+01;  0.0000000E+00; -1.1144394E+01;0;  4.7573692E-01;  3.9200457E+04;  0.0000000E+00; -1.2080440E+01;  4.0000000E+04;  0.0000000E+00;  4.0078676E+04;  5.2167732E-01;  0.0000000E+00; -4.5940395E-02;  1.9984387E+04;
  2.8317136E-01;  9.9999998E-03;  2.8992435E-01;4213;  2.0827176E-01;  0.0000000E+00;  1.4699111E-03;  9.8988214E+02;  1.0000000E-01; -8.3824785E+03;3; -9.3908186E+00;  0.0000000E+00; -1.2741767E+01;0;  4.9138951E-01;  3.9111754E+04;  0.0000000E+00; -1.1837970E+01;  4.0000000E+04;  0.0000000E+00;  4.0093695E+04;  5.4781580E-01;  0.0000000E+00; -5.6426298E-02;  2.0763188E+04;
  2.8317937E-01;  9.9999998E-03;  2.9990798E-01;4214;  2.0849253E-01;  0.0000000E+00;  7.5402751E-04;  9.8872296E+02;  1.0000000E-01; -9.3427969E+03;3; -1.6425602E+00;  0.0000000E+00; -1.4474258E+01;0;  5.2755529E-01;  3.9010055E+04;  0.0000000E+00; -1.0304216E+01;  4.0000000E+04;  0.0000000E+00;  4.0104672E+04;  5.9439695E-01;  0.0000000E+00; -6.6841677E-02;  2.0012355E+04;
  2.9277080E-01;  9.9999998E-03;  2.4003094E-01;4269;  2.1960941E-01;  0.0000000E+00; -9.9438510E-04;  9.9341632E+02;  1.0000000E-01; -5.4544624E+03;3; -1.9633392E+01;  0.0000000E+00; -6.7026153E+00;0;  5.8720589E-01;  3.9462262E+04;  0.0000000E+00; -2.7498000E+00;  4.0000000E+04;  0.0000000E+00;  4.0017566E+04;  5.7759172E-01;  0.0000000E+00;  9.6141929E-03;  4.7571553E+03;
  2.9290566E-01;  9.9999998E-03;  2.5001666E-01;4270;  2.1731643E-01;  0.0000000E+00; -2.2548281E-03;  9.9308545E+02;  1.0000000E-01; -5.7285781E+03;3; -2.0056658E+01;  0.0000000E+00; -7.4259968E+00;0;  5.4005474E-01;  3.9431012E+04;  0.0000000E+00; -4.2008576E+00;  4.0000000E+04;  0.0000000E+00;  4.0023848E+04;  5.5447608E-01;  0.0000000E+00; -1.4421366E-02;  6.9114067E+03;
  2.9302242E-01;  9.9999998E-03;  2.5998935E-01;4271;  2.1500647E-01;  0.0000000E+00; -2.9123055E-03;  9.9278253E+02;  1.0000000E-01; -5.9795342E+03;3; -2.0333536E+01;  0.0000000E+00; -7.7978120E+00;0;  4.9645251E-01;  3.9392855E+04;  0.0000000E+00; -5.9258289E+00;  4.0000000E+04;  0.0000000E+00;  4.0039156E+04;  5.3529948E-01;  0.0000000E+00; -3.8846962E-02;  9.9967178E+03;
  2.9313162E-01;  9.9999998E-03;  2.6996142E-01;4272;  2.1190262E-01;  0.0000000E+00; -2.0123387E-03;  9.9244116E+02;  1.0000000E-01; -6.2623408E+03;3; -2.0022217E+01;  0.0000000E+00; -7.9878764E+00;0;  4.7473162E-01;  3.9346176E+04;  0.0000000E+00; -7.9272304E+00;  4.0000000E+04;  0.0000000E+00;  4.0060156E+04;  5.2200055E-01;  0.0000000E+00; -4.7268923E-02;  1.3821631E+04;
  2.9323682E-01;  9.9999998E-03;  2.7994207E-01;4273;  2.0983316E-01;  0.0000000E+00; -1.3737264E-03;  9.9191583E+02;  1.0000000E-01; -6.6975879E+03;3; -1.8639841E+01;  0.0000000E+00; -8.3167830E+00;0;  4.6673182E-01;  3.9288906E+04;  0.0000000E+00; -1.0233103E+01;  4.0000000E+04;  0.0000000E+00;  4.0076852E+04;  5.1751316E-01;  0.0000000E+00; -5.0781336E-02;  1.7706957E+04;
  2.9332817E-01;  9.9999998E-03;  2.8992712E-01;4274;  2.0900738E-01;  0.0000000E+00; -1.5739466E-03;  9.9117780E+02;  1.0000000E-01; -7.3090273E+03;3; -1.5875839E+01;  0.0000000E+00; -8.8778639E+00;0;  4.6572500E-01;  3.9219469E+04;  0.0000000E+00; -1.2557903E+01;  4.0000000E+04;  0.0000000E+00;  4.0088938E+04;  5.2503347E-01;  0.0000000E+00; -5.9308466E-02;  2.1284330E+04;
  2.9342294E-01;  9.9999998E-03;  2.9991278E-01;4275;  2.0862246E-01;  0.0000000E+00; -2.0390535E-03;  9.9020905E+02;  1.0000000E-01; -8.1116216E+03;3; -1.1319434E+01;  0.0000000E+00; -9.4999399E+00;0;  4.8037961E-01;  3.9134594E+04;  0.0000000E+00; -1.5111829E+01;  4.0000000E+04;  0.0000000E+00;  4.0098434E+04;  5.4749531E-01;  0.0000000E+00; -6.7115702E-02;  2.4984205E+04;
  3.0283722E-01;  9.9999998E-03;  2.4002148E-01;4330;  2.2621438E-01;  0.0000000E+00; -5.0677811E-03;  9.9358044E+02;  1.0000000E-01; -5.3184663E+03;3; -1.7694578E+01;  0.0000000E+00; -6.2519259E+00;0;  6.0117853E-01;  3.9476777E+04;  0.0000000E+00; -1.6199936E+00;  4.0000000E+04;  0.0000000E+00;  4.0016398E+04;  6.0118979E-01;  0.0000000E+00; -1.1252036E-05;  3.4531482E+03;
  3.0295685E-01;  9.9999998E-03;  2.5000259E-01;4331;  2.2248222E-01;  0.0000000E+00; -6.3312720E-03;  9.9343591E+02;  1.0000000E-01; -5.4382163E+03;3; -1.8926382E+01;  0.0000000E+00; -6.7122879E+00;0;  5.5402195E-01;  3.9456977E+04;  0.0000000E+00; -2.6162522E+00;  4.0000000E+04;  0.0000000E+00;  4.0025695E+04;  5.7922924E-01;  0.0000000E+00; -2.5207272E-02;  5.2679883E+03;
  3.0306423E-01;  9.9999998E-03;  2.5997603E-01;4332;  2.1845151E-01;  0.0000000E+00; -6.3167438E-03;  9.9333240E+02;  1.0000000E-01; -5.5239917E+03;3; -1.9946667E+01;  0.0000000E+00; -6.8904176E+00;0;  5.1234102E-01;  3.9432855E+04;  0.0000000E+00; -3.8314936E+00;  4.0000000E+04;  0.0000000E+00;  4.0042773E+04;  5.5824798E-01;  0.0000000E+00; -4.5906972E-02;  7.9966392E+03;
  3.0317566E-01;  9.9999998E-03;  2.6995501E-01;4333;  2.1416323E-01;  0.0000000E+00; -5.0582802E-03;  9.9316199E+02;  1.0000000E-01; -5.6651729E+03;3; -2.0725847E+01;  0.0000000E+00; -6.8409262E+00;0;  4.8876598E-01;  3.9402844E+04;  0.0000000E+00; -5.3179202E+00;  4.0000000E+04;  0.0000000E+00;  4.0060438E+04;  5.4021573E-01;  0.0000000E+00; -5.1449757E-02;  1.1053440E+04;
  3.0330297E-01;  9.9999998E-03;  2.7994147E-01;4334;  2.1135777E-01;  0.0000000E+00; -4.3112626E-03;  9.9282831E+02;  1.0000000E-01; -5.9416094E+03;3; -2.0835367E+01;  0.0000000E+00; -6.7670889E+00;0;  4.7323883E-01;  3.9365234E+04;  0.0000000E+00; -7.2892327E+00;  4.0000000E+04;  0.0000000E+00;  4.0072746E+04;  5.2759206E-01;  0.0000000E+00; -5.4353230E-02;  1.4128817E+04;
  3.0344152E-01;  9.9999998E-03;  2.8993011E-01;4335;  2.0995834E-01;  0.0000000E+00; -4.3499521E-03;  9.9232166E+02;  1.0000000E-01; -6.3613506E+03;3; -1.9922577E+01;  0.0000000E+00; -6.8644996E+00;0;  4.6139464E-01;  3.9317410E+04;  0.0000000E+00; -9.9099369E+00;  4.0000000E+04;  0.0000000E+00;  4.0081484E+04;  5.2280563E-01;  0.0000000E+00; -6.1410982E-02;  1.7680529E+04;
  3.0359903E-01;  9.9999998E-03;  2.9991823E-01;4336;  2.0933883E-01;  0.0000000E+00; -4.6921470E-03;  9.9161664E+02;  1.0000000E-01; -6.9454326E+03;3; -1.7803305E+01;  0.0000000E+00; -6.9873466E+00;0;  4.6016085E-01;  3.9255930E+04;  0.0000000E+00; -1.3407496E+01;  4.0000000E+04;  0.0000000E+00;  4.0088609E+04;  5.2827710E-01;  0.0000000E+00; -6.8116248E-02;  2.2289699E+04;
  3.1291834E-01;  9.9999998E-03;  2.4000911E-01;4391;  2.3397572E-01;  0.0000000E+00; -8.0419453E-03;  9.9375385E+02;  1.0000000E-01; -5.1748164E+03;3; -1.5212783E+01;  0.0000000E+00; -5.8500948E+00;0;  6.1076659E-01;  3.9490512E+04;  0.0000000E+00; -7.7913481E-01;  4.0000000E+04;  0.0000000E+00;  4.0016551E+04;  6.1802375E-01;  0.0000000E+00; -7.2571514E-03;  2.8134602E+03;
  3.1302512E-01;  9.9999998E-03;  2.4998841E-01;4392;  2.2810796E-01;  0.0000000E+00; -9.0217674E-03;  9.9374878E+02;  1.0000000E-01; -5.1790137E+03;3; -1.7205269E+01;  0.0000000E+00; -6.1272860E+00;0;  5.7070845E-01;  3.9479926E+04;  0.0000000E+00; -1.3966771E+00;  4.0000000E+04;  0.0000000E+00;  4.0027684E+04;  6.0068220E-01;  0.0000000E+00; -2.9973753E-02;  4.4362993E+03;
  3.1312650E-01;  9.9999998E-03;  2.5996503E-01;4393;  2.2194472E-01;  0.0000000E+00; -8.5332785E-03;  9.9378534E+02;  1.0000000E-01; -5.1487427E+03;3; -1.9100494E+01;  0.0000000E+00; -6.1890879E+00;0;  5.3626543E-01;  3.9467090E+04;  0.0000000E+00; -2.1846671E+00;  4.0000000E+04;  0.0000000E+00;  4.0044449E+04;  5.8198726E-01;  0.0000000E+00; -4.5721803E-02;  6.8005586E+03;
  3.1324056E-01;  9.9999998E-03;  2.6995030E-01;4394;  2.1650212E-01;  0.0000000E+00; -7.2459076E-03;  9.9374432E+02;  1.0000000E-01; -5.1827173E+03;3; -2.0662907E+01;  0.0000000E+00; -6.1587248E+00;0;  5.1444995E-01;  3.9450910E+04;  0.0000000E+00; -3.1958656E+00;  4.0000000E+04;  0.0000000E+00;  4.0058383E+04;  5.6384939E-01;  0.0000000E+00; -4.9399421E-02;  9.0168486E+03;
  3.1337580E-01;  9.9999998E-03;  2.7994144E-01;4395;  2.1301427E-01;  0.0000000E+00; -6.7081987E-03;  9.9356921E+02;  1.0000000E-01; -5.3277993E+03;3; -2.1652174E+01;  0.0000000E+00; -5.9925981E+00;0;  4.9400353E-01;  3.9429570E+04;  0.0000000E+00; -4.5774579E+00;  4.0000000E+04;  0.0000000E+00;  4.0066688E+04;  5.4828596E-01;  0.0000000E+00; -5.4282416E-02;  1.0966940E+04;
  3.1353214E-01;  9.9999998E-03;  2.8993309E-01;4396;  2.1096128E-01;  0.0000000E+00; -6.7232973E-03;  9.9327411E+02;  1.0000000E-01; -5.5722866E+03;3; -2.2048557E+01;  0.0000000E+00; -5.8617105E+00;0;  4.7606477E-01;  3.9401816E+04;  0.0000000E+00; -6.5152750E+00;  4.0000000E+04;  0.0000000E+00;  4.0072367E+04;  5.3714538E-01;  0.0000000E+00; -6.1080597E-02;  1.3289614E+04;
  3.1370753E-01;  9.9999998E-03;  2.9992384E-01;4397;  2.0994875E-01;  0.0000000E+00; -6.9889021E-03;  9.9284491E+02;  1.0000000E-01; -5.9278320E+03;3; -2.1578341E+01;  0.0000000E+00; -5.7932334E+00;0;  4.6536461E-01;  3.9364562E+04;  0.0000000E+00; -9.0977669E+00;  4.0000000E+04;  0.0000000E+00;  4.0076742E+04;  5.3227806E-01;  0.0000000E+00; -6.6913448E-02;  1.6396455E+04;
  3.2301450E-01;  9.9999998E-03;  2.3999642E-01;4452;  2.4315897E-01;  0.0000000E+00; -1.0020895E-02;  9.9395142E+02;  1.0000000E-01; -5.0111172E+03;3; -1.2006384E+01;  0.0000000E+00; -5.4257865E+00;0;  6.1380935E-01;  3.9505738E+04;  0.0000000E+00; -2.4546409E-01;  4.0000000E+04;  0.0000000E+00;  4.0017129E+04;  6.2609529E-01;  0.0000000E+00; -1.2285959E-02;  2.6668530E+03;
  3.2311854E-01;  9.9999998E-03;  2.4997602E-01;4453;  2.3461376E-01;  0.0000000E+00; -1.0597212E-02;  9.9404468E+02;  1.0000000E-01; -4.9338848E+03;3; -1.4966542E+01;  0.0000000E+00; -5.5419955E+00;0;  5.8581984E-01;  3.9502355E+04;  0.0000000E+00; -5.8917737E-01;  4.0000000E+04;  0.0000000E+00;  4.0028809E+04;  6.1611778E-01;  0.0000000E+00; -3.0297939E-02;  4.1746426E+03;
  3.2321396E-01;  9.9999998E-03;  2.5995699E-01;4454;  2.2616607E-01;  0.0000000E+00; -9.7778784E-03;  9.9417242E+02;  1.0000000E-01; -4.8280112E+03;3; -1.7625072E+01;  0.0000000E+00; -5.6640959E+00;0;  5.6289786E-01;  3.9498316E+04;  0.0000000E+00; -1.0547915E+00;  4.0000000E+04;  0.0000000E+00;  4.0043848E+04;  6.0307616E-01;  0.0000000E+00; -4.0178318E-02;  6.1388477E+03;
  3.2332665E-01;  9.9999998E-03;  2.6994756E-01;4455;  2.1943292E-01;  0.0000000E+00; -8.7355860E-03;  9.9422095E+02;  1.0000000E-01; -4.7878149E+03;3; -1.9847893E+01;  0.0000000E+00; -5.6669779E+00;0;  5.4552233E-01;  3.9492734E+04;  0.0000000E+00; -1.6752763E+00;  4.0000000E+04;  0.0000000E+00;  4.0054012E+04;  5.8869559E-01;  0.0000000E+00; -4.3173276E-02;  7.5958540E+03;
  3.2346347E-01;  9.9999998E-03;  2.7994198E-01;4456;  2.1516608E-01;  0.0000000E+00; -8.5815145E-03;  9.9417297E+02;  1.0000000E-01; -4.8275669E+03;3; -2.1461323E+01;  0.0000000E+00; -5.5264869E+00;0;  5.2348280E-01;  3.9484508E+04;  0.0000000E+00; -2.5300293E+00;  4.0000000E+04;  0.0000000E+00;  4.0059230E+04;  5.7465768E-01;  0.0000000E+00; -5.1174860E-02;  8.6417070E+03;
  3.2361668E-01;  9.9999998E-03;  2.8993592E-01;4457;  2.1226285E-01;  0.0000000E+00; -8.6566564E-03;  9.9404944E+02;  1.0000000E-01; -4.9299341E+03;3; -2.2697096E+01;  0.0000000E+00; -5.3423152E+00;0;  5.0422525E-01;  3.9472445E+04;  0.0000000E+00; -3.6871464E+00;  4.0000000E+04;  0.0000000E+00;  4.0062305E+04;  5.6240010E-01;  0.0000000E+00; -5.8174841E-02;  9.7786797E+03;
  3.2378146E-01;  9.9999998E-03;  2.9992896E-01;4458;  2.1056207E-01;  0.0000000E+00; -8.9005176E-03;  9.9384052E+02;  1.0000000E-01; -5.1030156E+03;3; -2.3337605E+01;  0.0000000E+00; -5.1758256E+00;0;  4.8976639E-01;  3.9454961E+04;  0.0000000E+00; -5.1443610E+00;  4.0000000E+04;  0.0000000E+00;  4.0064520E+04;  5.5330914E-01;  0.0000000E+00; -6.3542753E-02;  1.1224721E+04;
  3.3312610E-01;  9.9999998E-03;  2.3998468E-01;4513;  2.5361097E-01;  0.0000000E+00; -1.1325253E-02;  9.9418347E+02;  1.0000000E-01; -4.8188755E+03;3; -8.7742071E+00;  0.0000000E+00; -5.1611433E+00;0;  6.0750473E-01;  3.9523492E+04;  0.0000000E+00;  3.1528424E-02;  4.0000000E+04;  0.0000000E+00;  4.0017668E+04;  6.2379074E-01;  0.0000000E+00; -1.6285995E-02;  2.6984336E+03;
  3.3322683E-01;  9.9999998E-03;  2.4996632E-01;4514;  2.4266246E-01;  0.0000000E+00; -1.1378560E-02;  9.9434131E+02;  1.0000000E-01; -4.6881138E+03;3; -1.1853088E+01;  0.0000000E+00; -5.1296763E+00;0;  5.9474689E-01;  3.9525660E+04;  0.0000000E+00; -1.3494126E-01;  4.0000000E+04;  0.0000000E+00;  4.0028770E+04;  6.2291008E-01;  0.0000000E+00; -2.8163170E-02;  4.0696709E+03;
  3.3331600E-01;  9.9999998E-03;  2.5995195E-01;4515;  2.3173724E-01;  0.0000000E+00; -1.0288046E-02;  9.9452124E+02;  1.0000000E-01; -4.5390312E+03;3; -1.5152946E+01;  0.0000000E+00; -5.1605597E+00;0;  5.8630574E-01;  3.9528223E+04;  0.0000000E+00; -3.8081613E-01;  4.0000000E+04;  0.0000000E+00;  4.0041180E+04;  6.1783874E-01;  0.0000000E+00; -3.1532981E-02;  5.6229482E+03;
  3.3341953E-01;  9.9999998E-03;  2.6994637E-01;4516;  2.2355485E-01;  0.0000000E+00; -9.7082835E-03;  9.9462909E+02;  1.0000000E-01; -4.4497007E+03;3; -1.8044304E+01;  0.0000000E+00; -5.2442942E+00;0;  5.7489038E-01;  3.9530383E+04;  0.0000000E+00; -7.1779567E-01;  4.0000000E+04;  0.0000000E+00;  4.0048102E+04;  6.1001372E-01;  0.0000000E+00; -3.5123371E-02;  6.5301831E+03;
  3.3354768E-01;  9.9999998E-03;  2.7994293E-01;4517;  2.1825206E-01;  0.0000000E+00; -9.9824201E-03;  9.9467145E+02;  1.0000000E-01; -4.4145903E+03;3; -2.0413231E+01;  0.0000000E+00; -5.1163807E+00;0;  5.5472440E-01;  3.9531625E+04;  0.0000000E+00; -1.1754665E+00;  4.0000000E+04;  0.0000000E+00;  4.0050957E+04;  6.0083538E-01;  0.0000000E+00; -4.6110999E-02;  7.0017002E+03;
  3.3368576E-01;  9.9999998E-03;  2.8993851E-01;4518;  2.1428531E-01;  0.0000000E+00; -1.0191921E-02;  9.9467017E+02;  1.0000000E-01; -4.4156768E+03;3; -2.2363884E+01;  0.0000000E+00; -4.9230518E+00;0;  5.3766823E-01;  3.9530770E+04;  0.0000000E+00; -1.7640599E+00;  4.0000000E+04;  0.0000000E+00;  4.0052297E+04;  5.9150690E-01;  0.0000000E+00; -5.3838640E-02;  7.4098350E+03;
  3.3382720E-01;  9.9999998E-03;  2.9993331E-01;4519;  2.1161409E-01;  0.0000000E+00; -1.0460990E-02;  9.9461609E+02;  1.0000000E-01; -4.4604658E+03;3; -2.3740946E+01;  0.0000000E+00; -4.7282391E+00;0;  5.2404547E-01;  3.9526977E+04;  0.0000000E+00; -2.4509256E+00;  4.0000000E+04;  0.0000000E+00;  4.0052762E+04;  5.8312231E-01;  0.0000000E+00; -5.9076842E-02;  7.8341709E+03;
  3.4323341E-01;  9.9999998E-03;  2.3997362E-01;4574;  2.6443243E-01;  0.0000000E+00; -1.2062620E-02;  9.9445245E+02;  1.0000000E-01; -4.5960176E+03;3; -6.0690517E+00;  0.0000000E+00; -4.9299335E+00;0;  5.9058082E-01;  3.9543730E+04;  0.0000000E+00;  1.3389957E-01;  4.0000000E+04;  0.0000000E+00;  4.0018594E+04;  6.1006993E-01;  0.0000000E+00; -1.9489137E-02;  2.7874028E+03;
  3.4332532E-01;  9.9999998E-03;  2.4995862E-01;4575;  2.5203234E-01;  0.0000000E+00; -1.1685372E-02;  9.9464655E+02;  1.0000000E-01; -4.4352319E+03;3; -8.7377367E+00;  0.0000000E+00; -4.9190569E+00;0;  5.9337598E-01;  3.9549938E+04;  0.0000000E+00;  5.8550082E-02;  4.0000000E+04;  0.0000000E+00;  4.0028281E+04;  6.1889011E-01;  0.0000000E+00; -2.5514133E-02;  3.9740347E+03;
  3.4340370E-01;  9.9999998E-03;  2.5994897E-01;4576;  2.3943482E-01;  0.0000000E+00; -1.0540785E-02;  9.9484833E+02;  1.0000000E-01; -4.2680762E+03;3; -1.1857110E+01;  0.0000000E+00; -4.9584918E+00;0;  5.9891707E-01;  3.9557117E+04;  0.0000000E+00; -6.2323898E-02;  4.0000000E+04;  0.0000000E+00;  4.0037523E+04;  6.2291825E-01;  0.0000000E+00; -2.4001198E-02;  5.1180156E+03;
  3.4349394E-01;  9.9999998E-03;  2.6994643E-01;4577;  2.2982384E-01;  0.0000000E+00; -1.0446005E-02;  9.9498779E+02;  1.0000000E-01; -4.1525239E+03;3; -1.5144882E+01;  0.0000000E+00; -4.9791298E+00;0;  5.9465075E-01;  3.9564652E+04;  0.0000000E+00; -2.3178685E-01;  4.0000000E+04;  0.0000000E+00;  4.0041508E+04;  6.2323093E-01;  0.0000000E+00; -2.8580165E-02;  5.6058184E+03;
  3.4360567E-01;  9.9999998E-03;  2.7994433E-01;4578;  2.2302593E-01;  0.0000000E+00; -1.1060705E-02;  9.9508698E+02;  1.0000000E-01; -4.0703535E+03;3; -1.8311007E+01;  0.0000000E+00; -4.7863050E+00;0;  5.7963377E-01;  3.9571875E+04;  0.0000000E+00; -4.5474720E-01;  4.0000000E+04;  0.0000000E+00;  4.0042520E+04;  6.2095040E-01;  0.0000000E+00; -4.1316621E-02;  5.7582817E+03;
  3.4372219E-01;  9.9999998E-03;  2.8994092E-01;4579;  2.1764359E-01;  0.0000000E+00; -1.1445872E-02;  9.9516211E+02;  1.0000000E-01; -4.0080835E+03;3; -2.0948885E+01;  0.0000000E+00; -4.5790272E+00;0;  5.6697750E-01;  3.9578086E+04;  0.0000000E+00; -7.2490913E-01;  4.0000000E+04;  0.0000000E+00;  4.0042816E+04;  6.1711729E-01;  0.0000000E+00; -5.0139770E-02;  5.8388511E+03;
  3.4383762E-01;  9.9999998E-03;  2.9993686E-01;4580;  2.1369116E-01;  0.0000000E+00; -1.1765717E-02;  9.9520282E+02;  1.0000000E-01; -3.9743562E+03;3; -2.3071957E+01;  0.0000000E+00; -4.3707027E+00;0;  5.5728513E-01;  3.9582559E+04;  0.0000000E+00; -1.0146550E+00;  4.0000000E+04;  0.0000000E+00;  4.0042242E+04;  6.1268175E-01;  0.0000000E+00; -5.5396643E-02;  5.8442476E+03;
  3.5331315E-01;  9.9999998E-03;  2.3996250E-01;4635;  2.7499458E-01;  0.0000000E+00; -1.2388976E-02;  9.9475079E+02;  1.0000000E-01; -4.3488638E+03;3; -3.9602942E+00;  0.0000000E+00; -4.7298646E+00;0;  5.6240046E-01;  3.9565324E+04;  0.0000000E+00;  1.4363500E-01;  4.0000000E+04;  0.0000000E+00;  4.0020129E+04;  5.8465904E-01;  0.0000000E+00; -2.2258600E-02;  2.9529382E+03;
  3.5339242E-01;  9.9999998E-03;  2.4995242E-01;4636;  2.6205713E-01;  0.0000000E+00; -1.1741220E-02;  9.9495520E+02;  1.0000000E-01; -4.1795356E+03;3; -6.0111346E+00;  0.0000000E+00; -4.8109679E+00;0;  5.7916021E-01;  3.9574305E+04;  0.0000000E+00;  9.7175181E-02;  4.0000000E+04;  0.0000000E+00;  4.0027680E+04;  6.0269195E-01;  0.0000000E+00; -2.3531750E-02;  3.8768147E+03;
  3.5345781E-01;  9.9999998E-03;  2.5994730E-01;4637;  2.4903902E-01;  0.0000000E+00; -1.0863961E-02;  9.9515509E+02;  1.0000000E-01; -4.0139106E+03;3; -8.5474663E+00;  0.0000000E+00; -4.9126005E+00;0;  5.9545320E-01;  3.9584453E+04;  0.0000000E+00;  2.5747906E-02;  4.0000000E+04;  0.0000000E+00;  4.0033766E+04;  6.1578333E-01;  0.0000000E+00; -2.0330103E-02;  4.6195151E+03;
  3.5353357E-01;  9.9999998E-03;  2.6994726E-01;4638;  2.3867144E-01;  0.0000000E+00; -1.1254731E-02;  9.9530225E+02;  1.0000000E-01; -3.8919880E+03;3; -1.1652628E+01;  0.0000000E+00; -4.8377075E+00;0;  5.9766960E-01;  3.9595141E+04;  0.0000000E+00; -7.0622608E-02;  4.0000000E+04;  0.0000000E+00;  4.0034859E+04;  6.2461627E-01;  0.0000000E+00; -2.6946688E-02;  4.7486543E+03;
  3.5362691E-01;  9.9999998E-03;  2.7994600E-01;4639;  2.3042494E-01;  0.0000000E+00; -1.2134214E-02;  9.9542920E+02;  1.0000000E-01; -3.7868059E+03;3; -1.5160810E+01;  0.0000000E+00; -4.5707445E+00;0;  5.8882111E-01;  3.9605832E+04;  0.0000000E+00; -1.9015265E-01;  4.0000000E+04;  0.0000000E+00;  4.0034621E+04;  6.3001072E-01;  0.0000000E+00; -4.1189607E-02;  4.7053975E+03;
  3.5372129E-01;  9.9999998E-03;  2.8994301E-01;4640;  2.2322340E-01;  0.0000000E+00; -1.2614382E-02;  9.9554578E+02;  1.0000000E-01; -3.6902161E+03;3; -1.8508949E+01;  0.0000000E+00; -4.2579694E+00;0;  5.8261693E-01;  3.9615723E+04;  0.0000000E+00; -3.2420814E-01;  4.0000000E+04;  0.0000000E+00;  4.0034281E+04;  6.3282341E-01;  0.0000000E+00; -5.0206497E-02;  4.6667476E+03;
  3.5381371E-01;  9.9999998E-03;  2.9993948E-01;4641;  2.1760848E-01;  0.0000000E+00; -1.2989874E-02;  9.9563666E+02;  1.0000000E-01; -3.6149590E+03;3; -2.1440157E+01;  0.0000000E+00; -4.0042987E+00;0;  5.7832158E-01;  3.9624363E+04;  0.0000000E+00; -4.5421651E-01;  4.0000000E+04;  0.0000000E+00;  4.0033371E+04;  6.3389724E-01;  0.0000000E+00; -5.5575639E-02;  4.5658066E+03;
  3.6335900E-01;  9.9999998E-03;  2.3995258E-01;4696;  2.8499746E-01;  0.0000000E+00; -1.2549140E-02;  9.9505182E+02;  1.0000000E-01; -4.0994883E+03;3; -2.4539912E+00;  0.0000000E+00; -4.5410028E+00;0;  5.2273947E-01;  3.9586762E+04;  0.0000000E+00;  1.2192423E-01;  4.0000000E+04;  0.0000000E+00;  4.0021961E+04;  5.4804009E-01;  0.0000000E+00; -2.5300611E-02;  3.1587275E+03;
  3.6342525E-01;  9.9999998E-03;  2.4994741E-01;4697;  2.7247757E-01;  0.0000000E+00; -1.1887821E-02;  9.9525140E+02;  1.0000000E-01; -3.9341104E+03;3; -3.8144336E+00;  0.0000000E+00; -4.6963968E+00;0;  5.4982507E-01;  3.9597449E+04;  0.0000000E+00;  7.5176023E-02;  4.0000000E+04;  0.0000000E+00;  4.0027328E+04;  5.7387865E-01;  0.0000000E+00; -2.4053572E-02;  3.8103921E+03;
  3.6347911E-01;  9.9999998E-03;  2.5994661E-01;4698;  2.6000831E-01;  0.0000000E+00; -1.1452202E-02;  9.9543207E+02;  1.0000000E-01; -3.7844355E+03;3; -5.7575321E+00;  0.0000000E+00; -4.8318529E+00;0;  5.7311171E-01;  3.9608949E+04;  0.0000000E+00;  1.3451677E-02;  4.0000000E+04;  0.0000000E+00;  4.0030215E+04;  5.9499747E-01;  0.0000000E+00; -2.1885736E-02;  4.1539609E+03;
  3.6354259E-01;  9.9999998E-03;  2.6994836E-01;4699;  2.4977854E-01;  0.0000000E+00; -1.2325116E-02;  9.9556970E+02;  1.0000000E-01; -3.6704141E+03;3; -8.3559046E+00;  0.0000000E+00; -4.6588445E+00;0;  5.7958901E-01;  3.9621172E+04;  0.0000000E+00; -6.1566733E-02;  4.0000000E+04;  0.0000000E+00;  4.0028957E+04;  6.1169004E-01;  0.0000000E+00; -3.2101024E-02;  3.9927029E+03;
  3.6361852E-01;  9.9999998E-03;  2.7994740E-01;4700;  2.4062003E-01;  0.0000000E+00; -1.3344382E-02;  9.9570532E+02;  1.0000000E-01; -3.5580718E+03;3; -1.1706393E+01;  0.0000000E+00; -4.2637711E+00;0;  5.7697439E-01;  3.9633363E+04;  0.0000000E+00; -1.4696102E-01;  4.0000000E+04;  0.0000000E+00;  4.0027742E+04;  6.2445480E-01;  0.0000000E+00; -4.7480423E-02;  3.8225730E+03;
  3.6369461E-01;  9.9999998E-03;  2.8994432E-01;4701;  2.3187244E-01;  0.0000000E+00; -1.3898866E-02;  9.9584161E+02;  1.0000000E-01; -3.4451367E+03;3; -1.5303300E+01;  0.0000000E+00; -3.9305429E+00;0;  5.7683873E-01;  3.9644840E+04;  0.0000000E+00; -2.3507448E-01;  4.0000000E+04;  0.0000000E+00;  4.0027418E+04;  6.3390696E-01;  0.0000000E+00; -5.7068247E-02;  3.7684600E+03;
  3.6376816E-01;  9.9999998E-03;  2.9994091E-01;4702;  2.2434904E-01;  0.0000000E+00; -1.4296314E-02;  9.9595795E+02;  1.0000000E-01; -3.3487444E+03;3; -1.8811146E+01;  0.0000000E+00; -3.5575345E+00;0;  5.7844198E-01;  3.9655086E+04;  0.0000000E+00; -3.1329438E-01;  4.0000000E+04;  0.0000000E+00;  4.0026570E+04;  6.4073145E-01;  0.0000000E+00; -6.2289476E-02;  3.6682979E+03;
  3.7338117E-01;  9.9999998E-03;  2.3994525E-01;4757;  2.9442999E-01;  0.0000000E+00; -1.2898409E-02;  9.9533295E+02;  1.0000000E-01; -3.8665566E+03;3; -1.8566527E+00;  0.0000000E+00; -4.3688202E+00;0;  4.7154933E-01;  3.9606531E+04;  0.0000000E+00;  9.4728731E-02;  4.0000000E+04;  0.0000000E+00;  4.0023727E+04;  5.0133318E-01;  0.0000000E+00; -2.9783839E-02;  3.3503711E+03;
  3.7343588E-01;  9.9999998E-03;  2.4994412E-01;4758;  2.8302366E-01;  0.0000000E+00; -1.2362379E-02;  9.9551343E+02;  1.0000000E-01; -3.7170300E+03;3; -2.3962324E+00;  0.0000000E+00; -4.4951477E+00;0;  5.0477201E-01;  3.9617691E+04;  0.0000000E+00;  4.4175852E-02;  4.0000000E+04;  0.0000000E+00;  4.0027055E+04;  5.3292131E-01;  0.0000000E+00; -2.8149331E-02;  3.7540486E+03;
  3.7348062E-01;  9.9999998E-03;  2.5994661E-01;4759;  2.7190226E-01;  0.0000000E+00; -1.2429530E-02;  9.9566492E+02;  1.0000000E-01; -3.5915522E+03;3; -3.6914902E+00;  0.0000000E+00; -4.5844731E+00;0;  5.3099149E-01;  3.9629609E+04;  0.0000000E+00; -1.6571738E-02;  4.0000000E+04;  0.0000000E+00;  4.0027223E+04;  5.6028050E-01;  0.0000000E+00; -2.9288994E-02;  3.7552092E+03;
  3.7353480E-01;  9.9999998E-03;  2.6994929E-01;4760;  2.6239419E-01;  0.0000000E+00; -1.3620145E-02;  9.9578772E+02;  1.0000000E-01; -3.4897773E+03;3; -5.8279510E+00;  0.0000000E+00; -4.3081594E+00;0;  5.4024488E-01;  3.9642012E+04;  0.0000000E+00; -8.4808037E-02;  4.0000000E+04;  0.0000000E+00;  4.0024320E+04;  5.8336157E-01;  0.0000000E+00; -4.3116692E-02;  3.3836692E+03;
  3.7359676E-01;  9.9999998E-03;  2.7994794E-01;4761;  2.5319594E-01;  0.0000000E+00; -1.4774297E-02;  9.9592236E+02;  1.0000000E-01; -3.3782249E+03;3; -8.6299095E+00;  0.0000000E+00; -3.9041195E+00;0;  5.4145527E-01;  3.9654387E+04;  0.0000000E+00; -1.5693803E-01;  4.0000000E+04;  0.0000000E+00;  4.0022809E+04;  6.0235852E-01;  0.0000000E+00; -6.0903262E-02;  3.1825225E+03;
  3.7365824E-01;  9.9999998E-03;  2.8994435E-01;4762;  2.4366711E-01;  0.0000000E+00; -1.5340061E-02;  9.9606805E+02;  1.0000000E-01; -3.2575371E+03;3; -1.1955270E+01;  0.0000000E+00; -3.4393122E+00;0;  5.4651046E-01;  3.9665996E+04;  0.0000000E+00; -2.2716120E-01;  4.0000000E+04;  0.0000000E+00;  4.0022859E+04;  6.1760473E-01;  0.0000000E+00; -7.1094282E-02;  3.1780671E+03;
  3.7371704E-01;  9.9999998E-03;  2.9994076E-01;4763;  2.3462179E-01;  0.0000000E+00; -1.5687684E-02;  9.9619196E+02;  1.0000000E-01; -3.1548733E+03;3; -1.5609856E+01;  0.0000000E+00; -2.9922905E+00;0;  5.5422616E-01;  3.9676590E+04;  0.0000000E+00; -2.8763118E-01;  4.0000000E+04;  0.0000000E+00;  4.0022441E+04;  6.2956572E-01;  0.0000000E+00; -7.5339578E-02;  3.1267515E+03;
  3.8339254E-01;  9.9999998E-03;  2.3994184E-01;4818;  3.0264416E-01;  0.0000000E+00; -1.3708496E-02;  9.9557526E+02;  1.0000000E-01; -3.6658215E+03;3; -4.3346114E+00;  0.0000000E+00; -4.2373681E+00;0;  4.0968376E-01;  3.9624027E+04;  0.0000000E+00;  6.4819135E-02;  4.0000000E+04;  0.0000000E+00;  4.0024848E+04;  4.4618979E-01;  0.0000000E+00; -3.6506042E-02;  3.4633792E+03;
  3.8343883E-01;  9.9999998E-03;  2.4994303E-01;4819;  2.9353732E-01;  0.0000000E+00; -1.3305942E-02;  9.9573022E+02;  1.0000000E-01; -3.5374299E+03;3; -1.9956008E+00;  0.0000000E+00; -4.1575885E+00;0;  4.4486874E-01;  3.9634535E+04;  0.0000000E+00;  1.4469330E-02;  4.0000000E+04;  0.0000000E+00;  4.0026512E+04;  4.8111194E-01;  0.0000000E+00; -3.6243204E-02;  3.6668162E+03;
  3.8347757E-01;  9.9999998E-03;  2.5994703E-01;4820;  2.8413638E-01;  0.0000000E+00; -1.3787550E-02;  9.9585248E+02;  1.0000000E-01; -3.4361489E+03;3; -2.6210182E+00;  0.0000000E+00; -4.0667496E+00;0;  4.7052300E-01;  3.9645949E+04;  0.0000000E+00; -4.1485254E-02;  4.0000000E+04;  0.0000000E+00;  4.0024875E+04;  5.1246947E-01;  0.0000000E+00; -4.1946471E-02;  3.4418652E+03;
  3.8352403E-01;  9.9999998E-03;  2.6994953E-01;4821;  2.7582240E-01;  0.0000000E+00; -1.5175528E-02;  9.9595404E+02;  1.0000000E-01; -3.3520032E+03;3; -4.1460114E+00;  0.0000000E+00; -3.8208315E+00;0;  4.8007166E-01;  3.9657566E+04;  0.0000000E+00; -1.0039858E-01;  4.0000000E+04;  0.0000000E+00;  4.0021234E+04;  5.3995317E-01;  0.0000000E+00; -5.9881512E-02;  2.9734067E+03;
  3.8357678E-01;  9.9999998E-03;  2.7994698E-01;4822;  2.6734880E-01;  0.0000000E+00; -1.6399581E-02;  9.9608813E+02;  1.0000000E-01; -3.2408953E+03;3; -6.4523296E+00;  0.0000000E+00; -3.3176565E+00;0;  4.8276761E-01;  3.9669176E+04;  0.0000000E+00; -1.5929994E-01;  4.0000000E+04;  0.0000000E+00;  4.0020348E+04;  5.6348902E-01;  0.0000000E+00; -8.0721401E-02;  2.8543164E+03;
  3.8362825E-01;  9.9999998E-03;  2.8994262E-01;4823;  2.5795814E-01;  0.0000000E+00; -1.6890347E-02;  9.9623529E+02;  1.0000000E-01; -3.1189729E+03;3; -9.3109245E+00;  0.0000000E+00; -2.7668359E+00;0;  4.9199501E-01;  3.9680059E+04;  0.0000000E+00; -2.1501777E-01;  4.0000000E+04;  0.0000000E+00;  4.0021047E+04;  5.8315498E-01;  0.0000000E+00; -9.1159977E-02;  2.9457554E+03;
  3.8367680E-01;  9.9999998E-03;  2.9993877E-01;4824;  2.4834126E-01;  0.0000000E+00; -1.7118085E-02;  9.9636151E+02;  1.0000000E-01; -3.0144326E+03;3; -1.2533433E+01;  0.0000000E+00; -2.2741251E+00;0;  5.0546956E-01;  3.9690090E+04;  0.0000000E+00; -2.6418906E-01;  4.0000000E+04;  0.0000000E+00;  4.0021121E+04;  5.9917498E-01;  0.0000000E+00; -9.3705423E-02;  2.9480925E+03;
  3.9340502E-01;  9.9999998E-03;  2.3994276E-01;4879;  3.0763558E-01;  0.0000000E+00; -1.4562150E-02;  9.9577582E+02;  1.0000000E-01; -3.4996533E+03;3; -1.1092264E+01;  0.0000000E+00; -1.8162106E+00;0;  3.4132957E-01;  3.9639156E+04;  0.0000000E+00;  3.2400455E-02;  4.0000000E+04;  0.0000000E+00;  4.0024875E+04;  3.8480300E-01;  0.0000000E+00; -4.3473419E-02;  3.4593218E+03;
  3.9344662E-01;  9.9999998E-03;  2.4994411E-01;4880;  3.0280453E-01;  0.0000000E+00; -1.4802249E-02;  9.9590271E+02;  1.0000000E-01; -3.3945205E+03;3; -6.2327547E+00;  0.0000000E+00; -3.5258603E+00;0;  3.7208977E-01;  3.9648496E+04;  0.0000000E+00; -1.4422346E-02;  4.0000000E+04;  0.0000000E+00;  4.0025594E+04;  4.2055929E-01;  0.0000000E+00; -4.8469525E-02;  3.5288550E+03;
  3.9348185E-01;  9.9999998E-03;  2.5994772E-01;4881;  2.9612768E-01;  0.0000000E+00; -1.5378677E-02;  9.9599841E+02;  1.0000000E-01; -3.3152141E+03;3; -2.8311749E+00;  0.0000000E+00; -3.2545471E+00;0;  3.9547086E-01;  3.9658410E+04;  0.0000000E+00; -6.2460929E-02;  4.0000000E+04;  0.0000000E+00;  4.0023020E+04;  4.5349094E-01;  0.0000000E+00; -5.8020096E-02;  3.1993499E+03;
  3.9352435E-01;  9.9999998E-03;  2.6994854E-01;4882;  2.8949803E-01;  0.0000000E+00; -1.6923130E-02;  9.9608789E+02;  1.0000000E-01; -3.2410928E+03;3; -3.6026542E+00;  0.0000000E+00; -2.8222263E+00;0;  4.0187168E-01;  3.9668582E+04;  0.0000000E+00; -1.0975072E-01;  4.0000000E+04;  0.0000000E+00;  4.0019789E+04;  4.8311803E-01;  0.0000000E+00; -8.1246354E-02;  2.7927920E+03;
  3.9357266E-01;  9.9999998E-03;  2.7994418E-01;4883;  2.8217936E-01;  0.0000000E+00; -1.8030103E-02;  9.9622314E+02;  1.0000000E-01; -3.1290466E+03;3; -5.4811139E+00;  0.0000000E+00; -2.2072511E+00;0;  4.0526843E-01;  3.9678688E+04;  0.0000000E+00; -1.5462150E-01;  4.0000000E+04;  0.0000000E+00;  4.0020527E+04;  5.0918657E-01;  0.0000000E+00; -1.0391812E-01;  2.8537690E+03;
  3.9361876E-01;  9.9999998E-03;  2.8993902E-01;4884;  2.7352580E-01;  0.0000000E+00; -1.8398073E-02;  9.9636664E+02;  1.0000000E-01; -3.0101858E+03;3; -7.8179407E+00;  0.0000000E+00; -1.6501780E+00;0;  4.1698420E-01;  3.9688457E+04;  0.0000000E+00; -1.9643708E-01;  4.0000000E+04;  0.0000000E+00;  4.0022160E+04;  5.3159946E-01;  0.0000000E+00; -1.1461525E-01;  3.0585227E+03;
  3.9366320E-01;  9.9999998E-03;  2.9993480E-01;4885;  2.6417351E-01;  0.0000000E+00; -1.8499162E-02;  9.9648694E+02;  1.0000000E-01; -2.9104849E+03;3; -1.0470740E+01;  0.0000000E+00; -1.1798792E+00;0;  4.3457311E-01;  3.9697598E+04;  0.0000000E+00; -2.3625612E-01;  4.0000000E+04;  0.0000000E+00;  4.0022723E+04;  5.5036348E-01;  0.0000000E+00; -1.1579036E-01;  3.1236362E+03;
  4.0342608E-01;  9.9999998E-03;  2.3994850E-01;4940;  3.0958581E-01;  0.0000000E+00; -1.4587900E-02;  9.9593951E+02;  1.0000000E-01; -3.3640522E+03;3; -1.6064594E+01;  0.0000000E+00;  1.4379743E+00;0;  2.7374971E-01;  3.9652801E+04;  0.0000000E+00; -2.2110017E-03;  4.0000000E+04;  0.0000000E+00;  4.0023637E+04;  3.1988046E-01;  0.0000000E+00; -4.6130747E-02;  3.2811260E+03;
  4.0346825E-01;  9.9999998E-03;  2.4994761E-01;4941;  3.0690795E-01;  0.0000000E+00; -1.5608234E-02;  9.9604071E+02;  1.0000000E-01; -3.2802029E+03;3; -1.5729535E+01;  0.0000000E+00;  9.6371907E-01;0;  2.9729992E-01;  3.9660488E+04;  0.0000000E+00; -4.3520074E-02;  4.0000000E+04;  0.0000000E+00;  4.0023703E+04;  3.5419413E-01;  0.0000000E+00; -5.6894228E-02;  3.2835129E+03;
  4.0350503E-01;  9.9999998E-03;  2.5994825E-01;4942;  3.0428693E-01;  0.0000000E+00; -1.6872182E-02;  9.9611786E+02;  1.0000000E-01; -3.2163035E+03;3; -1.4451477E+01;  0.0000000E+00;  2.4627630E-01;0;  3.1157285E-01;  3.9668672E+04;  0.0000000E+00; -8.3029874E-02;  4.0000000E+04;  0.0000000E+00;  4.0021668E+04;  3.8637081E-01;  0.0000000E+00; -7.4797973E-02;  3.0183811E+03;
  4.0354931E-01;  9.9999998E-03;  2.6994586E-01;4943;  3.0132872E-01;  0.0000000E+00; -1.8194353E-02;  9.9620996E+02;  1.0000000E-01; -3.1399600E+03;3; -1.1254509E+01;  0.0000000E+00;  2.6983475E-02;0;  3.1650031E-01;  3.9677047E+04;  0.0000000E+00; -1.1992732E-01;  4.0000000E+04;  0.0000000E+00;  4.0020387E+04;  4.1587725E-01;  0.0000000E+00; -9.9376932E-02;  2.8512344E+03;
  4.0359858E-01;  9.9999998E-03;  2.7993980E-01;4944;  2.9639509E-01;  0.0000000E+00; -1.9125042E-02;  9.9634381E+02;  1.0000000E-01; -3.0290989E+03;3; -7.7141008E+00;  0.0000000E+00;  4.9554354E-01;0;  3.1954205E-01;  3.9685496E+04;  0.0000000E+00; -1.5387565E-01;  4.0000000E+04;  0.0000000E+00;  4.0022613E+04;  4.4239560E-01;  0.0000000E+00; -1.2285353E-01;  3.1096685E+03;
  4.0364525E-01;  9.9999998E-03;  2.8993377E-01;4945;  2.8892839E-01;  0.0000000E+00; -1.9430371E-02;  9.9648279E+02;  1.0000000E-01; -2.9139417E+03;3; -8.0539064E+00;  0.0000000E+00;  5.0968170E-01;0;  3.3131853E-01;  3.9693734E+04;  0.0000000E+00; -1.8532285E-01;  4.0000000E+04;  0.0000000E+00;  4.0025426E+04;  4.6574122E-01;  0.0000000E+00; -1.3442269E-01;  3.4473987E+03;
  4.0369096E-01;  9.9999998E-03;  2.9992914E-01;4946;  2.8037000E-01;  0.0000000E+00; -1.9447956E-02;  9.9659692E+02;  1.0000000E-01; -2.8193765E+03;3; -9.9607763E+00;  0.0000000E+00;  7.2210234E-01;0;  3.5078877E-01;  3.9701691E+04;  0.0000000E+00; -2.1640617E-01;  4.0000000E+04;  0.0000000E+00;  4.0026719E+04;  4.8580155E-01;  0.0000000E+00; -1.3501278E-01;  3.5916631E+03;
  4.1346669E-01;  9.9999998E-03;  2.3995826E-01;5001;  3.1014979E-01;  0.0000000E+00; -1.3898708E-02;  9.9607660E+02;  1.0000000E-01; -3.2504749E+03;3; -1.8055668E+01;  0.0000000E+00;  3.5640497E+00;0;  2.0978895E-01;  3.9666133E+04;  0.0000000E+00; -3.8879968E-02;  4.0000000E+04;  0.0000000E+00;  4.0020766E+04;  2.5432378E-01;  0.0000000E+00; -4.4534825E-02;  2.9177061E+03;
  4.1351527E-01;  9.9999998E-03;  2.4995302E-01;5002;  3.0767295E-01;  0.0000000E+00; -1.4866380E-02;  9.9615662E+02;  1.0000000E-01; -3.1841558E+03;3; -1.9116823E+01;  0.0000000E+00;  4.0623708E+00;0;  2.3101099E-01;  3.9672094E+04;  0.0000000E+00; -7.4632704E-02;  4.0000000E+04;  0.0000000E+00;  4.0020789E+04;  2.8547344E-01;  0.0000000E+00; -5.4462451E-02;  2.9128225E+03;
  4.1356006E-01;  9.9999998E-03;  2.5994840E-01;5003;  3.0532947E-01;  0.0000000E+00; -1.6009264E-02;  9.9623590E+02;  1.0000000E-01; -3.1184785E+03;3; -2.0107546E+01;  0.0000000E+00;  4.4802356E+00;0;  2.4437499E-01;  3.9678602E+04;  0.0000000E+00; -1.0792200E-01;  4.0000000E+04;  0.0000000E+00;  4.0020582E+04;  3.1500632E-01;  0.0000000E+00; -7.0631325E-02;  2.8735955E+03;
  4.1361022E-01;  9.9999998E-03;  2.6994243E-01;5004;  3.0291024E-01;  0.0000000E+00; -1.7054027E-02;  9.9633356E+02;  1.0000000E-01; -3.0375920E+03;3; -2.0997803E+01;  0.0000000E+00;  4.9748487E+00;0;  2.5145826E-01;  3.9685324E+04;  0.0000000E+00; -1.3857657E-01;  4.0000000E+04;  0.0000000E+00;  4.0021594E+04;  3.4244931E-01;  0.0000000E+00; -9.0991057E-02;  2.9937910E+03;
  4.1366583E-01;  9.9999998E-03;  2.7993473E-01;5005;  3.0037269E-01;  0.0000000E+00; -1.7739277E-02;  9.9646802E+02;  1.0000000E-01; -2.9261877E+03;3; -2.1773697E+01;  0.0000000E+00;  5.1585259E+00;0;  2.5843221E-01;  3.9692055E+04;  0.0000000E+00; -1.6710800E-01;  4.0000000E+04;  0.0000000E+00;  4.0025426E+04;  3.6751199E-01;  0.0000000E+00; -1.0907979E-01;  3.4502434E+03;
  4.1371793E-01;  9.9999998E-03;  2.8992766E-01;5006;  2.9773912E-01;  0.0000000E+00; -1.8140631E-02;  9.9660541E+02;  1.0000000E-01; -2.8123638E+03;3; -2.1408661E+01;  0.0000000E+00;  5.6581283E+00;0;  2.6921561E-01;  3.9698840E+04;  0.0000000E+00; -1.9123188E-01;  4.0000000E+04;  0.0000000E+00;  4.0029609E+04;  3.9006773E-01;  0.0000000E+00; -1.2085211E-01;  3.9568796E+03;
  4.1376516E-01;  9.9999998E-03;  2.9992241E-01;5007;  2.9426685E-01;  0.0000000E+00; -1.8698780E-02;  9.9671716E+02;  1.0000000E-01; -2.7197739E+03;3; -1.7078123E+01;  0.0000000E+00;  5.4030733E+00;0;  2.7981496E-01;  3.9705738E+04;  0.0000000E+00; -2.0841323E-01;  4.0000000E+04;  0.0000000E+00;  4.0031551E+04;  4.1001368E-01;  0.0000000E+00; -1.3019873E-01;  4.2038999E+03;
  4.2353305E-01;  9.9999998E-03;  2.3996806E-01;5062;  3.1018376E-01;  0.0000000E+00; -1.2929224E-02;  9.9621814E+02;  1.0000000E-01; -3.1331941E+03;3; -1.9187126E+01;  0.0000000E+00;  5.3470073E+00;0;  1.5009135E-01;  3.9680082E+04;  0.0000000E+00; -7.7092864E-02;  4.0000000E+04;  0.0000000E+00;  4.0017449E+04;  1.9086589E-01;  0.0000000E+00; -4.0774535E-02;  2.4980588E+03;
  4.2359275E-01;  9.9999998E-03;  2.4995852E-01;5063;  3.0770072E-01;  0.0000000E+00; -1.3762293E-02;  9.9627740E+02;  1.0000000E-01; -3.0841091E+03;3; -1.9880821E+01;  0.0000000E+00;  5.5097885E+00;0;  1.6883287E-01;  3.9684773E+04;  0.0000000E+00; -1.0849228E-01;  4.0000000E+04;  0.0000000E+00;  4.0017391E+04;  2.1782200E-01;  0.0000000E+00; -4.8989125E-02;  2.4777393E+03;
  4.2364702E-01;  9.9999998E-03;  2.5994834E-01;5064;  3.0523878E-01;  0.0000000E+00; -1.4551866E-02;  9.9636298E+02;  1.0000000E-01; -3.0131975E+03;3; -2.0579960E+01;  0.0000000E+00;  5.6940961E+00;0;  1.8295951E-01;  3.9689828E+04;  0.0000000E+00; -1.3769552E-01;  4.0000000E+04;  0.0000000E+00;  4.0019027E+04;  2.4358156E-01;  0.0000000E+00; -6.0622051E-02;  2.6804607E+03;
  4.2370075E-01;  9.9999998E-03;  2.6993874E-01;5065;  3.0275178E-01;  0.0000000E+00; -1.5200881E-02;  9.9647217E+02;  1.0000000E-01; -2.9227310E+03;3; -2.1196226E+01;  0.0000000E+00;  5.8934736E+00;0;  1.9374716E-01;  3.9695141E+04;  0.0000000E+00; -1.6342299E-01;  4.0000000E+04;  0.0000000E+00;  4.0022449E+04;  2.6775810E-01;  0.0000000E+00; -7.4010931E-02;  3.0915930E+03;
  4.2375594E-01;  9.9999998E-03;  2.7992958E-01;5066;  3.0028388E-01;  0.0000000E+00; -1.5507263E-02;  9.9660724E+02;  1.0000000E-01; -2.8108330E+03;3; -2.1860605E+01;  0.0000000E+00;  6.0442286E+00;0;  2.0640773E-01;  3.9700625E+04;  0.0000000E+00; -1.8386203E-01;  4.0000000E+04;  0.0000000E+00;  4.0027523E+04;  2.9009634E-01;  0.0000000E+00; -8.3688617E-02;  3.7219106E+03;
  4.2380857E-01;  9.9999998E-03;  2.8992212E-01;5067;  2.9786584E-01;  0.0000000E+00; -1.5586504E-02;  9.9673578E+02;  1.0000000E-01; -2.7043669E+03;3; -2.2518147E+01;  0.0000000E+00;  6.1115298E+00;0;  2.2314125E-01;  3.9706379E+04;  0.0000000E+00; -1.9475941E-01;  4.0000000E+04;  0.0000000E+00;  4.0032215E+04;  3.1049517E-01;  0.0000000E+00; -8.7353915E-02;  4.2861445E+03;
  4.2385715E-01;  9.9999998E-03;  2.9991660E-01;5068;  2.9559216E-01;  0.0000000E+00; -1.5639624E-02;  9.9684082E+02;  1.0000000E-01; -2.6173076E+03;3; -2.3121565E+01;  0.0000000E+00;  6.1383920E+00;0;  2.4235043E-01;  3.9712203E+04;  0.0000000E+00; -1.9093643E-01;  4.0000000E+04;  0.0000000E+00;  4.0034574E+04;  3.2894439E-01;  0.0000000E+00; -8.6593948E-02;  4.5817930E+03;
  4.3360505E-01;  9.9999998E-03;  2.3997129E-01;5123;  3.0985576E-01;  0.0000000E+00; -1.1658040E-02;  9.9639008E+02;  1.0000000E-01; -2.9907288E+03;3; -1.9610298E+01;  0.0000000E+00;  6.3676753E+00;0;  9.7064674E-02;  3.9695184E+04;  0.0000000E+00; -1.1280022E-01;  4.0000000E+04;  0.0000000E+00;  4.0015801E+04;  1.3187201E-01;  0.0000000E+00; -3.4807339E-02;  2.2773230E+03;
  4.3367121E-01;  9.9999998E-03;  2.4995923E-01;5124;  3.0734789E-01;  0.0000000E+00; -1.2314240E-02;  9.9643665E+02;  1.0000000E-01; -2.9521621E+03;3; -2.0144150E+01;  0.0000000E+00;  6.4351683E+00;0;  1.1343160E-01;  3.9699074E+04;  0.0000000E+00; -1.3792209E-01;  4.0000000E+04;  0.0000000E+00;  4.0015578E+04;  1.5425994E-01;  0.0000000E+00; -4.0828329E-02;  2.2454705E+03;
  4.3373144E-01;  9.9999998E-03;  2.5994584E-01;5125;  3.0487514E-01;  0.0000000E+00; -1.2886422E-02;  9.9652667E+02;  1.0000000E-01; -2.8775964E+03;3; -2.0700069E+01;  0.0000000E+00;  6.5841031E+00;0;  1.2682679E-01;  3.9703277E+04;  0.0000000E+00; -1.5999398E-01;  4.0000000E+04;  0.0000000E+00;  4.0018441E+04;  1.7578200E-01;  0.0000000E+00; -4.8955202E-02;  2.5873782E+03;
  4.3378818E-01;  9.9999998E-03;  2.6993355E-01;5126;  3.0239642E-01;  0.0000000E+00; -1.3239875E-02;  9.9664880E+02;  1.0000000E-01; -2.7764141E+03;3; -2.1287544E+01;  0.0000000E+00;  6.6916375E+00;0;  1.3932595E-01;  3.9707773E+04;  0.0000000E+00; -1.7652686E-01;  4.0000000E+04;  0.0000000E+00;  4.0023664E+04;  1.9611971E-01;  0.0000000E+00; -5.6793757E-02;  3.2353313E+03;
  4.3384334E-01;  9.9999998E-03;  2.7992362E-01;5127;  2.9996371E-01;  0.0000000E+00; -1.3266070E-02;  9.9678326E+02;  1.0000000E-01; -2.6650098E+03;3; -2.1785427E+01;  0.0000000E+00;  6.7768269E+00;0;  1.5497547E-01;  3.9712453E+04;  0.0000000E+00; -1.8346334E-01;  4.0000000E+04;  0.0000000E+00;  4.0029613E+04;  2.1507007E-01;  0.0000000E+00; -6.0094602E-02;  3.9749797E+03;
  4.3389547E-01;  9.9999998E-03;  2.8991649E-01;5128;  2.9762322E-01;  0.0000000E+00; -1.3089253E-02;  9.9690021E+02;  1.0000000E-01; -2.5681238E+03;3; -2.2408018E+01;  0.0000000E+00;  6.7009544E+00;0;  1.7499435E-01;  3.9717297E+04;  0.0000000E+00; -1.7465816E-01;  4.0000000E+04;  0.0000000E+00;  4.0033992E+04;  2.3256572E-01;  0.0000000E+00; -5.7571366E-02;  4.5099028E+03;
  4.3394455E-01;  9.9999998E-03;  2.9991141E-01;5129;  2.9550219E-01;  0.0000000E+00; -1.2988165E-02;  9.9698676E+02;  1.0000000E-01; -2.4964221E+03;3; -2.3125784E+01;  0.0000000E+00;  6.4819303E+00;0;  1.9536482E-01;  3.9722414E+04;  0.0000000E+00; -1.4440513E-01;  4.0000000E+04;  0.0000000E+00;  4.0035887E+04;  2.4863054E-01;  0.0000000E+00; -5.3265717E-02;  4.7392178E+03;
  4.4367018E-01;  9.9999998E-03;  2.3996529E-01;5184;  3.0931070E-01;  0.0000000E+00; -1.0197280E-02;  9.9659827E+02;  1.0000000E-01; -2.8182891E+03;3; -1.9781822E+01;  0.0000000E+00;  7.1120868E+00;0;  5.1520899E-02;  3.9711059E+04;  0.0000000E+00; -1.4187478E-01;  4.0000000E+04;  0.0000000E+00;  4.0016453E+04;  7.8961641E-02;  0.0000000E+00; -2.7440740E-02;  2.3468228E+03;
  4.4374141E-01;  9.9999998E-03;  2.4995241E-01;5185;  3.0680490E-01;  0.0000000E+00; -1.0685446E-02;  9.9664752E+02;  1.0000000E-01; -2.7774509E+03;3; -2.0285906E+01;  0.0000000E+00;  7.2185531E+00;0;  6.5509118E-02;  3.9714625E+04;  0.0000000E+00; -1.5816207E-01;  4.0000000E+04;  0.0000000E+00;  4.0016637E+04;  9.6816428E-02;  0.0000000E+00; -3.1307310E-02;  2.3619055E+03;
  4.4380701E-01;  9.9999998E-03;  2.5993809E-01;5186;  3.0433935E-01;  0.0000000E+00; -1.1068822E-02;  9.9674359E+02;  1.0000000E-01; -2.6978481E+03;3; -2.0764423E+01;  0.0000000E+00;  7.3108220E+00;0;  7.7817604E-02;  3.9718676E+04;  0.0000000E+00; -1.6931474E-01;  4.0000000E+04;  0.0000000E+00;  4.0020230E+04;  1.1406650E-01;  0.0000000E+00; -3.6248896E-02;  2.8098193E+03;
  4.4386831E-01;  9.9999998E-03;  2.6992530E-01;5187;  3.0187625E-01;  0.0000000E+00; -1.1129349E-02;  9.9687506E+02;  1.0000000E-01; -2.5889624E+03;3; -2.1249432E+01;  0.0000000E+00;  7.3281441E+00;0;  9.1649912E-02;  3.9722789E+04;  0.0000000E+00; -1.7176181E-01;  4.0000000E+04;  0.0000000E+00;  4.0026562E+04;  1.3044456E-01;  0.0000000E+00; -3.8794644E-02;  3.5789348E+03;
  4.4392586E-01;  9.9999998E-03;  2.7991626E-01;5188;  2.9944921E-01;  0.0000000E+00; -1.0822034E-02;  9.9700031E+02;  1.0000000E-01; -2.4852124E+03;3; -2.1713223E+01;  0.0000000E+00;  7.2940803E+00;0;  1.1060554E-01;  3.9727199E+04;  0.0000000E+00; -1.5982462E-01;  4.0000000E+04;  0.0000000E+00;  4.0032207E+04;  1.4579454E-01;  0.0000000E+00; -3.5189003E-02;  4.2799727E+03;
  4.4397935E-01;  9.9999998E-03;  2.8991053E-01;5189;  2.9716462E-01;  0.0000000E+00; -1.0468585E-02;  9.9709314E+02;  1.0000000E-01; -2.4082764E+03;3; -2.2250866E+01;  0.0000000E+00;  7.1042390E+00;0;  1.3208228E-01;  3.9731578E+04;  0.0000000E+00; -1.2662892E-01;  4.0000000E+04;  0.0000000E+00;  4.0035230E+04;  1.6006762E-01;  0.0000000E+00; -2.7985334E-02;  4.6474194E+03;
  4.4403133E-01;  9.9999998E-03;  2.9990673E-01;5190;  2.9514733E-01;  0.0000000E+00; -1.0432662E-02;  9.9715656E+02;  1.0000000E-01; -2.3557346E+03;3; -2.2930429E+01;  0.0000000E+00;  6.7765551E+00;0;  1.4895789E-01;  3.9736188E+04;  0.0000000E+00; -6.7596644E-02;  4.0000000E+04;  0.0000000E+00;  4.0035699E+04;  1.7327590E-01;  0.0000000E+00; -2.4318008E-02;  4.6914600E+03;
  4.5373896E-01;  9.9999998E-03;  2.3994941E-01;5245;  3.0864701E-01;  0.0000000E+00; -8.6665787E-03;  9.9682990E+02;  1.0000000E-01; -2.6263936E+03;3; -1.9926382E+01;  0.0000000E+00;  7.7761497E+00;0;  1.3412140E-02;  3.9726336E+04;  0.0000000E+00; -1.6263115E-01;  4.0000000E+04;  0.0000000E+00;  4.0019656E+04;  3.2928396E-02;  0.0000000E+00; -1.9516256E-02;  2.7292100E+03;
  4.5381424E-01;  9.9999998E-03;  2.4993795E-01;5246;  3.0614904E-01;  0.0000000E+00; -8.9935260E-03;  9.9689008E+02;  1.0000000E-01; -2.5765183E+03;3; -2.0309956E+01;  0.0000000E+00;  7.8444562E+00;0;  2.5151087E-02;  3.9730121E+04;  0.0000000E+00; -1.6825680E-01;  4.0000000E+04;  0.0000000E+00;  4.0020488E+04;  4.6562921E-02;  0.0000000E+00; -2.1411834E-02;  2.8300645E+03;
  4.5388409E-01;  9.9999998E-03;  2.5992578E-01;5247;  3.0367652E-01;  0.0000000E+00; -9.1435798E-03;  9.9699011E+02;  1.0000000E-01; -2.4936565E+03;3; -2.0745037E+01;  0.0000000E+00;  7.8790560E+00;0;  3.6794879E-02;  3.9734387E+04;  0.0000000E+00; -1.6555969E-01;  4.0000000E+04;  0.0000000E+00;  4.0024184E+04;  5.9802324E-02;  0.0000000E+00; -2.3007447E-02;  3.2868552E+03;
  4.5395008E-01;  9.9999998E-03;  2.6991561E-01;5248;  3.0119637E-01;  0.0000000E+00; -8.9027630E-03;  9.9711243E+02;  1.0000000E-01; -2.3922766E+03;3; -2.1200420E+01;  0.0000000E+00;  7.8221445E+00;0;  5.2054103E-02;  3.9738785E+04;  0.0000000E+00; -1.5004820E-01;  4.0000000E+04;  0.0000000E+00;  4.0029527E+04;  7.2415821E-02;  0.0000000E+00; -2.0361718E-02;  3.9398450E+03;
  4.5401186E-01;  9.9999998E-03;  2.7990916E-01;5249;  2.9879451E-01;  0.0000000E+00; -8.4198462E-03;  9.9721320E+02;  1.0000000E-01; -2.3088223E+03;3; -2.1515308E+01;  0.0000000E+00;  7.6690197E+00;0;  7.1937904E-02;  3.9743117E+04;  0.0000000E+00; -1.1533567E-01;  4.0000000E+04;  0.0000000E+00;  4.0033367E+04;  8.4272459E-02;  0.0000000E+00; -1.2334554E-02;  4.4028647E+03;
  4.5406938E-01;  9.9999998E-03;  2.8990558E-01;5250;  2.9659456E-01;  0.0000000E+00; -8.1285443E-03;  9.9727734E+02;  1.0000000E-01; -2.2556880E+03;3; -2.2021265E+01;  0.0000000E+00;  7.4115219E+00;0;  9.0422213E-02;  3.9747379E+04;  0.0000000E+00; -5.5251524E-02;  4.0000000E+04;  0.0000000E+00;  4.0034113E+04;  9.5325716E-02;  0.0000000E+00; -4.9035028E-03;  4.4985127E+03;
  4.5412654E-01;  9.9999998E-03;  2.9990312E-01;5251;  2.9467103E-01;  0.0000000E+00; -8.3470838E-03;  9.9731750E+02;  1.0000000E-01; -2.2224050E+03;3; -2.2642878E+01;  0.0000000E+00;  7.1853514E+00;0;  9.9733181E-02;  3.9751707E+04;  0.0000000E+00;  3.3035610E-02;  4.0000000E+04;  0.0000000E+00;  4.0032957E+04;  1.0556417E-01;  0.0000000E+00; -5.8309855E-03;  4.3542739E+03;
  4.6380463E-01;  9.9999998E-03;  2.3993121E-01;5306;  3.0793715E-01;  0.0000000E+00; -7.2777090E-03;  9.9703046E+02;  1.0000000E-01; -2.4602249E+03;3; -2.0167980E+01;  0.0000000E+00;  8.5322456E+00;0; -1.8234169E-02;  3.9739156E+04;  0.0000000E+00; -1.7350945E-01;  4.0000000E+04;  0.0000000E+00;  4.0022730E+04; -5.9550288E-03;  0.0000000E+00; -1.2279140E-02;  3.1037258E+03;
  4.6387908E-01;  9.9999998E-03;  2.4992388E-01;5307;  3.0543181E-01;  0.0000000E+00; -7.4457992E-03;  9.9708984E+02;  1.0000000E-01; -2.4109917E+03;3; -2.0450062E+01;  0.0000000E+00;  8.5402918E+00;0; -8.7820487E-03;  3.9743480E+04;  0.0000000E+00; -1.6723730E-01;  4.0000000E+04;  0.0000000E+00;  4.0023160E+04;  3.9577130E-03;  0.0000000E+00; -1.2739762E-02;  3.1516914E+03;
  4.6394560E-01;  9.9999998E-03;  2.5991642E-01;5308;  3.0295342E-01;  0.0000000E+00; -7.4809752E-03;  9.9717340E+02;  1.0000000E-01; -2.3417593E+03;3; -2.0826033E+01;  0.0000000E+00;  8.5220919E+00;0;  8.9858193E-04;  3.9748211E+04;  0.0000000E+00; -1.4843579E-01;  4.0000000E+04;  0.0000000E+00;  4.0025059E+04;  1.3651899E-02;  0.0000000E+00; -1.2753317E-02;  3.3766262E+03;
  4.6400610E-01;  9.9999998E-03;  2.6990983E-01;5309;  3.0050728E-01;  0.0000000E+00; -7.2521796E-03;  9.9726886E+02;  1.0000000E-01; -2.2626997E+03;3; -2.1142443E+01;  0.0000000E+00;  8.4399233E+00;0;  1.3193165E-02;  3.9752965E+04;  0.0000000E+00; -1.1208910E-01;  4.0000000E+04;  0.0000000E+00;  4.0027922E+04;  2.2930309E-02;  0.0000000E+00; -9.7371442E-03;  3.7263621E+03;
  4.6406308E-01;  9.9999998E-03;  2.7990517E-01;5310;  2.9815906E-01;  0.0000000E+00; -6.8166126E-03;  9.9735413E+02;  1.0000000E-01; -2.1920352E+03;3; -2.1452303E+01;  0.0000000E+00;  8.2077522E+00;0;  2.9310146E-02;  3.9757617E+04;  0.0000000E+00; -5.2744951E-02;  4.0000000E+04;  0.0000000E+00;  4.0029965E+04;  3.1662993E-02;  0.0000000E+00; -2.3528470E-03;  3.9764373E+03;
  4.6411824E-01;  9.9999998E-03;  2.8990239E-01;5311;  2.9601410E-01;  0.0000000E+00; -6.5723690E-03;  9.9740887E+02;  1.0000000E-01; -2.1467031E+03;3; -2.1864233E+01;  0.0000000E+00;  7.9231734E+00;0;  4.3485846E-02;  3.9762012E+04;  0.0000000E+00;  3.3422615E-02;  4.0000000E+04;  0.0000000E+00;  4.0030059E+04;  3.9787471E-02;  0.0000000E+00;  3.6983753E-03;  3.9803555E+03;
  4.6417534E-01;  9.9999998E-03;  2.9990038E-01;5312;  2.9412645E-01;  0.0000000E+00; -6.7555252E-03;  9.9744122E+02;  1.0000000E-01; -2.1198892E+03;3; -2.2433546E+01;  0.0000000E+00;  7.7337446E+00;0;  4.9591262E-02;  3.9765965E+04;  0.0000000E+00;  1.4723748E-01;  4.0000000E+04;  0.0000000E+00;  4.0028742E+04;  4.7271781E-02;  0.0000000E+00;  2.3194808E-03;  3.8157815E+03;
  4.7381753E-01;  9.9999998E-03;  2.3991574E-01;5367;  3.0716547E-01;  0.0000000E+00; -5.9968084E-03;  9.9714978E+02;  1.0000000E-01; -2.3613633E+03;3; -2.0332253E+01;  0.0000000E+00;  9.0707483E+00;0; -4.3558076E-02;  3.9747379E+04;  0.0000000E+00; -1.7252739E-01;  4.0000000E+04;  0.0000000E+00;  4.0024293E+04; -3.7819512E-02;  0.0000000E+00; -5.7385648E-03;  3.2863931E+03;
  4.7388175E-01;  9.9999998E-03;  2.4991298E-01;5368;  3.0465406E-01;  0.0000000E+00; -6.0686492E-03;  9.9720380E+02;  1.0000000E-01; -2.3166240E+03;3; -2.0588102E+01;  0.0000000E+00;  9.0839977E+00;0; -3.6587931E-02;  3.9752168E+04;  0.0000000E+00; -1.5425715E-01;  4.0000000E+04;  0.0000000E+00;  4.0023648E+04; -3.1033540E-02;  0.0000000E+00; -5.5543915E-03;  3.2002781E+03;
  4.7393933E-01;  9.9999998E-03;  2.5991017E-01;5369;  3.0219364E-01;  0.0000000E+00; -6.1293240E-03;  9.9726202E+02;  1.0000000E-01; -2.2683784E+03;3; -2.0857845E+01;  0.0000000E+00;  9.0761318E+00;0; -3.0242523E-02;  3.9757277E+04;  0.0000000E+00; -1.2065855E-01;  4.0000000E+04;  0.0000000E+00;  4.0023090E+04; -2.4344046E-02;  0.0000000E+00; -5.8984775E-03;  3.1271055E+03;
  4.7399151E-01;  9.9999998E-03;  2.6990637E-01;5370;  2.9979384E-01;  0.0000000E+00; -6.0561001E-03;  9.9733331E+02;  1.0000000E-01; -2.2093184E+03;3; -2.1135099E+01;  0.0000000E+00;  9.0112171E+00;0; -2.3210034E-02;  3.9762402E+04;  0.0000000E+00; -6.7482568E-02;  4.0000000E+04;  0.0000000E+00;  4.0023680E+04; -1.7914373E-02;  0.0000000E+00; -5.2956608E-03;  3.1862866E+03;
  4.7403914E-01;  9.9999998E-03;  2.7990225E-01;5371;  2.9748303E-01;  0.0000000E+00; -5.6805969E-03;  9.9741473E+02;  1.0000000E-01; -2.1418635E+03;3; -2.1423084E+01;  0.0000000E+00;  8.8189793E+00;0; -1.2009794E-02;  3.9767355E+04;  0.0000000E+00;  8.5628722E-03;  4.0000000E+04;  0.0000000E+00;  4.0025164E+04; -1.1855566E-02;  0.0000000E+00; -1.5422786E-04;  3.3680930E+03;
  4.7408745E-01;  9.9999998E-03;  2.8989944E-01;5372;  2.9535696E-01;  0.0000000E+00; -5.3362488E-03;  9.9747559E+02;  1.0000000E-01; -2.0914453E+03;3; -2.1758106E+01;  0.0000000E+00;  8.5013075E+00;0; -3.6417227E-04;  3.9771863E+04;  0.0000000E+00;  1.0816193E-01;  4.0000000E+04;  0.0000000E+00;  4.0025539E+04; -6.2481053E-03;  0.0000000E+00;  5.8839330E-03;  3.4141621E+03;
  4.7414055E-01;  9.9999998E-03;  2.9989773E-01;5373;  2.9346180E-01;  0.0000000E+00; -5.3878552E-03;  9.9750525E+02;  1.0000000E-01; -2.0668535E+03;3; -2.2180054E+01;  0.0000000E+00;  8.2500496E+00;0;  4.2525302E-03;  3.9775598E+04;  0.0000000E+00;  2.3084642E-01;  4.0000000E+04;  0.0000000E+00;  4.0024297E+04; -1.1434263E-03;  0.0000000E+00;  5.3959563E-03;  3.2730879E+03;
  4.8378325E-01;  9.9999998E-03;  2.3989883E-01;5428;  3.0627224E-01;  0.0000000E+00; -4.6561253E-03;  9.9721008E+02;  1.0000148E-01; -2.3113894E+03;3; -2.0496492E+01;  0.0000000E+00;  9.5093117E+00;0; -6.2700950E-02;  3.9749238E+04;  0.0000000E+00; -1.6274765E-01;  4.0000000E+04;  0.0000000E+00;  4.0026184E+04; -6.3407980E-02;  0.0000000E+00;  7.0703257E-04;  3.5245618E+03;
  4.8383847E-01;  9.9999998E-03;  2.4989918E-01;5429;  3.0373833E-01;  0.0000000E+00; -4.5711650E-03;  9.9726752E+02;  1.0000146E-01; -2.2637859E+03;3; -2.0660072E+01;  0.0000000E+00;  9.4735584E+00;0; -5.7206940E-02;  3.9754332E+04;  0.0000000E+00; -1.3617651E-01;  4.0000000E+04;  0.0000000E+00;  4.0025574E+04; -5.9191231E-02;  0.0000000E+00;  1.9842901E-03;  3.4362224E+03;
  4.8388743E-01;  9.9999998E-03;  2.5990021E-01;5430;  3.0127338E-01;  0.0000000E+00; -4.5521143E-03;  9.9731256E+02;  1.0000145E-01; -2.2265029E+03;3; -2.0894066E+01;  0.0000000E+00;  9.4495516E+00;0; -5.2522786E-02;  3.9759621E+04;  0.0000000E+00; -9.3830422E-02;  4.0000000E+04;  0.0000000E+00;  4.0023910E+04; -5.4980822E-02;  0.0000000E+00;  2.4580376E-03;  3.2205830E+03;
  4.8393250E-01;  9.9999998E-03;  2.6989996E-01;5431;  2.9890519E-01;  0.0000000E+00; -4.5559374E-03;  9.9736206E+02;  1.0000148E-01; -2.1854670E+03;3; -2.1101301E+01;  0.0000000E+00;  9.4038277E+00;0; -4.8837278E-02;  3.9764984E+04;  0.0000000E+00; -3.3168916E-02;  4.0000000E+04;  0.0000000E+00;  4.0022273E+04; -5.0910745E-02;  0.0000000E+00;  2.0734672E-03;  3.0192085E+03;
  4.8397470E-01;  9.9999998E-03;  2.7989769E-01;5432;  2.9663745E-01;  0.0000000E+00; -4.3161544E-03;  9.9742773E+02;  1.0000148E-01; -2.1310488E+03;3; -2.1356064E+01;  0.0000000E+00;  9.2508335E+00;0; -4.2531025E-02;  3.9770090E+04;  0.0000000E+00;  4.6389528E-02;  4.0000000E+04;  0.0000000E+00;  4.0022465E+04; -4.7079355E-02;  0.0000000E+00;  4.5483313E-03;  3.0322151E+03;
  4.8401892E-01;  9.9999998E-03;  2.8989559E-01;5433;  2.9453292E-01;  0.0000000E+00; -3.9949096E-03;  9.9748376E+02;  1.0000147E-01; -2.0846306E+03;3; -2.1626171E+01;  0.0000000E+00;  8.9534769E+00;0; -3.4662183E-02;  3.9774547E+04;  0.0000000E+00;  1.4311974E-01;  4.0000000E+04;  0.0000000E+00;  4.0022602E+04; -4.3564428E-02;  0.0000000E+00;  8.9022433E-03;  3.0432939E+03;
  4.8406750E-01;  9.9999998E-03;  2.9989439E-01;5434;  2.9261854E-01;  0.0000000E+00; -3.9442359E-03;  9.9751404E+02;  1.0000147E-01; -2.0595942E+03;3; -2.1947786E+01;  0.0000000E+00;  8.6388054E+00;0; -3.1540833E-02;  3.9778117E+04;  0.0000000E+00;  2.5522435E-01;  4.0000000E+04;  0.0000000E+00;  4.0021262E+04; -4.0418584E-02;  0.0000000E+00;  8.8777496E-03;  2.9039641E+03;
  4.9374464E-01;  9.9999998E-03;  2.3988096E-01;5489;  3.0525896E-01;  0.0000000E+00; -3.3110329E-03;  9.9719043E+02;  1.0000210E-01; -2.3276846E+03;3; -2.0670816E+01;  0.0000000E+00;  9.8890572E+00;0; -7.7040143E-02;  3.9744504E+04;  0.0000000E+00; -1.4971714E-01;  4.0000000E+04;  0.0000000E+00;  4.0028750E+04; -8.3725527E-02;  0.0000000E+00;  6.6853869E-03;  3.8514548E+03;
  4.9379286E-01;  9.9999998E-03;  2.4988344E-01;5490;  3.0269676E-01;  0.0000000E+00; -3.0180379E-03;  9.9725555E+02;  1.0000207E-01; -2.2737109E+03;3; -2.0771749E+01;  0.0000000E+00;  9.8198547E+00;0; -7.2221138E-02;  3.9749605E+04;  0.0000000E+00; -1.2072342E-01;  4.0000000E+04;  0.0000000E+00;  4.0028914E+04; -8.1560083E-02;  0.0000000E+00;  9.3389442E-03;  3.8626287E+03;
  4.9383363E-01;  9.9999998E-03;  2.5988773E-01;5491;  3.0022377E-01;  0.0000000E+00; -2.8244811E-03;  9.9729858E+02;  1.0000200E-01; -2.2380576E+03;3; -2.0899879E+01;  0.0000000E+00;  9.7543507E+00;0; -6.7769811E-02;  3.9754848E+04;  0.0000000E+00; -7.6968290E-02;  4.0000000E+04;  0.0000000E+00;  4.0027043E+04; -7.9336382E-02;  0.0000000E+00;  1.1566568E-02;  3.6205681E+03;
  4.9387079E-01;  9.9999998E-03;  2.6989132E-01;5492;  2.9787815E-01;  0.0000000E+00; -2.8326095E-03;  9.9732513E+02;  1.0000207E-01; -2.2160830E+03;3; -2.1069777E+01;  0.0000000E+00;  9.6818905E+00;0; -6.5750085E-02;  3.9760082E+04;  0.0000000E+00; -1.7684836E-02;  4.0000000E+04;  0.0000000E+00;  4.0023812E+04; -7.7156730E-02;  0.0000000E+00;  1.1406642E-02;  3.2118750E+03;
  4.9390754E-01;  9.9999998E-03;  2.7989182E-01;5493;  2.9565060E-01;  0.0000000E+00; -2.7486109E-03;  9.9736725E+02;  1.0000204E-01; -2.1811704E+03;3; -2.1238617E+01;  0.0000000E+00;  9.5310631E+00;0; -6.3653819E-02;  3.9765039E+04;  0.0000000E+00;  5.5150013E-02;  4.0000000E+04;  0.0000000E+00;  4.0022125E+04; -7.5106502E-02;  0.0000000E+00;  1.1452682E-02;  2.9965308E+03;
  4.9394751E-01;  9.9999998E-03;  2.8989106E-01;5494;  2.9355037E-01;  0.0000000E+00; -2.4823295E-03;  9.9741144E+02;  1.0000199E-01; -2.1445789E+03;3; -2.1432398E+01;  0.0000000E+00;  9.2304745E+00;0; -5.9279289E-02;  3.9769406E+04;  0.0000000E+00;  1.3740607E-01;  4.0000000E+04;  0.0000000E+00;  4.0021445E+04; -7.3252872E-02;  0.0000000E+00;  1.3973582E-02;  2.9071409E+03;
  4.9399209E-01;  9.9999998E-03;  2.9989052E-01;5495;  2.9160160E-01;  0.0000000E+00; -2.3548431E-03;  9.9743842E+02;  1.0000207E-01; -2.1222092E+03;3; -2.1650642E+01;  0.0000000E+00;  8.8369179E+00;0; -5.7498306E-02;  3.9772941E+04;  0.0000000E+00;  2.2599824E-01;  4.0000000E+04;  0.0000000E+00;  4.0019973E+04; -7.1645536E-02;  0.0000000E+00;  1.4147229E-02;  2.7451982E+03;
  5.0372386E-01;  9.9999998E-03;  2.3986560E-01;5550;  3.0413693E-01;  0.0000000E+00; -1.9979421E-03;  9.9711438E+02;  1.0000383E-01; -2.3906948E+03;3; -2.0856897E+01;  0.0000000E+00;  1.0135423E+01;0; -8.7839559E-02;  3.9734809E+04;  0.0000000E+00; -1.3757703E-01;  4.0000000E+04;  0.0000000E+00;  4.0031152E+04; -9.9785678E-02;  0.0000000E+00;  1.1946118E-02;  4.1580298E+03;
  5.0376797E-01;  9.9999998E-03;  2.4986933E-01;5551;  3.0155110E-01;  0.0000000E+00; -1.5115757E-03;  9.9718909E+02;  1.0000373E-01; -2.3287708E+03;3; -2.0858322E+01;  0.0000000E+00;  1.0059236E+01;0; -8.3432630E-02;  3.9739523E+04;  0.0000000E+00; -1.1308250E-01;  4.0000000E+04;  0.0000000E+00;  4.0032355E+04; -9.9215336E-02;  0.0000000E+00;  1.5782710E-02;  4.2996777E+03;
  5.0380200E-01;  9.9999998E-03;  2.5987601E-01;5552;  2.9907739E-01;  0.0000000E+00; -1.1361614E-03;  9.9723169E+02;  1.0000370E-01; -2.2935127E+03;3; -2.0899803E+01;  0.0000000E+00;  9.9158154E+00;0; -7.8851402E-02;  3.9744402E+04;  0.0000000E+00; -7.4987859E-02;  4.0000000E+04;  0.0000000E+00;  4.0030746E+04; -9.8543704E-02;  0.0000000E+00;  1.9692302E-02;  4.0932095E+03;
  5.0382960E-01;  9.9999998E-03;  2.6988277E-01;5553;  2.9674849E-01;  0.0000000E+00; -1.0850485E-03;  9.9724042E+02;  1.0000364E-01; -2.2862537E+03;3; -2.1000441E+01;  0.0000000E+00;  9.8130302E+00;0; -7.7465877E-02;  3.9749301E+04;  0.0000000E+00; -2.2845848E-02;  4.0000000E+04;  0.0000000E+00;  4.0026496E+04; -9.7836785E-02;  0.0000000E+00;  2.0370912E-02;  3.5555864E+03;
  5.0386131E-01;  9.9999998E-03;  2.7988598E-01;5554;  2.9453078E-01;  0.0000000E+00; -1.0607981E-03;  9.9725745E+02;  1.0000388E-01; -2.2721306E+03;3; -2.1119299E+01;  0.0000000E+00;  9.6682749E+00;0; -7.7760190E-02;  3.9754004E+04;  0.0000000E+00;  3.8673501E-02;  4.0000000E+04;  0.0000000E+00;  4.0023191E+04; -9.7170211E-02;  0.0000000E+00;  1.9410025E-02;  3.1378240E+03;
  5.0389862E-01;  9.9999998E-03;  2.8988671E-01;5555;  2.9241911E-01;  0.0000000E+00; -8.1403163E-04;  9.9729028E+02;  1.0000371E-01; -2.2449709E+03;3; -2.1230204E+01;  0.0000000E+00;  9.3304453E+00;0; -7.5671546E-02;  3.9758238E+04;  0.0000000E+00;  1.0349952E-01;  4.0000000E+04;  0.0000000E+00;  4.0021367E+04; -9.6594505E-02;  0.0000000E+00;  2.0922961E-02;  2.9258379E+03;
  5.0394183E-01;  9.9999998E-03;  2.9988700E-01;5556;  2.9043242E-01;  0.0000000E+00; -6.5310713E-04;  9.9731213E+02;  1.0000388E-01; -2.2268479E+03;3; -2.1360136E+01;  0.0000000E+00;  8.8964796E+00;0; -7.5463898E-02;  3.9761742E+04;  0.0000000E+00;  1.6728784E-01;  4.0000000E+04;  0.0000000E+00;  4.0019688E+04; -9.6150637E-02;  0.0000000E+00;  2.0686740E-02;  2.7120867E+03;
  5.1373267E-01;  9.9999998E-03;  2.3985562E-01;5611;  3.0291867E-01;  0.0000000E+00; -7.4039970E-04;  9.9701123E+02;  1.0000615E-01; -2.4761240E+03;3; -2.1020237E+01;  0.0000000E+00;  1.0236037E+01;0; -9.6284039E-02;  3.9723285E+04;  0.0000000E+00; -1.2940957E-01;  4.0000000E+04;  0.0000000E+00;  4.0032617E+04; -1.1259682E-01;  0.0000000E+00;  1.6312780E-02;  4.3479067E+03;
  5.1377541E-01;  9.9999998E-03;  2.4985950E-01;5612;  3.0031848E-01;  0.0000000E+00; -1.0677375E-04;  9.9709351E+02;  1.0000618E-01; -2.4079780E+03;3; -2.0934172E+01;  0.0000000E+00;  1.0161325E+01;0; -9.2347533E-02;  3.9727727E+04;  0.0000000E+00; -1.1689811E-01;  4.0000000E+04;  0.0000000E+00;  4.0034730E+04; -1.1324435E-01;  0.0000000E+00;  2.0896826E-02;  4.6125288E+03;
  5.1380575E-01;  9.9999998E-03;  2.5986731E-01;5613;  2.9783520E-01;  0.0000000E+00;  4.6224755E-04;  9.9713666E+02;  1.0000620E-01; -2.3722261E+03;3; -2.0924479E+01;  0.0000000E+00;  1.0028180E+01;0; -8.7459996E-02;  3.9732105E+04;  0.0000000E+00; -9.1563635E-02;  4.0000000E+04;  0.0000000E+00;  4.0033711E+04; -1.1376628E-01;  0.0000000E+00;  2.6306283E-02;  4.4820571E+03;
  5.1382506E-01;  9.9999998E-03;  2.6987609E-01;5614;  2.9550022E-01;  0.0000000E+00;  6.5049838E-04;  9.9713660E+02;  1.0000632E-01; -2.3722754E+03;3; -2.0947628E+01;  0.0000000E+00;  9.8953428E+00;0; -8.5703582E-02;  3.9736602E+04;  0.0000000E+00; -5.0552476E-02;  4.0000000E+04;  0.0000000E+00;  4.0029043E+04; -1.1419232E-01;  0.0000000E+00;  2.8488742E-02;  3.8916152E+03;
  5.1385343E-01;  9.9999998E-03;  2.7988142E-01;5615;  2.9327968E-01;  0.0000000E+00;  6.8495661E-04;  9.9713641E+02;  1.0000617E-01; -2.3724236E+03;3; -2.0984921E+01;  0.0000000E+00;  9.7107191E+00;0; -8.7072320E-02;  3.9740902E+04;  0.0000000E+00; -7.9529703E-04;  4.0000000E+04;  0.0000000E+00;  4.0024555E+04; -1.1458340E-01;  0.0000000E+00;  2.7511073E-02;  3.3259739E+03;
  5.1389092E-01;  9.9999998E-03;  2.8988352E-01;5616;  2.9115158E-01;  0.0000000E+00;  9.1500260E-04;  9.9715509E+02;  1.0000617E-01; -2.3569673E+03;3; -2.1002384E+01;  0.0000000E+00;  9.3314486E+00;0; -8.6790651E-02;  3.9745137E+04;  0.0000000E+00;  4.9723517E-02;  4.0000000E+04;  0.0000000E+00;  4.0021906E+04; -1.1497233E-01;  0.0000000E+00;  2.8181678E-02;  2.9943716E+03;
  5.1393604E-01;  9.9999998E-03;  2.9988468E-01;5617;  2.8913182E-01;  0.0000000E+00;  1.0754853E-03;  9.9717426E+02;  1.0000626E-01; -2.3410664E+03;3; -2.1045729E+01;  0.0000000E+00;  8.8633585E+00;0; -8.8362470E-02;  3.9748930E+04;  0.0000000E+00;  9.4400086E-02;  4.0000000E+04;  0.0000000E+00;  4.0019645E+04; -1.1538757E-01;  0.0000000E+00;  2.7025107E-02;  2.7151187E+03;
  5.2377504E-01;  9.9999998E-03;  2.3985299E-01;5672;  3.0161804E-01;  0.0000000E+00;  4.7612574E-04;  9.9694275E+02;  1.0001042E-01; -2.5328625E+03;3; -2.1183815E+01;  0.0000000E+00;  1.0187835E+01;0; -1.0330563E-01;  3.9714438E+04;  0.0000000E+00; -1.2780017E-01;  4.0000000E+04;  0.0000000E+00;  4.0032562E+04; -1.2310344E-01;  0.0000000E+00;  1.9797809E-02;  4.3437607E+03;
  5.2381998E-01;  9.9999998E-03;  2.4985595E-01;5673;  2.9900244E-01;  0.0000000E+00;  1.2003218E-03;  9.9702911E+02;  1.0001062E-01; -2.4613091E+03;3; -2.1039310E+01;  0.0000000E+00;  1.0184580E+01;0; -1.0004711E-01;  3.9718582E+04;  0.0000000E+00; -1.3577555E-01;  4.0000000E+04;  0.0000000E+00;  4.0035340E+04; -1.2468468E-01;  0.0000000E+00;  2.4637576E-02;  4.6881338E+03;
  5.2384979E-01;  9.9999998E-03;  2.5986338E-01;5674;  2.9649615E-01;  0.0000000E+00;  1.9468707E-03;  9.9707794E+02;  1.0001060E-01; -2.4208657E+03;3; -2.0945591E+01;  0.0000000E+00;  1.0067027E+01;0; -9.4979152E-02;  3.9722715E+04;  0.0000000E+00; -1.3186002E-01;  4.0000000E+04;  0.0000000E+00;  4.0035020E+04; -1.2612702E-01;  0.0000000E+00;  3.1147869E-02;  4.6509658E+03;
  5.2386445E-01;  9.9999998E-03;  2.6987278E-01;5675;  2.9414326E-01;  0.0000000E+00;  2.2966263E-03;  9.9707471E+02;  1.0001048E-01; -2.4235325E+03;3; -2.0878973E+01;  0.0000000E+00;  9.8863621E+00;0; -9.2613563E-02;  3.9726988E+04;  0.0000000E+00; -1.0824940E-01;  4.0000000E+04;  0.0000000E+00;  4.0030410E+04; -1.2743028E-01;  0.0000000E+00;  3.4816716E-02;  4.0759504E+03;
  5.2388966E-01;  9.9999998E-03;  2.7987933E-01;5676;  2.9190904E-01;  0.0000000E+00;  2.3995885E-03;  9.9706403E+02;  1.0001054E-01; -2.4323716E+03;3; -2.0823811E+01;  0.0000000E+00;  9.6604671E+00;0; -9.4182536E-02;  3.9731281E+04;  0.0000000E+00; -7.2359301E-02;  4.0000000E+04;  0.0000000E+00;  4.0025215E+04; -1.2863240E-01;  0.0000000E+00;  3.4449860E-02;  3.4235063E+03;
  5.2393126E-01;  9.9999998E-03;  2.8988257E-01;5677;  2.8976494E-01;  0.0000000E+00;  2.6239373E-03;  9.9707684E+02;  1.0001048E-01; -2.4217546E+03;3; -2.0761032E+01;  0.0000000E+00;  9.2163792E+00;0; -9.5327556E-02;  3.9735551E+04;  0.0000000E+00; -3.8105246E-02;  4.0000000E+04;  0.0000000E+00;  4.0021652E+04; -1.2975672E-01;  0.0000000E+00;  3.4429166E-02;  2.9802788E+03;
  5.2398247E-01;  9.9999998E-03;  2.9988450E-01;5678;  2.8771710E-01;  0.0000000E+00;  2.7876354E-03;  9.9709595E+02;  1.0001039E-01; -2.4059526E+03;3; -2.0713083E+01;  0.0000000E+00;  8.7188597E+00;0; -9.8386027E-02;  3.9739957E+04;  0.0000000E+00; -1.4546550E-02;  4.0000000E+04;  0.0000000E+00;  4.0018891E+04; -1.3081518E-01;  0.0000000E+00;  3.2429151E-02;  2.6290361E+03;
  5.3384900E-01;  9.9999998E-03;  2.3985834E-01;5733;  3.0025011E-01;  0.0000000E+00;  1.6785640E-03;  9.9696692E+02;  1.0001750E-01; -2.5128623E+03;3; -2.1362608E+01;  0.0000000E+00;  1.0040184E+01;0; -1.0963760E-01;  3.9712770E+04;  0.0000000E+00; -1.3644950E-01;  4.0000000E+04;  0.0000000E+00;  4.0030625E+04; -1.3212056E-01;  0.0000000E+00;  2.2482971E-02;  4.1106587E+03;
  5.3389931E-01;  9.9999998E-03;  2.4985939E-01;5734;  2.9761440E-01;  0.0000000E+00;  2.4287391E-03;  9.9705664E+02;  1.0001737E-01; -2.4384941E+03;3; -2.1137165E+01;  0.0000000E+00;  1.0089509E+01;0; -1.0735778E-01;  3.9717098E+04;  0.0000000E+00; -1.7478985E-01;  4.0000000E+04;  0.0000000E+00;  4.0033590E+04; -1.3444412E-01;  0.0000000E+00;  2.7086338E-02;  4.4743320E+03;
  5.3393167E-01;  9.9999998E-03;  2.5986490E-01;5735;  2.9507396E-01;  0.0000000E+00;  3.3217436E-03;  9.9711572E+02;  1.0001739E-01; -2.3895574E+03;3; -2.0951725E+01;  0.0000000E+00;  1.0003521E+01;0; -1.0242561E-01;  3.9721465E+04;  0.0000000E+00; -2.0469292E-01;  4.0000000E+04;  0.0000000E+00;  4.0033977E+04; -1.3662149E-01;  0.0000000E+00;  3.4195881E-02;  4.5322339E+03;
  5.3394520E-01;  9.9999998E-03;  2.6987368E-01;5736;  2.9269066E-01;  0.0000000E+00;  3.8416444E-03;  9.9712103E+02;  1.0001741E-01; -2.3851624E+03;3; -2.0794594E+01;  0.0000000E+00;  9.7843256E+00;0; -9.9475376E-02;  3.9725676E+04;  0.0000000E+00; -2.1170509E-01;  4.0000000E+04;  0.0000000E+00;  4.0029840E+04; -1.3862965E-01;  0.0000000E+00;  3.9154269E-02;  4.0144595E+03;
  5.3396904E-01;  9.9999998E-03;  2.7988061E-01;5737;  2.9043725E-01;  0.0000000E+00;  4.0307483E-03;  9.9710956E+02;  1.0001760E-01; -2.3946931E+03;3; -2.0652275E+01;  0.0000000E+00;  9.5224791E+00;0; -1.0107717E-01;  3.9730348E+04;  0.0000000E+00; -2.0280547E-01;  4.0000000E+04;  0.0000000E+00;  4.0024281E+04; -1.4048414E-01;  0.0000000E+00;  3.9406974E-02;  3.3191277E+03;
  5.3401655E-01;  9.9999998E-03;  2.8988460E-01;5738;  2.8827709E-01;  0.0000000E+00;  4.2752647E-03;  9.9711920E+02;  1.0001747E-01; -2.3866934E+03;3; -2.0501209E+01;  0.0000000E+00;  9.0603399E+00;0; -1.0322961E-01;  3.9735250E+04;  0.0000000E+00; -2.0447052E-01;  4.0000000E+04;  0.0000000E+00;  4.0020023E+04; -1.4219944E-01;  0.0000000E+00;  3.8969833E-02;  2.7875671E+03;
  5.3407764E-01;  9.9999998E-03;  2.9988715E-01;5739;  2.8620985E-01;  0.0000000E+00;  4.4324123E-03;  9.9714319E+02;  1.0001730E-01; -2.3667927E+03;3; -2.0367245E+01;  0.0000000E+00;  8.5344009E+00;0; -1.0783230E-01;  3.9740711E+04;  0.0000000E+00; -2.2990374E-01;  4.0000000E+04;  0.0000000E+00;  4.0016539E+04; -1.4377548E-01;  0.0000000E+00;  3.5943184E-02;  2.3645505E+03;
  5.4394805E-01;  9.9999998E-03;  2.3987128E-01;5794;  2.9882658E-01;  0.0000000E+00;  2.8984570E-03;  9.9714221E+02;  1.0002956E-01; -2.3676313E+03;3; -2.1529972E+01;  0.0000000E+00;  9.7652731E+00;0; -1.1577005E-01;  3.9720902E+04;  0.0000000E+00; -1.6194667E-01;  4.0000000E+04;  0.0000000E+00;  4.0026793E+04; -1.4027485E-01;  0.0000000E+00;  2.4504805E-02;  3.6380696E+03;
  5.4400647E-01;  9.9999998E-03;  2.4986975E-01;5795;  2.9616091E-01;  0.0000000E+00;  3.6317965E-03;  9.9723669E+02;  1.0002953E-01; -2.2893621E+03;3; -2.1228554E+01;  0.0000000E+00;  9.8625031E+00;0; -1.1467386E-01;  3.9726117E+04;  0.0000000E+00; -2.4201860E-01;  4.0000000E+04;  0.0000000E+00;  4.0029312E+04; -1.4323366E-01;  0.0000000E+00;  2.8559795E-02;  3.9485491E+03;
  5.4404396E-01;  9.9999998E-03;  2.5987208E-01;5796;  2.9358152E-01;  0.0000000E+00;  4.6171043E-03;  9.9731171E+02;  1.0002952E-01; -2.2271912E+03;3; -2.0958471E+01;  0.0000000E+00;  9.8280182E+00;0; -1.1037516E-01;  3.9731125E+04;  0.0000000E+00; -3.2281831E-01;  4.0000000E+04;  0.0000000E+00;  4.0030379E+04; -1.4604326E-01;  0.0000000E+00;  3.5668097E-02;  4.0930857E+03;
  5.4405975E-01;  9.9999998E-03;  2.6987898E-01;5797;  2.9115564E-01;  0.0000000E+00;  5.3088954E-03;  9.9733295E+02;  1.0002949E-01; -2.2096116E+03;3; -2.0699621E+01;  0.0000000E+00;  9.5914888E+00;0; -1.0696965E-01;  3.9736215E+04;  0.0000000E+00; -3.8412946E-01;  4.0000000E+04;  0.0000000E+00;  4.0026902E+04; -1.4866297E-01;  0.0000000E+00;  4.1693311E-02;  3.6710483E+03;
  5.4408431E-01;  9.9999998E-03;  2.7988565E-01;5798;  2.8887787E-01;  0.0000000E+00;  5.5999961E-03;  9.9733105E+02;  1.0002955E-01; -2.2111423E+03;3; -2.0466085E+01;  0.0000000E+00;  9.3045702E+00;0; -1.0849087E-01;  3.9741543E+04;  0.0000000E+00; -4.3326771E-01;  4.0000000E+04;  0.0000000E+00;  4.0021141E+04; -1.5109096E-01;  0.0000000E+00;  4.2600092E-02;  2.9696897E+03;
  5.4413849E-01;  9.9999998E-03;  2.8988999E-01;5799;  2.8670201E-01;  0.0000000E+00;  5.8532809E-03;  9.9734509E+02;  1.0002948E-01; -2.1995378E+03;3; -2.0232553E+01;  0.0000000E+00;  8.8606882E+00;0; -1.1188032E-01;  3.9747746E+04;  0.0000000E+00; -5.1558083E-01;  4.0000000E+04;  0.0000000E+00;  4.0016125E+04; -1.5333264E-01;  0.0000000E+00;  4.1452311E-02;  2.3986187E+03;
  5.4420906E-01;  9.9999998E-03;  2.9989311E-01;5800;  2.8461924E-01;  0.0000000E+00;  6.0251686E-03;  9.9738068E+02;  1.0002959E-01; -2.1700571E+03;3; -2.0018787E+01;  0.0000000E+00;  8.3268719E+00;0; -1.1762297E-01;  3.9754582E+04;  0.0000000E+00; -6.4734143E-01;  4.0000000E+04;  0.0000000E+00;  4.0012105E+04; -1.5537804E-01;  0.0000000E+00;  3.7755076E-02;  1.9933207E+03;
  5.5406189E-01;  9.9999998E-03;  2.3988974E-01;5855;  2.9735887E-01;  0.0000000E+00;  4.1606398E-03;  9.9747736E+02;  1.0004855E-01; -2.0899600E+03;3; -2.1692196E+01;  0.0000000E+00;  9.3936281E+00;0; -1.2199577E-01;  3.9737414E+04;  0.0000000E+00; -2.1192627E-01;  4.0000000E+04;  0.0000000E+00;  4.0021633E+04; -1.4797603E-01;  0.0000000E+00;  2.5980255E-02;  2.9806426E+03;
  5.5412990E-01;  9.9999998E-03;  2.4988554E-01;5856;  2.9465711E-01;  0.0000000E+00;  4.8366380E-03;  9.9757550E+02;  1.0004877E-01; -2.0086293E+03;3; -2.1306751E+01;  0.0000000E+00;  9.4914408E+00;0; -1.2231708E-01;  3.9744066E+04;  0.0000000E+00; -3.4458202E-01;  4.0000000E+04;  0.0000000E+00;  4.0023000E+04; -1.5153137E-01;  0.0000000E+00;  2.9214291E-02;  3.1730669E+03;
  5.5417395E-01;  9.9999998E-03;  2.5988406E-01;5857;  2.9203013E-01;  0.0000000E+00;  5.8579785E-03;  9.9767212E+02;  1.0004857E-01; -1.9285824E+03;3; -2.0952465E+01;  0.0000000E+00;  9.5445166E+00;0; -1.1921097E-01;  3.9750500E+04;  0.0000000E+00; -4.9542037E-01;  4.0000000E+04;  0.0000000E+00;  4.0024469E+04; -1.5493722E-01;  0.0000000E+00;  3.5726245E-02;  3.3817288E+03;
  5.5419379E-01;  9.9999998E-03;  2.6988819E-01;5858;  2.8955102E-01;  0.0000000E+00;  6.7251115E-03;  9.9771863E+02;  1.0004877E-01; -1.8900651E+03;3; -2.0604488E+01;  0.0000000E+00;  9.3178616E+00;0; -1.1548507E-01;  3.9756738E+04;  0.0000000E+00; -6.4140952E-01;  4.0000000E+04;  0.0000000E+00;  4.0021742E+04; -1.5814035E-01;  0.0000000E+00;  4.2655278E-02;  3.1083438E+03;
  5.5421937E-01;  9.9999998E-03;  2.7989405E-01;5859;  2.8723830E-01;  0.0000000E+00;  7.1334941E-03;  9.9773230E+02;  1.0004848E-01; -1.8787567E+03;3; -2.0277552E+01;  0.0000000E+00;  9.0259991E+00;0; -1.1684194E-01;  3.9763625E+04;  0.0000000E+00; -7.9066378E-01;  4.0000000E+04;  0.0000000E+00;  4.0015949E+04; -1.6112530E-01;  0.0000000E+00;  4.4283364E-02;  2.5036282E+03;
  5.5427802E-01;  9.9999998E-03;  2.8989860E-01;5860;  2.8504089E-01;  0.0000000E+00;  7.4088401E-03;  9.9775909E+02;  1.0004845E-01; -1.8565352E+03;3; -1.9961166E+01;  0.0000000E+00;  8.5910931E+00;0; -1.2127823E-01;  3.9771449E+04;  0.0000000E+00; -1.0091490E+00;  4.0000000E+04;  0.0000000E+00;  4.0010316E+04; -1.6388904E-01;  0.0000000E+00;  4.2610809E-02;  2.0915415E+03;
  5.5435449E-01;  9.9999998E-03;  2.9990217E-01;5861;  2.8294516E-01;  0.0000000E+00;  7.6146717E-03;  9.9780835E+02;  1.0004847E-01; -1.8157463E+03;3; -1.9663515E+01;  0.0000000E+00;  8.0719433E+00;0; -1.2780736E-01;  3.9780223E+04;  0.0000000E+00; -1.3104233E+00;  4.0000000E+04;  0.0000000E+00;  4.0005605E+04; -1.6641366E-01;  0.0000000E+00;  3.8606305E-02;  2.0717522E+03;
  5.6417322E-01;  9.9999998E-03;  2.3991039E-01;5916;  2.9585278E-01;  0.0000000E+00;  5.4809200E-03;  9.9793054E+02;  1.0007922E-01; -1.7145143E+03;3; -2.1849930E+01;  0.0000000E+00;  8.9212675E+00;0; -1.2840007E-01;  3.9754895E+04;  0.0000000E+00; -2.8751895E-01;  4.0000000E+04;  0.0000000E+00;  4.0015754E+04; -1.5542199E-01;  0.0000000E+00;  2.7021915E-02;  2.2539009E+03;
  5.6425112E-01;  9.9999998E-03;  2.4990414E-01;5917;  2.9310653E-01;  0.0000000E+00;  6.0745385E-03;  9.9803119E+02;  1.0007930E-01; -1.6311095E+03;3; -2.1381056E+01;  0.0000000E+00;  9.0328255E+00;0; -1.3033368E-01;  3.9763352E+04;  0.0000000E+00; -4.7733590E-01;  4.0000000E+04;  0.0000000E+00;  4.0015590E+04; -1.5958332E-01;  0.0000000E+00;  2.9249642E-02;  2.2949824E+03;
  5.6430244E-01;  9.9999998E-03;  2.5989911E-01;5918;  2.9042688E-01;  0.0000000E+00;  7.0698066E-03;  9.9814734E+02;  1.0007925E-01; -1.5348655E+03;3; -2.0943527E+01;  0.0000000E+00;  9.1352520E+00;0; -1.2903297E-01;  3.9771480E+04;  0.0000000E+00; -7.1011937E-01;  4.0000000E+04;  0.0000000E+00;  4.0016879E+04; -1.6360018E-01;  0.0000000E+00;  3.4567211E-02;  2.5563254E+03;
  5.6432599E-01;  9.9999998E-03;  2.6990005E-01;5919;  2.8788167E-01;  0.0000000E+00;  8.1140427E-03;  9.9822540E+02;  1.0007933E-01; -1.4702256E+03;3; -2.0507711E+01;  0.0000000E+00;  8.9574890E+00;0; -1.2516525E-01;  3.9779555E+04;  0.0000000E+00; -9.6207708E-01;  4.0000000E+04;  0.0000000E+00;  4.0015184E+04; -1.6740441E-01;  0.0000000E+00;  4.2239163E-02;  2.5276060E+03;
  5.6435037E-01;  9.9999998E-03;  2.7990487E-01;5920;  2.8552130E-01;  0.0000000E+00;  8.6580385E-03;  9.9826050E+02;  1.0007924E-01; -1.4411401E+03;3; -2.0087160E+01;  0.0000000E+00;  8.6756020E+00;0; -1.2623644E-01;  3.9788055E+04;  0.0000000E+00; -1.2383914E+00;  4.0000000E+04;  0.0000000E+00;  4.0009379E+04; -1.7097156E-01;  0.0000000E+00;  4.4735122E-02;  2.2416877E+03;
  5.6440610E-01;  9.9999998E-03;  2.8990960E-01;5921;  2.8328755E-01;  0.0000000E+00;  8.9940280E-03;  9.9830365E+02;  1.0007907E-01; -1.4053881E+03;3; -1.9682972E+01;  0.0000000E+00;  8.2421942E+00;0; -1.3110693E-01;  3.9797867E+04;  0.0000000E+00; -1.6133404E+00;  4.0000000E+04;  0.0000000E+00;  4.0003098E+04; -1.7428648E-01;  0.0000000E+00;  4.3179560E-02;  2.3541167E+03;
  5.6447786E-01;  9.9999998E-03;  2.9991367E-01;5922;  2.8117990E-01;  0.0000000E+00;  9.2321746E-03;  9.9836780E+02;  1.0007928E-01; -1.3522540E+03;3; -1.9296185E+01;  0.0000000E+00;  7.7575231E+00;0; -1.3839185E-01;  3.9808730E+04;  0.0000000E+00; -2.0846262E+00;  4.0000000E+04;  0.0000000E+00;  3.9997758E+04; -1.7732698E-01;  0.0000000E+00;  3.8935117E-02;  2.9401174E+03;
  5.7426077E-01;  9.9999998E-03;  2.3992838E-01;5977;  2.9430315E-01;  0.0000000E+00;  6.8882350E-03;  9.9841412E+02;  1.0013004E-01; -1.3138842E+03;3; -2.2003046E+01;  0.0000000E+00;  8.3698654E+00;0; -1.3480288E-01;  3.9758547E+04;  0.0000000E+00; -3.7365484E-01;  4.0000000E+04;  0.0000000E+00;  4.0010406E+04; -1.6263436E-01;  0.0000000E+00;  2.7831485E-02;  1.6503464E+03;
  5.7434440E-01;  9.9999998E-03;  2.4992102E-01;5978;  2.9149944E-01;  0.0000000E+00;  7.4164509E-03;  9.9851813E+02;  1.0013000E-01; -1.2277141E+03;3; -2.1458040E+01;  0.0000000E+00;  8.5037603E+00;0; -1.3826376E-01;  3.9768672E+04;  0.0000000E+00; -6.0931134E-01;  4.0000000E+04;  0.0000000E+00;  4.0008941E+04; -1.6743033E-01;  0.0000000E+00;  2.9166562E-02;  1.6116086E+03;
  5.7440221E-01;  9.9999998E-03;  2.5991434E-01;5979;  2.8876150E-01;  0.0000000E+00;  8.3321324E-03;  9.9864563E+02;  1.0012987E-01; -1.1220878E+03;3; -2.0933577E+01;  0.0000000E+00;  8.6403055E+00;0; -1.3920394E-01;  3.9778578E+04;  0.0000000E+00; -9.1260427E-01;  4.0000000E+04;  0.0000000E+00;  4.0009426E+04; -1.7209820E-01;  0.0000000E+00;  3.2894272E-02;  1.9102803E+03;
  5.7442874E-01;  9.9999998E-03;  2.6991278E-01;5980;  2.8613839E-01;  0.0000000E+00;  9.5103737E-03;  9.9875543E+02;  1.0012982E-01; -1.0310782E+03;3; -2.0407145E+01;  0.0000000E+00;  8.5077171E+00;0; -1.3575412E-01;  3.9788484E+04;  0.0000000E+00; -1.2591287E+00;  4.0000000E+04;  0.0000000E+00;  4.0008375E+04; -1.7654556E-01;  0.0000000E+00;  4.0791437E-02;  2.1864648E+03;
  5.7444799E-01;  9.9999998E-03;  2.7991676E-01;5981;  2.8371418E-01;  0.0000000E+00;  1.0213255E-02;  9.9881274E+02;  1.0012996E-01; -9.8362299E+02;3; -1.9895504E+01;  0.0000000E+00;  8.2423115E+00;0; -1.3631380E-01;  3.9798883E+04;  0.0000000E+00; -1.6403855E+00;  4.0000000E+04;  0.0000000E+00;  4.0002766E+04; -1.8073918E-01;  0.0000000E+00;  4.4425376E-02;  2.3797534E+03;
  5.7448888E-01;  9.9999998E-03;  2.8992176E-01;5982;  2.8142914E-01;  0.0000000E+00;  1.0644405E-02;  9.9886780E+02;  1.0012963E-01; -9.3799481E+02;3; -1.9399538E+01;  0.0000000E+00;  7.8101969E+00;0; -1.4103065E-01;  3.9810414E+04;  0.0000000E+00; -2.1057718E+00;  4.0000000E+04;  0.0000000E+00;  3.9995801E+04; -1.8464521E-01;  0.0000000E+00;  4.3614548E-02;  2.9830457E+03;
  5.7454044E-01;  9.9999998E-03;  2.9992652E-01;5983;  2.7930358E-01;  0.0000000E+00;  1.0913908E-02;  9.9894287E+02;  1.0012947E-01; -8.7582397E+02;3; -1.8919004E+01;  0.0000000E+00;  7.3249154E+00;0; -1.4896518E-01;  3.9822824E+04;  0.0000000E+00; -2.6320457E+00;  4.0000000E+04;  0.0000000E+00;  3.9989688E+04; -1.8824257E-01;  0.0000000E+00;  3.9277390E-02;  3.8656765E+03;
  5.8430630E-01;  9.9999998E-03;  2.3993841E-01;6038;  2.9269528E-01;  0.0000000E+00;  8.3991718E-03;  9.9879156E+02;  1.0021224E-01; -1.0011529E+03;3; -2.2152225E+01;  0.0000000E+00;  7.7419357E+00;0; -1.4091346E-01;  3.9726684E+04;  0.0000000E+00; -4.3920600E-01;  4.0000000E+04;  0.0000000E+00;  4.0007477E+04; -1.6949238E-01;  0.0000000E+00;  2.8578926E-02;  1.3705879E+03;
  5.8438724E-01;  9.9999998E-03;  2.4993123E-01;6039;  2.8981528E-01;  0.0000000E+00;  8.9297937E-03;  9.9890240E+02;  1.0021226E-01; -9.0935333E+02;3; -2.1529928E+01;  0.0000000E+00;  7.8877153E+00;0; -1.4547215E-01;  3.9737871E+04;  0.0000000E+00; -6.8766564E-01;  4.0000000E+04;  0.0000000E+00;  4.0005289E+04; -1.7494377E-01;  0.0000000E+00;  2.9471615E-02;  1.3543083E+03;
  5.8444405E-01;  9.9999998E-03;  2.5992563E-01;6040;  2.8700382E-01;  0.0000000E+00;  9.7814733E-03;  9.9903229E+02;  1.0021201E-01; -8.0175189E+02;3; -2.0923605E+01;  0.0000000E+00;  8.0512972E+00;0; -1.4833277E-01;  3.9749266E+04;  0.0000000E+00; -1.0113873E+00;  4.0000000E+04;  0.0000000E+00;  4.0004586E+04; -1.8029413E-01;  0.0000000E+00;  3.1961344E-02;  1.6580488E+03;
  5.8447105E-01;  9.9999998E-03;  2.6992404E-01;6041;  2.8430152E-01;  0.0000000E+00;  1.0976747E-02;  9.9915417E+02;  1.0021202E-01; -7.0076740E+02;3; -2.0310894E+01;  0.0000000E+00;  7.9634385E+00;0; -1.4641881E-01;  3.9760758E+04;  0.0000000E+00; -1.3885317E+00;  4.0000000E+04;  0.0000000E+00;  4.0003219E+04; -1.8543087E-01;  0.0000000E+00;  3.9012052E-02;  2.0683215E+03;
  5.8448100E-01;  9.9999998E-03;  2.7992803E-01;6042;  2.8179064E-01;  0.0000000E+00;  1.1840438E-02;  9.9922980E+02;  1.0021186E-01; -6.3810278E+02;3; -1.9704237E+01;  0.0000000E+00;  7.7117357E+00;0; -1.4643794E-01;  3.9772617E+04;  0.0000000E+00; -1.7850845E+00;  4.0000000E+04;  0.0000000E+00;  3.9997684E+04; -1.9029319E-01;  0.0000000E+00;  4.3855257E-02;  2.5171665E+03;
  5.8449930E-01;  9.9999998E-03;  2.8993371E-01;6043;  2.7944109E-01;  0.0000000E+00;  1.2385127E-02;  9.9929309E+02;  1.0021161E-01; -5.8566003E+02;3; -1.9108410E+01;  0.0000000E+00;  7.3037939E+00;0; -1.5065455E-01;  3.9785375E+04;  0.0000000E+00; -2.2083747E+00;  4.0000000E+04;  0.0000000E+00;  3.9990117E+04; -1.9483346E-01;  0.0000000E+00;  4.4178911E-02;  3.2663726E+03;
  5.8452183E-01;  9.9999998E-03;  2.9993945E-01;6044;  2.7728403E-01;  0.0000000E+00;  1.2694419E-02;  9.9937036E+02;  1.0021140E-01; -5.2166211E+02;3; -1.8540548E+01;  0.0000000E+00;  6.8048396E+00;0; -1.5898222E-01;  3.9798836E+04;  0.0000000E+00; -2.6254933E+00;  4.0000000E+04;  0.0000000E+00;  3.9983184E+04; -1.9902973E-01;  0.0000000E+00;  4.0047519E-02;  4.1441304E+03;
  5.9430277E-01;  9.9999998E-03;  2.3993775E-01;6099;  2.9100996E-01;  0.0000000E+00;  1.0004496E-02;  9.9892267E+02;  1.0034496E-01; -8.9256317E+02;3; -2.2297388E+01;  0.0000000E+00;  7.0397272E+00;0; -1.4641725E-01;  3.9632723E+04;  0.0000000E+00; -4.5179224E-01;  4.0000000E+04;  0.0000000E+00;  4.0007371E+04; -1.7573406E-01;  0.0000000E+00;  2.9316809E-02;  1.4637369E+03;
  5.9437060E-01;  9.9999998E-03;  2.4993187E-01;6100;  2.8803423E-01;  0.0000000E+00;  1.0623948E-02;  9.9904541E+02;  1.0034472E-01; -7.9083813E+02;3; -2.1601425E+01;  0.0000000E+00;  7.1940036E+00;0; -1.5156895E-01;  3.9644250E+04;  0.0000000E+00; -6.6513121E-01;  4.0000000E+04;  0.0000000E+00;  4.0006023E+04; -1.8183701E-01;  0.0000000E+00;  3.0268066E-02;  1.4765389E+03;
  5.9441698E-01;  9.9999998E-03;  2.5993031E-01;6101;  2.8512788E-01;  0.0000000E+00;  1.1487022E-02;  9.9916949E+02;  1.0034478E-01; -6.8807611E+02;3; -2.0914011E+01;  0.0000000E+00;  7.3795257E+00;0; -1.5550011E-01;  3.9656152E+04;  0.0000000E+00; -9.3594909E-01;  4.0000000E+04;  0.0000000E+00;  4.0004367E+04; -1.8787923E-01;  0.0000000E+00;  3.2379113E-02;  1.6037947E+03;
  5.9443629E-01;  9.9999998E-03;  2.6993182E-01;6102;  2.8233823E-01;  0.0000000E+00;  1.2618988E-02;  9.9928418E+02;  1.0034441E-01; -5.9301752E+02;3; -2.0213570E+01;  0.0000000E+00;  7.3419170E+00;0; -1.5566012E-01;  3.9668355E+04;  0.0000000E+00; -1.2413334E+00;  4.0000000E+04;  0.0000000E+00;  4.0001617E+04; -1.9372885E-01;  0.0000000E+00;  3.8068730E-02;  1.8428521E+03;
  5.9443659E-01;  9.9999998E-03;  2.7993733E-01;6103;  2.7971971E-01;  0.0000000E+00;  1.3591192E-02;  9.9936487E+02;  1.0034408E-01; -5.2620490E+02;3; -1.9507151E+01;  0.0000000E+00;  7.1083856E+00;0; -1.5568277E-01;  3.9681086E+04;  0.0000000E+00; -1.5406636E+00;  4.0000000E+04;  0.0000000E+00;  3.9995559E+04; -1.9929360E-01;  0.0000000E+00;  4.3610834E-02;  2.1857861E+03;
  5.9443402E-01;  9.9999998E-03;  2.8994438E-01;6104;  2.7728373E-01;  0.0000000E+00;  1.4231678E-02;  9.9942694E+02;  1.0034373E-01; -4.7474979E+02;3; -1.8808899E+01;  0.0000000E+00;  6.7115760E+00;0; -1.5959777E-01;  3.9694539E+04;  0.0000000E+00; -1.8059863E+00;  4.0000000E+04;  0.0000000E+00;  3.9987508E+04; -2.0450820E-01;  0.0000000E+00;  4.4910431E-02;  2.8228044E+03;
  5.9442973E-01;  9.9999998E-03;  2.9995152E-01;6105;  2.7506253E-01;  0.0000000E+00;  1.4597757E-02;  9.9949921E+02;  1.0034303E-01; -4.1489990E+02;3; -1.8138660E+01;  0.0000000E+00;  6.2185178E+00;0; -1.6797815E-01;  3.9708484E+04;  0.0000000E+00; -2.0082033E+00;  4.0000000E+04;  0.0000000E+00;  3.9979812E+04; -2.0934072E-01;  0.0000000E+00;  4.1362569E-02;  3.5799663E+03;
  6.0425836E-01;  9.9999998E-03;  2.3992814E-01;6160;  2.8922904E-01;  0.0000000E+00;  1.1668541E-02;  9.9870496E+02;  1.0055647E-01; -1.0729021E+03;3; -2.2435223E+01;  0.0000000E+00;  6.2566719E+00;0; -1.5088266E-01;  3.9447836E+04;  0.0000000E+00; -3.9432549E-01;  4.0000000E+04;  0.0000000E+00;  4.0009617E+04; -1.8084890E-01;  0.0000000E+00;  2.9966241E-02;  1.8794891E+03;
  6.0430861E-01;  9.9999998E-03;  2.4992399E-01;6161;  2.8613496E-01;  0.0000000E+00;  1.2448799E-02;  9.9884882E+02;  1.0055585E-01; -9.5374561E+02;3; -2.1672260E+01;  0.0000000E+00;  6.4451513E+00;0; -1.5633538E-01;  3.9458391E+04;  0.0000000E+00; -5.3242517E-01;  4.0000000E+04;  0.0000000E+00;  4.0010711E+04; -1.8755697E-01;  0.0000000E+00;  3.1221583E-02;  2.0602961E+03;
  6.0433960E-01;  9.9999998E-03;  2.5992829E-01;6162;  2.8311267E-01;  0.0000000E+00;  1.3420342E-02;  9.9896228E+02;  1.0055577E-01; -8.5972412E+02;3; -2.0907307E+01;  0.0000000E+00;  6.6436625E+00;0; -1.6046698E-01;  3.9469926E+04;  0.0000000E+00; -6.9631922E-01;  4.0000000E+04;  0.0000000E+00;  4.0008875E+04; -1.9426349E-01;  0.0000000E+00;  3.3796504E-02;  1.9419333E+03;
  6.0434902E-01;  9.9999998E-03;  2.6993564E-01;6163;  2.8021044E-01;  0.0000000E+00;  1.4482661E-02;  9.9905316E+02;  1.0055496E-01; -7.8441797E+02;3; -2.0108629E+01;  0.0000000E+00;  6.6304054E+00;0; -1.6249429E-01;  3.9481988E+04;  0.0000000E+00; -8.6607218E-01;  4.0000000E+04;  0.0000000E+00;  4.0004410E+04; -2.0081733E-01;  0.0000000E+00;  3.8323041E-02;  1.6547463E+03;
  6.0434216E-01;  9.9999998E-03;  2.7994439E-01;6164;  2.7746579E-01;  0.0000000E+00;  1.5482161E-02;  9.9912091E+02;  1.0055427E-01; -7.2832111E+02;3; -1.9303236E+01;  0.0000000E+00;  6.4225945E+00;0; -1.6344008E-01;  3.9494875E+04;  0.0000000E+00; -1.0073100E+00;  4.0000000E+04;  0.0000000E+00;  3.9997465E+04; -2.0709768E-01;  0.0000000E+00;  4.3657597E-02;  1.4476832E+03;
  6.0432744E-01;  9.9999998E-03;  2.8995362E-01;6165;  2.7490345E-01;  0.0000000E+00;  1.6209980E-02;  9.9917328E+02;  1.0055375E-01; -6.8491516E+02;3; -1.8492039E+01;  0.0000000E+00;  6.0197678E+00;0; -1.6713700E-01;  3.9508254E+04;  0.0000000E+00; -1.0829787E+00;  4.0000000E+04;  0.0000000E+00;  3.9988840E+04; -2.1301411E-01;  0.0000000E+00;  4.5877118E-02;  1.7508804E+03;
  6.0430712E-01;  9.9999998E-03;  2.9996258E-01;6166;  2.7256444E-01;  0.0000000E+00;  1.6641414E-02;  9.9922882E+02;  1.0055267E-01; -6.3889203E+02;3; -1.7707745E+01;  0.0000000E+00;  5.5131483E+00;0; -1.7538631E-01;  3.9522207E+04;  0.0000000E+00; -1.0689205E+00;  4.0000000E+04;  0.0000000E+00;  3.9980406E+04; -2.1851841E-01;  0.0000000E+00;  4.3132104E-02;  2.4377229E+03;
  6.1418897E-01;  9.9999998E-03;  2.3991370E-01;6221;  2.8733519E-01;  0.0000000E+00;  1.3394860E-02;  9.9813214E+02;  1.0088670E-01; -1.5474525E+03;3; -2.2572813E+01;  0.0000000E+00;  5.4051013E+00;0; -1.5316691E-01;  3.9143168E+04;  0.0000000E+00; -2.7160677E-01;  4.0000000E+04;  0.0000000E+00;  4.0012891E+04; -1.8377924E-01;  0.0000000E+00;  3.0612336E-02;  2.5479500E+03;
  6.1422336E-01;  9.9999998E-03;  2.4991184E-01;6222;  2.8410438E-01;  0.0000000E+00;  1.4334639E-02;  9.9829633E+02;  1.0088585E-01; -1.4114572E+03;3; -2.1745605E+01;  0.0000000E+00;  5.6291409E+00;0; -1.5911099E-01;  3.9152105E+04;  0.0000000E+00; -3.1964955E-01;  4.0000000E+04;  0.0000000E+00;  4.0017332E+04; -1.9095409E-01;  0.0000000E+00;  3.1843089E-02;  3.1047344E+03;
  6.1424190E-01;  9.9999998E-03;  2.5992265E-01;6223;  2.8093979E-01;  0.0000000E+00;  1.5473525E-02;  9.9840466E+02;  1.0088506E-01; -1.3216825E+03;3; -2.0893288E+01;  0.0000000E+00;  5.8075891E+00;0; -1.6311865E-01;  3.9162094E+04;  0.0000000E+00; -3.6920795E-01;  4.0000000E+04;  0.0000000E+00;  4.0016480E+04; -1.9821097E-01;  0.0000000E+00;  3.5092320E-02;  2.9927708E+03;
  6.1424309E-01;  9.9999998E-03;  2.6993698E-01;6224;  2.7789530E-01;  0.0000000E+00;  1.6524853E-02;  9.9846356E+02;  1.0088427E-01; -1.2728942E+03;3; -2.0000383E+01;  0.0000000E+00;  5.8249750E+00;0; -1.6638273E-01;  3.9173207E+04;  0.0000000E+00; -4.0486178E-01;  4.0000000E+04;  0.0000000E+00;  4.0010762E+04; -2.0538568E-01;  0.0000000E+00;  3.9002962E-02;  2.3080093E+03;
  6.1422908E-01;  9.9999998E-03;  2.7995017E-01;6225;  2.7498999E-01;  0.0000000E+00;  1.7535508E-02;  9.9850433E+02;  1.0088295E-01; -1.2391176E+03;3; -1.9086346E+01;  0.0000000E+00;  5.6367769E+00;0; -1.6836318E-01;  3.9185203E+04;  0.0000000E+00; -3.9738983E-01;  4.0000000E+04;  0.0000000E+00;  4.0002953E+04; -2.1233471E-01;  0.0000000E+00;  4.3971520E-02;  1.3770066E+03;
  6.1420524E-01;  9.9999998E-03;  2.8996229E-01;6226;  2.7225134E-01;  0.0000000E+00;  1.8344723E-02;  9.9853217E+02;  1.0088188E-01; -1.2160565E+03;3; -1.8151157E+01;  0.0000000E+00;  5.2186699E+00;0; -1.7186107E-01;  3.9197875E+04;  0.0000000E+00; -3.1236845E-01;  4.0000000E+04;  0.0000000E+00;  3.9993855E+04; -2.1894416E-01;  0.0000000E+00;  4.7083098E-02;  4.5442929E+02;
  6.1417341E-01;  9.9999998E-03;  2.9997337E-01;6227;  2.6972383E-01;  0.0000000E+00;  1.8840538E-02;  9.9856177E+02;  1.0088022E-01; -1.1915636E+03;3; -1.7227285E+01;  0.0000000E+00;  4.6525831E+00;0; -1.7992556E-01;  3.9210770E+04;  0.0000000E+00; -1.2044813E-01;  4.0000000E+04;  0.0000000E+00;  3.9984758E+04; -2.2514284E-01;  0.0000000E+00;  4.5217283E-02;  1.0558663E+03;
  6.2411189E-01;  9.9999998E-03;  2.3990200E-01;6282;  2.8531969E-01;  0.0000000E+00;  1.5223962E-02;  9.9732507E+02;  1.0138737E-01; -2.2161187E+03;3; -2.2708740E+01;  0.0000000E+00;  4.4842334E+00;0; -1.5095863E-01;  3.8694160E+04;  0.0000000E+00; -1.0712571E-01;  4.0000000E+04;  0.0000000E+00;  4.0014520E+04; -1.8245904E-01;  0.0000000E+00;  3.1500410E-02;  3.2170884E+03;
  6.2413448E-01;  9.9999998E-03;  2.4990298E-01;6283;  2.8193489E-01;  0.0000000E+00;  1.6236827E-02;  9.9749908E+02;  1.0138651E-01; -2.0719263E+03;3; -2.1823235E+01;  0.0000000E+00;  4.7043099E+00;0; -1.5800217E-01;  3.8700688E+04;  0.0000000E+00; -8.0858201E-02;  4.0000000E+04;  0.0000000E+00;  4.0022531E+04; -1.8978806E-01;  0.0000000E+00;  3.1785890E-02;  4.1988188E+03;
  6.2414271E-01;  9.9999998E-03;  2.5991902E-01;6284;  2.7860066E-01;  0.0000000E+00;  1.7526569E-02;  9.9760095E+02;  1.0138530E-01; -1.9875342E+03;3; -2.0883308E+01;  0.0000000E+00;  4.9016500E+00;0; -1.6234320E-01;  3.8708406E+04;  0.0000000E+00; -5.3325765E-02;  4.0000000E+04;  0.0000000E+00;  4.0023672E+04; -1.9732776E-01;  0.0000000E+00;  3.4984563E-02;  4.3430024E+03;
  6.2413454E-01;  9.9999998E-03;  2.6993936E-01;6285;  2.7537498E-01;  0.0000000E+00;  1.8679483E-02;  9.9763422E+02;  1.0138352E-01; -1.9599796E+03;3; -1.9885725E+01;  0.0000000E+00;  4.9389973E+00;0; -1.6587898E-01;  3.8717512E+04;  0.0000000E+00; -1.6836695E-02;  4.0000000E+04;  0.0000000E+00;  4.0018320E+04; -2.0491202E-01;  0.0000000E+00;  3.9033040E-02;  3.6628848E+03;
  6.2411261E-01;  9.9999998E-03;  2.7995721E-01;6286;  2.7226776E-01;  0.0000000E+00;  1.9734988E-02;  9.9763971E+02;  1.0138179E-01; -1.9554365E+03;3; -1.8858629E+01;  0.0000000E+00;  4.7436628E+00;0; -1.6844301E-01;  3.8727707E+04;  0.0000000E+00;  5.1026113E-02;  4.0000000E+04;  0.0000000E+00;  4.0010102E+04; -2.1238708E-01;  0.0000000E+00;  4.3944072E-02;  2.6394888E+03;
  6.2408030E-01;  9.9999998E-03;  2.8997248E-01;6287;  2.6929191E-01;  0.0000000E+00;  2.0643611E-02;  9.9763239E+02;  1.0137950E-01; -1.9615104E+03;3; -1.7785654E+01;  0.0000000E+00;  4.2993217E+00;0; -1.7138690E-01;  3.8738445E+04;  0.0000000E+00;  1.8930829E-01;  4.0000000E+04;  0.0000000E+00;  4.0000605E+04; -2.1961991E-01;  0.0000000E+00;  4.8233010E-02;  1.4774188E+03;
  6.2403560E-01;  9.9999998E-03;  2.9998586E-01;6288;  2.6648688E-01;  0.0000000E+00;  2.1202827E-02;  9.9761890E+02;  1.0137697E-01; -1.9726705E+03;3; -1.6698357E+01;  0.0000000E+00;  3.6404328E+00;0; -1.7918220E-01;  3.8749570E+04;  0.0000000E+00;  4.4906056E-01;  4.0000000E+04;  0.0000000E+00;  3.9991020E+04; -2.2651856E-01;  0.0000000E+00;  4.7336359E-02;  6.9724512E+02;
  6.3404012E-01;  9.9999998E-03;  2.3990087E-01;6343;  2.8319904E-01;  0.0000000E+00;  1.7234160E-02;  9.9652136E+02;  1.0211643E-01; -2.8819680E+03;3; -2.2849598E+01;  0.0000000E+00;  3.4922895E+00;0; -1.4033464E-01;  3.8084461E+04;  0.0000000E+00;  6.5147921E-02;  4.0000000E+04;  0.0000000E+00;  4.0012109E+04; -1.7337024E-01;  0.0000000E+00;  3.3035610E-02;  3.6033325E+03;
  6.3405204E-01;  9.9999998E-03;  2.4990474E-01;6344;  2.7963749E-01;  0.0000000E+00;  1.8214609E-02;  9.9668451E+02;  1.0211511E-01; -2.7468125E+03;3; -2.1906096E+01;  0.0000000E+00;  3.7063789E+00;0; -1.4890552E-01;  3.8087906E+04;  0.0000000E+00;  1.2036642E-01;  4.0000000E+04;  0.0000000E+00;  4.0022812E+04; -1.8026504E-01;  0.0000000E+00;  3.1359520E-02;  4.9155776E+03;
  6.3404971E-01;  9.9999998E-03;  2.5992346E-01;6345;  2.7610430E-01;  0.0000000E+00;  1.9587176E-02;  9.9678204E+02;  1.0211335E-01; -2.6659758E+03;3; -2.0884920E+01;  0.0000000E+00;  3.9166963E+00;0; -1.5423717E-01;  3.8092824E+04;  0.0000000E+00;  1.4240752E-01;  4.0000000E+04;  0.0000000E+00;  4.0026969E+04; -1.8758582E-01;  0.0000000E+00;  3.3348646E-02;  5.4320015E+03;
  6.3403249E-01;  9.9999998E-03;  2.6994762E-01;6346;  2.7265921E-01;  0.0000000E+00;  2.0882178E-02;  9.9678943E+02;  1.0211078E-01; -2.6598528E+03;3; -1.9782623E+01;  0.0000000E+00;  3.9616354E+00;0; -1.5783527E-01;  3.8099113E+04;  0.0000000E+00;  1.2157462E-01;  4.0000000E+04;  0.0000000E+00;  4.0023277E+04; -1.9517547E-01;  0.0000000E+00;  3.7340198E-02;  4.9626680E+03;
  6.3400233E-01;  9.9999998E-03;  2.7996925E-01;6347;  2.6930270E-01;  0.0000000E+00;  2.2036200E-02;  9.9675989E+02;  1.0210801E-01; -2.6843457E+03;3; -1.8630230E+01;  0.0000000E+00;  3.7543211E+00;0; -1.6035779E-01;  3.8106574E+04;  0.0000000E+00;  7.4158832E-02;  4.0000000E+04;  0.0000000E+00;  4.0015512E+04; -2.0287886E-01;  0.0000000E+00;  4.2521078E-02;  3.9964775E+03;
  6.3396084E-01;  9.9999998E-03;  2.8998730E-01;6348;  2.6602337E-01;  0.0000000E+00;  2.3085058E-02;  9.9670789E+02;  1.0210469E-01; -2.7274551E+03;3; -1.7411690E+01;  0.0000000E+00;  3.2519615E+00;0; -1.6203447E-01;  3.8114613E+04;  0.0000000E+00;  5.7100870E-02;  4.0000000E+04;  0.0000000E+00;  4.0006172E+04; -2.1055180E-01;  0.0000000E+00;  4.8517328E-02;  2.8322686E+03;
  6.3390219E-01;  9.9999998E-03;  3.0000287E-01;6349;  2.6284730E-01;  0.0000000E+00;  2.3697186E-02;  9.9663965E+02;  1.0210042E-01; -2.7839470E+03;3; -1.6158131E+01;  0.0000000E+00;  2.4879293E+00;0; -1.6963264E-01;  3.8123027E+04;  0.0000000E+00;  1.5991133E-01;  4.0000000E+04;  0.0000000E+00;  3.9996195E+04; -2.1809435E-01;  0.0000000E+00;  4.8461698E-02;  1.5955719E+03;
  6.4398128E-01;  9.9999998E-03;  2.3991567E-01;6404;  2.8101197E-01;  0.0000000E+00;  1.9544477E-02;  9.9598938E+02;  1.0312241E-01; -3.3226877E+03;3; -2.3004715E+01;  0.0000000E+00;  2.4551849E+00;0; -1.1540276E-01;  3.7309977E+04;  0.0000000E+00;  2.0668828E-01;  4.0000000E+04;  0.0000000E+00;  4.0004508E+04; -1.5119256E-01;  0.0000000E+00;  3.5789803E-02;  3.5284495E+03;
  6.4398330E-01;  9.9999998E-03;  2.4992269E-01;6405;  2.7725378E-01;  0.0000000E+00;  2.0366665E-02;  9.9611475E+02;  1.0312074E-01; -3.2188398E+03;3; -2.1982468E+01;  0.0000000E+00;  2.6517572E+00;0; -1.2557131E-01;  3.7310070E+04;  0.0000000E+00;  2.1656740E-01;  4.0000000E+04;  0.0000000E+00;  4.0016000E+04; -1.5668352E-01;  0.0000000E+00;  3.1112211E-02;  4.9488774E+03;
  6.4397103E-01;  9.9999998E-03;  2.5994113E-01;6406;  2.7349097E-01;  0.0000000E+00;  2.1724170E-02;  9.9619751E+02;  1.0311812E-01; -3.1502500E+03;3; -2.0879177E+01;  0.0000000E+00;  2.8369062E+00;0; -1.3234641E-01;  3.7311555E+04;  0.0000000E+00;  1.0655939E-01;  4.0000000E+04;  0.0000000E+00;  4.0023184E+04; -1.6293570E-01;  0.0000000E+00;  3.0589292E-02;  5.8398169E+03;
  6.4394540E-01;  9.9999998E-03;  2.6996666E-01;6407;  2.6979032E-01;  0.0000000E+00;  2.3099544E-02;  9.9618329E+02;  1.0311506E-01; -3.1620520E+03;3; -1.9677088E+01;  0.0000000E+00;  2.8929393E+00;0; -1.3663611E-01;  3.7314566E+04;  0.0000000E+00; -1.6349854E-01;  4.0000000E+04;  0.0000000E+00;  4.0021746E+04; -1.6981862E-01;  0.0000000E+00;  3.3182517E-02;  5.6666523E+03;
  6.4390928E-01;  9.9999998E-03;  2.7999005E-01;6408;  2.6613551E-01;  0.0000000E+00;  2.4403347E-02;  9.9611835E+02;  1.0311127E-01; -3.2158279E+03;3; -1.8384167E+01;  0.0000000E+00;  2.6481316E+00;0; -1.3843565E-01;  3.7318707E+04;  0.0000000E+00; -5.7982522E-01;  4.0000000E+04;  0.0000000E+00;  4.0015730E+04; -1.7718607E-01;  0.0000000E+00;  3.8750425E-02;  4.9851963E+03;
  6.4386076E-01;  9.9999998E-03;  2.9000992E-01;6409;  2.6248625E-01;  0.0000000E+00;  2.5663968E-02;  9.9602002E+02;  1.0310655E-01; -3.2973062E+03;3; -1.7000076E+01;  0.0000000E+00;  2.0510790E+00;0; -1.3754505E-01;  3.7323438E+04;  0.0000000E+00; -1.0513327E+00;  4.0000000E+04;  0.0000000E+00;  4.0007219E+04; -1.8490501E-01;  0.0000000E+00;  4.7359955E-02;  4.1731475E+03;
  6.4378917E-01;  9.9999998E-03;  3.0002749E-01;6410;  2.5886086E-01;  0.0000000E+00;  2.6287882E-02;  9.9588776E+02;  1.0310001E-01; -3.4068823E+03;3; -1.5564213E+01;  0.0000000E+00;  1.1632354E+00;0; -1.4542089E-01;  3.7328934E+04;  0.0000000E+00; -1.4302835E+00;  4.0000000E+04;  0.0000000E+00;  3.9997008E+04; -1.9289634E-01;  0.0000000E+00;  4.7475442E-02;  3.3764065E+03;
  6.5394586E-01;  9.9999998E-03;  2.3994935E-01;6465;  2.7882934E-01;  0.0000000E+00;  2.2231830E-02;  9.9586847E+02;  1.0442531E-01; -3.4228762E+03;3; -2.3152645E+01;  0.0000000E+00;  1.3427850E+00;0; -6.8441950E-02;  3.6382355E+04;  0.0000000E+00;  2.7994046E-01;  4.0000000E+04;  0.0000000E+00;  3.9990680E+04; -1.0856064E-01;  0.0000000E+00;  4.0118687E-02;  2.9047168E+03;
  6.5394056E-01;  9.9999998E-03;  2.4995886E-01;6466;  2.7485293E-01;  0.0000000E+00;  2.2814916E-02;  9.9593353E+02;  1.0442382E-01; -3.3689524E+03;3; -2.2063511E+01;  0.0000000E+00;  1.5209430E+00;0; -7.9410776E-02;  3.6379199E+04;  0.0000000E+00;  1.5031421E-01;  4.0000000E+04;  0.0000000E+00;  4.0001438E+04; -1.1114450E-01;  0.0000000E+00;  3.1733725E-02;  4.2133628E+03;
  6.5391982E-01;  9.9999998E-03;  2.5997493E-01;6467;  2.7084237E-01;  0.0000000E+00;  2.4003567E-02;  9.9599060E+02;  1.0442100E-01; -3.3216951E+03;3; -2.0874039E+01;  0.0000000E+00;  1.6721357E+00;0; -8.7952323E-02;  3.6377270E+04;  0.0000000E+00; -2.4484850E-01;  4.0000000E+04;  0.0000000E+00;  4.0010879E+04; -1.1500238E-01;  0.0000000E+00;  2.7050057E-02;  5.3975708E+03;
  6.5388948E-01;  9.9999998E-03;  2.6999936E-01;6468;  2.6685447E-01;  0.0000000E+00;  2.5326777E-02;  9.9594958E+02;  1.0441747E-01; -3.3556692E+03;3; -1.9549448E+01;  0.0000000E+00;  1.7105215E+00;0; -9.3885720E-02;  3.6376559E+04;  0.0000000E+00; -9.8425275E-01;  4.0000000E+04;  0.0000000E+00;  4.0011793E+04; -1.2002326E-01;  0.0000000E+00;  2.6137542E-02;  5.7235786E+03;
  6.5385240E-01;  9.9999998E-03;  2.8002185E-01;6469;  2.6283315E-01;  0.0000000E+00;  2.6905427E-02;  9.9586096E+02;  1.0441259E-01; -3.4290981E+03;3; -1.8103849E+01;  0.0000000E+00;  1.3926617E+00;0; -9.2912465E-02;  3.6376871E+04;  0.0000000E+00; -2.0489151E+00;  4.0000000E+04;  0.0000000E+00;  4.0008770E+04; -1.2608182E-01;  0.0000000E+00;  3.3169363E-02;  6.0546958E+03;
  6.5380168E-01;  9.9999998E-03;  2.9004246E-01;6470;  2.5876555E-01;  0.0000000E+00;  2.8409904E-02;  9.9572137E+02;  1.0440704E-01; -3.5446985E+03;3; -1.6501459E+01;  0.0000000E+00;  5.4821104E-01;0; -8.8285297E-02;  3.6378180E+04;  0.0000000E+00; -3.2955127E+00;  4.0000000E+04;  0.0000000E+00;  4.0001578E+04; -1.3307506E-01;  0.0000000E+00;  4.4789761E-02;  6.6748608E+03;
  6.5372229E-01;  9.9999998E-03;  3.0006164E-01;6471;  2.5465992E-01;  0.0000000E+00;  2.8961269E-02;  9.9553204E+02;  1.0439863E-01; -3.7015813E+03;3; -1.4888662E+01;  0.0000000E+00; -3.8626689E-01;0; -9.7357109E-02;  3.6380785E+04;  0.0000000E+00; -4.4950614E+00;  4.0000000E+04;  0.0000000E+00;  3.9991422E+04; -1.4098117E-01;  0.0000000E+00;  4.3624058E-02;  7.6047539E+03;
  6.6373223E-01;  9.9999998E-03;  3.0010551E-01;6532;  2.5043958E-01;  0.0000000E+00;  3.1715356E-02;  9.9558392E+02;  1.0598221E-01; -3.6585637E+03;3; -1.4157984E+01;  0.0000000E+00; -2.1857913E+00;0; -1.2937080E-02;  3.5309172E+04;  0.0000000E+00; -8.7449751E+00;  4.0000000E+04;  0.0000000E+00;  3.9979293E+04; -4.9343005E-02;  0.0000000E+00;  3.6405925E-02;  1.4252095E+04;
  6.6395372E-01;  9.9999998E-03;  2.4000025E-01;6526;  2.7672997E-01;  0.0000000E+00;  2.5360806E-02;  9.9612842E+02;  1.0600848E-01; -3.2074714E+03;3; -2.3291809E+01;  0.0000000E+00;  1.6691512E-01;0;  1.0180518E-02;  3.5329809E+04;  0.0000000E+00;  2.5785050E-01;  4.0000000E+04;  0.0000000E+00;  3.9971855E+04; -3.6086977E-02;  0.0000000E+00;  4.6267495E-02;  1.8169507E+03;
  6.6381532E-01;  9.9999998E-03;  2.9008526E-01;6531;  2.5500727E-01;  0.0000000E+00;  3.1338643E-02;  9.9581415E+02;  1.0599209E-01; -3.4678557E+03;3; -1.5972877E+01;  0.0000000E+00; -1.2336465E+00;0; -2.0823255E-03;  3.5308543E+04;  0.0000000E+00; -6.4729953E+00;  4.0000000E+04;  0.0000000E+00;  3.9989375E+04; -4.2617060E-02;  0.0000000E+00;  4.0534735E-02;  1.1134694E+04;
  6.6394281E-01;  9.9999998E-03;  2.5001019E-01;6527;  2.7252141E-01;  0.0000000E+00;  2.5688475E-02;  9.9613373E+02;  1.0600802E-01; -3.2030764E+03;3; -2.2154633E+01;  0.0000000E+00;  2.8121620E-01;0;  3.0295178E-04;  3.5323730E+04;  0.0000000E+00; -1.0529631E-01;  4.0000000E+04;  0.0000000E+00;  3.9981133E+04; -3.3632372E-02;  0.0000000E+00;  3.3935323E-02;  2.9534922E+03;
  6.6389233E-01;  9.9999998E-03;  2.7004543E-01;6529;  2.6394868E-01;  0.0000000E+00;  2.7687920E-02;  9.9607788E+02;  1.0600255E-01; -3.2493462E+03;3; -1.9405022E+01;  0.0000000E+00;  4.2463502E-01;0; -1.7265374E-02;  3.5314203E+04;  0.0000000E+00; -2.3032739E+00;  4.0000000E+04;  0.0000000E+00;  3.9993836E+04; -3.4536488E-02;  0.0000000E+00;  1.7271115E-02;  5.9058809E+03;
  6.6391867E-01;  9.9999998E-03;  2.6002434E-01;6528;  2.6824790E-01;  0.0000000E+00;  2.6539132E-02;  9.9614337E+02;  1.0600589E-01; -3.1950769E+03;3; -2.0856600E+01;  0.0000000E+00;  3.6010969E-01;0; -9.6491966E-03;  3.5318672E+04;  0.0000000E+00; -9.2143542E-01;  4.0000000E+04;  0.0000000E+00;  3.9990512E+04; -3.3159927E-02;  0.0000000E+00;  2.3510730E-02;  4.4080640E+03;
  6.6386527E-01;  9.9999998E-03;  2.8006455E-01;6530;  2.5950357E-01;  0.0000000E+00;  2.9673647E-02;  9.9598749E+02;  1.0599858E-01; -3.3242566E+03;3; -1.7760559E+01;  0.0000000E+00; -1.2759855E-01;0; -1.0460394E-02;  3.5310395E+04;  0.0000000E+00; -4.2091660E+00;  4.0000000E+04;  0.0000000E+00;  3.9995043E+04; -3.7678424E-02;  0.0000000E+00;  2.7218031E-02;  8.2689570E+03;
  6.7403716E-01;  9.9999998E-03;  2.4006122E-01;6587;  2.7476946E-01;  0.0000000E+00;  2.9013017E-02;  9.9669543E+02;  1.0782925E-01; -2.7377073E+03;3; -2.3418755E+01;  0.0000000E+00; -1.0946956E+00;0;  1.3168767E-01;  3.4194453E+04;  0.0000000E+00;  1.3527192E-01;  4.0000000E+04;  0.0000000E+00;  3.9950727E+04;  7.7196293E-02;  0.0000000E+00;  5.4491386E-02;  5.5772797E+02;
  6.7402768E-01;  9.9999998E-03;  2.5007218E-01;6588;  2.7034125E-01;  0.0000000E+00;  2.9099291E-02;  9.9664746E+02;  1.0783036E-01; -2.7774585E+03;3; -2.2232801E+01;  0.0000000E+00; -1.0501723E+00;0;  1.2581757E-01;  3.4186555E+04;  0.0000000E+00; -5.1542252E-01;  4.0000000E+04;  0.0000000E+00;  3.9957547E+04;  8.7573312E-02;  0.0000000E+00;  3.8244259E-02;  1.7401263E+03;
  6.7401624E-01;  9.9999998E-03;  2.6008677E-01;6589;  2.6580936E-01;  0.0000000E+00;  2.9460842E-02;  9.9658954E+02;  1.0783044E-01; -2.8254565E+03;3; -2.0833570E+01;  0.0000000E+00; -9.7134018E-01;0;  1.1597617E-01;  3.4178262E+04;  0.0000000E+00; -1.7928038E+00;  4.0000000E+04;  0.0000000E+00;  3.9964262E+04;  9.5184617E-02;  0.0000000E+00;  2.0791555E-02;  3.8653232E+03;
  6.7401862E-01;  9.9999998E-03;  2.7010193E-01;6590;  2.6115811E-01;  0.0000000E+00;  3.0506598E-02;  9.9652228E+02;  1.0783037E-01; -2.8811577E+03;3; -1.9231279E+01;  0.0000000E+00; -1.0294733E+00;0;  1.1019751E-01;  3.4169332E+04;  0.0000000E+00; -3.8036265E+00;  4.0000000E+04;  0.0000000E+00;  3.9970770E+04;  1.0024232E-01;  0.0000000E+00;  9.9551901E-03;  7.1406675E+03;
  6.7401117E-01;  9.9999998E-03;  2.8011671E-01;6591;  2.5625384E-01;  0.0000000E+00;  3.2967284E-02;  9.9644989E+02;  1.0782924E-01; -2.9411550E+03;3; -1.7348490E+01;  0.0000000E+00; -2.0084214E+00;0;  1.2658930E-01;  3.4161559E+04;  0.0000000E+00; -6.5356121E+00;  4.0000000E+04;  0.0000000E+00;  3.9976340E+04;  1.0244701E-01;  0.0000000E+00;  2.4142295E-02;  1.1549844E+04;
  6.7396790E-01;  9.9999998E-03;  2.9013762E-01;6592;  2.5136629E-01;  0.0000000E+00;  3.4499507E-02;  9.9625610E+02;  1.0782379E-01; -3.1016912E+03;3; -1.5350501E+01;  0.0000000E+00; -3.3272743E+00;0;  1.3660827E-01;  3.4157195E+04;  0.0000000E+00; -9.7914047E+00;  4.0000000E+04;  0.0000000E+00;  3.9971418E+04;  1.0170937E-01;  0.0000000E+00;  3.4898896E-02;  1.6518516E+04;
  6.7389441E-01;  9.9999998E-03;  3.0015856E-01;6593;  2.4638708E-01;  0.0000000E+00;  3.4602001E-02;  9.9601147E+02;  1.0781430E-01; -3.3043491E+03;3; -1.3383377E+01;  0.0000000E+00; -4.2236986E+00;0;  1.2442624E-01;  3.4156281E+04;  0.0000000E+00; -1.3019341E+01;  4.0000000E+04;  0.0000000E+00;  3.9961875E+04;  9.8238409E-02;  0.0000000E+00;  2.6187828E-02;  2.1541666E+04;
  6.8430960E-01;  9.9999998E-03;  2.4012686E-01;6648;  2.7295768E-01;  0.0000000E+00;  3.3298850E-02;  9.9759528E+02;  1.0984457E-01; -1.9922531E+03;3; -2.3471836E+01;  0.0000000E+00; -2.4989934E+00;0;  3.0964667E-01;  3.3022883E+04;  0.0000000E+00; -2.6675504E-02;  4.0000000E+04;  0.0000000E+00;  3.9929172E+04;  2.4464573E-01;  0.0000000E+00;  6.5000929E-02;  6.9515405E+02;
  6.8433446E-01;  9.9999998E-03;  2.5014320E-01;6649;  2.6835957E-01;  0.0000000E+00;  3.3155516E-02;  9.9749152E+02;  1.0985138E-01; -2.0781750E+03;3; -2.2276279E+01;  0.0000000E+00; -2.4574497E+00;0;  3.1213200E-01;  3.3012352E+04;  0.0000000E+00; -8.9008051E-01;  4.0000000E+04;  0.0000000E+00;  3.9931340E+04;  2.6719612E-01;  0.0000000E+00;  4.4935867E-02;  1.8255520E+03;
  6.8439251E-01;  9.9999998E-03;  2.6015761E-01;6650;  2.6355726E-01;  0.0000000E+00;  3.3188429E-02;  9.9739050E+02;  1.0986061E-01; -2.1618748E+03;3; -2.0787683E+01;  0.0000000E+00; -2.3786898E+00;0;  3.0868667E-01;  3.2998660E+04;  0.0000000E+00; -2.4031661E+00;  4.0000000E+04;  0.0000000E+00;  3.9935227E+04;  2.8665304E-01;  0.0000000E+00;  2.2033645E-02;  4.3922446E+03;
  6.8446577E-01;  9.9999998E-03;  2.7016544E-01;6651;  2.5848991E-01;  0.0000000E+00;  3.4480792E-02;  9.9736475E+02;  1.0987075E-01; -2.1832073E+03;3; -1.8985365E+01;  0.0000000E+00; -2.9799180E+00;0;  3.1425893E-01;  3.2983660E+04;  0.0000000E+00; -4.6641598E+00;  4.0000000E+04;  0.0000000E+00;  3.9945766E+04;  3.0262116E-01;  0.0000000E+00;  1.1637785E-02;  8.3614795E+03;
  6.8452293E-01;  9.9999998E-03;  2.8017846E-01;6652;  2.5315526E-01;  0.0000000E+00;  3.7055962E-02;  9.9730316E+02;  1.0987887E-01; -2.2342170E+03;3; -1.6815277E+01;  0.0000000E+00; -4.4108000E+00;0;  3.4127161E-01;  3.2970066E+04;  0.0000000E+00; -7.6207037E+00;  4.0000000E+04;  0.0000000E+00;  3.9952852E+04;  3.1460172E-01;  0.0000000E+00;  2.6669882E-02;  1.3432315E+04;
  6.8455863E-01;  9.9999998E-03;  2.9020035E-01;6653;  2.4792235E-01;  0.0000000E+00;  3.7973307E-02;  9.9709448E+02;  1.0988358E-01; -2.4070979E+03;3; -1.4656521E+01;  0.0000000E+00; -5.8188925E+00;0;  3.5049856E-01;  3.2959309E+04;  0.0000000E+00; -1.0874244E+01;  4.0000000E+04;  0.0000000E+00;  3.9947508E+04;  3.2295674E-01;  0.0000000E+00;  2.7541803E-02;  1.8759389E+04;
  6.8456018E-01;  9.9999998E-03;  3.0022189E-01;6654;  2.4247815E-01;  0.0000000E+00;  3.7827823E-02;  9.9686475E+02;  1.0988339E-01; -2.5974595E+03;3; -1.2561645E+01;  0.0000000E+00; -6.5445414E+00;0;  3.4209099E-01;  3.2953191E+04;  0.0000000E+00; -1.3905751E+01;  4.0000000E+04;  0.0000000E+00;  3.9938902E+04;  3.2746798E-01;  0.0000000E+00;  1.4623011E-02;  2.3753510E+04;
  6.9540727E-01;  9.9999998E-03;  2.4020974E-01;6709;  2.7125230E-01;  0.0000000E+00;  3.8418908E-02;  9.9899896E+02;  1.1208759E-01; -8.2934149E+02;3; -2.3219799E+01;  0.0000000E+00; -3.5695097E+00;0;  5.7318425E-01;  3.1826498E+04;  0.0000000E+00;  1.1501794E-01;  4.0000000E+04;  0.0000000E+00;  3.9902199E+04;  4.9553898E-01;  0.0000000E+00;  7.7645265E-02;  2.4197473E+03;
  6.9553852E-01;  9.9999998E-03;  2.5022569E-01;6710;  2.6648489E-01;  0.0000000E+00;  3.8263630E-02;  9.9891278E+02;  1.1211050E-01; -9.0074536E+02;3; -2.2224756E+01;  0.0000000E+00; -4.0879912E+00;0;  5.9281683E-01;  3.1810771E+04;  0.0000000E+00; -5.6566513E-01;  4.0000000E+04;  0.0000000E+00;  3.9901336E+04;  5.3782034E-01;  0.0000000E+00;  5.4996464E-02;  2.8781606E+03;
  6.9570774E-01;  9.9999998E-03;  2.6023567E-01;6711;  2.6140243E-01;  0.0000000E+00;  3.8441584E-02;  9.9887384E+02;  1.1213829E-01; -9.3299054E+02;3; -2.0618631E+01;  0.0000000E+00; -4.3750505E+00;0;  6.0786712E-01;  3.1791215E+04;  0.0000000E+00; -1.6877987E+00;  4.0000000E+04;  0.0000000E+00;  3.9904855E+04;  5.7633221E-01;  0.0000000E+00;  3.1534888E-02;  3.9982754E+03;
  6.9592416E-01;  9.9999998E-03;  2.7024028E-01;6712;  2.5588149E-01;  0.0000000E+00;  4.0237688E-02;  9.9892981E+02;  1.1217264E-01; -8.8662244E+02;3; -1.8506823E+01;  0.0000000E+00; -5.9091945E+00;0;  6.3813722E-01;  3.1767623E+04;  0.0000000E+00; -3.1806867E+00;  4.0000000E+04;  0.0000000E+00;  3.9916375E+04;  6.1142808E-01;  0.0000000E+00;  2.6709162E-02;  6.1236455E+03;
  6.9615060E-01;  9.9999998E-03;  2.8025639E-01;6713;  2.5024670E-01;  0.0000000E+00;  4.2126186E-02;  9.9888690E+02;  1.1220865E-01; -9.2217615E+02;3; -1.6169727E+01;  0.0000000E+00; -7.7043681E+00;0;  6.7623156E-01;  3.1743330E+04;  0.0000000E+00; -4.8412166E+00;  4.0000000E+04;  0.0000000E+00;  3.9919727E+04;  6.4258611E-01;  0.0000000E+00;  3.3645470E-02;  9.0341377E+03;
  6.9632739E-01;  9.9999998E-03;  2.9027951E-01;6714;  2.4464174E-01;  0.0000000E+00;  4.2152692E-02;  9.9872906E+02;  1.1223756E-01; -1.0529349E+03;3; -1.4079728E+01;  0.0000000E+00; -8.6018219E+00;0;  6.8909389E-01;  3.1723865E+04;  0.0000000E+00; -6.4598818E+00;  4.0000000E+04;  0.0000000E+00;  3.9913406E+04;  6.6837639E-01;  0.0000000E+00;  2.0717518E-02;  1.1903118E+04;
  6.9641501E-01;  9.9999998E-03;  3.0030176E-01;6715;  2.3853496E-01;  0.0000000E+00;  4.1866977E-02;  9.9857147E+02;  1.1225373E-01; -1.1834963E+03;3; -1.2091385E+01;  0.0000000E+00; -9.0191984E+00;0;  6.9370824E-01;  3.1712561E+04;  0.0000000E+00; -7.9340215E+00;  4.0000000E+04;  0.0000000E+00;  3.9905625E+04;  6.8748027E-01;  0.0000000E+00;  6.2279440E-03;  1.4540834E+04;
  7.0784652E-01;  9.9999998E-03;  2.4032536E-01;6770;  2.6955917E-01;  0.0000000E+00;  4.4465996E-02;  1.0013652E+03;  1.1458094E-01;  1.1310006E+03;3; -2.2869394E+01;  0.0000000E+00; -4.6250963E+00;0;  9.6582454E-01;  3.0638535E+04;  0.0000000E+00;  5.9697843E-01;  4.0000000E+04;  0.0000000E+00;  3.9863852E+04;  8.7433672E-01;  0.0000000E+00;  9.1487810E-02;  5.5861089E+03;
  7.0805633E-01;  9.9999998E-03;  2.5032496E-01;6771;  2.6464486E-01;  0.0000000E+00;  4.5110203E-02;  1.0014330E+03;  1.1461917E-01;  1.1871949E+03;3; -2.1632504E+01;  0.0000000E+00; -5.9271779E+00;0;  1.0156412E+00;  3.0623051E+04;  0.0000000E+00;  3.4738666E-01;  4.0000000E+04;  0.0000000E+00;  3.9864805E+04;  9.4416249E-01;  0.0000000E+00;  7.1478732E-02;  5.4134121E+03;
  7.0832396E-01;  9.9999998E-03;  2.6032671E-01;6772;  2.5929916E-01;  0.0000000E+00;  4.6318553E-02;  1.0015507E+03;  1.1466512E-01;  1.2846710E+03;3; -2.0134275E+01;  0.0000000E+00; -8.2141190E+00;0;  1.0683398E+00;  3.0602820E+04;  0.0000000E+00; -3.9862815E-02;  4.0000000E+04;  0.0000000E+00;  3.9869863E+04;  1.0101326E+00;  0.0000000E+00;  5.8207311E-02;  4.8023125E+03;
  7.0862246E-01;  9.9999998E-03;  2.7033654E-01;6773;  2.5357172E-01;  0.0000000E+00;  4.7659434E-02;  1.0016501E+03;  1.1471583E-01;  1.3670369E+03;3; -1.8018103E+01;  0.0000000E+00; -1.0273478E+01;0;  1.1248871E+00;  3.0579711E+04;  0.0000000E+00; -4.9782181E-01;  4.0000000E+04;  0.0000000E+00;  3.9874203E+04;  1.0714875E+00;  0.0000000E+00;  5.3399544E-02;  4.4840459E+03;
  7.0886070E-01;  9.9999998E-03;  2.8035530E-01;6774;  2.4781050E-01;  0.0000000E+00;  4.8024230E-02;  1.0016480E+03;  1.1475872E-01;  1.3653578E+03;3; -1.5738881E+01;  0.0000000E+00; -1.1458566E+01;0;  1.1693516E+00;  3.0559680E+04;  0.0000000E+00; -1.0213379E+00;  4.0000000E+04;  0.0000000E+00;  3.9871848E+04;  1.1250004E+00;  0.0000000E+00;  4.4351161E-02;  5.1457759E+03;
  7.0901138E-01;  9.9999998E-03;  2.9037771E-01;6775;  2.4187887E-01;  0.0000000E+00;  4.7362674E-02;  1.0015627E+03;  1.1478852E-01;  1.2946454E+03;3; -1.3514156E+01;  0.0000000E+00; -1.1749433E+01;0;  1.1938628E+00;  3.0545205E+04;  0.0000000E+00; -1.5553992E+00;  4.0000000E+04;  0.0000000E+00;  3.9864895E+04;  1.1698424E+00;  0.0000000E+00;  2.4020474E-02;  6.3926484E+03;
  7.0905328E-01;  9.9999998E-03;  3.0039889E-01;6776;  2.3513973E-01;  0.0000000E+00;  4.7074221E-02;  1.0014662E+03;  1.1480208E-01;  1.2146498E+03;3; -1.1516746E+01;  0.0000000E+00; -1.1985493E+01;0;  1.2185994E+00;  3.0537982E+04;  0.0000000E+00; -2.0829926E+00;  4.0000000E+04;  0.0000000E+00;  3.9858984E+04;  1.2052783E+00;  0.0000000E+00;  1.3321121E-02;  7.5181968E+03;
  7.2043538E-01;  9.9999998E-03;  2.4042147E-01;6831;  2.6860332E-01;  0.0000000E+00;  5.3163409E-02;  1.0043712E+03;  1.1698216E-01;  3.6213157E+03;3; -2.2506006E+01;  0.0000000E+00; -7.6452360E+00;0;  1.4838283E+00;  2.9602789E+04;  0.0000000E+00;  6.1453599E-01;  4.0000000E+04;  0.0000000E+00;  3.9833941E+04;  1.3685428E+00;  0.0000000E+00;  1.1528549E-01;  7.8400356E+03;
  7.2061896E-01;  9.9999998E-03;  2.5041804E-01;6832;  2.6353854E-01;  0.0000000E+00;  5.4518249E-02;  1.0045151E+03;  1.1701532E-01;  3.7406169E+03;3; -2.1330706E+01;  0.0000000E+00; -1.1869624E+01;0;  1.5707173E+00;  2.9595387E+04;  0.0000000E+00;  4.3762907E-01;  4.0000000E+04;  0.0000000E+00;  3.9833363E+04;  1.4672010E+00;  0.0000000E+00;  1.0351628E-01;  7.8643921E+03;
  7.2082156E-01;  9.9999998E-03;  2.6042464E-01;6833;  2.5804365E-01;  0.0000000E+00;  5.5093292E-02;  1.0046288E+03;  1.1705086E-01;  3.8347344E+03;3; -1.9720320E+01;  0.0000000E+00; -1.4026969E+01;0;  1.6517798E+00;  2.9585256E+04;  0.0000000E+00;  1.3748667E-01;  4.0000000E+04;  0.0000000E+00;  3.9832000E+04;  1.5590153E+00;  0.0000000E+00;  9.2764474E-02;  8.0209863E+03;
  7.2090226E-01;  9.9999998E-03;  2.7043751E-01;6834;  2.5226936E-01;  0.0000000E+00;  5.4961488E-02;  1.0046485E+03;  1.1706957E-01;  3.8510293E+03;3; -1.7540991E+01;  0.0000000E+00; -1.4941064E+01;0;  1.7180814E+00;  2.9579719E+04;  0.0000000E+00; -3.3691600E-01;  4.0000000E+04;  0.0000000E+00;  3.9828863E+04;  1.6369298E+00;  0.0000000E+00;  8.1151649E-02;  8.4826670E+03;
  7.2090375E-01;  9.9999998E-03;  2.8045574E-01;6835;  2.4643598E-01;  0.0000000E+00;  5.3908378E-02;  1.0045676E+03;  1.1707651E-01;  3.7840703E+03;3; -1.5115406E+01;  0.0000000E+00; -1.5138079E+01;0;  1.7640783E+00;  2.9577008E+04;  0.0000000E+00; -8.9943486E-01;  4.0000000E+04;  0.0000000E+00;  3.9822137E+04;  1.7030609E+00;  0.0000000E+00;  6.1017353E-02;  9.4863184E+03;
  7.2083706E-01;  9.9999998E-03;  2.9047465E-01;6836;  2.4042189E-01;  0.0000000E+00;  5.2653726E-02;  1.0044479E+03;  1.1707416E-01;  3.6848174E+03;3; -1.2776011E+01;  0.0000000E+00; -1.5023971E+01;0;  1.7970769E+00;  2.9576299E+04;  0.0000000E+00; -1.3829067E+00;  4.0000000E+04;  0.0000000E+00;  3.9816125E+04;  1.7586358E+00;  0.0000000E+00;  3.8441215E-02;  1.0421266E+04;
  7.2069657E-01;  9.9999998E-03;  3.0049282E-01;6837;  2.3342393E-01;  0.0000000E+00;  5.2267719E-02;  1.0043201E+03;  1.1706148E-01;  3.5790461E+03;3; -1.0436253E+01;  0.0000000E+00; -1.5374871E+01;0;  1.8367708E+00;  2.9578223E+04;  0.0000000E+00; -1.6506552E+00;  4.0000000E+04;  0.0000000E+00;  3.9813340E+04;  1.8041970E+00;  0.0000000E+00;  3.2573804E-02;  1.0873269E+04;
  7.3259145E-01;  9.9999998E-03;  2.4049081E-01;6892;  2.6953861E-01;  0.0000000E+00;  6.3158125E-02;  1.0066052E+03;  1.1898574E-01;  5.4720361E+03;3; -2.2491404E+01;  0.0000000E+00; -1.4733987E+01;0;  2.0893621E+00;  2.8764525E+04;  0.0000000E+00;  2.5423032E-01;  4.0000000E+04;  0.0000000E+00;  3.9814516E+04;  1.9455597E+00;  0.0000000E+00;  1.4380233E-01;  8.9706006E+03;
  7.3258549E-01;  9.9999998E-03;  2.5049531E-01;6893;  2.6428404E-01;  0.0000000E+00;  6.3842021E-02;  1.0066993E+03;  1.1898875E-01;  5.5500557E+03;3; -2.1636946E+01;  0.0000000E+00; -1.7671267E+01;0;  2.2005143E+00;  2.8770537E+04;  0.0000000E+00;  2.6976732E-03;  4.0000000E+04;  0.0000000E+00;  3.9810605E+04;  2.0647595E+00;  0.0000000E+00;  1.3575494E-01;  9.4800889E+03;
  7.3256582E-01;  9.9999998E-03;  2.6050869E-01;6894;  2.5845891E-01;  0.0000000E+00;  6.3419692E-02;  1.0067065E+03;  1.1899032E-01;  5.5560796E+03;3; -1.9721485E+01;  0.0000000E+00; -1.8917288E+01;0;  2.3004091E+00;  2.8774662E+04;  0.0000000E+00; -3.3092302E-01;  4.0000000E+04;  0.0000000E+00;  3.9803191E+04;  2.1730359E+00;  0.0000000E+00;  1.2737328E-01;  1.0435509E+04;
  7.3251551E-01;  9.9999998E-03;  2.7052554E-01;6895;  2.5239107E-01;  0.0000000E+00;  6.1932806E-02;  1.0066306E+03;  1.1898889E-01;  5.4931704E+03;3; -1.7267387E+01;  0.0000000E+00; -1.9710560E+01;0;  2.3818021E+00;  2.8777709E+04;  0.0000000E+00; -6.7329252E-01;  4.0000000E+04;  0.0000000E+00;  3.9793543E+04;  2.2692528E+00;  0.0000000E+00;  1.1254928E-01;  1.1687102E+04;
  7.3243761E-01;  9.9999998E-03;  2.8054497E-01;6896;  2.4656181E-01;  0.0000000E+00;  5.9260186E-02;  1.0064796E+03;  1.1898497E-01;  5.3680430E+03;3; -1.4078316E+01;  0.0000000E+00; -1.9363344E+01;0;  2.4343753E+00;  2.8779596E+04;  0.0000000E+00; -9.1215312E-01;  4.0000000E+04;  0.0000000E+00;  3.9782387E+04;  2.3540864E+00;  0.0000000E+00;  8.0288805E-02;  1.3110391E+04;
  7.3231840E-01;  9.9999998E-03;  2.9056144E-01;6897;  2.4087644E-01;  0.0000000E+00;  5.7321511E-02;  1.0063549E+03;  1.1897618E-01;  5.2647412E+03;3; -1.1105261E+01;  0.0000000E+00; -1.9442579E+01;0;  2.4826303E+00;  2.8780508E+04;  0.0000000E+00; -8.4720826E-01;  4.0000000E+04;  0.0000000E+00;  3.9777637E+04;  2.4277627E+00;  0.0000000E+00;  5.4867502E-02;  1.3679744E+04;
  7.3213995E-01;  9.9999998E-03;  3.0057779E-01;6898;  2.3422760E-01;  0.0000000E+00;  5.6562319E-02;  1.0062278E+03;  1.1896159E-01;  5.1594648E+03;3; -8.4168797E+00;  0.0000000E+00; -1.9872337E+01;0;  2.5396924E+00;  2.8781258E+04;  0.0000000E+00; -2.9243225E-01;  4.0000000E+04;  0.0000000E+00;  3.9777375E+04;  2.4905825E+00;  0.0000000E+00;  4.9109899E-02;  1.3652106E+04;
  7.4466085E-01;  9.9999998E-03;  2.4053189E-01;6953;  2.7488762E-01;  0.0000000E+00;  7.4577607E-02;  1.0074658E+03;  1.2050863E-01;  6.1850293E+03;3; -2.1780771E+01;  0.0000000E+00; -2.0159571E+01;0;  2.7696290E+00;  2.8100613E+04;  0.0000000E+00; -5.0680693E-02;  4.0000000E+04;  0.0000000E+00;  3.9806832E+04;  2.5925186E+00;  0.0000000E+00;  1.7711039E-01;  8.9035400E+03;
  7.4466693E-01;  9.9999998E-03;  2.5055489E-01;6954;  2.6918787E-01;  0.0000000E+00;  7.4381955E-02;  1.0075118E+03;  1.2051348E-01;  6.2230513E+03;3; -2.1466696E+01;  0.0000000E+00; -2.3278202E+01;0;  2.9174285E+00;  2.8105766E+04;  0.0000000E+00; -1.8653692E-01;  4.0000000E+04;  0.0000000E+00;  3.9797785E+04;  2.7403297E+00;  0.0000000E+00;  1.7709872E-01;  1.0042533E+04;
  7.4465245E-01;  9.9999998E-03;  2.6057747E-01;6955;  2.6258990E-01;  0.0000000E+00;  7.2778031E-02;  1.0074636E+03;  1.2051670E-01;  6.1831528E+03;3; -1.9560543E+01;  0.0000000E+00; -2.5016964E+01;0;  3.0512917E+00;  2.8108604E+04;  0.0000000E+00; -2.1053718E-01;  4.0000000E+04;  0.0000000E+00;  3.9785832E+04;  2.8757021E+00;  0.0000000E+00;  1.7558947E-01;  1.1542485E+04;
  7.4461973E-01;  9.9999998E-03;  2.7060452E-01;6956;  2.5562608E-01;  0.0000000E+00;  6.8225436E-02;  1.0072663E+03;  1.2052035E-01;  6.0197080E+03;3; -1.6012566E+01;  0.0000000E+00; -2.6462700E+01;0;  3.1421275E+00;  2.8108840E+04;  0.0000000E+00;  2.4497250E-02;  4.0000000E+04;  0.0000000E+00;  3.9767031E+04;  2.9984500E+00;  0.0000000E+00;  1.4367755E-01;  1.3907388E+04;
  7.4459314E-01;  9.9999998E-03;  2.8062505E-01;6957;  2.5022146E-01;  0.0000000E+00;  6.3133873E-02;  1.0070781E+03;  1.2052511E-01;  5.8637690E+03;3; -1.1540050E+01;  0.0000000E+00; -2.5688686E+01;0;  3.1994224E+00;  2.8105957E+04;  0.0000000E+00;  6.5125364E-01;  4.0000000E+04;  0.0000000E+00;  3.9753324E+04;  3.1100464E+00;  0.0000000E+00;  8.9376070E-02;  1.5736438E+04;
  7.4453771E-01;  9.9999998E-03;  2.9063907E-01;6958;  2.4544087E-01;  0.0000000E+00;  6.0172264E-02;  1.0069800E+03;  1.2052742E-01;  5.7825903E+03;3; -7.8201280E+00;  0.0000000E+00; -2.5270889E+01;0;  3.2643900E+00;  2.8101270E+04;  0.0000000E+00;  1.8531419E+00;  4.0000000E+04;  0.0000000E+00;  3.9751129E+04;  3.2094026E+00;  0.0000000E+00;  5.4987341E-02;  1.6502773E+04;
  7.4445271E-01;  9.9999998E-03;  3.0065417E-01;6959;  2.4013628E-01;  0.0000000E+00;  5.8668099E-02;  1.0068898E+03;  1.2052690E-01;  5.7078301E+03;3; -4.7892036E+00;  0.0000000E+00; -2.5528284E+01;0;  3.3405938E+00;  2.8095166E+04;  0.0000000E+00;  3.6482482E+00;  4.0000000E+04;  0.0000000E+00;  3.9753590E+04;  3.2981093E+00;  0.0000000E+00;  4.2484429E-02;  1.7553166E+04;
  7.5722641E-01;  9.9999998E-03;  2.4056058E-01;7014;  3.0193818E-01;  0.0000000E+00;  8.7683320E-02;  1.0071620E+03;  1.2159248E-01;  5.9332393E+03;3;  1.3061905E+00;  0.0000000E+00; -2.6348518E+01;0;  3.5121877E+00;  2.7586426E+04;  0.0000000E+00; -2.2997183E-01;  4.0000000E+04;  0.0000000E+00;  3.9806801E+04;  3.2952967E+00;  0.0000000E+00;  2.1689105E-01;  8.0854233E+03;
  7.5718379E-01;  9.9999998E-03;  2.5060105E-01;7015;  2.9963851E-01;  0.0000000E+00;  8.6892538E-02;  1.0071521E+03;  1.2159286E-01;  5.9250435E+03;3;  2.9650865E+00;  0.0000000E+00; -2.9640160E+01;0;  3.6969016E+00;  2.7591873E+04;  0.0000000E+00; -2.2237679E-01;  4.0000000E+04;  0.0000000E+00;  3.9794465E+04;  3.4620769E+00;  0.0000000E+00;  2.3482455E-01;  9.6240977E+03;
  7.5706869E-01;  9.9999998E-03;  2.6064023E-01;7016;  2.9298139E-01;  0.0000000E+00;  8.2908057E-02;  1.0069619E+03;  1.2159090E-01;  5.7675259E+03;3;  4.1840658E+00;  0.0000000E+00; -3.2647076E+01;0;  3.8538983E+00;  2.7594996E+04;  0.0000000E+00;  6.0468428E-02;  4.0000000E+04;  0.0000000E+00;  3.9773812E+04;  3.6139700E+00;  0.0000000E+00;  2.3992835E-01;  1.2218483E+04;
  7.5697368E-01;  9.9999998E-03;  2.7067581E-01;7017;  2.8290200E-01;  0.0000000E+00;  7.2173588E-02;  1.0066329E+03;  1.2159161E-01;  5.4949561E+03;3;  4.3196902E+00;  0.0000000E+00; -3.6259842E+01;0;  3.9180164E+00;  2.7594490E+04;  0.0000000E+00;  7.5264001E-01;  4.0000000E+04;  0.0000000E+00;  3.9746926E+04;  3.7555184E+00;  0.0000000E+00;  1.6249803E-01;  1.5740073E+04;
  7.5690955E-01;  9.9999998E-03;  2.8069177E-01;7018;  2.7564791E-01;  0.0000000E+00;  6.3298628E-02;  1.0064586E+03;  1.2159397E-01;  5.3505728E+03;3;  6.9444871E+00;  0.0000000E+00; -3.3902088E+01;0;  3.9507709E+00;  2.7590691E+04;  0.0000000E+00;  1.9435174E+00;  4.0000000E+04;  0.0000000E+00;  3.9736629E+04;  3.8854492E+00;  0.0000000E+00;  6.5321647E-02;  1.7564094E+04;
  7.5683153E-01;  9.9999998E-03;  2.9070267E-01;7019;  2.7037844E-01;  0.0000000E+00;  5.8709875E-02;  1.0063831E+03;  1.2159505E-01;  5.2879609E+03;3;  9.2539444E+00;  0.0000000E+00; -3.3674145E+01;0;  4.0109525E+00;  2.7585252E+04;  0.0000000E+00;  3.7593651E+00;  4.0000000E+04;  0.0000000E+00;  3.9737871E+04;  4.0017066E+00;  0.0000000E+00;  9.2460308E-03;  1.8825381E+04;
  7.5673556E-01;  9.9999998E-03;  3.0071539E-01;7020;  2.6548970E-01;  0.0000000E+00;  5.6129016E-02;  1.0063308E+03;  1.2159508E-01;  5.2447061E+03;3;  1.1485038E+01;  0.0000000E+00; -3.3650330E+01;0;  4.0875225E+00;  2.7578666E+04;  0.0000000E+00;  6.1755123E+00;  4.0000000E+04;  0.0000000E+00;  3.9743570E+04;  4.1053338E+00;  0.0000000E+00; -1.7811470E-02;  2.0954775E+04;
  7.6952058E-01;  9.9999998E-03;  2.4059236E-01;7075;  3.6817899E-01;  0.0000000E+00;  9.3740642E-02;  1.0061483E+03;  1.2226522E-01;  5.0934507E+03;3;  4.2513100E+01;  0.0000000E+00; -3.2697887E+01;0;  4.1664004E+00;  2.7222303E+04;  0.0000000E+00; -3.5837609E-01;  4.0000000E+04;  0.0000000E+00;  3.9810453E+04;  3.9399097E+00;  0.0000000E+00;  2.2649078E-01;  7.0463848E+03;
  7.6944315E-01;  9.9999998E-03;  2.5064164E-01;7076;  3.7266639E-01;  0.0000000E+00;  9.2375085E-02;  1.0061127E+03;  1.2226404E-01;  5.0639229E+03;3;  4.5884190E+01;  0.0000000E+00; -3.6744427E+01;0;  4.3667593E+00;  2.7227344E+04;  0.0000000E+00; -2.8766999E-01;  4.0000000E+04;  0.0000000E+00;  3.9797266E+04;  4.1125612E+00;  0.0000000E+00;  2.5419810E-01;  8.6698369E+03;
  7.6932359E-01;  9.9999998E-03;  2.6069653E-01;7077;  3.7119797E-01;  0.0000000E+00;  8.4824905E-02;  1.0057928E+03;  1.2226274E-01;  4.7988613E+03;3;  4.8353298E+01;  0.0000000E+00; -4.2167389E+01;0;  4.5187030E+00;  2.7228900E+04;  0.0000000E+00;  6.3675575E-02;  4.0000000E+04;  0.0000000E+00;  3.9767809E+04;  4.2743392E+00;  0.0000000E+00;  2.4436368E-01;  1.2376184E+04;
  7.6924610E-01;  9.9999998E-03;  2.7073330E-01;7078;  3.6598679E-01;  0.0000000E+00;  6.9505133E-02;  1.0054233E+03;  1.2226400E-01;  4.4928164E+03;3;  5.0395485E+01;  0.0000000E+00; -4.2365200E+01;0;  4.5495815E+00;  2.7226906E+04;  0.0000000E+00;  7.7054548E-01;  4.0000000E+04;  0.0000000E+00;  3.9738762E+04;  4.4275870E+00;  0.0000000E+00;  1.2199444E-01;  1.6180257E+04;
  7.6922798E-01;  9.9999998E-03;  2.8074539E-01;7079;  3.6437261E-01;  0.0000000E+00;  6.0207728E-02;  1.0052797E+03;  1.2226760E-01;  4.3738149E+03;3;  5.3320213E+01;  0.0000000E+00; -3.9381416E+01;0;  4.5885167E+00;  2.7221953E+04;  0.0000000E+00;  1.8025331E+00;  4.0000000E+04;  0.0000000E+00;  3.9731504E+04;  4.5696397E+00;  0.0000000E+00;  1.8877203E-02;  1.7561766E+04;
  7.6922280E-01;  9.9999998E-03;  2.9075488E-01;7080;  3.6426285E-01;  0.0000000E+00;  5.4701027E-02;  1.0052214E+03;  1.2227091E-01;  4.3256221E+03;3;  5.6929882E+01;  0.0000000E+00; -3.9781174E+01;0;  4.6483068E+00;  2.7215451E+04;  0.0000000E+00;  3.1791730E+00;  4.0000000E+04;  0.0000000E+00;  3.9733789E+04;  4.6982722E+00;  0.0000000E+00; -4.9965352E-02;  1.8298578E+04;
  7.6920545E-01;  9.9999998E-03;  3.0076620E-01;7081;  3.6418152E-01;  0.0000000E+00;  5.1122677E-02;  1.0052076E+03;  1.2227397E-01;  4.3140674E+03;3;  6.0547009E+01;  0.0000000E+00; -3.9431995E+01;0;  4.7210512E+00;  2.7208494E+04;  0.0000000E+00;  4.8970914E+00;  4.0000000E+04;  0.0000000E+00;  3.9740695E+04;  4.8123446E+00;  0.0000000E+00; -9.1293432E-02;  1.9289314E+04;
  7.8180635E-01;  9.9999998E-03;  2.4063832E-01;7136;  4.5559582E-01;  0.0000000E+00;  9.1085084E-02;  1.0049100E+03;  1.2266697E-01;  4.0675173E+03;3;  8.4457870E+01;  0.0000000E+00; -3.7441471E+01;0;  4.6814981E+00;  2.6967748E+04;  0.0000000E+00; -4.0900218E-01;  4.0000000E+04;  0.0000000E+00;  3.9813832E+04;  4.4815412E+00;  0.0000000E+00;  1.9995709E-01;  6.1919214E+03;
  7.8175563E-01;  9.9999998E-03;  2.5068787E-01;7137;  4.6545735E-01;  0.0000000E+00;  8.8660344E-02;  1.0048622E+03;  1.2266622E-01;  4.0279170E+03;3;  8.9365829E+01;  0.0000000E+00; -4.1400330E+01;0;  4.8695502E+00;  2.6971613E+04;  0.0000000E+00; -3.6168534E-01;  4.0000000E+04;  0.0000000E+00;  3.9800848E+04;  4.6471076E+00;  0.0000000E+00;  2.2244275E-01;  7.7971050E+03;
  7.8170371E-01;  9.9999998E-03;  2.6074409E-01;7138;  4.7169414E-01;  0.0000000E+00;  7.9204969E-02;  1.0045203E+03;  1.2266718E-01;  3.7446880E+03;3;  9.3278648E+01;  0.0000000E+00; -4.4521679E+01;0;  5.0004172E+00;  2.6971881E+04;  0.0000000E+00; -1.8040402E-01;  4.0000000E+04;  0.0000000E+00;  3.9770051E+04;  4.8053007E+00;  0.0000000E+00;  1.9511670E-01;  1.1647526E+04;
  7.8174931E-01;  9.9999998E-03;  2.7077720E-01;7139;  4.7695804E-01;  0.0000000E+00;  6.5610431E-02;  1.0041838E+03;  1.2267046E-01;  3.4660015E+03;3;  9.6721153E+01;  0.0000000E+00; -3.9716072E+01;0;  5.0452118E+00;  2.6969303E+04;  0.0000000E+00;  5.8548573E-02;  4.0000000E+04;  0.0000000E+00;  3.9743094E+04;  4.9571872E+00;  0.0000000E+00;  8.8024400E-02;  1.5038718E+04;
  7.8193659E-01;  9.9999998E-03;  2.8078717E-01;7140;  4.8814270E-01;  0.0000000E+00;  5.6697566E-02;  1.0040797E+03;  1.2267631E-01;  3.3796892E+03;3;  1.0116387E+02;  0.0000000E+00; -3.9757313E+01;0;  5.0945001E+00;  2.6964303E+04;  0.0000000E+00;  6.5752871E-02;  4.0000000E+04;  0.0000000E+00;  3.9737316E+04;  5.0999603E+00;  0.0000000E+00; -5.4602888E-03;  1.5800854E+04;
  7.8214347E-01;  9.9999998E-03;  2.9079500E-01;7141;  5.0005257E-01;  0.0000000E+00;  5.0714277E-02;  1.0040565E+03;  1.2268199E-01;  3.3604309E+03;3;  1.0705227E+02;  0.0000000E+00; -4.0664047E+01;0;  5.1525955E+00;  2.6957920E+04;  0.0000000E+00; -1.4255406E-01;  4.0000000E+04;  0.0000000E+00;  3.9740445E+04;  5.2291956E+00;  0.0000000E+00; -7.6600239E-02;  1.5404080E+04;
  7.8235316E-01;  9.9999998E-03;  3.0080554E-01;7142;  5.1007771E-01;  0.0000000E+00;  4.6159372E-02;  1.0040634E+03;  1.2268791E-01;  3.3661580E+03;3;  1.1304447E+02;  0.0000000E+00; -4.0998524E+01;0;  5.2145991E+00;  2.6951113E+04;  0.0000000E+00; -5.5512500E-01;  4.0000000E+04;  0.0000000E+00;  3.9746992E+04;  5.3439755E+00;  0.0000000E+00; -1.2937647E-01;  1.4569252E+04;
  7.9439157E-01;  9.9999998E-03;  2.4071625E-01;7197;  5.4943156E-01;  0.0000000E+00;  7.9806142E-02;  1.0035043E+03;  1.2290105E-01;  2.9029524E+03;3;  1.2192715E+02;  0.0000000E+00; -3.5516010E+01;0;  5.0263004E+00;  2.6784555E+04;  0.0000000E+00; -3.3032268E-01;  4.0000000E+04;  0.0000000E+00;  3.9809926E+04;  4.8872423E+00;  0.0000000E+00;  1.3905826E-01;  6.3477109E+03;
  7.9449886E-01;  9.9999998E-03;  2.5074419E-01;7198;  5.6780928E-01;  0.0000000E+00;  7.7439345E-02;  1.0034969E+03;  1.2290215E-01;  2.8968291E+03;3;  1.2938506E+02;  0.0000000E+00; -3.6903118E+01;0;  5.1794014E+00;  2.6786441E+04;  0.0000000E+00; -3.3817980E-01;  4.0000000E+04;  0.0000000E+00;  3.9802180E+04;  5.0278687E+00;  0.0000000E+00;  1.5153249E-01;  7.3026572E+03;
  7.9458433E-01;  9.9999998E-03;  2.6078129E-01;7199;  5.8476365E-01;  0.0000000E+00;  7.1351647E-02;  1.0032611E+03;  1.2290378E-01;  2.7014949E+03;3;  1.3531914E+02;  0.0000000E+00; -3.7129440E+01;0;  5.3046598E+00;  2.6785568E+04;  0.0000000E+00; -3.7689275E-01;  4.0000000E+04;  0.0000000E+00;  3.9781164E+04;  5.1621261E+00;  0.0000000E+00;  1.4253362E-01;  9.9247402E+03;
  7.9473901E-01;  9.9999998E-03;  2.7080536E-01;7200;  6.0392851E-01;  0.0000000E+00;  6.1819673E-02;  1.0029941E+03;  1.2290704E-01;  2.4803857E+03;3;  1.4135138E+02;  0.0000000E+00; -3.7195934E+01;0;  5.3715477E+00;  2.6782314E+04;  0.0000000E+00; -5.4153824E-01;  4.0000000E+04;  0.0000000E+00;  3.9761129E+04;  5.2891932E+00;  0.0000000E+00;  8.2354762E-02;  1.2428156E+04;
  7.9499900E-01;  9.9999998E-03;  2.8081289E-01;7201;  6.2770820E-01;  0.0000000E+00;  5.3556066E-02;  1.0028835E+03;  1.2291154E-01;  2.3886431E+03;3;  1.4783762E+02;  0.0000000E+00; -3.7725773E+01;0;  5.4136829E+00;  2.6776826E+04;  0.0000000E+00; -1.0079268E+00;  4.0000000E+04;  0.0000000E+00;  3.9756812E+04;  5.4066124E+00;  0.0000000E+00;  7.0704129E-03;  1.3043314E+04;
  7.9521912E-01;  9.9999998E-03;  2.9081815E-01;7202;  6.5015900E-01;  0.0000000E+00;  4.7084376E-02;  1.0028373E+03;  1.2291571E-01;  2.3504248E+03;3;  1.5429402E+02;  0.0000000E+00; -3.8080627E+01;0;  5.4476500E+00;  2.6769418E+04;  0.0000000E+00; -1.6363049E+00;  4.0000000E+04;  0.0000000E+00;  3.9760859E+04;  5.5115438E+00;  0.0000000E+00; -6.3893795E-02;  1.2733143E+04;
  7.9531258E-01;  9.9999998E-03;  3.0082628E-01;7203;  6.6931689E-01;  0.0000000E+00;  4.2442922E-02;  1.0027806E+03;  1.2291920E-01;  2.3034180E+03;3;  1.6064726E+02;  0.0000000E+00; -3.8714230E+01;0;  5.4886146E+00;  2.6760877E+04;  0.0000000E+00; -2.0817502E+00;  4.0000000E+04;  0.0000000E+00;  3.9767301E+04;  5.6023297E+00;  0.0000000E+00; -1.1371506E-01;  1.2166090E+04;
  8.0657530E-01;  9.9999998E-03;  2.4077764E-01;7258;  6.3779849E-01;  0.0000000E+00;  6.5450504E-02;  1.0018757E+03;  1.2302981E-01;  1.5538539E+03;3;  1.5073621E+02;  0.0000000E+00; -3.2287975E+01;0;  5.1809201E+00;  2.6633215E+04;  0.0000000E+00; -2.8905414E-02;  4.0000000E+04;  0.0000000E+00;  3.9812762E+04;  5.1092877E+00;  0.0000000E+00;  7.1632437E-02;  5.7072256E+03;
  8.0668283E-01;  9.9999998E-03;  2.5078651E-01;7259;  6.6616136E-01;  0.0000000E+00;  6.3320048E-02;  1.0018424E+03;  1.2303147E-01;  1.5262032E+03;3;  1.5990088E+02;  0.0000000E+00; -3.3088089E+01;0;  5.2766013E+00;  2.6631320E+04;  0.0000000E+00;  1.4741090E-01;  4.0000000E+04;  0.0000000E+00;  3.9809414E+04;  5.2029953E+00;  0.0000000E+00;  7.3605955E-02;  6.1406299E+03;
  8.0668592E-01;  9.9999998E-03;  2.6080039E-01;7260;  6.9298840E-01;  0.0000000E+00;  5.9688669E-02;  1.0017040E+03;  1.2303309E-01;  1.4116516E+03;3;  1.6760339E+02;  0.0000000E+00; -3.3951324E+01;0;  5.3659000E+00;  2.6628002E+04;  0.0000000E+00;  3.7807855E-01;  4.0000000E+04;  0.0000000E+00;  3.9800789E+04;  5.2937012E+00;  0.0000000E+00;  7.2198868E-02;  7.2648013E+03;
  8.0665666E-01;  9.9999998E-03;  2.7081290E-01;7261;  7.1991682E-01;  0.0000000E+00;  5.3593781E-02;  1.0015095E+03;  1.2303526E-01;  1.2504893E+03;3;  1.7442548E+02;  0.0000000E+00; -3.4576271E+01;0;  5.4229646E+00;  2.6623303E+04;  0.0000000E+00;  6.7166698E-01;  4.0000000E+04;  0.0000000E+00;  3.9790180E+04;  5.3810387E+00;  0.0000000E+00;  4.1925970E-02;  8.6640752E+03;
  8.0669945E-01;  9.9999998E-03;  2.8081897E-01;7262;  7.4830115E-01;  0.0000000E+00;  4.6680387E-02;  1.0013568E+03;  1.2303793E-01;  1.1238900E+03;3;  1.8147495E+02;  0.0000000E+00; -3.4670666E+01;0;  5.4463067E+00;  2.6616350E+04;  0.0000000E+00;  9.7559190E-01;  4.0000000E+04;  0.0000000E+00;  3.9786711E+04;  5.4631734E+00;  0.0000000E+00; -1.6866721E-02;  9.2420723E+03;
  8.0674970E-01;  9.9999998E-03;  2.9082268E-01;7263;  7.7626848E-01;  0.0000000E+00;  4.1249733E-02;  1.0012501E+03;  1.2304074E-01;  1.0355073E+03;3;  1.8848669E+02;  0.0000000E+00; -3.4039291E+01;0;  5.4666176E+00;  2.6607031E+04;  0.0000000E+00;  1.3055123E+00;  4.0000000E+04;  0.0000000E+00;  3.9790605E+04;  5.5382762E+00;  0.0000000E+00; -7.1658805E-02;  8.9810586E+03;
  8.0679995E-01;  9.9999998E-03;  3.0082864E-01;7264;  8.0340379E-01;  0.0000000E+00;  3.7196316E-02;  1.0011189E+03;  1.2304325E-01;  9.2688068E+02;3;  1.9566054E+02;  0.0000000E+00; -3.3464561E+01;0;  5.4940042E+00;  2.6595002E+04;  0.0000000E+00;  1.6971496E+00;  4.0000000E+04;  0.0000000E+00;  3.9797113E+04;  5.6050897E+00;  0.0000000E+00; -1.1108535E-01;  8.5294541E+03;
  8.1804889E-01;  9.9999998E-03;  2.4080615E-01;7319;  7.1118951E-01;  0.0000000E+00;  4.6848409E-02;  9.9999799E+02;  1.2310235E-01; -1.6787388E+00;3;  1.6703722E+02;  0.0000000E+00; -3.2748180E+01;0;  5.1497722E+00;  2.6489887E+04;  0.0000000E+00;  3.2207319E-01;  4.0000000E+04;  0.0000000E+00;  3.9825301E+04;  5.1574593E+00;  0.0000000E+00; -7.6870578E-03;  3.9599072E+03;
  8.1804049E-01;  9.9999998E-03;  2.5082380E-01;7320;  7.4387401E-01;  0.0000000E+00;  4.4066239E-02;  9.9976105E+02;  1.2310541E-01; -1.9794305E+02;3;  1.7599139E+02;  0.0000000E+00; -3.2302929E+01;0;  5.1693101E+00;  2.6482791E+04;  0.0000000E+00;  6.4704072E-01;  4.0000000E+04;  0.0000000E+00;  3.9814773E+04;  5.1986628E+00;  0.0000000E+00; -2.9352628E-02;  5.3764653E+03;
  8.1800431E-01;  9.9999998E-03;  2.6082548E-01;7321;  7.7429008E-01;  0.0000000E+00;  4.0326249E-02;  9.9955719E+02;  1.2310895E-01; -3.6680444E+02;3;  1.8389737E+02;  0.0000000E+00; -3.1727253E+01;0;  5.1841741E+00;  2.6474506E+04;  0.0000000E+00;  1.0640846E+00;  4.0000000E+04;  0.0000000E+00;  3.9809355E+04;  5.2423577E+00;  0.0000000E+00; -5.8183476E-02;  6.2756929E+03;
  8.1798154E-01;  9.9999998E-03;  2.7082098E-01;7322;  8.0605340E-01;  0.0000000E+00;  3.5930302E-02;  9.9940607E+02;  1.2311235E-01; -4.9201862E+02;3;  1.9138808E+02;  0.0000000E+00; -3.0750479E+01;0;  5.1884074E+00;  2.6464803E+04;  0.0000000E+00;  1.5733581E+00;  4.0000000E+04;  0.0000000E+00;  3.9810223E+04;  5.2873158E+00;  0.0000000E+00; -9.8908335E-02;  6.6215190E+03;
  8.1803608E-01;  9.9999998E-03;  2.8081471E-01;7323;  8.4172755E-01;  0.0000000E+00;  3.2143991E-02;  9.9929688E+02;  1.2311506E-01; -5.8242358E+02;3;  1.9919429E+02;  0.0000000E+00; -2.9316021E+01;0;  5.1926594E+00;  2.6452781E+04;  0.0000000E+00;  2.1484582E+00;  4.0000000E+04;  0.0000000E+00;  3.9818523E+04;  5.3309889E+00;  0.0000000E+00; -1.3832963E-01;  6.5058750E+03;
  8.1810713E-01;  9.9999998E-03;  2.9081169E-01;7324;  8.7768465E-01;  0.0000000E+00;  2.9868752E-02;  9.9917761E+02;  1.2311785E-01; -6.8122229E+02;3;  2.0705241E+02;  0.0000000E+00; -2.7995495E+01;0;  5.2169733E+00;  2.6438455E+04;  0.0000000E+00;  2.7813261E+00;  4.0000000E+04;  0.0000000E+00;  3.9829551E+04;  5.3726120E+00;  0.0000000E+00; -1.5563890E-01;  6.6766509E+03;
  8.1816626E-01;  9.9999998E-03;  3.0081359E-01;7325;  9.1153800E-01;  0.0000000E+00;  2.8173506E-02;  9.9898047E+02;  1.2312125E-01; -8.4455347E+02;3;  2.1474922E+02;  0.0000000E+00; -2.6769611E+01;0;  5.2524915E+00;  2.6421246E+04;  0.0000000E+00;  3.4888306E+00;  4.0000000E+04;  0.0000000E+00;  3.9839148E+04;  5.4117603E+00;  0.0000000E+00; -1.5926898E-01;  7.5445312E+03;
  8.2948691E-01;  9.9999998E-03;  2.8079745E-01;7384;  9.1597241E-01;  0.0000000E+00;  1.5928760E-02;  9.9661584E+02;  1.2316905E-01; -2.8032749E+03;3;  1.9917380E+02;  0.0000000E+00; -2.4532763E+01;0;  4.7573838E+00;  2.6268816E+04;  0.0000000E+00;  1.6973560E+00;  4.0000000E+04;  0.0000000E+00;  3.9855855E+04;  5.0297732E+00;  0.0000000E+00; -2.7238920E-01;  3.5596162E+03;
  8.2957226E-01;  9.9999998E-03;  2.9078615E-01;7385;  9.5394415E-01;  0.0000000E+00;  1.7618859E-02;  9.9648145E+02;  1.2317254E-01; -2.9146113E+03;3;  2.0718961E+02;  0.0000000E+00; -2.1021751E+01;0;  4.7902632E+00;  2.6247525E+04;  0.0000000E+00;  2.0341179E+00;  4.0000000E+04;  0.0000000E+00;  3.9876887E+04;  5.0330811E+00;  0.0000000E+00; -2.4281771E-01;  5.2158916E+03;
  8.2965106E-01;  9.9999998E-03;  3.0078351E-01;7386;  9.8992646E-01;  0.0000000E+00;  1.9226683E-02;  9.9621851E+02;  1.2317631E-01; -3.1323970E+03;3;  2.1495572E+02;  0.0000000E+00; -1.8825613E+01;0;  4.8437219E+00;  2.6224400E+04;  0.0000000E+00;  2.4791853E+00;  4.0000000E+04;  0.0000000E+00;  3.9890852E+04;  5.0394483E+00;  0.0000000E+00; -1.9572625E-01;  7.0974849E+03;
  8.2942349E-01;  9.9999998E-03;  2.7081829E-01;7383;  8.7845689E-01;  0.0000000E+00;  1.6445871E-02;  9.9668835E+02;  1.2316512E-01; -2.7431880E+03;3;  1.9151698E+02;  0.0000000E+00; -2.7635506E+01;0;  4.7789125E+00;  2.6288457E+04;  0.0000000E+00;  1.4038278E+00;  4.0000000E+04;  0.0000000E+00;  3.9832875E+04;  5.0295506E+00;  0.0000000E+00; -2.5063822E-01;  3.8862495E+03;
  8.2944697E-01;  9.9999998E-03;  2.6084012E-01;7382;  8.4453636E-01;  0.0000000E+00;  1.9620392E-02;  9.9684796E+02;  1.2316069E-01; -2.6109658E+03;3;  1.8489626E+02;  0.0000000E+00; -2.9799189E+01;0;  4.8405051E+00;  2.6306135E+04;  0.0000000E+00;  1.1178936E+00;  4.0000000E+04;  0.0000000E+00;  3.9819887E+04;  5.0323148E+00;  0.0000000E+00; -1.9180973E-01;  4.7968125E+03;
  8.2945722E-01;  9.9999998E-03;  2.5084850E-01;7381;  8.1069869E-01;  0.0000000E+00;  2.3789912E-02;  9.9719421E+02;  1.2315513E-01; -2.3241555E+03;3;  1.7828511E+02;  0.0000000E+00; -3.1860161E+01;0;  4.9095845E+00;  2.6323379E+04;  0.0000000E+00;  8.2906145E-01;  4.0000000E+04;  0.0000000E+00;  3.9822699E+04;  5.0413847E+00;  0.0000000E+00; -1.3180003E-01;  4.2375586E+03;
  8.2944363E-01;  9.9999998E-03;  2.4082902E-01;7380;  7.7519768E-01;  0.0000000E+00;  2.7587105E-02;  9.9767230E+02;  1.2315010E-01; -1.9281313E+03;3;  1.7020358E+02;  0.0000000E+00; -3.3634945E+01;0;  4.9730463E+00;  2.6340045E+04;  0.0000000E+00;  5.5122042E-01;  4.0000000E+04;  0.0000000E+00;  3.9836965E+04;  5.0571246E+00;  0.0000000E+00; -8.4078349E-02;  2.4182080E+03;
  8.4120095E-01;  9.9999998E-03;  2.4083580E-01;7441;  8.4340662E-01;  0.0000000E+00;  1.1526738E-02;  9.9494592E+02;  1.2318516E-01; -4.1863921E+03;3;  1.5846086E+02;  0.0000000E+00; -3.5019512E+01;0;  4.6845446E+00;  2.6178240E+04;  0.0000000E+00;  5.9495074E-01;  4.0000000E+04;  0.0000000E+00;  3.9851215E+04;  4.8247285E+00;  0.0000000E+00; -1.4018375E-01;  1.1516862E+03;
  8.4119207E-01;  9.9999998E-03;  2.5085652E-01;7442;  8.7342638E-01;  0.0000000E+00;  6.6427579E-03;  9.9421375E+02;  1.2319189E-01; -4.7928774E+03;3;  1.6437920E+02;  0.0000000E+00; -3.2950489E+01;0;  4.5427623E+00;  2.6150244E+04;  0.0000000E+00;  7.2868967E-01;  4.0000000E+04;  0.0000000E+00;  3.9834469E+04;  4.7499299E+00;  0.0000000E+00; -2.0716769E-01;  2.4914041E+03;
  8.4121555E-01;  9.9999998E-03;  2.6083907E-01;7443;  9.0413010E-01;  0.0000000E+00;  1.1618020E-03;  9.9368237E+02;  1.2319954E-01; -5.2330273E+03;3;  1.6833752E+02;  0.0000000E+00; -3.0545826E+01;0;  4.3869362E+00;  2.6121654E+04;  0.0000000E+00;  7.4181610E-01;  4.0000000E+04;  0.0000000E+00;  3.9835043E+04;  4.6846452E+00;  0.0000000E+00; -2.9770887E-01;  2.4370635E+03;
  8.4124953E-01;  9.9999998E-03;  2.7079934E-01;7444;  9.3869388E-01;  0.0000000E+00; -8.0638123E-04;  9.9348737E+02;  1.2320609E-01; -5.3945718E+03;3;  1.7275594E+02;  0.0000000E+00; -2.5720116E+01;0;  4.2617726E+00;  2.6093049E+04;  0.0000000E+00;  6.1229080E-01;  4.0000000E+04;  0.0000000E+00;  3.9862422E+04;  4.6299734E+00;  0.0000000E+00; -3.6820075E-01;  1.9556431E+03;
  8.4131867E-01;  9.9999998E-03;  2.8076476E-01;7445;  9.7351056E-01;  0.0000000E+00;  3.0549597E-03;  9.9343127E+02;  1.2321068E-01; -5.4410298E+03;3;  1.8001915E+02;  0.0000000E+00; -1.9823872E+01;0;  4.2323828E+00;  2.6064254E+04;  0.0000000E+00;  3.7929186E-01;  4.0000000E+04;  0.0000000E+00;  3.9901145E+04;  4.5830221E+00;  0.0000000E+00; -3.5063955E-01;  6.4082520E+03;
  8.4137619E-01;  9.9999998E-03;  2.9074842E-01;7446;  1.0052494E+00;  0.0000000E+00;  8.8163856E-03;  9.9325079E+02;  1.2321474E-01; -5.5905269E+03;3;  1.8894110E+02;  0.0000000E+00; -1.5176509E+01;0;  4.2779546E+00;  2.6036182E+04;  0.0000000E+00;  6.9173478E-02;  4.0000000E+04;  0.0000000E+00;  3.9929250E+04;  4.5440640E+00;  0.0000000E+00; -2.6610938E-01;  9.9142051E+03;
  8.4141392E-01;  9.9999998E-03;  3.0074364E-01;7447;  1.0353328E+00;  0.0000000E+00;  1.3520755E-02;  9.9291858E+02;  1.2321891E-01; -5.8657251E+03;3;  1.9493222E+02;  0.0000000E+00; -1.1562756E+01;0;  4.3440661E+00;  2.6008451E+04;  0.0000000E+00; -2.1660489E-01;  4.0000000E+04;  0.0000000E+00;  3.9945145E+04;  4.5141177E+00;  0.0000000E+00; -1.7005137E-01;  1.1942555E+04;
  8.5370076E-01;  9.9999998E-03;  2.4081226E-01;7502;  9.1324860E-01;  0.0000000E+00;  1.6749738E-03;  9.9204675E+02;  1.2320278E-01; -6.5875830E+03;3;  1.3094780E+02;  0.0000000E+00; -3.7455853E+01;0;  4.3161545E+00;  2.6014924E+04;  0.0000000E+00;  4.9458423E-01;  4.0000000E+04;  0.0000000E+00;  3.9871746E+04;  4.4777675E+00;  0.0000000E+00; -1.6161308E-01;  3.0546606E+03;
  8.5365659E-01;  9.9999998E-03;  2.5083444E-01;7503;  9.3707567E-01;  0.0000000E+00; -3.6097995E-03;  9.9108655E+02;  1.2321123E-01; -7.3829351E+03;3;  1.3341354E+02;  0.0000000E+00; -3.4773304E+01;0;  4.1172476E+00;  2.5975057E+04;  0.0000000E+00;  5.1821029E-01;  4.0000000E+04;  0.0000000E+00;  3.9855785E+04;  4.3479376E+00;  0.0000000E+00; -2.3068996E-01;  1.3650018E+03;
  8.5372877E-01;  9.9999998E-03;  2.6080927E-01;7504;  9.6730340E-01;  0.0000000E+00; -8.8064624E-03;  9.9039258E+02;  1.2322032E-01; -7.9577471E+03;3;  1.3298558E+02;  0.0000000E+00; -3.0669168E+01;0;  3.9090707E+00;  2.5934084E+04;  0.0000000E+00;  3.9967537E-01;  4.0000000E+04;  0.0000000E+00;  3.9863203E+04;  4.2296567E+00;  0.0000000E+00; -3.2058600E-01;  2.1055933E+03;
  8.5387093E-01;  9.9999998E-03;  2.7075848E-01;7505;  9.9887657E-01;  0.0000000E+00; -8.8358140E-03;  9.9010559E+02;  1.2322827E-01; -8.1954600E+03;3;  1.3447461E+02;  0.0000000E+00; -2.4523819E+01;0;  3.7510061E+00;  2.5893125E+04;  0.0000000E+00;  1.8372378E-01;  4.0000000E+04;  0.0000000E+00;  3.9902930E+04;  4.1217208E+00;  0.0000000E+00; -3.7071475E-01;  6.9732935E+03;
  8.5396475E-01;  9.9999998E-03;  2.8072128E-01;7506;  1.0254956E+00;  0.0000000E+00; -3.3815713E-03;  9.8993951E+02;  1.2323371E-01; -8.3330020E+03;3;  1.4082275E+02;  0.0000000E+00; -1.8192011E+01;0;  3.6959217E+00;  2.5855119E+04;  0.0000000E+00; -1.4939401E-01;  4.0000000E+04;  0.0000000E+00;  3.9947656E+04;  4.0259733E+00;  0.0000000E+00; -3.3005169E-01;  1.2584357E+04;
  8.5397881E-01;  9.9999998E-03;  2.9070508E-01;7507;  1.0464054E+00;  0.0000000E+00;  3.2239223E-03;  9.8965485E+02;  1.2323876E-01; -8.5687920E+03;3;  1.3383339E+02;  0.0000000E+00; -1.3869460E+01;0;  3.7133567E+00;  2.5820971E+04;  0.0000000E+00; -6.7886728E-01;  4.0000000E+04;  0.0000000E+00;  3.9977242E+04;  3.9442735E+00;  0.0000000E+00; -2.3091683E-01;  1.6359523E+04;
  8.5393703E-01;  9.9999998E-03;  3.0069992E-01;7508;  1.0604197E+00;  0.0000000E+00;  8.3461450E-03;  9.8926434E+02;  1.2324331E-01; -8.8922158E+03;3;  1.1711197E+02;  0.0000000E+00; -5.7551270E+00;0;  3.7424946E+00;  2.5790541E+04;  0.0000000E+00; -1.4116846E+00;  4.0000000E+04;  0.0000000E+00;  3.9992949E+04;  3.8753061E+00;  0.0000000E+00; -1.3281153E-01;  1.8520193E+04;
  8.6650825E-01;  9.9999998E-03;  2.4075530E-01;7563;  9.6657109E-01;  0.0000000E+00; -5.0008576E-03;  9.8961169E+02;  1.2318105E-01; -8.6041260E+03;3;  9.1619652E+01;  0.0000000E+00; -3.9480713E+01;0;  3.9042468E+00;  2.5890465E+04;  0.0000000E+00;  4.3474799E-01;  4.0000000E+04;  0.0000000E+00;  3.9897641E+04;  4.0680766E+00;  0.0000000E+00; -1.6382983E-01;  6.5230527E+03;
  8.6649925E-01;  9.9999998E-03;  2.5078109E-01;7564;  9.8255688E-01;  0.0000000E+00; -1.0838263E-02;  9.8848767E+02;  1.2319012E-01; -9.5350996E+03;3;  9.1578384E+01;  0.0000000E+00; -3.7114166E+01;0;  3.6620805E+00;  2.5840080E+04;  0.0000000E+00;  4.7099283E-01;  4.0000000E+04;  0.0000000E+00;  3.9885434E+04;  3.8934641E+00;  0.0000000E+00; -2.3138346E-01;  5.1093599E+03;
  8.6666763E-01;  9.9999998E-03;  2.6075545E-01;7565;  1.0090439E+00;  0.0000000E+00; -1.5189786E-02;  9.8766736E+02;  1.2320063E-01; -1.0214489E+04;3;  8.6227676E+01;  0.0000000E+00; -3.1837147E+01;0;  3.4205766E+00;  2.5789006E+04;  0.0000000E+00;  4.5812765E-01;  4.0000000E+04;  0.0000000E+00;  3.9898816E+04;  3.7309592E+00;  0.0000000E+00; -3.1038257E-01;  6.8273364E+03;
  8.6688995E-01;  9.9999998E-03;  2.7070561E-01;7566;  1.0327239E+00;  0.0000000E+00; -1.4241945E-02;  9.8727057E+02;  1.2320869E-01; -1.0543119E+04;3;  8.3404137E+01;  0.0000000E+00; -2.5714792E+01;0;  3.2354310E+00;  2.5739670E+04;  0.0000000E+00;  4.5962533E-01;  4.0000000E+04;  0.0000000E+00;  3.9943465E+04;  3.5800886E+00;  0.0000000E+00; -3.4465769E-01;  1.2416601E+04;
  8.6705309E-01;  9.9999998E-03;  2.8067306E-01;7567;  1.0491774E+00;  0.0000000E+00; -9.2999348E-03;  9.8694519E+02;  1.2321538E-01; -1.0812607E+04;3;  5.0952137E+01;  0.0000000E+00; -2.3392109E+01;0;  3.1389446E+00;  2.5694387E+04;  0.0000000E+00;  4.6638307E-01;  4.0000000E+04;  0.0000000E+00;  3.9987562E+04;  3.4438019E+00;  0.0000000E+00; -3.0485731E-01;  1.7950455E+04;
  8.6711383E-01;  9.9999998E-03;  2.9065958E-01;7568;  1.0580217E+00;  0.0000000E+00; -3.4888464E-03;  9.8652252E+02;  1.2322092E-01; -1.1162720E+04;3;  1.9246815E+01;  0.0000000E+00; -1.4471548E+01;0;  3.1019955E+00;  2.5654471E+04;  0.0000000E+00;  3.9017493E-01;  4.0000000E+04;  0.0000000E+00;  4.0015570E+04;  3.3237906E+00;  0.0000000E+00; -2.2179507E-01;  2.1497539E+04;
  8.6709124E-01;  9.9999998E-03;  3.0065480E-01;7569;  1.0638372E+00;  0.0000000E+00;  1.9889434E-03;  9.8604810E+02;  1.2322614E-01; -1.1555637E+04;3;  1.8855309E+01;  0.0000000E+00;  2.1893117E+00;0;  3.0961876E+00;  2.5620400E+04;  0.0000000E+00;  1.4839509E-01;  4.0000000E+04;  0.0000000E+00;  4.0030688E+04;  3.2209508E+00;  0.0000000E+00; -1.2476326E-01;  2.3436479E+04;
  8.7950951E-01;  9.9999998E-03;  2.4068911E-01;7624;  1.0056238E+00;  0.0000000E+00; -9.5266048E-03;  9.8812750E+02;  1.2309114E-01; -9.8327891E+03;3;  4.4889004E+01;  0.0000000E+00; -3.9951954E+01;0;  3.5089564E+00;  2.5845340E+04;  0.0000000E+00;  4.7879615E-01;  4.0000000E+04;  0.0000000E+00;  3.9918637E+04;  3.6620662E+00;  0.0000000E+00; -1.5310971E-01;  9.3562695E+03;
  8.7954211E-01;  9.9999998E-03;  2.5071600E-01;7625;  1.0115571E+00;  0.0000000E+00; -1.5407104E-02;  9.8695648E+02;  1.2310016E-01; -1.0802653E+04;3;  4.2358376E+01;  0.0000000E+00; -3.8381168E+01;0;  3.2479541E+00;  2.5789420E+04;  0.0000000E+00;  6.1441970E-01;  4.0000000E+04;  0.0000000E+00;  3.9911617E+04;  3.4625885E+00;  0.0000000E+00; -2.1463434E-01;  8.6174854E+03;
  8.7975866E-01;  9.9999998E-03;  2.6069346E-01;7626;  1.0285773E+00;  0.0000000E+00; -1.9452749E-02;  9.8611835E+02;  1.2311022E-01; -1.1496757E+04;3;  3.5422962E+01;  0.0000000E+00; -3.3591572E+01;0;  2.9902735E+00;  2.5734865E+04;  0.0000000E+00;  7.9674548E-01;  4.0000000E+04;  0.0000000E+00;  3.9929465E+04;  3.2756479E+00;  0.0000000E+00; -2.8537452E-01;  1.0936372E+04;
  8.8003409E-01;  9.9999998E-03;  2.7065116E-01;7627;  1.0426242E+00;  0.0000000E+00; -1.8529568E-02;  9.8566626E+02;  1.2311794E-01; -1.1871171E+04;3;  1.6438002E+01;  0.0000000E+00; -2.9996456E+01;0;  2.7879736E+00;  2.5683379E+04;  0.0000000E+00;  1.0550425E+00;  4.0000000E+04;  0.0000000E+00;  3.9973590E+04;  3.1021869E+00;  0.0000000E+00; -3.1421331E-01;  1.6509041E+04;
  8.8026631E-01;  9.9999998E-03;  2.8062657E-01;7628;  1.0491579E+00;  0.0000000E+00; -1.4805213E-02;  9.8523920E+02;  1.2312376E-01; -1.2224853E+04;3; -2.2249783E+01;  0.0000000E+00; -2.6436798E+01;0;  2.6534691E+00;  2.5636160E+04;  0.0000000E+00;  1.4003838E+00;  4.0000000E+04;  0.0000000E+00;  4.0013297E+04;  2.9442463E+00;  0.0000000E+00; -2.9077733E-01;  2.1545826E+04;
  8.8039154E-01;  9.9999998E-03;  2.9061756E-01;7629;  1.0520866E+00;  0.0000000E+00; -9.9943494E-03;  9.8472852E+02;  1.2312938E-01; -1.2647798E+04;3; -3.4822094E+01;  0.0000000E+00; -1.6666098E+01;0;  2.5788708E+00;  2.5594492E+04;  0.0000000E+00;  1.8055606E+00;  4.0000000E+04;  0.0000000E+00;  4.0037727E+04;  2.8047342E+00;  0.0000000E+00; -2.2586350E-01;  2.4744641E+04;
  8.8043201E-01;  9.9999998E-03;  3.0061442E-01;7630;  1.0541227E+00;  0.0000000E+00; -4.7101565E-03;  9.8419855E+02;  1.2313408E-01; -1.3086693E+04;3; -2.9220881E+01;  0.0000000E+00;  2.8240318E+00;0;  2.5454850E+00;  2.5559061E+04;  0.0000000E+00;  2.2013135E+00;  4.0000000E+04;  0.0000000E+00;  4.0051184E+04;  2.6833789E+00;  0.0000000E+00; -1.3789387E-01;  2.6602012E+04;
  8.9258236E-01;  9.9999998E-03;  2.4063277E-01;7685;  1.0324945E+00;  0.0000000E+00; -1.2158366E-02;  9.8791980E+02;  1.2290391E-01; -1.0004092E+04;3; -6.5559082E+00;  0.0000000E+00; -3.9084290E+01;0;  3.1919203E+00;  2.5912246E+04;  0.0000000E+00;  6.0353601E-01;  4.0000000E+04;  0.0000000E+00;  3.9927113E+04;  3.3240237E+00;  0.0000000E+00; -1.3210346E-01;  1.0515474E+04;
  8.9267468E-01;  9.9999998E-03;  2.5066039E-01;7686;  1.0306405E+00;  0.0000000E+00; -1.7195862E-02;  9.8680872E+02;  1.2291164E-01; -1.0924224E+04;3; -9.1691360E+00;  0.0000000E+00; -3.6486176E+01;0;  2.9419055E+00;  2.5857643E+04;  0.0000000E+00;  8.1668431E-01;  4.0000000E+04;  0.0000000E+00;  3.9923062E+04;  3.1242390E+00;  0.0000000E+00; -1.8233359E-01;  1.0153772E+04;
  8.9294255E-01;  9.9999998E-03;  2.6064193E-01;7687;  1.0380244E+00;  0.0000000E+00; -2.0908175E-02;  9.8604773E+02;  1.2291932E-01; -1.1554396E+04;3; -1.8080872E+01;  0.0000000E+00; -3.1854908E+01;0;  2.6941633E+00;  2.5806641E+04;  0.0000000E+00;  1.1073800E+00;  4.0000000E+04;  0.0000000E+00;  3.9941887E+04;  2.9369481E+00;  0.0000000E+00; -2.4278462E-01;  1.2619729E+04;
  8.9327043E-01;  9.9999998E-03;  2.7060708E-01;7688;  1.0430740E+00;  0.0000000E+00; -2.0588331E-02;  9.8563593E+02;  1.2292474E-01; -1.1895406E+04;3; -3.9666988E+01;  0.0000000E+00; -3.0776407E+01;0;  2.4928801E+00;  2.5759604E+04;  0.0000000E+00;  1.4453199E+00;  4.0000000E+04;  0.0000000E+00;  3.9983012E+04;  2.7644026E+00;  0.0000000E+00; -2.7152255E-01;  1.7812318E+04;
  8.9356226E-01;  9.9999998E-03;  2.8058949E-01;7689;  1.0440871E+00;  0.0000000E+00; -1.7846191E-02;  9.8521814E+02;  1.2292881E-01; -1.2241353E+04;3; -5.6525299E+01;  0.0000000E+00; -2.7781273E+01;0;  2.3492203E+00;  2.5716689E+04;  0.0000000E+00;  1.8196999E+00;  4.0000000E+04;  0.0000000E+00;  4.0017391E+04;  2.6083457E+00;  0.0000000E+00; -2.5912538E-01;  2.2194350E+04;
  8.9375418E-01;  9.9999998E-03;  2.9058480E-01;7690;  1.0436034E+00;  0.0000000E+00; -1.3754299E-02;  9.8471893E+02;  1.2293296E-01; -1.2654784E+04;3; -5.8629692E+01;  0.0000000E+00; -1.6742037E+01;0;  2.2618096E+00;  2.5678459E+04;  0.0000000E+00;  2.2680364E+00;  4.0000000E+04;  0.0000000E+00;  4.0037914E+04;  2.4701097E+00;  0.0000000E+00; -2.0830019E-01;  2.4913799E+04;
  8.9387584E-01;  9.9999998E-03;  3.0058393E-01;7691;  1.0432769E+00;  0.0000000E+00; -8.5056415E-03;  9.8421136E+02;  1.2293705E-01; -1.3075079E+04;3; -5.6583946E+01;  0.0000000E+00;  4.0940099E+00;0;  2.2232225E+00;  2.5645855E+04;  0.0000000E+00;  2.7968001E+00;  4.0000000E+04;  0.0000000E+00;  4.0049332E+04;  2.3484602E+00;  0.0000000E+00; -1.2523761E-01;  2.6567975E+04;
  9.0559369E-01;  9.9999998E-03;  2.4057752E-01;7746;  1.0449214E+00;  0.0000000E+00; -1.3157001E-02;  9.8907312E+02;  1.2258448E-01; -9.0482031E+03;3; -5.5410011E+01;  0.0000000E+00; -3.2699051E+01;0;  2.9954450E+00;  2.6107418E+04;  0.0000000E+00;  6.9934523E-01;  4.0000000E+04;  0.0000000E+00;  3.9927055E+04;  3.1000018E+00;  0.0000000E+00; -1.0455686E-01;  1.0446004E+04;
  9.0577775E-01;  9.9999998E-03;  2.5060865E-01;7747;  1.0398040E+00;  0.0000000E+00; -1.6404327E-02;  9.8814612E+02;  1.2258989E-01; -9.8157842E+03;3; -5.5343002E+01;  0.0000000E+00; -3.0505669E+01;0;  2.7855453E+00;  2.6062150E+04;  0.0000000E+00;  8.7915468E-01;  4.0000000E+04;  0.0000000E+00;  3.9923516E+04;  2.9230371E+00;  0.0000000E+00; -1.3749173E-01;  1.0133824E+04;
  9.0610814E-01;  9.9999998E-03;  2.6060012E-01;7748;  1.0400641E+00;  0.0000000E+00; -1.9812176E-02;  9.8752386E+02;  1.2259370E-01; -1.0331040E+04;3; -6.3504200E+01;  0.0000000E+00; -2.6476875E+01;0;  2.5720363E+00;  2.6021680E+04;  0.0000000E+00;  1.0604756E+00;  4.0000000E+04;  0.0000000E+00;  3.9938082E+04;  2.7587371E+00;  0.0000000E+00; -1.8670078E-01;  1.2012153E+04;
  9.0649831E-01;  9.9999998E-03;  2.7057317E-01;7749;  1.0403663E+00;  0.0000000E+00; -1.9646181E-02;  9.8724683E+02;  1.2259582E-01; -1.0560418E+04;3; -7.4044060E+01;  0.0000000E+00; -2.5158035E+01;0;  2.3996730E+00;  2.5985574E+04;  0.0000000E+00;  1.1478138E+00;  4.0000000E+04;  0.0000000E+00;  3.9973801E+04;  2.6091850E+00;  0.0000000E+00; -2.0951198E-01;  1.6423627E+04;
  9.0684539E-01;  9.9999998E-03;  2.8056175E-01;7750;  1.0381733E+00;  0.0000000E+00; -1.7034180E-02;  9.8694788E+02;  1.2259661E-01; -1.0807911E+04;3; -7.6380508E+01;  0.0000000E+00; -2.2480520E+01;0;  2.2816782E+00;  2.5952869E+04;  0.0000000E+00;  1.0740647E+00;  4.0000000E+04;  0.0000000E+00;  4.0002562E+04;  2.4753952E+00;  0.0000000E+00; -1.9371690E-01;  1.9978025E+04;
  9.0711528E-01;  9.9999998E-03;  2.9056141E-01;7751;  1.0358543E+00;  0.0000000E+00; -1.3118315E-02;  9.8655518E+02;  1.2259817E-01; -1.1133097E+04;3; -7.6291222E+01;  0.0000000E+00; -1.1018792E+01;0;  2.2126694E+00;  2.5923400E+04;  0.0000000E+00;  9.0186030E-01;  4.0000000E+04;  0.0000000E+00;  4.0018742E+04;  2.3569400E+00;  0.0000000E+00; -1.4427057E-01;  2.1990723E+04;
  9.0732402E-01;  9.9999998E-03;  3.0056378E-01;7752;  1.0335522E+00;  0.0000000E+00; -7.9025710E-03;  9.8614917E+02;  1.2259991E-01; -1.1469242E+04;3; -7.6891235E+01;  0.0000000E+00;  9.1270227E+00;0;  2.1902030E+00;  2.5898055E+04;  0.0000000E+00;  7.1788532E-01;  4.0000000E+04;  0.0000000E+00;  4.0027371E+04;  2.2528901E+00;  0.0000000E+00; -6.2687106E-02;  2.3095330E+04;
  9.1855782E-01;  9.9999998E-03;  2.4052978E-01;7807;  1.0540519E+00;  0.0000000E+00; -1.1794864E-02;  9.9153650E+02;  1.2213869E-01; -7.0075923E+03;3; -9.4057434E+01;  0.0000000E+00; -1.8328007E+01;0;  2.9344461E+00;  2.6430145E+04;  0.0000000E+00;  6.8433893E-01;  4.0000000E+04;  0.0000000E+00;  3.9917867E+04;  3.0035005E+00;  0.0000000E+00; -6.9054417E-02;  9.0585820E+03;
  9.1885233E-01;  9.9999998E-03;  2.5056162E-01;7808;  1.0482388E+00;  0.0000000E+00; -1.4214030E-02;  9.9092255E+02;  1.2213995E-01; -7.5158901E+03;3; -1.0003673E+02;  0.0000000E+00; -1.5558382E+01;0;  2.7783678E+00;  2.6401262E+04;  0.0000000E+00;  7.2099590E-01;  4.0000000E+04;  0.0000000E+00;  3.9914922E+04;  2.8690073E+00;  0.0000000E+00; -9.0639696E-02;  8.7353682E+03;
  9.1924948E-01;  9.9999998E-03;  2.6056457E-01;7809;  1.0439042E+00;  0.0000000E+00; -1.7006520E-02;  9.9052911E+02;  1.2213953E-01; -7.8416289E+03;3; -1.0540407E+02;  0.0000000E+00; -1.3543051E+01;0;  2.6207550E+00;  2.6377275E+04;  0.0000000E+00;  6.0904670E-01;  4.0000000E+04;  0.0000000E+00;  3.9923188E+04;  2.7470205E+00;  0.0000000E+00; -1.2626563E-01;  9.7203545E+03;
  9.1969734E-01;  9.9999998E-03;  2.7054775E-01;7810;  1.0395157E+00;  0.0000000E+00; -1.6429845E-02;  9.9044598E+02;  1.2213787E-01; -7.9104414E+03;3; -1.0829140E+02;  0.0000000E+00; -1.2194735E+01;0;  2.5022562E+00;  2.6357396E+04;  0.0000000E+00;  1.8906891E-01;  4.0000000E+04;  0.0000000E+00;  3.9950418E+04;  2.6386259E+00;  0.0000000E+00; -1.3636978E-01;  1.3024741E+04;
  9.2007774E-01;  9.9999998E-03;  2.8054318E-01;7811;  1.0338911E+00;  0.0000000E+00; -1.3219297E-02;  9.9031885E+02;  1.2213555E-01; -8.0156782E+03;3; -9.7169754E+01;  0.0000000E+00; -9.5861530E+00;0;  2.4379971E+00;  2.6338818E+04;  0.0000000E+00; -6.5049845E-01;  4.0000000E+04;  0.0000000E+00;  3.9972090E+04;  2.5432439E+00;  0.0000000E+00; -1.0524672E-01;  1.5804984E+04;
  9.2040849E-01;  9.9999998E-03;  2.9054770E-01;7812;  1.0291226E+00;  0.0000000E+00; -9.0200519E-03;  9.9009058E+02;  1.2213387E-01; -8.2046660E+03;3; -9.1464149E+01;  0.0000000E+00; -3.6111596E-01;0;  2.4143445E+00;  2.6321924E+04;  0.0000000E+00; -1.8597113E+00;  4.0000000E+04;  0.0000000E+00;  3.9982934E+04;  2.4599249E+00;  0.0000000E+00; -4.5580368E-02;  1.7624768E+04;
  9.2068368E-01;  9.9999998E-03;  3.0055431E-01;7813;  1.0244237E+00;  0.0000000E+00; -3.6505607E-03;  9.8982324E+02;  1.2213349E-01; -8.4259805E+03;3; -9.3244774E+01;  0.0000000E+00;  1.6280481E+01;0;  2.4292853E+00;  2.6306539E+04;  0.0000000E+00; -3.2627892E+00;  4.0000000E+04;  0.0000000E+00;  3.9987980E+04;  2.3882163E+00;  0.0000000E+00;  4.1069094E-02;  1.9201898E+04;
  9.3151557E-01;  9.9999998E-03;  2.4050674E-01;7868;  1.0727942E+00;  0.0000000E+00; -1.1635939E-02;  9.9492645E+02;  1.2157834E-01; -4.2002378E+03;3; -1.1766045E+02;  0.0000000E+00; -5.8699031E+00;0;  2.9731405E+00;  2.6863799E+04;  0.0000000E+00;  5.7293761E-01;  4.0000000E+04;  0.0000000E+00;  3.9895922E+04;  3.0149436E+00;  0.0000000E+00; -4.1803163E-02;  5.9398594E+03;
  9.3185079E-01;  9.9999998E-03;  2.5053367E-01;7869;  1.0629177E+00;  0.0000000E+00; -1.3040608E-02;  9.9465375E+02;  1.2157620E-01; -4.4259741E+03;3; -1.2663778E+02;  0.0000000E+00; -3.5196390E+00;0;  2.8833108E+00;  2.6853541E+04;  0.0000000E+00;  4.2487252E-01;  4.0000000E+04;  0.0000000E+00;  3.9892578E+04;  2.9387493E+00;  0.0000000E+00; -5.5438619E-02;  5.4606279E+03;
  9.3223619E-01;  9.9999998E-03;  2.6054615E-01;7870;  1.0523399E+00;  0.0000000E+00; -1.4530823E-02;  9.9446942E+02;  1.2157241E-01; -4.5785776E+03;3; -1.3393553E+02;  0.0000000E+00; -6.3902014E-01;0;  2.7950547E+00;  2.6846822E+04;  0.0000000E+00;  1.8683033E-02;  4.0000000E+04;  0.0000000E+00;  3.9892609E+04;  2.8726251E+00;  0.0000000E+00; -7.7570416E-02;  5.3629204E+03;
  9.3263763E-01;  9.9999998E-03;  2.7053702E-01;7871;  1.0416292E+00;  0.0000000E+00; -1.2830529E-02;  9.9454858E+02;  1.2156752E-01; -4.5130278E+03;3; -1.3750874E+02;  0.0000000E+00;  2.2229507E+00;0;  2.7455187E+00;  2.6842279E+04;  0.0000000E+00; -7.9574102E-01;  4.0000000E+04;  0.0000000E+00;  3.9910832E+04;  2.8163967E+00;  0.0000000E+00; -7.0878103E-02;  7.7691987E+03;
  9.3299389E-01;  9.9999998E-03;  2.8053600E-01;7872;  1.0317811E+00;  0.0000000E+00; -8.9490730E-03;  9.9460083E+02;  1.2156219E-01; -4.4697354E+03;3; -1.1927944E+02;  0.0000000E+00;  3.9195518E+00;0;  2.7443004E+00;  2.6837658E+04;  0.0000000E+00; -2.1149821E+00;  4.0000000E+04;  0.0000000E+00;  3.9926824E+04;  2.7685013E+00;  0.0000000E+00; -2.4200886E-02;  1.0554405E+04;
  9.3332762E-01;  9.9999998E-03;  2.9054379E-01;7873;  1.0238291E+00;  0.0000000E+00; -4.3358933E-03;  9.9454211E+02;  1.2155832E-01; -4.5183223E+03;3; -1.0423637E+02;  0.0000000E+00;  1.0736310E+01;0;  2.7759156E+00;  2.6832945E+04;  0.0000000E+00; -3.9069209E+00;  4.0000000E+04;  0.0000000E+00;  3.9933621E+04;  2.7283838E+00;  0.0000000E+00;  4.7531806E-02;  1.3255051E+04;
  9.3359423E-01;  9.9999998E-03;  3.0055463E-01;7874;  1.0159491E+00;  0.0000000E+00;  1.1985655E-03;  9.9438208E+02;  1.2155606E-01; -4.6507959E+03;3; -1.0052445E+02;  0.0000000E+00;  2.2528517E+01;0;  2.8360386E+00;  2.6826049E+04;  0.0000000E+00; -5.8579450E+00;  4.0000000E+04;  0.0000000E+00;  3.9935098E+04;  2.6952903E+00;  0.0000000E+00;  1.4074817E-01;  1.6200615E+04;
  9.4373828E-01;  9.9999998E-03;  2.4049641E-01;7929;  1.0952528E+00;  0.0000000E+00; -8.7498957E-03;  9.9838751E+02;  1.2092914E-01; -1.3347296E+03;3; -1.2505583E+02;  0.0000000E+00;  1.9894903E+00;0;  3.0838544E+00;  2.7354246E+04;  0.0000000E+00;  3.9883798E-01;  4.0000000E+04;  0.0000000E+00;  3.9868930E+04;  3.0902958E+00;  0.0000000E+00; -6.4413054E-03;  2.2509485E+03;
  9.4401705E-01;  9.9999998E-03;  2.5051910E-01;7930;  1.0782223E+00;  0.0000000E+00; -8.9336718E-03;  9.9834454E+02;  1.2092433E-01; -1.3702970E+03;3; -1.3507533E+02;  0.0000000E+00;  3.3779917E+00;0;  3.0696433E+00;  2.7358713E+04;  0.0000000E+00;  1.9051205E-01;  4.0000000E+04;  0.0000000E+00;  3.9863184E+04;  3.0760427E+00;  0.0000000E+00; -6.3995118E-03;  1.3726936E+03;
  9.4430751E-01;  9.9999998E-03;  2.6053274E-01;7931;  1.0606297E+00;  0.0000000E+00; -9.2342086E-03;  9.9833093E+02;  1.2091888E-01; -1.3815405E+03;3; -1.4286424E+02;  0.0000000E+00;  6.0430765E+00;0;  3.0574141E+00;  2.7364516E+04;  0.0000000E+00; -2.0508085E-01;  4.0000000E+04;  0.0000000E+00;  3.9858781E+04;  3.0668550E+00;  0.0000000E+00; -9.4408849E-03;  6.7380048E+02;
  9.4457716E-01;  9.9999998E-03;  2.7053154E-01;7932;  1.0435159E+00;  0.0000000E+00; -7.0004943E-03;  9.9846674E+02;  1.2091300E-01; -1.2691458E+03;3; -1.4640332E+02;  0.0000000E+00;  8.7243729E+00;0;  3.0758862E+00;  2.7370062E+04;  0.0000000E+00; -8.3203012E-01;  4.0000000E+04;  0.0000000E+00;  3.9867180E+04;  3.0613894E+00;  0.0000000E+00;  1.4496782E-02;  2.2826804E+03;
  9.4482380E-01;  9.9999998E-03;  2.8053507E-01;7933;  1.0295080E+00;  0.0000000E+00; -2.2835552E-03;  9.9858429E+02;  1.2090683E-01; -1.1718494E+03;3; -1.2146275E+02;  0.0000000E+00;  8.9249783E+00;0;  3.1437039E+00;  2.7374244E+04;  0.0000000E+00; -1.6849210E+00;  4.0000000E+04;  0.0000000E+00;  3.9875980E+04;  3.0582833E+00;  0.0000000E+00;  8.5420676E-02;  4.3484883E+03;
  9.4505304E-01;  9.9999998E-03;  2.9054612E-01;7934;  1.0200934E+00;  0.0000000E+00;  1.8481176E-03;  9.9858600E+02;  1.2090190E-01; -1.1704149E+03;3; -1.0623184E+02;  0.0000000E+00;  8.9615307E+00;0;  3.2188027E+00;  2.7376094E+04;  0.0000000E+00; -2.6988523E+00;  4.0000000E+04;  0.0000000E+00;  3.9878559E+04;  3.0563042E+00;  0.0000000E+00;  1.6249858E-01;  6.2782461E+03;
  9.4523728E-01;  9.9999998E-03;  3.0056059E-01;7935;  1.0111184E+00;  0.0000000E+00;  5.8680084E-03;  9.9847144E+02;  1.2089866E-01; -1.2652368E+03;3; -1.0319260E+02;  0.0000000E+00;  1.4878908E+01;0;  3.2922397E+00;  2.7373523E+04;  0.0000000E+00; -3.6979375E+00;  4.0000000E+04;  0.0000000E+00;  3.9877445E+04;  3.0559921E+00;  0.0000000E+00;  2.3624747E-01;  8.0805107E+03;
  9.5510989E-01;  9.9999998E-03;  2.4048136E-01;7990;  1.1262364E+00;  0.0000000E+00; -4.6570324E-03;  1.0012700E+03;  1.2021532E-01;  1.0511122E+03;3; -1.1963316E+02;  0.0000000E+00;  9.2189522E+00;0;  3.2046351E+00;  2.7853068E+04;  0.0000000E+00;  1.4708182E-01;  4.0000000E+04;  0.0000000E+00;  3.9845336E+04;  3.1746628E+00;  0.0000000E+00;  2.9972393E-02;  1.6232734E+03;
  9.5532703E-01;  9.9999998E-03;  2.5048628E-01;7991;  1.1087054E+00;  0.0000000E+00; -3.7690841E-03;  1.0014785E+03;  1.2020928E-01;  1.2235638E+03;3; -1.3067484E+02;  0.0000000E+00;  1.0317790E+01;0;  3.2594326E+00;  2.7867498E+04;  0.0000000E+00; -3.4112424E-02;  4.0000000E+04;  0.0000000E+00;  3.9845465E+04;  3.2146871E+00;  0.0000000E+00;  4.4745471E-02;  1.5221072E+03;
  9.5558137E-01;  9.9999998E-03;  2.6050174E-01;7992;  1.0919050E+00;  0.0000000E+00; -4.0032137E-03;  1.0016169E+03;  1.2020189E-01;  1.3381011E+03;3; -1.4040164E+02;  0.0000000E+00;  1.0878024E+01;0;  3.3088021E+00;  2.7882762E+04;  0.0000000E+00; -2.8245342E-01;  4.0000000E+04;  0.0000000E+00;  3.9840230E+04;  3.2551990E+00;  0.0000000E+00;  5.3603109E-02;  2.1681384E+03;
  9.5582581E-01;  9.9999998E-03;  2.7051157E-01;7993;  1.0752163E+00;  0.0000000E+00; -3.3496940E-03;  1.0017879E+03;  1.2019455E-01;  1.4796699E+03;3; -1.4985150E+02;  0.0000000E+00;  1.1388019E+01;0;  3.3656483E+00;  2.7896898E+04;  0.0000000E+00; -5.8484310E-01;  4.0000000E+04;  0.0000000E+00;  3.9839871E+04;  3.2948585E+00;  0.0000000E+00;  7.0789851E-02;  2.4061858E+03;
  9.5603985E-01;  9.9999998E-03;  2.8052256E-01;7994;  1.0569210E+00;  0.0000000E+00; -8.9505938E-04;  1.0019398E+03;  1.2018758E-01;  1.6053545E+03;3; -1.5915605E+02;  0.0000000E+00;  1.1518013E+01;0;  3.4479706E+00;  2.7908344E+04;  0.0000000E+00; -9.0656126E-01;  4.0000000E+04;  0.0000000E+00;  3.9841262E+04;  3.3326433E+00;  0.0000000E+00;  1.1532729E-01;  2.6337349E+03;
  9.5622432E-01;  9.9999998E-03;  2.9053813E-01;7995;  1.0383801E+00;  0.0000000E+00;  9.8427921E-04;  1.0019879E+03;  1.2018202E-01;  1.6452073E+03;3; -1.5975049E+02;  0.0000000E+00;  9.9295168E+00;0;  3.5244596E+00;  2.7915857E+04;  0.0000000E+00; -1.1929098E+00;  4.0000000E+04;  0.0000000E+00;  3.9839660E+04;  3.3674397E+00;  0.0000000E+00;  1.5701976E-01;  3.2023022E+03;
  9.5637470E-01;  9.9999998E-03;  3.0055529E-01;7996;  1.0228056E+00;  0.0000000E+00;  2.0786757E-03;  1.0019452E+03;  1.2017836E-01;  1.6097855E+03;3; -1.4281474E+02;  0.0000000E+00;  1.3427987E+01;0;  3.5766661E+00;  2.7917969E+04;  0.0000000E+00; -1.3909600E+00;  4.0000000E+04;  0.0000000E+00;  3.9837812E+04;  3.3979709E+00;  0.0000000E+00;  1.7869520E-01;  3.6798479E+03;
  9.6619701E-01;  9.9999998E-03;  2.4043983E-01;8051;  1.1770087E+00;  0.0000000E+00; -4.9100746E-03;  1.0034135E+03;  1.1944599E-01;  2.8245627E+03;3; -1.0344239E+02;  0.0000000E+00;  1.4165318E+01;0;  3.2762022E+00;  2.8341611E+04;  0.0000000E+00; -1.2444893E-01;  4.0000000E+04;  0.0000000E+00;  3.9834070E+04;  3.2318726E+00;  0.0000000E+00;  4.4329632E-02;  3.2985664E+03;
  9.6639735E-01;  9.9999998E-03;  2.5044429E-01;8052;  1.1646100E+00;  0.0000000E+00; -2.0612797E-03;  1.0037437E+03;  1.1943898E-01;  3.0976858E+03;3; -1.1432125E+02;  0.0000000E+00;  1.3157775E+01;0;  3.3893013E+00;  2.8362689E+04;  0.0000000E+00; -2.8820616E-01;  4.0000000E+04;  0.0000000E+00;  3.9835066E+04;  3.3174777E+00;  0.0000000E+00;  7.1823657E-02;  3.2267080E+03;
  9.6663207E-01;  9.9999998E-03;  2.6046100E-01;8053;  1.1525042E+00;  0.0000000E+00;  2.9122964E-03;  1.0039904E+03;  1.1943001E-01;  3.3018560E+03;3; -1.2424124E+02;  0.0000000E+00;  7.3710179E+00;0;  3.5323541E+00;  2.8383361E+04;  0.0000000E+00; -4.6043411E-01;  4.0000000E+04;  0.0000000E+00;  3.9831285E+04;  3.3995845E+00;  0.0000000E+00;  1.3276953E-01;  3.7311047E+03;
  9.6685117E-01;  9.9999998E-03;  2.7048776E-01;8054;  1.1397566E+00;  0.0000000E+00;  3.9253403E-03;  1.0040859E+03;  1.1942171E-01;  3.3808521E+03;3; -1.3240225E+02;  0.0000000E+00; -6.3189352E-01;0;  3.6514225E+00;  2.8402020E+04;  0.0000000E+00; -6.0171437E-01;  4.0000000E+04;  0.0000000E+00;  3.9818863E+04;  3.4766383E+00;  0.0000000E+00;  1.7478426E-01;  5.2965605E+03;
  9.6704674E-01;  9.9999998E-03;  2.8051138E-01;8055;  1.1254448E+00;  0.0000000E+00; -4.2582760E-04;  1.0041404E+03;  1.1941449E-01;  3.4260164E+03;3; -1.3940932E+02;  0.0000000E+00; -3.0056591E+00;0;  3.6873202E+00;  2.8417465E+04;  0.0000000E+00; -6.7603189E-01;  4.0000000E+04;  0.0000000E+00;  3.9807477E+04;  3.5470972E+00;  0.0000000E+00;  1.4022301E-01;  6.7356353E+03;
  9.6721977E-01;  9.9999998E-03;  2.9053074E-01;8056;  1.1109310E+00;  0.0000000E+00; -3.8982274E-03;  1.0042090E+03;  1.1940843E-01;  3.4827219E+03;3; -1.4535657E+02;  0.0000000E+00; -6.1908430E-01;0;  3.7024562E+00;  2.8428979E+04;  0.0000000E+00; -6.7971277E-01;  4.0000000E+04;  0.0000000E+00;  3.9802117E+04;  3.6095092E+00;  0.0000000E+00;  9.2946999E-02;  7.4124048E+03;
  9.6737534E-01;  9.9999998E-03;  3.0054894E-01;8057;  1.0973732E+00;  0.0000000E+00; -5.2548307E-03;  1.0042538E+03;  1.1940357E-01;  3.5197009E+03;3; -1.5102693E+02;  0.0000000E+00;  3.5692155E-01;0;  3.7317643E+00;  2.8435580E+04;  0.0000000E+00; -6.1793131E-01;  4.0000000E+04;  0.0000000E+00;  3.9801293E+04;  3.6630678E+00;  0.0000000E+00;  6.8696395E-02;  7.5038833E+03;
  9.7728050E-01;  9.9999998E-03;  2.4037191E-01;8112;  1.2409651E+00;  0.0000000E+00; -7.7854707E-03;  1.0046639E+03;  1.1862829E-01;  3.8582375E+03;3; -7.9659378E+01;  0.0000000E+00;  1.5670101E+01;0;  3.2850053E+00;  2.8806793E+04;  0.0000000E+00; -3.7744588E-01;  4.0000000E+04;  0.0000000E+00;  3.9835691E+04;  3.2389925E+00;  0.0000000E+00;  4.6012919E-02;  3.5014839E+03;
  9.7743917E-01;  9.9999998E-03;  2.5038654E-01;8113;  1.2366318E+00;  0.0000000E+00; -3.0405447E-04;  1.0050184E+03;  1.1862094E-01;  4.1516118E+03;3; -8.8550003E+01;  0.0000000E+00;  1.2192254E+01;0;  3.4588161E+00;  2.8830033E+04;  0.0000000E+00; -5.5518335E-01;  4.0000000E+04;  0.0000000E+00;  3.9836266E+04;  3.3591492E+00;  0.0000000E+00;  9.9666819E-02;  3.5124275E+03;
  9.7766453E-01;  9.9999998E-03;  2.6042494E-01;8114;  1.2335595E+00;  0.0000000E+00;  8.1003085E-03;  1.0051510E+03;  1.1861138E-01;  4.2612534E+03;3; -9.5857269E+01;  0.0000000E+00; -2.3330710E+00;0;  3.6712162E+00;  2.8852301E+04;  0.0000000E+00; -7.4783337E-01;  4.0000000E+04;  0.0000000E+00;  3.9822289E+04;  3.4723802E+00;  0.0000000E+00;  1.9883619E-01;  5.2525967E+03;
  9.7788328E-01;  9.9999998E-03;  2.7047223E-01;8115;  1.2287617E+00;  0.0000000E+00; -7.5827976E-04;  1.0050472E+03;  1.1860220E-01;  4.1753379E+03;3; -1.0188869E+02;  0.0000000E+00; -1.1917856E+01;0;  3.7166181E+00;  2.8871898E+04;  0.0000000E+00; -9.1865230E-01;  4.0000000E+04;  0.0000000E+00;  3.9793074E+04;  3.5771272E+00;  0.0000000E+00;  1.3949072E-01;  8.8465605E+03;
  9.7806859E-01;  9.9999998E-03;  2.8049725E-01;8116;  1.2209016E+00;  0.0000000E+00; -1.0570026E-02;  1.0050908E+03;  1.1859435E-01;  4.2113154E+03;3; -1.0685114E+02;  0.0000000E+00; -5.5407519E+00;0;  3.6820841E+00;  2.8888297E+04;  0.0000000E+00; -1.0439934E+00;  4.0000000E+04;  0.0000000E+00;  3.9779848E+04;  3.6713288E+00;  0.0000000E+00;  1.0755334E-02;  1.0529383E+04;
  9.7824520E-01;  9.9999998E-03;  2.9051489E-01;8117;  1.2127575E+00;  0.0000000E+00; -1.4226108E-02;  1.0052246E+03;  1.1858711E-01;  4.3220454E+03;3; -1.1134110E+02;  0.0000000E+00; -7.6935756E-01;0;  3.6936615E+00;  2.8901541E+04;  0.0000000E+00; -1.1450349E+00;  4.0000000E+04;  0.0000000E+00;  3.9778051E+04;  3.7537980E+00;  0.0000000E+00; -6.0136467E-02;  1.0820837E+04;
  9.7841054E-01;  9.9999998E-03;  3.0053353E-01;8118;  1.2051700E+00;  0.0000000E+00; -1.5820602E-02;  1.0053423E+03;  1.1858136E-01;  4.4193628E+03;3; -1.1533462E+02;  0.0000000E+00;  4.6022084E-01;0;  3.7248456E+00;  2.8911252E+04;  0.0000000E+00; -1.2152073E+00;  4.0000000E+04;  0.0000000E+00;  3.9779266E+04;  3.8236473E+00;  0.0000000E+00; -9.8801531E-02;  1.0706334E+04;
  9.8877436E-01;  9.9999998E-03;  2.4029396E-01;8173;  1.3075982E+00;  0.0000000E+00; -8.3611934E-03;  1.0049686E+03;  1.1775441E-01;  4.1091763E+03;3; -5.1448444E+01;  0.0000000E+00;  1.7233402E+01;0;  3.2335107E+00;  2.9251529E+04;  0.0000000E+00; -5.7504719E-01;  4.0000000E+04;  0.0000000E+00;  3.9844559E+04;  3.1752293E+00;  0.0000000E+00;  5.8281410E-02;  2.8008562E+03;
  9.8892373E-01;  9.9999998E-03;  2.5032458E-01;8174;  1.3138767E+00;  0.0000000E+00;  1.6959063E-03;  1.0052722E+03;  1.1774646E-01;  4.3602705E+03;3; -5.7608898E+01;  0.0000000E+00;  1.3165839E+01;0;  3.4471109E+00;  2.9273914E+04;  0.0000000E+00; -7.3582333E-01;  4.0000000E+04;  0.0000000E+00;  3.9843266E+04;  3.3164272E+00;  0.0000000E+00;  1.3068372E-01;  3.0577661E+03;
  9.8916703E-01;  9.9999998E-03;  2.6038334E-01;8175;  1.3222845E+00;  0.0000000E+00;  7.4759400E-03;  1.0052543E+03;  1.1773512E-01;  4.3454541E+03;3; -6.2551857E+01;  0.0000000E+00; -3.0580587E+00;0;  3.6616278E+00;  2.9294729E+04;  0.0000000E+00; -9.0747547E-01;  4.0000000E+04;  0.0000000E+00;  3.9820703E+04;  3.4476676E+00;  0.0000000E+00;  2.1396023E-01;  5.7595054E+03;
  9.8938942E-01;  9.9999998E-03;  2.7043980E-01;8176;  1.3270603E+00;  0.0000000E+00; -7.0125484E-03;  1.0050411E+03;  1.1772530E-01;  4.1691509E+03;3; -6.6078590E+01;  0.0000000E+00; -6.5461998E+00;0;  3.6540985E+00;  2.9312326E+04;  0.0000000E+00; -1.0780381E+00;  4.0000000E+04;  0.0000000E+00;  3.9786379E+04;  3.5676916E+00;  0.0000000E+00;  8.6406954E-02;  9.9425820E+03;
  9.8956829E-01;  9.9999998E-03;  2.8046387E-01;8177;  1.3258734E+00;  0.0000000E+00; -1.4728015E-02;  1.0050971E+03;  1.1771712E-01;  4.2154683E+03;3; -6.9433662E+01;  0.0000000E+00; -1.2061939E+00;0;  3.6484318E+00;  2.9327074E+04;  0.0000000E+00; -1.2320458E+00;  4.0000000E+04;  0.0000000E+00;  3.9777055E+04;  3.6746125E+00;  0.0000000E+00; -2.6180847E-02;  1.1152240E+04;
  9.8975366E-01;  9.9999998E-03;  2.9048291E-01;8178;  1.3257095E+00;  0.0000000E+00; -1.8068485E-02;  1.0052356E+03;  1.1770833E-01;  4.3299087E+03;3; -7.2967339E+01;  0.0000000E+00;  2.3853388E+00;0;  3.6692605E+00;  2.9340191E+04;  0.0000000E+00; -1.3627350E+00;  4.0000000E+04;  0.0000000E+00;  3.9776949E+04;  3.7678456E+00;  0.0000000E+00; -9.8585084E-02;  1.1245047E+04;
  9.8995292E-01;  9.9999998E-03;  3.0050325E-01;8179;  1.3247609E+00;  0.0000000E+00; -1.9469723E-02;  1.0053782E+03;  1.1769940E-01;  4.4477974E+03;3; -7.6065575E+01;  0.0000000E+00;  1.7579310E+00;0;  3.7098901E+00;  2.9351980E+04;  0.0000000E+00; -1.4120947E+00;  4.0000000E+04;  0.0000000E+00;  3.9779051E+04;  3.8464863E+00;  0.0000000E+00; -1.3659622E-01;  1.1030052E+04;
  1.0007145E+00;  9.9999998E-03;  2.4022785E-01;8234;  1.3674229E+00;  0.0000000E+00; -6.4747701E-03;  1.0044349E+03;  1.1683147E-01;  3.6666355E+03;3; -2.2375528E+01;  0.0000000E+00;  2.0199659E+01;0;  3.1081247E+00;  2.9681809E+04;  0.0000000E+00; -6.6527885E-01;  4.0000000E+04;  0.0000000E+00;  3.9854461E+04;  3.0252476E+00;  0.0000000E+00;  8.2877226E-02;  1.9973209E+03;
  1.0009249E+00;  9.9999998E-03;  2.5026831E-01;8235;  1.3846718E+00;  0.0000000E+00;  1.6914418E-03;  1.0046636E+03;  1.1682072E-01;  3.8556436E+03;3; -2.5806017E+01;  0.0000000E+00;  1.8013865E+01;0;  3.3202074E+00;  2.9702283E+04;  0.0000000E+00; -7.2804642E-01;  4.0000000E+04;  0.0000000E+00;  3.9852625E+04;  3.1686110E+00;  0.0000000E+00;  1.5159622E-01;  2.2336155E+03;
  1.0012634E+00;  9.9999998E-03;  2.6033649E-01;8236;  1.4068316E+00;  0.0000000E+00;  5.3427066E-03;  1.0045374E+03;  1.1680614E-01;  3.7513311E+03;3; -2.8813133E+01;  0.0000000E+00;  5.1583886E+00;0;  3.5192544E+00;  2.9720578E+04;  0.0000000E+00; -7.6557648E-01;  4.0000000E+04;  0.0000000E+00;  3.9827820E+04;  3.2992718E+00;  0.0000000E+00;  2.1998271E-01;  5.0223828E+03;
  1.0015734E+00;  9.9999998E-03;  2.7039382E-01;8237;  1.4176499E+00;  0.0000000E+00; -6.6151083E-03;  1.0042865E+03;  1.1679307E-01;  3.5438364E+03;3; -3.1424831E+01;  0.0000000E+00;  4.9933119E+00;0;  3.5367134E+00;  2.9735600E+04;  0.0000000E+00; -7.3744309E-01;  4.0000000E+04;  0.0000000E+00;  3.9796957E+04;  3.4166479E+00;  0.0000000E+00;  1.2006535E-01;  8.7266904E+03;
  1.0018038E+00;  9.9999998E-03;  2.8042156E-01;8238;  1.4235237E+00;  0.0000000E+00; -1.1691178E-02;  1.0042809E+03;  1.1678240E-01;  3.5391787E+03;3; -3.4654800E+01;  0.0000000E+00;  8.9212532E+00;0;  3.5722613E+00;  2.9747658E+04;  0.0000000E+00; -5.9819961E-01;  4.0000000E+04;  0.0000000E+00;  3.9788113E+04;  3.5214400E+00;  0.0000000E+00;  5.0821256E-02;  9.7854258E+03;
  1.0020148E+00;  9.9999998E-03;  2.9044345E-01;8239;  1.4293621E+00;  0.0000000E+00; -1.4418680E-02;  1.0043693E+03;  1.1677133E-01;  3.6121831E+03;3; -3.6249702E+01;  0.0000000E+00;  9.3754015E+00;0;  3.6104543E+00;  2.9759162E+04;  0.0000000E+00; -3.1671494E-01;  4.0000000E+04;  0.0000000E+00;  3.9788297E+04;  3.6129699E+00;  0.0000000E+00; -2.5154648E-03;  9.7573193E+03;
  1.0022240E+00;  9.9999998E-03;  3.0046543E-01;8240;  1.4344226E+00;  0.0000000E+00; -1.6083328E-02;  1.0044898E+03;  1.1675955E-01;  3.7117959E+03;3; -3.7263248E+01;  0.0000000E+00;  9.3076086E+00;0;  3.6488481E+00;  2.9770898E+04;  0.0000000E+00;  1.2691188E-01;  4.0000000E+04;  0.0000000E+00;  3.9791281E+04;  3.6909101E+00;  0.0000000E+00; -4.2062078E-02;  9.4283828E+03;
  1.0126709E+00;  9.9999998E-03;  2.4017933E-01;8295;  1.4148049E+00;  0.0000000E+00; -6.3108210E-03;  1.0034721E+03;  1.1588618E-01;  2.8694189E+03;3;  1.5145408E+00;  0.0000000E+00;  2.5476513E+01;0;  2.9009533E+00;  3.0106189E+04;  0.0000000E+00; -8.2050633E-01;  4.0000000E+04;  0.0000000E+00;  3.9864402E+04;  2.7997212E+00;  0.0000000E+00;  1.0123214E-01;  1.5036342E+03;
  1.0129166E+00;  9.9999998E-03;  2.5022602E-01;8296;  1.4400728E+00;  0.0000000E+00; -1.1166227E-04;  1.0036190E+03;  1.1587346E-01;  2.9907654E+03;3;  1.1624563E+00;  0.0000000E+00;  2.4481197E+01;0;  3.0914466E+00;  3.0123744E+04;  0.0000000E+00; -8.5129082E-01;  4.0000000E+04;  0.0000000E+00;  3.9861930E+04;  2.9268169E+00;  0.0000000E+00;  1.6462967E-01;  1.6520046E+03;
  1.0133164E+00;  9.9999998E-03;  2.6029164E-01;8297;  1.4711573E+00;  0.0000000E+00;  3.6040067E-03;  1.0034744E+03;  1.1585678E-01;  2.8713201E+03;3; -1.3303303E+00;  0.0000000E+00;  1.8226997E+01;0;  3.2741203E+00;  3.0139154E+04;  0.0000000E+00; -8.7197953E-01;  4.0000000E+04;  0.0000000E+00;  3.9841793E+04;  3.0387998E+00;  0.0000000E+00;  2.3532061E-01;  3.5751350E+03;
  1.0136839E+00;  9.9999998E-03;  2.7035126E-01;8298;  1.4855208E+00;  0.0000000E+00; -2.9814020E-03;  1.0031682E+03;  1.1584115E-01;  2.6181001E+03;3; -6.0217357E+00;  0.0000000E+00;  1.8694942E+01;0;  3.3385811E+00;  3.0151223E+04;  0.0000000E+00; -7.9807216E-01;  4.0000000E+04;  0.0000000E+00;  3.9812934E+04;  3.1375442E+00;  0.0000000E+00;  2.0103705E-01;  6.8940239E+03;
  1.0139519E+00;  9.9999998E-03;  2.8038198E-01;8299;  1.4957457E+00;  0.0000000E+00; -7.5494959E-03;  1.0030974E+03;  1.1582873E-01;  2.5596558E+03;3; -6.9159207E+00;  0.0000000E+00;  1.8677561E+01;0;  3.3811586E+00;  3.0160014E+04;  0.0000000E+00; -4.7122914E-01;  4.0000000E+04;  0.0000000E+00;  3.9804762E+04;  3.2260950E+00;  0.0000000E+00;  1.5506372E-01;  7.8133535E+03;
  1.0142169E+00;  9.9999998E-03;  2.9040551E-01;8300;  1.5054065E+00;  0.0000000E+00; -1.0340370E-02;  1.0031181E+03;  1.1581449E-01;  2.5767710E+03;3; -6.5330558E+00;  0.0000000E+00;  1.8592607E+01;0;  3.4147768E+00;  3.0168697E+04;  0.0000000E+00;  2.1161702E-01;  4.0000000E+04;  0.0000000E+00;  3.9805781E+04;  3.3031046E+00;  0.0000000E+00;  1.1167215E-01;  7.6872441E+03;
  1.0144867E+00;  9.9999998E-03;  3.0042794E-01;8301;  1.5142205E+00;  0.0000000E+00; -1.2255519E-02;  1.0031727E+03;  1.1579907E-01;  2.6218623E+03;3; -5.4172311E+00;  0.0000000E+00;  1.8502129E+01;0;  3.4410331E+00;  3.0177887E+04;  0.0000000E+00;  1.3444903E+00;  4.0000000E+04;  0.0000000E+00;  3.9809984E+04;  3.3693876E+00;  0.0000000E+00;  7.1645401E-02;  7.5629351E+03;
  1.0245728E+00;  9.9999998E-03;  2.4015342E-01;8356;  1.4502705E+00;  0.0000000E+00; -9.6485624E-03;  1.0024727E+03;  1.1493221E-01;  2.0424606E+03;3;  1.8109467E+01;  0.0000000E+00;  3.2812675E+01;0;  2.6294105E+00;  3.0541701E+04;  0.0000000E+00; -1.2430073E+00;  4.0000000E+04;  0.0000000E+00;  3.9872289E+04;  2.5238409E+00;  0.0000000E+00;  1.0556958E-01;  2.0272706E+03;
  1.0248127E+00;  9.9999998E-03;  2.5019899E-01;8357;  1.4779619E+00;  0.0000000E+00; -4.4494881E-03;  1.0025765E+03;  1.1491987E-01;  2.1282051E+03;3;  1.9947525E+01;  0.0000000E+00;  3.2154552E+01;0;  2.7867205E+00;  3.0556324E+04;  0.0000000E+00; -1.4039247E+00;  4.0000000E+04;  0.0000000E+00;  3.9870574E+04;  2.6217630E+00;  0.0000000E+00;  1.6495748E-01;  2.2320303E+03;
  1.0252212E+00;  9.9999998E-03;  2.6025763E-01;8358;  1.5119665E+00;  0.0000000E+00;  5.5878953E-04;  1.0024504E+03;  1.1490318E-01;  2.0240867E+03;3;  1.7345512E+01;  0.0000000E+00;  2.7655767E+01;0;  2.9501667E+00;  3.0569043E+04;  0.0000000E+00; -1.6423972E+00;  4.0000000E+04;  0.0000000E+00;  3.9856336E+04;  2.7040114E+00;  0.0000000E+00;  2.4615532E-01;  3.0635994E+03;
  1.0256232E+00;  9.9999998E-03;  2.7031937E-01;8359;  1.5276537E+00;  0.0000000E+00; -4.2305710E-03;  1.0020900E+03;  1.1488608E-01;  1.7262916E+03;3;  1.3748798E+01;  0.0000000E+00;  2.5820353E+01;0;  3.0092120E+00;  3.0578453E+04;  0.0000000E+00; -1.8069878E+00;  4.0000000E+04;  0.0000000E+00;  3.9827879E+04;  2.7744775E+00;  0.0000000E+00;  2.3473445E-01;  5.7736904E+03;
  1.0258685E+00;  9.9999998E-03;  2.8035089E-01;8360;  1.5387508E+00;  0.0000000E+00; -8.5460376E-03;  1.0019687E+03;  1.1487430E-01;  1.6261344E+03;3;  1.4138942E+01;  0.0000000E+00;  2.5128990E+01;0;  3.0358803E+00;  3.0583262E+04;  0.0000000E+00; -1.4610025E+00;  4.0000000E+04;  0.0000000E+00;  3.9820859E+04;  2.8397586E+00;  0.0000000E+00;  1.9612163E-01;  6.2944009E+03;
  1.0260323E+00;  9.9999998E-03;  2.9037449E-01;8361;  1.5480746E+00;  0.0000000E+00; -1.1509351E-02;  1.0019444E+03;  1.1486451E-01;  1.6060358E+03;3;  1.6003628E+01;  0.0000000E+00;  2.5044319E+01;0;  3.0505338E+00;  3.0586256E+04;  0.0000000E+00; -3.5849974E-01;  4.0000000E+04;  0.0000000E+00;  3.9823398E+04;  2.8998542E+00;  0.0000000E+00;  1.5067957E-01;  5.6018887E+03;
  1.0261848E+00;  9.9999998E-03;  3.0039632E-01;8362;  1.5552440E+00;  0.0000000E+00; -1.3489785E-02;  1.0019474E+03;  1.1485393E-01;  1.6084863E+03;3;  1.7933651E+01;  0.0000000E+00;  2.4824236E+01;0;  3.0613611E+00;  3.0588912E+04;  0.0000000E+00;  1.5688094E+00;  4.0000000E+04;  0.0000000E+00;  3.9829324E+04;  2.9540706E+00;  0.0000000E+00;  1.0729055E-01;  5.5744937E+03;
  1.0363786E+00;  9.9999998E-03;  2.4015053E-01;8417;  1.4752338E+00;  0.0000000E+00; -1.7270772E-02;  1.0016986E+03;  1.1398577E-01;  1.4022936E+03;3;  3.0358421E+01;  0.0000000E+00;  3.7416897E+01;0;  2.3199027E+00;  3.0997412E+04;  0.0000000E+00; -2.1428528E+00;  4.0000000E+04;  0.0000000E+00;  3.9876953E+04;  2.2272317E+00;  0.0000000E+00;  9.2670828E-02;  3.3966462E+03;
  1.0365731E+00;  9.9999998E-03;  2.5018907E-01;8418;  1.5020096E+00;  0.0000000E+00; -1.2704841E-02;  1.0017889E+03;  1.1397528E-01;  1.4768759E+03;3;  3.2906399E+01;  0.0000000E+00;  3.6959583E+01;0;  2.4330194E+00;  3.1009361E+04;  0.0000000E+00; -2.6681707E+00;  4.0000000E+04;  0.0000000E+00;  3.9876633E+04;  2.2897134E+00;  0.0000000E+00;  1.4330599E-01;  4.1697305E+03;
  1.0368123E+00;  9.9999998E-03;  2.6023686E-01;8419;  1.5344596E+00;  0.0000000E+00; -7.2783660E-03;  1.0017239E+03;  1.1396639E-01;  1.4231245E+03;3;  2.8382681E+01;  0.0000000E+00;  3.0063747E+01;0;  2.5620220E+00;  3.1017170E+04;  0.0000000E+00; -3.2336776E+00;  4.0000000E+04;  0.0000000E+00;  3.9868555E+04;  2.3424609E+00;  0.0000000E+00;  2.1956107E-01;  4.9997559E+03;
  1.0370789E+00;  9.9999998E-03;  2.7029744E-01;8420;  1.5476505E+00;  0.0000000E+00; -1.1827813E-02;  1.0013586E+03;  1.1395610E-01;  1.1215765E+03;3;  2.3603689E+01;  0.0000000E+00;  2.7951143E+01;0;  2.5862000E+00;  3.1021865E+04;  0.0000000E+00; -3.6404679E+00;  4.0000000E+04;  0.0000000E+00;  3.9841672E+04;  2.3864939E+00;  0.0000000E+00;  1.9970608E-01;  6.6135444E+03;
  1.0372756E+00;  9.9999998E-03;  2.8032729E-01;8421;  1.5548887E+00;  0.0000000E+00; -1.5783500E-02;  1.0012183E+03;  1.1394681E-01;  1.0057377E+03;3;  2.2852674E+01;  0.0000000E+00;  2.7769884E+01;0;  2.5805187E+00;  3.1022828E+04;  0.0000000E+00; -3.2941005E+00;  4.0000000E+04;  0.0000000E+00;  3.9837027E+04;  2.4263909E+00;  0.0000000E+00;  1.5412782E-01;  6.4771016E+03;
  1.0374458E+00;  9.9999998E-03;  2.9034954E-01;8422;  1.5595831E+00;  0.0000000E+00; -1.8423669E-02;  1.0011427E+03;  1.1393686E-01;  9.4333795E+02;3;  2.3423738E+01;  0.0000000E+00;  2.7836439E+01;0;  2.5665135E+00;  3.1021475E+04;  0.0000000E+00; -1.7731222E+00;  4.0000000E+04;  0.0000000E+00;  3.9841754E+04;  2.4628913E+00;  0.0000000E+00;  1.0362227E-01;  4.3717710E+03;
  1.0376291E+00;  9.9999998E-03;  3.0037150E-01;8423;  1.5636209E+00;  0.0000000E+00; -1.9681444E-02;  1.0010327E+03;  1.1392555E-01;  8.5249908E+02;3;  2.3659626E+01;  0.0000000E+00;  2.6724598E+01;0;  2.5625386E+00;  3.1018533E+04;  0.0000000E+00;  1.1393404E+00;  4.0000000E+04;  0.0000000E+00;  3.9847258E+04;  2.4964659E+00;  0.0000000E+00;  6.6072673E-02;  3.3985923E+03;
  1.0479168E+00;  9.9999998E-03;  2.4016269E-01;8478;  1.4924977E+00;  0.0000000E+00; -2.7157931E-02;  1.0012582E+03;  1.1306822E-01;  1.0380637E+03;3;  3.8933804E+01;  0.0000000E+00;  3.9870010E+01;0;  2.0095208E+00;  3.1469047E+04;  0.0000000E+00; -3.5635552E+00;  4.0000000E+04;  0.0000000E+00;  3.9879578E+04;  1.9392934E+00;  0.0000000E+00;  7.0227318E-02;  5.4356855E+03;
  1.0479581E+00;  9.9999998E-03;  2.5019187E-01;8479;  1.5183866E+00;  0.0000000E+00; -2.2519393E-02;  1.0013687E+03;  1.1306445E-01;  1.1292294E+03;3;  4.2011242E+01;  0.0000000E+00;  4.0371693E+01;0;  2.0799584E+00;  3.1477943E+04;  0.0000000E+00; -4.4744124E+00;  4.0000000E+04;  0.0000000E+00;  3.9880684E+04;  1.9674661E+00;  0.0000000E+00;  1.1249231E-01;  6.8104512E+03;
  1.0481745E+00;  9.9999998E-03;  2.6022792E-01;8480;  1.5464849E+00;  0.0000000E+00; -1.6514242E-02;  1.0013593E+03;  1.1305683E-01;  1.1213464E+03;3;  3.0756647E+01;  0.0000000E+00;  2.8922268E+01;0;  2.1695840E+00;  3.1484051E+04;  0.0000000E+00; -5.5558786E+00;  4.0000000E+04;  0.0000000E+00;  3.9878305E+04;  1.9861650E+00;  0.0000000E+00;  1.8341908E-01;  8.4464971E+03;
  1.0484419E+00;  9.9999998E-03;  2.7028358E-01;8481;  1.5539951E+00;  0.0000000E+00; -2.1200787E-02;  1.0010033E+03;  1.1304728E-01;  8.2766986E+02;3;  2.3275972E+01;  0.0000000E+00;  2.6481583E+01;0;  2.1469743E+00;  3.1486340E+04;  0.0000000E+00; -6.4475842E+00;  4.0000000E+04;  0.0000000E+00;  3.9855039E+04;  1.9987121E+00;  0.0000000E+00;  1.4826223E-01;  1.0036802E+04;
  1.0486671E+00;  9.9999998E-03;  2.8031215E-01;8482;  1.5579742E+00;  0.0000000E+00; -2.4517531E-02;  1.0008162E+03;  1.1303749E-01;  6.7335730E+02;3;  2.3604507E+01;  0.0000000E+00;  2.8057030E+01;0;  2.1056495E+00;  3.1484334E+04;  0.0000000E+00; -6.2610908E+00;  4.0000000E+04;  0.0000000E+00;  3.9851398E+04;  2.0096922E+00;  0.0000000E+00;  9.5957346E-02;  9.8915996E+03;
  1.0488994E+00;  9.9999998E-03;  2.9033422E-01;8483;  1.5612596E+00;  0.0000000E+00; -2.4969395E-02;  1.0006400E+03;  1.1302622E-01;  5.2799799E+02;3;  2.4356043E+01;  0.0000000E+00;  2.6512323E+01;0;  2.0894258E+00;  3.1478244E+04;  0.0000000E+00; -4.3021293E+00;  4.0000000E+04;  0.0000000E+00;  3.9855523E+04;  2.0195515E+00;  0.0000000E+00;  6.9874249E-02;  6.8658618E+03;
  1.0491706E+00;  9.9999998E-03;  3.0035648E-01;8484;  1.5646685E+00;  0.0000000E+00; -2.4478467E-02;  1.0003666E+03;  1.1301304E-01;  3.0239630E+02;3;  2.4701132E+01;  0.0000000E+00;  2.4040014E+01;0;  2.0859299E+00;  3.1468188E+04;  0.0000000E+00;  2.7739173E-02;  4.0000000E+04;  0.0000000E+00;  3.9859578E+04;  2.0287211E+00;  0.0000000E+00;  5.7208832E-02;  1.3931333E+03;
  1.0593482E+00;  9.9999998E-03;  2.4016747E-01;8539;  1.5072213E+00;  0.0000000E+00; -3.6280692E-02;  1.0011438E+03;  1.1218201E-01;  9.4291302E+02;3;  4.4190987E+01;  0.0000000E+00;  4.1195187E+01;0;  1.7242304E+00;  3.1949875E+04;  0.0000000E+00; -5.5503683E+00;  4.0000000E+04;  0.0000000E+00;  3.9887441E+04;  1.6735970E+00;  0.0000000E+00;  5.0633382E-02;  8.3221289E+03;
  1.0594630E+00;  9.9999998E-03;  2.5019738E-01;8540;  1.5307066E+00;  0.0000000E+00; -3.1625893E-02;  1.0012294E+03;  1.1217693E-01;  1.0134632E+03;3;  4.6768208E+01;  0.0000000E+00;  4.1496262E+01;0;  1.7491428E+00;  3.1959076E+04;  0.0000000E+00; -7.3463240E+00;  4.0000000E+04;  0.0000000E+00;  3.9887188E+04;  1.6623511E+00;  0.0000000E+00;  8.6791582E-02;  1.0987128E+04;
  1.0596542E+00;  9.9999998E-03;  2.6022926E-01;8541;  1.5510269E+00;  0.0000000E+00; -2.5275042E-02;  1.0012133E+03;  1.1217057E-01;  1.0001824E+03;3;  2.8861210E+01;  0.0000000E+00;  2.8974270E+01;0;  1.8000501E+00;  3.1963920E+04;  0.0000000E+00; -9.2945032E+00;  4.0000000E+04;  0.0000000E+00;  3.9885863E+04;  1.6480850E+00;  0.0000000E+00;  1.5196510E-01;  1.3947190E+04;
  1.0598673E+00;  9.9999998E-03;  2.7027670E-01;8542;  1.5555530E+00;  0.0000000E+00; -2.7540052E-02;  1.0008963E+03;  1.1216233E-01;  7.3887323E+02;3;  2.3261715E+01;  0.0000000E+00;  2.4331263E+01;0;  1.7658358E+00;  3.1963873E+04;  0.0000000E+00; -1.0722903E+01;  4.0000000E+04;  0.0000000E+00;  3.9868117E+04;  1.6317236E+00;  0.0000000E+00;  1.3411215E-01;  1.6133631E+04;
  1.0600845E+00;  9.9999998E-03;  2.8030741E-01;8543;  1.5580754E+00;  0.0000000E+00; -3.0122193E-02;  1.0006055E+03;  1.1215278E-01;  4.9909244E+02;3;  2.4051003E+01;  0.0000000E+00;  2.5475798E+01;0;  1.7013602E+00;  3.1958406E+04;  0.0000000E+00; -1.0502522E+01;  4.0000000E+04;  0.0000000E+00;  3.9861008E+04;  1.6160492E+00;  0.0000000E+00;  8.5311078E-02;  1.5940159E+04;
  1.0603638E+00;  9.9999998E-03;  2.9032928E-01;8544;  1.5605611E+00;  0.0000000E+00; -2.8543282E-02;  1.0002975E+03;  1.1214028E-01;  2.4526649E+02;3;  2.4806042E+01;  0.0000000E+00;  2.4630539E+01;0;  1.6870623E+00;  3.1946250E+04;  0.0000000E+00; -7.5680723E+00;  4.0000000E+04;  0.0000000E+00;  3.9863676E+04;  1.6007876E+00;  0.0000000E+00;  8.6274676E-02;  1.1550840E+04;
  1.0607089E+00;  9.9999998E-03;  3.0035010E-01;8545;  1.5639461E+00;  0.0000000E+00; -2.7043585E-02;  9.9984344E+02;  1.1212571E-01; -1.2906616E+02;3;  2.5225735E+01;  0.0000000E+00;  2.3115257E+01;0;  1.6739700E+00;  3.1925902E+04;  0.0000000E+00; -5.4840934E-01;  4.0000000E+04;  0.0000000E+00;  3.9867840E+04;  1.5868806E+00;  0.0000000E+00;  8.7089427E-02;  1.0147573E+03;
  1.0701253E+00;  9.9999998E-03;  2.4018064E-01;8600;  1.5174884E+00;  0.0000000E+00; -4.4833753E-02;  1.0011369E+03;  1.1133920E-01;  9.3640076E+02;3;  4.5748898E+01;  0.0000000E+00;  4.0272915E+01;0;  1.4817001E+00;  3.2427074E+04;  0.0000000E+00; -7.1127143E+00;  4.0000000E+04;  0.0000000E+00;  3.9892898E+04;  1.4515878E+00;  0.0000000E+00;  3.0112300E-02;  1.0315264E+04;
  1.0702685E+00;  9.9999998E-03;  2.5020978E-01;8601;  1.5383011E+00;  0.0000000E+00; -4.0239207E-02;  1.0012453E+03;  1.1133381E-01;  1.0256392E+03;3;  4.6564365E+01;  0.0000000E+00;  3.9120407E+01;0;  1.4673538E+00;  3.2438998E+04;  0.0000000E+00; -9.2806616E+00;  4.0000000E+04;  0.0000000E+00;  3.9891688E+04;  1.4074496E+00;  0.0000000E+00;  5.9904221E-02;  1.3413026E+04;
  1.0704286E+00;  9.9999998E-03;  2.6023734E-01;8602;  1.5512085E+00;  0.0000000E+00; -3.4126226E-02;  1.0012723E+03;  1.1132801E-01;  1.0479125E+03;3;  2.5676735E+01;  0.0000000E+00;  3.3292603E+01;0;  1.4766014E+00;  3.2445537E+04;  0.0000000E+00; -1.1361174E+01;  4.0000000E+04;  0.0000000E+00;  3.9891148E+04;  1.3646263E+00;  0.0000000E+00;  1.1197510E-01;  1.6491973E+04;
  1.0706224E+00;  9.9999998E-03;  2.7027932E-01;8603;  1.5546789E+00;  0.0000000E+00; -2.9209612E-02;  1.0010026E+03;  1.1132062E-01;  8.2580731E+02;3;  2.3442122E+01;  0.0000000E+00;  2.3520432E+01;0;  1.4916110E+00;  3.2446436E+04;  0.0000000E+00; -1.2683034E+01;  4.0000000E+04;  0.0000000E+00;  3.9876141E+04;  1.3224695E+00;  0.0000000E+00;  1.6914149E-01;  1.8423695E+04;
  1.0708460E+00;  9.9999998E-03;  2.8031218E-01;8604;  1.5570199E+00;  0.0000000E+00; -3.1651501E-02;  1.0006427E+03;  1.1131083E-01;  5.2928790E+02;3;  2.4275438E+01;  0.0000000E+00;  2.3819355E+01;0;  1.4099379E+00;  3.2440297E+04;  0.0000000E+00; -1.1980093E+01;  4.0000000E+04;  0.0000000E+00;  3.9864684E+04;  1.2836436E+00;  0.0000000E+00;  1.2629421E-01;  1.7523283E+04;
  1.0711434E+00;  9.9999998E-03;  2.9033333E-01;8605;  1.5595249E+00;  0.0000000E+00; -3.0767946E-02;  1.0002522E+03;  1.1129806E-01;  2.0774323E+02;3;  2.4967955E+01;  0.0000000E+00;  2.4180212E+01;0;  1.3643515E+00;  3.2424840E+04;  0.0000000E+00; -7.8035808E+00;  4.0000000E+04;  0.0000000E+00;  3.9865633E+04;  1.2480677E+00;  0.0000000E+00;  1.1628372E-01;  1.1459286E+04;
  1.0714966E+00;  9.9999998E-03;  3.0035326E-01;8606;  1.5628941E+00;  0.0000000E+00; -2.8573811E-02;  9.9966858E+02;  1.1128329E-01; -2.7292441E+02;3;  2.5137375E+01;  0.0000000E+00;  1.9911192E+01;0;  1.3447701E+00;  3.2397590E+04;  0.0000000E+00;  1.9173406E+00;  4.0000000E+04;  0.0000000E+00;  3.9868707E+04;  1.2169049E+00;  0.0000000E+00;  1.2786521E-01;  2.8649841E+03;
  1.0807499E+00;  9.9999998E-03;  2.4021135E-01;8661;  1.5250759E+00;  0.0000000E+00; -5.2837063E-02;  1.0010316E+03;  1.1053672E-01;  8.4885236E+02;3;  4.5204502E+01;  0.0000000E+00;  3.6141766E+01;0;  1.2726156E+00;  3.2891395E+04;  0.0000000E+00; -8.2912827E+00;  4.0000000E+04;  0.0000000E+00;  3.9891750E+04;  1.2649913E+00;  0.0000000E+00;  7.6242941E-03;  1.1437575E+04;
  1.0808761E+00;  9.9999998E-03;  2.5022992E-01;8662;  1.5430825E+00;  0.0000000E+00; -4.8769414E-02;  1.0012364E+03;  1.1053139E-01;  1.0173542E+03;3;  4.3472221E+01;  0.0000000E+00;  3.4108196E+01;0;  1.2214082E+00;  3.2907684E+04;  0.0000000E+00; -1.0408027E+01;  4.0000000E+04;  0.0000000E+00;  3.9893016E+04;  1.1938868E+00;  0.0000000E+00;  2.7521497E-02;  1.4395561E+04;
  1.0810223E+00;  9.9999998E-03;  2.6024970E-01;8663;  1.5503908E+00;  0.0000000E+00; -4.2103510E-02;  1.0013602E+03;  1.1052550E-01;  1.1191514E+03;3;  2.2906860E+01;  0.0000000E+00;  3.2808933E+01;0;  1.1996276E+00;  3.2918211E+04;  0.0000000E+00; -1.2277436E+01;  4.0000000E+04;  0.0000000E+00;  3.9895555E+04;  1.1256433E+00;  0.0000000E+00;  7.3984332E-02;  1.7115059E+04;
  1.0812120E+00;  9.9999998E-03;  2.7028683E-01;8664;  1.5533220E+00;  0.0000000E+00; -3.0800212E-02;  1.0011649E+03;  1.1051813E-01;  9.5846930E+02;3;  2.4065014E+01;  0.0000000E+00;  2.5206583E+01;0;  1.2587529E+00;  3.2922008E+04;  0.0000000E+00; -1.3313007E+01;  4.0000000E+04;  0.0000000E+00;  3.9882832E+04;  1.0611975E+00;  0.0000000E+00;  1.9755541E-01;  1.8560982E+04;
  1.0814629E+00;  9.9999998E-03;  2.8032148E-01;8665;  1.5559585E+00;  0.0000000E+00; -3.2074414E-02;  1.0007571E+03;  1.1050797E-01;  6.2291052E+02;3;  2.4147980E+01;  0.0000000E+00;  2.1754622E+01;0;  1.1789730E+00;  3.2916727E+04;  0.0000000E+00; -1.2332975E+01;  4.0000000E+04;  0.0000000E+00;  3.9867273E+04;  1.0026411E+00;  0.0000000E+00;  1.7633188E-01;  1.7299371E+04;
  1.0817996E+00;  9.9999998E-03;  2.9034331E-01;8666;  1.5583826E+00;  0.0000000E+00; -3.2519363E-02;  1.0002675E+03;  1.1049465E-01;  2.2008545E+02;3;  2.5363508E+01;  0.0000000E+00;  2.2048248E+01;0;  1.0967550E+00;  3.2897938E+04;  0.0000000E+00; -7.3117490E+00;  4.0000000E+04;  0.0000000E+00;  3.9864992E+04;  9.4963127E-01;  0.0000000E+00;  1.4712372E-01;  1.0305633E+04;
  1.0821797E+00;  9.9999998E-03;  3.0036122E-01;8667;  1.5612735E+00;  0.0000000E+00; -3.0003719E-02;  9.9957465E+02;  1.1047981E-01; -3.4992599E+02;3;  2.6042881E+01;  0.0000000E+00;  1.9313576E+01;0;  1.0652152E+00;  3.2863504E+04;  0.0000000E+00;  4.9236817E+00;  4.0000000E+04;  0.0000000E+00;  3.9868562E+04;  9.0346402E-01;  0.0000000E+00;  1.6175120E-01;  7.1173306E+03;
  1.0913688E+00;  9.9999998E-03;  2.4025218E-01;8722;  1.5322934E+00;  0.0000000E+00; -5.9179112E-02;  1.0007462E+03;  1.0977684E-01;  6.1331238E+02;3;  4.4302845E+01;  0.0000000E+00;  3.0051260E+01;0;  1.0993280E+00;  3.3333113E+04;  0.0000000E+00; -9.0174913E+00;  4.0000000E+04;  0.0000000E+00;  3.9886047E+04;  1.1127973E+00;  0.0000000E+00; -1.3469272E-02;  1.1730034E+04;
  1.0914700E+00;  9.9999998E-03;  2.5025845E-01;8723;  1.5456393E+00;  0.0000000E+00; -5.6539886E-02;  1.0010632E+03;  1.0977161E-01;  8.7381256E+02;3;  3.8005798E+01;  0.0000000E+00;  2.8367474E+01;0;  1.0109864E+00;  3.3354730E+04;  0.0000000E+00; -1.0815052E+01;  4.0000000E+04;  0.0000000E+00;  3.9889914E+04;  1.0195341E+00;  0.0000000E+00; -8.5477028E-03;  1.4163072E+04;
  1.0915985E+00;  9.9999998E-03;  2.6026887E-01;8724;  1.5490084E+00;  0.0000000E+00; -4.9143311E-02;  1.0013093E+03;  1.0976537E-01;  1.0760104E+03;3;  2.1649817E+01;  0.0000000E+00;  3.0252998E+01;0;  9.6509594E-01;  3.3370508E+04;  0.0000000E+00; -1.2258509E+01;  4.0000000E+04;  0.0000000E+00;  3.9896277E+04;  9.2997921E-01;  0.0000000E+00;  3.5116758E-02;  1.6253242E+04;
  1.0917857E+00;  9.9999998E-03;  2.7029786E-01;8725;  1.5514427E+00;  0.0000000E+00; -3.4516923E-02;  1.0012429E+03;  1.0975759E-01;  1.0214180E+03;3;  2.4803543E+01;  0.0000000E+00;  2.8597088E+01;0;  1.0373517E+00;  3.3378688E+04;  0.0000000E+00; -1.3039658E+01;  4.0000000E+04;  0.0000000E+00;  3.9888871E+04;  8.4748554E-01;  0.0000000E+00;  1.8986617E-01;  1.7355371E+04;
  1.0920664E+00;  9.9999998E-03;  2.8033242E-01;8726;  1.5547471E+00;  0.0000000E+00; -3.1358827E-02;  1.0008210E+03;  1.0974637E-01;  6.7468530E+02;3;  2.4830521E+01;  0.0000000E+00;  2.0501442E+01;0;  1.0073764E+00;  3.3374301E+04;  0.0000000E+00; -1.2178511E+01;  4.0000000E+04;  0.0000000E+00;  3.9871828E+04;  7.7392364E-01;  0.0000000E+00;  2.3345284E-01;  1.6316780E+04;
  1.0924546E+00;  9.9999998E-03;  2.9035589E-01;8727;  1.5570824E+00;  0.0000000E+00; -3.2149423E-02;  1.0001916E+03;  1.0973241E-01;  1.5742247E+02;3;  2.5546604E+01;  0.0000000E+00;  1.8429188E+01;0;  9.1139734E-01;  3.3350395E+04;  0.0000000E+00; -6.7672482E+00;  4.0000000E+04;  0.0000000E+00;  3.9865461E+04;  7.0732582E-01;  0.0000000E+00;  2.0407149E-01;  9.1463174E+03;
  1.0928546E+00;  9.9999998E-03;  3.0037275E-01;8728;  1.5595479E+00;  0.0000000E+00; -3.1076960E-02;  9.9937305E+02;  1.0971845E-01; -5.1519812E+02;3;  2.6523176E+01;  0.0000000E+00;  1.8026251E+01;0;  8.4241647E-01;  3.3307695E+04;  0.0000000E+00;  8.1103821E+00;  4.0000000E+04;  0.0000000E+00;  3.9868383E+04;  6.4986581E-01;  0.0000000E+00;  1.9255064E-01;  1.1270581E+04;
  1.1020763E+00;  9.9999998E-03;  2.4030133E-01;8783;  1.5447347E+00;  0.0000000E+00; -6.1814699E-02;  1.0002014E+03;  1.0906076E-01;  1.6524886E+02;3;  4.0179287E+01;  0.0000000E+00;  2.2789732E+01;0;  9.7316867E-01;  3.3744406E+04;  0.0000000E+00; -9.5127487E+00;  4.0000000E+04;  0.0000000E+00;  3.9875477E+04;  9.9720699E-01;  0.0000000E+00; -2.4038296E-02;  1.1636314E+04;
  1.1021240E+00;  9.9999998E-03;  2.5029683E-01;8784;  1.5474406E+00;  0.0000000E+00; -6.1626915E-02;  1.0006146E+03;  1.0905515E-01;  5.0445081E+02;3;  3.0770367E+01;  0.0000000E+00;  2.2032835E+01;0;  8.4726238E-01;  3.3771664E+04;  0.0000000E+00; -1.0748787E+01;  4.0000000E+04;  0.0000000E+00;  3.9880859E+04;  8.8407457E-01;  0.0000000E+00; -3.6812205E-02;  1.3181659E+04;
  1.1022184E+00;  9.9999998E-03;  2.6029503E-01;8785;  1.5478178E+00;  0.0000000E+00; -5.6365047E-02;  1.0010199E+03;  1.0904920E-01;  8.3708777E+02;3;  2.0298084E+01;  0.0000000E+00;  2.6383520E+01;0;  7.5922942E-01;  3.3793703E+04;  0.0000000E+00; -1.1598111E+01;  4.0000000E+04;  0.0000000E+00;  3.9892449E+04;  7.7801657E-01;  0.0000000E+00; -1.8787174E-02;  1.4442076E+04;
  1.1024035E+00;  9.9999998E-03;  2.7031147E-01;8786;  1.5494032E+00;  0.0000000E+00; -4.0529646E-02;  1.0011293E+03;  1.0904048E-01;  9.2687762E+02;3;  2.4686634E+01;  0.0000000E+00;  3.1962524E+01;0;  8.2211816E-01;  3.3806078E+04;  0.0000000E+00; -1.2322535E+01;  4.0000000E+04;  0.0000000E+00;  3.9894602E+04;  6.8171990E-01;  0.0000000E+00;  1.4039823E-01;  1.5611397E+04;
  1.1027198E+00;  9.9999998E-03;  2.8034317E-01;8787;  1.5530770E+00;  0.0000000E+00; -3.0709367E-02;  1.0007086E+03;  1.0902882E-01;  5.8149847E+02;3;  2.5823212E+01;  0.0000000E+00;  2.2254696E+01;0;  8.7403023E-01;  3.3800465E+04;  0.0000000E+00; -1.2090265E+01;  4.0000000E+04;  0.0000000E+00;  3.9879781E+04;  5.9761578E-01;  0.0000000E+00;  2.7641445E-01;  1.5507773E+04;
  1.1031765E+00;  9.9999998E-03;  2.9036847E-01;8788;  1.5557698E+00;  0.0000000E+00; -2.9830711E-02;  9.9985840E+02;  1.0901351E-01; -1.1621396E+02;3;  2.6080093E+01;  0.0000000E+00;  1.5648894E+01;0;  8.0311227E-01;  3.3765512E+04;  0.0000000E+00; -6.4532490E+00;  4.0000000E+04;  0.0000000E+00;  3.9869984E+04;  5.2217203E-01;  0.0000000E+00;  2.8094026E-01;  8.3993115E+03;
  1.1035599E+00;  9.9999998E-03;  3.0038467E-01;8789;  1.5577692E+00;  0.0000000E+00; -3.0341746E-02;  9.9892902E+02;  1.0900128E-01; -8.7879584E+02;3;  2.7227974E+01;  0.0000000E+00;  1.5129475E+01;0;  7.0138472E-01;  3.3715207E+04;  0.0000000E+00;  1.1929239E+01;  4.0000000E+04;  0.0000000E+00;  3.9871832E+04;  4.5735919E-01;  0.0000000E+00;  2.4402554E-01;  1.5919473E+04;
  1.1129010E+00;  9.9999998E-03;  2.4031895E-01;8844;  1.5551535E+00;  0.0000000E+00; -6.6256225E-02;  9.9957294E+02;  1.0838829E-01; -3.4993475E+02;3;  7.1899509E+00;  0.0000000E+00;  1.8483549E+01;0;  8.6302781E-01;  3.4121293E+04;  0.0000000E+00; -1.0265323E+01;  4.0000000E+04;  0.0000000E+00;  3.9876664E+04;  9.1747713E-01;  0.0000000E+00; -5.4449316E-02;  1.1955530E+04;
  1.1129358E+00;  9.9999998E-03;  2.5031751E-01;8845;  1.5503541E+00;  0.0000000E+00; -6.5318979E-02;  1.0000009E+03;  1.0838352E-01;  6.8374854E-01;3;  1.1147220E+01;  0.0000000E+00;  2.1005392E+01;0;  7.1954066E-01;  3.4149703E+04;  0.0000000E+00; -1.1452678E+01;  4.0000000E+04;  0.0000000E+00;  3.9881566E+04;  7.8866315E-01;  0.0000000E+00; -6.9122478E-02;  1.3416122E+04;
  1.1129959E+00;  9.9999998E-03;  2.6031923E-01;8846;  1.5463734E+00;  0.0000000E+00; -6.1085708E-02;  1.0004219E+03;  1.0837675E-01;  3.4568036E+02;3;  1.8155489E+01;  0.0000000E+00;  2.3509232E+01;0;  6.0370064E-01;  3.4175391E+04;  0.0000000E+00; -1.2074477E+01;  4.0000000E+04;  0.0000000E+00;  3.9890812E+04;  6.6803116E-01;  0.0000000E+00; -6.4330548E-02;  1.4343460E+04;
  1.1131605E+00;  9.9999998E-03;  2.7033040E-01;8847;  1.5470724E+00;  0.0000000E+00; -4.9532004E-02;  1.0006153E+03;  1.0836732E-01;  5.0409961E+02;3;  2.3817621E+01;  0.0000000E+00;  3.0817057E+01;0;  5.9906191E-01;  3.4190520E+04;  0.0000000E+00; -1.2904662E+01;  4.0000000E+04;  0.0000000E+00;  3.9896953E+04;  5.6191480E-01;  0.0000000E+00;  3.7147082E-02;  1.5728442E+04;
  1.1135167E+00;  9.9999998E-03;  2.8035170E-01;8848;  1.5503962E+00;  0.0000000E+00; -3.3821914E-02;  1.0002109E+03;  1.0835440E-01;  1.7277663E+02;3;  2.6920639E+01;  0.0000000E+00;  2.9442339E+01;0;  7.1618807E-01;  3.4176996E+04;  0.0000000E+00; -1.3427032E+01;  4.0000000E+04;  0.0000000E+00;  3.9893508E+04;  4.7040781E-01;  0.0000000E+00;  2.4578024E-01;  1.6858143E+04;
  1.1140587E+00;  9.9999998E-03;  2.9037625E-01;8849;  1.5537820E+00;  0.0000000E+00; -2.6768818E-02;  9.9900885E+02;  1.0833917E-01; -8.1199707E+02;3;  2.7427931E+01;  0.0000000E+00;  1.7348665E+01;0;  7.4516439E-01;  3.4118004E+04;  0.0000000E+00; -6.2995019E+00;  4.0000000E+04;  0.0000000E+00;  3.9884551E+04;  3.9082718E-01;  0.0000000E+00;  3.5433722E-01;  8.2263398E+03;
  1.1143070E+00;  9.9999998E-03;  3.0039495E-01;8850;  1.5553510E+00;  0.0000000E+00; -2.8335182E-02;  9.9814282E+02;  1.0833023E-01; -1.5213882E+03;3;  2.8397854E+01;  0.0000000E+00;  1.3430697E+01;0;  6.2582088E-01;  3.4073617E+04;  0.0000000E+00;  1.7671539E+01;  4.0000000E+04;  0.0000000E+00;  3.9881387E+04;  3.2209837E-01;  0.0000000E+00;  3.0372250E-01;  2.2772404E+04;
  1.1237729E+00;  9.9999998E-03;  2.4031755E-01;8905;  1.5549951E+00;  0.0000000E+00; -6.4861767E-02;  9.9889612E+02;  1.0775803E-01; -9.0277545E+02;3;  4.6228333E+00;  0.0000000E+00;  1.6178854E+01;0;  8.0212301E-01;  3.4468164E+04;  0.0000000E+00; -1.1516985E+01;  4.0000000E+04;  0.0000000E+00;  3.9886199E+04;  8.6542970E-01;  0.0000000E+00; -6.3306674E-02;  1.2929078E+04;
  1.1237587E+00;  9.9999998E-03;  2.5032169E-01;8906;  1.5487421E+00;  0.0000000E+00; -6.2755898E-02;  9.9935620E+02;  1.0775400E-01; -5.2650665E+02;3;  9.6297331E+00;  0.0000000E+00;  1.7579849E+01;0;  6.6306567E-01;  3.4496574E+04;  0.0000000E+00; -1.2522354E+01;  4.0000000E+04;  0.0000000E+00;  3.9892879E+04;  7.2797877E-01;  0.0000000E+00; -6.4913072E-02;  1.4188298E+04;
  1.1238273E+00;  9.9999998E-03;  2.6033172E-01;8907;  1.5445433E+00;  0.0000000E+00; -5.8712088E-02;  9.9970941E+02;  1.0774784E-01; -2.3763414E+02;3;  1.8426649E+01;  0.0000000E+00;  1.9217691E+01;0;  5.4777598E-01;  3.4519480E+04;  0.0000000E+00; -1.3699572E+01;  4.0000000E+04;  0.0000000E+00;  3.9899727E+04;  5.9948319E-01;  0.0000000E+00; -5.1707208E-02;  1.5881737E+04;
  1.1240371E+00;  9.9999998E-03;  2.7034456E-01;8908;  1.5447366E+00;  0.0000000E+00; -5.0567888E-02;  9.9976617E+02;  1.0773776E-01; -1.9122081E+02;3;  2.3427023E+01;  0.0000000E+00;  2.6681416E+01;0;  5.0586915E-01;  3.4525637E+04;  0.0000000E+00; -1.5834340E+01;  4.0000000E+04;  0.0000000E+00;  3.9906254E+04;  4.8669422E-01;  0.0000000E+00;  1.9174909E-02;  1.9021086E+04;
  1.1244787E+00;  9.9999998E-03;  2.8036124E-01;8909;  1.5472443E+00;  0.0000000E+00; -3.7342623E-02;  9.9907373E+02;  1.0772413E-01; -7.5741010E+02;3;  2.7273016E+01;  0.0000000E+00;  3.0387693E+01;0;  5.8364111E-01;  3.4487973E+04;  0.0000000E+00; -1.6985512E+01;  4.0000000E+04;  0.0000000E+00;  3.9909145E+04;  3.8959870E-01;  0.0000000E+00;  1.9404241E-01;  2.1193336E+04;
  1.1250839E+00;  9.9999998E-03;  2.9037943E-01;8910;  1.5504737E+00;  0.0000000E+00; -2.6369676E-02;  9.9742822E+02;  1.0770948E-01; -2.1027124E+03;3;  2.8858612E+01;  0.0000000E+00;  2.2334436E+01;0;  6.7331421E-01;  3.4391145E+04;  0.0000000E+00; -4.6677017E+00;  4.0000000E+04;  0.0000000E+00;  3.9908785E+04;  3.0747110E-01;  0.0000000E+00;  3.6584309E-01;  7.5943564E+03;
  1.1249934E+00;  9.9999998E-03;  3.0040368E-01;8911;  1.5518135E+00;  0.0000000E+00; -2.6315587E-02;  9.9724988E+02;  1.0770702E-01; -2.2485632E+03;3;  3.0014027E+01;  0.0000000E+00;  1.4432363E+01;0;  5.8430064E-01;  3.4396539E+04;  0.0000000E+00;  2.5753397E+01;  4.0000000E+04;  0.0000000E+00;  3.9896250E+04;  2.3624840E-01;  0.0000000E+00;  3.4805220E-01;  3.2089240E+04;
  1.1347247E+00;  9.9999998E-03;  2.4030910E-01;8965;  1.5537001E+00;  0.0000000E+00; -6.1063718E-02;  9.9813971E+02;  1.0716980E-01; -1.5179292E+03;3;  3.9641557E+00;  0.0000000E+00;  1.2716560E+01;0;  7.8001720E-01;  3.4784539E+04;  0.0000000E+00; -1.4361484E+01;  4.0000000E+04;  0.0000000E+00;  3.9900500E+04;  8.4618020E-01;  0.0000000E+00; -6.6163026E-02;  1.5919317E+04;
  1.1346292E+00;  9.9999998E-03;  2.5032976E-01;8966;  1.5466774E+00;  0.0000000E+00; -5.8360782E-02;  9.9855133E+02;  1.0716726E-01; -1.1821229E+03;3;  9.6087046E+00;  0.0000000E+00;  1.3576960E+01;0;  6.4751846E-01;  3.4812363E+04;  0.0000000E+00; -1.5138376E+01;  4.0000000E+04;  0.0000000E+00;  3.9903223E+04;  7.0287460E-01;  0.0000000E+00; -5.5356134E-02;  1.6773180E+04;
  1.1346611E+00;  9.9999998E-03;  2.6035082E-01;8967;  1.5430453E+00;  0.0000000E+00; -5.6193583E-02;  9.9880804E+02;  1.0716218E-01; -9.7263635E+02;3;  1.8200207E+01;  0.0000000E+00;  1.3272024E+01;0;  5.2100396E-01;  3.4832719E+04;  0.0000000E+00; -1.6464037E+01;  4.0000000E+04;  0.0000000E+00;  3.9904438E+04;  5.7048029E-01;  0.0000000E+00; -4.9476318E-02;  1.8507424E+04;
  1.1349095E+00;  9.9999998E-03;  2.7036569E-01;8968;  1.5420656E+00;  0.0000000E+00; -5.2745838E-02;  9.9862939E+02;  1.0715273E-01; -1.1183386E+03;3;  2.2922497E+01;  0.0000000E+00;  1.8473164E+01;0;  4.2237335E-01;  3.4823285E+04;  0.0000000E+00; -1.9791550E+01;  4.0000000E+04;  0.0000000E+00;  3.9910148E+04;  4.5189661E-01;  0.0000000E+00; -2.9523263E-02;  2.3123277E+04;
  1.1354588E+00;  9.9999998E-03;  2.8037483E-01;8969;  1.5432423E+00;  0.0000000E+00; -4.4055864E-02;  9.9744604E+02;  1.0713901E-01; -2.0836121E+03;3;  2.7084396E+01;  0.0000000E+00;  2.6811174E+01;0;  4.2537448E-01;  3.4744145E+04;  0.0000000E+00; -2.0430433E+01;  4.0000000E+04;  0.0000000E+00;  3.9922879E+04;  3.4943560E-01;  0.0000000E+00;  7.5938873E-02;  2.5103377E+04;
  1.1360213E+00;  9.9999998E-03;  2.9038492E-01;8970;  1.5456640E+00;  0.0000000E+00; -3.2989018E-02;  9.9553497E+02;  1.0712774E-01; -3.6423086E+03;3;  3.0077499E+01;  0.0000000E+00;  2.7093933E+01;0;  5.0644892E-01;  3.4617734E+04;  0.0000000E+00;  1.4081311E+00;  4.0000000E+04;  0.0000000E+00;  3.9933086E+04;  2.6382044E-01;  0.0000000E+00;  2.4262850E-01;  8.0980825E+03;
  1.1455151E+00;  9.9999998E-03;  2.4031110E-01;9024;  1.5516381E+00;  0.0000000E+00; -5.5351764E-02;  9.9752417E+02;  1.0663012E-01; -2.0149963E+03;3;  3.8196988E+00;  0.0000000E+00;  8.5673084E+00;0;  7.9641199E-01;  3.5085969E+04;  0.0000000E+00; -1.6671478E+01;  4.0000000E+04;  0.0000000E+00;  3.9912293E+04;  8.5839194E-01;  0.0000000E+00; -6.1979931E-02;  1.7965330E+04;
  1.1453917E+00;  9.9999998E-03;  2.5034693E-01;9025;  1.5449874E+00;  0.0000000E+00; -5.3495053E-02;  9.9782251E+02;  1.0662795E-01; -1.7722135E+03;3;  1.1856593E+01;  0.0000000E+00;  7.4781780E+00;0;  6.6373897E-01;  3.5110430E+04;  0.0000000E+00; -1.7358047E+01;  4.0000000E+04;  0.0000000E+00;  3.9909457E+04;  7.1175987E-01;  0.0000000E+00; -4.8020903E-02;  1.8535354E+04;
  1.1454306E+00;  9.9999998E-03;  2.6037660E-01;9026;  1.5416330E+00;  0.0000000E+00; -5.3576041E-02;  9.9789465E+02;  1.0662360E-01; -1.7134976E+03;3;  1.7568571E+01;  0.0000000E+00;  8.0307856E+00;0;  5.1970732E-01;  3.5123090E+04;  0.0000000E+00; -1.9327692E+01;  4.0000000E+04;  0.0000000E+00;  3.9905008E+04;  5.7664645E-01;  0.0000000E+00; -5.6939155E-02;  2.0899336E+04;
  1.1457191E+00;  9.9999998E-03;  2.7039334E-01;9027;  1.5395762E+00;  0.0000000E+00; -5.2969895E-02;  9.9738068E+02;  1.0661456E-01; -2.1316460E+03;3;  2.1837919E+01;  0.0000000E+00;  1.1081944E+01;0;  3.8605392E-01;  3.5092004E+04;  0.0000000E+00; -2.3381199E+01;  4.0000000E+04;  0.0000000E+00;  3.9909195E+04;  4.5285964E-01;  0.0000000E+00; -6.6805735E-02;  2.6348812E+04;
  1.1462994E+00;  9.9999998E-03;  2.8039864E-01;9028;  1.5390466E+00;  0.0000000E+00; -4.9761225E-02;  9.9571423E+02;  1.0660316E-01; -3.4872788E+03;3;  2.6547085E+01;  0.0000000E+00;  1.6423744E+01;0;  3.0282217E-01;  3.4974137E+04;  0.0000000E+00; -2.0280497E+01;  4.0000000E+04;  0.0000000E+00;  3.9926531E+04;  3.4358051E-01;  0.0000000E+00; -4.0758334E-02;  2.4353760E+04;
  1.1466477E+00;  9.9999998E-03;  2.9040653E-01;9029;  1.5402404E+00;  0.0000000E+00; -4.3462444E-02;  9.9411224E+02;  1.0659762E-01; -4.7903667E+03;3;  3.0641764E+01;  0.0000000E+00;  2.2311895E+01;0;  2.9529312E-01;  3.4863277E+04;  0.0000000E+00;  1.2401845E+01;  4.0000000E+04;  0.0000000E+00;  3.9938195E+04;  2.5128263E-01;  0.0000000E+00;  4.4010486E-02;  1.6926748E+04;
  1.1561488E+00;  9.9999998E-03;  2.4033567E-01;9083;  1.5497630E+00;  0.0000000E+00; -4.9356349E-02;  9.9706232E+02;  1.0613793E-01; -2.3837290E+03;3;  3.6577351E+00;  0.0000000E+00;  3.6111045E+00;0;  8.4082496E-01;  3.5378336E+04;  0.0000000E+00; -1.7854956E+01;  4.0000000E+04;  0.0000000E+00;  3.9914680E+04;  8.9875573E-01;  0.0000000E+00; -5.7930753E-02;  1.8259104E+04;
  1.1560160E+00;  9.9999998E-03;  2.5037992E-01;9084;  1.5441177E+00;  0.0000000E+00; -4.9510464E-02;  9.9725787E+02;  1.0613628E-01; -2.2251318E+03;3;  1.2053470E+01;  0.0000000E+00;  2.2299321E+00;0;  6.9731492E-01;  3.5400641E+04;  0.0000000E+00; -1.8066919E+01;  4.0000000E+04;  0.0000000E+00;  3.9906152E+04;  7.5094706E-01;  0.0000000E+00; -5.3632114E-02;  1.8151951E+04;
  1.1560824E+00;  9.9999998E-03;  2.6041240E-01;9085;  1.5403781E+00;  0.0000000E+00; -5.0658505E-02;  9.9712347E+02;  1.0613192E-01; -2.3341531E+03;3;  1.6715204E+01;  0.0000000E+00;  3.3645990E+00;0;  5.4328698E-01;  3.5402320E+04;  0.0000000E+00; -2.0711466E+01;  4.0000000E+04;  0.0000000E+00;  3.9898340E+04;  6.1221361E-01;  0.0000000E+00; -6.8926625E-02;  2.1223938E+04;
  1.1564159E+00;  9.9999998E-03;  2.7042881E-01;9086;  1.5374440E+00;  0.0000000E+00; -5.1144965E-02;  9.9621777E+02;  1.0612394E-01; -3.0687678E+03;3;  2.0651461E+01;  0.0000000E+00;  5.6569328E+00;0;  3.9626011E-01;  3.5343988E+04;  0.0000000E+00; -2.4770231E+01;  4.0000000E+04;  0.0000000E+00;  3.9901914E+04;  4.8308295E-01;  0.0000000E+00; -8.6822830E-02;  2.6698613E+04;
  1.1569327E+00;  9.9999998E-03;  2.8043318E-01;9087;  1.5356610E+00;  0.0000000E+00; -5.0320726E-02;  9.9429327E+02;  1.0611611E-01; -4.6295308E+03;3;  2.4984255E+01;  0.0000000E+00;  7.6796012E+00;0;  2.7791232E-01;  3.5205773E+04;  0.0000000E+00; -1.4630480E+01;  4.0000000E+04;  0.0000000E+00;  3.9918840E+04;  3.6647469E-01;  0.0000000E+00; -8.8562354E-02;  1.7493176E+04;
  1.1569431E+00;  9.9999998E-03;  2.9044846E-01;9088;  1.5350989E+00;  0.0000000E+00; -4.8971321E-02;  9.9371149E+02;  1.0611524E-01; -5.1014951E+03;3;  3.0103510E+01;  0.0000000E+00;  1.0773385E+01;0;  1.8393287E-01;  3.5172000E+04;  0.0000000E+00;  2.4665239E+01;  4.0000000E+04;  0.0000000E+00;  3.9917637E+04;  2.6183960E-01;  0.0000000E+00; -7.7906735E-02;  2.8108795E+04;
  1.1665232E+00;  9.9999998E-03;  2.5042641E-01;9143;  1.5436829E+00;  0.0000000E+00; -4.5433510E-02;  9.9690784E+02;  1.0568974E-01; -2.5006433E+03;3;  1.1180720E+01;  0.0000000E+00; -2.3373072E+00;0;  7.5180596E-01;  3.5687223E+04;  0.0000000E+00; -1.6922695E+01;  4.0000000E+04;  0.0000000E+00;  3.9893629E+04;  8.1329238E-01;  0.0000000E+00; -6.1486438E-02;  1.5567154E+04;
  1.1666324E+00;  9.9999998E-03;  2.4038199E-01;9142;  1.5490046E+00;  0.0000000E+00; -4.4081148E-02;  9.9680719E+02;  1.0569172E-01; -2.5819106E+03;3;  4.3423042E+00;  0.0000000E+00; -2.3359749E+00;0;  9.0334189E-01;  3.5668035E+04;  0.0000000E+00; -1.7067549E+01;  4.0000000E+04;  0.0000000E+00;  3.9905613E+04;  9.6266299E-01;  0.0000000E+00; -5.9321076E-02;  1.6062144E+04;
  1.1666306E+00;  9.9999998E-03;  2.6045713E-01;9144;  1.5393980E+00;  0.0000000E+00; -4.7144607E-02;  9.9655457E+02;  1.0568539E-01; -2.7862344E+03;3;  1.5469090E+01;  0.0000000E+00; -7.1685517E-01;0;  5.9117246E-01;  3.5675051E+04;  0.0000000E+00; -2.0282141E+01;  4.0000000E+04;  0.0000000E+00;  3.9884332E+04;  6.6993850E-01;  0.0000000E+00; -7.8766078E-02;  1.9426037E+04;
  1.1669737E+00;  9.9999998E-03;  2.7047169E-01;9145;  1.5356866E+00;  0.0000000E+00; -4.8208281E-02;  9.9533508E+02;  1.0567927E-01; -3.7719163E+03;3;  1.9501465E+01;  0.0000000E+00;  1.2390603E+00;0;  4.3658817E-01;  3.5594074E+04;  0.0000000E+00; -2.2462091E+01;  4.0000000E+04;  0.0000000E+00;  3.9887836E+04;  5.3410149E-01;  0.0000000E+00; -9.7513326E-02;  2.2937490E+04;
  1.1670327E+00;  9.9999998E-03;  2.9050258E-01;9147;  1.5312798E+00;  0.0000000E+00; -4.8347633E-02;  9.9446429E+02;  1.0567773E-01; -4.4759492E+03;3;  2.9179783E+01;  0.0000000E+00;  3.4024541E+00;0;  1.8615282E-01;  3.5547492E+04;  0.0000000E+00;  3.2869411E+01;  4.0000000E+04;  0.0000000E+00;  3.9882348E+04;  2.9161066E-01;  0.0000000E+00; -1.0545785E-01;  3.4070875E+04;
  1.1673880E+00;  9.9999998E-03;  2.8047675E-01;9146;  1.5329603E+00;  0.0000000E+00; -4.8423175E-02;  9.9337091E+02;  1.0567520E-01; -5.3593447E+03;3;  2.4242092E+01;  0.0000000E+00;  2.2837906E+00;0;  3.0256325E-01;  3.5452770E+04;  0.0000000E+00; -4.0005274E+00;  4.0000000E+04;  0.0000000E+00;  3.9901695E+04;  4.0873942E-01;  0.0000000E+00; -1.0617618E-01;  7.2868179E+03;
  1.1770004E+00;  9.9999998E-03;  2.4043918E-01;9200;  1.5491792E+00;  0.0000000E+00; -3.8509030E-02;  9.9683380E+02;  1.0528930E-01; -2.5504490E+03;3;  3.6452727E+00;  0.0000000E+00; -7.4190679E+00;0;  9.8414946E-01;  3.5957438E+04;  0.0000000E+00; -1.3913909E+01;  4.0000000E+04;  0.0000000E+00;  3.9889352E+04;  1.0415982E+00;  0.0000000E+00; -5.7448771E-02;  1.1528539E+04;
  1.1769476E+00;  9.9999998E-03;  2.5047892E-01;9201;  1.5435779E+00;  0.0000000E+00; -4.0554669E-02;  9.9681567E+02;  1.0528656E-01; -2.5650999E+03;3;  9.8907747E+00;  0.0000000E+00; -6.9975014E+00;0;  8.2773370E-01;  3.5970047E+04;  0.0000000E+00; -1.4181058E+01;  4.0000000E+04;  0.0000000E+00;  3.9876457E+04;  8.8930082E-01;  0.0000000E+00; -6.1567146E-02;  1.1543249E+04;
  1.1770880E+00;  9.9999998E-03;  2.6050606E-01;9202;  1.5387152E+00;  0.0000000E+00; -4.2757917E-02;  9.9626758E+02;  1.0528255E-01; -3.0064658E+03;3;  1.4261705E+01;  0.0000000E+00; -5.3431692E+00;0;  6.6089869E-01;  3.5944438E+04;  0.0000000E+00; -1.7853481E+01;  4.0000000E+04;  0.0000000E+00;  3.9867098E+04;  7.3993880E-01;  0.0000000E+00; -7.9040095E-02;  1.5767725E+04;
  1.1774334E+00;  9.9999998E-03;  2.7051875E-01;9203;  1.5343250E+00;  0.0000000E+00; -4.4441871E-02;  9.9475067E+02;  1.0527851E-01; -4.2277134E+03;3;  1.8698261E+01;  0.0000000E+00; -3.7588282E+00;0;  4.9701196E-01;  3.5841316E+04;  0.0000000E+00; -1.6837021E+01;  4.0000000E+04;  0.0000000E+00;  3.9870387E+04;  5.9592944E-01;  0.0000000E+00; -9.8917477E-02;  1.6180559E+04;
  1.1776550E+00;  9.9999998E-03;  2.8052884E-01;9204;  1.5305167E+00;  0.0000000E+00; -4.5394201E-02;  9.9331000E+02;  1.0527728E-01; -5.3875459E+03;3;  2.3541500E+01;  0.0000000E+00; -2.4110398E+00;0;  3.4830183E-01;  3.5742000E+04;  0.0000000E+00;  9.5354834E+00;  4.0000000E+04;  0.0000000E+00;  3.9874746E+04;  4.5832554E-01;  0.0000000E+00; -1.1002371E-01;  1.0362047E+04;
  1.1873289E+00;  9.9999998E-03;  2.4049690E-01;9257;  1.5500318E+00;  0.0000000E+00; -3.1923927E-02;  9.9707190E+02;  1.0492660E-01; -2.3481016E+03;3;  1.0694563E+00;  0.0000000E+00; -1.2178902E+01;0;  1.0797222E+00;  3.6238797E+04;  0.0000000E+00; -9.6737127E+00;  4.0000000E+04;  0.0000000E+00;  3.9871777E+04;  1.1232951E+00;  0.0000000E+00; -4.3572847E-02;  6.5972891E+03;
  1.1873357E+00;  9.9999998E-03;  2.5053114E-01;9258;  1.5436717E+00;  0.0000000E+00; -3.4419619E-02;  9.9692285E+02;  1.0492392E-01; -2.4676377E+03;3;  8.7708216E+00;  0.0000000E+00; -1.2139034E+01;0;  9.2023903E-01;  3.6242211E+04;  0.0000000E+00; -1.1032563E+01;  4.0000000E+04;  0.0000000E+00;  3.9859309E+04;  9.6552610E-01;  0.0000000E+00; -4.5287050E-02;  7.6962451E+03;
  1.1875150E+00;  9.9999998E-03;  2.6055557E-01;9259;  1.5381429E+00;  0.0000000E+00; -3.7230268E-02;  9.9610352E+02;  1.0492055E-01; -3.1244128E+03;3;  1.3343041E+01;  0.0000000E+00; -1.0473846E+01;0;  7.4535072E-01;  3.6197617E+04;  0.0000000E+00; -1.4911871E+01;  4.0000000E+04;  0.0000000E+00;  3.9849980E+04;  8.0836684E-01;  0.0000000E+00; -6.3016094E-02;  1.2148938E+04;
  1.1878287E+00;  9.9999998E-03;  2.7056777E-01;9260;  1.5328904E+00;  0.0000000E+00; -3.9407946E-02;  9.9440509E+02;  1.0491822E-01; -4.4856567E+03;3;  1.7899347E+01;  0.0000000E+00; -8.7282248E+00;0;  5.7170284E-01;  3.6081559E+04;  0.0000000E+00; -8.4461002E+00;  4.0000000E+04;  0.0000000E+00;  3.9851523E+04;  6.5345508E-01;  0.0000000E+00; -8.1752270E-02;  7.6997842E+03;
  1.1877698E+00;  9.9999998E-03;  2.8058639E-01;9261;  1.5284262E+00;  0.0000000E+00; -4.0935200E-02;  9.9431427E+02;  1.0491896E-01; -4.5586104E+03;3;  2.2830826E+01;  0.0000000E+00; -7.2193985E+00;0;  4.1179878E-01;  3.6087836E+04;  0.0000000E+00;  2.0846378E+01;  4.0000000E+04;  0.0000000E+00;  3.9841223E+04;  5.0410134E-01;  0.0000000E+00; -9.2302576E-02;  1.9051965E+04;
  1.1976923E+00;  9.9999998E-03;  2.4055178E-01;9314;  1.5544128E+00;  0.0000000E+00; -2.4979251E-02;  9.9729236E+02;  1.0460159E-01; -2.1601533E+03;3; -2.2261387E+01;  0.0000000E+00; -9.8339605E+00;0;  1.1819247E+00;  3.6494645E+04;  0.0000000E+00; -7.0047574E+00;  4.0000000E+04;  0.0000000E+00;  3.9854984E+04;  1.2048525E+00;  0.0000000E+00; -2.2927750E-02;  3.8677910E+03;
  1.1977500E+00;  9.9999998E-03;  2.5058085E-01;9315;  1.5437304E+00;  0.0000000E+00; -2.6837522E-02;  9.9696191E+02;  1.0459891E-01; -2.4237078E+03;3;  6.7629309E+00;  0.0000000E+00; -1.7167444E+01;0;  1.0165602E+00;  3.6484316E+04;  0.0000000E+00; -9.7904148E+00;  4.0000000E+04;  0.0000000E+00;  3.9844215E+04;  1.0234193E+00;  0.0000000E+00; -6.8590753E-03;  6.2524536E+03;
  1.1979531E+00;  9.9999998E-03;  2.6060396E-01;9316;  1.5372825E+00;  0.0000000E+00; -3.0271696E-02;  9.9583295E+02;  1.0459697E-01; -3.3240046E+03;3;  1.2727180E+01;  0.0000000E+00; -1.5917698E+01;0;  8.3175838E-01;  3.6417488E+04;  0.0000000E+00; -1.2162476E+01;  4.0000000E+04;  0.0000000E+00;  3.9834227E+04;  8.5555196E-01;  0.0000000E+00; -2.3793595E-02;  9.3592314E+03;
  1.1978111E+00;  9.9999998E-03;  2.8064287E-01;9318;  1.5268340E+00;  0.0000000E+00; -3.4265563E-02;  9.9628973E+02;  1.0459761E-01; -2.9598406E+03;3;  2.2395182E+01;  0.0000000E+00; -1.2728987E+01;0;  4.9541575E-01;  3.6479207E+04;  0.0000000E+00;  2.4245708E+01;  4.0000000E+04;  0.0000000E+00;  3.9809234E+04;  5.3399855E-01;  0.0000000E+00; -3.8582787E-02;  1.9753553E+04;
  1.1981519E+00;  9.9999998E-03;  2.7061975E-01;9317;  1.5313439E+00;  0.0000000E+00; -3.3229079E-02;  9.9440851E+02;  1.0459673E-01; -4.4597725E+03;3;  1.7312992E+01;  0.0000000E+00; -1.4154328E+01;0;  6.4411920E-01;  3.6325254E+04;  0.0000000E+00;  2.3461623E+00;  4.0000000E+04;  0.0000000E+00;  3.9829320E+04;  6.8937081E-01;  0.0000000E+00; -4.5251630E-02;  2.5768955E+03;
  1.2081274E+00;  9.9999998E-03;  2.4060348E-01;9370;  1.5796844E+00;  0.0000000E+00; -2.3643246E-02;  9.9720490E+02;  1.0431187E-01; -2.2166323E+03;3; -4.7982384E+01;  0.0000000E+00; -2.9539688E+00;0;  1.2960376E+00;  3.6704871E+04;  0.0000000E+00; -8.1873035E+00;  4.0000000E+04;  0.0000000E+00;  3.9839438E+04;  1.3561207E+00;  0.0000000E+00; -6.0083140E-02;  4.5664995E+03;
  1.2082313E+00;  9.9999998E-03;  2.5062439E-01;9371;  1.5453548E+00;  0.0000000E+00; -1.8173324E-02;  9.9661621E+02;  1.0430972E-01; -2.6833372E+03;3; -1.2518800E+01;  0.0000000E+00; -1.4749347E+01;0;  1.1013881E+00;  3.6670477E+04;  0.0000000E+00; -1.1609324E+01;  4.0000000E+04;  0.0000000E+00;  3.9834977E+04;  1.0515162E+00;  0.0000000E+00;  4.9871929E-02;  7.9567104E+03;
  1.2084005E+00;  9.9999998E-03;  2.6064944E-01;9372;  1.5359107E+00;  0.0000000E+00; -2.1410309E-02;  9.9535925E+02;  1.0430961E-01; -3.6797000E+03;3;  1.2117945E+01;  0.0000000E+00; -2.2816828E+01;0;  9.0635109E-01;  3.6596816E+04;  0.0000000E+00; -7.9717798E+00;  4.0000000E+04;  0.0000000E+00;  3.9821703E+04;  8.5768992E-01;  0.0000000E+00;  4.8661146E-02;  5.9712700E+03;
  1.2083677E+00;  9.9999998E-03;  2.7067047E-01;9373;  1.5296593E+00;  0.0000000E+00; -2.5084138E-02;  9.9521515E+02;  1.0431044E-01; -3.7940063E+03;3;  1.7118279E+01;  0.0000000E+00; -2.0431919E+01;0;  7.0969760E-01;  3.6602676E+04;  0.0000000E+00;  1.3243925E+01;  4.0000000E+04;  0.0000000E+00;  3.9807496E+04;  6.8435973E-01;  0.0000000E+00;  2.5337873E-02;  1.0357802E+04;
  1.2186141E+00;  9.9999998E-03;  2.4065636E-01;9425;  1.6129627E+00;  0.0000000E+00; -2.5314419E-02;  9.9662390E+02;  1.0405501E-01; -2.6590576E+03;3; -6.0270737E+01;  0.0000000E+00; -3.2523382E+00;0;  1.4025927E+00;  3.6860621E+04;  0.0000000E+00; -1.2731260E+01;  4.0000000E+04;  0.0000000E+00;  3.9820938E+04;  1.5361602E+00;  0.0000000E+00; -1.3356756E-01;  8.1638789E+03;
  1.2187499E+00;  9.9999998E-03;  2.5066718E-01;9426;  1.5627861E+00;  0.0000000E+00; -1.4673352E-02;  9.9573627E+02;  1.0405477E-01; -3.3578420E+03;3; -5.6619900E+01;  0.0000000E+00;  6.8223119E-01;0;  1.1677619E+00;  3.6795543E+04;  0.0000000E+00; -1.3413577E+01;  4.0000000E+04;  0.0000000E+00;  3.9825766E+04;  1.1313581E+00;  0.0000000E+00;  3.6403779E-02;  9.6323154E+03;
  1.2188245E+00;  9.9999998E-03;  2.6069051E-01;9427;  1.5347887E+00;  0.0000000E+00; -1.0691011E-02;  9.9482825E+02;  1.0405604E-01; -4.0727202E+03;3;  2.1511128E+00;  0.0000000E+00; -1.9321753E+01;0;  9.4877237E-01;  3.6745301E+04;  0.0000000E+00;  6.4799786E-01;  4.0000000E+04;  0.0000000E+00;  3.9813137E+04;  7.9833800E-01;  0.0000000E+00;  1.5043436E-01;  1.8949517E+03;
  1.2186205E+00;  9.9999998E-03;  2.7070853E-01;9428;  1.5264236E+00;  0.0000000E+00; -1.3224620E-02;  9.9601697E+02;  1.0405558E-01; -3.1370369E+03;3;  1.1311649E+01;  0.0000000E+00; -1.8868263E+01;0;  7.6282406E-01;  3.6844047E+04;  0.0000000E+00;  2.3734457E+01;  4.0000000E+04;  0.0000000E+00;  3.9800512E+04;  6.0797328E-01;  0.0000000E+00;  1.5485075E-01;  1.7176236E+04;
  1.2291080E+00;  9.9999998E-03;  2.4070604E-01;9479;  1.6416913E+00;  0.0000000E+00; -2.4693096E-02;  9.9566510E+02;  1.0382973E-01; -3.3874680E+03;3; -6.8289993E+01;  0.0000000E+00; -2.4939225E+00;0;  1.4852746E+00;  3.6967770E+04;  0.0000000E+00; -1.6981932E+01;  4.0000000E+04;  0.0000000E+00;  3.9802766E+04;  1.6713308E+00;  0.0000000E+00; -1.8605630E-01;  1.1293401E+04;
  1.2292455E+00;  9.9999998E-03;  2.5071114E-01;9480;  1.5882708E+00;  0.0000000E+00; -1.3696109E-02;  9.9451984E+02;  1.0383105E-01; -4.2819312E+03;3; -6.8014992E+01;  0.0000000E+00;  1.2190509E+00;0;  1.2165227E+00;  3.6877809E+04;  0.0000000E+00; -9.5933228E+00;  4.0000000E+04;  0.0000000E+00;  3.9813332E+04;  1.2229637E+00;  0.0000000E+00; -6.4409864E-03;  7.1574751E+03;
  1.2291797E+00;  9.9999998E-03;  2.6073006E-01;9481;  1.5490425E+00;  0.0000000E+00; -7.4787480E-03;  9.9455048E+02;  1.0383154E-01; -4.2582178E+03;3; -6.1134701E+01;  0.0000000E+00;  2.2383497E+00;0;  9.4106716E-01;  3.6891102E+04;  0.0000000E+00;  1.5206430E+01;  4.0000000E+04;  0.0000000E+00;  3.9804227E+04;  8.0907845E-01;  0.0000000E+00;  1.3198870E-01;  1.0749293E+04;
  1.2395763E+00;  9.9999998E-03;  2.4075168E-01;9532;  1.6634947E+00;  0.0000000E+00; -1.9752216E-02;  9.9446375E+02;  1.0363350E-01; -4.2877700E+03;3; -7.5376534E+01;  0.0000000E+00; -2.5588915E+00;0;  1.5382844E+00;  3.7036848E+04;  0.0000000E+00; -1.6172140E+01;  4.0000000E+04;  0.0000000E+00;  3.9785852E+04;  1.7221856E+00;  0.0000000E+00; -1.8390121E-01;  1.0524217E+04;
  1.2396345E+00;  9.9999998E-03;  2.5075772E-01;9533;  1.6135461E+00;  0.0000000E+00; -1.0961046E-02;  9.9364948E+02;  1.0363530E-01; -4.9181440E+03;3; -7.6557869E+01;  0.0000000E+00;  1.7040658E+00;0;  1.2538095E+00;  3.6971191E+04;  0.0000000E+00;  4.0184798E+00;  4.0000000E+04;  0.0000000E+00;  3.9794875E+04;  1.2792313E+00;  0.0000000E+00; -2.5421865E-02;  3.9392190E+03;
  1.2394623E+00;  9.9999998E-03;  2.6077810E-01;9534;  1.5817027E+00;  0.0000000E+00; -1.1510315E-02;  9.9454150E+02;  1.0363359E-01; -4.2279648E+03;3; -7.7356163E+01;  0.0000000E+00;  4.3266678E+00;0;  9.5067859E-01;  3.7049215E+04;  0.0000000E+00;  3.4557625E+01;  4.0000000E+04;  0.0000000E+00;  3.9781633E+04;  9.4182211E-01;  0.0000000E+00;  8.8564996E-03;  2.2613855E+04;
  1.2499624E+00;  9.9999998E-03;  2.4079473E-01;9584;  1.6784521E+00;  0.0000000E+00; -1.1454277E-02;  9.9350647E+02;  1.0346343E-01; -4.9789277E+03;3; -7.8977425E+01;  0.0000000E+00; -1.8094144E+00;0;  1.5350976E+00;  3.7106223E+04;  0.0000000E+00; -5.3418536E+00;  4.0000000E+04;  0.0000000E+00;  3.9768363E+04;  1.6670173E+00;  0.0000000E+00; -1.3191979E-01;  4.0071853E+03;
  1.2498842E+00;  9.9999998E-03;  2.5080824E-01;9585;  1.6392819E+00;  0.0000000E+00; -7.9342080E-03;  9.9370099E+02;  1.0346305E-01; -4.8301895E+03;3; -8.1931732E+01;  0.0000000E+00;  1.4352987E+00;0;  1.2720608E+00;  3.7122340E+04;  0.0000000E+00;  2.4898848E+01;  4.0000000E+04;  0.0000000E+00;  3.9767508E+04;  1.3114643E+00;  0.0000000E+00; -3.9403502E-02;  1.5192060E+04;
  1.2602109E+00;  9.9999998E-03;  2.4083565E-01;9634;  1.6899588E+00;  0.0000000E+00; -1.2716190E-03;  9.9356537E+02;  1.0331491E-01; -4.8790586E+03;3; -7.9266502E+01;  0.0000000E+00; -7.1818978E-01;0;  1.4837556E+00;  3.7235516E+04;  0.0000000E+00;  1.5303371E+01;  4.0000000E+04;  0.0000000E+00;  3.9749305E+04;  1.5292503E+00;  0.0000000E+00; -4.5494631E-02;  8.7925879E+03;
