TimeStep;Np;Nbound;Nfixed;Nmoving;Nfloat;Nfluid
0.18003;10047;2448;2448;0;0;7599

Pos.x;Pos.y;Pos.z;Idp;Vel.x;Vel.y;Vel.z;Rhop;Mass;Press;Type;Acec.x;Acec.y;Acec.z;CellOffSpring;GradVel;Qfxx;Qfxy;Qfxz;Qfyy;Qfyz;Qfzz;StrainDot.x;StrainDot.y;StrainDot.z;VonMises3D;
 -1.9000000E-01;  9.9999998E-03; -4.4999999E-01;89;  0.0000000E+00;  0.0000000E+00;  0.0000000E+00;  1.0000000E+03;  1.0000000E-01;  0.0000000E+00;0;  0.0000000E+00;  0.0000000E+00;  0.0000000E+00;0;  0.0000000E+00;  4.0000000E+04;  0.0000000E+00;  0.0000000E+00;  4.0000000E+04;  0.0000000E+00;  4.0000000E+04;  0.0000000E+00;  0.0000000E+00;  0.0000000E+00;  0.0000000E+00;
 -1.8000001E-01;  9.9999998E-03; -4.4999999E-01;180;  0.0000000E+00;  0.0000000E+00;  0.0000000E+00;  1.0000000E+03;  1.0000000E-01;  0.0000000E+00;0;  0.0000000E+00;  0.0000000E+00;  0.0000000E+00;0;  0.0000000E+00;  4.0000000E+04;  0.0000000E+00;  0.0000000E+00;  4.0000000E+04;  0.0000000E+00;  4.0000000E+04;  0.0000000E+00;  0.0000000E+00;  0.0000000E+00;  0.0000000E+00;
 -1.7000000E-01;  9.9999998E-03; -4.4999999E-01;271;  0.0000000E+00;  0.0000000E+00;  0.0000000E+00;  1.0000000E+03;  1.0000000E-01;  0.0000000E+00;0;  0.0000000E+00;  0.0000000E+00;  0.0000000E+00;0;  0.0000000E+00;  4.0000000E+04;  0.0000000E+00;  0.0000000E+00;  4.0000000E+04;  0.0000000E+00;  4.0000000E+04;  0.0000000E+00;  0.0000000E+00;  0.0000000E+00;  0.0000000E+00;
 -1.6000000E-01;  9.9999998E-03; -4.4999999E-01;362;  0.0000000E+00;  0.0000000E+00;  0.0000000E+00;  1.0000000E+03;  1.0000000E-01;  0.0000000E+00;0;  0.0000000E+00;  0.0000000E+00;  0.0000000E+00;0;  0.0000000E+00;  4.0000000E+04;  0.0000000E+00;  0.0000000E+00;  4.0000000E+04;  0.0000000E+00;  4.0000000E+04;  0.0000000E+00;  0.0000000E+00;  0.0000000E+00;  0.0000000E+00;
 -1.5000001E-01;  9.9999998E-03; -4.4999999E-01;453;  0.0000000E+00;  0.0000000E+00;  0.0000000E+00;  1.0000000E+03;  1.0000000E-01;  0.0000000E+00;0;  0.0000000E+00;  0.0000000E+00;  0.0000000E+00;0;  0.0000000E+00;  4.0000000E+04;  0.0000000E+00;  0.0000000E+00;  4.0000000E+04;  0.0000000E+00;  4.0000000E+04;  0.0000000E+00;  0.0000000E+00;  0.0000000E+00;  0.0000000E+00;
 -1.4000000E-01;  9.9999998E-03; -4.4999999E-01;544;  0.0000000E+00;  0.0000000E+00;  0.0000000E+00;  1.0000000E+03;  1.0000000E-01;  0.0000000E+00;0;  0.0000000E+00;  0.0000000E+00;  0.0000000E+00;0;  0.0000000E+00;  4.0000000E+04;  0.0000000E+00;  0.0000000E+00;  4.0000000E+04;  0.0000000E+00;  4.0000000E+04;  0.0000000E+00;  0.0000000E+00;  0.0000000E+00;  0.0000000E+00;
 -1.3000000E-01;  9.9999998E-03; -4.4999999E-01;635;  0.0000000E+00;  0.0000000E+00;  0.0000000E+00;  1.0000000E+03;  1.0000000E-01;  0.0000000E+00;0;  0.0000000E+00;  0.0000000E+00;  0.0000000E+00;0;  0.0000000E+00;  4.0000000E+04;  0.0000000E+00;  0.0000000E+00;  4.0000000E+04;  0.0000000E+00;  4.0000000E+04;  0.0000000E+00;  0.0000000E+00;  0.0000000E+00;  0.0000000E+00;
 -1.2000000E-01;  9.9999998E-03; -4.4999999E-01;726;  0.0000000E+00;  0.0000000E+00;  0.0000000E+00;  1.0000000E+03;  1.0000000E-01;  0.0000000E+00;0;  0.0000000E+00;  0.0000000E+00;  0.0000000E+00;0;  0.0000000E+00;  4.0000000E+04;  0.0000000E+00;  0.0000000E+00;  4.0000000E+04;  0.0000000E+00;  4.0000000E+04;  0.0000000E+00;  0.0000000E+00;  0.0000000E+00;  0.0000000E+00;
 -1.1000000E-01;  9.9999998E-03; -4.4999999E-01;817;  0.0000000E+00;  0.0000000E+00;  0.0000000E+00;  1.0000000E+03;  1.0000000E-01;  0.0000000E+00;0;  0.0000000E+00;  0.0000000E+00;  0.0000000E+00;0;  0.0000000E+00;  4.0000000E+04;  0.0000000E+00;  0.0000000E+00;  4.0000000E+04;  0.0000000E+00;  4.0000000E+04;  0.0000000E+00;  0.0000000E+00;  0.0000000E+00;  0.0000000E+00;
 -1.0000000E-01;  9.9999998E-03; -4.4999999E-01;908;  0.0000000E+00;  0.0000000E+00;  0.0000000E+00;  1.0000000E+03;  1.0000000E-01;  0.0000000E+00;0;  0.0000000E+00;  0.0000000E+00;  0.0000000E+00;0;  0.0000000E+00;  4.0000000E+04;  0.0000000E+00;  0.0000000E+00;  4.0000000E+04;  0.0000000E+00;  4.0000000E+04;  0.0000000E+00;  0.0000000E+00;  0.0000000E+00;  0.0000000E+00;
 -9.0000004E-02;  9.9999998E-03; -4.4999999E-01;999;  0.0000000E+00;  0.0000000E+00;  0.0000000E+00;  1.0000000E+03;  1.0000000E-01;  0.0000000E+00;0;  0.0000000E+00;  0.0000000E+00;  0.0000000E+00;0;  0.0000000E+00;  4.0000000E+04;  0.0000000E+00;  0.0000000E+00;  4.0000000E+04;  0.0000000E+00;  4.0000000E+04;  0.0000000E+00;  0.0000000E+00;  0.0000000E+00;  0.0000000E+00;
 -7.9999998E-02;  9.9999998E-03; -4.4999999E-01;1090;  0.0000000E+00;  0.0000000E+00;  0.0000000E+00;  1.0000000E+03;  1.0000000E-01;  0.0000000E+00;0;  0.0000000E+00;  0.0000000E+00;  0.0000000E+00;0;  0.0000000E+00;  4.0000000E+04;  0.0000000E+00;  0.0000000E+00;  4.0000000E+04;  0.0000000E+00;  4.0000000E+04;  0.0000000E+00;  0.0000000E+00;  0.0000000E+00;  0.0000000E+00;
 -7.0000000E-02;  9.9999998E-03; -4.4999999E-01;1181;  0.0000000E+00;  0.0000000E+00;  0.0000000E+00;  1.0000000E+03;  1.0000000E-01;  0.0000000E+00;0;  0.0000000E+00;  0.0000000E+00;  0.0000000E+00;0;  0.0000000E+00;  4.0000000E+04;  0.0000000E+00;  0.0000000E+00;  4.0000000E+04;  0.0000000E+00;  4.0000000E+04;  0.0000000E+00;  0.0000000E+00;  0.0000000E+00;  8.6648275E-12;
 -5.9999999E-02;  9.9999998E-03; -4.4999999E-01;1272;  0.0000000E+00;  0.0000000E+00;  0.0000000E+00;  1.0000000E+03;  1.0000000E-01;  0.0000000E+00;0;  0.0000000E+00;  0.0000000E+00;  0.0000000E+00;0; -4.3211159E-08;  4.0000000E+04;  0.0000000E+00;  0.0000000E+00;  4.0000000E+04;  0.0000000E+00;  4.0000000E+04; -1.6484703E-08;  0.0000000E+00; -2.6726457E-08;  5.2229322E-02;
 -5.0000001E-02;  9.9999998E-03; -4.4999999E-01;1363;  0.0000000E+00;  0.0000000E+00;  0.0000000E+00;  1.0000000E+03;  1.0000000E-01;  0.0000000E+00;0;  0.0000000E+00;  0.0000000E+00;  0.0000000E+00;0; -3.7474990E-07;  4.0000000E+04;  0.0000000E+00;  0.0000000E+00;  4.0000000E+04;  0.0000000E+00;  4.0000000E+04; -1.3438412E-07;  0.0000000E+00; -2.4036578E-07;  4.4388270E-01;
 -3.9999999E-02;  9.9999998E-03; -4.4999999E-01;1454;  0.0000000E+00;  0.0000000E+00;  0.0000000E+00;  1.0000000E+03;  1.0000000E-01;  0.0000000E+00;0;  0.0000000E+00;  0.0000000E+00;  0.0000000E+00;0; -1.3568806E-06;  4.0000000E+04;  0.0000000E+00;  0.0000000E+00;  4.0000000E+04;  0.0000000E+00;  4.0000000E+04; -4.6171988E-07;  0.0000000E+00; -8.9516072E-07;  1.5835673E+00;
 -2.9999999E-02;  9.9999998E-03; -4.4999999E-01;1545;  0.0000000E+00;  0.0000000E+00;  0.0000000E+00;  1.0000000E+03;  1.0000000E-01;  0.0000000E+00;0;  0.0000000E+00;  0.0000000E+00;  0.0000000E+00;0; -3.2711068E-06;  4.0000000E+04;  0.0000000E+00;  0.0000000E+00;  4.0000000E+04;  0.0000000E+00;  4.0000000E+04; -1.0617485E-06;  0.0000000E+00; -2.2093582E-06;  3.7386580E+00;
 -2.0000000E-02;  9.9999998E-03; -4.4999999E-01;1636;  0.0000000E+00;  0.0000000E+00;  0.0000000E+00;  1.0000000E+03;  1.0000000E-01;  0.0000000E+00;0;  0.0000000E+00;  0.0000000E+00;  0.0000000E+00;0; -6.1662445E-06;  4.0000000E+04;  0.0000000E+00;  0.0000000E+00;  4.0000000E+04;  0.0000000E+00;  4.0000000E+04; -1.9127820E-06;  0.0000000E+00; -4.2534625E-06;  6.8258104E+00;
 -9.9999998E-03;  9.9999998E-03; -4.4999999E-01;1727;  0.0000000E+00;  0.0000000E+00;  0.0000000E+00;  1.0000000E+03;  1.0000000E-01;  0.0000000E+00;0;  0.0000000E+00;  0.0000000E+00;  0.0000000E+00;0; -9.8235141E-06;  4.0000000E+04;  0.0000000E+00;  0.0000000E+00;  4.0000000E+04;  0.0000000E+00;  4.0000000E+04; -2.9086195E-06;  0.0000000E+00; -6.9148941E-06;  1.0371512E+01;
  0.0000000E+00;  9.9999998E-03; -4.4999999E-01;1818;  0.0000000E+00;  0.0000000E+00;  0.0000000E+00;  1.0000000E+03;  1.0000000E-01;  0.0000000E+00;0;  0.0000000E+00;  0.0000000E+00;  0.0000000E+00;0; -1.3821334E-05;  4.0000000E+04;  0.0000000E+00;  0.0000000E+00;  4.0000000E+04;  0.0000000E+00;  4.0000000E+04; -3.8896278E-06;  0.0000000E+00; -9.9317058E-06;  1.3645057E+01;
  9.9999998E-03;  9.9999998E-03; -4.4999999E-01;1850;  0.0000000E+00;  0.0000000E+00;  0.0000000E+00;  1.0000000E+03;  1.0000000E-01;  0.0000000E+00;0;  0.0000000E+00;  0.0000000E+00;  0.0000000E+00;0; -1.7666674E-05;  4.0000000E+04;  0.0000000E+00;  0.0000000E+00;  4.0000000E+04;  0.0000000E+00;  4.0000000E+04; -4.6902928E-06;  0.0000000E+00; -1.2976381E-05;  1.5889859E+01;
  2.0000000E-02;  9.9999998E-03; -4.4999999E-01;1880;  0.0000000E+00;  0.0000000E+00;  0.0000000E+00;  1.0000000E+03;  1.0000000E-01;  0.0000000E+00;0;  0.0000000E+00;  0.0000000E+00;  0.0000000E+00;0; -2.0945810E-05;  4.0000000E+04;  0.0000000E+00;  0.0000000E+00;  4.0000000E+04;  0.0000000E+00;  4.0000000E+04; -5.1861093E-06;  0.0000000E+00; -1.5759701E-05;  1.6567759E+01;
  2.9999999E-02;  9.9999998E-03; -4.4999999E-01;1910;  0.0000000E+00;  0.0000000E+00;  0.0000000E+00;  1.0000000E+03;  1.0000000E-01;  0.0000000E+00;0;  0.0000000E+00;  0.0000000E+00;  0.0000000E+00;0; -2.3442839E-05;  4.0000000E+04;  0.0000000E+00;  0.0000000E+00;  4.0000000E+04;  0.0000000E+00;  4.0000000E+04; -5.3235822E-06;  0.0000000E+00; -1.8119257E-05;  1.5542908E+01;
  3.9999999E-02;  9.9999998E-03; -4.4999999E-01;1940;  0.0000000E+00;  0.0000000E+00;  0.0000000E+00;  1.0000000E+03;  1.0000000E-01;  0.0000000E+00;0;  0.0000000E+00;  0.0000000E+00;  0.0000000E+00;0; -2.5184883E-05;  4.0000000E+04;  0.0000000E+00;  0.0000000E+00;  4.0000000E+04;  0.0000000E+00;  4.0000000E+04; -5.1253719E-06;  0.0000000E+00; -2.0059511E-05;  1.3165302E+01;
  5.0000001E-02;  9.9999998E-03; -4.4999999E-01;1970;  0.0000000E+00;  0.0000000E+00;  0.0000000E+00;  1.0000000E+03;  1.0000000E-01;  0.0000000E+00;0;  0.0000000E+00;  0.0000000E+00;  0.0000000E+00;0; -2.6396472E-05;  4.0000000E+04;  0.0000000E+00;  0.0000000E+00;  4.0000000E+04;  0.0000000E+00;  4.0000000E+04; -4.6734194E-06;  0.0000000E+00; -2.1723054E-05;  1.0225616E+01;
  5.9999999E-02;  9.9999998E-03; -4.4999999E-01;2000;  0.0000000E+00;  0.0000000E+00;  0.0000000E+00;  1.0000000E+03;  1.0000000E-01;  0.0000000E+00;0;  0.0000000E+00;  0.0000000E+00;  0.0000000E+00;0; -2.7374750E-05;  4.0000000E+04;  0.0000000E+00;  0.0000000E+00;  4.0000000E+04;  0.0000000E+00;  4.0000000E+04; -4.0842997E-06;  0.0000000E+00; -2.3290451E-05;  7.7809920E+00;
  7.0000000E-02;  9.9999998E-03; -4.4999999E-01;2030;  0.0000000E+00;  0.0000000E+00;  0.0000000E+00;  1.0000000E+03;  1.0000000E-01;  0.0000000E+00;0;  0.0000000E+00;  0.0000000E+00;  0.0000000E+00;0; -2.8360075E-05;  4.0000000E+04;  0.0000000E+00;  0.0000000E+00;  4.0000000E+04;  0.0000000E+00;  4.0000000E+04; -3.4789311E-06;  0.0000000E+00; -2.4881143E-05;  6.9312544E+00;
  7.9999998E-02;  9.9999998E-03; -4.4999999E-01;2060;  0.0000000E+00;  0.0000000E+00;  0.0000000E+00;  1.0000000E+03;  1.0000000E-01;  0.0000000E+00;0;  0.0000000E+00;  0.0000000E+00;  0.0000000E+00;0; -2.9470526E-05;  4.0000000E+04;  0.0000000E+00;  0.0000000E+00;  4.0000000E+04;  0.0000000E+00;  4.0000000E+04; -2.9485091E-06;  0.0000000E+00; -2.6522017E-05;  8.6273746E+00;
  9.0000004E-02;  9.9999998E-03; -4.4999999E-01;2090;  0.0000000E+00;  0.0000000E+00;  0.0000000E+00;  1.0000000E+03;  1.0000000E-01;  0.0000000E+00;0;  0.0000000E+00;  0.0000000E+00;  0.0000000E+00;0; -3.0704716E-05;  4.0000000E+04;  0.0000000E+00;  0.0000000E+00;  4.0000000E+04;  0.0000000E+00;  4.0000000E+04; -2.5692095E-06;  0.0000000E+00; -2.8135508E-05;  1.3461552E+01;
  1.0000000E-01;  9.9999998E-03; -4.4999999E-01;2120;  0.0000000E+00;  0.0000000E+00;  0.0000000E+00;  1.0000000E+03;  1.0000000E-01;  0.0000000E+00;0;  0.0000000E+00;  0.0000000E+00;  0.0000000E+00;0; -3.2102525E-05;  4.0000000E+04;  0.0000000E+00;  0.0000000E+00;  4.0000000E+04;  0.0000000E+00;  4.0000000E+04; -2.4443889E-06;  0.0000000E+00; -2.9658137E-05;  2.1611931E+01;
  1.1000000E-01;  9.9999998E-03; -4.4999999E-01;2150;  0.0000000E+00;  0.0000000E+00;  0.0000000E+00;  1.0000000E+03;  1.0000000E-01;  0.0000000E+00;0;  0.0000000E+00;  0.0000000E+00;  0.0000000E+00;0; -3.3920383E-05;  4.0000000E+04;  0.0000000E+00;  0.0000000E+00;  4.0000000E+04;  0.0000000E+00;  4.0000000E+04; -2.6561543E-06;  0.0000000E+00; -3.1264230E-05;  3.3403244E+01;
  1.2000000E-01;  9.9999998E-03; -4.4999999E-01;2180;  0.0000000E+00;  0.0000000E+00;  0.0000000E+00;  1.0000000E+03;  1.0000000E-01;  0.0000000E+00;0;  0.0000000E+00;  0.0000000E+00;  0.0000000E+00;0; -3.6428537E-05;  4.0000000E+04;  0.0000000E+00;  0.0000000E+00;  4.0000000E+04;  0.0000000E+00;  4.0000000E+04; -3.3007771E-06;  0.0000000E+00; -3.3127759E-05;  5.0670219E+01;
  1.3000000E-01;  9.9999998E-03; -4.4999999E-01;2210;  0.0000000E+00;  0.0000000E+00;  0.0000000E+00;  1.0000000E+03;  1.0000000E-01;  0.0000000E+00;0;  0.0000000E+00;  0.0000000E+00;  0.0000000E+00;0; -3.9641709E-05;  4.0000000E+04;  0.0000000E+00;  0.0000000E+00;  4.0000000E+04;  0.0000000E+00;  4.0000000E+04; -4.6642976E-06;  0.0000000E+00; -3.4977413E-05;  8.0074966E+01;
  1.4000000E-01;  9.9999998E-03; -4.4999999E-01;2240;  0.0000000E+00;  0.0000000E+00;  0.0000000E+00;  1.0000000E+03;  1.0000000E-01;  0.0000000E+00;0;  0.0000000E+00;  0.0000000E+00;  0.0000000E+00;0; -4.3488526E-05;  4.0000000E+04;  0.0000000E+00;  0.0000000E+00;  4.0000000E+04;  0.0000000E+00;  4.0000000E+04; -7.3641381E-06;  0.0000000E+00; -3.6124387E-05;  1.3850862E+02;
  1.5000001E-01;  9.9999998E-03; -4.4999999E-01;2270;  0.0000000E+00;  0.0000000E+00;  0.0000000E+00;  1.0000000E+03;  1.0000000E-01;  0.0000000E+00;0;  0.0000000E+00;  0.0000000E+00;  0.0000000E+00;0; -4.8051530E-05;  4.0000000E+04;  0.0000000E+00;  0.0000000E+00;  4.0000000E+04;  0.0000000E+00;  4.0000000E+04; -1.2263742E-05;  0.0000000E+00; -3.5787787E-05;  2.5797711E+02;
  1.6000000E-01;  9.9999998E-03; -4.4999999E-01;2300;  0.0000000E+00;  0.0000000E+00;  0.0000000E+00;  1.0000000E+03;  1.0000000E-01;  0.0000000E+00;0;  0.0000000E+00;  0.0000000E+00;  0.0000000E+00;0; -5.3568674E-05;  4.0000000E+04;  0.0000000E+00;  0.0000000E+00;  4.0000000E+04;  0.0000000E+00;  4.0000000E+04; -2.0098185E-05;  0.0000000E+00; -3.3470489E-05;  4.8910010E+02;
  1.7000000E-01;  9.9999998E-03; -4.4999999E-01;2330;  0.0000000E+00;  0.0000000E+00;  0.0000000E+00;  1.0000000E+03;  1.0000000E-01;  0.0000000E+00;0;  0.0000000E+00;  0.0000000E+00;  0.0000000E+00;0; -5.9986160E-05;  4.0000000E+04;  0.0000000E+00;  0.0000000E+00;  4.0000000E+04;  0.0000000E+00;  4.0000000E+04; -3.0857052E-05;  0.0000000E+00; -2.9129105E-05;  9.0174872E+02;
  1.8000001E-01;  9.9999998E-03; -4.4999999E-01;2360;  0.0000000E+00;  0.0000000E+00;  0.0000000E+00;  1.0000000E+03;  1.0000000E-01;  0.0000000E+00;0;  0.0000000E+00;  0.0000000E+00;  0.0000000E+00;0; -6.6207016E-05;  4.0000000E+04;  0.0000000E+00;  0.0000000E+00;  4.0000000E+04;  0.0000000E+00;  4.0000000E+04; -4.3063865E-05;  0.0000000E+00; -2.3143151E-05;  1.5730994E+03;
  1.9000000E-01;  9.9999998E-03; -4.4999999E-01;2390;  0.0000000E+00;  0.0000000E+00;  0.0000000E+00;  1.0000000E+03;  1.0000000E-01;  0.0000000E+00;0;  0.0000000E+00;  0.0000000E+00;  0.0000000E+00;0; -6.9896632E-05;  4.0000000E+04;  0.0000000E+00;  0.0000000E+00;  4.0000000E+04;  0.0000000E+00;  4.0000000E+04; -5.3465610E-05;  0.0000000E+00; -1.6431019E-05;  2.5555481E+03;
 -1.9000000E-01;  9.9999998E-03; -4.4000000E-01;90;  0.0000000E+00;  0.0000000E+00;  0.0000000E+00;  1.0000000E+03;  1.0000000E-01;  0.0000000E+00;0;  0.0000000E+00;  0.0000000E+00;  0.0000000E+00;0;  0.0000000E+00;  4.0000000E+04;  0.0000000E+00;  0.0000000E+00;  4.0000000E+04;  0.0000000E+00;  4.0000000E+04;  0.0000000E+00;  0.0000000E+00;  0.0000000E+00;  0.0000000E+00;
 -1.9000000E-01;  9.9999998E-03; -4.3000001E-01;91;  0.0000000E+00;  0.0000000E+00;  0.0000000E+00;  1.0000000E+03;  1.0000000E-01;  0.0000000E+00;0;  0.0000000E+00;  0.0000000E+00;  0.0000000E+00;0;  0.0000000E+00;  4.0000000E+04;  0.0000000E+00;  0.0000000E+00;  4.0000000E+04;  0.0000000E+00;  4.0000000E+04;  0.0000000E+00;  0.0000000E+00;  0.0000000E+00;  0.0000000E+00;
 -1.9000000E-01;  9.9999998E-03; -4.1999999E-01;92;  0.0000000E+00;  0.0000000E+00;  0.0000000E+00;  1.0000000E+03;  1.0000000E-01;  0.0000000E+00;0;  0.0000000E+00;  0.0000000E+00;  0.0000000E+00;0;  0.0000000E+00;  4.0000000E+04;  0.0000000E+00;  0.0000000E+00;  4.0000000E+04;  0.0000000E+00;  4.0000000E+04;  0.0000000E+00;  0.0000000E+00;  0.0000000E+00;  0.0000000E+00;
 -1.9000000E-01;  9.9999998E-03; -4.1000000E-01;93;  0.0000000E+00;  0.0000000E+00;  0.0000000E+00;  1.0000000E+03;  1.0000000E-01;  0.0000000E+00;0;  0.0000000E+00;  0.0000000E+00;  0.0000000E+00;0;  0.0000000E+00;  4.0000000E+04;  0.0000000E+00;  0.0000000E+00;  4.0000000E+04;  0.0000000E+00;  4.0000000E+04;  0.0000000E+00;  0.0000000E+00;  0.0000000E+00;  0.0000000E+00;
 -1.9000000E-01;  9.9999998E-03; -4.0000001E-01;94;  0.0000000E+00;  0.0000000E+00;  0.0000000E+00;  1.0000000E+03;  1.0000000E-01;  0.0000000E+00;0;  0.0000000E+00;  0.0000000E+00;  0.0000000E+00;0;  0.0000000E+00;  4.0000000E+04;  0.0000000E+00;  0.0000000E+00;  4.0000000E+04;  0.0000000E+00;  4.0000000E+04;  0.0000000E+00;  0.0000000E+00;  0.0000000E+00;  0.0000000E+00;
 -1.9000000E-01;  9.9999998E-03; -3.8999999E-01;95;  0.0000000E+00;  0.0000000E+00;  0.0000000E+00;  1.0000000E+03;  1.0000000E-01;  0.0000000E+00;0;  0.0000000E+00;  0.0000000E+00;  0.0000000E+00;0;  0.0000000E+00;  4.0000000E+04;  0.0000000E+00;  0.0000000E+00;  4.0000000E+04;  0.0000000E+00;  4.0000000E+04;  0.0000000E+00;  0.0000000E+00;  0.0000000E+00;  0.0000000E+00;
 -1.9000000E-01;  9.9999998E-03; -3.8000000E-01;96;  0.0000000E+00;  0.0000000E+00;  0.0000000E+00;  1.0000000E+03;  1.0000000E-01;  0.0000000E+00;0;  0.0000000E+00;  0.0000000E+00;  0.0000000E+00;0;  0.0000000E+00;  4.0000000E+04;  0.0000000E+00;  0.0000000E+00;  4.0000000E+04;  0.0000000E+00;  4.0000000E+04;  0.0000000E+00;  0.0000000E+00;  0.0000000E+00;  0.0000000E+00;
 -1.9000000E-01;  9.9999998E-03; -3.7000000E-01;97;  0.0000000E+00;  0.0000000E+00;  0.0000000E+00;  1.0000000E+03;  1.0000000E-01;  0.0000000E+00;0;  0.0000000E+00;  0.0000000E+00;  0.0000000E+00;0;  0.0000000E+00;  4.0000000E+04;  0.0000000E+00;  0.0000000E+00;  4.0000000E+04;  0.0000000E+00;  4.0000000E+04;  0.0000000E+00;  0.0000000E+00;  0.0000000E+00;  0.0000000E+00;
 -1.9000000E-01;  9.9999998E-03; -3.6000001E-01;98;  0.0000000E+00;  0.0000000E+00;  0.0000000E+00;  1.0000000E+03;  1.0000000E-01;  0.0000000E+00;0;  0.0000000E+00;  0.0000000E+00;  0.0000000E+00;0;  0.0000000E+00;  4.0000000E+04;  0.0000000E+00;  0.0000000E+00;  4.0000000E+04;  0.0000000E+00;  4.0000000E+04;  0.0000000E+00;  0.0000000E+00;  0.0000000E+00;  0.0000000E+00;
 -1.9000000E-01;  9.9999998E-03; -3.4999999E-01;99;  0.0000000E+00;  0.0000000E+00;  0.0000000E+00;  1.0000000E+03;  1.0000000E-01;  0.0000000E+00;0;  0.0000000E+00;  0.0000000E+00;  0.0000000E+00;0;  0.0000000E+00;  4.0000000E+04;  0.0000000E+00;  0.0000000E+00;  4.0000000E+04;  0.0000000E+00;  4.0000000E+04;  0.0000000E+00;  0.0000000E+00;  0.0000000E+00;  0.0000000E+00;
 -1.9000000E-01;  9.9999998E-03; -3.4000000E-01;100;  0.0000000E+00;  0.0000000E+00;  0.0000000E+00;  1.0000000E+03;  1.0000000E-01;  0.0000000E+00;0;  0.0000000E+00;  0.0000000E+00;  0.0000000E+00;0;  0.0000000E+00;  4.0000000E+04;  0.0000000E+00;  0.0000000E+00;  4.0000000E+04;  0.0000000E+00;  4.0000000E+04;  0.0000000E+00;  0.0000000E+00;  0.0000000E+00;  0.0000000E+00;
 -1.9000000E-01;  9.9999998E-03; -3.3000001E-01;101;  0.0000000E+00;  0.0000000E+00;  0.0000000E+00;  1.0000000E+03;  1.0000000E-01;  0.0000000E+00;0;  0.0000000E+00;  0.0000000E+00;  0.0000000E+00;0;  0.0000000E+00;  4.0000000E+04;  0.0000000E+00;  0.0000000E+00;  4.0000000E+04;  0.0000000E+00;  4.0000000E+04;  0.0000000E+00;  0.0000000E+00;  0.0000000E+00;  0.0000000E+00;
 -1.9000000E-01;  9.9999998E-03; -3.1999999E-01;102;  0.0000000E+00;  0.0000000E+00;  0.0000000E+00;  1.0000000E+03;  1.0000000E-01;  0.0000000E+00;0;  0.0000000E+00;  0.0000000E+00;  0.0000000E+00;0;  0.0000000E+00;  4.0000000E+04;  0.0000000E+00;  0.0000000E+00;  4.0000000E+04;  0.0000000E+00;  4.0000000E+04;  0.0000000E+00;  0.0000000E+00;  0.0000000E+00;  0.0000000E+00;
 -1.9000000E-01;  9.9999998E-03; -3.1000000E-01;103;  0.0000000E+00;  0.0000000E+00;  0.0000000E+00;  1.0000000E+03;  1.0000000E-01;  0.0000000E+00;0;  0.0000000E+00;  0.0000000E+00;  0.0000000E+00;0;  0.0000000E+00;  4.0000000E+04;  0.0000000E+00;  0.0000000E+00;  4.0000000E+04;  0.0000000E+00;  4.0000000E+04;  0.0000000E+00;  0.0000000E+00;  0.0000000E+00;  0.0000000E+00;
 -1.9000000E-01;  9.9999998E-03; -3.0000001E-01;104;  0.0000000E+00;  0.0000000E+00;  0.0000000E+00;  1.0000000E+03;  1.0000000E-01;  0.0000000E+00;0;  0.0000000E+00;  0.0000000E+00;  0.0000000E+00;0;  0.0000000E+00;  4.0000000E+04;  0.0000000E+00;  0.0000000E+00;  4.0000000E+04;  0.0000000E+00;  4.0000000E+04;  0.0000000E+00;  0.0000000E+00;  0.0000000E+00;  0.0000000E+00;
 -1.9000000E-01;  9.9999998E-03; -2.8999999E-01;105;  0.0000000E+00;  0.0000000E+00;  0.0000000E+00;  1.0000000E+03;  1.0000000E-01;  0.0000000E+00;0;  0.0000000E+00;  0.0000000E+00;  0.0000000E+00;0;  0.0000000E+00;  4.0000000E+04;  0.0000000E+00;  0.0000000E+00;  4.0000000E+04;  0.0000000E+00;  4.0000000E+04;  0.0000000E+00;  0.0000000E+00;  0.0000000E+00;  0.0000000E+00;
 -1.9000000E-01;  9.9999998E-03; -2.8000000E-01;106;  0.0000000E+00;  0.0000000E+00;  0.0000000E+00;  1.0000000E+03;  1.0000000E-01;  0.0000000E+00;0;  0.0000000E+00;  0.0000000E+00;  0.0000000E+00;0;  0.0000000E+00;  4.0000000E+04;  0.0000000E+00;  0.0000000E+00;  4.0000000E+04;  0.0000000E+00;  4.0000000E+04;  0.0000000E+00;  0.0000000E+00;  0.0000000E+00;  0.0000000E+00;
 -1.8000001E-01;  9.9999998E-03; -4.4000000E-01;181;  0.0000000E+00;  0.0000000E+00;  0.0000000E+00;  1.0000000E+03;  1.0000000E-01;  0.0000000E+00;0;  0.0000000E+00;  0.0000000E+00;  0.0000000E+00;0;  0.0000000E+00;  4.0000000E+04;  0.0000000E+00;  0.0000000E+00;  4.0000000E+04;  0.0000000E+00;  4.0000000E+04;  0.0000000E+00;  0.0000000E+00;  0.0000000E+00;  0.0000000E+00;
 -1.8000001E-01;  9.9999998E-03; -4.3000001E-01;182;  0.0000000E+00;  0.0000000E+00;  0.0000000E+00;  1.0000000E+03;  1.0000000E-01;  0.0000000E+00;0;  0.0000000E+00;  0.0000000E+00;  0.0000000E+00;0;  0.0000000E+00;  4.0000000E+04;  0.0000000E+00;  0.0000000E+00;  4.0000000E+04;  0.0000000E+00;  4.0000000E+04;  0.0000000E+00;  0.0000000E+00;  0.0000000E+00;  0.0000000E+00;
 -1.8000001E-01;  9.9999998E-03; -4.1999999E-01;183;  0.0000000E+00;  0.0000000E+00;  0.0000000E+00;  1.0000000E+03;  1.0000000E-01;  0.0000000E+00;0;  0.0000000E+00;  0.0000000E+00;  0.0000000E+00;0;  0.0000000E+00;  4.0000000E+04;  0.0000000E+00;  0.0000000E+00;  4.0000000E+04;  0.0000000E+00;  4.0000000E+04;  0.0000000E+00;  0.0000000E+00;  0.0000000E+00;  0.0000000E+00;
 -1.8000001E-01;  9.9999998E-03; -4.1000000E-01;184;  0.0000000E+00;  0.0000000E+00;  0.0000000E+00;  1.0000000E+03;  1.0000000E-01;  0.0000000E+00;0;  0.0000000E+00;  0.0000000E+00;  0.0000000E+00;0;  0.0000000E+00;  4.0000000E+04;  0.0000000E+00;  0.0000000E+00;  4.0000000E+04;  0.0000000E+00;  4.0000000E+04;  0.0000000E+00;  0.0000000E+00;  0.0000000E+00;  0.0000000E+00;
 -1.8000001E-01;  9.9999998E-03; -4.0000001E-01;185;  0.0000000E+00;  0.0000000E+00;  0.0000000E+00;  1.0000000E+03;  1.0000000E-01;  0.0000000E+00;0;  0.0000000E+00;  0.0000000E+00;  0.0000000E+00;0;  0.0000000E+00;  4.0000000E+04;  0.0000000E+00;  0.0000000E+00;  4.0000000E+04;  0.0000000E+00;  4.0000000E+04;  0.0000000E+00;  0.0000000E+00;  0.0000000E+00;  0.0000000E+00;
 -1.8000001E-01;  9.9999998E-03; -3.8999999E-01;186;  0.0000000E+00;  0.0000000E+00;  0.0000000E+00;  1.0000000E+03;  1.0000000E-01;  0.0000000E+00;0;  0.0000000E+00;  0.0000000E+00;  0.0000000E+00;0;  0.0000000E+00;  4.0000000E+04;  0.0000000E+00;  0.0000000E+00;  4.0000000E+04;  0.0000000E+00;  4.0000000E+04;  0.0000000E+00;  0.0000000E+00;  0.0000000E+00;  0.0000000E+00;
 -1.8000001E-01;  9.9999998E-03; -3.8000000E-01;187;  0.0000000E+00;  0.0000000E+00;  0.0000000E+00;  1.0000000E+03;  1.0000000E-01;  0.0000000E+00;0;  0.0000000E+00;  0.0000000E+00;  0.0000000E+00;0;  0.0000000E+00;  4.0000000E+04;  0.0000000E+00;  0.0000000E+00;  4.0000000E+04;  0.0000000E+00;  4.0000000E+04;  0.0000000E+00;  0.0000000E+00;  0.0000000E+00;  0.0000000E+00;
 -1.8000001E-01;  9.9999998E-03; -3.7000000E-01;188;  0.0000000E+00;  0.0000000E+00;  0.0000000E+00;  1.0000000E+03;  1.0000000E-01;  0.0000000E+00;0;  0.0000000E+00;  0.0000000E+00;  0.0000000E+00;0;  0.0000000E+00;  4.0000000E+04;  0.0000000E+00;  0.0000000E+00;  4.0000000E+04;  0.0000000E+00;  4.0000000E+04;  0.0000000E+00;  0.0000000E+00;  0.0000000E+00;  0.0000000E+00;
 -1.8000001E-01;  9.9999998E-03; -3.6000001E-01;189;  0.0000000E+00;  0.0000000E+00;  0.0000000E+00;  1.0000000E+03;  1.0000000E-01;  0.0000000E+00;0;  0.0000000E+00;  0.0000000E+00;  0.0000000E+00;0;  0.0000000E+00;  4.0000000E+04;  0.0000000E+00;  0.0000000E+00;  4.0000000E+04;  0.0000000E+00;  4.0000000E+04;  0.0000000E+00;  0.0000000E+00;  0.0000000E+00;  0.0000000E+00;
 -1.8000001E-01;  9.9999998E-03; -3.4999999E-01;190;  0.0000000E+00;  0.0000000E+00;  0.0000000E+00;  1.0000000E+03;  1.0000000E-01;  0.0000000E+00;0;  0.0000000E+00;  0.0000000E+00;  0.0000000E+00;0;  0.0000000E+00;  4.0000000E+04;  0.0000000E+00;  0.0000000E+00;  4.0000000E+04;  0.0000000E+00;  4.0000000E+04;  0.0000000E+00;  0.0000000E+00;  0.0000000E+00;  0.0000000E+00;
 -1.8000001E-01;  9.9999998E-03; -3.4000000E-01;191;  0.0000000E+00;  0.0000000E+00;  0.0000000E+00;  1.0000000E+03;  1.0000000E-01;  0.0000000E+00;0;  0.0000000E+00;  0.0000000E+00;  0.0000000E+00;0;  0.0000000E+00;  4.0000000E+04;  0.0000000E+00;  0.0000000E+00;  4.0000000E+04;  0.0000000E+00;  4.0000000E+04;  0.0000000E+00;  0.0000000E+00;  0.0000000E+00;  0.0000000E+00;
 -1.8000001E-01;  9.9999998E-03; -3.3000001E-01;192;  0.0000000E+00;  0.0000000E+00;  0.0000000E+00;  1.0000000E+03;  1.0000000E-01;  0.0000000E+00;0;  0.0000000E+00;  0.0000000E+00;  0.0000000E+00;0;  0.0000000E+00;  4.0000000E+04;  0.0000000E+00;  0.0000000E+00;  4.0000000E+04;  0.0000000E+00;  4.0000000E+04;  0.0000000E+00;  0.0000000E+00;  0.0000000E+00;  0.0000000E+00;
 -1.8000001E-01;  9.9999998E-03; -3.1999999E-01;193;  0.0000000E+00;  0.0000000E+00;  0.0000000E+00;  1.0000000E+03;  1.0000000E-01;  0.0000000E+00;0;  0.0000000E+00;  0.0000000E+00;  0.0000000E+00;0;  0.0000000E+00;  4.0000000E+04;  0.0000000E+00;  0.0000000E+00;  4.0000000E+04;  0.0000000E+00;  4.0000000E+04;  0.0000000E+00;  0.0000000E+00;  0.0000000E+00;  0.0000000E+00;
 -1.8000001E-01;  9.9999998E-03; -3.1000000E-01;194;  0.0000000E+00;  0.0000000E+00;  0.0000000E+00;  1.0000000E+03;  1.0000000E-01;  0.0000000E+00;0;  0.0000000E+00;  0.0000000E+00;  0.0000000E+00;0;  0.0000000E+00;  4.0000000E+04;  0.0000000E+00;  0.0000000E+00;  4.0000000E+04;  0.0000000E+00;  4.0000000E+04;  0.0000000E+00;  0.0000000E+00;  0.0000000E+00;  0.0000000E+00;
 -1.8000001E-01;  9.9999998E-03; -3.0000001E-01;195;  0.0000000E+00;  0.0000000E+00;  0.0000000E+00;  1.0000000E+03;  1.0000000E-01;  0.0000000E+00;0;  0.0000000E+00;  0.0000000E+00;  0.0000000E+00;0;  0.0000000E+00;  4.0000000E+04;  0.0000000E+00;  0.0000000E+00;  4.0000000E+04;  0.0000000E+00;  4.0000000E+04;  0.0000000E+00;  0.0000000E+00;  0.0000000E+00;  0.0000000E+00;
 -1.8000001E-01;  9.9999998E-03; -2.8999999E-01;196;  0.0000000E+00;  0.0000000E+00;  0.0000000E+00;  1.0000000E+03;  1.0000000E-01;  0.0000000E+00;0;  0.0000000E+00;  0.0000000E+00;  0.0000000E+00;0;  0.0000000E+00;  4.0000000E+04;  0.0000000E+00;  0.0000000E+00;  4.0000000E+04;  0.0000000E+00;  4.0000000E+04;  0.0000000E+00;  0.0000000E+00;  0.0000000E+00;  0.0000000E+00;
 -1.8000001E-01;  9.9999998E-03; -2.8000000E-01;197;  0.0000000E+00;  0.0000000E+00;  0.0000000E+00;  1.0000000E+03;  1.0000000E-01;  0.0000000E+00;0;  0.0000000E+00;  0.0000000E+00;  0.0000000E+00;0;  0.0000000E+00;  4.0000000E+04;  0.0000000E+00;  0.0000000E+00;  4.0000000E+04;  0.0000000E+00;  4.0000000E+04;  0.0000000E+00;  0.0000000E+00;  0.0000000E+00;  0.0000000E+00;
 -1.7000000E-01;  9.9999998E-03; -4.4000000E-01;272;  0.0000000E+00;  0.0000000E+00;  0.0000000E+00;  1.0000000E+03;  1.0000000E-01;  0.0000000E+00;0;  0.0000000E+00;  0.0000000E+00;  0.0000000E+00;0;  0.0000000E+00;  4.0000000E+04;  0.0000000E+00;  0.0000000E+00;  4.0000000E+04;  0.0000000E+00;  4.0000000E+04;  0.0000000E+00;  0.0000000E+00;  0.0000000E+00;  0.0000000E+00;
 -1.7000000E-01;  9.9999998E-03; -4.3000001E-01;273;  0.0000000E+00;  0.0000000E+00;  0.0000000E+00;  1.0000000E+03;  1.0000000E-01;  0.0000000E+00;0;  0.0000000E+00;  0.0000000E+00;  0.0000000E+00;0;  0.0000000E+00;  4.0000000E+04;  0.0000000E+00;  0.0000000E+00;  4.0000000E+04;  0.0000000E+00;  4.0000000E+04;  0.0000000E+00;  0.0000000E+00;  0.0000000E+00;  0.0000000E+00;
 -1.7000000E-01;  9.9999998E-03; -4.1999999E-01;274;  0.0000000E+00;  0.0000000E+00;  0.0000000E+00;  1.0000000E+03;  1.0000000E-01;  0.0000000E+00;0;  0.0000000E+00;  0.0000000E+00;  0.0000000E+00;0;  0.0000000E+00;  4.0000000E+04;  0.0000000E+00;  0.0000000E+00;  4.0000000E+04;  0.0000000E+00;  4.0000000E+04;  0.0000000E+00;  0.0000000E+00;  0.0000000E+00;  0.0000000E+00;
 -1.7000000E-01;  9.9999998E-03; -4.1000000E-01;275;  0.0000000E+00;  0.0000000E+00;  0.0000000E+00;  1.0000000E+03;  1.0000000E-01;  0.0000000E+00;0;  0.0000000E+00;  0.0000000E+00;  0.0000000E+00;0;  0.0000000E+00;  4.0000000E+04;  0.0000000E+00;  0.0000000E+00;  4.0000000E+04;  0.0000000E+00;  4.0000000E+04;  0.0000000E+00;  0.0000000E+00;  0.0000000E+00;  0.0000000E+00;
 -1.7000000E-01;  9.9999998E-03; -4.0000001E-01;276;  0.0000000E+00;  0.0000000E+00;  0.0000000E+00;  1.0000000E+03;  1.0000000E-01;  0.0000000E+00;0;  0.0000000E+00;  0.0000000E+00;  0.0000000E+00;0;  0.0000000E+00;  4.0000000E+04;  0.0000000E+00;  0.0000000E+00;  4.0000000E+04;  0.0000000E+00;  4.0000000E+04;  0.0000000E+00;  0.0000000E+00;  0.0000000E+00;  0.0000000E+00;
 -1.7000000E-01;  9.9999998E-03; -3.8999999E-01;277;  0.0000000E+00;  0.0000000E+00;  0.0000000E+00;  1.0000000E+03;  1.0000000E-01;  0.0000000E+00;0;  0.0000000E+00;  0.0000000E+00;  0.0000000E+00;0;  0.0000000E+00;  4.0000000E+04;  0.0000000E+00;  0.0000000E+00;  4.0000000E+04;  0.0000000E+00;  4.0000000E+04;  0.0000000E+00;  0.0000000E+00;  0.0000000E+00;  0.0000000E+00;
 -1.7000000E-01;  9.9999998E-03; -3.8000000E-01;278;  0.0000000E+00;  0.0000000E+00;  0.0000000E+00;  1.0000000E+03;  1.0000000E-01;  0.0000000E+00;0;  0.0000000E+00;  0.0000000E+00;  0.0000000E+00;0;  0.0000000E+00;  4.0000000E+04;  0.0000000E+00;  0.0000000E+00;  4.0000000E+04;  0.0000000E+00;  4.0000000E+04;  0.0000000E+00;  0.0000000E+00;  0.0000000E+00;  0.0000000E+00;
 -1.7000000E-01;  9.9999998E-03; -3.7000000E-01;279;  0.0000000E+00;  0.0000000E+00;  0.0000000E+00;  1.0000000E+03;  1.0000000E-01;  0.0000000E+00;0;  0.0000000E+00;  0.0000000E+00;  0.0000000E+00;0;  0.0000000E+00;  4.0000000E+04;  0.0000000E+00;  0.0000000E+00;  4.0000000E+04;  0.0000000E+00;  4.0000000E+04;  0.0000000E+00;  0.0000000E+00;  0.0000000E+00;  0.0000000E+00;
 -1.7000000E-01;  9.9999998E-03; -3.6000001E-01;280;  0.0000000E+00;  0.0000000E+00;  0.0000000E+00;  1.0000000E+03;  1.0000000E-01;  0.0000000E+00;0;  0.0000000E+00;  0.0000000E+00;  0.0000000E+00;0;  0.0000000E+00;  4.0000000E+04;  0.0000000E+00;  0.0000000E+00;  4.0000000E+04;  0.0000000E+00;  4.0000000E+04;  0.0000000E+00;  0.0000000E+00;  0.0000000E+00;  0.0000000E+00;
 -1.7000000E-01;  9.9999998E-03; -3.4999999E-01;281;  0.0000000E+00;  0.0000000E+00;  0.0000000E+00;  1.0000000E+03;  1.0000000E-01;  0.0000000E+00;0;  0.0000000E+00;  0.0000000E+00;  0.0000000E+00;0;  0.0000000E+00;  4.0000000E+04;  0.0000000E+00;  0.0000000E+00;  4.0000000E+04;  0.0000000E+00;  4.0000000E+04;  0.0000000E+00;  0.0000000E+00;  0.0000000E+00;  0.0000000E+00;
 -1.7000000E-01;  9.9999998E-03; -3.4000000E-01;282;  0.0000000E+00;  0.0000000E+00;  0.0000000E+00;  1.0000000E+03;  1.0000000E-01;  0.0000000E+00;0;  0.0000000E+00;  0.0000000E+00;  0.0000000E+00;0;  0.0000000E+00;  4.0000000E+04;  0.0000000E+00;  0.0000000E+00;  4.0000000E+04;  0.0000000E+00;  4.0000000E+04;  0.0000000E+00;  0.0000000E+00;  0.0000000E+00;  0.0000000E+00;
 -1.7000000E-01;  9.9999998E-03; -3.3000001E-01;283;  0.0000000E+00;  0.0000000E+00;  0.0000000E+00;  1.0000000E+03;  1.0000000E-01;  0.0000000E+00;0;  0.0000000E+00;  0.0000000E+00;  0.0000000E+00;0;  0.0000000E+00;  4.0000000E+04;  0.0000000E+00;  0.0000000E+00;  4.0000000E+04;  0.0000000E+00;  4.0000000E+04;  0.0000000E+00;  0.0000000E+00;  0.0000000E+00;  0.0000000E+00;
 -1.7000000E-01;  9.9999998E-03; -3.1999999E-01;284;  0.0000000E+00;  0.0000000E+00;  0.0000000E+00;  1.0000000E+03;  1.0000000E-01;  0.0000000E+00;0;  0.0000000E+00;  0.0000000E+00;  0.0000000E+00;0;  0.0000000E+00;  4.0000000E+04;  0.0000000E+00;  0.0000000E+00;  4.0000000E+04;  0.0000000E+00;  4.0000000E+04;  0.0000000E+00;  0.0000000E+00;  0.0000000E+00;  0.0000000E+00;
 -1.7000000E-01;  9.9999998E-03; -3.1000000E-01;285;  0.0000000E+00;  0.0000000E+00;  0.0000000E+00;  1.0000000E+03;  1.0000000E-01;  0.0000000E+00;0;  0.0000000E+00;  0.0000000E+00;  0.0000000E+00;0;  0.0000000E+00;  4.0000000E+04;  0.0000000E+00;  0.0000000E+00;  4.0000000E+04;  0.0000000E+00;  4.0000000E+04;  0.0000000E+00;  0.0000000E+00;  0.0000000E+00;  0.0000000E+00;
 -1.7000000E-01;  9.9999998E-03; -3.0000001E-01;286;  0.0000000E+00;  0.0000000E+00;  0.0000000E+00;  1.0000000E+03;  1.0000000E-01;  0.0000000E+00;0;  0.0000000E+00;  0.0000000E+00;  0.0000000E+00;0;  0.0000000E+00;  4.0000000E+04;  0.0000000E+00;  0.0000000E+00;  4.0000000E+04;  0.0000000E+00;  4.0000000E+04;  0.0000000E+00;  0.0000000E+00;  0.0000000E+00;  0.0000000E+00;
 -1.7000000E-01;  9.9999998E-03; -2.8999999E-01;287;  0.0000000E+00;  0.0000000E+00;  0.0000000E+00;  1.0000000E+03;  1.0000000E-01;  0.0000000E+00;0;  0.0000000E+00;  0.0000000E+00;  0.0000000E+00;0;  0.0000000E+00;  4.0000000E+04;  0.0000000E+00;  0.0000000E+00;  4.0000000E+04;  0.0000000E+00;  4.0000000E+04;  0.0000000E+00;  0.0000000E+00;  0.0000000E+00;  6.8926012E-14;
 -1.7000000E-01;  9.9999998E-03; -2.8000000E-01;288;  0.0000000E+00;  0.0000000E+00;  0.0000000E+00;  1.0000000E+03;  1.0000000E-01;  0.0000000E+00;0;  0.0000000E+00;  0.0000000E+00;  0.0000000E+00;0;  0.0000000E+00;  4.0000000E+04;  0.0000000E+00;  0.0000000E+00;  4.0000000E+04;  0.0000000E+00;  4.0000000E+04;  0.0000000E+00;  0.0000000E+00;  0.0000000E+00;  1.4968563E-11;
 -1.6000000E-01;  9.9999998E-03; -4.4000000E-01;363;  0.0000000E+00;  0.0000000E+00;  0.0000000E+00;  1.0000000E+03;  1.0000000E-01;  0.0000000E+00;0;  0.0000000E+00;  0.0000000E+00;  0.0000000E+00;0;  0.0000000E+00;  4.0000000E+04;  0.0000000E+00;  0.0000000E+00;  4.0000000E+04;  0.0000000E+00;  4.0000000E+04;  0.0000000E+00;  0.0000000E+00;  0.0000000E+00;  0.0000000E+00;
 -1.6000000E-01;  9.9999998E-03; -4.3000001E-01;364;  0.0000000E+00;  0.0000000E+00;  0.0000000E+00;  1.0000000E+03;  1.0000000E-01;  0.0000000E+00;0;  0.0000000E+00;  0.0000000E+00;  0.0000000E+00;0;  0.0000000E+00;  4.0000000E+04;  0.0000000E+00;  0.0000000E+00;  4.0000000E+04;  0.0000000E+00;  4.0000000E+04;  0.0000000E+00;  0.0000000E+00;  0.0000000E+00;  0.0000000E+00;
 -1.6000000E-01;  9.9999998E-03; -4.1999999E-01;365;  0.0000000E+00;  0.0000000E+00;  0.0000000E+00;  1.0000000E+03;  1.0000000E-01;  0.0000000E+00;0;  0.0000000E+00;  0.0000000E+00;  0.0000000E+00;0;  0.0000000E+00;  4.0000000E+04;  0.0000000E+00;  0.0000000E+00;  4.0000000E+04;  0.0000000E+00;  4.0000000E+04;  0.0000000E+00;  0.0000000E+00;  0.0000000E+00;  0.0000000E+00;
 -1.6000000E-01;  9.9999998E-03; -4.1000000E-01;366;  0.0000000E+00;  0.0000000E+00;  0.0000000E+00;  1.0000000E+03;  1.0000000E-01;  0.0000000E+00;0;  0.0000000E+00;  0.0000000E+00;  0.0000000E+00;0;  0.0000000E+00;  4.0000000E+04;  0.0000000E+00;  0.0000000E+00;  4.0000000E+04;  0.0000000E+00;  4.0000000E+04;  0.0000000E+00;  0.0000000E+00;  0.0000000E+00;  0.0000000E+00;
 -1.6000000E-01;  9.9999998E-03; -4.0000001E-01;367;  0.0000000E+00;  0.0000000E+00;  0.0000000E+00;  1.0000000E+03;  1.0000000E-01;  0.0000000E+00;0;  0.0000000E+00;  0.0000000E+00;  0.0000000E+00;0;  0.0000000E+00;  4.0000000E+04;  0.0000000E+00;  0.0000000E+00;  4.0000000E+04;  0.0000000E+00;  4.0000000E+04;  0.0000000E+00;  0.0000000E+00;  0.0000000E+00;  0.0000000E+00;
 -1.6000000E-01;  9.9999998E-03; -3.8999999E-01;368;  0.0000000E+00;  0.0000000E+00;  0.0000000E+00;  1.0000000E+03;  1.0000000E-01;  0.0000000E+00;0;  0.0000000E+00;  0.0000000E+00;  0.0000000E+00;0;  0.0000000E+00;  4.0000000E+04;  0.0000000E+00;  0.0000000E+00;  4.0000000E+04;  0.0000000E+00;  4.0000000E+04;  0.0000000E+00;  0.0000000E+00;  0.0000000E+00;  0.0000000E+00;
 -1.6000000E-01;  9.9999998E-03; -3.8000000E-01;369;  0.0000000E+00;  0.0000000E+00;  0.0000000E+00;  1.0000000E+03;  1.0000000E-01;  0.0000000E+00;0;  0.0000000E+00;  0.0000000E+00;  0.0000000E+00;0;  0.0000000E+00;  4.0000000E+04;  0.0000000E+00;  0.0000000E+00;  4.0000000E+04;  0.0000000E+00;  4.0000000E+04;  0.0000000E+00;  0.0000000E+00;  0.0000000E+00;  0.0000000E+00;
 -1.6000000E-01;  9.9999998E-03; -3.7000000E-01;370;  0.0000000E+00;  0.0000000E+00;  0.0000000E+00;  1.0000000E+03;  1.0000000E-01;  0.0000000E+00;0;  0.0000000E+00;  0.0000000E+00;  0.0000000E+00;0;  0.0000000E+00;  4.0000000E+04;  0.0000000E+00;  0.0000000E+00;  4.0000000E+04;  0.0000000E+00;  4.0000000E+04;  0.0000000E+00;  0.0000000E+00;  0.0000000E+00;  0.0000000E+00;
 -1.6000000E-01;  9.9999998E-03; -3.6000001E-01;371;  0.0000000E+00;  0.0000000E+00;  0.0000000E+00;  1.0000000E+03;  1.0000000E-01;  0.0000000E+00;0;  0.0000000E+00;  0.0000000E+00;  0.0000000E+00;0;  0.0000000E+00;  4.0000000E+04;  0.0000000E+00;  0.0000000E+00;  4.0000000E+04;  0.0000000E+00;  4.0000000E+04;  0.0000000E+00;  0.0000000E+00;  0.0000000E+00;  0.0000000E+00;
 -1.6000000E-01;  9.9999998E-03; -3.4999999E-01;372;  0.0000000E+00;  0.0000000E+00;  0.0000000E+00;  1.0000000E+03;  1.0000000E-01;  0.0000000E+00;0;  0.0000000E+00;  0.0000000E+00;  0.0000000E+00;0;  0.0000000E+00;  4.0000000E+04;  0.0000000E+00;  0.0000000E+00;  4.0000000E+04;  0.0000000E+00;  4.0000000E+04;  0.0000000E+00;  0.0000000E+00;  0.0000000E+00;  0.0000000E+00;
 -1.6000000E-01;  9.9999998E-03; -3.4000000E-01;373;  0.0000000E+00;  0.0000000E+00;  0.0000000E+00;  1.0000000E+03;  1.0000000E-01;  0.0000000E+00;0;  0.0000000E+00;  0.0000000E+00;  0.0000000E+00;0; -3.7415200E-09;  4.0000000E+04;  0.0000000E+00;  0.0000000E+00;  4.0000000E+04;  0.0000000E+00;  4.0000000E+04; -3.0444200E-09;  0.0000000E+00; -6.9710016E-10;  1.4178784E-03;
 -1.6000000E-01;  9.9999998E-03; -3.3000001E-01;374;  0.0000000E+00;  0.0000000E+00;  0.0000000E+00;  1.0000000E+03;  1.0000000E-01;  0.0000000E+00;0;  0.0000000E+00;  0.0000000E+00;  0.0000000E+00;0; -5.3522708E-08;  4.0000000E+04;  0.0000000E+00;  0.0000000E+00;  4.0000000E+04;  0.0000000E+00;  4.0000000E+04; -4.5298929E-08;  0.0000000E+00; -8.2237790E-09;  1.2830014E-02;
 -1.6000000E-01;  9.9999998E-03; -3.1999999E-01;375;  0.0000000E+00;  0.0000000E+00;  0.0000000E+00;  1.0000000E+03;  1.0000000E-01;  0.0000000E+00;0;  0.0000000E+00;  0.0000000E+00;  0.0000000E+00;0; -1.9888992E-07;  4.0000000E+04;  0.0000000E+00;  0.0000000E+00;  4.0000000E+04;  0.0000000E+00;  4.0000000E+04; -1.7407805E-07;  0.0000000E+00; -2.4811861E-08;  3.7827998E-02;
 -1.6000000E-01;  9.9999998E-03; -3.1000000E-01;376;  0.0000000E+00;  0.0000000E+00;  0.0000000E+00;  1.0000000E+03;  1.0000000E-01;  0.0000000E+00;0;  0.0000000E+00;  0.0000000E+00;  0.0000000E+00;0; -4.5080515E-07;  4.0000000E+04;  0.0000000E+00;  0.0000000E+00;  4.0000000E+04;  0.0000000E+00;  4.0000000E+04; -4.0725018E-07;  0.0000000E+00; -4.3554959E-08;  6.7724288E-02;
 -1.6000000E-01;  9.9999998E-03; -3.0000001E-01;377;  0.0000000E+00;  0.0000000E+00;  0.0000000E+00;  1.0000000E+03;  1.0000000E-01;  0.0000000E+00;0;  0.0000000E+00;  0.0000000E+00;  0.0000000E+00;0; -7.7291634E-07;  4.0000000E+04;  0.0000000E+00;  0.0000000E+00;  4.0000000E+04;  0.0000000E+00;  4.0000000E+04; -7.1970373E-07;  0.0000000E+00; -5.3212585E-08;  8.5685469E-02;
 -1.6000000E-01;  9.9999998E-03; -2.8999999E-01;378;  0.0000000E+00;  0.0000000E+00;  0.0000000E+00;  1.0000000E+03;  1.0000000E-01;  0.0000000E+00;0;  0.0000000E+00;  0.0000000E+00;  0.0000000E+00;0; -1.0984463E-06;  4.0000000E+04;  0.0000000E+00;  0.0000000E+00;  4.0000000E+04;  0.0000000E+00;  4.0000000E+04; -1.0524039E-06;  0.0000000E+00; -4.6042338E-08;  7.6663397E-02;
 -1.6000000E-01;  9.9999998E-03; -2.8000000E-01;379;  0.0000000E+00;  0.0000000E+00;  0.0000000E+00;  1.0000000E+03;  1.0000000E-01;  0.0000000E+00;0;  0.0000000E+00;  0.0000000E+00;  0.0000000E+00;0; -1.3592017E-06;  4.0000000E+04;  0.0000000E+00;  0.0000000E+00;  4.0000000E+04;  0.0000000E+00;  4.0000000E+04; -1.3358639E-06;  0.0000000E+00; -2.3337844E-08;  3.6952309E-02;
 -1.5000001E-01;  9.9999998E-03; -4.4000000E-01;454;  0.0000000E+00;  0.0000000E+00;  0.0000000E+00;  1.0000000E+03;  1.0000000E-01;  0.0000000E+00;0;  0.0000000E+00;  0.0000000E+00;  0.0000000E+00;0;  0.0000000E+00;  4.0000000E+04;  0.0000000E+00;  0.0000000E+00;  4.0000000E+04;  0.0000000E+00;  4.0000000E+04;  0.0000000E+00;  0.0000000E+00;  0.0000000E+00;  0.0000000E+00;
 -1.5000001E-01;  9.9999998E-03; -4.3000001E-01;455;  0.0000000E+00;  0.0000000E+00;  0.0000000E+00;  1.0000000E+03;  1.0000000E-01;  0.0000000E+00;0;  0.0000000E+00;  0.0000000E+00;  0.0000000E+00;0;  0.0000000E+00;  4.0000000E+04;  0.0000000E+00;  0.0000000E+00;  4.0000000E+04;  0.0000000E+00;  4.0000000E+04;  0.0000000E+00;  0.0000000E+00;  0.0000000E+00;  0.0000000E+00;
 -1.5000001E-01;  9.9999998E-03; -4.1999999E-01;456;  0.0000000E+00;  0.0000000E+00;  0.0000000E+00;  1.0000000E+03;  1.0000000E-01;  0.0000000E+00;0;  0.0000000E+00;  0.0000000E+00;  0.0000000E+00;0;  0.0000000E+00;  4.0000000E+04;  0.0000000E+00;  0.0000000E+00;  4.0000000E+04;  0.0000000E+00;  4.0000000E+04;  0.0000000E+00;  0.0000000E+00;  0.0000000E+00;  0.0000000E+00;
 -1.5000001E-01;  9.9999998E-03; -4.1000000E-01;457;  0.0000000E+00;  0.0000000E+00;  0.0000000E+00;  1.0000000E+03;  1.0000000E-01;  0.0000000E+00;0;  0.0000000E+00;  0.0000000E+00;  0.0000000E+00;0;  0.0000000E+00;  4.0000000E+04;  0.0000000E+00;  0.0000000E+00;  4.0000000E+04;  0.0000000E+00;  4.0000000E+04;  0.0000000E+00;  0.0000000E+00;  0.0000000E+00;  0.0000000E+00;
 -1.5000001E-01;  9.9999998E-03; -4.0000001E-01;458;  0.0000000E+00;  0.0000000E+00;  0.0000000E+00;  1.0000000E+03;  1.0000000E-01;  0.0000000E+00;0;  0.0000000E+00;  0.0000000E+00;  0.0000000E+00;0;  0.0000000E+00;  4.0000000E+04;  0.0000000E+00;  0.0000000E+00;  4.0000000E+04;  0.0000000E+00;  4.0000000E+04;  0.0000000E+00;  0.0000000E+00;  0.0000000E+00;  0.0000000E+00;
 -1.5000001E-01;  9.9999998E-03; -3.8999999E-01;459;  0.0000000E+00;  0.0000000E+00;  0.0000000E+00;  1.0000000E+03;  1.0000000E-01;  0.0000000E+00;0;  0.0000000E+00;  0.0000000E+00;  0.0000000E+00;0;  0.0000000E+00;  4.0000000E+04;  0.0000000E+00;  0.0000000E+00;  4.0000000E+04;  0.0000000E+00;  4.0000000E+04;  0.0000000E+00;  0.0000000E+00;  0.0000000E+00;  0.0000000E+00;
 -1.5000001E-01;  9.9999998E-03; -3.8000000E-01;460;  0.0000000E+00;  0.0000000E+00;  0.0000000E+00;  1.0000000E+03;  1.0000000E-01;  0.0000000E+00;0;  0.0000000E+00;  0.0000000E+00;  0.0000000E+00;0;  0.0000000E+00;  4.0000000E+04;  0.0000000E+00;  0.0000000E+00;  4.0000000E+04;  0.0000000E+00;  4.0000000E+04;  0.0000000E+00;  0.0000000E+00;  0.0000000E+00;  0.0000000E+00;
 -1.5000001E-01;  9.9999998E-03; -3.7000000E-01;461;  0.0000000E+00;  0.0000000E+00;  0.0000000E+00;  1.0000000E+03;  1.0000000E-01;  0.0000000E+00;0;  0.0000000E+00;  0.0000000E+00;  0.0000000E+00;0;  0.0000000E+00;  4.0000000E+04;  0.0000000E+00;  0.0000000E+00;  4.0000000E+04;  0.0000000E+00;  4.0000000E+04;  0.0000000E+00;  0.0000000E+00;  0.0000000E+00;  3.0836722E-09;
 -1.5000001E-01;  9.9999998E-03; -3.6000001E-01;462;  0.0000000E+00;  0.0000000E+00;  0.0000000E+00;  1.0000000E+03;  1.0000000E-01;  0.0000000E+00;0;  0.0000000E+00;  0.0000000E+00;  0.0000000E+00;0; -3.3709480E-08;  4.0000000E+04;  0.0000000E+00;  0.0000000E+00;  4.0000000E+04;  0.0000000E+00;  4.0000000E+04; -2.4662780E-08;  0.0000000E+00; -9.0467003E-09;  1.4128832E-02;
 -1.5000001E-01;  9.9999998E-03; -3.4999999E-01;463;  0.0000000E+00;  0.0000000E+00;  0.0000000E+00;  1.0000000E+03;  1.0000000E-01;  0.0000000E+00;0;  0.0000000E+00;  0.0000000E+00;  0.0000000E+00;0; -2.8685582E-07;  4.0000000E+04;  0.0000000E+00;  0.0000000E+00;  4.0000000E+04;  0.0000000E+00;  4.0000000E+04; -2.2006722E-07;  0.0000000E+00; -6.6788587E-08;  9.4937526E-02;
 -1.5000001E-01;  9.9999998E-03; -3.4000000E-01;464;  0.0000000E+00;  0.0000000E+00;  0.0000000E+00;  1.0000000E+03;  1.0000000E-01;  0.0000000E+00;0;  0.0000000E+00;  0.0000000E+00;  0.0000000E+00;0; -1.0340240E-06;  4.0000000E+04;  0.0000000E+00;  0.0000000E+00;  4.0000000E+04;  0.0000000E+00;  4.0000000E+04; -8.2930313E-07;  0.0000000E+00; -2.0472083E-07;  2.9026091E-01;
 -1.5000001E-01;  9.9999998E-03; -3.3000001E-01;465;  0.0000000E+00;  0.0000000E+00;  0.0000000E+00;  1.0000000E+03;  1.0000000E-01;  0.0000000E+00;0;  0.0000000E+00;  0.0000000E+00;  0.0000000E+00;0; -2.4924725E-06;  4.0000000E+04;  0.0000000E+00;  0.0000000E+00;  4.0000000E+04;  0.0000000E+00;  4.0000000E+04; -2.0780963E-06;  0.0000000E+00; -4.1437625E-07;  5.9609264E-01;
 -1.5000001E-01;  9.9999998E-03; -3.1999999E-01;466;  0.0000000E+00;  0.0000000E+00;  0.0000000E+00;  1.0000000E+03;  1.0000000E-01;  0.0000000E+00;0;  0.0000000E+00;  0.0000000E+00;  0.0000000E+00;0; -4.7138792E-06;  4.0000000E+04;  0.0000000E+00;  0.0000000E+00;  4.0000000E+04;  0.0000000E+00;  4.0000000E+04; -4.0685986E-06;  0.0000000E+00; -6.4528058E-07;  9.4161612E-01;
 -1.5000001E-01;  9.9999998E-03; -3.1000000E-01;467;  0.0000000E+00;  0.0000000E+00;  0.0000000E+00;  1.0000000E+03;  1.0000000E-01;  0.0000000E+00;0;  0.0000000E+00;  0.0000000E+00;  0.0000000E+00;0; -7.5601793E-06;  4.0000000E+04;  0.0000000E+00;  0.0000000E+00;  4.0000000E+04;  0.0000000E+00;  4.0000000E+04; -6.7359329E-06;  0.0000000E+00; -8.2424623E-07;  1.2098205E+00;
 -1.5000001E-01;  9.9999998E-03; -3.0000001E-01;468;  0.0000000E+00;  0.0000000E+00;  0.0000000E+00;  1.0000000E+03;  1.0000000E-01;  0.0000000E+00;0;  0.0000000E+00;  0.0000000E+00;  0.0000000E+00;0; -1.0747603E-05;  4.0000000E+04;  0.0000000E+00;  0.0000000E+00;  4.0000000E+04;  0.0000000E+00;  4.0000000E+04; -9.8639830E-06;  0.0000000E+00; -8.8361975E-07;  1.2797869E+00;
 -1.5000001E-01;  9.9999998E-03; -2.8999999E-01;469;  0.0000000E+00;  0.0000000E+00;  0.0000000E+00;  1.0000000E+03;  1.0000000E-01;  0.0000000E+00;0;  0.0000000E+00;  0.0000000E+00;  0.0000000E+00;0; -1.3935952E-05;  4.0000000E+04;  0.0000000E+00;  0.0000000E+00;  4.0000000E+04;  0.0000000E+00;  4.0000000E+04; -1.3147275E-05;  0.0000000E+00; -7.8867652E-07;  1.0731982E+00;
 -1.5000001E-01;  9.9999998E-03; -2.8000000E-01;470;  0.0000000E+00;  0.0000000E+00;  0.0000000E+00;  1.0000000E+03;  1.0000000E-01;  0.0000000E+00;0;  0.0000000E+00;  0.0000000E+00;  0.0000000E+00;0; -1.6830076E-05;  4.0000000E+04;  0.0000000E+00;  0.0000000E+00;  4.0000000E+04;  0.0000000E+00;  4.0000000E+04; -1.6276745E-05;  0.0000000E+00; -5.5333123E-07;  5.8628142E-01;
 -1.4000000E-01;  9.9999998E-03; -4.4000000E-01;545;  0.0000000E+00;  0.0000000E+00;  0.0000000E+00;  1.0000000E+03;  1.0000000E-01;  0.0000000E+00;0;  0.0000000E+00;  0.0000000E+00;  0.0000000E+00;0;  0.0000000E+00;  4.0000000E+04;  0.0000000E+00;  0.0000000E+00;  4.0000000E+04;  0.0000000E+00;  4.0000000E+04;  0.0000000E+00;  0.0000000E+00;  0.0000000E+00;  0.0000000E+00;
 -1.4000000E-01;  9.9999998E-03; -4.3000001E-01;546;  0.0000000E+00;  0.0000000E+00;  0.0000000E+00;  1.0000000E+03;  1.0000000E-01;  0.0000000E+00;0;  0.0000000E+00;  0.0000000E+00;  0.0000000E+00;0;  0.0000000E+00;  4.0000000E+04;  0.0000000E+00;  0.0000000E+00;  4.0000000E+04;  0.0000000E+00;  4.0000000E+04;  0.0000000E+00;  0.0000000E+00;  0.0000000E+00;  0.0000000E+00;
 -1.4000000E-01;  9.9999998E-03; -4.1999999E-01;547;  0.0000000E+00;  0.0000000E+00;  0.0000000E+00;  1.0000000E+03;  1.0000000E-01;  0.0000000E+00;0;  0.0000000E+00;  0.0000000E+00;  0.0000000E+00;0;  0.0000000E+00;  4.0000000E+04;  0.0000000E+00;  0.0000000E+00;  4.0000000E+04;  0.0000000E+00;  4.0000000E+04;  0.0000000E+00;  0.0000000E+00;  0.0000000E+00;  0.0000000E+00;
 -1.4000000E-01;  9.9999998E-03; -4.1000000E-01;548;  0.0000000E+00;  0.0000000E+00;  0.0000000E+00;  1.0000000E+03;  1.0000000E-01;  0.0000000E+00;0;  0.0000000E+00;  0.0000000E+00;  0.0000000E+00;0;  0.0000000E+00;  4.0000000E+04;  0.0000000E+00;  0.0000000E+00;  4.0000000E+04;  0.0000000E+00;  4.0000000E+04;  0.0000000E+00;  0.0000000E+00;  0.0000000E+00;  0.0000000E+00;
 -1.4000000E-01;  9.9999998E-03; -4.0000001E-01;549;  0.0000000E+00;  0.0000000E+00;  0.0000000E+00;  1.0000000E+03;  1.0000000E-01;  0.0000000E+00;0;  0.0000000E+00;  0.0000000E+00;  0.0000000E+00;0;  0.0000000E+00;  4.0000000E+04;  0.0000000E+00;  0.0000000E+00;  4.0000000E+04;  0.0000000E+00;  4.0000000E+04;  0.0000000E+00;  0.0000000E+00;  0.0000000E+00;  0.0000000E+00;
 -1.4000000E-01;  9.9999998E-03; -3.8999999E-01;550;  0.0000000E+00;  0.0000000E+00;  0.0000000E+00;  1.0000000E+03;  1.0000000E-01;  0.0000000E+00;0;  0.0000000E+00;  0.0000000E+00;  0.0000000E+00;0;  0.0000000E+00;  4.0000000E+04;  0.0000000E+00;  0.0000000E+00;  4.0000000E+04;  0.0000000E+00;  4.0000000E+04;  0.0000000E+00;  0.0000000E+00;  0.0000000E+00;  0.0000000E+00;
 -1.4000000E-01;  9.9999998E-03; -3.8000000E-01;551;  0.0000000E+00;  0.0000000E+00;  0.0000000E+00;  1.0000000E+03;  1.0000000E-01;  0.0000000E+00;0;  0.0000000E+00;  0.0000000E+00;  0.0000000E+00;0; -1.5773393E-08;  4.0000000E+04;  0.0000000E+00;  0.0000000E+00;  4.0000000E+04;  0.0000000E+00;  4.0000000E+04; -9.9954560E-09;  0.0000000E+00; -5.7779377E-09;  9.9860793E-03;
 -1.4000000E-01;  9.9999998E-03; -3.7000000E-01;552;  0.0000000E+00;  0.0000000E+00;  0.0000000E+00;  1.0000000E+03;  1.0000000E-01;  0.0000000E+00;0;  0.0000000E+00;  0.0000000E+00;  0.0000000E+00;0; -3.3680286E-07;  4.0000000E+04;  0.0000000E+00;  0.0000000E+00;  4.0000000E+04;  0.0000000E+00;  4.0000000E+04; -2.3094405E-07;  0.0000000E+00; -1.0585880E-07;  1.5381612E-01;
 -1.4000000E-01;  9.9999998E-03; -3.6000001E-01;553;  0.0000000E+00;  0.0000000E+00;  0.0000000E+00;  1.0000000E+03;  1.0000000E-01;  0.0000000E+00;0;  0.0000000E+00;  0.0000000E+00;  0.0000000E+00;0; -1.6308154E-06;  4.0000000E+04;  0.0000000E+00;  0.0000000E+00;  4.0000000E+04;  0.0000000E+00;  4.0000000E+04; -1.1889573E-06;  0.0000000E+00; -4.4185808E-07;  6.3604403E-01;
 -1.4000000E-01;  9.9999998E-03; -3.4999999E-01;554;  0.0000000E+00;  0.0000000E+00;  0.0000000E+00;  1.0000000E+03;  1.0000000E-01;  0.0000000E+00;0;  0.0000000E+00;  0.0000000E+00;  0.0000000E+00;0; -4.6241812E-06;  4.0000000E+04;  0.0000000E+00;  0.0000000E+00;  4.0000000E+04;  0.0000000E+00;  4.0000000E+04; -3.5403957E-06;  0.0000000E+00; -1.0837856E-06;  1.5690503E+00;
 -1.4000000E-01;  9.9999998E-03; -3.4000000E-01;555;  0.0000000E+00;  0.0000000E+00;  0.0000000E+00;  1.0000000E+03;  1.0000000E-01;  0.0000000E+00;0;  0.0000000E+00;  0.0000000E+00;  0.0000000E+00;0; -9.9102790E-06;  4.0000000E+04;  0.0000000E+00;  0.0000000E+00;  4.0000000E+04;  0.0000000E+00;  4.0000000E+04; -7.9162264E-06;  0.0000000E+00; -1.9940526E-06;  2.9108210E+00;
 -1.4000000E-01;  9.9999998E-03; -3.3000001E-01;556;  0.0000000E+00;  0.0000000E+00;  0.0000000E+00;  1.0000000E+03;  1.0000000E-01;  0.0000000E+00;0;  0.0000000E+00;  0.0000000E+00;  0.0000000E+00;0; -1.7772654E-05;  4.0000000E+04;  0.0000000E+00;  0.0000000E+00;  4.0000000E+04;  0.0000000E+00;  4.0000000E+04; -1.4742022E-05;  0.0000000E+00; -3.0306321E-06;  4.4438591E+00;
 -1.4000000E-01;  9.9999998E-03; -3.1999999E-01;557;  0.0000000E+00;  0.0000000E+00;  0.0000000E+00;  1.0000000E+03;  1.0000000E-01;  0.0000000E+00;0;  0.0000000E+00;  0.0000000E+00;  0.0000000E+00;0; -2.8069877E-05;  4.0000000E+04;  0.0000000E+00;  0.0000000E+00;  4.0000000E+04;  0.0000000E+00;  4.0000000E+04; -2.4092466E-05;  0.0000000E+00; -3.9774113E-06;  5.8062873E+00;
 -1.4000000E-01;  9.9999998E-03; -3.1000000E-01;558;  0.0000000E+00;  0.0000000E+00;  0.0000000E+00;  1.0000000E+03;  1.0000000E-01;  0.0000000E+00;0;  0.0000000E+00;  0.0000000E+00;  0.0000000E+00;0; -4.0250245E-05;  4.0000000E+04;  0.0000000E+00;  0.0000000E+00;  4.0000000E+04;  0.0000000E+00;  4.0000000E+04; -3.5653069E-05;  0.0000000E+00; -4.5971756E-06;  6.5788856E+00;
 -1.4000000E-01;  9.9999998E-03; -3.0000001E-01;559;  0.0000000E+00;  0.0000000E+00;  0.0000000E+00;  1.0000000E+03;  1.0000000E-01;  0.0000000E+00;0;  0.0000000E+00;  0.0000000E+00;  0.0000000E+00;0; -5.3484211E-05;  4.0000000E+04;  0.0000000E+00;  0.0000000E+00;  4.0000000E+04;  0.0000000E+00;  4.0000000E+04; -4.8786922E-05;  0.0000000E+00; -4.6972909E-06;  6.4011712E+00;
 -1.4000000E-01;  9.9999998E-03; -2.8999999E-01;560;  0.0000000E+00;  0.0000000E+00;  0.0000000E+00;  1.0000000E+03;  1.0000000E-01;  0.0000000E+00;0;  0.0000000E+00;  0.0000000E+00;  0.0000000E+00;0; -6.6873967E-05;  4.0000000E+04;  0.0000000E+00;  0.0000000E+00;  4.0000000E+04;  0.0000000E+00;  4.0000000E+04; -6.2681247E-05;  0.0000000E+00; -4.1927196E-06;  5.0841374E+00;
 -1.4000000E-01;  9.9999998E-03; -2.8000000E-01;561;  0.0000000E+00;  0.0000000E+00;  0.0000000E+00;  1.0000000E+03;  1.0000000E-01;  0.0000000E+00;0;  0.0000000E+00;  0.0000000E+00;  0.0000000E+00;0; -7.9674937E-05;  4.0000000E+04;  0.0000000E+00;  0.0000000E+00;  4.0000000E+04;  0.0000000E+00;  4.0000000E+04; -7.6532793E-05;  0.0000000E+00; -3.1421434E-06;  2.6800222E+00;
 -1.3000000E-01;  9.9999998E-03; -4.4000000E-01;636;  0.0000000E+00;  0.0000000E+00;  0.0000000E+00;  1.0000000E+03;  1.0000000E-01;  0.0000000E+00;0;  0.0000000E+00;  0.0000000E+00;  0.0000000E+00;0;  0.0000000E+00;  4.0000000E+04;  0.0000000E+00;  0.0000000E+00;  4.0000000E+04;  0.0000000E+00;  4.0000000E+04;  0.0000000E+00;  0.0000000E+00;  0.0000000E+00;  0.0000000E+00;
 -1.3000000E-01;  9.9999998E-03; -4.3000001E-01;637;  0.0000000E+00;  0.0000000E+00;  0.0000000E+00;  1.0000000E+03;  1.0000000E-01;  0.0000000E+00;0;  0.0000000E+00;  0.0000000E+00;  0.0000000E+00;0;  0.0000000E+00;  4.0000000E+04;  0.0000000E+00;  0.0000000E+00;  4.0000000E+04;  0.0000000E+00;  4.0000000E+04;  0.0000000E+00;  0.0000000E+00;  0.0000000E+00;  0.0000000E+00;
 -1.3000000E-01;  9.9999998E-03; -4.1999999E-01;638;  0.0000000E+00;  0.0000000E+00;  0.0000000E+00;  1.0000000E+03;  1.0000000E-01;  0.0000000E+00;0;  0.0000000E+00;  0.0000000E+00;  0.0000000E+00;0;  0.0000000E+00;  4.0000000E+04;  0.0000000E+00;  0.0000000E+00;  4.0000000E+04;  0.0000000E+00;  4.0000000E+04;  0.0000000E+00;  0.0000000E+00;  0.0000000E+00;  0.0000000E+00;
 -1.3000000E-01;  9.9999998E-03; -4.1000000E-01;639;  0.0000000E+00;  0.0000000E+00;  0.0000000E+00;  1.0000000E+03;  1.0000000E-01;  0.0000000E+00;0;  0.0000000E+00;  0.0000000E+00;  0.0000000E+00;0;  0.0000000E+00;  4.0000000E+04;  0.0000000E+00;  0.0000000E+00;  4.0000000E+04;  0.0000000E+00;  4.0000000E+04;  0.0000000E+00;  0.0000000E+00;  0.0000000E+00;  0.0000000E+00;
 -1.3000000E-01;  9.9999998E-03; -4.0000001E-01;640;  0.0000000E+00;  0.0000000E+00;  0.0000000E+00;  1.0000000E+03;  1.0000000E-01;  0.0000000E+00;0;  0.0000000E+00;  0.0000000E+00;  0.0000000E+00;0;  0.0000000E+00;  4.0000000E+04;  0.0000000E+00;  0.0000000E+00;  4.0000000E+04;  0.0000000E+00;  4.0000000E+04;  0.0000000E+00;  0.0000000E+00;  0.0000000E+00;  0.0000000E+00;
 -1.3000000E-01;  9.9999998E-03; -3.8999999E-01;641;  0.0000000E+00;  0.0000000E+00;  0.0000000E+00;  1.0000000E+03;  1.0000000E-01;  0.0000000E+00;0;  0.0000000E+00;  0.0000000E+00;  0.0000000E+00;0; -1.0786253E-07;  4.0000000E+04;  0.0000000E+00;  0.0000000E+00;  4.0000000E+04;  0.0000000E+00;  4.0000000E+04; -6.3488592E-08;  0.0000000E+00; -4.4373945E-08;  6.8839721E-02;
 -1.3000000E-01;  9.9999998E-03; -3.8000000E-01;642;  0.0000000E+00;  0.0000000E+00;  0.0000000E+00;  1.0000000E+03;  1.0000000E-01;  0.0000000E+00;0;  0.0000000E+00;  0.0000000E+00;  0.0000000E+00;0; -1.1388760E-06;  4.0000000E+04;  0.0000000E+00;  0.0000000E+00;  4.0000000E+04;  0.0000000E+00;  4.0000000E+04; -7.2970062E-07;  0.0000000E+00; -4.0917533E-07;  6.0727465E-01;
 -1.3000000E-01;  9.9999998E-03; -3.7000000E-01;643;  0.0000000E+00;  0.0000000E+00;  0.0000000E+00;  1.0000000E+03;  1.0000000E-01;  0.0000000E+00;0;  0.0000000E+00;  0.0000000E+00;  0.0000000E+00;0; -4.4181857E-06;  4.0000000E+04;  0.0000000E+00;  0.0000000E+00;  4.0000000E+04;  0.0000000E+00;  4.0000000E+04; -3.0173328E-06;  0.0000000E+00; -1.4008529E-06;  2.0696723E+00;
 -1.3000000E-01;  9.9999998E-03; -3.6000001E-01;644;  0.0000000E+00;  0.0000000E+00;  0.0000000E+00;  1.0000000E+03;  1.0000000E-01;  0.0000000E+00;0;  0.0000000E+00;  0.0000000E+00;  0.0000000E+00;0; -1.1466423E-05;  4.0000000E+04;  0.0000000E+00;  0.0000000E+00;  4.0000000E+04;  0.0000000E+00;  4.0000000E+04; -8.2867336E-06;  0.0000000E+00; -3.1796887E-06;  4.7095308E+00;
 -1.3000000E-01;  9.9999998E-03; -3.4999999E-01;645;  0.0000000E+00;  0.0000000E+00;  0.0000000E+00;  1.0000000E+03;  1.0000000E-01;  0.0000000E+00;0;  0.0000000E+00;  0.0000000E+00;  0.0000000E+00;0; -2.3623186E-05;  4.0000000E+04;  0.0000000E+00;  0.0000000E+00;  4.0000000E+04;  0.0000000E+00;  4.0000000E+04; -1.7935534E-05;  0.0000000E+00; -5.6876524E-06;  8.4414787E+00;
 -1.3000000E-01;  9.9999998E-03; -3.4000000E-01;646;  0.0000000E+00;  0.0000000E+00;  0.0000000E+00;  1.0000000E+03;  1.0000000E-01;  0.0000000E+00;0;  0.0000000E+00;  0.0000000E+00;  0.0000000E+00;0; -4.1800839E-05;  4.0000000E+04;  0.0000000E+00;  0.0000000E+00;  4.0000000E+04;  0.0000000E+00;  4.0000000E+04; -3.3142303E-05;  0.0000000E+00; -8.6585360E-06;  1.2822659E+01;
 -1.3000000E-01;  9.9999998E-03; -3.3000001E-01;647;  0.0000000E+00;  0.0000000E+00;  0.0000000E+00;  1.0000000E+03;  1.0000000E-01;  0.0000000E+00;0;  0.0000000E+00;  0.0000000E+00;  0.0000000E+00;0; -6.6250206E-05;  4.0000000E+04;  0.0000000E+00;  0.0000000E+00;  4.0000000E+04;  0.0000000E+00;  4.0000000E+04; -5.4593547E-05;  0.0000000E+00; -1.1656658E-05;  1.7094639E+01;
 -1.3000000E-01;  9.9999998E-03; -3.1999999E-01;648;  0.0000000E+00;  0.0000000E+00;  0.0000000E+00;  1.0000000E+03;  1.0000000E-01;  0.0000000E+00;0;  0.0000000E+00;  0.0000000E+00;  0.0000000E+00;0; -9.6425378E-05;  4.0000000E+04;  0.0000000E+00;  0.0000000E+00;  4.0000000E+04;  0.0000000E+00;  4.0000000E+04; -8.2282306E-05;  0.0000000E+00; -1.4143075E-05;  2.0299240E+01;
 -1.3000000E-01;  9.9999998E-03; -3.1000000E-01;649;  0.0000000E+00;  0.0000000E+00;  0.0000000E+00;  1.0000000E+03;  1.0000000E-01;  0.0000000E+00;0;  0.0000000E+00;  0.0000000E+00;  0.0000000E+00;0; -1.3105030E-04;  4.0000000E+04;  0.0000000E+00;  0.0000000E+00;  4.0000000E+04;  0.0000000E+00;  4.0000000E+04; -1.1547498E-04;  0.0000000E+00; -1.5575317E-05;  2.1466629E+01;
 -1.3000000E-01;  9.9999998E-03; -3.0000001E-01;650;  0.0000000E+00;  0.0000000E+00;  0.0000000E+00;  1.0000000E+03;  1.0000000E-01;  0.0000000E+00;0;  0.0000000E+00;  0.0000000E+00;  0.0000000E+00;0; -1.6838073E-04;  4.0000000E+04;  0.0000000E+00;  0.0000000E+00;  4.0000000E+04;  0.0000000E+00;  4.0000000E+04; -1.5284613E-04;  0.0000000E+00; -1.5534608E-05;  1.9844259E+01;
 -1.3000000E-01;  9.9999998E-03; -2.8999999E-01;651;  0.0000000E+00;  0.0000000E+00;  0.0000000E+00;  1.0000093E+03;  1.0000000E-01;  7.7034860E+00;0;  0.0000000E+00;  0.0000000E+00;  0.0000000E+00;0; -2.0659711E-04;  4.0000000E+04;  0.0000000E+00;  0.0000000E+00;  4.0000000E+04;  0.0000000E+00;  4.0000000E+04; -1.9274357E-04;  0.0000000E+00; -1.3853542E-05;  1.5117454E+01;
 -1.3000000E-01;  9.9999998E-03; -2.8000000E-01;652;  0.0000000E+00;  0.0000000E+00;  0.0000000E+00;  1.0000160E+03;  1.0000000E-01;  1.3234194E+01;0;  0.0000000E+00;  0.0000000E+00;  0.0000000E+00;0; -2.4420203E-04;  4.0000000E+04;  0.0000000E+00;  0.0000000E+00;  4.0000000E+04;  0.0000000E+00;  4.0000000E+04; -2.3351022E-04;  0.0000000E+00; -1.0691802E-05;  7.5379786E+00;
 -1.2000000E-01;  9.9999998E-03; -4.4000000E-01;727;  0.0000000E+00;  0.0000000E+00;  0.0000000E+00;  1.0000000E+03;  1.0000000E-01;  0.0000000E+00;0;  0.0000000E+00;  0.0000000E+00;  0.0000000E+00;0;  0.0000000E+00;  4.0000000E+04;  0.0000000E+00;  0.0000000E+00;  4.0000000E+04;  0.0000000E+00;  4.0000000E+04;  0.0000000E+00;  0.0000000E+00;  0.0000000E+00;  0.0000000E+00;
 -1.2000000E-01;  9.9999998E-03; -4.3000001E-01;728;  0.0000000E+00;  0.0000000E+00;  0.0000000E+00;  1.0000000E+03;  1.0000000E-01;  0.0000000E+00;0;  0.0000000E+00;  0.0000000E+00;  0.0000000E+00;0;  0.0000000E+00;  4.0000000E+04;  0.0000000E+00;  0.0000000E+00;  4.0000000E+04;  0.0000000E+00;  4.0000000E+04;  0.0000000E+00;  0.0000000E+00;  0.0000000E+00;  0.0000000E+00;
 -1.2000000E-01;  9.9999998E-03; -4.1999999E-01;729;  0.0000000E+00;  0.0000000E+00;  0.0000000E+00;  1.0000000E+03;  1.0000000E-01;  0.0000000E+00;0;  0.0000000E+00;  0.0000000E+00;  0.0000000E+00;0;  0.0000000E+00;  4.0000000E+04;  0.0000000E+00;  0.0000000E+00;  4.0000000E+04;  0.0000000E+00;  4.0000000E+04;  0.0000000E+00;  0.0000000E+00;  0.0000000E+00;  0.0000000E+00;
 -1.2000000E-01;  9.9999998E-03; -4.1000000E-01;730;  0.0000000E+00;  0.0000000E+00;  0.0000000E+00;  1.0000000E+03;  1.0000000E-01;  0.0000000E+00;0;  0.0000000E+00;  0.0000000E+00;  0.0000000E+00;0;  0.0000000E+00;  4.0000000E+04;  0.0000000E+00;  0.0000000E+00;  4.0000000E+04;  0.0000000E+00;  4.0000000E+04;  0.0000000E+00;  0.0000000E+00;  0.0000000E+00;  3.0553806E-06;
 -1.2000000E-01;  9.9999998E-03; -4.0000001E-01;731;  0.0000000E+00;  0.0000000E+00;  0.0000000E+00;  1.0000000E+03;  1.0000000E-01;  0.0000000E+00;0;  0.0000000E+00;  0.0000000E+00;  0.0000000E+00;0; -2.6748637E-07;  4.0000000E+04;  0.0000000E+00;  0.0000000E+00;  4.0000000E+04;  0.0000000E+00;  4.0000000E+04; -1.4638711E-07;  0.0000000E+00; -1.2109926E-07;  1.8909691E-01;
 -1.2000000E-01;  9.9999998E-03; -3.8999999E-01;732;  0.0000000E+00;  0.0000000E+00;  0.0000000E+00;  1.0000000E+03;  1.0000000E-01;  0.0000000E+00;0;  0.0000000E+00;  0.0000000E+00;  0.0000000E+00;0; -2.2155205E-06;  4.0000000E+04;  0.0000000E+00;  0.0000000E+00;  4.0000000E+04;  0.0000000E+00;  4.0000000E+04; -1.3008862E-06;  0.0000000E+00; -9.1463431E-07;  1.3812917E+00;
 -1.2000000E-01;  9.9999998E-03; -3.8000000E-01;733;  0.0000000E+00;  0.0000000E+00;  0.0000000E+00;  1.0000000E+03;  1.0000000E-01;  0.0000000E+00;0;  0.0000000E+00;  0.0000000E+00;  0.0000000E+00;0; -8.0976824E-06;  4.0000000E+04;  0.0000000E+00;  0.0000000E+00;  4.0000000E+04;  0.0000000E+00;  4.0000000E+04; -5.1081938E-06;  0.0000000E+00; -2.9894884E-06;  4.4977555E+00;
 -1.2000000E-01;  9.9999998E-03; -3.7000000E-01;734;  0.0000000E+00;  0.0000000E+00;  0.0000000E+00;  1.0000000E+03;  1.0000000E-01;  0.0000000E+00;0;  0.0000000E+00;  0.0000000E+00;  0.0000000E+00;0; -2.0489517E-05;  4.0000000E+04;  0.0000000E+00;  0.0000000E+00;  4.0000000E+04;  0.0000000E+00;  4.0000000E+04; -1.3801267E-05;  0.0000000E+00; -6.6882508E-06;  1.0055909E+01;
 -1.2000000E-01;  9.9999998E-03; -3.6000001E-01;735;  0.0000000E+00;  0.0000000E+00;  0.0000000E+00;  1.0000000E+03;  1.0000000E-01;  0.0000000E+00;0;  0.0000000E+00;  0.0000000E+00;  0.0000000E+00;0; -4.1961353E-05;  4.0000000E+04;  0.0000000E+00;  0.0000000E+00;  4.0000000E+04;  0.0000000E+00;  4.0000000E+04; -2.9968391E-05;  0.0000000E+00; -1.1992964E-05;  1.7981218E+01;
 -1.2000000E-01;  9.9999998E-03; -3.4999999E-01;736;  0.0000000E+00;  0.0000000E+00;  0.0000000E+00;  1.0000000E+03;  1.0000000E-01;  0.0000000E+00;0;  0.0000000E+00;  0.0000000E+00;  0.0000000E+00;0; -7.4627736E-05;  4.0000000E+04;  0.0000000E+00;  0.0000000E+00;  4.0000000E+04;  0.0000000E+00;  4.0000000E+04; -5.6104858E-05;  0.0000000E+00; -1.8522878E-05;  2.7576088E+01;
 -1.2000000E-01;  9.9999998E-03; -3.4000000E-01;737;  0.0000000E+00;  0.0000000E+00;  0.0000000E+00;  1.0000000E+03;  1.0000000E-01;  0.0000000E+00;0;  0.0000000E+00;  0.0000000E+00;  0.0000000E+00;0; -1.1979576E-04;  4.0000000E+04;  0.0000000E+00;  0.0000000E+00;  4.0000000E+04;  0.0000000E+00;  4.0000000E+04; -9.4210583E-05;  0.0000000E+00; -2.5585176E-05;  3.7580952E+01;
 -1.2000000E-01;  9.9999998E-03; -3.3000001E-01;738;  0.0000000E+00;  0.0000000E+00;  0.0000000E+00;  1.0000000E+03;  1.0000000E-01;  0.0000000E+00;0;  0.0000000E+00;  0.0000000E+00;  0.0000000E+00;0; -1.7762209E-04;  4.0000000E+04;  0.0000000E+00;  0.0000000E+00;  4.0000000E+04;  0.0000000E+00;  4.0000000E+04; -1.4537996E-04;  0.0000000E+00; -3.2242122E-05;  4.6304192E+01;
 -1.2000000E-01;  9.9999998E-03; -3.1999999E-01;739;  0.0000000E+00;  0.0000000E+00;  0.0000000E+00;  1.0000161E+03;  1.0000000E-01;  1.3332956E+01;0;  0.0000000E+00;  0.0000000E+00;  0.0000000E+00;0; -2.4692982E-04;  4.0000000E+04;  0.0000000E+00;  0.0000000E+00;  4.0000000E+04;  0.0000000E+00;  4.0000000E+04; -2.0951364E-04;  0.0000000E+00; -3.7416186E-05;  5.1841434E+01;
 -1.2000000E-01;  9.9999998E-03; -3.1000000E-01;740;  0.0000000E+00;  0.0000000E+00;  0.0000000E+00;  1.0000449E+03;  1.0000000E-01;  3.7134750E+01;0;  0.0000000E+00;  0.0000000E+00;  0.0000000E+00;0; -3.2533825E-04;  4.0000000E+04;  0.0000000E+00;  0.0000000E+00;  4.0000000E+04;  0.0000000E+00;  4.0000000E+04; -2.8527959E-04;  0.0000000E+00; -4.0058650E-05;  5.2396973E+01;
 -1.2000000E-01;  9.9999998E-03; -3.0000001E-01;741;  0.0000000E+00;  0.0000000E+00;  0.0000000E+00;  1.0000519E+03;  1.0000000E-01;  4.2961746E+01;0;  0.0000000E+00;  0.0000000E+00;  0.0000000E+00;0; -4.0971005E-04;  4.0000000E+04;  0.0000000E+00;  0.0000000E+00;  4.0000000E+04;  0.0000000E+00;  4.0000000E+04; -3.7033192E-04;  0.0000000E+00; -3.9378127E-05;  4.6681255E+01;
 -1.2000000E-01;  9.9999998E-03; -2.8999999E-01;742;  0.0000000E+00;  0.0000000E+00;  0.0000000E+00;  1.0000641E+03;  1.0000000E-01;  5.3134300E+01;0;  0.0000000E+00;  0.0000000E+00;  0.0000000E+00;0; -4.9681420E-04;  4.0000000E+04;  0.0000000E+00;  0.0000000E+00;  4.0000000E+04;  0.0000000E+00;  4.0000000E+04; -4.6173271E-04;  0.0000000E+00; -3.5081521E-05;  3.4302143E+01;
 -1.2000000E-01;  9.9999998E-03; -2.8000000E-01;743;  0.0000000E+00;  0.0000000E+00;  0.0000000E+00;  1.0000712E+03;  1.0000000E-01;  5.8961296E+01;0;  0.0000000E+00;  0.0000000E+00;  0.0000000E+00;0; -5.8397313E-04;  4.0000000E+04;  0.0000000E+00;  0.0000000E+00;  4.0000000E+04;  0.0000000E+00;  4.0000000E+04; -5.5645371E-04;  0.0000000E+00; -2.7519423E-05;  1.5971563E+01;
 -1.1000000E-01;  9.9999998E-03; -4.4000000E-01;818;  0.0000000E+00;  0.0000000E+00;  0.0000000E+00;  1.0000000E+03;  1.0000000E-01;  0.0000000E+00;0;  0.0000000E+00;  0.0000000E+00;  0.0000000E+00;0;  0.0000000E+00;  4.0000000E+04;  0.0000000E+00;  0.0000000E+00;  4.0000000E+04;  0.0000000E+00;  4.0000000E+04;  0.0000000E+00;  0.0000000E+00;  0.0000000E+00;  0.0000000E+00;
 -1.1000000E-01;  9.9999998E-03; -4.3000001E-01;819;  0.0000000E+00;  0.0000000E+00;  0.0000000E+00;  1.0000000E+03;  1.0000000E-01;  0.0000000E+00;0;  0.0000000E+00;  0.0000000E+00;  0.0000000E+00;0;  0.0000000E+00;  4.0000000E+04;  0.0000000E+00;  0.0000000E+00;  4.0000000E+04;  0.0000000E+00;  4.0000000E+04;  0.0000000E+00;  0.0000000E+00;  0.0000000E+00;  0.0000000E+00;
 -1.1000000E-01;  9.9999998E-03; -4.1999999E-01;820;  0.0000000E+00;  0.0000000E+00;  0.0000000E+00;  1.0000000E+03;  1.0000000E-01;  0.0000000E+00;0;  0.0000000E+00;  0.0000000E+00;  0.0000000E+00;0;  0.0000000E+00;  4.0000000E+04;  0.0000000E+00;  0.0000000E+00;  4.0000000E+04;  0.0000000E+00;  4.0000000E+04;  0.0000000E+00;  0.0000000E+00;  0.0000000E+00;  2.4097387E-06;
 -1.1000000E-01;  9.9999998E-03; -4.1000000E-01;821;  0.0000000E+00;  0.0000000E+00;  0.0000000E+00;  1.0000000E+03;  1.0000000E-01;  0.0000000E+00;0;  0.0000000E+00;  0.0000000E+00;  0.0000000E+00;0; -3.5891401E-07;  4.0000000E+04;  0.0000000E+00;  0.0000000E+00;  4.0000000E+04;  0.0000000E+00;  4.0000000E+04; -1.7994361E-07;  0.0000000E+00; -1.7897040E-07;  2.8672150E-01;
 -1.1000000E-01;  9.9999998E-03; -4.0000001E-01;822;  0.0000000E+00;  0.0000000E+00;  0.0000000E+00;  1.0000000E+03;  1.0000000E-01;  0.0000000E+00;0;  0.0000000E+00;  0.0000000E+00;  0.0000000E+00;0; -3.0721649E-06;  4.0000000E+04;  0.0000000E+00;  0.0000000E+00;  4.0000000E+04;  0.0000000E+00;  4.0000000E+04; -1.6375377E-06;  0.0000000E+00; -1.4346271E-06;  2.2025170E+00;
 -1.1000000E-01;  9.9999998E-03; -3.8999999E-01;823;  0.0000000E+00;  0.0000000E+00;  0.0000000E+00;  1.0000000E+03;  1.0000000E-01;  0.0000000E+00;0;  0.0000000E+00;  0.0000000E+00;  0.0000000E+00;0; -1.1454145E-05;  4.0000000E+04;  0.0000000E+00;  0.0000000E+00;  4.0000000E+04;  0.0000000E+00;  4.0000000E+04; -6.5872364E-06;  0.0000000E+00; -4.8669090E-06;  7.4165015E+00;
 -1.1000000E-01;  9.9999998E-03; -3.8000000E-01;824;  0.0000000E+00;  0.0000000E+00;  0.0000000E+00;  1.0000000E+03;  1.0000000E-01;  0.0000000E+00;0;  0.0000000E+00;  0.0000000E+00;  0.0000000E+00;0; -2.9476210E-05;  4.0000000E+04;  0.0000000E+00;  0.0000000E+00;  4.0000000E+04;  0.0000000E+00;  4.0000000E+04; -1.8277064E-05;  0.0000000E+00; -1.1199147E-05;  1.6985172E+01;
 -1.1000000E-01;  9.9999998E-03; -3.7000000E-01;825;  0.0000000E+00;  0.0000000E+00;  0.0000000E+00;  1.0000000E+03;  1.0000000E-01;  0.0000000E+00;0;  0.0000000E+00;  0.0000000E+00;  0.0000000E+00;0; -6.1276514E-05;  4.0000000E+04;  0.0000000E+00;  0.0000000E+00;  4.0000000E+04;  0.0000000E+00;  4.0000000E+04; -4.0706102E-05;  0.0000000E+00; -2.0570416E-05;  3.0979212E+01;
 -1.1000000E-01;  9.9999998E-03; -3.6000001E-01;826;  0.0000000E+00;  0.0000000E+00;  0.0000000E+00;  1.0000000E+03;  1.0000000E-01;  0.0000000E+00;0;  0.0000000E+00;  0.0000000E+00;  0.0000000E+00;0; -1.1081436E-04;  4.0000000E+04;  0.0000000E+00;  0.0000000E+00;  4.0000000E+04;  0.0000000E+00;  4.0000000E+04; -7.8257057E-05;  0.0000000E+00; -3.2557302E-05;  4.8488976E+01;
 -1.1000000E-01;  9.9999998E-03; -3.4999999E-01;827;  0.0000000E+00;  0.0000000E+00;  0.0000000E+00;  1.0000000E+03;  1.0000000E-01;  0.0000000E+00;0;  0.0000000E+00;  0.0000000E+00;  0.0000000E+00;0; -1.8128188E-04;  4.0000000E+04;  0.0000000E+00;  0.0000000E+00;  4.0000000E+04;  0.0000000E+00;  4.0000000E+04; -1.3504950E-04;  0.0000000E+00; -4.6232373E-05;  6.7730934E+01;
 -1.1000000E-01;  9.9999998E-03; -3.4000000E-01;828;  0.0000000E+00;  0.0000000E+00;  0.0000000E+00;  1.0000266E+03;  1.0000000E-01;  2.2024069E+01;0;  0.0000000E+00;  0.0000000E+00;  0.0000000E+00;0; -2.7455992E-04;  4.0000000E+04;  0.0000000E+00;  0.0000000E+00;  4.0000000E+04;  0.0000000E+00;  4.0000000E+04; -2.1432433E-04;  0.0000000E+00; -6.0235576E-05;  8.6188393E+01;
 -1.1000000E-01;  9.9999998E-03; -3.3000001E-01;829;  0.0000000E+00;  0.0000000E+00;  0.0000000E+00;  1.0000504E+03;  1.0000000E-01;  4.1776596E+01;0;  0.0000000E+00;  0.0000000E+00;  0.0000000E+00;0; -3.9068691E-04;  4.0000000E+04;  0.0000000E+00;  0.0000000E+00;  4.0000000E+04;  0.0000000E+00;  4.0000000E+04; -3.1783106E-04;  0.0000000E+00; -7.2855837E-05;  1.0082108E+02;
 -1.1000000E-01;  9.9999998E-03; -3.1999999E-01;830;  0.0000000E+00;  0.0000000E+00;  0.0000000E+00;  1.0000677E+03;  1.0000000E-01;  5.6097179E+01;0;  0.0000000E+00;  0.0000000E+00;  0.0000000E+00;0; -5.2758277E-04;  4.0000000E+04;  0.0000000E+00;  0.0000000E+00;  4.0000000E+04;  0.0000000E+00;  4.0000000E+04; -4.4540010E-04;  0.0000000E+00; -8.2182683E-05;  1.0839771E+02;
 -1.1000000E-01;  9.9999998E-03; -3.1000000E-01;831;  0.0000000E+00;  0.0000000E+00;  0.0000000E+00;  1.0000804E+03;  1.0000000E-01;  6.6566017E+01;0;  0.0000000E+00;  0.0000000E+00;  0.0000000E+00;0; -6.8125618E-04;  4.0000000E+04;  0.0000000E+00;  0.0000000E+00;  4.0000000E+04;  0.0000000E+00;  4.0000000E+04; -5.9487741E-04;  0.0000000E+00; -8.6378772E-05;  1.0599889E+02;
 -1.1000000E-01;  9.9999998E-03; -3.0000001E-01;832;  0.0000000E+00;  0.0000000E+00;  0.0000000E+00;  1.0000997E+03;  1.0000000E-01;  8.2565567E+01;0;  0.0000000E+00;  0.0000000E+00;  0.0000000E+00;0; -8.4652263E-04;  4.0000000E+04;  0.0000000E+00;  0.0000000E+00;  4.0000000E+04;  0.0000000E+00;  4.0000000E+04; -7.6244649E-04;  0.0000000E+00; -8.4076120E-05;  9.1678680E+01;
 -1.1000000E-01;  9.9999998E-03; -2.8999999E-01;833;  0.0000000E+00;  0.0000000E+00;  0.0000000E+00;  1.0001206E+03;  1.0000000E-01;  9.9947792E+01;0;  0.0000000E+00;  0.0000000E+00;  0.0000000E+00;0; -1.0180624E-03;  4.0000000E+04;  0.0000000E+00;  0.0000000E+00;  4.0000000E+04;  0.0000000E+00;  4.0000000E+04; -9.4325806E-04;  0.0000000E+00; -7.4804295E-05;  6.5098999E+01;
 -1.1000000E-01;  9.9999998E-03; -2.8000000E-01;834;  0.0000000E+00;  0.0000000E+00;  0.0000000E+00;  1.0001326E+03;  1.0000000E-01;  1.0982405E+02;0;  0.0000000E+00;  0.0000000E+00;  0.0000000E+00;0; -1.1914090E-03;  4.0000000E+04;  0.0000000E+00;  0.0000000E+00;  4.0000000E+04;  0.0000000E+00;  4.0000000E+04; -1.1321624E-03;  0.0000000E+00; -5.9246526E-05;  2.7850096E+01;
 -1.0000000E-01;  9.9999998E-03; -4.4000000E-01;909;  0.0000000E+00;  0.0000000E+00;  0.0000000E+00;  1.0000000E+03;  1.0000000E-01;  0.0000000E+00;0;  0.0000000E+00;  0.0000000E+00;  0.0000000E+00;0;  0.0000000E+00;  4.0000000E+04;  0.0000000E+00;  0.0000000E+00;  4.0000000E+04;  0.0000000E+00;  4.0000000E+04;  0.0000000E+00;  0.0000000E+00;  0.0000000E+00;  0.0000000E+00;
 -1.0000000E-01;  9.9999998E-03; -4.3000001E-01;910;  0.0000000E+00;  0.0000000E+00;  0.0000000E+00;  1.0000000E+03;  1.0000000E-01;  0.0000000E+00;0;  0.0000000E+00;  0.0000000E+00;  0.0000000E+00;0;  0.0000000E+00;  4.0000000E+04;  0.0000000E+00;  0.0000000E+00;  4.0000000E+04;  0.0000000E+00;  4.0000000E+04;  0.0000000E+00;  0.0000000E+00;  0.0000000E+00;  0.0000000E+00;
 -1.0000000E-01;  9.9999998E-03; -4.1999999E-01;911;  0.0000000E+00;  0.0000000E+00;  0.0000000E+00;  1.0000000E+03;  1.0000000E-01;  0.0000000E+00;0;  0.0000000E+00;  0.0000000E+00;  0.0000000E+00;0; -2.9246439E-07;  4.0000000E+04;  0.0000000E+00;  0.0000000E+00;  4.0000000E+04;  0.0000000E+00;  4.0000000E+04; -1.3565841E-07;  0.0000000E+00; -1.5680598E-07;  2.6384699E-01;
 -1.0000000E-01;  9.9999998E-03; -4.1000000E-01;912;  0.0000000E+00;  0.0000000E+00;  0.0000000E+00;  1.0000000E+03;  1.0000000E-01;  0.0000000E+00;0;  0.0000000E+00;  0.0000000E+00;  0.0000000E+00;0; -3.2199127E-06;  4.0000000E+04;  0.0000000E+00;  0.0000000E+00;  4.0000000E+04;  0.0000000E+00;  4.0000000E+04; -1.5535544E-06;  0.0000000E+00; -1.6663582E-06;  2.6086519E+00;
 -1.0000000E-01;  9.9999998E-03; -4.0000001E-01;913;  0.0000000E+00;  0.0000000E+00;  0.0000000E+00;  1.0000000E+03;  1.0000000E-01;  0.0000000E+00;0;  0.0000000E+00;  0.0000000E+00;  0.0000000E+00;0; -1.3226076E-05;  4.0000000E+04;  0.0000000E+00;  0.0000000E+00;  4.0000000E+04;  0.0000000E+00;  4.0000000E+04; -6.8778677E-06;  0.0000000E+00; -6.3482084E-06;  9.7818098E+00;
 -1.0000000E-01;  9.9999998E-03; -3.8999999E-01;914;  0.0000000E+00;  0.0000000E+00;  0.0000000E+00;  1.0000000E+03;  1.0000000E-01;  0.0000000E+00;0;  0.0000000E+00;  0.0000000E+00;  0.0000000E+00;0; -3.5869038E-05;  4.0000000E+04;  0.0000000E+00;  0.0000000E+00;  4.0000000E+04;  0.0000000E+00;  4.0000000E+04; -2.0247046E-05;  0.0000000E+00; -1.5621990E-05;  2.3826385E+01;
 -1.0000000E-01;  9.9999998E-03; -3.8000000E-01;915;  0.0000000E+00;  0.0000000E+00;  0.0000000E+00;  1.0000000E+03;  1.0000000E-01;  0.0000000E+00;0;  0.0000000E+00;  0.0000000E+00;  0.0000000E+00;0; -7.7230296E-05;  4.0000000E+04;  0.0000000E+00;  0.0000000E+00;  4.0000000E+04;  0.0000000E+00;  4.0000000E+04; -4.7191887E-05;  0.0000000E+00; -3.0038409E-05;  4.5276630E+01;
 -1.0000000E-01;  9.9999998E-03; -3.7000000E-01;916;  0.0000000E+00;  0.0000000E+00;  0.0000000E+00;  1.0000000E+03;  1.0000000E-01;  0.0000000E+00;0;  0.0000000E+00;  0.0000000E+00;  0.0000000E+00;0; -1.4350167E-04;  4.0000000E+04;  0.0000000E+00;  0.0000000E+00;  4.0000000E+04;  0.0000000E+00;  4.0000000E+04; -9.4234871E-05;  0.0000000E+00; -4.9266800E-05;  7.3153839E+01;
 -1.0000000E-01;  9.9999998E-03; -3.6000001E-01;917;  0.0000000E+00;  0.0000000E+00;  0.0000000E+00;  1.0000137E+03;  1.0000000E-01;  1.1357703E+01;0;  0.0000000E+00;  0.0000000E+00;  0.0000000E+00;0; -2.4057295E-04;  4.0000000E+04;  0.0000000E+00;  0.0000000E+00;  4.0000000E+04;  0.0000000E+00;  4.0000000E+04; -1.6833736E-04;  0.0000000E+00; -7.2235591E-05;  1.0520694E+02;
 -1.0000000E-01;  9.9999998E-03; -3.4999999E-01;918;  0.0000000E+00;  0.0000000E+00;  0.0000000E+00;  1.0000494E+03;  1.0000000E-01;  4.0887733E+01;0;  0.0000000E+00;  0.0000000E+00;  0.0000000E+00;0; -3.7319952E-04;  4.0000000E+04;  0.0000000E+00;  0.0000000E+00;  4.0000000E+04;  0.0000000E+00;  4.0000000E+04; -2.7597978E-04;  0.0000000E+00; -9.7219738E-05;  1.3811911E+02;
 -1.0000000E-01;  9.9999998E-03; -3.4000000E-01;919;  0.0000000E+00;  0.0000000E+00;  0.0000000E+00;  1.0000684E+03;  1.0000000E-01;  5.6689754E+01;0;  0.0000000E+00;  0.0000000E+00;  0.0000000E+00;0; -5.4413540E-04;  4.0000000E+04;  0.0000000E+00;  0.0000000E+00;  4.0000000E+04;  0.0000000E+00;  4.0000000E+04; -4.2223730E-04;  0.0000000E+00; -1.2189811E-04;  1.6768629E+02;
 -1.0000000E-01;  9.9999998E-03; -3.3000001E-01;920;  0.0000000E+00;  0.0000000E+00;  0.0000000E+00;  1.0000853E+03;  1.0000000E-01;  7.0615288E+01;0;  0.0000000E+00;  0.0000000E+00;  0.0000000E+00;0; -7.5329840E-04;  4.0000000E+04;  0.0000000E+00;  0.0000000E+00;  4.0000000E+04;  0.0000000E+00;  4.0000000E+04; -6.0986669E-04;  0.0000000E+00; -1.4343171E-04;  1.8907771E+02;
 -1.0000000E-01;  9.9999998E-03; -3.1999999E-01;921;  0.0000000E+00;  0.0000000E+00;  0.0000000E+00;  1.0001186E+03;  1.0000000E-01;  9.8268829E+01;0;  0.0000000E+00;  0.0000000E+00;  0.0000000E+00;0; -9.9734077E-04;  4.0000000E+04;  0.0000000E+00;  0.0000000E+00;  4.0000000E+04;  0.0000000E+00;  4.0000000E+04; -8.3866343E-04;  0.0000000E+00; -1.5867729E-04;  1.9730568E+02;
 -1.0000000E-01;  9.9999998E-03; -3.1000000E-01;922;  0.0000000E+00;  0.0000000E+00;  0.0000000E+00;  1.0001407E+03;  1.0000000E-01;  1.1653992E+02;0;  0.0000000E+00;  0.0000000E+00;  0.0000000E+00;0; -1.2699605E-03;  4.0000000E+04;  0.0000000E+00;  0.0000000E+00;  4.0000000E+04;  0.0000000E+00;  4.0000000E+04; -1.1053361E-03;  0.0000000E+00; -1.6462436E-04;  1.8801527E+02;
 -1.0000000E-01;  9.9999998E-03; -3.0000001E-01;923;  0.0000000E+00;  0.0000000E+00;  0.0000000E+00;  1.0001909E+03;  1.0000000E-01;  1.5821774E+02;0;  0.0000000E+00;  0.0000000E+00;  0.0000000E+00;0; -1.5630182E-03;  4.0000000E+04;  0.0000000E+00;  0.0000000E+00;  4.0000000E+04;  0.0000000E+00;  4.0000000E+04; -1.4039587E-03;  0.0000000E+00; -1.5905958E-04;  1.5850829E+02;
 -1.0000000E-01;  9.9999998E-03; -2.8999999E-01;924;  0.0000000E+00;  0.0000000E+00;  0.0000000E+00;  1.0002112E+03;  1.0000000E-01;  1.7500740E+02;0;  0.0000000E+00;  0.0000000E+00;  0.0000000E+00;0; -1.8681625E-03;  4.0000000E+04;  0.0000000E+00;  0.0000000E+00;  4.0000000E+04;  0.0000000E+00;  4.0000000E+04; -1.7268789E-03;  0.0000000E+00; -1.4128358E-04;  1.0874283E+02;
 -1.0000000E-01;  9.9999998E-03; -2.8000000E-01;925;  0.0000000E+00;  0.0000000E+00;  0.0000000E+00;  1.0002529E+03;  1.0000000E-01;  2.0957433E+02;0;  0.0000000E+00;  0.0000000E+00;  0.0000000E+00;0; -2.1782888E-03;  4.0000000E+04;  0.0000000E+00;  0.0000000E+00;  4.0000000E+04;  0.0000000E+00;  4.0000000E+04; -2.0657578E-03;  0.0000000E+00; -1.1253091E-04;  4.1875164E+01;
 -9.0000004E-02;  9.9999998E-03; -4.4000000E-01;1000;  0.0000000E+00;  0.0000000E+00;  0.0000000E+00;  1.0000000E+03;  1.0000000E-01;  0.0000000E+00;0;  0.0000000E+00;  0.0000000E+00;  0.0000000E+00;0;  0.0000000E+00;  4.0000000E+04;  0.0000000E+00;  0.0000000E+00;  4.0000000E+04;  0.0000000E+00;  4.0000000E+04;  0.0000000E+00;  0.0000000E+00;  0.0000000E+00;  0.0000000E+00;
 -9.0000004E-02;  9.9999998E-03; -4.3000001E-01;1001;  0.0000000E+00;  0.0000000E+00;  0.0000000E+00;  1.0000000E+03;  1.0000000E-01;  0.0000000E+00;0;  0.0000000E+00;  0.0000000E+00;  0.0000000E+00;0; -1.2961755E-07;  4.0000000E+04;  0.0000000E+00;  0.0000000E+00;  4.0000000E+04;  0.0000000E+00;  4.0000000E+04; -5.7708490E-08;  0.0000000E+00; -7.1909049E-08;  1.3225043E-01;
 -9.0000004E-02;  9.9999998E-03; -4.1999999E-01;1002;  0.0000000E+00;  0.0000000E+00;  0.0000000E+00;  1.0000000E+03;  1.0000000E-01;  0.0000000E+00;0;  0.0000000E+00;  0.0000000E+00;  0.0000000E+00;0; -2.5333072E-06;  4.0000000E+04;  0.0000000E+00;  0.0000000E+00;  4.0000000E+04;  0.0000000E+00;  4.0000000E+04; -1.1152496E-06;  0.0000000E+00; -1.4180576E-06;  2.2785432E+00;
 -9.0000004E-02;  9.9999998E-03; -4.1000000E-01;1003;  0.0000000E+00;  0.0000000E+00;  0.0000000E+00;  1.0000000E+03;  1.0000000E-01;  0.0000000E+00;0;  0.0000000E+00;  0.0000000E+00;  0.0000000E+00;0; -1.2586237E-05;  4.0000000E+04;  0.0000000E+00;  0.0000000E+00;  4.0000000E+04;  0.0000000E+00;  4.0000000E+04; -5.9080921E-06;  0.0000000E+00; -6.6781445E-06;  1.0422267E+01;
 -9.0000004E-02;  9.9999998E-03; -4.0000001E-01;1004;  0.0000000E+00;  0.0000000E+00;  0.0000000E+00;  1.0000000E+03;  1.0000000E-01;  0.0000000E+00;0;  0.0000000E+00;  0.0000000E+00;  0.0000000E+00;0; -3.7609207E-05;  4.0000000E+04;  0.0000000E+00;  0.0000000E+00;  4.0000000E+04;  0.0000000E+00;  4.0000000E+04; -1.9186364E-05;  0.0000000E+00; -1.8422843E-05;  2.8242151E+01;
 -9.0000004E-02;  9.9999998E-03; -3.8999999E-01;1005;  0.0000000E+00;  0.0000000E+00;  0.0000000E+00;  1.0000000E+03;  1.0000000E-01;  0.0000000E+00;0;  0.0000000E+00;  0.0000000E+00;  0.0000000E+00;0; -8.5834967E-05;  4.0000000E+04;  0.0000000E+00;  0.0000000E+00;  4.0000000E+04;  0.0000000E+00;  4.0000000E+04; -4.7766622E-05;  0.0000000E+00; -3.8068341E-05;  5.7350426E+01;
 -9.0000004E-02;  9.9999998E-03; -3.8000000E-01;1006;  0.0000000E+00;  0.0000000E+00;  0.0000000E+00;  1.0000000E+03;  1.0000000E-01;  0.0000000E+00;0;  0.0000000E+00;  0.0000000E+00;  0.0000000E+00;0; -1.6603158E-04;  4.0000000E+04;  0.0000000E+00;  0.0000000E+00;  4.0000000E+04;  0.0000000E+00;  4.0000000E+04; -1.0035690E-04;  0.0000000E+00; -6.5674678E-05;  9.7043106E+01;
 -9.0000004E-02;  9.9999998E-03; -3.7000000E-01;1007;  0.0000000E+00;  0.0000000E+00;  0.0000000E+00;  1.0000407E+03;  1.0000000E-01;  3.3776821E+01;0;  0.0000000E+00;  0.0000000E+00;  0.0000000E+00;0; -2.8717937E-04;  4.0000000E+04;  0.0000000E+00;  0.0000000E+00;  4.0000000E+04;  0.0000000E+00;  4.0000000E+04; -1.8700570E-04;  0.0000000E+00; -1.0017366E-04;  1.4475153E+02;
 -9.0000004E-02;  9.9999998E-03; -3.6000001E-01;1008;  0.0000000E+00;  0.0000000E+00;  0.0000000E+00;  1.0000625E+03;  1.0000000E-01;  5.1751621E+01;0;  0.0000000E+00;  0.0000000E+00;  0.0000000E+00;0; -4.5789476E-04;  4.0000000E+04;  0.0000000E+00;  0.0000000E+00;  4.0000000E+04;  0.0000000E+00;  4.0000000E+04; -3.1829643E-04;  0.0000000E+00; -1.3959834E-04;  1.9646002E+02;
 -9.0000004E-02;  9.9999998E-03; -3.4999999E-01;1009;  0.0000000E+00;  0.0000000E+00;  0.0000000E+00;  1.0000810E+03;  1.0000000E-01;  6.7059830E+01;0;  0.0000000E+00;  0.0000000E+00;  0.0000000E+00;0; -6.8519835E-04;  4.0000000E+04;  0.0000000E+00;  0.0000000E+00;  4.0000000E+04;  0.0000000E+00;  4.0000000E+04; -5.0405425E-04;  0.0000000E+00; -1.8114410E-04;  2.4692085E+02;
 -9.0000004E-02;  9.9999998E-03; -3.4000000E-01;1010;  0.0000000E+00;  0.0000000E+00;  0.0000000E+00;  1.0001155E+03;  1.0000000E-01;  9.5700996E+01;0;  0.0000000E+00;  0.0000000E+00;  0.0000000E+00;0; -9.7314664E-04;  4.0000000E+04;  0.0000000E+00;  0.0000000E+00;  4.0000000E+04;  0.0000000E+00;  4.0000000E+04; -7.5198186E-04;  0.0000000E+00; -2.2116477E-04;  2.8980569E+02;
 -9.0000004E-02;  9.9999998E-03; -3.3000001E-01;1011;  0.0000000E+00;  0.0000000E+00;  0.0000000E+00;  1.0001494E+03;  1.0000000E-01;  1.2374959E+02;0;  0.0000000E+00;  0.0000000E+00;  0.0000000E+00;0; -1.3215379E-03;  4.0000000E+04;  0.0000000E+00;  0.0000000E+00;  4.0000000E+04;  0.0000000E+00;  4.0000000E+04; -1.0663073E-03;  0.0000000E+00; -2.5523061E-04;  3.1800851E+02;
 -9.0000004E-02;  9.9999998E-03; -3.1999999E-01;1012;  0.0000000E+00;  0.0000000E+00;  0.0000000E+00;  1.0002010E+03;  1.0000000E-01;  1.6651381E+02;0;  0.0000000E+00;  0.0000000E+00;  0.0000000E+00;0; -1.7252492E-03;  4.0000000E+04;  0.0000000E+00;  0.0000000E+00;  4.0000000E+04;  0.0000000E+00;  4.0000000E+04; -1.4468114E-03;  0.0000000E+00; -2.7843780E-04;  3.2430981E+02;
 -9.0000004E-02;  9.9999998E-03; -3.1000000E-01;1013;  0.0000000E+00;  0.0000000E+00;  0.0000000E+00;  1.0002562E+03;  1.0000000E-01;  2.1224091E+02;0;  0.0000000E+00;  0.0000000E+00;  0.0000000E+00;0; -2.1747067E-03;  4.0000000E+04;  0.0000000E+00;  0.0000000E+00;  4.0000000E+04;  0.0000000E+00;  4.0000000E+04; -1.8886063E-03;  0.0000000E+00; -2.8610032E-04;  3.0255814E+02;
 -9.0000004E-02;  9.9999998E-03; -3.0000001E-01;1014;  0.0000000E+00;  0.0000000E+00;  0.0000000E+00;  1.0003141E+03;  1.0000000E-01;  2.6023956E+02;0;  0.0000000E+00;  0.0000000E+00;  0.0000000E+00;0; -2.6575748E-03;  4.0000000E+04;  0.0000000E+00;  0.0000000E+00;  4.0000000E+04;  0.0000000E+00;  4.0000000E+04; -2.3827543E-03;  0.0000000E+00; -2.7482052E-04;  2.4924208E+02;
 -9.0000004E-02;  9.9999998E-03; -2.8999999E-01;1015;  0.0000000E+00;  0.0000000E+00;  0.0000000E+00;  1.0003677E+03;  1.0000000E-01;  3.0458398E+02;0;  0.0000000E+00;  0.0000000E+00;  0.0000000E+00;0; -3.1611591E-03;  4.0000000E+04;  0.0000000E+00;  0.0000000E+00;  4.0000000E+04;  0.0000000E+00;  4.0000000E+04; -2.9175330E-03;  0.0000000E+00; -2.4362611E-04;  1.6499030E+02;
 -9.0000004E-02;  9.9999998E-03; -2.8000000E-01;1016;  0.0000000E+00;  0.0000000E+00;  0.0000000E+00;  1.0004240E+03;  1.0000000E-01;  3.5119995E+02;0;  0.0000000E+00;  0.0000000E+00;  0.0000000E+00;0; -3.6745465E-03;  4.0000000E+04;  0.0000000E+00;  0.0000000E+00;  4.0000000E+04;  0.0000000E+00;  4.0000000E+04; -3.4799222E-03;  0.0000000E+00; -1.9462427E-04;  5.5945244E+01;
 -7.9999998E-02;  9.9999998E-03; -4.4000000E-01;1091;  0.0000000E+00;  0.0000000E+00;  0.0000000E+00;  1.0000000E+03;  1.0000000E-01;  0.0000000E+00;0;  0.0000000E+00;  0.0000000E+00;  0.0000000E+00;0; -2.0647434E-08;  4.0000000E+04;  0.0000000E+00;  0.0000000E+00;  4.0000000E+04;  0.0000000E+00;  4.0000000E+04; -8.9396242E-09;  0.0000000E+00; -1.1707809E-08;  2.3791155E-02;
 -7.9999998E-02;  9.9999998E-03; -4.3000001E-01;1092;  0.0000000E+00;  0.0000000E+00;  0.0000000E+00;  1.0000000E+03;  1.0000000E-01;  0.0000000E+00;0;  0.0000000E+00;  0.0000000E+00;  0.0000000E+00;0; -1.3910642E-06;  4.0000000E+04;  0.0000000E+00;  0.0000000E+00;  4.0000000E+04;  0.0000000E+00;  4.0000000E+04; -5.6991183E-07;  0.0000000E+00; -8.2115236E-07;  1.3732278E+00;
 -7.9999998E-02;  9.9999998E-03; -4.1999999E-01;1093;  0.0000000E+00;  0.0000000E+00;  0.0000000E+00;  1.0000000E+03;  1.0000000E-01;  0.0000000E+00;0;  0.0000000E+00;  0.0000000E+00;  0.0000000E+00;0; -9.6397798E-06;  4.0000000E+04;  0.0000000E+00;  0.0000000E+00;  4.0000000E+04;  0.0000000E+00;  4.0000000E+04; -4.1149724E-06;  0.0000000E+00; -5.5248074E-06;  8.7786808E+00;
 -7.9999998E-02;  9.9999998E-03; -4.1000000E-01;1094;  0.0000000E+00;  0.0000000E+00;  0.0000000E+00;  1.0000000E+03;  1.0000000E-01;  0.0000000E+00;0;  0.0000000E+00;  0.0000000E+00;  0.0000000E+00;0; -3.3768891E-05;  4.0000000E+04;  0.0000000E+00;  0.0000000E+00;  4.0000000E+04;  0.0000000E+00;  4.0000000E+04; -1.5548783E-05;  0.0000000E+00; -1.8220109E-05;  2.8136385E+01;
 -7.9999998E-02;  9.9999998E-03; -4.0000001E-01;1095;  0.0000000E+00;  0.0000000E+00;  0.0000000E+00;  1.0000000E+03;  1.0000000E-01;  0.0000000E+00;0;  0.0000000E+00;  0.0000000E+00;  0.0000000E+00;0; -8.4443614E-05;  4.0000000E+04;  0.0000000E+00;  0.0000000E+00;  4.0000000E+04;  0.0000000E+00;  4.0000000E+04; -4.2509389E-05;  0.0000000E+00; -4.1934221E-05;  6.3177422E+01;
 -7.9999998E-02;  9.9999998E-03; -3.8999999E-01;1096;  0.0000000E+00;  0.0000000E+00;  0.0000000E+00;  1.0000000E+03;  1.0000000E-01;  0.0000000E+00;0;  0.0000000E+00;  0.0000000E+00;  0.0000000E+00;0; -1.7315178E-04;  4.0000000E+04;  0.0000000E+00;  0.0000000E+00;  4.0000000E+04;  0.0000000E+00;  4.0000000E+04; -9.5442068E-05;  0.0000000E+00; -7.7709708E-05;  1.1423259E+02;
 -7.9999998E-02;  9.9999998E-03; -3.8000000E-01;1097;  0.0000000E+00;  0.0000000E+00;  0.0000000E+00;  1.0000444E+03;  1.0000000E-01;  3.6739700E+01;0;  0.0000000E+00;  0.0000000E+00;  0.0000000E+00;0; -3.1216635E-04;  4.0000000E+04;  0.0000000E+00;  0.0000000E+00;  4.0000000E+04;  0.0000000E+00;  4.0000000E+04; -1.8736316E-04;  0.0000000E+00; -1.2480318E-04;  1.7875665E+02;
 -7.9999998E-02;  9.9999998E-03; -3.7000000E-01;1098;  0.0000000E+00;  0.0000000E+00;  0.0000000E+00;  1.0000683E+03;  1.0000000E-01;  5.6590992E+01;0;  0.0000000E+00;  0.0000000E+00;  0.0000000E+00;0; -5.1427912E-04;  4.0000000E+04;  0.0000000E+00;  0.0000000E+00;  4.0000000E+04;  0.0000000E+00;  4.0000000E+04; -3.3312032E-04;  0.0000000E+00; -1.8115877E-04;  2.5218732E+02;
 -7.9999998E-02;  9.9999998E-03; -3.6000001E-01;1099;  0.0000000E+00;  0.0000000E+00;  0.0000000E+00;  1.0000889E+03;  1.0000000E-01;  7.3676926E+01;0;  0.0000000E+00;  0.0000000E+00;  0.0000000E+00;0; -7.9191715E-04;  4.0000000E+04;  0.0000000E+00;  0.0000000E+00;  4.0000000E+04;  0.0000000E+00;  4.0000000E+04; -5.4825214E-04;  0.0000000E+00; -2.4366501E-04;  3.2841666E+02;
 -7.9999998E-02;  9.9999998E-03; -3.4999999E-01;1100;  0.0000000E+00;  0.0000000E+00;  0.0000000E+00;  1.0001335E+03;  1.0000000E-01;  1.1061416E+02;0;  0.0000000E+00;  0.0000000E+00;  0.0000000E+00;0; -1.1553090E-03;  4.0000000E+04;  0.0000000E+00;  0.0000000E+00;  4.0000000E+04;  0.0000000E+00;  4.0000000E+04; -8.4719434E-04;  0.0000000E+00; -3.0811469E-04;  3.9991095E+02;
 -7.9999998E-02;  9.9999998E-03; -3.4000000E-01;1101;  0.0000000E+00;  0.0000000E+00;  0.0000000E+00;  1.0001970E+03;  1.0000000E-01;  1.6325464E+02;0;  0.0000000E+00;  0.0000000E+00;  0.0000000E+00;0; -1.6103795E-03;  4.0000000E+04;  0.0000000E+00;  0.0000000E+00;  4.0000000E+04;  0.0000000E+00;  4.0000000E+04; -1.2412912E-03;  0.0000000E+00; -3.6908840E-04;  4.5776965E+02;
 -7.9999998E-02;  9.9999998E-03; -3.3000001E-01;1102;  0.0000000E+00;  0.0000000E+00;  0.0000000E+00;  1.0002566E+03;  1.0000000E-01;  2.1253720E+02;0;  0.0000000E+00;  0.0000000E+00;  0.0000000E+00;0; -2.1567945E-03;  4.0000000E+04;  0.0000000E+00;  0.0000000E+00;  4.0000000E+04;  0.0000000E+00;  4.0000000E+04; -1.7368137E-03;  0.0000000E+00; -4.1998090E-04;  4.9206656E+02;
 -7.9999998E-02;  9.9999998E-03; -3.1999999E-01;1103;  0.0000000E+00;  0.0000000E+00;  0.0000000E+00;  1.0003286E+03;  1.0000000E-01;  2.7228860E+02;0;  0.0000000E+00;  0.0000000E+00;  0.0000000E+00;0; -2.7869786E-03;  4.0000000E+04;  0.0000000E+00;  0.0000000E+00;  4.0000000E+04;  0.0000000E+00;  4.0000000E+04; -2.3335244E-03;  0.0000000E+00; -4.5345430E-04;  4.9279028E+02;
 -7.9999998E-02;  9.9999998E-03; -3.1000000E-01;1104;  0.0000000E+00;  0.0000000E+00;  0.0000000E+00;  1.0004054E+03;  1.0000000E-01;  3.3589172E+02;0;  0.0000000E+00;  0.0000000E+00;  0.0000000E+00;0; -3.4867947E-03;  4.0000000E+04;  0.0000000E+00;  0.0000000E+00;  4.0000000E+04;  0.0000000E+00;  4.0000000E+04; -3.0242829E-03;  0.0000000E+00; -4.6251176E-04;  4.5159146E+02;
 -7.9999998E-02;  9.9999998E-03; -3.0000001E-01;1105;  0.0000000E+00;  0.0000000E+00;  0.0000000E+00;  1.0004924E+03;  1.0000000E-01;  4.0788971E+02;0;  0.0000000E+00;  0.0000000E+00;  0.0000000E+00;0; -4.2380183E-03;  4.0000000E+04;  0.0000000E+00;  0.0000000E+00;  4.0000000E+04;  0.0000000E+00;  4.0000000E+04; -3.7958731E-03;  0.0000000E+00; -4.4214522E-04;  3.6408588E+02;
 -7.9999998E-02;  9.9999998E-03; -2.8999999E-01;1106;  0.0000000E+00;  0.0000000E+00;  0.0000000E+00;  1.0005820E+03;  1.0000000E-01;  4.8215921E+02;0;  0.0000000E+00;  0.0000000E+00;  0.0000000E+00;0; -5.0218264E-03;  4.0000000E+04;  0.0000000E+00;  0.0000000E+00;  4.0000000E+04;  0.0000000E+00;  4.0000000E+04; -4.6307524E-03;  0.0000000E+00; -3.9107414E-04;  2.3217554E+02;
 -7.9999998E-02;  9.9999998E-03; -2.8000000E-01;1107;  0.0000000E+00;  0.0000000E+00;  0.0000000E+00;  1.0006699E+03;  1.0000000E-01;  5.5504602E+02;0;  0.0000000E+00;  0.0000000E+00;  0.0000000E+00;0; -5.8219270E-03;  4.0000000E+04;  0.0000000E+00;  0.0000000E+00;  4.0000000E+04;  0.0000000E+00;  4.0000000E+04; -5.5091977E-03;  0.0000000E+00; -3.1272942E-04;  6.8642975E+01;
 -7.0000000E-02;  9.9999998E-03; -4.4000000E-01;1182;  0.0000000E+00;  0.0000000E+00;  0.0000000E+00;  1.0000000E+03;  1.0000000E-01;  0.0000000E+00;0;  0.0000000E+00;  0.0000000E+00;  0.0000000E+00;0; -4.3090870E-07;  4.0000000E+04;  0.0000000E+00;  0.0000000E+00;  4.0000000E+04;  0.0000000E+00;  4.0000000E+04; -1.7005542E-07;  0.0000000E+00; -2.6085328E-07;  4.6971670E-01;
 -7.0000000E-02;  9.9999998E-03; -4.3000001E-01;1183;  0.0000000E+00;  0.0000000E+00;  0.0000000E+00;  1.0000000E+03;  1.0000000E-01;  0.0000000E+00;0;  0.0000000E+00;  0.0000000E+00;  0.0000000E+00;0; -5.5671294E-06;  4.0000000E+04;  0.0000000E+00;  0.0000000E+00;  4.0000000E+04;  0.0000000E+00;  4.0000000E+04; -2.1991045E-06;  0.0000000E+00; -3.3680249E-06;  5.5028667E+00;
 -7.0000000E-02;  9.9999998E-03; -4.1999999E-01;1184;  0.0000000E+00;  0.0000000E+00;  0.0000000E+00;  1.0000000E+03;  1.0000000E-01;  0.0000000E+00;0;  0.0000000E+00;  0.0000000E+00;  0.0000000E+00;0; -2.5221878E-05;  4.0000000E+04;  0.0000000E+00;  0.0000000E+00;  4.0000000E+04;  0.0000000E+00;  4.0000000E+04; -1.0552681E-05;  0.0000000E+00; -1.4669197E-05;  2.2931231E+01;
 -7.0000000E-02;  9.9999998E-03; -4.1000000E-01;1185;  0.0000000E+00;  0.0000000E+00;  0.0000000E+00;  1.0000000E+03;  1.0000000E-01;  0.0000000E+00;0;  0.0000000E+00;  0.0000000E+00;  0.0000000E+00;0; -7.2592869E-05;  4.0000000E+04;  0.0000000E+00;  0.0000000E+00;  4.0000000E+04;  0.0000000E+00;  4.0000000E+04; -3.3007091E-05;  0.0000000E+00; -3.9585782E-05;  5.9790279E+01;
 -7.0000000E-02;  9.9999998E-03; -4.0000001E-01;1186;  0.0000000E+00;  0.0000000E+00;  0.0000000E+00;  1.0000000E+03;  1.0000000E-01;  0.0000000E+00;0;  0.0000000E+00;  0.0000000E+00;  0.0000000E+00;0; -1.6223735E-04;  4.0000000E+04;  0.0000000E+00;  0.0000000E+00;  4.0000000E+04;  0.0000000E+00;  4.0000000E+04; -8.1000922E-05;  0.0000000E+00; -8.1236431E-05;  1.1890993E+02;
 -7.0000000E-02;  9.9999998E-03; -3.8999999E-01;1187;  0.0000000E+00;  0.0000000E+00;  0.0000000E+00;  1.0000443E+03;  1.0000000E-01;  3.6739700E+01;0;  0.0000000E+00;  0.0000000E+00;  0.0000000E+00;0; -3.0966807E-04;  4.0000000E+04;  0.0000000E+00;  0.0000000E+00;  4.0000000E+04;  0.0000000E+00;  4.0000000E+04; -1.6974659E-04;  0.0000000E+00; -1.3992148E-04;  1.9863496E+02;
 -7.0000000E-02;  9.9999998E-03; -3.8000000E-01;1188;  0.0000000E+00;  0.0000000E+00;  0.0000000E+00;  1.0000698E+03;  1.0000000E-01;  5.7874905E+01;0;  0.0000000E+00;  0.0000000E+00;  0.0000000E+00;0; -5.3174130E-04;  4.0000000E+04;  0.0000000E+00;  0.0000000E+00;  4.0000000E+04;  0.0000000E+00;  4.0000000E+04; -3.1792762E-04;  0.0000000E+00; -2.1381368E-04;  2.9416592E+02;
 -7.0000000E-02;  9.9999998E-03; -3.7000000E-01;1189;  0.0000000E+00;  0.0000000E+00;  0.0000000E+00;  1.0001076E+03;  1.0000000E-01;  8.9182663E+01;0;  0.0000000E+00;  0.0000000E+00;  0.0000000E+00;0; -8.4637734E-04;  4.0000000E+04;  0.0000000E+00;  0.0000000E+00;  4.0000000E+04;  0.0000000E+00;  4.0000000E+04; -5.4673321E-04;  0.0000000E+00; -2.9964410E-04;  3.9869019E+02;
 -7.0000000E-02;  9.9999998E-03; -3.6000001E-01;1190;  0.0000000E+00;  0.0000000E+00;  0.0000000E+00;  1.0001432E+03;  1.0000000E-01;  1.1861393E+02;0;  0.0000000E+00;  0.0000000E+00;  0.0000000E+00;0; -1.2711859E-03;  4.0000000E+04;  0.0000000E+00;  0.0000000E+00;  4.0000000E+04;  0.0000000E+00;  4.0000000E+04; -8.7828364E-04;  0.0000000E+00; -3.9290235E-04;  5.0377353E+02;
 -7.0000000E-02;  9.9999998E-03; -3.4999999E-01;1191;  0.0000000E+00;  0.0000000E+00;  0.0000000E+00;  1.0002105E+03;  1.0000000E-01;  1.7441483E+02;0;  0.0000000E+00;  0.0000000E+00;  0.0000000E+00;0; -1.8207874E-03;  4.0000000E+04;  0.0000000E+00;  0.0000000E+00;  4.0000000E+04;  0.0000000E+00;  4.0000000E+04; -1.3331727E-03;  0.0000000E+00; -4.8761480E-04;  5.9927698E+02;
 -7.0000000E-02;  9.9999998E-03; -3.4000000E-01;1192;  0.0000000E+00;  0.0000000E+00;  0.0000000E+00;  1.0002999E+03;  1.0000000E-01;  2.4838803E+02;0;  0.0000000E+00;  0.0000000E+00;  0.0000000E+00;0; -2.5036847E-03;  4.0000000E+04;  0.0000000E+00;  0.0000000E+00;  4.0000000E+04;  0.0000000E+00;  4.0000000E+04; -1.9276281E-03;  0.0000000E+00; -5.7605671E-04;  6.7325879E+02;
 -7.0000000E-02;  9.9999998E-03; -3.3000001E-01;1193;  0.0000000E+00;  0.0000000E+00;  0.0000000E+00;  1.0003950E+03;  1.0000000E-01;  3.2720062E+02;0;  0.0000000E+00;  0.0000000E+00;  0.0000000E+00;0; -3.3194062E-03;  4.0000000E+04;  0.0000000E+00;  0.0000000E+00;  4.0000000E+04;  0.0000000E+00;  4.0000000E+04; -2.6706683E-03;  0.0000000E+00; -6.4873794E-04;  7.1237427E+02;
 -7.0000000E-02;  9.9999998E-03; -3.1999999E-01;1194;  0.0000000E+00;  0.0000000E+00;  0.0000000E+00;  1.0005076E+03;  1.0000000E-01;  4.2053131E+02;0;  0.0000000E+00;  0.0000000E+00;  0.0000000E+00;0; -4.2570601E-03;  4.0000000E+04;  0.0000000E+00;  0.0000000E+00;  4.0000000E+04;  0.0000000E+00;  4.0000000E+04; -3.5620001E-03;  0.0000000E+00; -6.9505995E-04;  7.0317773E+02;
 -7.0000000E-02;  9.9999998E-03; -3.1000000E-01;1195;  0.0000000E+00;  0.0000000E+00;  0.0000000E+00;  1.0006206E+03;  1.0000000E-01;  5.1415833E+02;0;  0.0000000E+00;  0.0000000E+00;  0.0000000E+00;0; -5.2962517E-03;  4.0000000E+04;  0.0000000E+00;  0.0000000E+00;  4.0000000E+04;  0.0000000E+00;  4.0000000E+04; -4.5913407E-03;  0.0000000E+00; -7.0491084E-04;  6.3459503E+02;
 -7.0000000E-02;  9.9999998E-03; -3.0000001E-01;1196;  0.0000000E+00;  0.0000000E+00;  0.0000000E+00;  1.0007448E+03;  1.0000000E-01;  6.1706897E+02;0;  0.0000000E+00;  0.0000000E+00;  0.0000000E+00;0; -6.4105811E-03;  4.0000000E+04;  0.0000000E+00;  0.0000000E+00;  4.0000000E+04;  0.0000000E+00;  4.0000000E+04; -5.7394565E-03;  0.0000000E+00; -6.7112438E-04;  5.0132404E+02;
 -7.0000000E-02;  9.9999998E-03; -2.8999999E-01;1197;  0.0000000E+00;  0.0000000E+00;  0.0000000E+00;  1.0008763E+03;  1.0000000E-01;  7.2600415E+02;0;  0.0000000E+00;  0.0000000E+00;  0.0000000E+00;0; -7.5727198E-03;  4.0000000E+04;  0.0000000E+00;  0.0000000E+00;  4.0000000E+04;  0.0000000E+00;  4.0000000E+04; -6.9806338E-03;  0.0000000E+00; -5.9208588E-04;  3.0748547E+02;
 -7.0000000E-02;  9.9999998E-03; -2.8000000E-01;1198;  0.0000000E+00;  0.0000000E+00;  0.0000000E+00;  1.0010074E+03;  1.0000000E-01;  8.3464307E+02;0;  0.0000000E+00;  0.0000000E+00;  0.0000000E+00;0; -8.7589687E-03;  4.0000000E+04;  0.0000000E+00;  0.0000000E+00;  4.0000000E+04;  0.0000000E+00;  4.0000000E+04; -8.2858093E-03;  0.0000000E+00; -4.7315945E-04;  8.2624924E+01;
 -5.9999999E-02;  9.9999998E-03; -4.4000000E-01;1273;  0.0000000E+00;  0.0000000E+00;  0.0000000E+00;  1.0000000E+03;  1.0000000E-01;  0.0000000E+00;0;  0.0000000E+00;  0.0000000E+00;  0.0000000E+00;0; -2.1139972E-06;  4.0000000E+04;  0.0000000E+00;  0.0000000E+00;  4.0000000E+04;  0.0000000E+00;  4.0000000E+04; -7.8972494E-07;  0.0000000E+00; -1.3242723E-06;  2.2665772E+00;
 -5.9999999E-02;  9.9999998E-03; -4.3000001E-01;1274;  0.0000000E+00;  0.0000000E+00;  0.0000000E+00;  1.0000000E+03;  1.0000000E-01;  0.0000000E+00;0;  0.0000000E+00;  0.0000000E+00;  0.0000000E+00;0; -1.4786936E-05;  4.0000000E+04;  0.0000000E+00;  0.0000000E+00;  4.0000000E+04;  0.0000000E+00;  4.0000000E+04; -5.7011812E-06;  0.0000000E+00; -9.0857548E-06;  1.4507025E+01;
 -5.9999999E-02;  9.9999998E-03; -4.1999999E-01;1275;  0.0000000E+00;  0.0000000E+00;  0.0000000E+00;  1.0000000E+03;  1.0000000E-01;  0.0000000E+00;0;  0.0000000E+00;  0.0000000E+00;  0.0000000E+00;0; -5.2895997E-05;  4.0000000E+04;  0.0000000E+00;  0.0000000E+00;  4.0000000E+04;  0.0000000E+00;  4.0000000E+04; -2.1836255E-05;  0.0000000E+00; -3.1059742E-05;  4.7268101E+01;
 -5.9999999E-02;  9.9999998E-03; -4.1000000E-01;1276;  0.0000000E+00;  0.0000000E+00;  0.0000000E+00;  1.0000000E+03;  1.0000000E-01;  0.0000000E+00;0;  0.0000000E+00;  0.0000000E+00;  0.0000000E+00;0; -1.3440353E-04;  4.0000000E+04;  0.0000000E+00;  0.0000000E+00;  4.0000000E+04;  0.0000000E+00;  4.0000000E+04; -6.0633734E-05;  0.0000000E+00; -7.3769792E-05;  1.0779557E+02;
 -5.9999999E-02;  9.9999998E-03; -4.0000001E-01;1277;  0.0000000E+00;  0.0000000E+00;  0.0000000E+00;  1.0000315E+03;  1.0000000E-01;  2.6073338E+01;0;  0.0000000E+00;  0.0000000E+00;  0.0000000E+00;0; -2.7840497E-04;  4.0000000E+04;  0.0000000E+00;  0.0000000E+00;  4.0000000E+04;  0.0000000E+00;  4.0000000E+04; -1.3835281E-04;  0.0000000E+00; -1.4005216E-04;  1.9722499E+02;
 -5.9999999E-02;  9.9999998E-03; -3.8999999E-01;1278;  0.0000000E+00;  0.0000000E+00;  0.0000000E+00;  1.0000681E+03;  1.0000000E-01;  5.6393467E+01;0;  0.0000000E+00;  0.0000000E+00;  0.0000000E+00;0; -5.0538004E-04;  4.0000000E+04;  0.0000000E+00;  0.0000000E+00;  4.0000000E+04;  0.0000000E+00;  4.0000000E+04; -2.7624617E-04;  0.0000000E+00; -2.2913389E-04;  3.1144809E+02;
 -5.9999999E-02;  9.9999998E-03; -3.8000000E-01;1279;  0.0000000E+00;  0.0000000E+00;  0.0000000E+00;  1.0001042E+03;  1.0000000E-01;  8.6318550E+01;0;  0.0000000E+00;  0.0000000E+00;  0.0000000E+00;0; -8.3806267E-04;  4.0000000E+04;  0.0000000E+00;  0.0000000E+00;  4.0000000E+04;  0.0000000E+00;  4.0000000E+04; -5.0019607E-04;  0.0000000E+00; -3.3786660E-04;  4.4319031E+02;
 -5.9999999E-02;  9.9999998E-03; -3.7000000E-01;1280;  0.0000000E+00;  0.0000000E+00;  0.0000000E+00;  1.0001528E+03;  1.0000000E-01;  1.2661370E+02;0;  0.0000000E+00;  0.0000000E+00;  0.0000000E+00;0; -1.3010541E-03;  4.0000000E+04;  0.0000000E+00;  0.0000000E+00;  4.0000000E+04;  0.0000000E+00;  4.0000000E+04; -8.3948736E-04;  0.0000000E+00; -4.6156676E-04;  5.8327417E+02;
 -5.9999999E-02;  9.9999998E-03; -3.6000001E-01;1281;  0.0000000E+00;  0.0000000E+00;  0.0000000E+00;  1.0002328E+03;  1.0000000E-01;  1.9288344E+02;0;  0.0000000E+00;  0.0000000E+00;  0.0000000E+00;0; -1.9187580E-03;  4.0000000E+04;  0.0000000E+00;  0.0000000E+00;  4.0000000E+04;  0.0000000E+00;  4.0000000E+04; -1.3246877E-03;  0.0000000E+00; -5.9407036E-04;  7.2079535E+02;
 -5.9999999E-02;  9.9999998E-03; -3.4999999E-01;1282;  0.0000000E+00;  0.0000000E+00;  0.0000000E+00;  1.0003290E+03;  1.0000000E-01;  2.7258487E+02;0;  0.0000000E+00;  0.0000000E+00;  0.0000000E+00;0; -2.7115855E-03;  4.0000000E+04;  0.0000000E+00;  0.0000000E+00;  4.0000000E+04;  0.0000000E+00;  4.0000000E+04; -1.9843390E-03;  0.0000000E+00; -7.2724646E-04;  8.4273730E+02;
 -5.9999999E-02;  9.9999998E-03; -3.4000000E-01;1283;  0.0000000E+00;  0.0000000E+00;  0.0000000E+00;  1.0004480E+03;  1.0000000E-01;  3.7114999E+02;0;  0.0000000E+00;  0.0000000E+00;  0.0000000E+00;0; -3.6914926E-03;  4.0000000E+04;  0.0000000E+00;  0.0000000E+00;  4.0000000E+04;  0.0000000E+00;  4.0000000E+04; -2.8410216E-03;  0.0000000E+00; -8.5047103E-04;  9.3367389E+02;
 -5.9999999E-02;  9.9999998E-03; -3.3000001E-01;1284;  0.0000000E+00;  0.0000000E+00;  0.0000000E+00;  1.0005865E+03;  1.0000000E-01;  4.8591217E+02;0;  0.0000000E+00;  0.0000000E+00;  0.0000000E+00;0; -4.8579341E-03;  4.0000000E+04;  0.0000000E+00;  0.0000000E+00;  4.0000000E+04;  0.0000000E+00;  4.0000000E+04; -3.9073806E-03;  0.0000000E+00; -9.5055369E-04;  9.7617523E+02;
 -5.9999999E-02;  9.9999998E-03; -3.1999999E-01;1285;  0.0000000E+00;  0.0000000E+00;  0.0000000E+00;  1.0007338E+03;  1.0000000E-01;  6.0798279E+02;0;  0.0000000E+00;  0.0000000E+00;  0.0000000E+00;0; -6.1956285E-03;  4.0000000E+04;  0.0000000E+00;  0.0000000E+00;  4.0000000E+04;  0.0000000E+00;  4.0000000E+04; -5.1830001E-03;  0.0000000E+00; -1.0126283E-03;  9.5258032E+02;
 -5.9999999E-02;  9.9999998E-03; -3.1000000E-01;1286;  0.0000000E+00;  0.0000000E+00;  0.0000000E+00;  1.0009113E+03;  1.0000000E-01;  7.5504034E+02;0;  0.0000000E+00;  0.0000000E+00;  0.0000000E+00;0; -7.6757339E-03;  4.0000000E+04;  0.0000000E+00;  0.0000000E+00;  4.0000000E+04;  0.0000000E+00;  4.0000000E+04; -6.6532870E-03;  0.0000000E+00; -1.0224468E-03;  8.4843823E+02;
 -5.9999999E-02;  9.9999998E-03; -3.0000001E-01;1287;  0.0000000E+00;  0.0000000E+00;  0.0000000E+00;  1.0010856E+03;  1.0000000E-01;  8.9943134E+02;0;  0.0000000E+00;  0.0000000E+00;  0.0000000E+00;0; -9.2607038E-03;  4.0000000E+04;  0.0000000E+00;  0.0000000E+00;  4.0000000E+04;  0.0000000E+00;  4.0000000E+04; -8.2907286E-03;  0.0000000E+00; -9.6997514E-04;  6.5742383E+02;
 -5.9999999E-02;  9.9999998E-03; -2.8999999E-01;1288;  0.0000000E+00;  0.0000000E+00;  0.0000000E+00;  1.0012678E+03;  1.0000000E-01;  1.0503407E+03;0;  0.0000000E+00;  0.0000000E+00;  0.0000000E+00;0; -1.0911628E-02;  4.0000000E+04;  0.0000000E+00;  0.0000000E+00;  4.0000000E+04;  0.0000000E+00;  4.0000000E+04; -1.0058402E-02;  0.0000000E+00; -8.5322576E-04;  3.8738712E+02;
 -5.9999999E-02;  9.9999998E-03; -2.8000000E-01;1289;  0.0000000E+00;  0.0000000E+00;  0.0000000E+00;  1.0014528E+03;  1.0000000E-01;  1.2036202E+03;0;  0.0000000E+00;  0.0000000E+00;  0.0000000E+00;0; -1.2594849E-02;  4.0000000E+04;  0.0000000E+00;  0.0000000E+00;  4.0000000E+04;  0.0000000E+00;  4.0000000E+04; -1.1914534E-02;  0.0000000E+00; -6.8031519E-04;  1.0819181E+02;
 -5.0000001E-02;  9.9999998E-03; -4.4000000E-01;1364;  0.0000000E+00;  0.0000000E+00;  0.0000000E+00;  1.0000000E+03;  1.0000000E-01;  0.0000000E+00;0;  0.0000000E+00;  0.0000000E+00;  0.0000000E+00;0; -6.0814500E-06;  4.0000000E+04;  0.0000000E+00;  0.0000000E+00;  4.0000000E+04;  0.0000000E+00;  4.0000000E+04; -2.1958620E-06;  0.0000000E+00; -3.8855878E-06;  6.4373245E+00;
 -5.0000001E-02;  9.9999998E-03; -4.3000001E-01;1365;  0.0000000E+00;  0.0000000E+00;  0.0000000E+00;  1.0000000E+03;  1.0000000E-01;  0.0000000E+00;0;  0.0000000E+00;  0.0000000E+00;  0.0000000E+00;0; -3.0925676E-05;  4.0000000E+04;  0.0000000E+00;  0.0000000E+00;  4.0000000E+04;  0.0000000E+00;  4.0000000E+04; -1.1718561E-05;  0.0000000E+00; -1.9207115E-05;  2.9710709E+01;
 -5.0000001E-02;  9.9999998E-03; -4.1999999E-01;1366;  0.0000000E+00;  0.0000000E+00;  0.0000000E+00;  1.0000000E+03;  1.0000000E-01;  0.0000000E+00;0;  0.0000000E+00;  0.0000000E+00;  0.0000000E+00;0; -9.5423522E-05;  4.0000000E+04;  0.0000000E+00;  0.0000000E+00;  4.0000000E+04;  0.0000000E+00;  4.0000000E+04; -3.9021292E-05;  0.0000000E+00; -5.6402230E-05;  8.2674347E+01;
 -5.0000001E-02;  9.9999998E-03; -4.1000000E-01;1367;  0.0000000E+00;  0.0000000E+00;  0.0000000E+00;  1.0000088E+03;  1.0000000E-01;  7.3084354E+00;0;  0.0000000E+00;  0.0000000E+00;  0.0000000E+00;0; -2.2286703E-04;  4.0000000E+04;  0.0000000E+00;  0.0000000E+00;  4.0000000E+04;  0.0000000E+00;  4.0000000E+04; -1.0001461E-04;  0.0000000E+00; -1.2285242E-04;  1.7197820E+02;
 -5.0000001E-02;  9.9999998E-03; -4.0000001E-01;1368;  0.0000000E+00;  0.0000000E+00;  0.0000000E+00;  1.0000590E+03;  1.0000000E-01;  4.8887505E+01;0;  0.0000000E+00;  0.0000000E+00;  0.0000000E+00;0; -4.3759315E-04;  4.0000000E+04;  0.0000000E+00;  0.0000000E+00;  4.0000000E+04;  0.0000000E+00;  4.0000000E+04; -2.1681641E-04;  0.0000000E+00; -2.2077675E-04;  2.9653903E+02;
 -5.0000001E-02;  9.9999998E-03; -3.8999999E-01;1369;  0.0000000E+00;  0.0000000E+00;  0.0000000E+00;  1.0000941E+03;  1.0000000E-01;  7.7923721E+01;0;  0.0000000E+00;  0.0000000E+00;  0.0000000E+00;0; -7.6607399E-04;  4.0000000E+04;  0.0000000E+00;  0.0000000E+00;  4.0000000E+04;  0.0000000E+00;  4.0000000E+04; -4.1802300E-04;  0.0000000E+00; -3.4805099E-04;  4.4957724E+02;
 -5.0000001E-02;  9.9999998E-03; -3.8000000E-01;1370;  0.0000000E+00;  0.0000000E+00;  0.0000000E+00;  1.0001432E+03;  1.0000000E-01;  1.1861393E+02;0;  0.0000000E+00;  0.0000000E+00;  0.0000000E+00;0; -1.2383042E-03;  4.0000000E+04;  0.0000000E+00;  0.0000000E+00;  4.0000000E+04;  0.0000000E+00;  4.0000000E+04; -7.3829776E-04;  0.0000000E+00; -5.0000643E-04;  6.2130157E+02;
 -5.0000001E-02;  9.9999998E-03; -3.7000000E-01;1371;  0.0000000E+00;  0.0000000E+00;  0.0000000E+00;  1.0002327E+03;  1.0000000E-01;  1.9278467E+02;0;  0.0000000E+00;  0.0000000E+00;  0.0000000E+00;0; -1.8872118E-03;  4.0000000E+04;  0.0000000E+00;  0.0000000E+00;  4.0000000E+04;  0.0000000E+00;  4.0000000E+04; -1.2168474E-03;  0.0000000E+00; -6.7036430E-04;  8.0017639E+02;
 -5.0000001E-02;  9.9999998E-03; -3.6000001E-01;1372;  0.0000000E+00;  0.0000000E+00;  0.0000000E+00;  1.0003351E+03;  1.0000000E-01;  2.7762177E+02;0;  0.0000000E+00;  0.0000000E+00;  0.0000000E+00;0; -2.7457364E-03;  4.0000000E+04;  0.0000000E+00;  0.0000000E+00;  4.0000000E+04;  0.0000000E+00;  4.0000000E+04; -1.8946660E-03;  0.0000000E+00; -8.5107045E-04;  9.7278119E+02;
 -5.0000001E-02;  9.9999998E-03; -3.4999999E-01;1373;  0.0000000E+00;  0.0000000E+00;  0.0000000E+00;  1.0004645E+03;  1.0000000E-01;  3.8487799E+02;0;  0.0000000E+00;  0.0000000E+00;  0.0000000E+00;0; -3.8416572E-03;  4.0000000E+04;  0.0000000E+00;  0.0000000E+00;  4.0000000E+04;  0.0000000E+00;  4.0000000E+04; -2.8102088E-03;  0.0000000E+00; -1.0314482E-03;  1.1230446E+03;
 -5.0000001E-02;  9.9999998E-03; -3.4000000E-01;1374;  0.0000000E+00;  0.0000000E+00;  0.0000000E+00;  1.0006290E+03;  1.0000000E-01;  5.2117047E+02;0;  0.0000000E+00;  0.0000000E+00;  0.0000000E+00;0; -5.1914691E-03;  4.0000000E+04;  0.0000000E+00;  0.0000000E+00;  4.0000000E+04;  0.0000000E+00;  4.0000000E+04; -3.9941012E-03;  0.0000000E+00; -1.1973679E-03;  1.2316433E+03;
 -5.0000001E-02;  9.9999998E-03; -3.3000001E-01;1375;  0.0000000E+00;  0.0000000E+00;  0.0000000E+00;  1.0008190E+03;  1.0000000E-01;  6.7849933E+02;0;  0.0000000E+00;  0.0000000E+00;  0.0000000E+00;0; -6.7946408E-03;  4.0000000E+04;  0.0000000E+00;  0.0000000E+00;  4.0000000E+04;  0.0000000E+00;  4.0000000E+04; -5.4636118E-03;  0.0000000E+00; -1.3310289E-03;  1.2764109E+03;
 -5.0000001E-02;  9.9999998E-03; -3.1999999E-01;1376;  0.0000000E+00;  0.0000000E+00;  0.0000000E+00;  1.0010303E+03;  1.0000000E-01;  8.5360547E+02;0;  0.0000000E+00;  0.0000000E+00;  0.0000000E+00;0; -8.6302934E-03;  4.0000000E+04;  0.0000000E+00;  0.0000000E+00;  4.0000000E+04;  0.0000000E+00;  4.0000000E+04; -7.2181844E-03;  0.0000000E+00; -1.4121092E-03;  1.2345343E+03;
 -5.0000001E-02;  9.9999998E-03; -3.1000000E-01;1377;  0.0000000E+00;  0.0000000E+00;  0.0000000E+00;  1.0012661E+03;  1.0000000E-01;  1.0488593E+03;0;  0.0000000E+00;  0.0000000E+00;  0.0000000E+00;0; -1.0658418E-02;  4.0000000E+04;  0.0000000E+00;  0.0000000E+00;  4.0000000E+04;  0.0000000E+00;  4.0000000E+04; -9.2374720E-03;  0.0000000E+00; -1.4209457E-03;  1.0873231E+03;
 -5.0000001E-02;  9.9999998E-03; -3.0000001E-01;1378;  0.0000000E+00;  0.0000000E+00;  0.0000000E+00;  1.0015148E+03;  1.0000000E-01;  1.2549768E+03;0;  0.0000000E+00;  0.0000000E+00;  0.0000000E+00;0; -1.2826606E-02;  4.0000000E+04;  0.0000000E+00;  0.0000000E+00;  4.0000000E+04;  0.0000000E+00;  4.0000000E+04; -1.1482920E-02;  0.0000000E+00; -1.3436863E-03;  8.2722516E+02;
 -5.0000001E-02;  9.9999998E-03; -2.8999999E-01;1379;  0.0000000E+00;  0.0000000E+00;  0.0000000E+00;  1.0017631E+03;  1.0000000E-01;  1.4606995E+03;0;  0.0000000E+00;  0.0000000E+00;  0.0000000E+00;0; -1.5080544E-02;  4.0000000E+04;  0.0000000E+00;  0.0000000E+00;  4.0000000E+04;  0.0000000E+00;  4.0000000E+04; -1.3902653E-02;  0.0000000E+00; -1.1778913E-03;  4.6794135E+02;
 -5.0000001E-02;  9.9999998E-03; -2.8000000E-01;1380;  0.0000000E+00;  0.0000000E+00;  0.0000000E+00;  1.0020154E+03;  1.0000000E-01;  1.6696812E+03;0;  0.0000000E+00;  0.0000000E+00;  0.0000000E+00;0; -1.7373623E-02;  4.0000000E+04;  0.0000000E+00;  0.0000000E+00;  4.0000000E+04;  0.0000000E+00;  4.0000000E+04; -1.6438110E-02;  0.0000000E+00; -9.3551434E-04;  1.5828670E+02;
 -3.9999999E-02;  9.9999998E-03; -4.4000000E-01;1455;  0.0000000E+00;  0.0000000E+00;  0.0000000E+00;  1.0000000E+03;  1.0000000E-01;  0.0000000E+00;0;  0.0000000E+00;  0.0000000E+00;  0.0000000E+00;0; -1.3131274E-05;  4.0000000E+04;  0.0000000E+00;  0.0000000E+00;  4.0000000E+04;  0.0000000E+00;  4.0000000E+04; -4.6169580E-06;  0.0000000E+00; -8.5143165E-06;  1.3594110E+01;
 -3.9999999E-02;  9.9999998E-03; -4.3000001E-01;1456;  0.0000000E+00;  0.0000000E+00;  0.0000000E+00;  1.0000000E+03;  1.0000000E-01;  0.0000000E+00;0;  0.0000000E+00;  0.0000000E+00;  0.0000000E+00;0; -5.5071556E-05;  4.0000000E+04;  0.0000000E+00;  0.0000000E+00;  4.0000000E+04;  0.0000000E+00;  4.0000000E+04; -2.0569849E-05;  0.0000000E+00; -3.4501707E-05;  5.1165142E+01;
 -3.9999999E-02;  9.9999998E-03; -4.1999999E-01;1457;  0.0000000E+00;  0.0000000E+00;  0.0000000E+00;  1.0000000E+03;  1.0000000E-01;  0.0000000E+00;0;  0.0000000E+00;  0.0000000E+00;  0.0000000E+00;0; -1.5393959E-04;  4.0000000E+04;  0.0000000E+00;  0.0000000E+00;  4.0000000E+04;  0.0000000E+00;  4.0000000E+04; -6.2433355E-05;  0.0000000E+00; -9.1506241E-05;  1.2787520E+02;
 -3.9999999E-02;  9.9999998E-03; -4.1000000E-01;1458;  0.0000000E+00;  0.0000000E+00;  0.0000000E+00;  1.0000480E+03;  1.0000000E-01;  3.9801342E+01;0;  0.0000000E+00;  0.0000000E+00;  0.0000000E+00;0; -3.3887281E-04;  4.0000000E+04;  0.0000000E+00;  0.0000000E+00;  4.0000000E+04;  0.0000000E+00;  4.0000000E+04; -1.5131362E-04;  0.0000000E+00; -1.8755918E-04;  2.4924232E+02;
 -3.9999999E-02;  9.9999998E-03; -4.0000001E-01;1459;  0.0000000E+00;  0.0000000E+00;  0.0000000E+00;  1.0000793E+03;  1.0000000E-01;  6.5775917E+01;0;  0.0000000E+00;  0.0000000E+00;  0.0000000E+00;0; -6.4010592E-04;  4.0000000E+04;  0.0000000E+00;  0.0000000E+00;  4.0000000E+04;  0.0000000E+00;  4.0000000E+04; -3.1611559E-04;  0.0000000E+00; -3.2399033E-04;  4.1175098E+02;
 -3.9999999E-02;  9.9999998E-03; -3.8999999E-01;1460;  0.0000000E+00;  0.0000000E+00;  0.0000000E+00;  1.0001335E+03;  1.0000000E-01;  1.1061416E+02;0;  0.0000000E+00;  0.0000000E+00;  0.0000000E+00;0; -1.0910474E-03;  4.0000000E+04;  0.0000000E+00;  0.0000000E+00;  4.0000000E+04;  0.0000000E+00;  4.0000000E+04; -5.9395493E-04;  0.0000000E+00; -4.9709243E-04;  6.0595264E+02;
 -3.9999999E-02;  9.9999998E-03; -3.8000000E-01;1461;  0.0000000E+00;  0.0000000E+00;  0.0000000E+00;  1.0002147E+03;  1.0000000E-01;  1.7787151E+02;0;  0.0000000E+00;  0.0000000E+00;  0.0000000E+00;0; -1.7302199E-03;  4.0000000E+04;  0.0000000E+00;  0.0000000E+00;  4.0000000E+04;  0.0000000E+00;  4.0000000E+04; -1.0297208E-03;  0.0000000E+00; -7.0049911E-04;  8.1963019E+02;
 -3.9999999E-02;  9.9999998E-03; -3.7000000E-01;1462;  0.0000000E+00;  0.0000000E+00;  0.0000000E+00;  1.0003256E+03;  1.0000000E-01;  2.6972076E+02;0;  0.0000000E+00;  0.0000000E+00;  0.0000000E+00;0; -2.6004326E-03;  4.0000000E+04;  0.0000000E+00;  0.0000000E+00;  4.0000000E+04;  0.0000000E+00;  4.0000000E+04; -1.6742514E-03;  0.0000000E+00; -9.2618127E-04;  1.0389950E+03;
 -3.9999999E-02;  9.9999998E-03; -3.6000001E-01;1463;  0.0000000E+00;  0.0000000E+00;  0.0000000E+00;  1.0004640E+03;  1.0000000E-01;  3.8438419E+02;0;  0.0000000E+00;  0.0000000E+00;  0.0000000E+00;0; -3.7448718E-03;  4.0000000E+04;  0.0000000E+00;  0.0000000E+00;  4.0000000E+04;  0.0000000E+00;  4.0000000E+04; -2.5808883E-03;  0.0000000E+00; -1.1639834E-03;  1.2481772E+03;
 -3.9999999E-02;  9.9999998E-03; -3.4999999E-01;1464;  0.0000000E+00;  0.0000000E+00;  0.0000000E+00;  1.0006378E+03;  1.0000000E-01;  5.2838013E+02;0;  0.0000000E+00;  0.0000000E+00;  0.0000000E+00;0; -5.2003297E-03;  4.0000000E+04;  0.0000000E+00;  0.0000000E+00;  4.0000000E+04;  0.0000000E+00;  4.0000000E+04; -3.7999833E-03;  0.0000000E+00; -1.4003463E-03;  1.4279960E+03;
 -3.9999999E-02;  9.9999998E-03; -3.4000000E-01;1465;  0.0000000E+00;  0.0000000E+00;  0.0000000E+00;  1.0008510E+03;  1.0000000E-01;  7.0506647E+02;0;  0.0000000E+00;  0.0000000E+00;  0.0000000E+00;0; -6.9890078E-03;  4.0000000E+04;  0.0000000E+00;  0.0000000E+00;  4.0000000E+04;  0.0000000E+00;  4.0000000E+04; -5.3719501E-03;  0.0000000E+00; -1.6170578E-03;  1.5549573E+03;
 -3.9999999E-02;  9.9999998E-03; -3.3000001E-01;1466;  0.0000000E+00;  0.0000000E+00;  0.0000000E+00;  1.0011057E+03;  1.0000000E-01;  9.1602350E+02;0;  0.0000000E+00;  0.0000000E+00;  0.0000000E+00;0; -9.1106212E-03;  4.0000000E+04;  0.0000000E+00;  0.0000000E+00;  4.0000000E+04;  0.0000000E+00;  4.0000000E+04; -7.3198415E-03;  0.0000000E+00; -1.7907794E-03;  1.6015568E+03;
 -3.9999999E-02;  9.9999998E-03; -3.1999999E-01;1467;  0.0000000E+00;  0.0000000E+00;  0.0000000E+00;  1.0013879E+03;  1.0000000E-01;  1.1497947E+03;0;  0.0000000E+00;  0.0000000E+00;  0.0000000E+00;0; -1.1537397E-02;  4.0000000E+04;  0.0000000E+00;  0.0000000E+00;  4.0000000E+04;  0.0000000E+00;  4.0000000E+04; -9.6429950E-03;  0.0000000E+00; -1.8944022E-03;  1.5388748E+03;
 -3.9999999E-02;  9.9999998E-03; -3.1000000E-01;1468;  0.0000000E+00;  0.0000000E+00;  0.0000000E+00;  1.0017015E+03;  1.0000000E-01;  1.4096392E+03;0;  0.0000000E+00;  0.0000000E+00;  0.0000000E+00;0; -1.4215128E-02;  4.0000000E+04;  0.0000000E+00;  0.0000000E+00;  4.0000000E+04;  0.0000000E+00;  4.0000000E+04; -1.2313852E-02;  0.0000000E+00; -1.9012759E-03;  1.3427858E+03;
 -3.9999999E-02;  9.9999998E-03; -3.0000001E-01;1469;  0.0000000E+00;  0.0000000E+00;  0.0000000E+00;  1.0020291E+03;  1.0000000E-01;  1.6810388E+03;0;  0.0000000E+00;  0.0000000E+00;  0.0000000E+00;0; -1.7072106E-02;  4.0000000E+04;  0.0000000E+00;  0.0000000E+00;  4.0000000E+04;  0.0000000E+00;  4.0000000E+04; -1.5279662E-02;  0.0000000E+00; -1.7924443E-03;  1.0039413E+03;
 -3.9999999E-02;  9.9999998E-03; -2.8999999E-01;1470;  0.0000000E+00;  0.0000000E+00;  0.0000000E+00;  1.0023604E+03;  1.0000000E-01;  1.9555990E+03;0;  0.0000000E+00;  0.0000000E+00;  0.0000000E+00;0; -2.0033900E-02;  4.0000000E+04;  0.0000000E+00;  0.0000000E+00;  4.0000000E+04;  0.0000000E+00;  4.0000000E+04; -1.8469078E-02;  0.0000000E+00; -1.5648204E-03;  5.4474567E+02;
 -3.9999999E-02;  9.9999998E-03; -2.8000000E-01;1471;  0.0000000E+00;  0.0000000E+00;  0.0000000E+00;  1.0026934E+03;  1.0000000E-01;  2.2314431E+03;0;  0.0000000E+00;  0.0000000E+00;  0.0000000E+00;0; -2.3037791E-02;  4.0000000E+04;  0.0000000E+00;  0.0000000E+00;  4.0000000E+04;  0.0000000E+00;  4.0000000E+04; -2.1802153E-02;  0.0000000E+00; -1.2356370E-03;  2.3852094E+02;
 -2.9999999E-02;  9.9999998E-03; -4.4000000E-01;1546;  0.0000000E+00;  0.0000000E+00;  0.0000000E+00;  1.0000000E+03;  1.0000000E-01;  0.0000000E+00;0;  0.0000000E+00;  0.0000000E+00;  0.0000000E+00;0; -2.3558139E-05;  4.0000000E+04;  0.0000000E+00;  0.0000000E+00;  4.0000000E+04;  0.0000000E+00;  4.0000000E+04; -8.0806058E-06;  0.0000000E+00; -1.5477533E-05;  2.3568863E+01;
 -2.9999999E-02;  9.9999998E-03; -4.3000001E-01;1547;  0.0000000E+00;  0.0000000E+00;  0.0000000E+00;  1.0000000E+03;  1.0000000E-01;  0.0000000E+00;0;  0.0000000E+00;  0.0000000E+00;  0.0000000E+00;0; -8.7138025E-05;  4.0000000E+04;  0.0000000E+00;  0.0000000E+00;  4.0000000E+04;  0.0000000E+00;  4.0000000E+04; -3.2074622E-05;  0.0000000E+00; -5.5063403E-05;  7.7410316E+01;
 -2.9999999E-02;  9.9999998E-03; -4.1999999E-01;1548;  0.0000000E+00;  0.0000000E+00;  0.0000000E+00;  1.0000106E+03;  1.0000000E-01;  8.7898750E+00;0;  0.0000000E+00;  0.0000000E+00;  0.0000000E+00;0; -2.2744894E-04;  4.0000000E+04;  0.0000000E+00;  0.0000000E+00;  4.0000000E+04;  0.0000000E+00;  4.0000000E+04; -9.1366455E-05;  0.0000000E+00; -1.3608248E-04;  1.7944725E+02;
 -2.9999999E-02;  9.9999998E-03; -4.1000000E-01;1549;  0.0000000E+00;  0.0000000E+00;  0.0000000E+00;  1.0000668E+03;  1.0000000E-01;  5.5307079E+01;0;  0.0000000E+00;  0.0000000E+00;  0.0000000E+00;0; -4.7985802E-04;  4.0000000E+04;  0.0000000E+00;  0.0000000E+00;  4.0000000E+04;  0.0000000E+00;  4.0000000E+04; -2.1278170E-04;  0.0000000E+00; -2.6707634E-04;  3.3386636E+02;
 -2.9999999E-02;  9.9999998E-03; -4.0000001E-01;1550;  0.0000000E+00;  0.0000000E+00;  0.0000000E+00;  1.0001182E+03;  1.0000000E-01;  9.7873772E+01;0;  0.0000000E+00;  0.0000000E+00;  0.0000000E+00;0; -8.8096526E-04;  4.0000000E+04;  0.0000000E+00;  0.0000000E+00;  4.0000000E+04;  0.0000000E+00;  4.0000000E+04; -4.3269142E-04;  0.0000000E+00; -4.4827381E-04;  5.3478992E+02;
 -2.9999999E-02;  9.9999998E-03; -3.8999999E-01;1551;  0.0000000E+00;  0.0000000E+00;  0.0000000E+00;  1.0001992E+03;  1.0000000E-01;  1.6503236E+02;0;  0.0000000E+00;  0.0000000E+00;  0.0000000E+00;0; -1.4717865E-03;  4.0000000E+04;  0.0000000E+00;  0.0000000E+00;  4.0000000E+04;  0.0000000E+00;  4.0000000E+04; -7.9761201E-04;  0.0000000E+00; -6.7417457E-04;  7.7026208E+02;
 -2.9999999E-02;  9.9999998E-03; -3.8000000E-01;1552;  0.0000000E+00;  0.0000000E+00;  0.0000000E+00;  1.0003005E+03;  1.0000000E-01;  2.4898061E+02;0;  0.0000000E+00;  0.0000000E+00;  0.0000000E+00;0; -2.3003232E-03;  4.0000000E+04;  0.0000000E+00;  0.0000000E+00;  4.0000000E+04;  0.0000000E+00;  4.0000000E+04; -1.3637831E-03;  0.0000000E+00; -9.3654002E-04;  1.0258185E+03;
 -2.9999999E-02;  9.9999998E-03; -3.7000000E-01;1553;  0.0000000E+00;  0.0000000E+00;  0.0000000E+00;  1.0004362E+03;  1.0000000E-01;  3.6137250E+02;0;  0.0000000E+00;  0.0000000E+00;  0.0000000E+00;0; -3.4204954E-03;  4.0000000E+04;  0.0000000E+00;  0.0000000E+00;  4.0000000E+04;  0.0000000E+00;  4.0000000E+04; -2.1950607E-03;  0.0000000E+00; -1.2254346E-03;  1.2855842E+03;
 -2.9999999E-02;  9.9999998E-03; -3.6000001E-01;1554;  0.0000000E+00;  0.0000000E+00;  0.0000000E+00;  1.0006219E+03;  1.0000000E-01;  5.1524469E+02;0;  0.0000000E+00;  0.0000000E+00;  0.0000000E+00;0; -4.8871636E-03;  4.0000000E+04;  0.0000000E+00;  0.0000000E+00;  4.0000000E+04;  0.0000000E+00;  4.0000000E+04; -3.3587355E-03;  0.0000000E+00; -1.5284281E-03;  1.5313855E+03;
 -2.9999999E-02;  9.9999998E-03; -3.4999999E-01;1555;  0.0000000E+00;  0.0000000E+00;  0.0000000E+00;  1.0008469E+03;  1.0000000E-01;  7.0160980E+02;0;  0.0000000E+00;  0.0000000E+00;  0.0000000E+00;0; -6.7475773E-03;  4.0000000E+04;  0.0000000E+00;  0.0000000E+00;  4.0000000E+04;  0.0000000E+00;  4.0000000E+04; -4.9187578E-03;  0.0000000E+00; -1.8288194E-03;  1.7410284E+03;
 -2.9999999E-02;  9.9999998E-03; -3.4000000E-01;1556;  0.0000000E+00;  0.0000000E+00;  0.0000000E+00;  1.0011183E+03;  1.0000000E-01;  9.2649231E+02;0;  0.0000000E+00;  0.0000000E+00;  0.0000000E+00;0; -9.0308134E-03;  4.0000000E+04;  0.0000000E+00;  0.0000000E+00;  4.0000000E+04;  0.0000000E+00;  4.0000000E+04; -6.9269645E-03;  0.0000000E+00; -2.1038488E-03;  1.8868560E+03;
 -2.9999999E-02;  9.9999998E-03; -3.3000001E-01;1557;  0.0000000E+00;  0.0000000E+00;  0.0000000E+00;  1.0014436E+03;  1.0000000E-01;  1.1960155E+03;0;  0.0000000E+00;  0.0000000E+00;  0.0000000E+00;0; -1.1737189E-02;  4.0000000E+04;  0.0000000E+00;  0.0000000E+00;  4.0000000E+04;  0.0000000E+00;  4.0000000E+04; -9.4133839E-03;  0.0000000E+00; -2.3238051E-03;  1.9356392E+03;
 -2.9999999E-02;  9.9999998E-03; -3.1999999E-01;1558;  0.0000000E+00;  0.0000000E+00;  0.0000000E+00;  1.0018063E+03;  1.0000000E-01;  1.4964515E+03;0;  0.0000000E+00;  0.0000000E+00;  0.0000000E+00;0; -1.4830995E-02;  4.0000000E+04;  0.0000000E+00;  0.0000000E+00;  4.0000000E+04;  0.0000000E+00;  4.0000000E+04; -1.2377531E-02;  0.0000000E+00; -2.4534641E-03;  1.8514424E+03;
 -2.9999999E-02;  9.9999998E-03; -3.1000000E-01;1559;  0.0000000E+00;  0.0000000E+00;  0.0000000E+00;  1.0022050E+03;  1.0000000E-01;  1.8268125E+03;0;  0.0000000E+00;  0.0000000E+00;  0.0000000E+00;0; -1.8240729E-02;  4.0000000E+04;  0.0000000E+00;  0.0000000E+00;  4.0000000E+04;  0.0000000E+00;  4.0000000E+04; -1.5783362E-02;  0.0000000E+00; -2.4573677E-03;  1.6032560E+03;
 -2.9999999E-02;  9.9999998E-03; -3.0000001E-01;1560;  0.0000000E+00;  0.0000000E+00;  0.0000000E+00;  1.0026251E+03;  1.0000000E-01;  2.1748521E+03;0;  0.0000000E+00;  0.0000000E+00;  0.0000000E+00;0; -2.1870269E-02;  4.0000000E+04;  0.0000000E+00;  0.0000000E+00;  4.0000000E+04;  0.0000000E+00;  4.0000000E+04; -1.9560572E-02;  0.0000000E+00; -2.3096961E-03;  1.1788129E+03;
 -2.9999999E-02;  9.9999998E-03; -2.8999999E-01;1561;  0.0000000E+00;  0.0000000E+00;  0.0000000E+00;  1.0030499E+03;  1.0000000E-01;  2.5268420E+03;0;  0.0000000E+00;  0.0000000E+00;  0.0000000E+00;0; -2.5619803E-02;  4.0000000E+04;  0.0000000E+00;  0.0000000E+00;  4.0000000E+04;  0.0000000E+00;  4.0000000E+04; -2.3613526E-02;  0.0000000E+00; -2.0062770E-03;  6.1248291E+02;
 -2.9999999E-02;  9.9999998E-03; -2.8000000E-01;1562;  0.0000000E+00;  0.0000000E+00;  0.0000000E+00;  1.0034713E+03;  1.0000000E-01;  2.8758694E+03;0;  0.0000000E+00;  0.0000000E+00;  0.0000000E+00;0; -2.9407371E-02;  4.0000000E+04;  0.0000000E+00;  0.0000000E+00;  4.0000000E+04;  0.0000000E+00;  4.0000000E+04; -2.7835807E-02;  0.0000000E+00; -1.5715649E-03;  3.4869873E+02;
 -2.0000000E-02;  9.9999998E-03; -4.4000000E-01;1637;  0.0000000E+00;  0.0000000E+00;  0.0000000E+00;  1.0000000E+03;  1.0000000E-01;  0.0000000E+00;0;  0.0000000E+00;  0.0000000E+00;  0.0000000E+00;0; -3.6994090E-05;  4.0000000E+04;  0.0000000E+00;  0.0000000E+00;  4.0000000E+04;  0.0000000E+00;  4.0000000E+04; -1.2365852E-05;  0.0000000E+00; -2.4628236E-05;  3.5317760E+01;
 -2.0000000E-02;  9.9999998E-03; -4.3000001E-01;1638;  0.0000000E+00;  0.0000000E+00;  0.0000000E+00;  1.0000000E+03;  1.0000000E-01;  0.0000000E+00;0;  0.0000000E+00;  0.0000000E+00;  0.0000000E+00;0; -1.2574233E-04;  4.0000000E+04;  0.0000000E+00;  0.0000000E+00;  4.0000000E+04;  0.0000000E+00;  4.0000000E+04; -4.5496050E-05;  0.0000000E+00; -8.0246282E-05;  1.0564940E+02;
 -2.0000000E-02;  9.9999998E-03; -4.1999999E-01;1639;  0.0000000E+00;  0.0000000E+00;  0.0000000E+00;  1.0000462E+03;  1.0000000E-01;  3.8319904E+01;0;  0.0000000E+00;  0.0000000E+00;  0.0000000E+00;0; -3.1278451E-04;  4.0000000E+04;  0.0000000E+00;  0.0000000E+00;  4.0000000E+04;  0.0000000E+00;  4.0000000E+04; -1.2403075E-04;  0.0000000E+00; -1.8875375E-04;  2.3232861E+02;
 -2.0000000E-02;  9.9999998E-03; -4.1000000E-01;1640;  0.0000000E+00;  0.0000000E+00;  0.0000000E+00;  1.0000818E+03;  1.0000000E-01;  6.7751167E+01;0;  0.0000000E+00;  0.0000000E+00;  0.0000000E+00;0; -6.3989358E-04;  4.0000000E+04;  0.0000000E+00;  0.0000000E+00;  4.0000000E+04;  0.0000000E+00;  4.0000000E+04; -2.8075857E-04;  0.0000000E+00; -3.5913501E-04;  4.1835678E+02;
 -2.0000000E-02;  9.9999998E-03; -4.0000001E-01;1641;  0.0000000E+00;  0.0000000E+00;  0.0000000E+00;  1.0001470E+03;  1.0000000E-01;  1.2177433E+02;0;  0.0000000E+00;  0.0000000E+00;  0.0000000E+00;0; -1.1501915E-03;  4.0000000E+04;  0.0000000E+00;  0.0000000E+00;  4.0000000E+04;  0.0000000E+00;  4.0000000E+04; -5.5985496E-04;  0.0000000E+00; -5.9033651E-04;  6.5579443E+02;
 -2.0000000E-02;  9.9999998E-03; -3.8999999E-01;1642;  0.0000000E+00;  0.0000000E+00;  0.0000000E+00;  1.0002479E+03;  1.0000000E-01;  2.0532753E+02;0;  0.0000000E+00;  0.0000000E+00;  0.0000000E+00;0; -1.8925547E-03;  4.0000000E+04;  0.0000000E+00;  0.0000000E+00;  4.0000000E+04;  0.0000000E+00;  4.0000000E+04; -1.0177151E-03;  0.0000000E+00; -8.7483961E-04;  9.3042603E+02;
 -2.0000000E-02;  9.9999998E-03; -3.8000000E-01;1643;  0.0000000E+00;  0.0000000E+00;  0.0000000E+00;  1.0003810E+03;  1.0000000E-01;  3.1564539E+02;0;  0.0000000E+00;  0.0000000E+00;  0.0000000E+00;0; -2.9249017E-03;  4.0000000E+04;  0.0000000E+00;  0.0000000E+00;  4.0000000E+04;  0.0000000E+00;  4.0000000E+04; -1.7225854E-03;  0.0000000E+00; -1.2023163E-03;  1.2257114E+03;
 -2.0000000E-02;  9.9999998E-03; -3.7000000E-01;1644;  0.0000000E+00;  0.0000000E+00;  0.0000000E+00;  1.0005672E+03;  1.0000000E-01;  4.6991263E+02;0;  0.0000000E+00;  0.0000000E+00;  0.0000000E+00;0; -4.3129306E-03;  4.0000000E+04;  0.0000000E+00;  0.0000000E+00;  4.0000000E+04;  0.0000000E+00;  4.0000000E+04; -2.7521835E-03;  0.0000000E+00; -1.5607473E-03;  1.5238064E+03;
 -2.0000000E-02;  9.9999998E-03; -3.6000001E-01;1645;  0.0000000E+00;  0.0000000E+00;  0.0000000E+00;  1.0007890E+03;  1.0000000E-01;  6.5370990E+02;0;  0.0000000E+00;  0.0000000E+00;  0.0000000E+00;0; -6.1240429E-03;  4.0000000E+04;  0.0000000E+00;  0.0000000E+00;  4.0000000E+04;  0.0000000E+00;  4.0000000E+04; -4.1887709E-03;  0.0000000E+00; -1.9352719E-03;  1.8044408E+03;
 -2.0000000E-02;  9.9999998E-03; -3.4999999E-01;1646;  0.0000000E+00;  0.0000000E+00;  0.0000000E+00;  1.0010747E+03;  1.0000000E-01;  8.9034521E+02;0;  0.0000000E+00;  0.0000000E+00;  0.0000000E+00;0; -8.4169321E-03;  4.0000000E+04;  0.0000000E+00;  0.0000000E+00;  4.0000000E+04;  0.0000000E+00;  4.0000000E+04; -6.1110547E-03;  0.0000000E+00; -2.3058779E-03;  2.0426763E+03;
 -2.0000000E-02;  9.9999998E-03; -3.4000000E-01;1647;  0.0000000E+00;  0.0000000E+00;  0.0000000E+00;  1.0014203E+03;  1.0000000E-01;  1.1766581E+03;0;  0.0000000E+00;  0.0000000E+00;  0.0000000E+00;0; -1.1228437E-02;  4.0000000E+04;  0.0000000E+00;  0.0000000E+00;  4.0000000E+04;  0.0000000E+00;  4.0000000E+04; -8.5834786E-03;  0.0000000E+00; -2.6449580E-03;  2.2069788E+03;
 -2.0000000E-02;  9.9999998E-03; -3.3000001E-01;1648;  0.0000000E+00;  0.0000000E+00;  0.0000000E+00;  1.0018220E+03;  1.0000000E-01;  1.5094882E+03;0;  0.0000000E+00;  0.0000000E+00;  0.0000000E+00;0; -1.4559973E-02;  4.0000000E+04;  0.0000000E+00;  0.0000000E+00;  4.0000000E+04;  0.0000000E+00;  4.0000000E+04; -1.1644102E-02;  0.0000000E+00; -2.9158718E-03;  2.2585227E+03;
 -2.0000000E-02;  9.9999998E-03; -3.1999999E-01;1649;  0.0000000E+00;  0.0000000E+00;  0.0000000E+00;  1.0022766E+03;  1.0000000E-01;  1.8860701E+03;0;  0.0000000E+00;  0.0000000E+00;  0.0000000E+00;0; -1.8367242E-02;  4.0000000E+04;  0.0000000E+00;  0.0000000E+00;  4.0000000E+04;  0.0000000E+00;  4.0000000E+04; -1.5293093E-02;  0.0000000E+00; -3.0741496E-03;  2.1537334E+03;
 -2.0000000E-02;  9.9999998E-03; -3.1000000E-01;1650;  0.0000000E+00;  0.0000000E+00;  0.0000000E+00;  1.0027695E+03;  1.0000000E-01;  2.2945525E+03;0;  0.0000000E+00;  0.0000000E+00;  0.0000000E+00;0; -2.2558846E-02;  4.0000000E+04;  0.0000000E+00;  0.0000000E+00;  4.0000000E+04;  0.0000000E+00;  4.0000000E+04; -1.9485153E-02;  0.0000000E+00; -3.0736921E-03;  1.8532124E+03;
 -2.0000000E-02;  9.9999998E-03; -3.0000001E-01;1651;  0.0000000E+00;  0.0000000E+00;  0.0000000E+00;  1.0032849E+03;  1.0000000E-01;  2.7215032E+03;0;  0.0000000E+00;  0.0000000E+00;  0.0000000E+00;0; -2.7009089E-02;  4.0000000E+04;  0.0000000E+00;  0.0000000E+00;  4.0000000E+04;  0.0000000E+00;  4.0000000E+04; -2.4129463E-02;  0.0000000E+00; -2.8796252E-03;  1.3400200E+03;
 -2.0000000E-02;  9.9999998E-03; -2.8999999E-01;1652;  0.0000000E+00;  0.0000000E+00;  0.0000000E+00;  1.0038086E+03;  1.0000000E-01;  3.1553674E+03;0;  0.0000000E+00;  0.0000000E+00;  0.0000000E+00;0; -3.1586852E-02;  4.0000000E+04;  0.0000000E+00;  0.0000000E+00;  4.0000000E+04;  0.0000000E+00;  4.0000000E+04; -2.9101145E-02;  0.0000000E+00; -2.4857090E-03;  6.6443475E+02;
 -2.0000000E-02;  9.9999998E-03; -2.8000000E-01;1653;  0.0000000E+00;  0.0000000E+00;  0.0000000E+00;  1.0043242E+03;  1.0000000E-01;  3.5825159E+03;0;  0.0000000E+00;  0.0000000E+00;  0.0000000E+00;0; -3.6188662E-02;  4.0000000E+04;  0.0000000E+00;  0.0000000E+00;  4.0000000E+04;  0.0000000E+00;  4.0000000E+04; -3.4262326E-02;  0.0000000E+00; -1.9263370E-03;  4.8928140E+02;
 -9.9999998E-03;  9.9999998E-03; -4.4000000E-01;1728;  0.0000000E+00;  0.0000000E+00;  0.0000000E+00;  1.0000000E+03;  1.0000000E-01;  0.0000000E+00;0;  0.0000000E+00;  0.0000000E+00;  0.0000000E+00;0; -5.2464737E-05;  4.0000000E+04;  0.0000000E+00;  0.0000000E+00;  4.0000000E+04;  0.0000000E+00;  4.0000000E+04; -1.7034745E-05;  0.0000000E+00; -3.5429992E-05;  4.7125317E+01;
 -9.9999998E-03;  9.9999998E-03; -4.3000001E-01;1729;  0.0000000E+00;  0.0000000E+00;  0.0000000E+00;  1.0000000E+03;  1.0000000E-01;  0.0000000E+00;0;  0.0000000E+00;  0.0000000E+00;  0.0000000E+00;0; -1.6843296E-04;  4.0000000E+04;  0.0000000E+00;  0.0000000E+00;  4.0000000E+04;  0.0000000E+00;  4.0000000E+04; -5.9640723E-05;  0.0000000E+00; -1.0879224E-04;  1.3229980E+02;
 -9.9999998E-03;  9.9999998E-03; -4.1999999E-01;1730;  0.0000000E+00;  0.0000000E+00;  0.0000000E+00;  1.0000550E+03;  1.0000000E-01;  4.5529575E+01;0;  0.0000000E+00;  0.0000000E+00;  0.0000000E+00;0; -4.0509753E-04;  4.0000000E+04;  0.0000000E+00;  0.0000000E+00;  4.0000000E+04;  0.0000000E+00;  4.0000000E+04; -1.5779817E-04;  0.0000000E+00; -2.4729935E-04;  2.8077023E+02;
 -9.9999998E-03;  9.9999998E-03; -4.1000000E-01;1731;  0.0000000E+00;  0.0000000E+00;  0.0000000E+00;  1.0001145E+03;  1.0000000E-01;  9.4910896E+01;0;  0.0000000E+00;  0.0000000E+00;  0.0000000E+00;0; -8.1054075E-04;  4.0000000E+04;  0.0000000E+00;  0.0000000E+00;  4.0000000E+04;  0.0000000E+00;  4.0000000E+04; -3.5019036E-04;  0.0000000E+00; -4.6035039E-04;  4.9481113E+02;
 -9.9999998E-03;  9.9999998E-03; -4.0000001E-01;1732;  0.0000000E+00;  0.0000000E+00;  0.0000000E+00;  1.0002000E+03;  1.0000000E-01;  1.6562494E+02;0;  0.0000000E+00;  0.0000000E+00;  0.0000000E+00;0; -1.4341762E-03;  4.0000000E+04;  0.0000000E+00;  0.0000000E+00;  4.0000000E+04;  0.0000000E+00;  4.0000000E+04; -6.8876101E-04;  0.0000000E+00; -7.4541528E-04;  7.6486292E+02;
 -9.9999998E-03;  9.9999998E-03; -3.8999999E-01;1733;  0.0000000E+00;  0.0000000E+00;  0.0000000E+00;  1.0003193E+03;  1.0000000E-01;  2.6448636E+02;0;  0.0000000E+00;  0.0000000E+00;  0.0000000E+00;0; -2.3324750E-03;  4.0000000E+04;  0.0000000E+00;  0.0000000E+00;  4.0000000E+04;  0.0000000E+00;  4.0000000E+04; -1.2398077E-03;  0.0000000E+00; -1.0926673E-03;  1.0746819E+03;
 -9.9999998E-03;  9.9999998E-03; -3.8000000E-01;1734;  0.0000000E+00;  0.0000000E+00;  0.0000000E+00;  1.0004771E+03;  1.0000000E-01;  3.9524808E+02;0;  0.0000000E+00;  0.0000000E+00;  0.0000000E+00;0; -3.5730836E-03;  4.0000000E+04;  0.0000000E+00;  0.0000000E+00;  4.0000000E+04;  0.0000000E+00;  4.0000000E+04; -2.0836866E-03;  0.0000000E+00; -1.4893969E-03;  1.4056957E+03;
 -9.9999998E-03;  9.9999998E-03; -3.7000000E-01;1735;  0.0000000E+00;  0.0000000E+00;  0.0000000E+00;  1.0006950E+03;  1.0000000E-01;  5.7578619E+02;0;  0.0000000E+00;  0.0000000E+00;  0.0000000E+00;0; -5.2334131E-03;  4.0000000E+04;  0.0000000E+00;  0.0000000E+00;  4.0000000E+04;  0.0000000E+00;  4.0000000E+04; -3.3121498E-03;  0.0000000E+00; -1.9212634E-03;  1.7381547E+03;
 -9.9999998E-03;  9.9999998E-03; -3.6000001E-01;1736;  0.0000000E+00;  0.0000000E+00;  0.0000000E+00;  1.0009764E+03;  1.0000000E-01;  8.0896478E+02;0;  0.0000000E+00;  0.0000000E+00;  0.0000000E+00;0; -7.3934821E-03;  4.0000000E+04;  0.0000000E+00;  0.0000000E+00;  4.0000000E+04;  0.0000000E+00;  4.0000000E+04; -5.0226683E-03;  0.0000000E+00; -2.3708141E-03;  2.0497642E+03;
 -9.9999998E-03;  9.9999998E-03; -3.4999999E-01;1737;  0.0000000E+00;  0.0000000E+00;  0.0000000E+00;  1.0013216E+03;  1.0000000E-01;  1.0948826E+03;0;  0.0000000E+00;  0.0000000E+00;  0.0000000E+00;0; -1.0123605E-02;  4.0000000E+04;  0.0000000E+00;  0.0000000E+00;  4.0000000E+04;  0.0000000E+00;  4.0000000E+04; -7.3089967E-03;  0.0000000E+00; -2.8146079E-03;  2.3132131E+03;
 -9.9999998E-03;  9.9999998E-03; -3.4000000E-01;1738;  0.0000000E+00;  0.0000000E+00;  0.0000000E+00;  1.0017415E+03;  1.0000000E-01;  1.4427246E+03;0;  0.0000000E+00;  0.0000000E+00;  0.0000000E+00;0; -1.3468644E-02;  4.0000000E+04;  0.0000000E+00;  0.0000000E+00;  4.0000000E+04;  0.0000000E+00;  4.0000000E+04; -1.0248555E-02;  0.0000000E+00; -3.2200888E-03;  2.4936018E+03;
 -9.9999998E-03;  9.9999998E-03; -3.3000001E-01;1739;  0.0000000E+00;  0.0000000E+00;  0.0000000E+00;  1.0022288E+03;  1.0000000E-01;  1.8464663E+03;0;  0.0000000E+00;  0.0000000E+00;  0.0000000E+00;0; -1.7431339E-02;  4.0000000E+04;  0.0000000E+00;  0.0000000E+00;  4.0000000E+04;  0.0000000E+00;  4.0000000E+04; -1.3887906E-02;  0.0000000E+00; -3.5434330E-03;  2.5471323E+03;
 -9.9999998E-03;  9.9999998E-03; -3.1999999E-01;1740;  0.0000000E+00;  0.0000000E+00;  0.0000000E+00;  1.0027820E+03;  1.0000000E-01;  2.3048237E+03;0;  0.0000000E+00;  0.0000000E+00;  0.0000000E+00;0; -2.1958545E-02;  4.0000000E+04;  0.0000000E+00;  0.0000000E+00;  4.0000000E+04;  0.0000000E+00;  4.0000000E+04; -1.8228248E-02;  0.0000000E+00; -3.7302978E-03;  2.4228987E+03;
 -9.9999998E-03;  9.9999998E-03; -3.1000000E-01;1741;  0.0000000E+00;  0.0000000E+00;  0.0000000E+00;  1.0033784E+03;  1.0000000E-01;  2.7989331E+03;0;  0.0000000E+00;  0.0000000E+00;  0.0000000E+00;0; -2.6937187E-02;  4.0000000E+04;  0.0000000E+00;  0.0000000E+00;  4.0000000E+04;  0.0000000E+00;  4.0000000E+04; -2.3214711E-02;  0.0000000E+00; -3.7224763E-03;  2.0718848E+03;
 -9.9999998E-03;  9.9999998E-03; -3.0000001E-01;1742;  0.0000000E+00;  0.0000000E+00;  0.0000000E+00;  1.0039957E+03;  1.0000000E-01;  3.3104248E+03;0;  0.0000000E+00;  0.0000000E+00;  0.0000000E+00;0; -3.2207619E-02;  4.0000000E+04;  0.0000000E+00;  0.0000000E+00;  4.0000000E+04;  0.0000000E+00;  4.0000000E+04; -2.8733714E-02;  0.0000000E+00; -3.4739044E-03;  1.4706339E+03;
 -9.9999998E-03;  9.9999998E-03; -2.8999999E-01;1743;  0.0000000E+00;  0.0000000E+00;  0.0000000E+00;  1.0046142E+03;  1.0000000E-01;  3.8228054E+03;0;  0.0000000E+00;  0.0000000E+00;  0.0000000E+00;0; -3.7601896E-02;  4.0000000E+04;  0.0000000E+00;  0.0000000E+00;  4.0000000E+04;  0.0000000E+00;  4.0000000E+04; -3.4627128E-02;  0.0000000E+00; -2.9747672E-03;  6.9219073E+02;
 -9.9999998E-03;  9.9999998E-03; -2.8000000E-01;1744;  0.0000000E+00;  0.0000000E+00;  0.0000000E+00;  1.0052223E+03;  1.0000000E-01;  4.3265938E+03;0;  0.0000000E+00;  0.0000000E+00;  0.0000000E+00;0; -4.2995788E-02;  4.0000000E+04;  0.0000000E+00;  0.0000000E+00;  4.0000000E+04;  0.0000000E+00;  4.0000000E+04; -4.0722411E-02;  0.0000000E+00; -2.2733761E-03;  6.6444977E+02;
  0.0000000E+00;  9.9999998E-03; -4.4000000E-01;1819;  0.0000000E+00;  0.0000000E+00;  0.0000000E+00;  1.0000000E+03;  1.0000000E-01;  0.0000000E+00;0;  0.0000000E+00;  0.0000000E+00;  0.0000000E+00;0; -6.8609646E-05;  4.0000000E+04;  0.0000000E+00;  0.0000000E+00;  4.0000000E+04;  0.0000000E+00;  4.0000000E+04; -2.1516587E-05;  0.0000000E+00; -4.7093061E-05;  5.7025150E+01;
  0.0000000E+00;  9.9999998E-03; -4.3000001E-01;1820;  0.0000000E+00;  0.0000000E+00;  0.0000000E+00;  1.0000084E+03;  1.0000000E-01;  6.9133849E+00;0;  0.0000000E+00;  0.0000000E+00;  0.0000000E+00;0; -2.1214297E-04;  4.0000000E+04;  0.0000000E+00;  0.0000000E+00;  4.0000000E+04;  0.0000000E+00;  4.0000000E+04; -7.3039817E-05;  0.0000000E+00; -1.3910315E-04;  1.5378177E+02;
  0.0000000E+00;  9.9999998E-03; -4.1999999E-01;1821;  0.0000000E+00;  0.0000000E+00;  0.0000000E+00;  1.0000707E+03;  1.0000000E-01;  5.8566246E+01;0;  0.0000000E+00;  0.0000000E+00;  0.0000000E+00;0; -4.9860677E-04;  4.0000000E+04;  0.0000000E+00;  0.0000000E+00;  4.0000000E+04;  0.0000000E+00;  4.0000000E+04; -1.8955172E-04;  0.0000000E+00; -3.0905503E-04;  3.1954807E+02;
  0.0000000E+00;  9.9999998E-03; -4.1000000E-01;1822;  0.0000000E+00;  0.0000000E+00;  0.0000000E+00;  1.0001338E+03;  1.0000000E-01;  1.1081168E+02;0;  0.0000000E+00;  0.0000000E+00;  0.0000000E+00;0; -9.8197709E-04;  4.0000000E+04;  0.0000000E+00;  0.0000000E+00;  4.0000000E+04;  0.0000000E+00;  4.0000000E+04; -4.1525450E-04;  0.0000000E+00; -5.6672259E-04;  5.5655884E+02;
  0.0000000E+00;  9.9999998E-03; -4.0000001E-01;1823;  0.0000000E+00;  0.0000000E+00;  0.0000000E+00;  1.0002433E+03;  1.0000000E-01;  2.0157454E+02;0;  0.0000000E+00;  0.0000000E+00;  0.0000000E+00;0; -1.7172953E-03;  4.0000000E+04;  0.0000000E+00;  0.0000000E+00;  4.0000000E+04;  0.0000000E+00;  4.0000000E+04; -8.0945459E-04;  0.0000000E+00; -9.0784061E-04;  8.5412701E+02;
  0.0000000E+00;  9.9999998E-03; -3.8999999E-01;1824;  0.0000000E+00;  0.0000000E+00;  0.0000000E+00;  1.0003838E+03;  1.0000000E-01;  3.1791693E+02;0;  0.0000000E+00;  0.0000000E+00;  0.0000000E+00;0; -2.7678090E-03;  4.0000000E+04;  0.0000000E+00;  0.0000000E+00;  4.0000000E+04;  0.0000000E+00;  4.0000000E+04; -1.4479198E-03;  0.0000000E+00; -1.3198892E-03;  1.1941115E+03;
  0.0000000E+00;  9.9999998E-03; -3.8000000E-01;1825;  0.0000000E+00;  0.0000000E+00;  0.0000000E+00;  1.0005844E+03;  1.0000000E-01;  4.8413446E+02;0;  0.0000000E+00;  0.0000000E+00;  0.0000000E+00;0; -4.2100325E-03;  4.0000000E+04;  0.0000000E+00;  0.0000000E+00;  4.0000000E+04;  0.0000000E+00;  4.0000000E+04; -2.4226229E-03;  0.0000000E+00; -1.7874098E-03;  1.5557954E+03;
  0.0000000E+00;  9.9999998E-03; -3.7000000E-01;1826;  0.0000000E+00;  0.0000000E+00;  0.0000000E+00;  1.0008404E+03;  1.0000000E-01;  6.9627661E+02;0;  0.0000000E+00;  0.0000000E+00;  0.0000000E+00;0; -6.1322073E-03;  4.0000000E+04;  0.0000000E+00;  0.0000000E+00;  4.0000000E+04;  0.0000000E+00;  4.0000000E+04; -3.8387617E-03;  0.0000000E+00; -2.2934456E-03;  1.9173169E+03;
  0.0000000E+00;  9.9999998E-03; -3.6000001E-01;1827;  0.0000000E+00;  0.0000000E+00;  0.0000000E+00;  1.0011724E+03;  1.0000000E-01;  9.7133057E+02;0;  0.0000000E+00;  0.0000000E+00;  0.0000000E+00;0; -8.6260624E-03;  4.0000000E+04;  0.0000000E+00;  0.0000000E+00;  4.0000000E+04;  0.0000000E+00;  4.0000000E+04; -5.8083083E-03;  0.0000000E+00; -2.8177539E-03;  2.2542639E+03;
  0.0000000E+00;  9.9999998E-03; -3.4999999E-01;1828;  0.0000000E+00;  0.0000000E+00;  0.0000000E+00;  1.0015770E+03;  1.0000000E-01;  1.3065310E+03;0;  0.0000000E+00;  0.0000000E+00;  0.0000000E+00;0; -1.1772603E-02;  4.0000000E+04;  0.0000000E+00;  0.0000000E+00;  4.0000000E+04;  0.0000000E+00;  4.0000000E+04; -8.4392773E-03;  0.0000000E+00; -3.3333255E-03;  2.5370344E+03;
  0.0000000E+00;  9.9999998E-03; -3.4000000E-01;1829;  0.0000000E+00;  0.0000000E+00;  0.0000000E+00;  1.0020707E+03;  1.0000000E-01;  1.7155071E+03;0;  0.0000000E+00;  0.0000000E+00;  0.0000000E+00;0; -1.5623786E-02;  4.0000000E+04;  0.0000000E+00;  0.0000000E+00;  4.0000000E+04;  0.0000000E+00;  4.0000000E+04; -1.1821209E-02;  0.0000000E+00; -3.8025770E-03;  2.7278389E+03;
  0.0000000E+00;  9.9999998E-03; -3.3000001E-01;1830;  0.0000000E+00;  0.0000000E+00;  0.0000000E+00;  1.0026483E+03;  1.0000000E-01;  2.1940120E+03;0;  0.0000000E+00;  0.0000000E+00;  0.0000000E+00;0; -2.0182863E-02;  4.0000000E+04;  0.0000000E+00;  0.0000000E+00;  4.0000000E+04;  0.0000000E+00;  4.0000000E+04; -1.6008357E-02;  0.0000000E+00; -4.1745063E-03;  2.7789646E+03;
  0.0000000E+00;  9.9999998E-03; -3.1999999E-01;1831;  0.0000000E+00;  0.0000000E+00;  0.0000000E+00;  1.0032969E+03;  1.0000000E-01;  2.7313796E+03;0;  0.0000000E+00;  0.0000000E+00;  0.0000000E+00;0; -2.5387391E-02;  4.0000000E+04;  0.0000000E+00;  0.0000000E+00;  4.0000000E+04;  0.0000000E+00;  4.0000000E+04; -2.1002555E-02;  0.0000000E+00; -4.3848357E-03;  2.6334829E+03;
  0.0000000E+00;  9.9999998E-03; -3.1000000E-01;1832;  0.0000000E+00;  0.0000000E+00;  0.0000000E+00;  1.0039999E+03;  1.0000000E-01;  3.3138816E+03;0;  0.0000000E+00;  0.0000000E+00;  0.0000000E+00;0; -3.1101624E-02;  4.0000000E+04;  0.0000000E+00;  0.0000000E+00;  4.0000000E+04;  0.0000000E+00;  4.0000000E+04; -2.6739160E-02;  0.0000000E+00; -4.3624635E-03;  2.2329783E+03;
  0.0000000E+00;  9.9999998E-03; -3.0000001E-01;1833;  0.0000000E+00;  0.0000000E+00;  0.0000000E+00;  1.0047243E+03;  1.0000000E-01;  3.9139634E+03;0;  0.0000000E+00;  0.0000000E+00;  0.0000000E+00;0; -3.7127905E-02;  4.0000000E+04;  0.0000000E+00;  0.0000000E+00;  4.0000000E+04;  0.0000000E+00;  4.0000000E+04; -3.3079907E-02;  0.0000000E+00; -4.0479992E-03;  1.5450702E+03;
  9.9999998E-03;  9.9999998E-03; -4.4000000E-01;1851;  0.0000000E+00;  0.0000000E+00;  0.0000000E+00;  1.0000000E+03;  1.0000000E-01;  0.0000000E+00;0;  0.0000000E+00;  0.0000000E+00;  0.0000000E+00;0; -8.4004030E-05;  4.0000000E+04;  0.0000000E+00;  0.0000000E+00;  4.0000000E+04;  0.0000000E+00;  4.0000000E+04; -2.5226722E-05;  0.0000000E+00; -5.8777307E-05;  6.3314034E+01;
  9.9999998E-03;  9.9999998E-03; -4.3000001E-01;1852;  0.0000000E+00;  0.0000000E+00;  0.0000000E+00;  1.0000317E+03;  1.0000000E-01;  2.6270863E+01;0;  0.0000000E+00;  0.0000000E+00;  0.0000000E+00;0; -2.5377853E-04;  4.0000000E+04;  0.0000000E+00;  0.0000000E+00;  4.0000000E+04;  0.0000000E+00;  4.0000000E+04; -8.4205923E-05;  0.0000000E+00; -1.6957260E-04;  1.6739777E+02;
  9.9999998E-03;  9.9999998E-03; -4.1999999E-01;1853;  0.0000000E+00;  0.0000000E+00;  0.0000000E+00;  1.0000851E+03;  1.0000000E-01;  7.0516525E+01;0;  0.0000000E+00;  0.0000000E+00;  0.0000000E+00;0; -5.8754813E-04;  4.0000000E+04;  0.0000000E+00;  0.0000000E+00;  4.0000000E+04;  0.0000000E+00;  4.0000000E+04; -2.1618958E-04;  0.0000000E+00; -3.7135856E-04;  3.4524661E+02;
  9.9999998E-03;  9.9999998E-03; -4.1000000E-01;1854;  0.0000000E+00;  0.0000000E+00;  0.0000000E+00;  1.0001607E+03;  1.0000000E-01;  1.3313203E+02;0;  0.0000000E+00;  0.0000000E+00;  0.0000000E+00;0; -1.1444328E-03;  4.0000000E+04;  0.0000000E+00;  0.0000000E+00;  4.0000000E+04;  0.0000000E+00;  4.0000000E+04; -4.7026886E-04;  0.0000000E+00; -6.7416398E-04;  5.9988776E+02;
  9.9999998E-03;  9.9999998E-03; -4.0000001E-01;1855;  0.0000000E+00;  0.0000000E+00;  0.0000000E+00;  1.0002840E+03;  1.0000000E-01;  2.3525261E+02;0;  0.0000000E+00;  0.0000000E+00;  0.0000000E+00;0; -1.9840274E-03;  4.0000000E+04;  0.0000000E+00;  0.0000000E+00;  4.0000000E+04;  0.0000000E+00;  4.0000000E+04; -9.1239827E-04;  0.0000000E+00; -1.0716291E-03;  9.1994800E+02;
  9.9999998E-03;  9.9999998E-03; -3.8999999E-01;1856;  0.0000000E+00;  0.0000000E+00;  0.0000000E+00;  1.0004530E+03;  1.0000000E-01;  3.7529803E+02;0;  0.0000000E+00;  0.0000000E+00;  0.0000000E+00;0; -3.1750794E-03;  4.0000000E+04;  0.0000000E+00;  0.0000000E+00;  4.0000000E+04;  0.0000000E+00;  4.0000000E+04; -1.6269691E-03;  0.0000000E+00; -1.5481104E-03;  1.2853760E+03;
  9.9999998E-03;  9.9999998E-03; -3.8000000E-01;1857;  0.0000000E+00;  0.0000000E+00;  0.0000000E+00;  1.0006830E+03;  1.0000000E-01;  5.6581116E+02;0;  0.0000000E+00;  0.0000000E+00;  0.0000000E+00;0; -4.8015257E-03;  4.0000000E+04;  0.0000000E+00;  0.0000000E+00;  4.0000000E+04;  0.0000000E+00;  4.0000000E+04; -2.7165108E-03;  0.0000000E+00; -2.0850147E-03;  1.6729515E+03;
  9.9999998E-03;  9.9999998E-03; -3.7000000E-01;1858;  0.0000000E+00;  0.0000000E+00;  0.0000000E+00;  1.0009808E+03;  1.0000000E-01;  8.1252020E+02;0;  0.0000000E+00;  0.0000000E+00;  0.0000000E+00;0; -6.9607934E-03;  4.0000000E+04;  0.0000000E+00;  0.0000000E+00;  4.0000000E+04;  0.0000000E+00;  4.0000000E+04; -4.2983280E-03;  0.0000000E+00; -2.6624657E-03;  2.0581589E+03;
  9.9999998E-03;  9.9999998E-03; -3.6000001E-01;1859;  0.0000000E+00;  0.0000000E+00;  0.0000000E+00;  1.0013604E+03;  1.0000000E-01;  1.1269805E+03;0;  0.0000000E+00;  0.0000000E+00;  0.0000000E+00;0; -9.7544016E-03;  4.0000000E+04;  0.0000000E+00;  0.0000000E+00;  4.0000000E+04;  0.0000000E+00;  4.0000000E+04; -6.4972420E-03;  0.0000000E+00; -3.2571594E-03;  2.4140120E+03;
  9.9999998E-03;  9.9999998E-03; -3.4999999E-01;1860;  0.0000000E+00;  0.0000000E+00;  0.0000000E+00;  1.0018288E+03;  1.0000000E-01;  1.5151177E+03;0;  0.0000000E+00;  0.0000000E+00;  0.0000000E+00;0; -1.3271831E-02;  4.0000000E+04;  0.0000000E+00;  0.0000000E+00;  4.0000000E+04;  0.0000000E+00;  4.0000000E+04; -9.4335489E-03;  0.0000000E+00; -3.8382821E-03;  2.7082498E+03;
  9.9999998E-03;  9.9999998E-03; -3.4000000E-01;1861;  0.0000000E+00;  0.0000000E+00;  0.0000000E+00;  1.0023967E+03;  1.0000000E-01;  1.9856228E+03;0;  0.0000000E+00;  0.0000000E+00;  0.0000000E+00;0; -1.7569795E-02;  4.0000000E+04;  0.0000000E+00;  0.0000000E+00;  4.0000000E+04;  0.0000000E+00;  4.0000000E+04; -1.3206771E-02;  0.0000000E+00; -4.3630241E-03;  2.9002974E+03;
  9.9999998E-03;  9.9999998E-03; -3.3000001E-01;1862;  0.0000000E+00;  0.0000000E+00;  0.0000000E+00;  1.0030581E+03;  1.0000000E-01;  2.5335579E+03;0;  0.0000000E+00;  0.0000000E+00;  0.0000000E+00;0; -2.2649791E-02;  4.0000000E+04;  0.0000000E+00;  0.0000000E+00;  4.0000000E+04;  0.0000000E+00;  4.0000000E+04; -1.7876659E-02;  0.0000000E+00; -4.7731325E-03;  2.9391831E+03;
  9.9999998E-03;  9.9999998E-03; -3.1999999E-01;1863;  0.0000000E+00;  0.0000000E+00;  0.0000000E+00;  1.0038009E+03;  1.0000000E-01;  3.1489480E+03;0;  0.0000000E+00;  0.0000000E+00;  0.0000000E+00;0; -2.8438270E-02;  4.0000000E+04;  0.0000000E+00;  0.0000000E+00;  4.0000000E+04;  0.0000000E+00;  4.0000000E+04; -2.3443632E-02;  0.0000000E+00; -4.9946392E-03;  2.7638916E+03;
  9.9999998E-03;  9.9999998E-03; -3.1000000E-01;1864;  0.0000000E+00;  0.0000000E+00;  0.0000000E+00;  1.0046067E+03;  1.0000000E-01;  3.8165835E+03;0;  0.0000000E+00;  0.0000000E+00;  0.0000000E+00;0; -3.4776188E-02;  4.0000000E+04;  0.0000000E+00;  0.0000000E+00;  4.0000000E+04;  0.0000000E+00;  4.0000000E+04; -2.9832065E-02;  0.0000000E+00; -4.9441224E-03;  2.3098049E+03;
  2.0000000E-02;  9.9999998E-03; -4.4000000E-01;1881;  0.0000000E+00;  0.0000000E+00;  0.0000000E+00;  1.0000000E+03;  1.0000000E-01;  0.0000000E+00;0;  0.0000000E+00;  0.0000000E+00;  0.0000000E+00;0; -9.7489028E-05;  4.0000000E+04;  0.0000000E+00;  0.0000000E+00;  4.0000000E+04;  0.0000000E+00;  4.0000000E+04; -2.7691874E-05;  0.0000000E+00; -6.9797155E-05;  6.5034645E+01;
  2.0000000E-02;  9.9999998E-03; -4.3000001E-01;1882;  0.0000000E+00;  0.0000000E+00;  0.0000000E+00;  1.0000461E+03;  1.0000000E-01;  3.8221142E+01;0;  0.0000000E+00;  0.0000000E+00;  0.0000000E+00;0; -2.9080082E-04;  4.0000000E+04;  0.0000000E+00;  0.0000000E+00;  4.0000000E+04;  0.0000000E+00;  4.0000000E+04; -9.1919355E-05;  0.0000000E+00; -1.9888146E-04;  1.7211653E+02;
  2.0000000E-02;  9.9999998E-03; -4.1999999E-01;1883;  0.0000000E+00;  0.0000000E+00;  0.0000000E+00;  1.0001039E+03;  1.0000000E-01;  8.6022255E+01;0;  0.0000000E+00;  0.0000000E+00;  0.0000000E+00;0; -6.6709553E-04;  4.0000000E+04;  0.0000000E+00;  0.0000000E+00;  4.0000000E+04;  0.0000000E+00;  4.0000000E+04; -2.3519572E-04;  0.0000000E+00; -4.3189980E-04;  3.5735956E+02;
  2.0000000E-02;  9.9999998E-03; -4.1000000E-01;1884;  0.0000000E+00;  0.0000000E+00;  0.0000000E+00;  1.0001855E+03;  1.0000000E-01;  1.5367467E+02;0;  0.0000000E+00;  0.0000000E+00;  0.0000000E+00;0; -1.2895972E-03;  4.0000000E+04;  0.0000000E+00;  0.0000000E+00;  4.0000000E+04;  0.0000000E+00;  4.0000000E+04; -5.1071274E-04;  0.0000000E+00; -7.7888457E-04;  6.2547400E+02;
  2.0000000E-02;  9.9999998E-03; -4.0000001E-01;1885;  0.0000000E+00;  0.0000000E+00;  0.0000000E+00;  1.0003297E+03;  1.0000000E-01;  2.7317746E+02;0;  0.0000000E+00;  0.0000000E+00;  0.0000000E+00;0; -2.2211331E-03;  4.0000000E+04;  0.0000000E+00;  0.0000000E+00;  4.0000000E+04;  0.0000000E+00;  4.0000000E+04; -9.9014584E-04;  0.0000000E+00; -1.2309871E-03;  9.6475012E+02;
  2.0000000E-02;  9.9999998E-03; -3.8999999E-01;1886;  0.0000000E+00;  0.0000000E+00;  0.0000000E+00;  1.0005197E+03;  1.0000000E-01;  4.3050635E+02;0;  0.0000000E+00;  0.0000000E+00;  0.0000000E+00;0; -3.5344134E-03;  4.0000000E+04;  0.0000000E+00;  0.0000000E+00;  4.0000000E+04;  0.0000000E+00;  4.0000000E+04; -1.7653366E-03;  0.0000000E+00; -1.7690769E-03;  1.3529434E+03;
  2.0000000E-02;  9.9999998E-03; -3.8000000E-01;1887;  0.0000000E+00;  0.0000000E+00;  0.0000000E+00;  1.0007795E+03;  1.0000000E-01;  6.4580890E+02;0;  0.0000000E+00;  0.0000000E+00;  0.0000000E+00;0; -5.3189527E-03;  4.0000000E+04;  0.0000000E+00;  0.0000000E+00;  4.0000000E+04;  0.0000000E+00;  4.0000000E+04; -2.9478169E-03;  0.0000000E+00; -2.3711359E-03;  1.7636218E+03;
  2.0000000E-02;  9.9999998E-03; -3.7000000E-01;1888;  0.0000000E+00;  0.0000000E+00;  0.0000000E+00;  1.0011110E+03;  1.0000000E-01;  9.2046777E+02;0;  0.0000000E+00;  0.0000000E+00;  0.0000000E+00;0; -7.6791085E-03;  4.0000000E+04;  0.0000000E+00;  0.0000000E+00;  4.0000000E+04;  0.0000000E+00;  4.0000000E+04; -4.6650101E-03;  0.0000000E+00; -3.0140984E-03;  2.1688535E+03;
  2.0000000E-02;  9.9999998E-03; -3.6000001E-01;1889;  0.0000000E+00;  0.0000000E+00;  0.0000000E+00;  1.0015381E+03;  1.0000000E-01;  1.2742356E+03;0;  0.0000000E+00;  0.0000000E+00;  0.0000000E+00;0; -1.0723379E-02;  4.0000000E+04;  0.0000000E+00;  0.0000000E+00;  4.0000000E+04;  0.0000000E+00;  4.0000000E+04; -7.0521040E-03;  0.0000000E+00; -3.6712757E-03;  2.5381777E+03;
  2.0000000E-02;  9.9999998E-03; -3.4999999E-01;1890;  0.0000000E+00;  0.0000000E+00;  0.0000000E+00;  1.0020651E+03;  1.0000000E-01;  1.7108652E+03;0;  0.0000000E+00;  0.0000000E+00;  0.0000000E+00;0; -1.4546555E-02;  4.0000000E+04;  0.0000000E+00;  0.0000000E+00;  4.0000000E+04;  0.0000000E+00;  4.0000000E+04; -1.0238881E-02;  0.0000000E+00; -4.3076733E-03;  2.8359460E+03;
  2.0000000E-02;  9.9999998E-03; -3.4000000E-01;1891;  0.0000000E+00;  0.0000000E+00;  0.0000000E+00;  1.0026994E+03;  1.0000000E-01;  2.2363811E+03;0;  0.0000000E+00;  0.0000000E+00;  0.0000000E+00;0; -1.9206675E-02;  4.0000000E+04;  0.0000000E+00;  0.0000000E+00;  4.0000000E+04;  0.0000000E+00;  4.0000000E+04; -1.4331765E-02;  0.0000000E+00; -4.8749088E-03;  3.0183293E+03;
  2.0000000E-02;  9.9999998E-03; -3.3000001E-01;1892;  0.0000000E+00;  0.0000000E+00;  0.0000000E+00;  1.0034407E+03;  1.0000000E-01;  2.8505859E+03;0;  0.0000000E+00;  0.0000000E+00;  0.0000000E+00;0; -2.4700455E-02;  4.0000000E+04;  0.0000000E+00;  0.0000000E+00;  4.0000000E+04;  0.0000000E+00;  4.0000000E+04; -1.9393129E-02;  0.0000000E+00; -5.3073270E-03;  3.0312881E+03;
  2.0000000E-02;  9.9999998E-03; -3.1999999E-01;1893;  0.0000000E+00;  0.0000000E+00;  0.0000000E+00;  1.0042743E+03;  1.0000000E-01;  3.5411345E+03;0;  0.0000000E+00;  0.0000000E+00;  0.0000000E+00;0; -3.0941213E-02;  4.0000000E+04;  0.0000000E+00;  0.0000000E+00;  4.0000000E+04;  0.0000000E+00;  4.0000000E+04; -2.5419559E-02;  0.0000000E+00; -5.5216528E-03;  2.8113447E+03;
  2.0000000E-02;  9.9999998E-03; -3.1000000E-01;1894;  0.0000000E+00;  0.0000000E+00;  0.0000000E+00;  1.0051667E+03;  1.0000000E-01;  4.2805703E+03;0;  0.0000000E+00;  0.0000000E+00;  0.0000000E+00;0; -3.7747946E-02;  4.0000000E+04;  0.0000000E+00;  0.0000000E+00;  4.0000000E+04;  0.0000000E+00;  4.0000000E+04; -3.2323916E-02;  0.0000000E+00; -5.4240315E-03;  2.2931414E+03;
  2.9999999E-02;  9.9999998E-03; -4.4000000E-01;1911;  0.0000000E+00;  0.0000000E+00;  0.0000000E+00;  1.0000000E+03;  1.0000000E-01;  0.0000000E+00;0;  0.0000000E+00;  0.0000000E+00;  0.0000000E+00;0; -1.0841554E-04;  4.0000000E+04;  0.0000000E+00;  0.0000000E+00;  4.0000000E+04;  0.0000000E+00;  4.0000000E+04; -2.8651024E-05;  0.0000000E+00; -7.9764519E-05;  6.2328285E+01;
  2.9999999E-02;  9.9999998E-03; -4.3000001E-01;1912;  0.0000000E+00;  0.0000000E+00;  0.0000000E+00;  1.0000506E+03;  1.0000000E-01;  4.1875359E+01;0;  0.0000000E+00;  0.0000000E+00;  0.0000000E+00;0; -3.2164640E-04;  4.0000000E+04;  0.0000000E+00;  0.0000000E+00;  4.0000000E+04;  0.0000000E+00;  4.0000000E+04; -9.5480427E-05;  0.0000000E+00; -2.2616597E-04;  1.6909871E+02;
  2.9999999E-02;  9.9999998E-03; -4.1999999E-01;1913;  0.0000000E+00;  0.0000000E+00;  0.0000000E+00;  1.0001152E+03;  1.0000000E-01;  9.5503471E+01;0;  0.0000000E+00;  0.0000000E+00;  0.0000000E+00;0; -7.3404715E-04;  4.0000000E+04;  0.0000000E+00;  0.0000000E+00;  4.0000000E+04;  0.0000000E+00;  4.0000000E+04; -2.4515603E-04;  0.0000000E+00; -4.8889109E-04;  3.5902298E+02;
  2.9999999E-02;  9.9999998E-03; -4.1000000E-01;1914;  0.0000000E+00;  0.0000000E+00;  0.0000000E+00;  1.0002184E+03;  1.0000000E-01;  1.8093315E+02;0;  0.0000000E+00;  0.0000000E+00;  0.0000000E+00;0; -1.4117634E-03;  4.0000000E+04;  0.0000000E+00;  0.0000000E+00;  4.0000000E+04;  0.0000000E+00;  4.0000000E+04; -5.3413003E-04;  0.0000000E+00; -8.7763334E-04;  6.3931226E+02;
  2.9999999E-02;  9.9999998E-03; -4.0000001E-01;1915;  0.0000000E+00;  0.0000000E+00;  0.0000000E+00;  1.0003665E+03;  1.0000000E-01;  3.0359634E+02;0;  0.0000000E+00;  0.0000000E+00;  0.0000000E+00;0; -2.4195383E-03;  4.0000000E+04;  0.0000000E+00;  0.0000000E+00;  4.0000000E+04;  0.0000000E+00;  4.0000000E+04; -1.0387512E-03;  0.0000000E+00; -1.3807872E-03;  9.9797253E+02;
  2.9999999E-02;  9.9999998E-03; -3.8999999E-01;1916;  0.0000000E+00;  0.0000000E+00;  0.0000000E+00;  1.0005793E+03;  1.0000000E-01;  4.7998642E+02;0;  0.0000000E+00;  0.0000000E+00;  0.0000000E+00;0; -3.8324792E-03;  4.0000000E+04;  0.0000000E+00;  0.0000000E+00;  4.0000000E+04;  0.0000000E+00;  4.0000000E+04; -1.8568817E-03;  0.0000000E+00; -1.9755976E-03;  1.4099252E+03;
  2.9999999E-02;  9.9999998E-03; -3.8000000E-01;1917;  0.0000000E+00;  0.0000000E+00;  0.0000000E+00;  1.0008635E+03;  1.0000000E-01;  7.1543658E+02;0;  0.0000000E+00;  0.0000000E+00;  0.0000000E+00;0; -5.7436097E-03;  4.0000000E+04;  0.0000000E+00;  0.0000000E+00;  4.0000000E+04;  0.0000000E+00;  4.0000000E+04; -3.1071356E-03;  0.0000000E+00; -2.6364743E-03;  1.8446213E+03;
  2.9999999E-02;  9.9999998E-03; -3.7000000E-01;1918;  0.0000000E+00;  0.0000000E+00;  0.0000000E+00;  1.0012305E+03;  1.0000000E-01;  1.0194280E+03;0;  0.0000000E+00;  0.0000000E+00;  0.0000000E+00;0; -8.2614860E-03;  4.0000000E+04;  0.0000000E+00;  0.0000000E+00;  4.0000000E+04;  0.0000000E+00;  4.0000000E+04; -4.9245963E-03;  0.0000000E+00; -3.3368899E-03;  2.2696550E+03;
  2.9999999E-02;  9.9999998E-03; -3.6000001E-01;1919;  0.0000000E+00;  0.0000000E+00;  0.0000000E+00;  1.0016967E+03;  1.0000000E-01;  1.4056886E+03;0;  0.0000000E+00;  0.0000000E+00;  0.0000000E+00;0; -1.1498335E-02;  4.0000000E+04;  0.0000000E+00;  0.0000000E+00;  4.0000000E+04;  0.0000000E+00;  4.0000000E+04; -7.4519664E-03;  0.0000000E+00; -4.0463684E-03;  2.6501589E+03;
  2.9999999E-02;  9.9999998E-03; -3.4999999E-01;1920;  0.0000000E+00;  0.0000000E+00;  0.0000000E+00;  1.0022780E+03;  1.0000000E-01;  1.8872552E+03;0;  0.0000000E+00;  0.0000000E+00;  0.0000000E+00;0; -1.5550639E-02;  4.0000000E+04;  0.0000000E+00;  0.0000000E+00;  4.0000000E+04;  0.0000000E+00;  4.0000000E+04; -1.0825290E-02;  0.0000000E+00; -4.7253491E-03;  2.9461758E+03;
  2.9999999E-02;  9.9999998E-03; -3.4000000E-01;1921;  0.0000000E+00;  0.0000000E+00;  0.0000000E+00;  1.0029745E+03;  1.0000000E-01;  2.4643254E+03;0;  0.0000000E+00;  0.0000000E+00;  0.0000000E+00;0; -2.0474300E-02;  4.0000000E+04;  0.0000000E+00;  0.0000000E+00;  4.0000000E+04;  0.0000000E+00;  4.0000000E+04; -1.5154658E-02;  0.0000000E+00; -5.3196428E-03;  3.1100281E+03;
  2.9999999E-02;  9.9999998E-03; -3.3000001E-01;1922;  0.0000000E+00;  0.0000000E+00;  0.0000000E+00;  1.0037872E+03;  1.0000000E-01;  3.1375903E+03;0;  0.0000000E+00;  0.0000000E+00;  0.0000000E+00;0; -2.6258333E-02;  4.0000000E+04;  0.0000000E+00;  0.0000000E+00;  4.0000000E+04;  0.0000000E+00;  4.0000000E+04; -2.0501995E-02;  0.0000000E+00; -5.7563367E-03;  3.0848909E+03;
  2.9999999E-02;  9.9999998E-03; -3.1999999E-01;1923;  0.0000000E+00;  0.0000000E+00;  0.0000000E+00;  1.0046931E+03;  1.0000000E-01;  3.8881863E+03;0;  0.0000000E+00;  0.0000000E+00;  0.0000000E+00;0; -3.2802433E-02;  4.0000000E+04;  0.0000000E+00;  0.0000000E+00;  4.0000000E+04;  0.0000000E+00;  4.0000000E+04; -2.6858432E-02;  0.0000000E+00; -5.9440020E-03;  2.8072302E+03;
  2.9999999E-02;  9.9999998E-03; -3.1000000E-01;1924;  0.0000000E+00;  0.0000000E+00;  0.0000000E+00;  1.0056631E+03;  1.0000000E-01;  4.6917192E+03;0;  0.0000000E+00;  0.0000000E+00;  0.0000000E+00;0; -3.9907869E-02;  4.0000000E+04;  0.0000000E+00;  0.0000000E+00;  4.0000000E+04;  0.0000000E+00;  4.0000000E+04; -3.4125883E-02;  0.0000000E+00; -5.7819844E-03;  2.2190332E+03;
  3.9999999E-02;  9.9999998E-03; -4.4000000E-01;1941;  0.0000000E+00;  0.0000000E+00;  0.0000000E+00;  1.0000000E+03;  1.0000000E-01;  0.0000000E+00;0;  0.0000000E+00;  0.0000000E+00;  0.0000000E+00;0; -1.1673074E-04;  4.0000000E+04;  0.0000000E+00;  0.0000000E+00;  4.0000000E+04;  0.0000000E+00;  4.0000000E+04; -2.8109456E-05;  0.0000000E+00; -8.8621287E-05;  5.6566994E+01;
  3.9999999E-02;  9.9999998E-03; -4.3000001E-01;1942;  0.0000000E+00;  0.0000000E+00;  0.0000000E+00;  1.0000569E+03;  1.0000000E-01;  4.7109779E+01;0;  0.0000000E+00;  0.0000000E+00;  0.0000000E+00;0; -3.4588366E-04;  4.0000000E+04;  0.0000000E+00;  0.0000000E+00;  4.0000000E+04;  0.0000000E+00;  4.0000000E+04; -9.4875679E-05;  0.0000000E+00; -2.5100796E-04;  1.6187103E+02;
  3.9999999E-02;  9.9999998E-03; -4.1999999E-01;1943;  0.0000000E+00;  0.0000000E+00;  0.0000000E+00;  1.0001202E+03;  1.0000000E-01;  9.9552742E+01;0;  0.0000000E+00;  0.0000000E+00;  0.0000000E+00;0; -7.8716007E-04;  4.0000000E+04;  0.0000000E+00;  0.0000000E+00;  4.0000000E+04;  0.0000000E+00;  4.0000000E+04; -2.4609530E-04;  0.0000000E+00; -5.4106477E-04;  3.5713040E+02;
  3.9999999E-02;  9.9999998E-03; -4.1000000E-01;1944;  0.0000000E+00;  0.0000000E+00;  0.0000000E+00;  1.0002393E+03;  1.0000000E-01;  1.9821661E+02;0;  0.0000000E+00;  0.0000000E+00;  0.0000000E+00;0; -1.5085705E-03;  4.0000000E+04;  0.0000000E+00;  0.0000000E+00;  4.0000000E+04;  0.0000000E+00;  4.0000000E+04; -5.4067152E-04;  0.0000000E+00; -9.6789905E-04;  6.5257959E+02;
  3.9999999E-02;  9.9999998E-03; -4.0000001E-01;1945;  0.0000000E+00;  0.0000000E+00;  0.0000000E+00;  1.0004038E+03;  1.0000000E-01;  3.3450906E+02;0;  0.0000000E+00;  0.0000000E+00;  0.0000000E+00;0; -2.5756932E-03;  4.0000000E+04;  0.0000000E+00;  0.0000000E+00;  4.0000000E+04;  0.0000000E+00;  4.0000000E+04; -1.0584946E-03;  0.0000000E+00; -1.5171987E-03;  1.0354512E+03;
  3.9999999E-02;  9.9999998E-03; -3.8999999E-01;1946;  0.0000000E+00;  0.0000000E+00;  0.0000000E+00;  1.0006307E+03;  1.0000000E-01;  5.2255310E+02;0;  0.0000000E+00;  0.0000000E+00;  0.0000000E+00;0; -4.0644938E-03;  4.0000000E+04;  0.0000000E+00;  0.0000000E+00;  4.0000000E+04;  0.0000000E+00;  4.0000000E+04; -1.9018510E-03;  0.0000000E+00; -2.1626428E-03;  1.4768186E+03;
  3.9999999E-02;  9.9999998E-03; -3.8000000E-01;1947;  0.0000000E+00;  0.0000000E+00;  0.0000000E+00;  1.0009319E+03;  1.0000000E-01;  7.7212628E+02;0;  0.0000000E+00;  0.0000000E+00;  0.0000000E+00;0; -6.0692634E-03;  4.0000000E+04;  0.0000000E+00;  0.0000000E+00;  4.0000000E+04;  0.0000000E+00;  4.0000000E+04; -3.1944022E-03;  0.0000000E+00; -2.8748615E-03;  1.9410189E+03;
  3.9999999E-02;  9.9999998E-03; -3.7000000E-01;1948;  0.0000000E+00;  0.0000000E+00;  0.0000000E+00;  1.0013326E+03;  1.0000000E-01;  1.1040675E+03;0;  0.0000000E+00;  0.0000000E+00;  0.0000000E+00;0; -8.6999945E-03;  4.0000000E+04;  0.0000000E+00;  0.0000000E+00;  4.0000000E+04;  0.0000000E+00;  4.0000000E+04; -5.0764806E-03;  0.0000000E+00; -3.6235144E-03;  2.3902256E+03;
  3.9999999E-02;  9.9999998E-03; -3.6000001E-01;1949;  0.0000000E+00;  0.0000000E+00;  0.0000000E+00;  1.0018388E+03;  1.0000000E-01;  1.5234137E+03;0;  0.0000000E+00;  0.0000000E+00;  0.0000000E+00;0; -1.2069474E-02;  4.0000000E+04;  0.0000000E+00;  0.0000000E+00;  4.0000000E+04;  0.0000000E+00;  4.0000000E+04; -7.6954425E-03;  0.0000000E+00; -4.3740314E-03;  2.7843040E+03;
  3.9999999E-02;  9.9999998E-03; -3.4999999E-01;1950;  0.0000000E+00;  0.0000000E+00;  0.0000000E+00;  1.0024627E+03;  1.0000000E-01;  2.0403374E+03;0;  0.0000000E+00;  0.0000000E+00;  0.0000000E+00;0; -1.6272623E-02;  4.0000000E+04;  0.0000000E+00;  0.0000000E+00;  4.0000000E+04;  0.0000000E+00;  4.0000000E+04; -1.1190510E-02;  0.0000000E+00; -5.0821118E-03;  3.0783623E+03;
  3.9999999E-02;  9.9999998E-03; -3.4000000E-01;1951;  0.0000000E+00;  0.0000000E+00;  0.0000000E+00;  1.0032140E+03;  1.0000000E-01;  2.6627395E+03;0;  0.0000000E+00;  0.0000000E+00;  0.0000000E+00;0; -2.1360036E-02;  4.0000000E+04;  0.0000000E+00;  0.0000000E+00;  4.0000000E+04;  0.0000000E+00;  4.0000000E+04; -1.5672166E-02;  0.0000000E+00; -5.6878701E-03;  3.2205371E+03;
  3.9999999E-02;  9.9999998E-03; -3.3000001E-01;1952;  0.0000000E+00;  0.0000000E+00;  0.0000000E+00;  1.0040817E+03;  1.0000000E-01;  3.3815339E+03;0;  0.0000000E+00;  0.0000000E+00;  0.0000000E+00;0; -2.7310809E-02;  4.0000000E+04;  0.0000000E+00;  0.0000000E+00;  4.0000000E+04;  0.0000000E+00;  4.0000000E+04; -2.1198973E-02;  0.0000000E+00; -6.1118365E-03;  3.1518386E+03;
  3.9999999E-02;  9.9999998E-03; -3.1999999E-01;1953;  0.0000000E+00;  0.0000000E+00;  0.0000000E+00;  1.0050525E+03;  1.0000000E-01;  4.1858569E+03;0;  0.0000000E+00;  0.0000000E+00;  0.0000000E+00;0; -3.4010559E-02;  4.0000000E+04;  0.0000000E+00;  0.0000000E+00;  4.0000000E+04;  0.0000000E+00;  4.0000000E+04; -2.7754480E-02;  0.0000000E+00; -6.2560807E-03;  2.8112561E+03;
  3.9999999E-02;  9.9999998E-03; -3.1000000E-01;1954;  0.0000000E+00;  0.0000000E+00;  0.0000000E+00;  1.0060883E+03;  1.0000000E-01;  5.0441045E+03;0;  0.0000000E+00;  0.0000000E+00;  0.0000000E+00;0; -4.1245382E-02;  4.0000000E+04;  0.0000000E+00;  0.0000000E+00;  4.0000000E+04;  0.0000000E+00;  4.0000000E+04; -3.5229176E-02;  0.0000000E+00; -6.0162069E-03;  2.1540688E+03;
  5.0000001E-02;  9.9999998E-03; -4.4000000E-01;1971;  0.0000000E+00;  0.0000000E+00;  0.0000000E+00;  1.0000000E+03;  1.0000000E-01;  0.0000000E+00;0;  0.0000000E+00;  0.0000000E+00;  0.0000000E+00;0; -1.2288505E-04;  4.0000000E+04;  0.0000000E+00;  0.0000000E+00;  4.0000000E+04;  0.0000000E+00;  4.0000000E+04; -2.6341486E-05;  0.0000000E+00; -9.6543554E-05;  5.0239876E+01;
  5.0000001E-02;  9.9999998E-03; -4.3000001E-01;1972;  0.0000000E+00;  0.0000000E+00;  0.0000000E+00;  1.0000646E+03;  1.0000000E-01;  5.3529350E+01;0;  0.0000000E+00;  0.0000000E+00;  0.0000000E+00;0; -3.6412585E-04;  4.0000000E+04;  0.0000000E+00;  0.0000000E+00;  4.0000000E+04;  0.0000000E+00;  4.0000000E+04; -9.0830668E-05;  0.0000000E+00; -2.7329518E-04;  1.5603659E+02;
  5.0000001E-02;  9.9999998E-03; -4.1999999E-01;1973;  0.0000000E+00;  0.0000000E+00;  0.0000000E+00;  1.0001295E+03;  1.0000000E-01;  1.0725623E+02;0;  0.0000000E+00;  0.0000000E+00;  0.0000000E+00;0; -8.2727458E-04;  4.0000000E+04;  0.0000000E+00;  0.0000000E+00;  4.0000000E+04;  0.0000000E+00;  4.0000000E+04; -2.3958621E-04;  0.0000000E+00; -5.8768835E-04;  3.6164590E+02;
  5.0000001E-02;  9.9999998E-03; -4.1000000E-01;1974;  0.0000000E+00;  0.0000000E+00;  0.0000000E+00;  1.0002523E+03;  1.0000000E-01;  2.0908051E+02;0;  0.0000000E+00;  0.0000000E+00;  0.0000000E+00;0; -1.5815080E-03;  4.0000000E+04;  0.0000000E+00;  0.0000000E+00;  4.0000000E+04;  0.0000000E+00;  4.0000000E+04; -5.3317955E-04;  0.0000000E+00; -1.0483284E-03;  6.8011652E+02;
  5.0000001E-02;  9.9999998E-03; -4.0000001E-01;1975;  0.0000000E+00;  0.0000000E+00;  0.0000000E+00;  1.0004230E+03;  1.0000000E-01;  3.5040985E+02;0;  0.0000000E+00;  0.0000000E+00;  0.0000000E+00;0; -2.6923050E-03;  4.0000000E+04;  0.0000000E+00;  0.0000000E+00;  4.0000000E+04;  0.0000000E+00;  4.0000000E+04; -1.0538789E-03;  0.0000000E+00; -1.6384260E-03;  1.0967950E+03;
  5.0000001E-02;  9.9999998E-03; -3.8999999E-01;1976;  0.0000000E+00;  0.0000000E+00;  0.0000000E+00;  1.0006694E+03;  1.0000000E-01;  5.5465100E+02;0;  0.0000000E+00;  0.0000000E+00;  0.0000000E+00;0; -4.2348970E-03;  4.0000000E+04;  0.0000000E+00;  0.0000000E+00;  4.0000000E+04;  0.0000000E+00;  4.0000000E+04; -1.9069846E-03;  0.0000000E+00; -2.3279125E-03;  1.5777491E+03;
  5.0000001E-02;  9.9999998E-03; -3.8000000E-01;1977;  0.0000000E+00;  0.0000000E+00;  0.0000000E+00;  1.0009941E+03;  1.0000000E-01;  8.2358167E+02;0;  0.0000000E+00;  0.0000000E+00;  0.0000000E+00;0; -6.3028396E-03;  4.0000000E+04;  0.0000000E+00;  0.0000000E+00;  4.0000000E+04;  0.0000000E+00;  4.0000000E+04; -3.2195200E-03;  0.0000000E+00; -3.0833196E-03;  2.0812886E+03;
  5.0000001E-02;  9.9999998E-03; -3.7000000E-01;1978;  0.0000000E+00;  0.0000000E+00;  0.0000000E+00;  1.0014161E+03;  1.0000000E-01;  1.1732014E+03;0;  0.0000000E+00;  0.0000000E+00;  0.0000000E+00;0; -9.0054329E-03;  4.0000000E+04;  0.0000000E+00;  0.0000000E+00;  4.0000000E+04;  0.0000000E+00;  4.0000000E+04; -5.1352158E-03;  0.0000000E+00; -3.8702176E-03;  2.5635754E+03;
  5.0000001E-02;  9.9999998E-03; -3.6000001E-01;1979;  0.0000000E+00;  0.0000000E+00;  0.0000000E+00;  1.0019529E+03;  1.0000000E-01;  1.6179296E+03;0;  0.0000000E+00;  0.0000000E+00;  0.0000000E+00;0; -1.2453686E-02;  4.0000000E+04;  0.0000000E+00;  0.0000000E+00;  4.0000000E+04;  0.0000000E+00;  4.0000000E+04; -7.8036981E-03;  0.0000000E+00; -4.6499884E-03;  2.9786682E+03;
  5.0000001E-02;  9.9999998E-03; -3.4999999E-01;1980;  0.0000000E+00;  0.0000000E+00;  0.0000000E+00;  1.0026163E+03;  1.0000000E-01;  2.1675437E+03;0;  0.0000000E+00;  0.0000000E+00;  0.0000000E+00;0; -1.6738269E-02;  4.0000000E+04;  0.0000000E+00;  0.0000000E+00;  4.0000000E+04;  0.0000000E+00;  4.0000000E+04; -1.1364382E-02;  0.0000000E+00; -5.3738886E-03;  3.2764668E+03;
  5.0000001E-02;  9.9999998E-03; -3.4000000E-01;1981;  0.0000000E+00;  0.0000000E+00;  0.0000000E+00;  1.0034095E+03;  1.0000000E-01;  2.8247102E+03;0;  0.0000000E+00;  0.0000000E+00;  0.0000000E+00;0; -2.1901624E-02;  4.0000000E+04;  0.0000000E+00;  0.0000000E+00;  4.0000000E+04;  0.0000000E+00;  4.0000000E+04; -1.5924709E-02;  0.0000000E+00; -5.9769149E-03;  3.4009084E+03;
  5.0000001E-02;  9.9999998E-03; -3.3000001E-01;1982;  0.0000000E+00;  0.0000000E+00;  0.0000000E+00;  1.0043300E+03;  1.0000000E-01;  3.5873552E+03;0;  0.0000000E+00;  0.0000000E+00;  0.0000000E+00;0; -2.7910452E-02;  4.0000000E+04;  0.0000000E+00;  0.0000000E+00;  4.0000000E+04;  0.0000000E+00;  4.0000000E+04; -2.1536473E-02;  0.0000000E+00; -6.3739792E-03;  3.2911592E+03;
  5.0000001E-02;  9.9999998E-03; -3.1999999E-01;1983;  0.0000000E+00;  0.0000000E+00;  0.0000000E+00;  1.0053547E+03;  1.0000000E-01;  4.4362202E+03;0;  0.0000000E+00;  0.0000000E+00;  0.0000000E+00;0; -3.4634747E-02;  4.0000000E+04;  0.0000000E+00;  0.0000000E+00;  4.0000000E+04;  0.0000000E+00;  4.0000000E+04; -2.8172662E-02;  0.0000000E+00; -6.4620860E-03;  2.8895474E+03;
  5.0000001E-02;  9.9999998E-03; -3.1000000E-01;1984;  0.0000000E+00;  0.0000000E+00;  0.0000000E+00;  1.0064408E+03;  1.0000000E-01;  5.3360464E+03;0;  0.0000000E+00;  0.0000000E+00;  0.0000000E+00;0; -4.1845459E-02;  4.0000000E+04;  0.0000000E+00;  0.0000000E+00;  4.0000000E+04;  0.0000000E+00;  4.0000000E+04; -3.5710737E-02;  0.0000000E+00; -6.1347210E-03;  2.1652000E+03;
  5.9999999E-02;  9.9999998E-03; -4.4000000E-01;2001;  0.0000000E+00;  0.0000000E+00;  0.0000000E+00;  1.0000000E+03;  1.0000000E-01;  0.0000000E+00;0;  0.0000000E+00;  0.0000000E+00;  0.0000000E+00;0; -1.2760339E-04;  4.0000000E+04;  0.0000000E+00;  0.0000000E+00;  4.0000000E+04;  0.0000000E+00;  4.0000000E+04; -2.3847073E-05;  0.0000000E+00; -1.0375631E-04;  4.6566685E+01;
  5.9999999E-02;  9.9999998E-03; -4.3000001E-01;2002;  0.0000000E+00;  0.0000000E+00;  0.0000000E+00;  1.0000660E+03;  1.0000000E-01;  5.4615738E+01;0;  0.0000000E+00;  0.0000000E+00;  0.0000000E+00;0; -3.7784927E-04;  4.0000000E+04;  0.0000000E+00;  0.0000000E+00;  4.0000000E+04;  0.0000000E+00;  4.0000000E+04; -8.4739644E-05;  0.0000000E+00; -2.9310962E-04;  1.5844006E+02;
  5.9999999E-02;  9.9999998E-03; -4.1999999E-01;2003;  0.0000000E+00;  0.0000000E+00;  0.0000000E+00;  1.0001318E+03;  1.0000000E-01;  1.0913271E+02;0;  0.0000000E+00;  0.0000000E+00;  0.0000000E+00;0; -8.5740257E-04;  4.0000000E+04;  0.0000000E+00;  0.0000000E+00;  4.0000000E+04;  0.0000000E+00;  4.0000000E+04; -2.2859694E-04;  0.0000000E+00; -6.2880566E-04;  3.8382559E+02;
  5.9999999E-02;  9.9999998E-03; -4.1000000E-01;2004;  0.0000000E+00;  0.0000000E+00;  0.0000000E+00;  1.0002593E+03;  1.0000000E-01;  2.1480875E+02;0;  0.0000000E+00;  0.0000000E+00;  0.0000000E+00;0; -1.6361810E-03;  4.0000000E+04;  0.0000000E+00;  0.0000000E+00;  4.0000000E+04;  0.0000000E+00;  4.0000000E+04; -5.1700434E-04;  0.0000000E+00; -1.1191766E-03;  7.3743579E+02;
  5.9999999E-02;  9.9999998E-03; -4.0000001E-01;2005;  0.0000000E+00;  0.0000000E+00;  0.0000000E+00;  1.0004445E+03;  1.0000000E-01;  3.6828589E+02;0;  0.0000000E+00;  0.0000000E+00;  0.0000000E+00;0; -2.7785520E-03;  4.0000000E+04;  0.0000000E+00;  0.0000000E+00;  4.0000000E+04;  0.0000000E+00;  4.0000000E+04; -1.0338657E-03;  0.0000000E+00; -1.7446864E-03;  1.2011464E+03;
  5.9999999E-02;  9.9999998E-03; -3.8999999E-01;2006;  0.0000000E+00;  0.0000000E+00;  0.0000000E+00;  1.0006991E+03;  1.0000000E-01;  5.7914410E+02;0;  0.0000000E+00;  0.0000000E+00;  0.0000000E+00;0; -4.3578320E-03;  4.0000000E+04;  0.0000000E+00;  0.0000000E+00;  4.0000000E+04;  0.0000000E+00;  4.0000000E+04; -1.8868019E-03;  0.0000000E+00; -2.4710300E-03;  1.7350299E+03;
  5.9999999E-02;  9.9999998E-03; -3.8000000E-01;2007;  0.0000000E+00;  0.0000000E+00;  0.0000000E+00;  1.0010449E+03;  1.0000000E-01;  8.6565454E+02;0;  0.0000000E+00;  0.0000000E+00;  0.0000000E+00;0; -6.4659379E-03;  4.0000000E+04;  0.0000000E+00;  0.0000000E+00;  4.0000000E+04;  0.0000000E+00;  4.0000000E+04; -3.2054749E-03;  0.0000000E+00; -3.2604628E-03;  2.2907825E+03;
  5.9999999E-02;  9.9999998E-03; -3.7000000E-01;2008;  0.0000000E+00;  0.0000000E+00;  0.0000000E+00;  1.0014830E+03;  1.0000000E-01;  1.2286072E+03;0;  0.0000000E+00;  0.0000000E+00;  0.0000000E+00;0; -9.2104776E-03;  4.0000000E+04;  0.0000000E+00;  0.0000000E+00;  4.0000000E+04;  0.0000000E+00;  4.0000000E+04; -5.1356824E-03;  0.0000000E+00; -4.0747952E-03;  2.8183042E+03;
  5.9999999E-02;  9.9999998E-03; -3.6000001E-01;2009;  0.0000000E+00;  0.0000000E+00;  0.0000000E+00;  1.0020468E+03;  1.0000000E-01;  1.6957545E+03;0;  0.0000000E+00;  0.0000000E+00;  0.0000000E+00;0; -1.2699220E-02;  4.0000000E+04;  0.0000000E+00;  0.0000000E+00;  4.0000000E+04;  0.0000000E+00;  4.0000000E+04; -7.8273052E-03;  0.0000000E+00; -4.8719151E-03;  3.2659165E+03;
  5.9999999E-02;  9.9999998E-03; -3.4999999E-01;2010;  0.0000000E+00;  0.0000000E+00;  0.0000000E+00;  1.0027390E+03;  1.0000000E-01;  2.2691704E+03;0;  0.0000000E+00;  0.0000000E+00;  0.0000000E+00;0; -1.7016072E-02;  4.0000000E+04;  0.0000000E+00;  0.0000000E+00;  4.0000000E+04;  0.0000000E+00;  4.0000000E+04; -1.1416783E-02;  0.0000000E+00; -5.5992883E-03;  3.5780715E+03;
  5.9999999E-02;  9.9999998E-03; -3.4000000E-01;2011;  0.0000000E+00;  0.0000000E+00;  0.0000000E+00;  1.0035732E+03;  1.0000000E-01;  2.9604102E+03;0;  0.0000000E+00;  0.0000000E+00;  0.0000000E+00;0; -2.2192214E-02;  4.0000000E+04;  0.0000000E+00;  0.0000000E+00;  4.0000000E+04;  0.0000000E+00;  4.0000000E+04; -1.6004641E-02;  0.0000000E+00; -6.1875726E-03;  3.6937849E+03;
  5.9999999E-02;  9.9999998E-03; -3.3000001E-01;2012;  0.0000000E+00;  0.0000000E+00;  0.0000000E+00;  1.0045347E+03;  1.0000000E-01;  3.7569307E+03;0;  0.0000000E+00;  0.0000000E+00;  0.0000000E+00;0; -2.8178550E-02;  4.0000000E+04;  0.0000000E+00;  0.0000000E+00;  4.0000000E+04;  0.0000000E+00;  4.0000000E+04; -2.1631582E-02;  0.0000000E+00; -6.5469686E-03;  3.5489890E+03;
  5.9999999E-02;  9.9999998E-03; -3.1999999E-01;2013;  0.0000000E+00;  0.0000000E+00;  0.0000000E+00;  1.0056000E+03;  1.0000000E-01;  4.6394736E+03;0;  0.0000000E+00;  0.0000000E+00;  0.0000000E+00;0; -3.4826860E-02;  4.0000000E+04;  0.0000000E+00;  0.0000000E+00;  4.0000000E+04;  0.0000000E+00;  4.0000000E+04; -2.8256454E-02;  0.0000000E+00; -6.5704067E-03;  3.0862334E+03;
  5.9999999E-02;  9.9999998E-03; -3.1000000E-01;2014;  0.0000000E+00;  0.0000000E+00;  0.0000000E+00;  1.0067286E+03;  1.0000000E-01;  5.5745586E+03;0;  0.0000000E+00;  0.0000000E+00;  0.0000000E+00;0; -4.1890591E-02;  4.0000000E+04;  0.0000000E+00;  0.0000000E+00;  4.0000000E+04;  0.0000000E+00;  4.0000000E+04; -3.5740923E-02;  0.0000000E+00; -6.1496673E-03;  2.2818792E+03;
  7.0000000E-02;  9.9999998E-03; -4.4000000E-01;2031;  0.0000000E+00;  0.0000000E+00;  0.0000000E+00;  1.0000000E+03;  1.0000000E-01;  0.0000000E+00;0;  0.0000000E+00;  0.0000000E+00;  0.0000000E+00;0; -1.3165700E-04;  4.0000000E+04;  0.0000000E+00;  0.0000000E+00;  4.0000000E+04;  0.0000000E+00;  4.0000000E+04; -2.1244370E-05;  0.0000000E+00; -1.1041263E-04;  4.8918495E+01;
  7.0000000E-02;  9.9999998E-03; -4.3000001E-01;2032;  0.0000000E+00;  0.0000000E+00;  0.0000000E+00;  1.0000672E+03;  1.0000000E-01;  5.5702129E+01;0;  0.0000000E+00;  0.0000000E+00;  0.0000000E+00;0; -3.8920171E-04;  4.0000000E+04;  0.0000000E+00;  0.0000000E+00;  4.0000000E+04;  0.0000000E+00;  4.0000000E+04; -7.8344019E-05;  0.0000000E+00; -3.1085769E-04;  1.7574428E+02;
  7.0000000E-02;  9.9999998E-03; -4.1999999E-01;2033;  0.0000000E+00;  0.0000000E+00;  0.0000000E+00;  1.0001349E+03;  1.0000000E-01;  1.1179931E+02;0;  0.0000000E+00;  0.0000000E+00;  0.0000000E+00;0; -8.8231266E-04;  4.0000000E+04;  0.0000000E+00;  0.0000000E+00;  4.0000000E+04;  0.0000000E+00;  4.0000000E+04; -2.1682082E-04;  0.0000000E+00; -6.6549185E-04;  4.3351785E+02;
  7.0000000E-02;  9.9999998E-03; -4.1000000E-01;2034;  0.0000000E+00;  0.0000000E+00;  0.0000000E+00;  1.0002682E+03;  1.0000000E-01;  2.2221594E+02;0;  0.0000000E+00;  0.0000000E+00;  0.0000000E+00;0; -1.6810297E-03;  4.0000000E+04;  0.0000000E+00;  0.0000000E+00;  4.0000000E+04;  0.0000000E+00;  4.0000000E+04; -4.9918029E-04;  0.0000000E+00; -1.1818494E-03;  8.3669714E+02;
  7.0000000E-02;  9.9999998E-03; -4.0000001E-01;2035;  0.0000000E+00;  0.0000000E+00;  0.0000000E+00;  1.0004587E+03;  1.0000000E-01;  3.8003864E+02;0;  0.0000000E+00;  0.0000000E+00;  0.0000000E+00;0; -2.8481116E-03;  4.0000000E+04;  0.0000000E+00;  0.0000000E+00;  4.0000000E+04;  0.0000000E+00;  4.0000000E+04; -1.0113362E-03;  0.0000000E+00; -1.8367753E-03;  1.3622882E+03;
  7.0000000E-02;  9.9999998E-03; -3.8999999E-01;2036;  0.0000000E+00;  0.0000000E+00;  0.0000000E+00;  1.0007253E+03;  1.0000000E-01;  6.0097064E+02;0;  0.0000000E+00;  0.0000000E+00;  0.0000000E+00;0; -4.4552949E-03;  4.0000000E+04;  0.0000000E+00;  0.0000000E+00;  4.0000000E+04;  0.0000000E+00;  4.0000000E+04; -1.8636902E-03;  0.0000000E+00; -2.5916046E-03;  1.9635504E+03;
  7.0000000E-02;  9.9999998E-03; -3.8000000E-01;2037;  0.0000000E+00;  0.0000000E+00;  0.0000000E+00;  1.0010753E+03;  1.0000000E-01;  8.9083899E+02;0;  0.0000000E+00;  0.0000000E+00;  0.0000000E+00;0; -6.5933131E-03;  4.0000000E+04;  0.0000000E+00;  0.0000000E+00;  4.0000000E+04;  0.0000000E+00;  4.0000000E+04; -3.1884408E-03;  0.0000000E+00; -3.4048723E-03;  2.5854270E+03;
  7.0000000E-02;  9.9999998E-03; -3.7000000E-01;2038;  0.0000000E+00;  0.0000000E+00;  0.0000000E+00;  1.0015336E+03;  1.0000000E-01;  1.2705813E+03;0;  0.0000000E+00;  0.0000000E+00;  0.0000000E+00;0; -9.3677044E-03;  4.0000000E+04;  0.0000000E+00;  0.0000000E+00;  4.0000000E+04;  0.0000000E+00;  4.0000000E+04; -5.1322426E-03;  0.0000000E+00; -4.2354614E-03;  3.1717175E+03;
  7.0000000E-02;  9.9999998E-03; -3.6000001E-01;2039;  0.0000000E+00;  0.0000000E+00;  0.0000000E+00;  1.0021193E+03;  1.0000000E-01;  1.7558022E+03;0;  0.0000000E+00;  0.0000000E+00;  0.0000000E+00;0; -1.2881404E-02;  4.0000000E+04;  0.0000000E+00;  0.0000000E+00;  4.0000000E+04;  0.0000000E+00;  4.0000000E+04; -7.8428853E-03;  0.0000000E+00; -5.0385189E-03;  3.6650283E+03;
  7.0000000E-02;  9.9999998E-03; -3.4999999E-01;2040;  0.0000000E+00;  0.0000000E+00;  0.0000000E+00;  1.0028418E+03;  1.0000000E-01;  2.3544026E+03;0;  0.0000000E+00;  0.0000000E+00;  0.0000000E+00;0; -1.7209239E-02;  4.0000000E+04;  0.0000000E+00;  0.0000000E+00;  4.0000000E+04;  0.0000000E+00;  4.0000000E+04; -1.1450755E-02;  0.0000000E+00; -5.7584839E-03;  4.0035396E+03;
  7.0000000E-02;  9.9999998E-03; -3.4000000E-01;2041;  0.0000000E+00;  0.0000000E+00;  0.0000000E+00;  1.0037067E+03;  1.0000000E-01;  3.0709255E+03;0;  0.0000000E+00;  0.0000000E+00;  0.0000000E+00;0; -2.2367876E-02;  4.0000000E+04;  0.0000000E+00;  0.0000000E+00;  4.0000000E+04;  0.0000000E+00;  4.0000000E+04; -1.6045431E-02;  0.0000000E+00; -6.3224453E-03;  4.1189155E+03;
  7.0000000E-02;  9.9999998E-03; -3.3000001E-01;2042;  0.0000000E+00;  0.0000000E+00;  0.0000000E+00;  1.0047056E+03;  1.0000000E-01;  3.8984578E+03;0;  0.0000000E+00;  0.0000000E+00;  0.0000000E+00;0; -2.8288629E-02;  4.0000000E+04;  0.0000000E+00;  0.0000000E+00;  4.0000000E+04;  0.0000000E+00;  4.0000000E+04; -2.1651987E-02;  0.0000000E+00; -6.6366415E-03;  3.9390598E+03;
  7.0000000E-02;  9.9999998E-03; -3.1999999E-01;2043;  0.0000000E+00;  0.0000000E+00;  0.0000000E+00;  1.0058100E+03;  1.0000000E-01;  4.8134937E+03;0;  0.0000000E+00;  0.0000000E+00;  0.0000000E+00;0; -3.4800902E-02;  4.0000000E+04;  0.0000000E+00;  0.0000000E+00;  4.0000000E+04;  0.0000000E+00;  4.0000000E+04; -2.8210390E-02;  0.0000000E+00; -6.5905103E-03;  3.3991482E+03;
  7.0000000E-02;  9.9999998E-03; -3.1000000E-01;2044;  0.0000000E+00;  0.0000000E+00;  0.0000000E+00;  1.0069709E+03;  1.0000000E-01;  5.7752441E+03;0;  0.0000000E+00;  0.0000000E+00;  0.0000000E+00;0; -4.1637097E-02;  4.0000000E+04;  0.0000000E+00;  0.0000000E+00;  4.0000000E+04;  0.0000000E+00;  4.0000000E+04; -3.5563067E-02;  0.0000000E+00; -6.0740286E-03;  2.4686067E+03;
  7.9999998E-02;  9.9999998E-03; -4.4000000E-01;2061;  0.0000000E+00;  0.0000000E+00;  0.0000000E+00;  1.0000000E+03;  1.0000000E-01;  0.0000000E+00;0;  0.0000000E+00;  0.0000000E+00;  0.0000000E+00;0; -1.3579681E-04;  4.0000000E+04;  0.0000000E+00;  0.0000000E+00;  4.0000000E+04;  0.0000000E+00;  4.0000000E+04; -1.9127605E-05;  0.0000000E+00; -1.1666922E-04;  6.0063297E+01;
  7.9999998E-02;  9.9999998E-03; -4.3000001E-01;2062;  0.0000000E+00;  0.0000000E+00;  0.0000000E+00;  1.0000687E+03;  1.0000000E-01;  5.6887280E+01;0;  0.0000000E+00;  0.0000000E+00;  0.0000000E+00;0; -4.0077500E-04;  4.0000000E+04;  0.0000000E+00;  0.0000000E+00;  4.0000000E+04;  0.0000000E+00;  4.0000000E+04; -7.3313189E-05;  0.0000000E+00; -3.2746181E-04;  2.1258896E+02;
  7.9999998E-02;  9.9999998E-03; -4.1999999E-01;2063;  0.0000000E+00;  0.0000000E+00;  0.0000000E+00;  1.0001359E+03;  1.0000000E-01;  1.1258941E+02;0;  0.0000000E+00;  0.0000000E+00;  0.0000000E+00;0; -9.0734387E-04;  4.0000000E+04;  0.0000000E+00;  0.0000000E+00;  4.0000000E+04;  0.0000000E+00;  4.0000000E+04; -2.0810060E-04;  0.0000000E+00; -6.9924328E-04;  5.1621155E+02;
  7.9999998E-02;  9.9999998E-03; -4.1000000E-01;2064;  0.0000000E+00;  0.0000000E+00;  0.0000000E+00;  1.0002706E+03;  1.0000000E-01;  2.2419119E+02;0;  0.0000000E+00;  0.0000000E+00;  0.0000000E+00;0; -1.7252819E-03;  4.0000000E+04;  0.0000000E+00;  0.0000000E+00;  4.0000000E+04;  0.0000000E+00;  4.0000000E+04; -4.8804365E-04;  0.0000000E+00; -1.2372383E-03;  9.8325818E+02;
  7.9999998E-02;  9.9999998E-03; -4.0000001E-01;2065;  0.0000000E+00;  0.0000000E+00;  0.0000000E+00;  1.0004702E+03;  1.0000000E-01;  3.8951984E+02;0;  0.0000000E+00;  0.0000000E+00;  0.0000000E+00;0; -2.9168976E-03;  4.0000000E+04;  0.0000000E+00;  0.0000000E+00;  4.0000000E+04;  0.0000000E+00;  4.0000000E+04; -1.0026020E-03;  0.0000000E+00; -1.9142956E-03;  1.5847563E+03;
  7.9999998E-02;  9.9999998E-03; -3.8999999E-01;2066;  0.0000000E+00;  0.0000000E+00;  0.0000000E+00;  1.0007377E+03;  1.0000000E-01;  6.1114319E+02;0;  0.0000000E+00;  0.0000000E+00;  0.0000000E+00;0; -4.5542167E-03;  4.0000000E+04;  0.0000000E+00;  0.0000000E+00;  4.0000000E+04;  0.0000000E+00;  4.0000000E+04; -1.8660275E-03;  0.0000000E+00; -2.6881895E-03;  2.2668679E+03;
  7.9999998E-02;  9.9999998E-03; -3.8000000E-01;2067;  0.0000000E+00;  0.0000000E+00;  0.0000000E+00;  1.0011011E+03;  1.0000000E-01;  9.1217175E+02;0;  0.0000000E+00;  0.0000000E+00;  0.0000000E+00;0; -6.7279078E-03;  4.0000000E+04;  0.0000000E+00;  0.0000000E+00;  4.0000000E+04;  0.0000000E+00;  4.0000000E+04; -3.2130228E-03;  0.0000000E+00; -3.5148852E-03;  2.9678323E+03;
  7.9999998E-02;  9.9999998E-03; -3.7000000E-01;2068;  0.0000000E+00;  0.0000000E+00;  0.0000000E+00;  1.0015787E+03;  1.0000000E-01;  1.3079136E+03;0;  0.0000000E+00;  0.0000000E+00;  0.0000000E+00;0; -9.5411409E-03;  4.0000000E+04;  0.0000000E+00;  0.0000000E+00;  4.0000000E+04;  0.0000000E+00;  4.0000000E+04; -5.1899338E-03;  0.0000000E+00; -4.3512066E-03;  3.6253240E+03;
  7.9999998E-02;  9.9999998E-03; -3.6000001E-01;2069;  0.0000000E+00;  0.0000000E+00;  0.0000000E+00;  1.0021830E+03;  1.0000000E-01;  1.8085415E+03;0;  0.0000000E+00;  0.0000000E+00;  0.0000000E+00;0; -1.3090388E-02;  4.0000000E+04;  0.0000000E+00;  0.0000000E+00;  4.0000000E+04;  0.0000000E+00;  4.0000000E+04; -7.9402439E-03;  0.0000000E+00; -5.1501440E-03;  4.1757417E+03;
  7.9999998E-02;  9.9999998E-03; -3.4999999E-01;2070;  0.0000000E+00;  0.0000000E+00;  0.0000000E+00;  1.0029303E+03;  1.0000000E-01;  2.4276843E+03;0;  0.0000000E+00;  0.0000000E+00;  0.0000000E+00;0; -1.7438592E-02;  4.0000000E+04;  0.0000000E+00;  0.0000000E+00;  4.0000000E+04;  0.0000000E+00;  4.0000000E+04; -1.1584938E-02;  0.0000000E+00; -5.8536553E-03;  4.5496543E+03;
  7.9999998E-02;  9.9999998E-03; -3.4000000E-01;2071;  0.0000000E+00;  0.0000000E+00;  0.0000000E+00;  1.0038293E+03;  1.0000000E-01;  3.1724534E+03;0;  0.0000000E+00;  0.0000000E+00;  0.0000000E+00;0; -2.2584582E-02;  4.0000000E+04;  0.0000000E+00;  0.0000000E+00;  4.0000000E+04;  0.0000000E+00;  4.0000000E+04; -1.6198723E-02;  0.0000000E+00; -6.3858586E-03;  4.6683838E+03;
  7.9999998E-02;  9.9999998E-03; -3.3000001E-01;2072;  0.0000000E+00;  0.0000000E+00;  0.0000000E+00;  1.0048615E+03;  1.0000000E-01;  4.0276392E+03;0;  0.0000000E+00;  0.0000000E+00;  0.0000000E+00;0; -2.8436298E-02;  4.0000000E+04;  0.0000000E+00;  0.0000000E+00;  4.0000000E+04;  0.0000000E+00;  4.0000000E+04; -2.1786457E-02;  0.0000000E+00; -6.6498402E-03;  4.4472949E+03;
  7.9999998E-02;  9.9999998E-03; -3.1999999E-01;2073;  0.0000000E+00;  0.0000000E+00;  0.0000000E+00;  1.0059999E+03;  1.0000000E-01;  4.9708223E+03;0;  0.0000000E+00;  0.0000000E+00;  0.0000000E+00;0; -3.4796212E-02;  4.0000000E+04;  0.0000000E+00;  0.0000000E+00;  4.0000000E+04;  0.0000000E+00;  4.0000000E+04; -2.8264266E-02;  0.0000000E+00; -6.5319459E-03;  3.8096055E+03;
  7.9999998E-02;  9.9999998E-03; -3.1000000E-01;2074;  0.0000000E+00;  0.0000000E+00;  0.0000000E+00;  1.0071908E+03;  1.0000000E-01;  5.9574609E+03;0;  0.0000000E+00;  0.0000000E+00;  0.0000000E+00;0; -4.1371122E-02;  4.0000000E+04;  0.0000000E+00;  0.0000000E+00;  4.0000000E+04;  0.0000000E+00;  4.0000000E+04; -3.5450876E-02;  0.0000000E+00; -5.9202476E-03;  2.7133101E+03;
  9.0000004E-02;  9.9999998E-03; -4.4000000E-01;2091;  0.0000000E+00;  0.0000000E+00;  0.0000000E+00;  1.0000000E+03;  1.0000000E-01;  0.0000000E+00;0;  0.0000000E+00;  0.0000000E+00;  0.0000000E+00;0; -1.4082462E-04;  4.0000000E+04;  0.0000000E+00;  0.0000000E+00;  4.0000000E+04;  0.0000000E+00;  4.0000000E+04; -1.7963575E-05;  0.0000000E+00; -1.2286103E-04;  8.1369301E+01;
  9.0000004E-02;  9.9999998E-03; -4.3000001E-01;2092;  0.0000000E+00;  0.0000000E+00;  0.0000000E+00;  1.0000709E+03;  1.0000000E-01;  5.8763771E+01;0;  0.0000000E+00;  0.0000000E+00;  0.0000000E+00;0; -4.1496460E-04;  4.0000000E+04;  0.0000000E+00;  0.0000000E+00;  4.0000000E+04;  0.0000000E+00;  4.0000000E+04; -7.1126087E-05;  0.0000000E+00; -3.4383850E-04;  2.7008298E+02;
  9.0000004E-02;  9.9999998E-03; -4.1999999E-01;2093;  0.0000000E+00;  0.0000000E+00;  0.0000000E+00;  1.0001354E+03;  1.0000000E-01;  1.1219436E+02;0;  0.0000000E+00;  0.0000000E+00;  0.0000000E+00;0; -9.3710405E-04;  4.0000000E+04;  0.0000000E+00;  0.0000000E+00;  4.0000000E+04;  0.0000000E+00;  4.0000000E+04; -2.0670425E-04;  0.0000000E+00; -7.3039980E-04;  6.3147253E+02;
  9.0000004E-02;  9.9999998E-03; -4.1000000E-01;2094;  0.0000000E+00;  0.0000000E+00;  0.0000000E+00;  1.0002712E+03;  1.0000000E-01;  2.2468500E+02;0;  0.0000000E+00;  0.0000000E+00;  0.0000000E+00;0; -1.7779403E-03;  4.0000000E+04;  0.0000000E+00;  0.0000000E+00;  4.0000000E+04;  0.0000000E+00;  4.0000000E+04; -4.9361039E-04;  0.0000000E+00; -1.2843299E-03;  1.1741672E+03;
  9.0000004E-02;  9.9999998E-03; -4.0000001E-01;2095;  0.0000000E+00;  0.0000000E+00;  0.0000000E+00;  1.0004740E+03;  1.0000000E-01;  3.9268027E+02;0;  0.0000000E+00;  0.0000000E+00;  0.0000000E+00;0; -3.0020520E-03;  4.0000000E+04;  0.0000000E+00;  0.0000000E+00;  4.0000000E+04;  0.0000000E+00;  4.0000000E+04; -1.0268169E-03;  0.0000000E+00; -1.9752351E-03;  1.8625966E+03;
  9.0000004E-02;  9.9999998E-03; -3.8999999E-01;2096;  0.0000000E+00;  0.0000000E+00;  0.0000000E+00;  1.0007477E+03;  1.0000000E-01;  6.1953802E+02;0;  0.0000000E+00;  0.0000000E+00;  0.0000000E+00;0; -4.6842489E-03;  4.0000000E+04;  0.0000000E+00;  0.0000000E+00;  4.0000000E+04;  0.0000000E+00;  4.0000000E+04; -1.9254220E-03;  0.0000000E+00; -2.7588271E-03;  2.6358250E+03;
  9.0000004E-02;  9.9999998E-03; -3.8000000E-01;2097;  0.0000000E+00;  0.0000000E+00;  0.0000000E+00;  1.0011232E+03;  1.0000000E-01;  9.3054156E+02;0;  0.0000000E+00;  0.0000000E+00;  0.0000000E+00;0; -6.9163009E-03;  4.0000000E+04;  0.0000000E+00;  0.0000000E+00;  4.0000000E+04;  0.0000000E+00;  4.0000000E+04; -3.3266896E-03;  0.0000000E+00; -3.5896113E-03;  3.4256260E+03;
  9.0000004E-02;  9.9999998E-03; -3.7000000E-01;2098;  0.0000000E+00;  0.0000000E+00;  0.0000000E+00;  1.0016137E+03;  1.0000000E-01;  1.3369498E+03;0;  0.0000000E+00;  0.0000000E+00;  0.0000000E+00;0; -9.7986013E-03;  4.0000000E+04;  0.0000000E+00;  0.0000000E+00;  4.0000000E+04;  0.0000000E+00;  4.0000000E+04; -5.3757457E-03;  0.0000000E+00; -4.4228560E-03;  4.1637271E+03;
  9.0000004E-02;  9.9999998E-03; -3.6000001E-01;2099;  0.0000000E+00;  0.0000000E+00;  0.0000000E+00;  1.0022430E+03;  1.0000000E-01;  1.8583179E+03;0;  0.0000000E+00;  0.0000000E+00;  0.0000000E+00;0; -1.3419374E-02;  4.0000000E+04;  0.0000000E+00;  0.0000000E+00;  4.0000000E+04;  0.0000000E+00;  4.0000000E+04; -8.2097165E-03;  0.0000000E+00; -5.2096574E-03;  4.7804873E+03;
  9.0000004E-02;  9.9999998E-03; -3.4999999E-01;2100;  0.0000000E+00;  0.0000000E+00;  0.0000000E+00;  1.0030214E+03;  1.0000000E-01;  2.5032378E+03;0;  0.0000000E+00;  0.0000000E+00;  0.0000000E+00;0; -1.7826676E-02;  4.0000000E+04;  0.0000000E+00;  0.0000000E+00;  4.0000000E+04;  0.0000000E+00;  4.0000000E+04; -1.1936955E-02;  0.0000000E+00; -5.8897212E-03;  5.2001997E+03;
  9.0000004E-02;  9.9999998E-03; -3.4000000E-01;2101;  0.0000000E+00;  0.0000000E+00;  0.0000000E+00;  1.0039535E+03;  1.0000000E-01;  3.2753643E+03;0;  0.0000000E+00;  0.0000000E+00;  0.0000000E+00;0; -2.2997553E-02;  4.0000000E+04;  0.0000000E+00;  0.0000000E+00;  4.0000000E+04;  0.0000000E+00;  4.0000000E+04; -1.6612886E-02;  0.0000000E+00; -6.3846670E-03;  5.3392461E+03;
  9.0000004E-02;  9.9999998E-03; -3.3000001E-01;2102;  0.0000000E+00;  0.0000000E+00;  0.0000000E+00;  1.0050235E+03;  1.0000000E-01;  4.1618574E+03;0;  0.0000000E+00;  0.0000000E+00;  0.0000000E+00;0; -2.8812367E-02;  4.0000000E+04;  0.0000000E+00;  0.0000000E+00;  4.0000000E+04;  0.0000000E+00;  4.0000000E+04; -2.2217326E-02;  0.0000000E+00; -6.5950411E-03;  5.1132603E+03;
  9.0000004E-02;  9.9999998E-03; -3.1999999E-01;2103;  0.0000000E+00;  0.0000000E+00;  0.0000000E+00;  1.0061972E+03;  1.0000000E-01;  5.1342744E+03;0;  0.0000000E+00;  0.0000000E+00;  0.0000000E+00;0; -3.5042591E-02;  4.0000000E+04;  0.0000000E+00;  0.0000000E+00;  4.0000000E+04;  0.0000000E+00;  4.0000000E+04; -2.8637685E-02;  0.0000000E+00; -6.4049079E-03;  4.4610815E+03;
  9.0000004E-02;  9.9999998E-03; -3.1000000E-01;2104;  0.0000000E+00;  0.0000000E+00;  0.0000000E+00;  1.0074177E+03;  1.0000000E-01;  6.1454062E+03;0;  0.0000000E+00;  0.0000000E+00;  0.0000000E+00;0; -4.1364860E-02;  4.0000000E+04;  0.0000000E+00;  0.0000000E+00;  4.0000000E+04;  0.0000000E+00;  4.0000000E+04; -3.5664227E-02;  0.0000000E+00; -5.7006334E-03;  3.4018982E+03;
  1.0000000E-01;  9.9999998E-03; -4.4000000E-01;2121;  0.0000000E+00;  0.0000000E+00;  0.0000000E+00;  1.0000000E+03;  1.0000000E-01;  0.0000000E+00;0;  0.0000000E+00;  0.0000000E+00;  0.0000000E+00;0; -1.4752241E-04;  4.0000000E+04;  0.0000000E+00;  0.0000000E+00;  4.0000000E+04;  0.0000000E+00;  4.0000000E+04; -1.8082375E-05;  0.0000000E+00; -1.2944004E-04;  1.1280540E+02;
  1.0000000E-01;  9.9999998E-03; -4.3000001E-01;2122;  0.0000000E+00;  0.0000000E+00;  0.0000000E+00;  1.0000734E+03;  1.0000000E-01;  6.0837784E+01;0;  0.0000000E+00;  0.0000000E+00;  0.0000000E+00;0; -4.3331634E-04;  4.0000000E+04;  0.0000000E+00;  0.0000000E+00;  4.0000000E+04;  0.0000000E+00;  4.0000000E+04; -7.3503601E-05;  0.0000000E+00; -3.5981275E-04;  3.4660721E+02;
  1.0000000E-01;  9.9999998E-03; -4.1999999E-01;2123;  0.0000000E+00;  0.0000000E+00;  0.0000000E+00;  1.0001340E+03;  1.0000000E-01;  1.1100921E+02;0;  0.0000000E+00;  0.0000000E+00;  0.0000000E+00;0; -9.7535929E-04;  4.0000000E+04;  0.0000000E+00;  0.0000000E+00;  4.0000000E+04;  0.0000000E+00;  4.0000000E+04; -2.1806482E-04;  0.0000000E+00; -7.5729447E-04;  7.7496344E+02;
  1.0000000E-01;  9.9999998E-03; -4.1000000E-01;2124;  0.0000000E+00;  0.0000000E+00;  0.0000000E+00;  1.0002675E+03;  1.0000000E-01;  2.2162337E+02;0;  0.0000000E+00;  0.0000000E+00;  0.0000000E+00;0; -1.8481624E-03;  4.0000000E+04;  0.0000000E+00;  0.0000000E+00;  4.0000000E+04;  0.0000000E+00;  4.0000000E+04; -5.2774884E-04;  0.0000000E+00; -1.3204135E-03;  1.4011779E+03;
  1.0000000E-01;  9.9999998E-03; -4.0000001E-01;2125;  0.0000000E+00;  0.0000000E+00;  0.0000000E+00;  1.0004736E+03;  1.0000000E-01;  3.9238397E+02;0;  0.0000000E+00;  0.0000000E+00;  0.0000000E+00;0; -3.1219935E-03;  4.0000000E+04;  0.0000000E+00;  0.0000000E+00;  4.0000000E+04;  0.0000000E+00;  4.0000000E+04; -1.1048041E-03;  0.0000000E+00; -2.0171893E-03;  2.1820435E+03;
  1.0000000E-01;  9.9999998E-03; -3.8999999E-01;2126;  0.0000000E+00;  0.0000000E+00;  0.0000000E+00;  1.0007573E+03;  1.0000000E-01;  6.2743903E+02;0;  0.0000000E+00;  0.0000000E+00;  0.0000000E+00;0; -4.8766630E-03;  4.0000000E+04;  0.0000000E+00;  0.0000000E+00;  4.0000000E+04;  0.0000000E+00;  4.0000000E+04; -2.0740749E-03;  0.0000000E+00; -2.8025880E-03;  3.0498838E+03;
  1.0000000E-01;  9.9999998E-03; -3.8000000E-01;2127;  0.0000000E+00;  0.0000000E+00;  0.0000000E+00;  1.0011459E+03;  1.0000000E-01;  9.4940527E+02;0;  0.0000000E+00;  0.0000000E+00;  0.0000000E+00;0; -7.2057624E-03;  4.0000000E+04;  0.0000000E+00;  0.0000000E+00;  4.0000000E+04;  0.0000000E+00;  4.0000000E+04; -3.5755576E-03;  0.0000000E+00; -3.6302048E-03;  3.9319983E+03;
  1.0000000E-01;  9.9999998E-03; -3.7000000E-01;2128;  0.0000000E+00;  0.0000000E+00;  0.0000000E+00;  1.0016581E+03;  1.0000000E-01;  1.3736896E+03;0;  0.0000000E+00;  0.0000000E+00;  0.0000000E+00;0; -1.0206312E-02;  4.0000000E+04;  0.0000000E+00;  0.0000000E+00;  4.0000000E+04;  0.0000000E+00;  4.0000000E+04; -5.7524294E-03;  0.0000000E+00; -4.4538830E-03;  4.7583779E+03;
  1.0000000E-01;  9.9999998E-03; -3.6000001E-01;2129;  0.0000000E+00;  0.0000000E+00;  0.0000000E+00;  1.0023135E+03;  1.0000000E-01;  1.9166865E+03;0;  0.0000000E+00;  0.0000000E+00;  0.0000000E+00;0; -1.3956434E-02;  4.0000000E+04;  0.0000000E+00;  0.0000000E+00;  4.0000000E+04;  0.0000000E+00;  4.0000000E+04; -8.7335315E-03;  0.0000000E+00; -5.2229026E-03;  5.4617246E+03;
  1.0000000E-01;  9.9999998E-03; -3.4999999E-01;2130;  0.0000000E+00;  0.0000000E+00;  0.0000000E+00;  1.0031295E+03;  1.0000000E-01;  2.5927168E+03;0;  0.0000000E+00;  0.0000000E+00;  0.0000000E+00;0; -1.8485948E-02;  4.0000000E+04;  0.0000000E+00;  0.0000000E+00;  4.0000000E+04;  0.0000000E+00;  4.0000000E+04; -1.2611158E-02;  0.0000000E+00; -5.8747912E-03;  5.9770322E+03;
  1.0000000E-01;  9.9999998E-03; -3.4000000E-01;2131;  0.0000000E+00;  0.0000000E+00;  0.0000000E+00;  1.0040986E+03;  1.0000000E-01;  3.3955583E+03;0;  0.0000000E+00;  0.0000000E+00;  0.0000000E+00;0; -2.3745695E-02;  4.0000000E+04;  0.0000000E+00;  0.0000000E+00;  4.0000000E+04;  0.0000000E+00;  4.0000000E+04; -1.7416704E-02;  0.0000000E+00; -6.3289902E-03;  6.2479077E+03;
  1.0000000E-01;  9.9999998E-03; -3.3000001E-01;2132;  0.0000000E+00;  0.0000000E+00;  0.0000000E+00;  1.0052111E+03;  1.0000000E-01;  4.3173101E+03;0;  0.0000000E+00;  0.0000000E+00;  0.0000000E+00;0; -2.9583406E-02;  4.0000000E+04;  0.0000000E+00;  0.0000000E+00;  4.0000000E+04;  0.0000000E+00;  4.0000000E+04; -2.3099415E-02;  0.0000000E+00; -6.4839912E-03;  6.2433877E+03;
  1.0000000E-01;  9.9999998E-03; -3.1999999E-01;2133;  0.0000000E+00;  0.0000000E+00;  0.0000000E+00;  1.0064236E+03;  1.0000000E-01;  5.3218247E+03;0;  0.0000000E+00;  0.0000000E+00;  0.0000000E+00;0; -3.5734944E-02;  4.0000000E+04;  0.0000000E+00;  0.0000000E+00;  4.0000000E+04;  0.0000000E+00;  4.0000000E+04; -2.9512662E-02;  0.0000000E+00; -6.2222835E-03;  5.9871157E+03;
  1.0000000E-01;  9.9999998E-03; -3.1000000E-01;2134;  0.0000000E+00;  0.0000000E+00;  0.0000000E+00;  1.0076779E+03;  1.0000000E-01;  6.3610054E+03;0;  0.0000000E+00;  0.0000000E+00;  0.0000000E+00;0; -4.1843668E-02;  4.0000000E+04;  0.0000000E+00;  0.0000000E+00;  4.0000000E+04;  0.0000000E+00;  4.0000000E+04; -3.6414072E-02;  0.0000000E+00; -5.4295962E-03;  5.5993955E+03;
  1.1000000E-01;  9.9999998E-03; -4.4000000E-01;2151;  0.0000000E+00;  0.0000000E+00;  0.0000000E+00;  1.0000000E+03;  1.0000000E-01;  0.0000000E+00;0;  0.0000000E+00;  0.0000000E+00;  0.0000000E+00;0; -1.5624838E-04;  4.0000000E+04;  0.0000000E+00;  0.0000000E+00;  4.0000000E+04;  0.0000000E+00;  4.0000000E+04; -1.9995594E-05;  0.0000000E+00; -1.3625278E-04;  1.5491618E+02;
  1.1000000E-01;  9.9999998E-03; -4.3000001E-01;2152;  0.0000000E+00;  0.0000000E+00;  0.0000000E+00;  1.0000712E+03;  1.0000000E-01;  5.9060059E+01;0;  0.0000000E+00;  0.0000000E+00;  0.0000000E+00;0; -4.5674844E-04;  4.0000000E+04;  0.0000000E+00;  0.0000000E+00;  4.0000000E+04;  0.0000000E+00;  4.0000000E+04; -8.3082887E-05;  0.0000000E+00; -3.7366556E-04;  4.4351340E+02;
  1.1000000E-01;  9.9999998E-03; -4.1999999E-01;2153;  0.0000000E+00;  0.0000000E+00;  0.0000000E+00;  1.0001340E+03;  1.0000000E-01;  1.1100921E+02;0;  0.0000000E+00;  0.0000000E+00;  0.0000000E+00;0; -1.0260006E-03;  4.0000000E+04;  0.0000000E+00;  0.0000000E+00;  4.0000000E+04;  0.0000000E+00;  4.0000000E+04; -2.4917797E-04;  0.0000000E+00; -7.7682256E-04;  9.4811426E+02;
  1.1000000E-01;  9.9999998E-03; -4.1000000E-01;2154;  0.0000000E+00;  0.0000000E+00;  0.0000000E+00;  1.0002659E+03;  1.0000000E-01;  2.2033945E+02;0;  0.0000000E+00;  0.0000000E+00;  0.0000000E+00;0; -1.9463059E-03;  4.0000000E+04;  0.0000000E+00;  0.0000000E+00;  4.0000000E+04;  0.0000000E+00;  4.0000000E+04; -6.0367578E-04;  0.0000000E+00; -1.3426300E-03;  1.6618214E+03;
  1.1000000E-01;  9.9999998E-03; -4.0000001E-01;2155;  0.0000000E+00;  0.0000000E+00;  0.0000000E+00;  1.0004775E+03;  1.0000000E-01;  3.9554437E+02;0;  0.0000000E+00;  0.0000000E+00;  0.0000000E+00;0; -3.2965147E-03;  4.0000000E+04;  0.0000000E+00;  0.0000000E+00;  4.0000000E+04;  0.0000000E+00;  4.0000000E+04; -1.2575830E-03;  0.0000000E+00; -2.0389317E-03;  2.5305366E+03;
  1.1000000E-01;  9.9999998E-03; -3.8999999E-01;2156;  0.0000000E+00;  0.0000000E+00;  0.0000000E+00;  1.0007728E+03;  1.0000000E-01;  6.4017944E+02;0;  0.0000000E+00;  0.0000000E+00;  0.0000000E+00;0; -5.1628915E-03;  4.0000000E+04;  0.0000000E+00;  0.0000000E+00;  4.0000000E+04;  0.0000000E+00;  4.0000000E+04; -2.3423538E-03;  0.0000000E+00; -2.8205377E-03;  3.4818704E+03;
  1.1000000E-01;  9.9999998E-03; -3.8000000E-01;2157;  0.0000000E+00;  0.0000000E+00;  0.0000000E+00;  1.0011773E+03;  1.0000000E-01;  9.7537982E+02;0;  0.0000000E+00;  0.0000000E+00;  0.0000000E+00;0; -7.6411623E-03;  4.0000000E+04;  0.0000000E+00;  0.0000000E+00;  4.0000000E+04;  0.0000000E+00;  4.0000000E+04; -4.0009469E-03;  0.0000000E+00; -3.6402154E-03;  4.4485552E+03;
  1.1000000E-01;  9.9999998E-03; -3.7000000E-01;2158;  0.0000000E+00;  0.0000000E+00;  0.0000000E+00;  1.0017167E+03;  1.0000000E-01;  1.4222808E+03;0;  0.0000000E+00;  0.0000000E+00;  0.0000000E+00;0; -1.0824262E-02;  4.0000000E+04;  0.0000000E+00;  0.0000000E+00;  4.0000000E+04;  0.0000000E+00;  4.0000000E+04; -6.3738539E-03;  0.0000000E+00; -4.4504083E-03;  5.3796611E+03;
  1.1000000E-01;  9.9999998E-03; -3.6000001E-01;2159;  0.0000000E+00;  0.0000000E+00;  0.0000000E+00;  1.0024086E+03;  1.0000000E-01;  1.9954991E+03;0;  0.0000000E+00;  0.0000000E+00;  0.0000000E+00;0; -1.4778044E-02;  4.0000000E+04;  0.0000000E+00;  0.0000000E+00;  4.0000000E+04;  0.0000000E+00;  4.0000000E+04; -9.5794629E-03;  0.0000000E+00; -5.1985811E-03;  6.2467505E+03;
  1.1000000E-01;  9.9999998E-03; -3.4999999E-01;2160;  0.0000000E+00;  0.0000000E+00;  0.0000000E+00;  1.0032653E+03;  1.0000000E-01;  2.7052075E+03;0;  0.0000000E+00;  0.0000000E+00;  0.0000000E+00;0; -1.9510414E-02;  4.0000000E+04;  0.0000000E+00;  0.0000000E+00;  4.0000000E+04;  0.0000000E+00;  4.0000000E+04; -1.3690121E-02;  0.0000000E+00; -5.8202925E-03;  7.0512261E+03;
  1.1000000E-01;  9.9999998E-03; -3.4000000E-01;2161;  0.0000000E+00;  0.0000000E+00;  0.0000000E+00;  1.0042846E+03;  1.0000000E-01;  3.5497268E+03;0;  0.0000000E+00;  0.0000000E+00;  0.0000000E+00;0; -2.4940699E-02;  4.0000000E+04;  0.0000000E+00;  0.0000000E+00;  4.0000000E+04;  0.0000000E+00;  4.0000000E+04; -1.8707767E-02;  0.0000000E+00; -6.2329317E-03;  7.8281753E+03;
  1.1000000E-01;  9.9999998E-03; -3.3000001E-01;2162;  0.0000000E+00;  0.0000000E+00;  0.0000000E+00;  1.0054465E+03;  1.0000000E-01;  4.5123662E+03;0;  0.0000000E+00;  0.0000000E+00;  0.0000000E+00;0; -3.0877814E-02;  4.0000000E+04;  0.0000000E+00;  0.0000000E+00;  4.0000000E+04;  0.0000000E+00;  4.0000000E+04; -2.4544638E-02;  0.0000000E+00; -6.3331765E-03;  8.6285879E+03;
  1.1000000E-01;  9.9999998E-03; -3.1999999E-01;2163;  0.0000000E+00;  0.0000000E+00;  0.0000000E+00;  1.0067057E+03;  1.0000000E-01;  5.5554971E+03;0;  0.0000000E+00;  0.0000000E+00;  0.0000000E+00;0; -3.7016775E-02;  4.0000000E+04;  0.0000000E+00;  0.0000000E+00;  4.0000000E+04;  0.0000000E+00;  4.0000000E+04; -3.1014342E-02;  0.0000000E+00; -6.0024341E-03;  9.4665146E+03;
  1.1000000E-01;  9.9999998E-03; -3.1000000E-01;2164;  0.0000000E+00;  0.0000000E+00;  0.0000000E+00;  1.0079967E+03;  1.0000000E-01;  6.6250967E+03;0;  0.0000000E+00;  0.0000000E+00;  0.0000000E+00;0; -4.2964797E-02;  4.0000000E+04;  0.0000000E+00;  0.0000000E+00;  4.0000000E+04;  0.0000000E+00;  4.0000000E+04; -3.7837759E-02;  0.0000000E+00; -5.1270393E-03;  1.0265506E+04;
  1.2000000E-01;  9.9999998E-03; -4.4000000E-01;2181;  0.0000000E+00;  0.0000000E+00;  0.0000000E+00;  1.0000000E+03;  1.0000000E-01;  0.0000000E+00;0;  0.0000000E+00;  0.0000000E+00;  0.0000000E+00;0; -1.6704753E-04;  4.0000000E+04;  0.0000000E+00;  0.0000000E+00;  4.0000000E+04;  0.0000000E+00;  4.0000000E+04; -2.4866344E-05;  0.0000000E+00; -1.4218119E-04;  2.1568233E+02;
  1.2000000E-01;  9.9999998E-03; -4.3000001E-01;2182;  0.0000000E+00;  0.0000000E+00;  0.0000000E+00;  1.0000715E+03;  1.0000000E-01;  5.9257584E+01;0;  0.0000000E+00;  0.0000000E+00;  0.0000000E+00;0; -4.8654043E-04;  4.0000000E+04;  0.0000000E+00;  0.0000000E+00;  4.0000000E+04;  0.0000000E+00;  4.0000000E+04; -1.0374370E-04;  0.0000000E+00; -3.8279672E-04;  5.8171320E+02;
  1.2000000E-01;  9.9999998E-03; -4.1999999E-01;2183;  0.0000000E+00;  0.0000000E+00;  0.0000000E+00;  1.0001343E+03;  1.0000000E-01;  1.1120673E+02;0;  0.0000000E+00;  0.0000000E+00;  0.0000000E+00;0; -1.0943903E-03;  4.0000000E+04;  0.0000000E+00;  0.0000000E+00;  4.0000000E+04;  0.0000000E+00;  4.0000000E+04; -3.0820630E-04;  0.0000000E+00; -7.8618398E-04;  1.1841522E+03;
  1.2000000E-01;  9.9999998E-03; -4.1000000E-01;2184;  0.0000000E+00;  0.0000000E+00;  0.0000000E+00;  1.0002738E+03;  1.0000000E-01;  2.2685779E+02;0;  0.0000000E+00;  0.0000000E+00;  0.0000000E+00;0; -2.0842776E-03;  4.0000000E+04;  0.0000000E+00;  0.0000000E+00;  4.0000000E+04;  0.0000000E+00;  4.0000000E+04; -7.3471776E-04;  0.0000000E+00; -1.3495599E-03;  1.9889783E+03;
  1.2000000E-01;  9.9999998E-03; -4.0000001E-01;2185;  0.0000000E+00;  0.0000000E+00;  0.0000000E+00;  1.0004858E+03;  1.0000000E-01;  4.0245776E+02;0;  0.0000000E+00;  0.0000000E+00;  0.0000000E+00;0; -3.5454463E-03;  4.0000000E+04;  0.0000000E+00;  0.0000000E+00;  4.0000000E+04;  0.0000000E+00;  4.0000000E+04; -1.5042037E-03;  0.0000000E+00; -2.0412426E-03;  2.9203403E+03;
  1.2000000E-01;  9.9999998E-03; -3.8999999E-01;2186;  0.0000000E+00;  0.0000000E+00;  0.0000000E+00;  1.0007959E+03;  1.0000000E-01;  6.5933936E+02;0;  0.0000000E+00;  0.0000000E+00;  0.0000000E+00;0; -5.5714054E-03;  4.0000000E+04;  0.0000000E+00;  0.0000000E+00;  4.0000000E+04;  0.0000000E+00;  4.0000000E+04; -2.7555453E-03;  0.0000000E+00; -2.8158599E-03;  3.9091077E+03;
  1.2000000E-01;  9.9999998E-03; -3.8000000E-01;2187;  0.0000000E+00;  0.0000000E+00;  0.0000000E+00;  1.0012224E+03;  1.0000000E-01;  1.0127121E+03;0;  0.0000000E+00;  0.0000000E+00;  0.0000000E+00;0; -8.2601802E-03;  4.0000000E+04;  0.0000000E+00;  0.0000000E+00;  4.0000000E+04;  0.0000000E+00;  4.0000000E+04; -4.6348763E-03;  0.0000000E+00; -3.6253042E-03;  4.9299648E+03;
  1.2000000E-01;  9.9999998E-03; -3.7000000E-01;2188;  0.0000000E+00;  0.0000000E+00;  0.0000000E+00;  1.0017993E+03;  1.0000000E-01;  1.4906245E+03;0;  0.0000000E+00;  0.0000000E+00;  0.0000000E+00;0; -1.1699768E-02;  4.0000000E+04;  0.0000000E+00;  0.0000000E+00;  4.0000000E+04;  0.0000000E+00;  4.0000000E+04; -7.2791027E-03;  0.0000000E+00; -4.4206646E-03;  6.0219858E+03;
  1.2000000E-01;  9.9999998E-03; -3.6000001E-01;2189;  0.0000000E+00;  0.0000000E+00;  0.0000000E+00;  1.0025385E+03;  1.0000000E-01;  2.1030515E+03;0;  0.0000000E+00;  0.0000000E+00;  0.0000000E+00;0; -1.5941333E-02;  4.0000000E+04;  0.0000000E+00;  0.0000000E+00;  4.0000000E+04;  0.0000000E+00;  4.0000000E+04; -1.0793509E-02;  0.0000000E+00; -5.1478245E-03;  7.2932153E+03;
  1.2000000E-01;  9.9999998E-03; -3.4999999E-01;2190;  0.0000000E+00;  0.0000000E+00;  0.0000000E+00;  1.0034516E+03;  1.0000000E-01;  2.8595735E+03;0;  0.0000000E+00;  0.0000000E+00;  0.0000000E+00;0; -2.0966429E-02;  4.0000000E+04;  0.0000000E+00;  0.0000000E+00;  4.0000000E+04;  0.0000000E+00;  4.0000000E+04; -1.5225805E-02;  0.0000000E+00; -5.7406235E-03;  8.8908906E+03;
  1.2000000E-01;  9.9999998E-03; -3.4000000E-01;2191;  0.0000000E+00;  0.0000000E+00;  0.0000000E+00;  1.0045311E+03;  1.0000000E-01;  3.7539680E+03;0;  0.0000000E+00;  0.0000000E+00;  0.0000000E+00;0; -2.6656436E-02;  4.0000000E+04;  0.0000000E+00;  0.0000000E+00;  4.0000000E+04;  0.0000000E+00;  4.0000000E+04; -2.0541802E-02;  0.0000000E+00; -6.1146338E-03;  1.0918682E+04;
  1.2000000E-01;  9.9999998E-03; -3.3000001E-01;2192;  0.0000000E+00;  0.0000000E+00;  0.0000000E+00;  1.0057517E+03;  1.0000000E-01;  4.7651987E+03;0;  0.0000000E+00;  0.0000000E+00;  0.0000000E+00;0; -3.2774147E-02;  4.0000000E+04;  0.0000000E+00;  0.0000000E+00;  4.0000000E+04;  0.0000000E+00;  4.0000000E+04; -2.6609398E-02;  0.0000000E+00; -6.1647473E-03;  1.3327540E+04;
  1.2000000E-01;  9.9999998E-03; -3.1999999E-01;2193;  0.0000000E+00;  0.0000000E+00;  0.0000000E+00;  1.0070643E+03;  1.0000000E-01;  5.8525752E+03;0;  0.0000000E+00;  0.0000000E+00;  0.0000000E+00;0; -3.8967360E-02;  4.0000000E+04;  0.0000000E+00;  0.0000000E+00;  4.0000000E+04;  0.0000000E+00;  4.0000000E+04; -3.3196144E-02;  0.0000000E+00; -5.7712165E-03;  1.5849403E+04;
  1.2000000E-01;  9.9999998E-03; -3.1000000E-01;2194;  0.0000000E+00;  0.0000000E+00;  0.0000000E+00;  1.0083967E+03;  1.0000000E-01;  6.9564453E+03;0;  0.0000000E+00;  0.0000000E+00;  0.0000000E+00;0; -4.4803988E-02;  4.0000000E+04;  0.0000000E+00;  0.0000000E+00;  4.0000000E+04;  0.0000000E+00;  4.0000000E+04; -3.9982587E-02;  0.0000000E+00; -4.8214006E-03;  1.8026715E+04;
  1.3000000E-01;  9.9999998E-03; -4.4000000E-01;2211;  0.0000000E+00;  0.0000000E+00;  0.0000000E+00;  1.0000000E+03;  1.0000000E-01;  0.0000000E+00;0;  0.0000000E+00;  0.0000000E+00;  0.0000000E+00;0; -1.8023176E-04;  4.0000000E+04;  0.0000000E+00;  0.0000000E+00;  4.0000000E+04;  0.0000000E+00;  4.0000000E+04; -3.4626697E-05;  0.0000000E+00; -1.4560507E-04;  3.2514948E+02;
  1.3000000E-01;  9.9999998E-03; -4.3000001E-01;2212;  0.0000000E+00;  0.0000000E+00;  0.0000000E+00;  1.0000735E+03;  1.0000000E-01;  6.0837784E+01;0;  0.0000000E+00;  0.0000000E+00;  0.0000000E+00;0; -5.2537961E-04;  4.0000000E+04;  0.0000000E+00;  0.0000000E+00;  4.0000000E+04;  0.0000000E+00;  4.0000000E+04; -1.4034791E-04;  0.0000000E+00; -3.8503172E-04;  8.3341919E+02;
  1.3000000E-01;  9.9999998E-03; -4.1999999E-01;2213;  0.0000000E+00;  0.0000000E+00;  0.0000000E+00;  1.0001357E+03;  1.0000000E-01;  1.1239188E+02;0;  0.0000000E+00;  0.0000000E+00;  0.0000000E+00;0; -1.1876049E-03;  4.0000000E+04;  0.0000000E+00;  0.0000000E+00;  4.0000000E+04;  0.0000000E+00;  4.0000000E+04; -4.0318631E-04;  0.0000000E+00; -7.8441849E-04;  1.5990221E+03;
  1.3000000E-01;  9.9999998E-03; -4.1000000E-01;2214;  0.0000000E+00;  0.0000000E+00;  0.0000000E+00;  1.0002838E+03;  1.0000000E-01;  2.3515384E+02;0;  0.0000000E+00;  0.0000000E+00;  0.0000000E+00;0; -2.2739372E-03;  4.0000000E+04;  0.0000000E+00;  0.0000000E+00;  4.0000000E+04;  0.0000000E+00;  4.0000000E+04; -9.3187462E-04;  0.0000000E+00; -1.3420627E-03;  2.5130657E+03;
  1.3000000E-01;  9.9999998E-03; -4.0000001E-01;2215;  0.0000000E+00;  0.0000000E+00;  0.0000000E+00;  1.0005056E+03;  1.0000000E-01;  4.1885236E+02;0;  0.0000000E+00;  0.0000000E+00;  0.0000000E+00;0; -3.8848780E-03;  4.0000000E+04;  0.0000000E+00;  0.0000000E+00;  4.0000000E+04;  0.0000000E+00;  4.0000000E+04; -1.8578641E-03;  0.0000000E+00; -2.0270140E-03;  3.4424424E+03;
  1.3000000E-01;  9.9999998E-03; -3.8999999E-01;2216;  0.0000000E+00;  0.0000000E+00;  0.0000000E+00;  1.0008337E+03;  1.0000000E-01;  6.9074591E+02;0;  0.0000000E+00;  0.0000000E+00;  0.0000000E+00;0; -6.1217165E-03;  4.0000000E+04;  0.0000000E+00;  0.0000000E+00;  4.0000000E+04;  0.0000000E+00;  4.0000000E+04; -3.3281546E-03;  0.0000000E+00; -2.7935617E-03;  4.3383604E+03;
  1.3000000E-01;  9.9999998E-03; -3.8000000E-01;2217;  0.0000000E+00;  0.0000000E+00;  0.0000000E+00;  1.0012982E+03;  1.0000000E-01;  1.0755251E+03;0;  0.0000000E+00;  0.0000000E+00;  0.0000000E+00;0; -9.0849958E-03;  4.0000000E+04;  0.0000000E+00;  0.0000000E+00;  4.0000000E+04;  0.0000000E+00;  4.0000000E+04; -5.4923035E-03;  0.0000000E+00; -3.5926923E-03;  5.3295903E+03;
  1.3000000E-01;  9.9999998E-03; -3.7000000E-01;2218;  0.0000000E+00;  0.0000000E+00;  0.0000000E+00;  1.0019177E+03;  1.0000000E-01;  1.5887946E+03;0;  0.0000000E+00;  0.0000000E+00;  0.0000000E+00;0; -1.2856904E-02;  4.0000000E+04;  0.0000000E+00;  0.0000000E+00;  4.0000000E+04;  0.0000000E+00;  4.0000000E+04; -8.4825354E-03;  0.0000000E+00; -4.3743686E-03;  6.7486045E+03;
  1.3000000E-01;  9.9999998E-03; -3.6000001E-01;2219;  0.0000000E+00;  0.0000000E+00;  0.0000000E+00;  1.0027186E+03;  1.0000000E-01;  2.2522820E+03;0;  0.0000000E+00;  0.0000000E+00;  0.0000000E+00;0; -1.7471114E-02;  4.0000000E+04;  0.0000000E+00;  0.0000000E+00;  4.0000000E+04;  0.0000000E+00;  4.0000000E+04; -1.2387820E-02;  0.0000000E+00; -5.0832951E-03;  8.9919268E+03;
  1.3000000E-01;  9.9999998E-03; -3.4999999E-01;2220;  0.0000000E+00;  0.0000000E+00;  0.0000000E+00;  1.0037004E+03;  1.0000000E-01;  3.0657898E+03;0;  0.0000000E+00;  0.0000000E+00;  0.0000000E+00;0; -2.2877516E-02;  4.0000000E+04;  0.0000000E+00;  0.0000000E+00;  4.0000000E+04;  0.0000000E+00;  4.0000000E+04; -1.7225398E-02;  0.0000000E+00; -5.6521185E-03;  1.2273592E+04;
  1.3000000E-01;  9.9999998E-03; -3.4000000E-01;2221;  0.0000000E+00;  0.0000000E+00;  0.0000000E+00;  1.0048550E+03;  1.0000000E-01;  4.0223059E+03;0;  0.0000000E+00;  0.0000000E+00;  0.0000000E+00;0; -2.8912213E-02;  4.0000000E+04;  0.0000000E+00;  0.0000000E+00;  4.0000000E+04;  0.0000000E+00;  4.0000000E+04; -2.2917151E-02;  0.0000000E+00; -5.9950617E-03;  1.6499174E+04;
  1.3000000E-01;  9.9999998E-03; -3.3000001E-01;2222;  0.0000000E+00;  0.0000000E+00;  0.0000000E+00;  1.0061469E+03;  1.0000000E-01;  5.0925967E+03;0;  0.0000000E+00;  0.0000000E+00;  0.0000000E+00;0; -3.5283830E-02;  4.0000000E+04;  0.0000000E+00;  0.0000000E+00;  4.0000000E+04;  0.0000000E+00;  4.0000000E+04; -2.9278494E-02;  0.0000000E+00; -6.0053347E-03;  2.1263830E+04;
  1.3000000E-01;  9.9999998E-03; -3.1999999E-01;2223;  0.0000000E+00;  0.0000000E+00;  0.0000000E+00;  1.0075187E+03;  1.0000000E-01;  6.2290586E+03;0;  0.0000000E+00;  0.0000000E+00;  0.0000000E+00;0; -4.1585524E-02;  4.0000000E+04;  0.0000000E+00;  0.0000000E+00;  4.0000000E+04;  0.0000000E+00;  4.0000000E+04; -3.6024202E-02;  0.0000000E+00; -5.5613210E-03;  2.5881693E+04;
  1.3000000E-01;  9.9999998E-03; -3.1000000E-01;2224;  0.0000000E+00;  0.0000000E+00;  0.0000000E+00;  1.0088939E+03;  1.0000000E-01;  7.3683843E+03;0;  0.0000000E+00;  0.0000000E+00;  0.0000000E+00;0; -4.7342207E-02;  4.0000000E+04;  0.0000000E+00;  0.0000000E+00;  4.0000000E+04;  0.0000000E+00;  4.0000000E+04; -4.2791974E-02;  0.0000000E+00; -4.5502335E-03;  2.9484387E+04;
  1.4000000E-01;  9.9999998E-03; -4.4000000E-01;2241;  0.0000000E+00;  0.0000000E+00;  0.0000000E+00;  1.0000000E+03;  1.0000000E-01;  0.0000000E+00;0;  0.0000000E+00;  0.0000000E+00;  0.0000000E+00;0; -1.9690843E-04;  4.0000000E+04;  0.0000000E+00;  0.0000000E+00;  4.0000000E+04;  0.0000000E+00;  4.0000000E+04; -5.1689283E-05;  0.0000000E+00; -1.4521915E-04;  5.4973486E+02;
  1.4000000E-01;  9.9999998E-03; -4.3000001E-01;2242;  0.0000000E+00;  0.0000000E+00;  0.0000000E+00;  1.0000728E+03;  1.0000000E-01;  6.0343971E+01;0;  0.0000000E+00;  0.0000000E+00;  0.0000000E+00;0; -5.7735888E-04;  4.0000000E+04;  0.0000000E+00;  0.0000000E+00;  4.0000000E+04;  0.0000000E+00;  4.0000000E+04; -1.9744007E-04;  0.0000000E+00; -3.7991884E-04;  1.3474631E+03;
  1.4000000E-01;  9.9999998E-03; -4.1999999E-01;2243;  0.0000000E+00;  0.0000000E+00;  0.0000000E+00;  1.0001426E+03;  1.0000000E-01;  1.1821888E+02;0;  0.0000000E+00;  0.0000000E+00;  0.0000000E+00;0; -1.3124642E-03;  4.0000000E+04;  0.0000000E+00;  0.0000000E+00;  4.0000000E+04;  0.0000000E+00;  4.0000000E+04; -5.3967285E-04;  0.0000000E+00; -7.7279145E-04;  2.4318879E+03;
  1.4000000E-01;  9.9999998E-03; -4.1000000E-01;2244;  0.0000000E+00;  0.0000000E+00;  0.0000000E+00;  1.0002956E+03;  1.0000000E-01;  2.4493135E+02;0;  0.0000000E+00;  0.0000000E+00;  0.0000000E+00;0; -2.5227799E-03;  4.0000000E+04;  0.0000000E+00;  0.0000000E+00;  4.0000000E+04;  0.0000000E+00;  4.0000000E+04; -1.1993854E-03;  0.0000000E+00; -1.3233945E-03;  3.5265464E+03;
  1.4000000E-01;  9.9999998E-03; -4.0000001E-01;2245;  0.0000000E+00;  0.0000000E+00;  0.0000000E+00;  1.0005322E+03;  1.0000000E-01;  4.4097519E+02;0;  0.0000000E+00;  0.0000000E+00;  0.0000000E+00;0; -4.3201735E-03;  4.0000000E+04;  0.0000000E+00;  0.0000000E+00;  4.0000000E+04;  0.0000000E+00;  4.0000000E+04; -2.3189820E-03;  0.0000000E+00; -2.0011913E-03;  4.3476528E+03;
  1.4000000E-01;  9.9999998E-03; -3.8999999E-01;2246;  0.0000000E+00;  0.0000000E+00;  0.0000000E+00;  1.0008942E+03;  1.0000000E-01;  7.4081854E+02;0;  0.0000000E+00;  0.0000000E+00;  0.0000000E+00;0; -6.8143178E-03;  4.0000000E+04;  0.0000000E+00;  0.0000000E+00;  4.0000000E+04;  0.0000000E+00;  4.0000000E+04; -4.0540551E-03;  0.0000000E+00; -2.7602627E-03;  4.8560933E+03;
  1.4000000E-01;  9.9999998E-03; -3.8000000E-01;2247;  0.0000000E+00;  0.0000000E+00;  0.0000000E+00;  1.0013997E+03;  1.0000000E-01;  1.1596709E+03;0;  0.0000000E+00;  0.0000000E+00;  0.0000000E+00;0; -1.0108662E-02;  4.0000000E+04;  0.0000000E+00;  0.0000000E+00;  4.0000000E+04;  0.0000000E+00;  4.0000000E+04; -6.5578055E-03;  0.0000000E+00; -3.5508564E-03;  5.6051196E+03;
  1.4000000E-01;  9.9999998E-03; -3.7000000E-01;2248;  0.0000000E+00;  0.0000000E+00;  0.0000000E+00;  1.0020832E+03;  1.0000000E-01;  1.7258771E+03;0;  0.0000000E+00;  0.0000000E+00;  0.0000000E+00;0; -1.4278755E-02;  4.0000000E+04;  0.0000000E+00;  0.0000000E+00;  4.0000000E+04;  0.0000000E+00;  4.0000000E+04; -9.9566141E-03;  0.0000000E+00; -4.3221400E-03;  7.7476636E+03;
  1.4000000E-01;  9.9999998E-03; -3.6000001E-01;2249;  0.0000000E+00;  0.0000000E+00;  0.0000000E+00;  1.0029573E+03;  1.0000000E-01;  2.4500049E+03;0;  0.0000000E+00;  0.0000000E+00;  0.0000000E+00;0; -1.9337719E-02;  4.0000000E+04;  0.0000000E+00;  0.0000000E+00;  4.0000000E+04;  0.0000000E+00;  4.0000000E+04; -1.4319469E-02;  0.0000000E+00; -5.0182501E-03;  1.1954868E+04;
  1.4000000E-01;  9.9999998E-03; -3.4999999E-01;2250;  0.0000000E+00;  0.0000000E+00;  0.0000000E+00;  1.0040241E+03;  1.0000000E-01;  3.3339304E+03;0;  0.0000000E+00;  0.0000000E+00;  0.0000000E+00;0; -2.5198393E-02;  4.0000000E+04;  0.0000000E+00;  0.0000000E+00;  4.0000000E+04;  0.0000000E+00;  4.0000000E+04; -1.9626951E-02;  0.0000000E+00; -5.5714427E-03;  1.8035250E+04;
  1.4000000E-01;  9.9999998E-03; -3.4000000E-01;2251;  0.0000000E+00;  0.0000000E+00;  0.0000000E+00;  1.0052673E+03;  1.0000000E-01;  4.3639258E+03;0;  0.0000000E+00;  0.0000000E+00;  0.0000000E+00;0; -3.1644415E-02;  4.0000000E+04;  0.0000000E+00;  0.0000000E+00;  4.0000000E+04;  0.0000000E+00;  4.0000000E+04; -2.5748957E-02;  0.0000000E+00; -5.8954596E-03;  2.5413426E+04;
  1.4000000E-01;  9.9999998E-03; -3.3000001E-01;2252;  0.0000000E+00;  0.0000000E+00;  0.0000000E+00;  1.0066400E+03;  1.0000000E-01;  5.5010791E+03;0;  0.0000000E+00;  0.0000000E+00;  0.0000000E+00;0; -3.8322292E-02;  4.0000000E+04;  0.0000000E+00;  0.0000000E+00;  4.0000000E+04;  0.0000000E+00;  4.0000000E+04; -3.2439973E-02;  0.0000000E+00; -5.8823172E-03;  3.3213910E+04;
  1.4000000E-01;  9.9999998E-03; -3.1999999E-01;2253;  0.0000000E+00;  0.0000000E+00;  0.0000000E+00;  1.0080776E+03;  1.0000000E-01;  6.6921562E+03;0;  0.0000000E+00;  0.0000000E+00;  0.0000000E+00;0; -4.4763982E-02;  4.0000000E+04;  0.0000000E+00;  0.0000000E+00;  4.0000000E+04;  0.0000000E+00;  4.0000000E+04; -3.9356075E-02;  0.0000000E+00; -5.4079075E-03;  4.0247973E+04;
  1.4000000E-01;  9.9999998E-03; -3.1000000E-01;2254;  0.0000000E+00;  0.0000000E+00;  0.0000000E+00;  1.0094941E+03;  1.0000000E-01;  7.8656543E+03;0;  0.0000000E+00;  0.0000000E+00;  0.0000000E+00;0; -5.0446697E-02;  4.0000000E+04;  0.0000000E+00;  0.0000000E+00;  4.0000000E+04;  0.0000000E+00;  4.0000000E+04; -4.6090472E-02;  0.0000000E+00; -4.3562236E-03;  4.5170398E+04;
  1.5000001E-01;  9.9999998E-03; -4.4000000E-01;2271;  0.0000000E+00;  0.0000000E+00;  0.0000000E+00;  1.0000000E+03;  1.0000000E-01;  0.0000000E+00;0;  0.0000000E+00;  0.0000000E+00;  0.0000000E+00;0; -2.1891392E-04;  4.0000000E+04;  0.0000000E+00;  0.0000000E+00;  4.0000000E+04;  0.0000000E+00;  4.0000000E+04; -7.8180863E-05;  0.0000000E+00; -1.4073306E-04;  9.9441406E+02;
  1.5000001E-01;  9.9999998E-03; -4.3000001E-01;2272;  0.0000000E+00;  0.0000000E+00;  0.0000000E+00;  1.0000729E+03;  1.0000000E-01;  6.0343971E+01;0;  0.0000000E+00;  0.0000000E+00;  0.0000000E+00;0; -6.4600905E-04;  4.0000000E+04;  0.0000000E+00;  0.0000000E+00;  4.0000000E+04;  0.0000000E+00;  4.0000000E+04; -2.7708686E-04;  0.0000000E+00; -3.6892219E-04;  2.3364468E+03;
  1.5000001E-01;  9.9999998E-03; -4.1999999E-01;2273;  0.0000000E+00;  0.0000000E+00;  0.0000000E+00;  1.0001502E+03;  1.0000000E-01;  1.2444093E+02;0;  0.0000000E+00;  0.0000000E+00;  0.0000000E+00;0; -1.4711679E-03;  4.0000000E+04;  0.0000000E+00;  0.0000000E+00;  4.0000000E+04;  0.0000000E+00;  4.0000000E+04; -7.1640417E-04;  0.0000000E+00; -7.5476366E-04;  4.0091250E+03;
  1.5000001E-01;  9.9999998E-03; -4.1000000E-01;2274;  0.0000000E+00;  0.0000000E+00;  0.0000000E+00;  1.0003087E+03;  1.0000000E-01;  2.5579523E+02;0;  0.0000000E+00;  0.0000000E+00;  0.0000000E+00;0; -2.8267894E-03;  4.0000000E+04;  0.0000000E+00;  0.0000000E+00;  4.0000000E+04;  0.0000000E+00;  4.0000000E+04; -1.5279610E-03;  0.0000000E+00; -1.2988283E-03;  5.4419150E+03;
  1.5000001E-01;  9.9999998E-03; -4.0000001E-01;2275;  0.0000000E+00;  0.0000000E+00;  0.0000000E+00;  1.0005794E+03;  1.0000000E-01;  4.7998642E+02;0;  0.0000000E+00;  0.0000000E+00;  0.0000000E+00;0; -4.8355274E-03;  4.0000000E+04;  0.0000000E+00;  0.0000000E+00;  4.0000000E+04;  0.0000000E+00;  4.0000000E+04; -2.8647536E-03;  0.0000000E+00; -1.9707738E-03;  6.0572715E+03;
  1.5000001E-01;  9.9999998E-03; -3.8999999E-01;2276;  0.0000000E+00;  0.0000000E+00;  0.0000000E+00;  1.0009734E+03;  1.0000000E-01;  8.0639697E+02;0;  0.0000000E+00;  0.0000000E+00;  0.0000000E+00;0; -7.6160235E-03;  4.0000000E+04;  0.0000000E+00;  0.0000000E+00;  4.0000000E+04;  0.0000000E+00;  4.0000000E+04; -4.8916354E-03;  0.0000000E+00; -2.7243881E-03;  5.6973066E+03;
  1.5000001E-01;  9.9999998E-03; -3.8000000E-01;2277;  0.0000000E+00;  0.0000000E+00;  0.0000000E+00;  1.0015389E+03;  1.0000000E-01;  1.2750256E+03;0;  0.0000000E+00;  0.0000000E+00;  0.0000000E+00;0; -1.1275243E-02;  4.0000000E+04;  0.0000000E+00;  0.0000000E+00;  4.0000000E+04;  0.0000000E+00;  4.0000000E+04; -7.7656601E-03;  0.0000000E+00; -3.5095827E-03;  5.7226113E+03;
  1.5000001E-01;  9.9999998E-03; -3.7000000E-01;2278;  0.0000000E+00;  0.0000000E+00;  0.0000000E+00;  1.0022964E+03;  1.0000000E-01;  1.9024647E+03;0;  0.0000000E+00;  0.0000000E+00;  0.0000000E+00;0; -1.5881499E-02;  4.0000000E+04;  0.0000000E+00;  0.0000000E+00;  4.0000000E+04;  0.0000000E+00;  4.0000000E+04; -1.1606163E-02;  0.0000000E+00; -4.2753359E-03;  9.3360664E+03;
  1.5000001E-01;  9.9999998E-03; -3.6000001E-01;2279;  0.0000000E+00;  0.0000000E+00;  0.0000000E+00;  1.0032592E+03;  1.0000000E-01;  2.7001707E+03;0;  0.0000000E+00;  0.0000000E+00;  0.0000000E+00;0; -2.1425109E-02;  4.0000000E+04;  0.0000000E+00;  0.0000000E+00;  4.0000000E+04;  0.0000000E+00;  4.0000000E+04; -1.6459206E-02;  0.0000000E+00; -4.9659032E-03;  1.6779498E+04;
  1.5000001E-01;  9.9999998E-03; -3.4999999E-01;2280;  0.0000000E+00;  0.0000000E+00;  0.0000000E+00;  1.0044291E+03;  1.0000000E-01;  3.6694270E+03;0;  0.0000000E+00;  0.0000000E+00;  0.0000000E+00;0; -2.7777769E-02;  4.0000000E+04;  0.0000000E+00;  0.0000000E+00;  4.0000000E+04;  0.0000000E+00;  4.0000000E+04; -2.2263709E-02;  0.0000000E+00; -5.5140601E-03;  2.6811994E+04;
  1.5000001E-01;  9.9999998E-03; -3.4000000E-01;2281;  0.0000000E+00;  0.0000000E+00;  0.0000000E+00;  1.0057692E+03;  1.0000000E-01;  4.7797168E+03;0;  0.0000000E+00;  0.0000000E+00;  0.0000000E+00;0; -3.4665599E-02;  4.0000000E+04;  0.0000000E+00;  0.0000000E+00;  4.0000000E+04;  0.0000000E+00;  4.0000000E+04; -2.8831383E-02;  0.0000000E+00; -5.8342172E-03;  3.8303910E+04;
  1.5000001E-01;  9.9999998E-03; -3.3000001E-01;2282;  0.0000000E+00;  0.0000000E+00;  0.0000000E+00;  1.0072320E+03;  1.0000000E-01;  5.9915342E+03;0;  0.0000000E+00;  0.0000000E+00;  0.0000000E+00;0; -4.1668307E-02;  4.0000000E+04;  0.0000000E+00;  0.0000000E+00;  4.0000000E+04;  0.0000000E+00;  4.0000000E+04; -3.5849914E-02;  0.0000000E+00; -5.8183922E-03;  4.9804246E+04;
  1.5000001E-01;  9.9999998E-03; -3.1999999E-01;2283;  0.0000000E+00;  0.0000000E+00;  0.0000000E+00;  1.0087355E+03;  1.0000000E-01;  7.2371284E+03;0;  0.0000000E+00;  0.0000000E+00;  0.0000000E+00;0; -4.8252527E-02;  4.0000000E+04;  0.0000000E+00;  0.0000000E+00;  4.0000000E+04;  0.0000000E+00;  4.0000000E+04; -4.2912144E-02;  0.0000000E+00; -5.3403829E-03;  5.9473695E+04;
  1.5000001E-01;  9.9999998E-03; -3.1000000E-01;2284;  0.0000000E+00;  0.0000000E+00;  0.0000000E+00;  1.0101877E+03;  1.0000000E-01;  8.4402549E+03;0;  0.0000000E+00;  0.0000000E+00;  0.0000000E+00;0; -5.3844109E-02;  4.0000000E+04;  0.0000000E+00;  0.0000000E+00;  4.0000000E+04;  0.0000000E+00;  4.0000000E+04; -4.9566373E-02;  0.0000000E+00; -4.2777350E-03;  6.5389418E+04;
  1.6000000E-01;  9.9999998E-03; -4.4000000E-01;2301;  0.0000000E+00;  0.0000000E+00;  0.0000000E+00;  1.0000000E+03;  1.0000000E-01;  0.0000000E+00;0;  0.0000000E+00;  0.0000000E+00;  0.0000000E+00;0; -2.4748189E-04;  4.0000000E+04;  0.0000000E+00;  0.0000000E+00;  4.0000000E+04;  0.0000000E+00;  4.0000000E+04; -1.1456011E-04;  0.0000000E+00; -1.3292178E-04;  1.8024492E+03;
  1.6000000E-01;  9.9999998E-03; -4.3000001E-01;2302;  0.0000000E+00;  0.0000000E+00;  0.0000000E+00;  1.0000737E+03;  1.0000000E-01;  6.1035313E+01;0;  0.0000000E+00;  0.0000000E+00;  0.0000000E+00;0; -7.3069439E-04;  4.0000000E+04;  0.0000000E+00;  0.0000000E+00;  4.0000000E+04;  0.0000000E+00;  4.0000000E+04; -3.7578802E-04;  0.0000000E+00; -3.5490640E-04;  4.0573264E+03;
  1.6000000E-01;  9.9999998E-03; -4.1999999E-01;2303;  0.0000000E+00;  0.0000000E+00;  0.0000000E+00;  1.0001646E+03;  1.0000000E-01;  1.3629243E+02;0;  0.0000000E+00;  0.0000000E+00;  0.0000000E+00;0; -1.6552326E-03;  4.0000000E+04;  0.0000000E+00;  0.0000000E+00;  4.0000000E+04;  0.0000000E+00;  4.0000000E+04; -9.1978291E-04;  0.0000000E+00; -7.3544972E-04;  6.6792417E+03;
  1.6000000E-01;  9.9999998E-03; -4.1000000E-01;2304;  0.0000000E+00;  0.0000000E+00;  0.0000000E+00;  1.0003456E+03;  1.0000000E-01;  2.8631290E+02;0;  0.0000000E+00;  0.0000000E+00;  0.0000000E+00;0; -3.1618061E-03;  4.0000000E+04;  0.0000000E+00;  0.0000000E+00;  4.0000000E+04;  0.0000000E+00;  4.0000000E+04; -1.8862605E-03;  0.0000000E+00; -1.2755458E-03;  8.6578008E+03;
  1.6000000E-01;  9.9999998E-03; -4.0000001E-01;2305;  0.0000000E+00;  0.0000000E+00;  0.0000000E+00;  1.0006404E+03;  1.0000000E-01;  5.3055292E+02;0;  0.0000000E+00;  0.0000000E+00;  0.0000000E+00;0; -5.3822538E-03;  4.0000000E+04;  0.0000000E+00;  0.0000000E+00;  4.0000000E+04;  0.0000000E+00;  4.0000000E+04; -3.4376308E-03;  0.0000000E+00; -1.9446227E-03;  8.9969697E+03;
  1.6000000E-01;  9.9999998E-03; -3.8999999E-01;2306;  0.0000000E+00;  0.0000000E+00;  0.0000000E+00;  1.0010807E+03;  1.0000000E-01;  8.9538208E+02;0;  0.0000000E+00;  0.0000000E+00;  0.0000000E+00;0; -8.4442329E-03;  4.0000000E+04;  0.0000000E+00;  0.0000000E+00;  4.0000000E+04;  0.0000000E+00;  4.0000000E+04; -5.7479781E-03;  0.0000000E+00; -2.6962548E-03;  7.2342876E+03;
  1.6000000E-01;  9.9999998E-03; -3.8000000E-01;2307;  0.0000000E+00;  0.0000000E+00;  0.0000000E+00;  1.0017087E+03;  1.0000000E-01;  1.4155649E+03;0;  0.0000000E+00;  0.0000000E+00;  0.0000000E+00;0; -1.2458871E-02;  4.0000000E+04;  0.0000000E+00;  0.0000000E+00;  4.0000000E+04;  0.0000000E+00;  4.0000000E+04; -8.9784618E-03;  0.0000000E+00; -3.4804095E-03;  5.6590210E+03;
  1.6000000E-01;  9.9999998E-03; -3.7000000E-01;2308;  0.0000000E+00;  0.0000000E+00;  0.0000000E+00;  1.0025486E+03;  1.0000000E-01;  2.1115452E+03;0;  0.0000000E+00;  0.0000000E+00;  0.0000000E+00;0; -1.7487815E-02;  4.0000000E+04;  0.0000000E+00;  0.0000000E+00;  4.0000000E+04;  0.0000000E+00;  4.0000000E+04; -1.3241308E-02;  0.0000000E+00; -4.2465068E-03;  1.1807898E+04;
  1.6000000E-01;  9.9999998E-03; -3.6000001E-01;2309;  0.0000000E+00;  0.0000000E+00;  0.0000000E+00;  1.0036155E+03;  1.0000000E-01;  2.9953721E+03;0;  0.0000000E+00;  0.0000000E+00;  0.0000000E+00;0; -2.3498146E-02;  4.0000000E+04;  0.0000000E+00;  0.0000000E+00;  4.0000000E+04;  0.0000000E+00;  4.0000000E+04; -1.8558474E-02;  0.0000000E+00; -4.9396721E-03;  2.3757262E+04;
  1.6000000E-01;  9.9999998E-03; -3.4999999E-01;2310;  0.0000000E+00;  0.0000000E+00;  0.0000000E+00;  1.0048923E+03;  1.0000000E-01;  4.0531199E+03;0;  0.0000000E+00;  0.0000000E+00;  0.0000000E+00;0; -3.0319894E-02;  4.0000000E+04;  0.0000000E+00;  0.0000000E+00;  4.0000000E+04;  0.0000000E+00;  4.0000000E+04; -2.4825901E-02;  0.0000000E+00; -5.4939929E-03;  3.8864582E+04;
  1.6000000E-01;  9.9999998E-03; -3.4000000E-01;2311;  0.0000000E+00;  0.0000000E+00;  0.0000000E+00;  1.0063441E+03;  1.0000000E-01;  5.2559502E+03;0;  0.0000000E+00;  0.0000000E+00;  0.0000000E+00;0; -3.7621893E-02;  4.0000000E+04;  0.0000000E+00;  0.0000000E+00;  4.0000000E+04;  0.0000000E+00;  4.0000000E+04; -3.1796426E-02;  0.0000000E+00; -5.8254655E-03;  5.5424918E+04;
  1.6000000E-01;  9.9999998E-03; -3.3000001E-01;2312;  0.0000000E+00;  0.0000000E+00;  0.0000000E+00;  1.0079005E+03;  1.0000000E-01;  6.5453950E+03;0;  0.0000000E+00;  0.0000000E+00;  0.0000000E+00;0; -4.4918612E-02;  4.0000000E+04;  0.0000000E+00;  0.0000000E+00;  4.0000000E+04;  0.0000000E+00;  4.0000000E+04; -3.9090924E-02;  0.0000000E+00; -5.8276867E-03;  7.1242727E+04;
  1.6000000E-01;  9.9999998E-03; -3.1999999E-01;2313;  0.0000000E+00;  0.0000000E+00;  0.0000000E+00;  1.0094687E+03;  1.0000000E-01;  7.8446177E+03;0;  0.0000000E+00;  0.0000000E+00;  0.0000000E+00;0; -5.1614106E-02;  4.0000000E+04;  0.0000000E+00;  0.0000000E+00;  4.0000000E+04;  0.0000000E+00;  4.0000000E+04; -4.6239741E-02;  0.0000000E+00; -5.3743632E-03;  8.3641117E+04;
  1.6000000E-01;  9.9999998E-03; -3.1000000E-01;2314;  0.0000000E+00;  0.0000000E+00;  0.0000000E+00;  1.0109493E+03;  1.0000000E-01;  9.0713486E+03;0;  0.0000000E+00;  0.0000000E+00;  0.0000000E+00;0; -5.7083279E-02;  4.0000000E+04;  0.0000000E+00;  0.0000000E+00;  4.0000000E+04;  0.0000000E+00;  4.0000000E+04; -5.2746505E-02;  0.0000000E+00; -4.3367725E-03;  9.0006539E+04;
  1.7000000E-01;  9.9999998E-03; -4.4000000E-01;2331;  0.0000000E+00;  0.0000000E+00;  0.0000000E+00;  1.0000000E+03;  1.0000000E-01;  0.0000000E+00;0;  0.0000000E+00;  0.0000000E+00;  0.0000000E+00;0; -2.8105362E-04;  4.0000000E+04;  0.0000000E+00;  0.0000000E+00;  4.0000000E+04;  0.0000000E+00;  4.0000000E+04; -1.5782290E-04;  0.0000000E+00; -1.2323073E-04;  3.1477888E+03;
  1.7000000E-01;  9.9999998E-03; -4.3000001E-01;2332;  0.0000000E+00;  0.0000000E+00;  0.0000000E+00;  1.0000748E+03;  1.0000000E-01;  6.2022938E+01;0;  0.0000000E+00;  0.0000000E+00;  0.0000000E+00;0; -8.2274817E-04;  4.0000000E+04;  0.0000000E+00;  0.0000000E+00;  4.0000000E+04;  0.0000000E+00;  4.0000000E+04; -4.8128149E-04;  0.0000000E+00; -3.4146666E-04;  6.7795630E+03;
  1.7000000E-01;  9.9999998E-03; -4.1999999E-01;2333;  0.0000000E+00;  0.0000000E+00;  0.0000000E+00;  1.0001870E+03;  1.0000000E-01;  1.5495859E+02;0;  0.0000000E+00;  0.0000000E+00;  0.0000000E+00;0; -1.8407070E-03;  4.0000000E+04;  0.0000000E+00;  0.0000000E+00;  4.0000000E+04;  0.0000000E+00;  4.0000000E+04; -1.1197088E-03;  0.0000000E+00; -7.2099827E-04;  1.0743751E+04;
  1.7000000E-01;  9.9999998E-03; -4.1000000E-01;2334;  0.0000000E+00;  0.0000000E+00;  0.0000000E+00;  1.0003839E+03;  1.0000000E-01;  3.1801569E+02;0;  0.0000000E+00;  0.0000000E+00;  0.0000000E+00;0; -3.4785662E-03;  4.0000000E+04;  0.0000000E+00;  0.0000000E+00;  4.0000000E+04;  0.0000000E+00;  4.0000000E+04; -2.2164178E-03;  0.0000000E+00; -1.2621483E-03;  1.3440668E+04;
  1.7000000E-01;  9.9999998E-03; -4.0000001E-01;2335;  0.0000000E+00;  0.0000000E+00;  0.0000000E+00;  1.0007094E+03;  1.0000000E-01;  5.8773645E+02;0;  0.0000000E+00;  0.0000000E+00;  0.0000000E+00;0; -5.8742175E-03;  4.0000000E+04;  0.0000000E+00;  0.0000000E+00;  4.0000000E+04;  0.0000000E+00;  4.0000000E+04; -3.9408347E-03;  0.0000000E+00; -1.9333829E-03;  1.3392317E+04;
  1.7000000E-01;  9.9999998E-03; -3.8999999E-01;2336;  0.0000000E+00;  0.0000000E+00;  0.0000000E+00;  1.0012049E+03;  1.0000000E-01;  9.9819397E+02;0;  0.0000000E+00;  0.0000000E+00;  0.0000000E+00;0; -9.1630416E-03;  4.0000000E+04;  0.0000000E+00;  0.0000000E+00;  4.0000000E+04;  0.0000000E+00;  4.0000000E+04; -6.4749601E-03;  0.0000000E+00; -2.6880812E-03;  9.7674395E+03;
  1.7000000E-01;  9.9999998E-03; -3.8000000E-01;2337;  0.0000000E+00;  0.0000000E+00;  0.0000000E+00;  1.0018985E+03;  1.0000000E-01;  1.5728938E+03;0;  0.0000000E+00;  0.0000000E+00;  0.0000000E+00;0; -1.3460141E-02;  4.0000000E+04;  0.0000000E+00;  0.0000000E+00;  4.0000000E+04;  0.0000000E+00;  4.0000000E+04; -9.9833552E-03;  0.0000000E+00; -3.4767857E-03;  5.4071709E+03;
  1.7000000E-01;  9.9999998E-03; -3.7000000E-01;2338;  0.0000000E+00;  0.0000000E+00;  0.0000000E+00;  1.0028266E+03;  1.0000000E-01;  2.3417610E+03;0;  0.0000000E+00;  0.0000000E+00;  0.0000000E+00;0; -1.8821450E-02;  4.0000000E+04;  0.0000000E+00;  0.0000000E+00;  4.0000000E+04;  0.0000000E+00;  4.0000000E+04; -1.4571463E-02;  0.0000000E+00; -4.2499877E-03;  1.5184469E+04;
  1.7000000E-01;  9.9999998E-03; -3.6000001E-01;2339;  0.0000000E+00;  0.0000000E+00;  0.0000000E+00;  1.0039957E+03;  1.0000000E-01;  3.3103262E+03;0;  0.0000000E+00;  0.0000000E+00;  0.0000000E+00;0; -2.5194112E-02;  4.0000000E+04;  0.0000000E+00;  0.0000000E+00;  4.0000000E+04;  0.0000000E+00;  4.0000000E+04; -2.0239873E-02;  0.0000000E+00; -4.9542389E-03;  3.2665738E+04;
  1.7000000E-01;  9.9999998E-03; -3.4999999E-01;2340;  0.0000000E+00;  0.0000000E+00;  0.0000000E+00;  1.0053857E+03;  1.0000000E-01;  4.4618984E+03;0;  0.0000000E+00;  0.0000000E+00;  0.0000000E+00;0; -3.2372575E-02;  4.0000000E+04;  0.0000000E+00;  0.0000000E+00;  4.0000000E+04;  0.0000000E+00;  4.0000000E+04; -2.6847266E-02;  0.0000000E+00; -5.5253087E-03;  5.3794645E+04;
  1.7000000E-01;  9.9999998E-03; -3.4000000E-01;2341;  0.0000000E+00;  0.0000000E+00;  0.0000000E+00;  1.0069495E+03;  1.0000000E-01;  5.7575654E+03;0;  0.0000000E+00;  0.0000000E+00;  0.0000000E+00;0; -3.9977293E-02;  4.0000000E+04;  0.0000000E+00;  0.0000000E+00;  4.0000000E+04;  0.0000000E+00;  4.0000000E+04; -3.4096077E-02;  0.0000000E+00; -5.8812168E-03;  7.6219547E+04;
  1.7000000E-01;  9.9999998E-03; -3.3000001E-01;2342;  0.0000000E+00;  0.0000000E+00;  0.0000000E+00;  1.0085983E+03;  1.0000000E-01;  7.1235518E+03;0;  0.0000000E+00;  0.0000000E+00;  0.0000000E+00;0; -4.7468551E-02;  4.0000000E+04;  0.0000000E+00;  0.0000000E+00;  4.0000000E+04;  0.0000000E+00;  4.0000000E+04; -4.1550551E-02;  0.0000000E+00; -5.9179990E-03;  9.6832148E+04;
  1.7000000E-01;  9.9999998E-03; -3.1999999E-01;2343;  0.0000000E+00;  0.0000000E+00;  0.0000000E+00;  1.0102299E+03;  1.0000000E-01;  8.4752168E+03;0;  0.0000000E+00;  0.0000000E+00;  0.0000000E+00;0; -5.4199431E-02;  4.0000000E+04;  0.0000000E+00;  0.0000000E+00;  4.0000000E+04;  0.0000000E+00;  4.0000000E+04; -4.8687503E-02;  0.0000000E+00; -5.5119270E-03;  1.1194208E+05;
  1.7000000E-01;  9.9999998E-03; -3.1000000E-01;2344;  0.0000000E+00;  0.0000000E+00;  0.0000000E+00;  1.0117308E+03;  1.0000000E-01;  9.7187373E+03;0;  0.0000000E+00;  0.0000000E+00;  0.0000000E+00;0; -5.9504285E-02;  4.0000000E+04;  0.0000000E+00;  0.0000000E+00;  4.0000000E+04;  0.0000000E+00;  4.0000000E+04; -5.4970335E-02;  0.0000000E+00; -4.5339488E-03;  1.1812314E+05;
  1.8000001E-01;  9.9999998E-03; -4.4000000E-01;2361;  0.0000000E+00;  0.0000000E+00;  0.0000000E+00;  1.0000000E+03;  1.0000000E-01;  0.0000000E+00;0;  0.0000000E+00;  0.0000000E+00;  0.0000000E+00;0; -3.1359671E-04;  4.0000000E+04;  0.0000000E+00;  0.0000000E+00;  4.0000000E+04;  0.0000000E+00;  4.0000000E+04; -2.0016778E-04;  0.0000000E+00; -1.1342893E-04;  5.1910679E+03;
  1.8000001E-01;  9.9999998E-03; -4.3000001E-01;2362;  0.0000000E+00;  0.0000000E+00;  0.0000000E+00;  1.0000763E+03;  1.0000000E-01;  6.3208088E+01;0;  0.0000000E+00;  0.0000000E+00;  0.0000000E+00;0; -9.0448017E-04;  4.0000000E+04;  0.0000000E+00;  0.0000000E+00;  4.0000000E+04;  0.0000000E+00;  4.0000000E+04; -5.7192921E-04;  0.0000000E+00; -3.3255096E-04;  1.0689340E+04;
  1.8000001E-01;  9.9999998E-03; -4.1999999E-01;2363;  0.0000000E+00;  0.0000000E+00;  0.0000000E+00;  1.0002043E+03;  1.0000000E-01;  1.6927916E+02;0;  0.0000000E+00;  0.0000000E+00;  0.0000000E+00;0; -1.9903725E-03;  4.0000000E+04;  0.0000000E+00;  0.0000000E+00;  4.0000000E+04;  0.0000000E+00;  4.0000000E+04; -1.2722932E-03;  0.0000000E+00; -7.1807933E-04;  1.6316878E+04;
  1.8000001E-01;  9.9999998E-03; -4.1000000E-01;2364;  0.0000000E+00;  0.0000000E+00;  0.0000000E+00;  1.0004348E+03;  1.0000000E-01;  3.6018735E+02;0;  0.0000000E+00;  0.0000000E+00;  0.0000000E+00;0; -3.7111333E-03;  4.0000000E+04;  0.0000000E+00;  0.0000000E+00;  4.0000000E+04;  0.0000000E+00;  4.0000000E+04; -2.4430959E-03;  0.0000000E+00; -1.2680374E-03;  1.9777816E+04;
  1.8000001E-01;  9.9999998E-03; -4.0000001E-01;2365;  0.0000000E+00;  0.0000000E+00;  0.0000000E+00;  1.0007869E+03;  1.0000000E-01;  6.5193219E+02;0;  0.0000000E+00;  0.0000000E+00;  0.0000000E+00;0; -6.2052757E-03;  4.0000000E+04;  0.0000000E+00;  0.0000000E+00;  4.0000000E+04;  0.0000000E+00;  4.0000000E+04; -4.2564152E-03;  0.0000000E+00; -1.9488602E-03;  1.9138730E+04;
  1.8000001E-01;  9.9999998E-03; -3.8999999E-01;2366;  0.0000000E+00;  0.0000000E+00;  0.0000000E+00;  1.0013319E+03;  1.0000000E-01;  1.1034750E+03;0;  0.0000000E+00;  0.0000000E+00;  0.0000000E+00;0; -9.6110413E-03;  4.0000000E+04;  0.0000000E+00;  0.0000000E+00;  4.0000000E+04;  0.0000000E+00;  4.0000000E+04; -6.8974779E-03;  0.0000000E+00; -2.7135632E-03;  1.3287015E+04;
  1.8000001E-01;  9.9999998E-03; -3.8000000E-01;2367;  0.0000000E+00;  0.0000000E+00;  0.0000000E+00;  1.0020925E+03;  1.0000000E-01;  1.7335806E+03;0;  0.0000000E+00;  0.0000000E+00;  0.0000000E+00;0; -1.4044424E-02;  4.0000000E+04;  0.0000000E+00;  0.0000000E+00;  4.0000000E+04;  0.0000000E+00;  4.0000000E+04; -1.0530715E-02;  0.0000000E+00; -3.5137089E-03;  4.9950537E+03;
  1.8000001E-01;  9.9999998E-03; -3.7000000E-01;2368;  0.0000000E+00;  0.0000000E+00;  0.0000000E+00;  1.0031013E+03;  1.0000000E-01;  2.5694087E+03;0;  0.0000000E+00;  0.0000000E+00;  0.0000000E+00;0; -1.9556563E-02;  4.0000000E+04;  0.0000000E+00;  0.0000000E+00;  4.0000000E+04;  0.0000000E+00;  4.0000000E+04; -1.5255021E-02;  0.0000000E+00; -4.3015429E-03;  1.9088523E+04;
  1.8000001E-01;  9.9999998E-03; -3.6000001E-01;2369;  0.0000000E+00;  0.0000000E+00;  0.0000000E+00;  1.0043660E+03;  1.0000000E-01;  3.6170830E+03;0;  0.0000000E+00;  0.0000000E+00;  0.0000000E+00;0; -2.6081884E-02;  4.0000000E+04;  0.0000000E+00;  0.0000000E+00;  4.0000000E+04;  0.0000000E+00;  4.0000000E+04; -2.1056233E-02;  0.0000000E+00; -5.0256518E-03;  4.2632441E+04;
  1.8000001E-01;  9.9999998E-03; -3.4999999E-01;2370;  0.0000000E+00;  0.0000000E+00;  0.0000000E+00;  1.0058627E+03;  1.0000000E-01;  4.8571465E+03;0;  0.0000000E+00;  0.0000000E+00;  0.0000000E+00;0; -3.3393569E-02;  4.0000000E+04;  0.0000000E+00;  0.0000000E+00;  4.0000000E+04;  0.0000000E+00;  4.0000000E+04; -2.7769698E-02;  0.0000000E+00; -5.6238724E-03;  7.0248484E+04;
  1.8000001E-01;  9.9999998E-03; -3.4000000E-01;2371;  0.0000000E+00;  0.0000000E+00;  0.0000000E+00;  1.0075282E+03;  1.0000000E-01;  6.2369595E+03;0;  0.0000000E+00;  0.0000000E+00;  0.0000000E+00;0; -4.1083597E-02;  4.0000000E+04;  0.0000000E+00;  0.0000000E+00;  4.0000000E+04;  0.0000000E+00;  4.0000000E+04; -3.5067398E-02;  0.0000000E+00; -6.0161985E-03;  9.8894742E+04;
  1.8000001E-01;  9.9999998E-03; -3.3000001E-01;2372;  0.0000000E+00;  0.0000000E+00;  0.0000000E+00;  1.0092661E+03;  1.0000000E-01;  7.6768198E+03;0;  0.0000000E+00;  0.0000000E+00;  0.0000000E+00;0; -4.8580796E-02;  4.0000000E+04;  0.0000000E+00;  0.0000000E+00;  4.0000000E+04;  0.0000000E+00;  4.0000000E+04; -4.2480011E-02;  0.0000000E+00; -6.1007836E-03;  1.2447790E+05;
  1.8000001E-01;  9.9999998E-03; -3.1999999E-01;2373;  0.0000000E+00;  0.0000000E+00;  0.0000000E+00;  1.0109562E+03;  1.0000000E-01;  9.0770762E+03;0;  0.0000000E+00;  0.0000000E+00;  0.0000000E+00;0; -5.5209558E-02;  4.0000000E+04;  0.0000000E+00;  0.0000000E+00;  4.0000000E+04;  0.0000000E+00;  4.0000000E+04; -4.9452059E-02;  0.0000000E+00; -5.7574995E-03;  1.4219577E+05;
  1.8000001E-01;  9.9999998E-03; -3.1000000E-01;2374;  0.0000000E+00;  0.0000000E+00;  0.0000000E+00;  1.0124763E+03;  1.0000000E-01;  1.0336300E+04;0;  0.0000000E+00;  0.0000000E+00;  0.0000000E+00;0; -6.0284726E-02;  4.0000000E+04;  0.0000000E+00;  0.0000000E+00;  4.0000000E+04;  0.0000000E+00;  4.0000000E+04; -5.5419717E-02;  0.0000000E+00; -4.8650093E-03;  1.4769606E+05;
  1.9000000E-01;  9.9999998E-03; -4.4000000E-01;2391;  0.0000000E+00;  0.0000000E+00;  0.0000000E+00;  1.0000082E+03;  1.0000000E-01;  6.8146219E+00;0;  0.0000000E+00;  0.0000000E+00;  0.0000000E+00;0; -3.3569685E-04;  4.0000000E+04;  0.0000000E+00;  0.0000000E+00;  4.0000000E+04;  0.0000000E+00;  4.0000000E+04; -2.2989239E-04;  0.0000000E+00; -1.0580446E-04;  7.9963672E+03;
  1.9000000E-01;  9.9999998E-03; -4.3000001E-01;2392;  0.0000000E+00;  0.0000000E+00;  0.0000000E+00;  1.0000951E+03;  1.0000000E-01;  7.8812584E+01;0;  0.0000000E+00;  0.0000000E+00;  0.0000000E+00;0; -9.5490349E-04;  4.0000000E+04;  0.0000000E+00;  0.0000000E+00;  4.0000000E+04;  0.0000000E+00;  4.0000000E+04; -6.2230055E-04;  0.0000000E+00; -3.3260294E-04;  1.5755433E+04;
  1.9000000E-01;  9.9999998E-03; -4.1999999E-01;2393;  0.0000000E+00;  0.0000000E+00;  0.0000000E+00;  1.0002411E+03;  1.0000000E-01;  1.9969806E+02;0;  0.0000000E+00;  0.0000000E+00;  0.0000000E+00;0; -2.0681722E-03;  4.0000000E+04;  0.0000000E+00;  0.0000000E+00;  4.0000000E+04;  0.0000000E+00;  4.0000000E+04; -1.3344469E-03;  0.0000000E+00; -7.3372526E-04;  2.3176945E+04;
  1.9000000E-01;  9.9999998E-03; -4.1000000E-01;2394;  0.0000000E+00;  0.0000000E+00;  0.0000000E+00;  1.0004870E+03;  1.0000000E-01;  4.0344537E+02;0;  0.0000000E+00;  0.0000000E+00;  0.0000000E+00;0; -3.8040476E-03;  4.0000000E+04;  0.0000000E+00;  0.0000000E+00;  4.0000000E+04;  0.0000000E+00;  4.0000000E+04; -2.5011881E-03;  0.0000000E+00; -1.3028596E-03;  2.7262699E+04;
  1.9000000E-01;  9.9999998E-03; -4.0000001E-01;2395;  0.0000000E+00;  0.0000000E+00;  0.0000000E+00;  1.0008754E+03;  1.0000000E-01;  7.2531281E+02;0;  0.0000000E+00;  0.0000000E+00;  0.0000000E+00;0; -6.2922155E-03;  4.0000000E+04;  0.0000000E+00;  0.0000000E+00;  4.0000000E+04;  0.0000000E+00;  4.0000000E+04; -4.2892518E-03;  0.0000000E+00; -2.0029636E-03;  2.5758270E+04;
  1.9000000E-01;  9.9999998E-03; -3.8999999E-01;2396;  0.0000000E+00;  0.0000000E+00;  0.0000000E+00;  1.0014568E+03;  1.0000000E-01;  1.2068794E+03;0;  0.0000000E+00;  0.0000000E+00;  0.0000000E+00;0; -9.6640587E-03;  4.0000000E+04;  0.0000000E+00;  0.0000000E+00;  4.0000000E+04;  0.0000000E+00;  4.0000000E+04; -6.8778056E-03;  0.0000000E+00; -2.7862536E-03;  1.7450842E+04;
  1.9000000E-01;  9.9999998E-03; -3.8000000E-01;2397;  0.0000000E+00;  0.0000000E+00;  0.0000000E+00;  1.0022766E+03;  1.0000000E-01;  1.8861688E+03;0;  0.0000000E+00;  0.0000000E+00;  0.0000000E+00;0; -1.4029747E-02;  4.0000000E+04;  0.0000000E+00;  0.0000000E+00;  4.0000000E+04;  0.0000000E+00;  4.0000000E+04; -1.0424053E-02;  0.0000000E+00; -3.6056938E-03;  4.5274326E+03;
  1.9000000E-01;  9.9999998E-03; -3.7000000E-01;2398;  0.0000000E+00;  0.0000000E+00;  0.0000000E+00;  1.0033520E+03;  1.0000000E-01;  2.7771067E+03;0;  0.0000000E+00;  0.0000000E+00;  0.0000000E+00;0; -1.9435233E-02;  4.0000000E+04;  0.0000000E+00;  0.0000000E+00;  4.0000000E+04;  0.0000000E+00;  4.0000000E+04; -1.5019099E-02;  0.0000000E+00; -4.4161337E-03;  2.2852137E+04;
  1.9000000E-01;  9.9999998E-03; -3.6000001E-01;2399;  0.0000000E+00;  0.0000000E+00;  0.0000000E+00;  1.0046956E+03;  1.0000000E-01;  3.8902603E+03;0;  0.0000000E+00;  0.0000000E+00;  0.0000000E+00;0; -2.5811221E-02;  4.0000000E+04;  0.0000000E+00;  0.0000000E+00;  4.0000000E+04;  0.0000000E+00;  4.0000000E+04; -2.0641880E-02;  0.0000000E+00; -5.1693409E-03;  5.2234836E+04;
  1.9000000E-01;  9.9999998E-03; -3.4999999E-01;2400;  0.0000000E+00;  0.0000000E+00;  0.0000000E+00;  1.0062795E+03;  1.0000000E-01;  5.2025195E+03;0;  0.0000000E+00;  0.0000000E+00;  0.0000000E+00;0; -3.2928940E-02;  4.0000000E+04;  0.0000000E+00;  0.0000000E+00;  4.0000000E+04;  0.0000000E+00;  4.0000000E+04; -2.7122630E-02;  0.0000000E+00; -5.8063092E-03;  8.5988117E+04;
  1.9000000E-01;  9.9999998E-03; -3.4000000E-01;2401;  0.0000000E+00;  0.0000000E+00;  0.0000000E+00;  1.0080336E+03;  1.0000000E-01;  6.6556143E+03;0;  0.0000000E+00;  0.0000000E+00;  0.0000000E+00;0; -4.0381081E-02;  4.0000000E+04;  0.0000000E+00;  0.0000000E+00;  4.0000000E+04;  0.0000000E+00;  4.0000000E+04; -3.4131374E-02;  0.0000000E+00; -6.2497053E-03;  1.2045161E+05;
  1.9000000E-01;  9.9999998E-03; -3.3000001E-01;2402;  0.0000000E+00;  0.0000000E+00;  0.0000000E+00;  1.0098464E+03;  1.0000000E-01;  8.1575967E+03;0;  0.0000000E+00;  0.0000000E+00;  0.0000000E+00;0; -4.7598578E-02;  4.0000000E+04;  0.0000000E+00;  0.0000000E+00;  4.0000000E+04;  0.0000000E+00;  4.0000000E+04; -4.1199066E-02;  0.0000000E+00; -6.3995104E-03;  1.5064727E+05;
  1.9000000E-01;  9.9999998E-03; -3.1999999E-01;2403;  0.0000000E+00;  0.0000000E+00;  0.0000000E+00;  1.0115903E+03;  1.0000000E-01;  9.6022959E+03;0;  0.0000000E+00;  0.0000000E+00;  0.0000000E+00;0; -5.3910043E-02;  4.0000000E+04;  0.0000000E+00;  0.0000000E+00;  4.0000000E+04;  0.0000000E+00;  4.0000000E+04; -4.7771651E-02;  0.0000000E+00; -6.1383932E-03;  1.7072388E+05;
  1.9000000E-01;  9.9999998E-03; -3.1000000E-01;2404;  0.0000000E+00;  0.0000000E+00;  0.0000000E+00;  1.0131262E+03;  1.0000000E-01;  1.0874853E+04;0;  0.0000000E+00;  0.0000000E+00;  0.0000000E+00;0; -5.8639813E-02;  4.0000000E+04;  0.0000000E+00;  0.0000000E+00;  4.0000000E+04;  0.0000000E+00;  4.0000000E+04; -5.3284407E-02;  0.0000000E+00; -5.3554052E-03;  1.7536039E+05;
  2.0000000E-01;  9.9999998E-03; -4.4000000E-01;2420;  0.0000000E+00;  0.0000000E+00;  0.0000000E+00;  1.0000304E+03;  1.0000000E-01;  2.5184473E+01;0;  0.0000000E+00;  0.0000000E+00;  0.0000000E+00;0; -3.3997558E-04;  4.0000000E+04;  0.0000000E+00;  0.0000000E+00;  4.0000000E+04;  0.0000000E+00;  4.0000000E+04; -2.3587431E-04;  0.0000000E+00; -1.0410126E-04;  1.1464471E+04;
  2.0000000E-01;  9.9999998E-03; -4.3000001E-01;2421;  0.0000000E+00;  0.0000000E+00;  0.0000000E+00;  1.0001170E+03;  1.0000000E-01;  9.6984909E+01;0;  0.0000000E+00;  0.0000000E+00;  0.0000000E+00;0; -9.6202409E-04;  4.0000000E+04;  0.0000000E+00;  0.0000000E+00;  4.0000000E+04;  0.0000000E+00;  4.0000000E+04; -6.1469740E-04;  0.0000000E+00; -3.4732666E-04;  2.1680080E+04;
  2.0000000E-01;  9.9999998E-03; -4.1999999E-01;2422;  0.0000000E+00;  0.0000000E+00;  0.0000000E+00;  1.0002797E+03;  1.0000000E-01;  2.3169714E+02;0;  0.0000000E+00;  0.0000000E+00;  0.0000000E+00;0; -2.0601554E-03;  4.0000000E+04;  0.0000000E+00;  0.0000000E+00;  4.0000000E+04;  0.0000000E+00;  4.0000000E+04; -1.2845980E-03;  0.0000000E+00; -7.7555736E-04;  3.0790346E+04;
  2.0000000E-01;  9.9999998E-03; -4.1000000E-01;2423;  0.0000000E+00;  0.0000000E+00;  0.0000000E+00;  1.0005485E+03;  1.0000000E-01;  4.5440689E+02;0;  0.0000000E+00;  0.0000000E+00;  0.0000000E+00;0; -3.7421780E-03;  4.0000000E+04;  0.0000000E+00;  0.0000000E+00;  4.0000000E+04;  0.0000000E+00;  4.0000000E+04; -2.3663889E-03;  0.0000000E+00; -1.3757889E-03;  3.5202996E+04;
  2.0000000E-01;  9.9999998E-03; -4.0000001E-01;2424;  0.0000000E+00;  0.0000000E+00;  0.0000000E+00;  1.0009764E+03;  1.0000000E-01;  8.0896478E+02;0;  0.0000000E+00;  0.0000000E+00;  0.0000000E+00;0; -6.1164661E-03;  4.0000000E+04;  0.0000000E+00;  0.0000000E+00;  4.0000000E+04;  0.0000000E+00;  4.0000000E+04; -4.0107314E-03;  0.0000000E+00; -2.1057348E-03;  3.2556629E+04;
  2.0000000E-01;  9.9999998E-03; -3.8999999E-01;2425;  0.0000000E+00;  0.0000000E+00;  0.0000000E+00;  1.0015926E+03;  1.0000000E-01;  1.3194689E+03;0;  0.0000000E+00;  0.0000000E+00;  0.0000000E+00;0; -9.2953965E-03;  4.0000000E+04;  0.0000000E+00;  0.0000000E+00;  4.0000000E+04;  0.0000000E+00;  4.0000000E+04; -6.3791284E-03;  0.0000000E+00; -2.9162681E-03;  2.1754295E+04;
  2.0000000E-01;  9.9999998E-03; -3.8000000E-01;2426;  0.0000000E+00;  0.0000000E+00;  0.0000000E+00;  1.0024481E+03;  1.0000000E-01;  2.0281896E+03;0;  0.0000000E+00;  0.0000000E+00;  0.0000000E+00;0; -1.3373896E-02;  4.0000000E+04;  0.0000000E+00;  0.0000000E+00;  4.0000000E+04;  0.0000000E+00;  4.0000000E+04; -9.6116420E-03;  0.0000000E+00; -3.7622538E-03;  4.2215029E+03;
  2.0000000E-01;  9.9999998E-03; -3.7000000E-01;2427;  0.0000000E+00;  0.0000000E+00;  0.0000000E+00;  1.0035817E+03;  1.0000000E-01;  2.9674224E+03;0;  0.0000000E+00;  0.0000000E+00;  0.0000000E+00;0; -1.8389370E-02;  4.0000000E+04;  0.0000000E+00;  0.0000000E+00;  4.0000000E+04;  0.0000000E+00;  4.0000000E+04; -1.3786863E-02;  0.0000000E+00; -4.6025077E-03;  2.5807396E+04;
  2.0000000E-01;  9.9999998E-03; -3.6000001E-01;2428;  0.0000000E+00;  0.0000000E+00;  0.0000000E+00;  1.0049836E+03;  1.0000000E-01;  4.1288711E+03;0;  0.0000000E+00;  0.0000000E+00;  0.0000000E+00;0; -2.4274431E-02;  4.0000000E+04;  0.0000000E+00;  0.0000000E+00;  4.0000000E+04;  0.0000000E+00;  4.0000000E+04; -1.8880561E-02;  0.0000000E+00; -5.3938711E-03;  5.9993730E+04;
  2.0000000E-01;  9.9999998E-03; -3.4999999E-01;2429;  0.0000000E+00;  0.0000000E+00;  0.0000000E+00;  1.0066346E+03;  1.0000000E-01;  5.4966348E+03;0;  0.0000000E+00;  0.0000000E+00;  0.0000000E+00;0; -3.0816494E-02;  4.0000000E+04;  0.0000000E+00;  0.0000000E+00;  4.0000000E+04;  0.0000000E+00;  4.0000000E+04; -2.4733644E-02;  0.0000000E+00; -6.0828496E-03;  9.8607148E+04;
  2.0000000E-01;  9.9999998E-03; -3.4000000E-01;2430;  0.0000000E+00;  0.0000000E+00;  0.0000000E+00;  1.0084529E+03;  1.0000000E-01;  7.0030610E+03;0;  0.0000000E+00;  0.0000000E+00;  0.0000000E+00;0; -3.7639059E-02;  4.0000000E+04;  0.0000000E+00;  0.0000000E+00;  4.0000000E+04;  0.0000000E+00;  4.0000000E+04; -3.1041926E-02;  0.0000000E+00; -6.5971315E-03;  1.3755780E+05;
  2.0000000E-01;  9.9999998E-03; -3.3000001E-01;2431;  0.0000000E+00;  0.0000000E+00;  0.0000000E+00;  1.0103259E+03;  1.0000000E-01;  8.5548193E+03;0;  0.0000000E+00;  0.0000000E+00;  0.0000000E+00;0; -4.4215161E-02;  4.0000000E+04;  0.0000000E+00;  0.0000000E+00;  4.0000000E+04;  0.0000000E+00;  4.0000000E+04; -3.7374716E-02;  0.0000000E+00; -6.8404451E-03;  1.7125005E+05;
  2.0000000E-01;  9.9999998E-03; -3.1999999E-01;2432;  0.0000000E+00;  0.0000000E+00;  0.0000000E+00;  1.0121075E+03;  1.0000000E-01;  1.0030827E+04;0;  0.0000000E+00;  0.0000000E+00;  0.0000000E+00;0; -4.9919140E-02;  4.0000000E+04;  0.0000000E+00;  0.0000000E+00;  4.0000000E+04;  0.0000000E+00;  4.0000000E+04; -4.3221571E-02;  0.0000000E+00; -6.6975686E-03;  1.9307123E+05;
  2.0000000E-01;  9.9999998E-03; -3.1000000E-01;2433;  0.0000000E+00;  0.0000000E+00;  0.0000000E+00;  1.0136560E+03;  1.0000000E-01;  1.1313754E+04;0;  0.0000000E+00;  0.0000000E+00;  0.0000000E+00;0; -5.4119401E-02;  4.0000000E+04;  0.0000000E+00;  0.0000000E+00;  4.0000000E+04;  0.0000000E+00;  4.0000000E+04; -4.8058033E-02;  0.0000000E+00; -6.0613668E-03;  1.9692198E+05;
 -1.9000000E-01;  9.9999998E-03; -2.7000001E-01;107;  0.0000000E+00;  0.0000000E+00;  0.0000000E+00;  1.0000000E+03;  1.0000000E-01;  0.0000000E+00;0;  0.0000000E+00;  0.0000000E+00;  0.0000000E+00;0;  0.0000000E+00;  4.0000000E+04;  0.0000000E+00;  0.0000000E+00;  4.0000000E+04;  0.0000000E+00;  4.0000000E+04;  0.0000000E+00;  0.0000000E+00;  0.0000000E+00;  0.0000000E+00;
 -1.9000000E-01;  9.9999998E-03; -2.5999999E-01;108;  0.0000000E+00;  0.0000000E+00;  0.0000000E+00;  1.0000000E+03;  1.0000000E-01;  0.0000000E+00;0;  0.0000000E+00;  0.0000000E+00;  0.0000000E+00;0;  0.0000000E+00;  4.0000000E+04;  0.0000000E+00;  0.0000000E+00;  4.0000000E+04;  0.0000000E+00;  4.0000000E+04;  0.0000000E+00;  0.0000000E+00;  0.0000000E+00;  0.0000000E+00;
 -1.9000000E-01;  9.9999998E-03; -2.5000000E-01;109;  0.0000000E+00;  0.0000000E+00;  0.0000000E+00;  1.0000000E+03;  1.0000000E-01;  0.0000000E+00;0;  0.0000000E+00;  0.0000000E+00;  0.0000000E+00;0;  0.0000000E+00;  4.0000000E+04;  0.0000000E+00;  0.0000000E+00;  4.0000000E+04;  0.0000000E+00;  4.0000000E+04;  0.0000000E+00;  0.0000000E+00;  0.0000000E+00;  0.0000000E+00;
 -1.9000000E-01;  9.9999998E-03; -2.3999999E-01;110;  0.0000000E+00;  0.0000000E+00;  0.0000000E+00;  1.0000000E+03;  1.0000000E-01;  0.0000000E+00;0;  0.0000000E+00;  0.0000000E+00;  0.0000000E+00;0;  0.0000000E+00;  4.0000000E+04;  0.0000000E+00;  0.0000000E+00;  4.0000000E+04;  0.0000000E+00;  4.0000000E+04;  0.0000000E+00;  0.0000000E+00;  0.0000000E+00;  0.0000000E+00;
 -1.9000000E-01;  9.9999998E-03; -2.3000000E-01;111;  0.0000000E+00;  0.0000000E+00;  0.0000000E+00;  1.0000000E+03;  1.0000000E-01;  0.0000000E+00;0;  0.0000000E+00;  0.0000000E+00;  0.0000000E+00;0;  0.0000000E+00;  4.0000000E+04;  0.0000000E+00;  0.0000000E+00;  4.0000000E+04;  0.0000000E+00;  4.0000000E+04;  0.0000000E+00;  0.0000000E+00;  0.0000000E+00;  0.0000000E+00;
 -1.9000000E-01;  9.9999998E-03; -2.2000000E-01;112;  0.0000000E+00;  0.0000000E+00;  0.0000000E+00;  1.0000000E+03;  1.0000000E-01;  0.0000000E+00;0;  0.0000000E+00;  0.0000000E+00;  0.0000000E+00;0;  0.0000000E+00;  4.0000000E+04;  0.0000000E+00;  0.0000000E+00;  4.0000000E+04;  0.0000000E+00;  4.0000000E+04;  0.0000000E+00;  0.0000000E+00;  0.0000000E+00;  0.0000000E+00;
 -1.9000000E-01;  9.9999998E-03; -2.0999999E-01;113;  0.0000000E+00;  0.0000000E+00;  0.0000000E+00;  1.0000000E+03;  1.0000000E-01;  0.0000000E+00;0;  0.0000000E+00;  0.0000000E+00;  0.0000000E+00;0;  0.0000000E+00;  4.0000000E+04;  0.0000000E+00;  0.0000000E+00;  4.0000000E+04;  0.0000000E+00;  4.0000000E+04;  0.0000000E+00;  0.0000000E+00;  0.0000000E+00;  0.0000000E+00;
 -1.9000000E-01;  9.9999998E-03; -2.0000000E-01;114;  0.0000000E+00;  0.0000000E+00;  0.0000000E+00;  1.0000000E+03;  1.0000000E-01;  0.0000000E+00;0;  0.0000000E+00;  0.0000000E+00;  0.0000000E+00;0;  0.0000000E+00;  4.0000000E+04;  0.0000000E+00;  0.0000000E+00;  4.0000000E+04;  0.0000000E+00;  4.0000000E+04;  0.0000000E+00;  0.0000000E+00;  0.0000000E+00;  0.0000000E+00;
 -1.9000000E-01;  9.9999998E-03; -1.9000000E-01;115;  0.0000000E+00;  0.0000000E+00;  0.0000000E+00;  1.0000000E+03;  1.0000000E-01;  0.0000000E+00;0;  0.0000000E+00;  0.0000000E+00;  0.0000000E+00;0;  0.0000000E+00;  4.0000000E+04;  0.0000000E+00;  0.0000000E+00;  4.0000000E+04;  0.0000000E+00;  4.0000000E+04;  0.0000000E+00;  0.0000000E+00;  0.0000000E+00;  0.0000000E+00;
 -1.9000000E-01;  9.9999998E-03; -1.8000001E-01;116;  0.0000000E+00;  0.0000000E+00;  0.0000000E+00;  1.0000000E+03;  1.0000000E-01;  0.0000000E+00;0;  0.0000000E+00;  0.0000000E+00;  0.0000000E+00;0;  0.0000000E+00;  4.0000000E+04;  0.0000000E+00;  0.0000000E+00;  4.0000000E+04;  0.0000000E+00;  4.0000000E+04;  0.0000000E+00;  0.0000000E+00;  0.0000000E+00;  0.0000000E+00;
 -1.9000000E-01;  9.9999998E-03; -1.7000000E-01;117;  0.0000000E+00;  0.0000000E+00;  0.0000000E+00;  1.0000000E+03;  1.0000000E-01;  0.0000000E+00;0;  0.0000000E+00;  0.0000000E+00;  0.0000000E+00;0;  0.0000000E+00;  4.0000000E+04;  0.0000000E+00;  0.0000000E+00;  4.0000000E+04;  0.0000000E+00;  4.0000000E+04;  0.0000000E+00;  0.0000000E+00;  0.0000000E+00;  0.0000000E+00;
 -1.9000000E-01;  9.9999998E-03; -1.6000000E-01;118;  0.0000000E+00;  0.0000000E+00;  0.0000000E+00;  1.0000000E+03;  1.0000000E-01;  0.0000000E+00;0;  0.0000000E+00;  0.0000000E+00;  0.0000000E+00;0;  0.0000000E+00;  4.0000000E+04;  0.0000000E+00;  0.0000000E+00;  4.0000000E+04;  0.0000000E+00;  4.0000000E+04;  0.0000000E+00;  0.0000000E+00;  0.0000000E+00;  0.0000000E+00;
 -1.9000000E-01;  9.9999998E-03; -1.5000001E-01;119;  0.0000000E+00;  0.0000000E+00;  0.0000000E+00;  1.0000000E+03;  1.0000000E-01;  0.0000000E+00;0;  0.0000000E+00;  0.0000000E+00;  0.0000000E+00;0;  0.0000000E+00;  4.0000000E+04;  0.0000000E+00;  0.0000000E+00;  4.0000000E+04;  0.0000000E+00;  4.0000000E+04;  0.0000000E+00;  0.0000000E+00;  0.0000000E+00;  0.0000000E+00;
 -1.9000000E-01;  9.9999998E-03; -1.4000000E-01;120;  0.0000000E+00;  0.0000000E+00;  0.0000000E+00;  1.0000000E+03;  1.0000000E-01;  0.0000000E+00;0;  0.0000000E+00;  0.0000000E+00;  0.0000000E+00;0;  0.0000000E+00;  4.0000000E+04;  0.0000000E+00;  0.0000000E+00;  4.0000000E+04;  0.0000000E+00;  4.0000000E+04;  0.0000000E+00;  0.0000000E+00;  0.0000000E+00;  0.0000000E+00;
 -1.9000000E-01;  9.9999998E-03; -1.3000000E-01;121;  0.0000000E+00;  0.0000000E+00;  0.0000000E+00;  1.0000000E+03;  1.0000000E-01;  0.0000000E+00;0;  0.0000000E+00;  0.0000000E+00;  0.0000000E+00;0;  0.0000000E+00;  4.0000000E+04;  0.0000000E+00;  0.0000000E+00;  4.0000000E+04;  0.0000000E+00;  4.0000000E+04;  0.0000000E+00;  0.0000000E+00;  0.0000000E+00;  0.0000000E+00;
 -1.9000000E-01;  9.9999998E-03; -1.2000000E-01;122;  0.0000000E+00;  0.0000000E+00;  0.0000000E+00;  1.0000000E+03;  1.0000000E-01;  0.0000000E+00;0;  0.0000000E+00;  0.0000000E+00;  0.0000000E+00;0;  0.0000000E+00;  4.0000000E+04;  0.0000000E+00;  0.0000000E+00;  4.0000000E+04;  0.0000000E+00;  4.0000000E+04;  0.0000000E+00;  0.0000000E+00;  0.0000000E+00;  0.0000000E+00;
 -1.9000000E-01;  9.9999998E-03; -1.1000000E-01;123;  0.0000000E+00;  0.0000000E+00;  0.0000000E+00;  1.0000000E+03;  1.0000000E-01;  0.0000000E+00;0;  0.0000000E+00;  0.0000000E+00;  0.0000000E+00;0;  0.0000000E+00;  4.0000000E+04;  0.0000000E+00;  0.0000000E+00;  4.0000000E+04;  0.0000000E+00;  4.0000000E+04;  0.0000000E+00;  0.0000000E+00;  0.0000000E+00;  0.0000000E+00;
 -1.8000001E-01;  9.9999998E-03; -2.7000001E-01;198;  0.0000000E+00;  0.0000000E+00;  0.0000000E+00;  1.0000000E+03;  1.0000000E-01;  0.0000000E+00;0;  0.0000000E+00;  0.0000000E+00;  0.0000000E+00;0;  0.0000000E+00;  4.0000000E+04;  0.0000000E+00;  0.0000000E+00;  4.0000000E+04;  0.0000000E+00;  4.0000000E+04;  0.0000000E+00;  0.0000000E+00;  0.0000000E+00;  0.0000000E+00;
 -1.8000001E-01;  9.9999998E-03; -2.5999999E-01;199;  0.0000000E+00;  0.0000000E+00;  0.0000000E+00;  1.0000000E+03;  1.0000000E-01;  0.0000000E+00;0;  0.0000000E+00;  0.0000000E+00;  0.0000000E+00;0;  0.0000000E+00;  4.0000000E+04;  0.0000000E+00;  0.0000000E+00;  4.0000000E+04;  0.0000000E+00;  4.0000000E+04;  0.0000000E+00;  0.0000000E+00;  0.0000000E+00;  0.0000000E+00;
 -1.8000001E-01;  9.9999998E-03; -2.5000000E-01;200;  0.0000000E+00;  0.0000000E+00;  0.0000000E+00;  1.0000000E+03;  1.0000000E-01;  0.0000000E+00;0;  0.0000000E+00;  0.0000000E+00;  0.0000000E+00;0;  0.0000000E+00;  4.0000000E+04;  0.0000000E+00;  0.0000000E+00;  4.0000000E+04;  0.0000000E+00;  4.0000000E+04;  0.0000000E+00;  0.0000000E+00;  0.0000000E+00;  0.0000000E+00;
 -1.8000001E-01;  9.9999998E-03; -2.3999999E-01;201;  0.0000000E+00;  0.0000000E+00;  0.0000000E+00;  1.0000000E+03;  1.0000000E-01;  0.0000000E+00;0;  0.0000000E+00;  0.0000000E+00;  0.0000000E+00;0;  0.0000000E+00;  4.0000000E+04;  0.0000000E+00;  0.0000000E+00;  4.0000000E+04;  0.0000000E+00;  4.0000000E+04;  0.0000000E+00;  0.0000000E+00;  0.0000000E+00;  0.0000000E+00;
 -1.8000001E-01;  9.9999998E-03; -2.3000000E-01;202;  0.0000000E+00;  0.0000000E+00;  0.0000000E+00;  1.0000000E+03;  1.0000000E-01;  0.0000000E+00;0;  0.0000000E+00;  0.0000000E+00;  0.0000000E+00;0;  0.0000000E+00;  4.0000000E+04;  0.0000000E+00;  0.0000000E+00;  4.0000000E+04;  0.0000000E+00;  4.0000000E+04;  0.0000000E+00;  0.0000000E+00;  0.0000000E+00;  0.0000000E+00;
 -1.8000001E-01;  9.9999998E-03; -2.2000000E-01;203;  0.0000000E+00;  0.0000000E+00;  0.0000000E+00;  1.0000000E+03;  1.0000000E-01;  0.0000000E+00;0;  0.0000000E+00;  0.0000000E+00;  0.0000000E+00;0;  0.0000000E+00;  4.0000000E+04;  0.0000000E+00;  0.0000000E+00;  4.0000000E+04;  0.0000000E+00;  4.0000000E+04;  0.0000000E+00;  0.0000000E+00;  0.0000000E+00;  0.0000000E+00;
 -1.8000001E-01;  9.9999998E-03; -2.0999999E-01;204;  0.0000000E+00;  0.0000000E+00;  0.0000000E+00;  1.0000000E+03;  1.0000000E-01;  0.0000000E+00;0;  0.0000000E+00;  0.0000000E+00;  0.0000000E+00;0;  0.0000000E+00;  4.0000000E+04;  0.0000000E+00;  0.0000000E+00;  4.0000000E+04;  0.0000000E+00;  4.0000000E+04;  0.0000000E+00;  0.0000000E+00;  0.0000000E+00;  0.0000000E+00;
 -1.8000001E-01;  9.9999998E-03; -2.0000000E-01;205;  0.0000000E+00;  0.0000000E+00;  0.0000000E+00;  1.0000000E+03;  1.0000000E-01;  0.0000000E+00;0;  0.0000000E+00;  0.0000000E+00;  0.0000000E+00;0;  0.0000000E+00;  4.0000000E+04;  0.0000000E+00;  0.0000000E+00;  4.0000000E+04;  0.0000000E+00;  4.0000000E+04;  0.0000000E+00;  0.0000000E+00;  0.0000000E+00;  0.0000000E+00;
 -1.8000001E-01;  9.9999998E-03; -1.9000000E-01;206;  0.0000000E+00;  0.0000000E+00;  0.0000000E+00;  1.0000000E+03;  1.0000000E-01;  0.0000000E+00;0;  0.0000000E+00;  0.0000000E+00;  0.0000000E+00;0;  0.0000000E+00;  4.0000000E+04;  0.0000000E+00;  0.0000000E+00;  4.0000000E+04;  0.0000000E+00;  4.0000000E+04;  0.0000000E+00;  0.0000000E+00;  0.0000000E+00;  0.0000000E+00;
 -1.8000001E-01;  9.9999998E-03; -1.8000001E-01;207;  0.0000000E+00;  0.0000000E+00;  0.0000000E+00;  1.0000000E+03;  1.0000000E-01;  0.0000000E+00;0;  0.0000000E+00;  0.0000000E+00;  0.0000000E+00;0;  0.0000000E+00;  4.0000000E+04;  0.0000000E+00;  0.0000000E+00;  4.0000000E+04;  0.0000000E+00;  4.0000000E+04;  0.0000000E+00;  0.0000000E+00;  0.0000000E+00;  0.0000000E+00;
 -1.8000001E-01;  9.9999998E-03; -1.7000000E-01;208;  0.0000000E+00;  0.0000000E+00;  0.0000000E+00;  1.0000000E+03;  1.0000000E-01;  0.0000000E+00;0;  0.0000000E+00;  0.0000000E+00;  0.0000000E+00;0;  0.0000000E+00;  4.0000000E+04;  0.0000000E+00;  0.0000000E+00;  4.0000000E+04;  0.0000000E+00;  4.0000000E+04;  0.0000000E+00;  0.0000000E+00;  0.0000000E+00;  0.0000000E+00;
 -1.8000001E-01;  9.9999998E-03; -1.6000000E-01;209;  0.0000000E+00;  0.0000000E+00;  0.0000000E+00;  1.0000000E+03;  1.0000000E-01;  0.0000000E+00;0;  0.0000000E+00;  0.0000000E+00;  0.0000000E+00;0;  0.0000000E+00;  4.0000000E+04;  0.0000000E+00;  0.0000000E+00;  4.0000000E+04;  0.0000000E+00;  4.0000000E+04;  0.0000000E+00;  0.0000000E+00;  0.0000000E+00;  0.0000000E+00;
 -1.8000001E-01;  9.9999998E-03; -1.5000001E-01;210;  0.0000000E+00;  0.0000000E+00;  0.0000000E+00;  1.0000000E+03;  1.0000000E-01;  0.0000000E+00;0;  0.0000000E+00;  0.0000000E+00;  0.0000000E+00;0;  0.0000000E+00;  4.0000000E+04;  0.0000000E+00;  0.0000000E+00;  4.0000000E+04;  0.0000000E+00;  4.0000000E+04;  0.0000000E+00;  0.0000000E+00;  0.0000000E+00;  0.0000000E+00;
 -1.8000001E-01;  9.9999998E-03; -1.4000000E-01;211;  0.0000000E+00;  0.0000000E+00;  0.0000000E+00;  1.0000000E+03;  1.0000000E-01;  0.0000000E+00;0;  0.0000000E+00;  0.0000000E+00;  0.0000000E+00;0;  0.0000000E+00;  4.0000000E+04;  0.0000000E+00;  0.0000000E+00;  4.0000000E+04;  0.0000000E+00;  4.0000000E+04;  0.0000000E+00;  0.0000000E+00;  0.0000000E+00;  0.0000000E+00;
 -1.8000001E-01;  9.9999998E-03; -1.3000000E-01;212;  0.0000000E+00;  0.0000000E+00;  0.0000000E+00;  1.0000000E+03;  1.0000000E-01;  0.0000000E+00;0;  0.0000000E+00;  0.0000000E+00;  0.0000000E+00;0;  0.0000000E+00;  4.0000000E+04;  0.0000000E+00;  0.0000000E+00;  4.0000000E+04;  0.0000000E+00;  4.0000000E+04;  0.0000000E+00;  0.0000000E+00;  0.0000000E+00;  0.0000000E+00;
 -1.8000001E-01;  9.9999998E-03; -1.2000000E-01;213;  0.0000000E+00;  0.0000000E+00;  0.0000000E+00;  1.0000000E+03;  1.0000000E-01;  0.0000000E+00;0;  0.0000000E+00;  0.0000000E+00;  0.0000000E+00;0;  0.0000000E+00;  4.0000000E+04;  0.0000000E+00;  0.0000000E+00;  4.0000000E+04;  0.0000000E+00;  4.0000000E+04;  0.0000000E+00;  0.0000000E+00;  0.0000000E+00;  0.0000000E+00;
 -1.8000001E-01;  9.9999998E-03; -1.1000000E-01;214;  0.0000000E+00;  0.0000000E+00;  0.0000000E+00;  1.0000000E+03;  1.0000000E-01;  0.0000000E+00;0;  0.0000000E+00;  0.0000000E+00;  0.0000000E+00;0;  0.0000000E+00;  4.0000000E+04;  0.0000000E+00;  0.0000000E+00;  4.0000000E+04;  0.0000000E+00;  4.0000000E+04;  0.0000000E+00;  0.0000000E+00;  0.0000000E+00;  0.0000000E+00;
 -1.7000000E-01;  9.9999998E-03; -2.7000001E-01;289;  0.0000000E+00;  0.0000000E+00;  0.0000000E+00;  1.0000000E+03;  1.0000000E-01;  0.0000000E+00;0;  0.0000000E+00;  0.0000000E+00;  0.0000000E+00;0;  0.0000000E+00;  4.0000000E+04;  0.0000000E+00;  0.0000000E+00;  4.0000000E+04;  0.0000000E+00;  4.0000000E+04;  0.0000000E+00;  0.0000000E+00;  0.0000000E+00;  9.0627929E-11;
 -1.7000000E-01;  9.9999998E-03; -2.5999999E-01;290;  0.0000000E+00;  0.0000000E+00;  0.0000000E+00;  1.0000000E+03;  1.0000000E-01;  0.0000000E+00;0;  0.0000000E+00;  0.0000000E+00;  0.0000000E+00;0;  0.0000000E+00;  4.0000000E+04;  0.0000000E+00;  0.0000000E+00;  4.0000000E+04;  0.0000000E+00;  4.0000000E+04;  0.0000000E+00;  0.0000000E+00;  0.0000000E+00;  2.4658295E-10;
 -1.7000000E-01;  9.9999998E-03; -2.5000000E-01;291;  0.0000000E+00;  0.0000000E+00;  0.0000000E+00;  1.0000000E+03;  1.0000000E-01;  0.0000000E+00;0;  0.0000000E+00;  0.0000000E+00;  0.0000000E+00;0;  0.0000000E+00;  4.0000000E+04;  0.0000000E+00;  0.0000000E+00;  4.0000000E+04;  0.0000000E+00;  4.0000000E+04;  0.0000000E+00;  0.0000000E+00;  0.0000000E+00;  4.6683907E-10;
 -1.7000000E-01;  9.9999998E-03; -2.3999999E-01;292;  0.0000000E+00;  0.0000000E+00;  0.0000000E+00;  1.0000000E+03;  1.0000000E-01;  0.0000000E+00;0;  0.0000000E+00;  0.0000000E+00;  0.0000000E+00;0;  0.0000000E+00;  4.0000000E+04;  0.0000000E+00;  0.0000000E+00;  4.0000000E+04;  0.0000000E+00;  4.0000000E+04;  0.0000000E+00;  0.0000000E+00;  0.0000000E+00;  7.1558121E-10;
 -1.7000000E-01;  9.9999998E-03; -2.3000000E-01;293;  0.0000000E+00;  0.0000000E+00;  0.0000000E+00;  1.0000000E+03;  1.0000000E-01;  0.0000000E+00;0;  0.0000000E+00;  0.0000000E+00;  0.0000000E+00;0;  0.0000000E+00;  4.0000000E+04;  0.0000000E+00;  0.0000000E+00;  4.0000000E+04;  0.0000000E+00;  4.0000000E+04;  0.0000000E+00;  0.0000000E+00;  0.0000000E+00;  9.6112662E-10;
 -1.7000000E-01;  9.9999998E-03; -2.2000000E-01;294;  0.0000000E+00;  0.0000000E+00;  0.0000000E+00;  1.0000000E+03;  1.0000000E-01;  0.0000000E+00;0;  0.0000000E+00;  0.0000000E+00;  0.0000000E+00;0;  0.0000000E+00;  4.0000000E+04;  0.0000000E+00;  0.0000000E+00;  4.0000000E+04;  0.0000000E+00;  4.0000000E+04;  0.0000000E+00;  0.0000000E+00;  0.0000000E+00;  1.1699183E-09;
 -1.7000000E-01;  9.9999998E-03; -2.0999999E-01;295;  0.0000000E+00;  0.0000000E+00;  0.0000000E+00;  1.0000000E+03;  1.0000000E-01;  0.0000000E+00;0;  0.0000000E+00;  0.0000000E+00;  0.0000000E+00;0;  0.0000000E+00;  4.0000000E+04;  0.0000000E+00;  0.0000000E+00;  4.0000000E+04;  0.0000000E+00;  4.0000000E+04;  0.0000000E+00;  0.0000000E+00;  0.0000000E+00;  1.3086691E-09;
 -1.7000000E-01;  9.9999998E-03; -2.0000000E-01;296;  0.0000000E+00;  0.0000000E+00;  0.0000000E+00;  1.0000000E+03;  1.0000000E-01;  0.0000000E+00;0;  0.0000000E+00;  0.0000000E+00;  0.0000000E+00;0;  0.0000000E+00;  4.0000000E+04;  0.0000000E+00;  0.0000000E+00;  4.0000000E+04;  0.0000000E+00;  4.0000000E+04;  0.0000000E+00;  0.0000000E+00;  0.0000000E+00;  1.3572687E-09;
 -1.7000000E-01;  9.9999998E-03; -1.9000000E-01;297;  0.0000000E+00;  0.0000000E+00;  0.0000000E+00;  1.0000000E+03;  1.0000000E-01;  0.0000000E+00;0;  0.0000000E+00;  0.0000000E+00;  0.0000000E+00;0;  0.0000000E+00;  4.0000000E+04;  0.0000000E+00;  0.0000000E+00;  4.0000000E+04;  0.0000000E+00;  4.0000000E+04;  0.0000000E+00;  0.0000000E+00;  0.0000000E+00;  1.3804570E-09;
 -1.7000000E-01;  9.9999998E-03; -1.8000001E-01;298;  0.0000000E+00;  0.0000000E+00;  0.0000000E+00;  1.0000000E+03;  1.0000000E-01;  0.0000000E+00;0;  0.0000000E+00;  0.0000000E+00;  0.0000000E+00;0;  0.0000000E+00;  4.0000000E+04;  0.0000000E+00;  0.0000000E+00;  4.0000000E+04;  0.0000000E+00;  4.0000000E+04;  0.0000000E+00;  0.0000000E+00;  0.0000000E+00;  1.4541069E-09;
 -1.7000000E-01;  9.9999998E-03; -1.7000000E-01;299;  0.0000000E+00;  0.0000000E+00;  0.0000000E+00;  1.0000000E+03;  1.0000000E-01;  0.0000000E+00;0;  0.0000000E+00;  0.0000000E+00;  0.0000000E+00;0;  0.0000000E+00;  4.0000000E+04;  0.0000000E+00;  0.0000000E+00;  4.0000000E+04;  0.0000000E+00;  4.0000000E+04;  0.0000000E+00;  0.0000000E+00;  0.0000000E+00;  1.5733465E-09;
 -1.7000000E-01;  9.9999998E-03; -1.6000000E-01;300;  0.0000000E+00;  0.0000000E+00;  0.0000000E+00;  1.0000000E+03;  1.0000000E-01;  0.0000000E+00;0;  0.0000000E+00;  0.0000000E+00;  0.0000000E+00;0;  0.0000000E+00;  4.0000000E+04;  0.0000000E+00;  0.0000000E+00;  4.0000000E+04;  0.0000000E+00;  4.0000000E+04;  0.0000000E+00;  0.0000000E+00;  0.0000000E+00;  1.7068523E-09;
 -1.7000000E-01;  9.9999998E-03; -1.5000001E-01;301;  0.0000000E+00;  0.0000000E+00;  0.0000000E+00;  1.0000000E+03;  1.0000000E-01;  0.0000000E+00;0;  0.0000000E+00;  0.0000000E+00;  0.0000000E+00;0;  0.0000000E+00;  4.0000000E+04;  0.0000000E+00;  0.0000000E+00;  4.0000000E+04;  0.0000000E+00;  4.0000000E+04;  0.0000000E+00;  0.0000000E+00;  0.0000000E+00;  1.8278684E-09;
 -1.7000000E-01;  9.9999998E-03; -1.4000000E-01;302;  0.0000000E+00;  0.0000000E+00;  0.0000000E+00;  1.0000000E+03;  1.0000000E-01;  0.0000000E+00;0;  0.0000000E+00;  0.0000000E+00;  0.0000000E+00;0;  0.0000000E+00;  4.0000000E+04;  0.0000000E+00;  0.0000000E+00;  4.0000000E+04;  0.0000000E+00;  4.0000000E+04;  0.0000000E+00;  0.0000000E+00;  0.0000000E+00;  1.9071082E-09;
 -1.7000000E-01;  9.9999998E-03; -1.3000000E-01;303;  0.0000000E+00;  0.0000000E+00;  0.0000000E+00;  1.0000000E+03;  1.0000000E-01;  0.0000000E+00;0;  0.0000000E+00;  0.0000000E+00;  0.0000000E+00;0;  0.0000000E+00;  4.0000000E+04;  0.0000000E+00;  0.0000000E+00;  4.0000000E+04;  0.0000000E+00;  4.0000000E+04;  0.0000000E+00;  0.0000000E+00;  0.0000000E+00;  1.9297872E-09;
 -1.7000000E-01;  9.9999998E-03; -1.2000000E-01;304;  0.0000000E+00;  0.0000000E+00;  0.0000000E+00;  1.0000000E+03;  1.0000000E-01;  0.0000000E+00;0;  0.0000000E+00;  0.0000000E+00;  0.0000000E+00;0;  0.0000000E+00;  4.0000000E+04;  0.0000000E+00;  0.0000000E+00;  4.0000000E+04;  0.0000000E+00;  4.0000000E+04;  0.0000000E+00;  0.0000000E+00;  0.0000000E+00;  1.9547151E-09;
 -1.7000000E-01;  9.9999998E-03; -1.1000000E-01;305;  0.0000000E+00;  0.0000000E+00;  0.0000000E+00;  1.0000000E+03;  1.0000000E-01;  0.0000000E+00;0;  0.0000000E+00;  0.0000000E+00;  0.0000000E+00;0;  0.0000000E+00;  4.0000000E+04;  0.0000000E+00;  0.0000000E+00;  4.0000000E+04;  0.0000000E+00;  4.0000000E+04;  0.0000000E+00;  0.0000000E+00;  0.0000000E+00;  1.9624904E-09;
 -1.6000000E-01;  9.9999998E-03; -2.7000001E-01;380;  0.0000000E+00;  0.0000000E+00;  0.0000000E+00;  1.0000000E+03;  1.0000000E-01;  0.0000000E+00;0;  0.0000000E+00;  0.0000000E+00;  0.0000000E+00;0; -1.5129509E-06;  4.0000000E+04;  0.0000000E+00;  0.0000000E+00;  4.0000000E+04;  0.0000000E+00;  4.0000000E+04; -1.5177827E-06;  0.0000000E+00;  4.8318398E-09;  2.2955174E-02;
 -1.6000000E-01;  9.9999998E-03; -2.5999999E-01;381;  0.0000000E+00;  0.0000000E+00;  0.0000000E+00;  1.0000000E+03;  1.0000000E-01;  0.0000000E+00;0;  0.0000000E+00;  0.0000000E+00;  0.0000000E+00;0; -1.5587643E-06;  4.0000000E+04;  0.0000000E+00;  0.0000000E+00;  4.0000000E+04;  0.0000000E+00;  4.0000000E+04; -1.5845579E-06;  0.0000000E+00;  2.5793607E-08;  8.4224835E-02;
 -1.6000000E-01;  9.9999998E-03; -2.5000000E-01;382;  0.0000000E+00;  0.0000000E+00;  0.0000000E+00;  1.0000000E+03;  1.0000000E-01;  0.0000000E+00;0;  0.0000000E+00;  0.0000000E+00;  0.0000000E+00;0; -1.5343434E-06;  4.0000000E+04;  0.0000000E+00;  0.0000000E+00;  4.0000000E+04;  0.0000000E+00;  4.0000000E+04; -1.5671376E-06;  0.0000000E+00;  3.2794183E-08;  1.3198952E-01;
 -1.6000000E-01;  9.9999998E-03; -2.3999999E-01;383;  0.0000000E+00;  0.0000000E+00;  0.0000000E+00;  1.0000000E+03;  1.0000000E-01;  0.0000000E+00;0;  0.0000000E+00;  0.0000000E+00;  0.0000000E+00;0; -1.4940484E-06;  4.0000000E+04;  0.0000000E+00;  0.0000000E+00;  4.0000000E+04;  0.0000000E+00;  4.0000000E+04; -1.5237825E-06;  0.0000000E+00;  2.9734123E-08;  1.6448259E-01;
 -1.6000000E-01;  9.9999998E-03; -2.3000000E-01;384;  0.0000000E+00;  0.0000000E+00;  0.0000000E+00;  1.0000000E+03;  1.0000000E-01;  0.0000000E+00;0;  0.0000000E+00;  0.0000000E+00;  0.0000000E+00;0; -1.4711758E-06;  4.0000000E+04;  0.0000000E+00;  0.0000000E+00;  4.0000000E+04;  0.0000000E+00;  4.0000000E+04; -1.4957924E-06;  0.0000000E+00;  2.4616616E-08;  1.8940695E-01;
 -1.6000000E-01;  9.9999998E-03; -2.2000000E-01;385;  0.0000000E+00;  0.0000000E+00;  0.0000000E+00;  1.0000000E+03;  1.0000000E-01;  0.0000000E+00;0;  0.0000000E+00;  0.0000000E+00;  0.0000000E+00;0; -1.4649592E-06;  4.0000000E+04;  0.0000000E+00;  0.0000000E+00;  4.0000000E+04;  0.0000000E+00;  4.0000000E+04; -1.4843267E-06;  0.0000000E+00;  1.9367583E-08;  2.1043131E-01;
 -1.6000000E-01;  9.9999998E-03; -2.0999999E-01;386;  0.0000000E+00;  0.0000000E+00;  0.0000000E+00;  1.0000000E+03;  1.0000000E-01;  0.0000000E+00;0;  0.0000000E+00;  0.0000000E+00;  0.0000000E+00;0; -1.4705096E-06;  4.0000000E+04;  0.0000000E+00;  0.0000000E+00;  4.0000000E+04;  0.0000000E+00;  4.0000000E+04; -1.4851457E-06;  0.0000000E+00;  1.4636186E-08;  2.2925887E-01;
 -1.6000000E-01;  9.9999998E-03; -2.0000000E-01;387;  0.0000000E+00;  0.0000000E+00;  0.0000000E+00;  1.0000000E+03;  1.0000000E-01;  0.0000000E+00;0;  0.0000000E+00;  0.0000000E+00;  0.0000000E+00;0; -1.4835813E-06;  4.0000000E+04;  0.0000000E+00;  0.0000000E+00;  4.0000000E+04;  0.0000000E+00;  4.0000000E+04; -1.4943111E-06;  0.0000000E+00;  1.0729797E-08;  2.4595433E-01;
 -1.6000000E-01;  9.9999998E-03; -1.9000000E-01;388;  0.0000000E+00;  0.0000000E+00;  0.0000000E+00;  1.0000000E+03;  1.0000000E-01;  0.0000000E+00;0;  0.0000000E+00;  0.0000000E+00;  0.0000000E+00;0; -1.5009564E-06;  4.0000000E+04;  0.0000000E+00;  0.0000000E+00;  4.0000000E+04;  0.0000000E+00;  4.0000000E+04; -1.5086745E-06;  0.0000000E+00;  7.7181088E-09;  2.5967109E-01;
 -1.6000000E-01;  9.9999998E-03; -1.8000001E-01;389;  0.0000000E+00;  0.0000000E+00;  0.0000000E+00;  1.0000000E+03;  1.0000000E-01;  0.0000000E+00;0;  0.0000000E+00;  0.0000000E+00;  0.0000000E+00;0; -1.5200218E-06;  4.0000000E+04;  0.0000000E+00;  0.0000000E+00;  4.0000000E+04;  0.0000000E+00;  4.0000000E+04; -1.5255450E-06;  0.0000000E+00;  5.5232112E-09;  2.6959619E-01;
 -1.6000000E-01;  9.9999998E-03; -1.7000000E-01;390;  0.0000000E+00;  0.0000000E+00;  0.0000000E+00;  1.0000000E+03;  1.0000000E-01;  0.0000000E+00;0;  0.0000000E+00;  0.0000000E+00;  0.0000000E+00;0; -1.5384179E-06;  4.0000000E+04;  0.0000000E+00;  0.0000000E+00;  4.0000000E+04;  0.0000000E+00;  4.0000000E+04; -1.5424072E-06;  0.0000000E+00;  3.9892707E-09;  2.7538234E-01;
 -1.6000000E-01;  9.9999998E-03; -1.6000000E-01;391;  0.0000000E+00;  0.0000000E+00;  0.0000000E+00;  1.0000000E+03;  1.0000000E-01;  0.0000000E+00;0;  0.0000000E+00;  0.0000000E+00;  0.0000000E+00;0; -1.5541112E-06;  4.0000000E+04;  0.0000000E+00;  0.0000000E+00;  4.0000000E+04;  0.0000000E+00;  4.0000000E+04; -1.5570697E-06;  0.0000000E+00;  2.9584477E-09;  2.7719074E-01;
 -1.6000000E-01;  9.9999998E-03; -1.5000001E-01;392;  0.0000000E+00;  0.0000000E+00;  0.0000000E+00;  1.0000000E+03;  1.0000000E-01;  0.0000000E+00;0;  0.0000000E+00;  0.0000000E+00;  0.0000000E+00;0; -1.5656907E-06;  4.0000000E+04;  0.0000000E+00;  0.0000000E+00;  4.0000000E+04;  0.0000000E+00;  4.0000000E+04; -1.5679891E-06;  0.0000000E+00;  2.2983666E-09;  2.7559239E-01;
 -1.6000000E-01;  9.9999998E-03; -1.4000000E-01;393;  0.0000000E+00;  0.0000000E+00;  0.0000000E+00;  1.0000000E+03;  1.0000000E-01;  0.0000000E+00;0;  0.0000000E+00;  0.0000000E+00;  0.0000000E+00;0; -1.5725208E-06;  4.0000000E+04;  0.0000000E+00;  0.0000000E+00;  4.0000000E+04;  0.0000000E+00;  4.0000000E+04; -1.5744215E-06;  0.0000000E+00;  1.9007338E-09;  2.7139947E-01;
 -1.6000000E-01;  9.9999998E-03; -1.3000000E-01;394;  0.0000000E+00;  0.0000000E+00;  0.0000000E+00;  1.0000000E+03;  1.0000000E-01;  0.0000000E+00;0;  0.0000000E+00;  0.0000000E+00;  0.0000000E+00;0; -1.5748958E-06;  4.0000000E+04;  0.0000000E+00;  0.0000000E+00;  4.0000000E+04;  0.0000000E+00;  4.0000000E+04; -1.5765708E-06;  0.0000000E+00;  1.6749754E-09;  2.6553634E-01;
 -1.6000000E-01;  9.9999998E-03; -1.2000000E-01;395;  0.0000000E+00;  0.0000000E+00;  0.0000000E+00;  1.0000000E+03;  1.0000000E-01;  0.0000000E+00;0;  0.0000000E+00;  0.0000000E+00;  0.0000000E+00;0; -1.5739338E-06;  4.0000000E+04;  0.0000000E+00;  0.0000000E+00;  4.0000000E+04;  0.0000000E+00;  4.0000000E+04; -1.5754769E-06;  0.0000000E+00;  1.5430438E-09;  2.5898880E-01;
 -1.6000000E-01;  9.9999998E-03; -1.1000000E-01;396;  0.0000000E+00;  0.0000000E+00;  0.0000000E+00;  1.0000000E+03;  1.0000000E-01;  0.0000000E+00;0;  0.0000000E+00;  0.0000000E+00;  0.0000000E+00;0; -1.5713194E-06;  4.0000000E+04;  0.0000000E+00;  0.0000000E+00;  4.0000000E+04;  0.0000000E+00;  4.0000000E+04; -1.5727624E-06;  0.0000000E+00;  1.4428626E-09;  2.5271592E-01;
 -1.5000001E-01;  9.9999998E-03; -2.7000001E-01;471;  0.0000000E+00;  0.0000000E+00;  0.0000000E+00;  1.0000000E+03;  1.0000000E-01;  0.0000000E+00;0;  0.0000000E+00;  0.0000000E+00;  0.0000000E+00;0; -1.9258481E-05;  4.0000000E+04;  0.0000000E+00;  0.0000000E+00;  4.0000000E+04;  0.0000000E+00;  4.0000000E+04; -1.9022948E-05;  0.0000000E+00; -2.3553412E-07;  1.1103716E-01;
 -1.5000001E-01;  9.9999998E-03; -2.5999999E-01;472;  0.0000000E+00;  0.0000000E+00;  0.0000000E+00;  1.0000000E+03;  1.0000000E-01;  0.0000000E+00;0;  0.0000000E+00;  0.0000000E+00;  0.0000000E+00;0; -2.1206029E-05;  4.0000000E+04;  0.0000000E+00;  0.0000000E+00;  4.0000000E+04;  0.0000000E+00;  4.0000000E+04; -2.1291793E-05;  0.0000000E+00;  8.5764235E-08;  8.9730257E-01;
 -1.5000001E-01;  9.9999998E-03; -2.5000000E-01;473;  0.0000000E+00;  0.0000000E+00;  0.0000000E+00;  1.0000000E+03;  1.0000000E-01;  0.0000000E+00;0;  0.0000000E+00;  0.0000000E+00;  0.0000000E+00;0; -2.2792023E-05;  4.0000000E+04;  0.0000000E+00;  0.0000000E+00;  4.0000000E+04;  0.0000000E+00;  4.0000000E+04; -2.3132050E-05;  0.0000000E+00;  3.4002781E-07;  1.6576421E+00;
 -1.5000001E-01;  9.9999998E-03; -2.3999999E-01;474;  0.0000000E+00;  0.0000000E+00;  0.0000000E+00;  1.0000000E+03;  1.0000000E-01;  0.0000000E+00;0;  0.0000000E+00;  0.0000000E+00;  0.0000000E+00;0; -2.4194316E-05;  4.0000000E+04;  0.0000000E+00;  0.0000000E+00;  4.0000000E+04;  0.0000000E+00;  4.0000000E+04; -2.4680839E-05;  0.0000000E+00;  4.8652316E-07;  2.3040543E+00;
 -1.5000001E-01;  9.9999998E-03; -2.3000000E-01;475;  0.0000000E+00;  0.0000000E+00;  0.0000000E+00;  1.0000000E+03;  1.0000000E-01;  0.0000000E+00;0;  0.0000000E+00;  0.0000000E+00;  0.0000000E+00;0; -2.5572828E-05;  4.0000000E+04;  0.0000000E+00;  0.0000000E+00;  4.0000000E+04;  0.0000000E+00;  4.0000000E+04; -2.6095560E-05;  0.0000000E+00;  5.2273293E-07;  2.7980857E+00;
 -1.5000001E-01;  9.9999998E-03; -2.2000000E-01;476;  0.0000000E+00;  0.0000000E+00;  0.0000000E+00;  1.0000000E+03;  1.0000000E-01;  0.0000000E+00;0;  0.0000000E+00;  0.0000000E+00;  0.0000000E+00;0; -2.7044629E-05;  4.0000000E+04;  0.0000000E+00;  0.0000000E+00;  4.0000000E+04;  0.0000000E+00;  4.0000000E+04; -2.7531249E-05;  0.0000000E+00;  4.8662019E-07;  3.1628590E+00;
 -1.5000001E-01;  9.9999998E-03; -2.0999999E-01;477;  0.0000000E+00;  0.0000000E+00;  0.0000000E+00;  1.0000000E+03;  1.0000000E-01;  0.0000000E+00;0;  0.0000000E+00;  0.0000000E+00;  0.0000000E+00;0; -2.8632532E-05;  4.0000000E+04;  0.0000000E+00;  0.0000000E+00;  4.0000000E+04;  0.0000000E+00;  4.0000000E+04; -2.9059614E-05;  0.0000000E+00;  4.2708203E-07;  3.4507010E+00;
 -1.5000001E-01;  9.9999998E-03; -2.0000000E-01;478;  0.0000000E+00;  0.0000000E+00;  0.0000000E+00;  1.0000000E+03;  1.0000000E-01;  0.0000000E+00;0;  0.0000000E+00;  0.0000000E+00;  0.0000000E+00;0; -3.0252131E-05;  4.0000000E+04;  0.0000000E+00;  0.0000000E+00;  4.0000000E+04;  0.0000000E+00;  4.0000000E+04; -3.0614377E-05;  0.0000000E+00;  3.6224563E-07;  3.6852264E+00;
 -1.5000001E-01;  9.9999998E-03; -1.9000000E-01;479;  0.0000000E+00;  0.0000000E+00;  0.0000000E+00;  1.0000000E+03;  1.0000000E-01;  0.0000000E+00;0;  0.0000000E+00;  0.0000000E+00;  0.0000000E+00;0; -3.1801264E-05;  4.0000000E+04;  0.0000000E+00;  0.0000000E+00;  4.0000000E+04;  0.0000000E+00;  4.0000000E+04; -3.2100470E-05;  0.0000000E+00;  2.9920378E-07;  3.8706324E+00;
 -1.5000001E-01;  9.9999998E-03; -1.8000001E-01;480;  0.0000000E+00;  0.0000000E+00;  0.0000000E+00;  1.0000000E+03;  1.0000000E-01;  0.0000000E+00;0;  0.0000000E+00;  0.0000000E+00;  0.0000000E+00;0; -3.3192293E-05;  4.0000000E+04;  0.0000000E+00;  0.0000000E+00;  4.0000000E+04;  0.0000000E+00;  4.0000000E+04; -3.3435208E-05;  0.0000000E+00;  2.4291577E-07;  4.0028734E+00;
 -1.5000001E-01;  9.9999998E-03; -1.7000000E-01;481;  0.0000000E+00;  0.0000000E+00;  0.0000000E+00;  1.0000000E+03;  1.0000000E-01;  0.0000000E+00;0;  0.0000000E+00;  0.0000000E+00;  0.0000000E+00;0; -3.4360244E-05;  4.0000000E+04;  0.0000000E+00;  0.0000000E+00;  4.0000000E+04;  0.0000000E+00;  4.0000000E+04; -3.4556382E-05;  0.0000000E+00;  1.9613933E-07;  4.0759540E+00;
 -1.5000001E-01;  9.9999998E-03; -1.6000000E-01;482;  0.0000000E+00;  0.0000000E+00;  0.0000000E+00;  1.0000000E+03;  1.0000000E-01;  0.0000000E+00;0;  0.0000000E+00;  0.0000000E+00;  0.0000000E+00;0; -3.5267185E-05;  4.0000000E+04;  0.0000000E+00;  0.0000000E+00;  4.0000000E+04;  0.0000000E+00;  4.0000000E+04; -3.5426921E-05;  0.0000000E+00;  1.5973671E-07;  4.0877457E+00;
 -1.5000001E-01;  9.9999998E-03; -1.5000001E-01;483;  0.0000000E+00;  0.0000000E+00;  0.0000000E+00;  1.0000000E+03;  1.0000000E-01;  0.0000000E+00;0;  0.0000000E+00;  0.0000000E+00;  0.0000000E+00;0; -3.5902995E-05;  4.0000000E+04;  0.0000000E+00;  0.0000000E+00;  4.0000000E+04;  0.0000000E+00;  4.0000000E+04; -3.6036054E-05;  0.0000000E+00;  1.3305913E-07;  4.0423346E+00;
 -1.5000001E-01;  9.9999998E-03; -1.4000000E-01;484;  0.0000000E+00;  0.0000000E+00;  0.0000000E+00;  1.0000000E+03;  1.0000000E-01;  0.0000000E+00;0;  0.0000000E+00;  0.0000000E+00;  0.0000000E+00;0; -3.6282883E-05;  4.0000000E+04;  0.0000000E+00;  0.0000000E+00;  4.0000000E+04;  0.0000000E+00;  4.0000000E+04; -3.6397312E-05;  0.0000000E+00;  1.1443056E-07;  3.9501817E+00;
 -1.5000001E-01;  9.9999998E-03; -1.3000000E-01;485;  0.0000000E+00;  0.0000000E+00;  0.0000000E+00;  1.0000000E+03;  1.0000000E-01;  0.0000000E+00;0;  0.0000000E+00;  0.0000000E+00;  0.0000000E+00;0; -3.6443373E-05;  4.0000000E+04;  0.0000000E+00;  0.0000000E+00;  4.0000000E+04;  0.0000000E+00;  4.0000000E+04; -3.6545032E-05;  0.0000000E+00;  1.0165991E-07;  3.8269391E+00;
 -1.5000001E-01;  9.9999998E-03; -1.2000000E-01;486;  0.0000000E+00;  0.0000000E+00;  0.0000000E+00;  1.0000000E+03;  1.0000000E-01;  0.0000000E+00;0;  0.0000000E+00;  0.0000000E+00;  0.0000000E+00;0; -3.6435686E-05;  4.0000000E+04;  0.0000000E+00;  0.0000000E+00;  4.0000000E+04;  0.0000000E+00;  4.0000000E+04; -3.6528145E-05;  0.0000000E+00;  9.2460496E-08;  3.6911926E+00;
 -1.5000001E-01;  9.9999998E-03; -1.1000000E-01;487;  0.0000000E+00;  0.0000000E+00;  0.0000000E+00;  1.0000000E+03;  1.0000000E-01;  0.0000000E+00;0;  0.0000000E+00;  0.0000000E+00;  0.0000000E+00;0; -3.6318335E-05;  4.0000000E+04;  0.0000000E+00;  0.0000000E+00;  4.0000000E+04;  0.0000000E+00;  4.0000000E+04; -3.6403162E-05;  0.0000000E+00;  8.4825771E-08;  3.5614488E+00;
 -1.4000000E-01;  9.9999998E-03; -2.7000001E-01;562;  0.0000000E+00;  0.0000000E+00;  0.0000000E+00;  1.0000000E+03;  1.0000000E-01;  0.0000000E+00;0;  0.0000000E+00;  0.0000000E+00;  0.0000000E+00;0; -9.1451329E-05;  4.0000000E+04;  0.0000000E+00;  0.0000000E+00;  4.0000000E+04;  0.0000000E+00;  4.0000000E+04; -8.9717265E-05;  0.0000000E+00; -1.7340632E-06;  5.3808045E-01;
 -1.4000000E-01;  9.9999998E-03; -2.5999999E-01;563;  0.0000000E+00;  0.0000000E+00;  0.0000000E+00;  1.0000000E+03;  1.0000000E-01;  0.0000000E+00;0;  0.0000000E+00;  0.0000000E+00;  0.0000000E+00;0; -1.0213222E-04;  4.0000000E+04;  0.0000000E+00;  0.0000000E+00;  4.0000000E+04;  0.0000000E+00;  4.0000000E+04; -1.0190375E-04;  0.0000000E+00; -2.2847578E-07;  4.1355176E+00;
 -1.4000000E-01;  9.9999998E-03; -2.5000000E-01;564;  0.0000000E+00;  0.0000000E+00;  0.0000000E+00;  1.0000000E+03;  1.0000000E-01;  0.0000000E+00;0;  0.0000000E+00;  0.0000000E+00;  0.0000000E+00;0; -1.1196114E-04;  4.0000000E+04;  0.0000000E+00;  0.0000000E+00;  4.0000000E+04;  0.0000000E+00;  4.0000000E+04; -1.1307798E-04;  0.0000000E+00;  1.1168398E-06;  7.6901903E+00;
 -1.4000000E-01;  9.9999998E-03; -2.3999999E-01;565;  0.0000000E+00;  0.0000000E+00;  0.0000000E+00;  1.0000000E+03;  1.0000000E-01;  0.0000000E+00;0;  0.0000000E+00;  0.0000000E+00;  0.0000000E+00;0; -1.2134070E-04;  4.0000000E+04;  0.0000000E+00;  0.0000000E+00;  4.0000000E+04;  0.0000000E+00;  4.0000000E+04; -1.2345283E-04;  0.0000000E+00;  2.1121291E-06;  1.0848993E+01;
 -1.4000000E-01;  9.9999998E-03; -2.3000000E-01;566;  0.0000000E+00;  0.0000000E+00;  0.0000000E+00;  1.0000000E+03;  1.0000000E-01;  0.0000000E+00;0;  0.0000000E+00;  0.0000000E+00;  0.0000000E+00;0; -1.3065024E-04;  4.0000000E+04;  0.0000000E+00;  0.0000000E+00;  4.0000000E+04;  0.0000000E+00;  4.0000000E+04; -1.3332537E-04;  0.0000000E+00;  2.6751318E-06;  1.3414120E+01;
 -1.4000000E-01;  9.9999998E-03; -2.2000000E-01;567;  0.0000000E+00;  0.0000000E+00;  0.0000000E+00;  1.0000000E+03;  1.0000000E-01;  0.0000000E+00;0;  0.0000000E+00;  0.0000000E+00;  0.0000000E+00;0; -1.4011978E-04;  4.0000000E+04;  0.0000000E+00;  0.0000000E+00;  4.0000000E+04;  0.0000000E+00;  4.0000000E+04; -1.4295726E-04;  0.0000000E+00;  2.8374773E-06;  1.5351980E+01;
 -1.4000000E-01;  9.9999998E-03; -2.0999999E-01;568;  0.0000000E+00;  0.0000000E+00;  0.0000000E+00;  1.0000000E+03;  1.0000000E-01;  0.0000000E+00;0;  0.0000000E+00;  0.0000000E+00;  0.0000000E+00;0; -1.4972272E-04;  4.0000000E+04;  0.0000000E+00;  0.0000000E+00;  4.0000000E+04;  0.0000000E+00;  4.0000000E+04; -1.5242639E-04;  0.0000000E+00;  2.7036674E-06;  1.6731615E+01;
 -1.4000000E-01;  9.9999998E-03; -2.0000000E-01;569;  0.0000000E+00;  0.0000000E+00;  0.0000000E+00;  1.0000000E+03;  1.0000000E-01;  0.0000000E+00;0;  0.0000000E+00;  0.0000000E+00;  0.0000000E+00;0; -1.5923622E-04;  4.0000000E+04;  0.0000000E+00;  0.0000000E+00;  4.0000000E+04;  0.0000000E+00;  4.0000000E+04; -1.6165813E-04;  0.0000000E+00;  2.4219044E-06;  1.7698429E+01;
 -1.4000000E-01;  9.9999998E-03; -1.9000000E-01;570;  0.0000000E+00;  0.0000000E+00;  0.0000000E+00;  1.0000000E+03;  1.0000000E-01;  0.0000000E+00;0;  0.0000000E+00;  0.0000000E+00;  0.0000000E+00;0; -1.6827768E-04;  4.0000000E+04;  0.0000000E+00;  0.0000000E+00;  4.0000000E+04;  0.0000000E+00;  4.0000000E+04; -1.7038164E-04;  0.0000000E+00;  2.1039530E-06;  1.8372822E+01;
 -1.4000000E-01;  9.9999998E-03; -1.8000001E-01;571;  0.0000000E+00;  0.0000000E+00;  0.0000000E+00;  1.0000000E+03;  1.0000000E-01;  0.0000000E+00;0;  0.0000000E+00;  0.0000000E+00;  0.0000000E+00;0; -1.7641571E-04;  4.0000000E+04;  0.0000000E+00;  0.0000000E+00;  4.0000000E+04;  0.0000000E+00;  4.0000000E+04; -1.7820626E-04;  0.0000000E+00;  1.7905512E-06;  1.8785088E+01;
 -1.4000000E-01;  9.9999998E-03; -1.7000000E-01;572;  0.0000000E+00;  0.0000000E+00;  0.0000000E+00;  1.0000000E+03;  1.0000000E-01;  0.0000000E+00;0;  0.0000000E+00;  0.0000000E+00;  0.0000000E+00;0; -1.8331317E-04;  4.0000000E+04;  0.0000000E+00;  0.0000000E+00;  4.0000000E+04;  0.0000000E+00;  4.0000000E+04; -1.8482117E-04;  0.0000000E+00;  1.5080074E-06;  1.8935728E+01;
 -1.4000000E-01;  9.9999998E-03; -1.6000000E-01;573;  0.0000000E+00;  0.0000000E+00;  0.0000000E+00;  1.0000000E+03;  1.0000000E-01;  0.0000000E+00;0;  0.0000000E+00;  0.0000000E+00;  0.0000000E+00;0; -1.8876561E-04;  4.0000000E+04;  0.0000000E+00;  0.0000000E+00;  4.0000000E+04;  0.0000000E+00;  4.0000000E+04; -1.9003738E-04;  0.0000000E+00;  1.2717605E-06;  1.8822281E+01;
 -1.4000000E-01;  9.9999998E-03; -1.5000001E-01;574;  0.0000000E+00;  0.0000000E+00;  0.0000000E+00;  1.0000000E+03;  1.0000000E-01;  0.0000000E+00;0;  0.0000000E+00;  0.0000000E+00;  0.0000000E+00;0; -1.9271091E-04;  4.0000000E+04;  0.0000000E+00;  0.0000000E+00;  4.0000000E+04;  0.0000000E+00;  4.0000000E+04; -1.9379750E-04;  0.0000000E+00;  1.0865847E-06;  1.8461130E+01;
 -1.4000000E-01;  9.9999998E-03; -1.4000000E-01;575;  0.0000000E+00;  0.0000000E+00;  0.0000000E+00;  1.0000000E+03;  1.0000000E-01;  0.0000000E+00;0;  0.0000000E+00;  0.0000000E+00;  0.0000000E+00;0; -1.9522195E-04;  4.0000000E+04;  0.0000000E+00;  0.0000000E+00;  4.0000000E+04;  0.0000000E+00;  4.0000000E+04; -1.9617040E-04;  0.0000000E+00;  9.4844296E-07;  1.7897448E+01;
 -1.4000000E-01;  9.9999998E-03; -1.3000000E-01;576;  0.0000000E+00;  0.0000000E+00;  0.0000000E+00;  1.0000000E+03;  1.0000000E-01;  0.0000000E+00;0;  0.0000000E+00;  0.0000000E+00;  0.0000000E+00;0; -1.9648165E-04;  4.0000000E+04;  0.0000000E+00;  0.0000000E+00;  4.0000000E+04;  0.0000000E+00;  4.0000000E+04; -1.9732905E-04;  0.0000000E+00;  8.4739446E-07;  1.7202261E+01;
 -1.4000000E-01;  9.9999998E-03; -1.2000000E-01;577;  0.0000000E+00;  0.0000000E+00;  0.0000000E+00;  1.0000031E+03;  1.0000000E-01;  2.5678287E+00;0;  0.0000000E+00;  0.0000000E+00;  0.0000000E+00;0; -1.9674936E-04;  4.0000000E+04;  0.0000000E+00;  0.0000000E+00;  4.0000000E+04;  0.0000000E+00;  4.0000000E+04; -1.9752030E-04;  0.0000000E+00;  7.7094990E-07;  1.6461624E+01;
 -1.4000000E-01;  9.9999998E-03; -1.1000000E-01;578;  0.0000000E+00;  0.0000000E+00;  0.0000000E+00;  1.0000042E+03;  1.0000000E-01;  3.4566925E+00;0;  0.0000000E+00;  0.0000000E+00;  0.0000000E+00;0; -1.9632292E-04;  4.0000000E+04;  0.0000000E+00;  0.0000000E+00;  4.0000000E+04;  0.0000000E+00;  4.0000000E+04; -1.9703007E-04;  0.0000000E+00;  7.0714339E-07;  1.5761896E+01;
 -1.3000000E-01;  9.9999998E-03; -2.7000001E-01;653;  0.0000000E+00;  0.0000000E+00;  0.0000000E+00;  1.0000311E+03;  1.0000000E-01;  2.5777048E+01;0;  0.0000000E+00;  0.0000000E+00;  0.0000000E+00;0; -2.8027786E-04;  4.0000000E+04;  0.0000000E+00;  0.0000000E+00;  4.0000000E+04;  0.0000000E+00;  4.0000000E+04; -2.7377185E-04;  0.0000000E+00; -6.5060294E-06;  2.1342869E+00;
 -1.3000000E-01;  9.9999998E-03; -2.5999999E-01;654;  0.0000000E+00;  0.0000000E+00;  0.0000000E+00;  1.0000355E+03;  1.0000000E-01;  2.9431267E+01;0;  0.0000000E+00;  0.0000000E+00;  0.0000000E+00;0; -3.1456334E-04;  4.0000000E+04;  0.0000000E+00;  0.0000000E+00;  4.0000000E+04;  0.0000000E+00;  4.0000000E+04; -3.1263364E-04;  0.0000000E+00; -1.9296890E-06;  1.2808336E+01;
 -1.3000000E-01;  9.9999998E-03; -2.5000000E-01;655;  0.0000000E+00;  0.0000000E+00;  0.0000000E+00;  1.0000448E+03;  1.0000000E-01;  3.7134750E+01;0;  0.0000000E+00;  0.0000000E+00;  0.0000000E+00;0; -3.4736149E-04;  4.0000000E+04;  0.0000000E+00;  0.0000000E+00;  4.0000000E+04;  0.0000000E+00;  4.0000000E+04; -3.4973724E-04;  0.0000000E+00;  2.3757550E-06;  2.3356743E+01;
 -1.3000000E-01;  9.9999998E-03; -2.3999999E-01;656;  0.0000000E+00;  0.0000000E+00;  0.0000000E+00;  1.0000474E+03;  1.0000000E-01;  3.9307529E+01;0;  0.0000000E+00;  0.0000000E+00;  0.0000000E+00;0; -3.7928254E-04;  4.0000000E+04;  0.0000000E+00;  0.0000000E+00;  4.0000000E+04;  0.0000000E+00;  4.0000000E+04; -3.8514854E-04;  0.0000000E+00;  5.8660075E-06;  3.2816677E+01;
 -1.3000000E-01;  9.9999998E-03; -2.3000000E-01;657;  0.0000000E+00;  0.0000000E+00;  0.0000000E+00;  1.0000504E+03;  1.0000000E-01;  4.1677834E+01;0;  0.0000000E+00;  0.0000000E+00;  0.0000000E+00;0; -4.1091992E-04;  4.0000000E+04;  0.0000000E+00;  0.0000000E+00;  4.0000000E+04;  0.0000000E+00;  4.0000000E+04; -4.1914059E-04;  0.0000000E+00;  8.2206570E-06;  4.0576992E+01;
 -1.3000000E-01;  9.9999998E-03; -2.2000000E-01;658;  0.0000000E+00;  0.0000000E+00;  0.0000000E+00;  1.0000584E+03;  1.0000000E-01;  4.8393692E+01;0;  0.0000000E+00;  0.0000000E+00;  0.0000000E+00;0; -4.4259286E-04;  4.0000000E+04;  0.0000000E+00;  0.0000000E+00;  4.0000000E+04;  0.0000000E+00;  4.0000000E+04; -4.5198019E-04;  0.0000000E+00;  9.3873314E-06;  4.6433586E+01;
 -1.3000000E-01;  9.9999998E-03; -2.0999999E-01;659;  0.0000000E+00;  0.0000000E+00;  0.0000000E+00;  1.0000611E+03;  1.0000000E-01;  5.0665234E+01;0;  0.0000000E+00;  0.0000000E+00;  0.0000000E+00;0; -4.7411720E-04;  4.0000000E+04;  0.0000000E+00;  0.0000000E+00;  4.0000000E+04;  0.0000000E+00;  4.0000000E+04; -4.8365406E-04;  0.0000000E+00;  9.5368505E-06;  5.0502697E+01;
 -1.3000000E-01;  9.9999998E-03; -2.0000000E-01;660;  0.0000000E+00;  0.0000000E+00;  0.0000000E+00;  1.0000637E+03;  1.0000000E-01;  5.2838013E+01;0;  0.0000000E+00;  0.0000000E+00;  0.0000000E+00;0; -5.0483277E-04;  4.0000000E+04;  0.0000000E+00;  0.0000000E+00;  4.0000000E+04;  0.0000000E+00;  4.0000000E+04; -5.1380985E-04;  0.0000000E+00;  8.9770792E-06;  5.3084076E+01;
 -1.3000000E-01;  9.9999998E-03; -1.9000000E-01;661;  0.0000000E+00;  0.0000000E+00;  0.0000000E+00;  1.0000663E+03;  1.0000000E-01;  5.5010788E+01;0;  0.0000000E+00;  0.0000000E+00;  0.0000000E+00;0; -5.3375232E-04;  4.0000000E+04;  0.0000000E+00;  0.0000000E+00;  4.0000000E+04;  0.0000000E+00;  4.0000000E+04; -5.4180005E-04;  0.0000000E+00;  8.0477412E-06;  5.4511070E+01;
 -1.3000000E-01;  9.9999998E-03; -1.8000001E-01;662;  0.0000000E+00;  0.0000000E+00;  0.0000000E+00;  1.0000668E+03;  1.0000000E-01;  5.5405842E+01;0;  0.0000000E+00;  0.0000000E+00;  0.0000000E+00;0; -5.5981107E-04;  4.0000000E+04;  0.0000000E+00;  0.0000000E+00;  4.0000000E+04;  0.0000000E+00;  4.0000000E+04; -5.6684838E-04;  0.0000000E+00;  7.0373330E-06;  5.5073612E+01;
 -1.3000000E-01;  9.9999998E-03; -1.7000000E-01;663;  0.0000000E+00;  0.0000000E+00;  0.0000000E+00;  1.0000673E+03;  1.0000000E-01;  5.5702129E+01;0;  0.0000000E+00;  0.0000000E+00;  0.0000000E+00;0; -5.8206241E-04;  4.0000000E+04;  0.0000000E+00;  0.0000000E+00;  4.0000000E+04;  0.0000000E+00;  4.0000000E+04; -5.8814057E-04;  0.0000000E+00;  6.0781658E-06;  5.4887070E+01;
 -1.3000000E-01;  9.9999998E-03; -1.6000000E-01;664;  0.0000000E+00;  0.0000000E+00;  0.0000000E+00;  1.0000677E+03;  1.0000000E-01;  5.6097179E+01;0;  0.0000000E+00;  0.0000000E+00;  0.0000000E+00;0; -5.9989659E-04;  4.0000000E+04;  0.0000000E+00;  0.0000000E+00;  4.0000000E+04;  0.0000000E+00;  4.0000000E+04; -6.0513627E-04;  0.0000000E+00;  5.2396867E-06;  5.4004257E+01;
 -1.3000000E-01;  9.9999998E-03; -1.5000001E-01;665;  0.0000000E+00;  0.0000000E+00;  0.0000000E+00;  1.0000707E+03;  1.0000000E-01;  5.8566246E+01;0;  0.0000000E+00;  0.0000000E+00;  0.0000000E+00;0; -6.1310327E-04;  4.0000000E+04;  0.0000000E+00;  0.0000000E+00;  4.0000000E+04;  0.0000000E+00;  4.0000000E+04; -6.1765849E-04;  0.0000000E+00;  4.5551901E-06;  5.2494446E+01;
 -1.3000000E-01;  9.9999998E-03; -1.4000000E-01;666;  0.0000000E+00;  0.0000000E+00;  0.0000000E+00;  1.0000734E+03;  1.0000000E-01;  6.0837784E+01;0;  0.0000000E+00;  0.0000000E+00;  0.0000000E+00;0; -6.2186370E-04;  4.0000000E+04;  0.0000000E+00;  0.0000000E+00;  4.0000000E+04;  0.0000000E+00;  4.0000000E+04; -6.2588858E-04;  0.0000000E+00;  4.0248765E-06;  5.0483135E+01;
 -1.3000000E-01;  9.9999998E-03; -1.3000000E-01;667;  0.0000000E+00;  0.0000000E+00;  0.0000000E+00;  1.0000751E+03;  1.0000000E-01;  6.2220463E+01;0;  0.0000000E+00;  0.0000000E+00;  0.0000000E+00;0; -6.2668108E-04;  4.0000000E+04;  0.0000000E+00;  0.0000000E+00;  4.0000000E+04;  0.0000000E+00;  4.0000000E+04; -6.3030538E-04;  0.0000000E+00;  3.6243050E-06;  4.8160149E+01;
 -1.3000000E-01;  9.9999998E-03; -1.2000000E-01;668;  0.0000000E+00;  0.0000000E+00;  0.0000000E+00;  1.0000763E+03;  1.0000000E-01;  6.3208088E+01;0;  0.0000000E+00;  0.0000000E+00;  0.0000000E+00;0; -6.2829215E-04;  4.0000000E+04;  0.0000000E+00;  0.0000000E+00;  4.0000000E+04;  0.0000000E+00;  4.0000000E+04; -6.3160766E-04;  0.0000000E+00;  3.3154818E-06;  4.5756783E+01;
 -1.3000000E-01;  9.9999998E-03; -1.1000000E-01;669;  0.0000000E+00;  0.0000000E+00;  0.0000000E+00;  1.0000771E+03;  1.0000000E-01;  6.3899426E+01;0;  0.0000000E+00;  0.0000000E+00;  0.0000000E+00;0; -6.2755676E-04;  4.0000000E+04;  0.0000000E+00;  0.0000000E+00;  4.0000000E+04;  0.0000000E+00;  4.0000000E+04; -6.3061481E-04;  0.0000000E+00;  3.0580504E-06;  4.3509872E+01;
 -1.2000000E-01;  9.9999998E-03; -2.7000001E-01;744;  0.0000000E+00;  0.0000000E+00;  0.0000000E+00;  1.0000786E+03;  1.0000000E-01;  6.5084579E+01;0;  0.0000000E+00;  0.0000000E+00;  0.0000000E+00;0; -6.6944695E-04;  4.0000000E+04;  0.0000000E+00;  0.0000000E+00;  4.0000000E+04;  0.0000000E+00;  4.0000000E+04; -6.5181847E-04;  0.0000000E+00; -1.7628468E-05;  6.6277976E+00;
 -1.2000000E-01;  9.9999998E-03; -2.5999999E-01;745;  0.0000000E+00;  0.0000000E+00;  0.0000000E+00;  1.0000833E+03;  1.0000000E-01;  6.8936325E+01;0;  0.0000000E+00;  0.0000000E+00;  0.0000000E+00;0; -7.5251883E-04;  4.0000000E+04;  0.0000000E+00;  0.0000000E+00;  4.0000000E+04;  0.0000000E+00;  4.0000000E+04; -7.4581022E-04;  0.0000000E+00; -6.7085894E-06;  3.1223667E+01;
 -1.2000000E-01;  9.9999998E-03; -2.5000000E-01;746;  0.0000000E+00;  0.0000000E+00;  0.0000000E+00;  1.0000970E+03;  1.0000000E-01;  8.0392792E+01;0;  0.0000000E+00;  0.0000000E+00;  0.0000000E+00;0; -8.3335070E-04;  4.0000000E+04;  0.0000000E+00;  0.0000000E+00;  4.0000000E+04;  0.0000000E+00;  4.0000000E+04; -8.3719601E-04;  0.0000000E+00;  3.8452945E-06;  5.5422844E+01;
 -1.2000000E-01;  9.9999998E-03; -2.3999999E-01;747;  0.0000000E+00;  0.0000000E+00;  0.0000000E+00;  1.0001006E+03;  1.0000000E-01;  8.3355667E+01;0;  0.0000000E+00;  0.0000000E+00;  0.0000000E+00;0; -9.1259240E-04;  4.0000000E+04;  0.0000000E+00;  0.0000000E+00;  4.0000000E+04;  0.0000000E+00;  4.0000000E+04; -9.2540839E-04;  0.0000000E+00;  1.2815982E-05;  7.7146614E+01;
 -1.2000000E-01;  9.9999998E-03; -2.3000000E-01;748;  0.0000000E+00;  0.0000000E+00;  0.0000000E+00;  1.0001046E+03;  1.0000000E-01;  8.6614838E+01;0;  0.0000000E+00;  0.0000000E+00;  0.0000000E+00;0; -9.9088973E-04;  4.0000000E+04;  0.0000000E+00;  0.0000000E+00;  4.0000000E+04;  0.0000000E+00;  4.0000000E+04; -1.0102737E-03;  0.0000000E+00;  1.9383913E-05;  9.4975906E+01;
 -1.2000000E-01;  9.9999998E-03; -2.2000000E-01;749;  0.0000000E+00;  0.0000000E+00;  0.0000000E+00;  1.0001198E+03;  1.0000000E-01;  9.9256454E+01;0;  0.0000000E+00;  0.0000000E+00;  0.0000000E+00;0; -1.0684599E-03;  4.0000000E+04;  0.0000000E+00;  0.0000000E+00;  4.0000000E+04;  0.0000000E+00;  4.0000000E+04; -1.0917066E-03;  0.0000000E+00;  2.3246683E-05;  1.0830135E+02;
 -1.2000000E-01;  9.9999998E-03; -2.0999999E-01;750;  0.0000000E+00;  0.0000000E+00;  0.0000000E+00;  1.0001255E+03;  1.0000000E-01;  1.0399706E+02;0;  0.0000000E+00;  0.0000000E+00;  0.0000000E+00;0; -1.1447289E-03;  4.0000000E+04;  0.0000000E+00;  0.0000000E+00;  4.0000000E+04;  0.0000000E+00;  4.0000000E+04; -1.1693262E-03;  0.0000000E+00;  2.4597402E-05;  1.1724963E+02;
 -1.2000000E-01;  9.9999998E-03; -2.0000000E-01;751;  0.0000000E+00;  0.0000000E+00;  0.0000000E+00;  1.0001307E+03;  1.0000000E-01;  1.0824385E+02;0;  0.0000000E+00;  0.0000000E+00;  0.0000000E+00;0; -1.2183101E-03;  4.0000000E+04;  0.0000000E+00;  0.0000000E+00;  4.0000000E+04;  0.0000000E+00;  4.0000000E+04; -1.2423075E-03;  0.0000000E+00;  2.3997409E-05;  1.2243846E+02;
 -1.2000000E-01;  9.9999998E-03; -1.9000000E-01;752;  0.0000000E+00;  0.0000000E+00;  0.0000000E+00;  1.0001383E+03;  1.0000000E-01;  1.1456466E+02;0;  0.0000000E+00;  0.0000000E+00;  0.0000000E+00;0; -1.2871855E-03;  4.0000000E+04;  0.0000000E+00;  0.0000000E+00;  4.0000000E+04;  0.0000000E+00;  4.0000000E+04; -1.3093491E-03;  0.0000000E+00;  2.2163626E-05;  1.2464433E+02;
 -1.2000000E-01;  9.9999998E-03; -1.8000001E-01;753;  0.0000000E+00;  0.0000000E+00;  0.0000000E+00;  1.0001461E+03;  1.0000000E-01;  1.2098423E+02;0;  0.0000000E+00;  0.0000000E+00;  0.0000000E+00;0; -1.3491500E-03;  4.0000000E+04;  0.0000000E+00;  0.0000000E+00;  4.0000000E+04;  0.0000000E+00;  4.0000000E+04; -1.3689280E-03;  0.0000000E+00;  1.9778086E-05;  1.2456326E+02;
 -1.2000000E-01;  9.9999998E-03; -1.7000000E-01;754;  0.0000000E+00;  0.0000000E+00;  0.0000000E+00;  1.0001564E+03;  1.0000000E-01;  1.2957658E+02;0;  0.0000000E+00;  0.0000000E+00;  0.0000000E+00;0; -1.4022791E-03;  4.0000000E+04;  0.0000000E+00;  0.0000000E+00;  4.0000000E+04;  0.0000000E+00;  4.0000000E+04; -1.4196581E-03;  0.0000000E+00;  1.7378961E-05;  1.2275967E+02;
 -1.2000000E-01;  9.9999998E-03; -1.6000000E-01;755;  0.0000000E+00;  0.0000000E+00;  0.0000000E+00;  1.0001656E+03;  1.0000000E-01;  1.3718130E+02;0;  0.0000000E+00;  0.0000000E+00;  0.0000000E+00;0; -1.4452575E-03;  4.0000000E+04;  0.0000000E+00;  0.0000000E+00;  4.0000000E+04;  0.0000000E+00;  4.0000000E+04; -1.4604803E-03;  0.0000000E+00;  1.5222811E-05;  1.1953960E+02;
 -1.2000000E-01;  9.9999998E-03; -1.5000001E-01;756;  0.0000000E+00;  0.0000000E+00;  0.0000000E+00;  1.0001776E+03;  1.0000000E-01;  1.4715633E+02;0;  0.0000000E+00;  0.0000000E+00;  0.0000000E+00;0; -1.4775970E-03;  4.0000000E+04;  0.0000000E+00;  0.0000000E+00;  4.0000000E+04;  0.0000000E+00;  4.0000000E+04; -1.4910168E-03;  0.0000000E+00;  1.3419743E-05;  1.1513277E+02;
 -1.2000000E-01;  9.9999998E-03; -1.4000000E-01;757;  0.0000000E+00;  0.0000000E+00;  0.0000000E+00;  1.0001844E+03;  1.0000000E-01;  1.5278580E+02;0;  0.0000000E+00;  0.0000000E+00;  0.0000000E+00;0; -1.4996388E-03;  4.0000000E+04;  0.0000000E+00;  0.0000000E+00;  4.0000000E+04;  0.0000000E+00;  4.0000000E+04; -1.5116327E-03;  0.0000000E+00;  1.1993929E-05;  1.0982471E+02;
 -1.2000000E-01;  9.9999998E-03; -1.3000000E-01;758;  0.0000000E+00;  0.0000000E+00;  0.0000000E+00;  1.0001876E+03;  1.0000000E-01;  1.5535364E+02;0;  0.0000000E+00;  0.0000000E+00;  0.0000000E+00;0; -1.5124406E-03;  4.0000000E+04;  0.0000000E+00;  0.0000000E+00;  4.0000000E+04;  0.0000000E+00;  4.0000000E+04; -1.5233413E-03;  0.0000000E+00;  1.0900653E-05;  1.0399871E+02;
 -1.2000000E-01;  9.9999998E-03; -1.2000000E-01;759;  0.0000000E+00;  0.0000000E+00;  0.0000000E+00;  1.0001897E+03;  1.0000000E-01;  1.5713136E+02;0;  0.0000000E+00;  0.0000000E+00;  0.0000000E+00;0; -1.5175868E-03;  4.0000000E+04;  0.0000000E+00;  0.0000000E+00;  4.0000000E+04;  0.0000000E+00;  4.0000000E+04; -1.5276393E-03;  0.0000000E+00;  1.0052571E-05;  9.8119270E+01;
 -1.2000000E-01;  9.9999998E-03; -1.1000000E-01;760;  0.0000000E+00;  0.0000000E+00;  0.0000000E+00;  1.0001911E+03;  1.0000000E-01;  1.5831651E+02;0;  0.0000000E+00;  0.0000000E+00;  0.0000000E+00;0; -1.5169539E-03;  4.0000000E+04;  0.0000000E+00;  0.0000000E+00;  4.0000000E+04;  0.0000000E+00;  4.0000000E+04; -1.5263020E-03;  0.0000000E+00;  9.3480894E-06;  9.2670425E+01;
 -1.1000000E-01;  9.9999998E-03; -2.7000001E-01;835;  0.0000000E+00;  0.0000000E+00;  0.0000000E+00;  1.0001556E+03;  1.0000000E-01;  1.2888524E+02;0;  0.0000000E+00;  0.0000000E+00;  0.0000000E+00;0; -1.3634962E-03;  4.0000000E+04;  0.0000000E+00;  0.0000000E+00;  4.0000000E+04;  0.0000000E+00;  4.0000000E+04; -1.3243613E-03;  0.0000000E+00; -3.9134822E-05;  1.7006571E+01;
 -1.1000000E-01;  9.9999998E-03; -2.5999999E-01;836;  0.0000000E+00;  0.0000000E+00;  0.0000000E+00;  1.0001771E+03;  1.0000000E-01;  1.4666252E+02;0;  0.0000000E+00;  0.0000000E+00;  0.0000000E+00;0; -1.5327351E-03;  4.0000000E+04;  0.0000000E+00;  0.0000000E+00;  4.0000000E+04;  0.0000000E+00;  4.0000000E+04; -1.5158752E-03;  0.0000000E+00; -1.6859853E-05;  6.5006554E+01;
 -1.1000000E-01;  9.9999998E-03; -2.5000000E-01;837;  0.0000000E+00;  0.0000000E+00;  0.0000000E+00;  1.0001934E+03;  1.0000000E-01;  1.6019299E+02;0;  0.0000000E+00;  0.0000000E+00;  0.0000000E+00;0; -1.6987920E-03;  4.0000000E+04;  0.0000000E+00;  0.0000000E+00;  4.0000000E+04;  0.0000000E+00;  4.0000000E+04; -1.7037747E-03;  0.0000000E+00;  4.9827145E-06;  1.1197979E+02;
 -1.1000000E-01;  9.9999998E-03; -2.3999999E-01;838;  0.0000000E+00;  0.0000000E+00;  0.0000000E+00;  1.0002047E+03;  1.0000000E-01;  1.6957545E+02;0;  0.0000000E+00;  0.0000000E+00;  0.0000000E+00;0; -1.8620321E-03;  4.0000000E+04;  0.0000000E+00;  0.0000000E+00;  4.0000000E+04;  0.0000000E+00;  4.0000000E+04; -1.8860907E-03;  0.0000000E+00;  2.4058680E-05;  1.5405458E+02;
 -1.1000000E-01;  9.9999998E-03; -2.3000000E-01;839;  0.0000000E+00;  0.0000000E+00;  0.0000000E+00;  1.0002253E+03;  1.0000000E-01;  1.8666139E+02;0;  0.0000000E+00;  0.0000000E+00;  0.0000000E+00;0; -2.0228247E-03;  4.0000000E+04;  0.0000000E+00;  0.0000000E+00;  4.0000000E+04;  0.0000000E+00;  4.0000000E+04; -2.0615105E-03;  0.0000000E+00;  3.8685772E-05;  1.8849786E+02;
 -1.1000000E-01;  9.9999998E-03; -2.2000000E-01;840;  0.0000000E+00;  0.0000000E+00;  0.0000000E+00;  1.0002401E+03;  1.0000000E-01;  1.9890796E+02;0;  0.0000000E+00;  0.0000000E+00;  0.0000000E+00;0; -2.1809353E-03;  4.0000000E+04;  0.0000000E+00;  0.0000000E+00;  4.0000000E+04;  0.0000000E+00;  4.0000000E+04; -2.2290060E-03;  0.0000000E+00;  4.8070789E-05;  2.1397589E+02;
 -1.1000000E-01;  9.9999998E-03; -2.0999999E-01;841;  0.0000000E+00;  0.0000000E+00;  0.0000000E+00;  1.0002602E+03;  1.0000000E-01;  2.1559885E+02;0;  0.0000000E+00;  0.0000000E+00;  0.0000000E+00;0; -2.3349957E-03;  4.0000000E+04;  0.0000000E+00;  0.0000000E+00;  4.0000000E+04;  0.0000000E+00;  4.0000000E+04; -2.3873306E-03;  0.0000000E+00;  5.2335065E-05;  2.3050972E+02;
 -1.1000000E-01;  9.9999998E-03; -2.0000000E-01;842;  0.0000000E+00;  0.0000000E+00;  0.0000000E+00;  1.0002728E+03;  1.0000000E-01;  2.2606769E+02;0;  0.0000000E+00;  0.0000000E+00;  0.0000000E+00;0; -2.4824576E-03;  4.0000000E+04;  0.0000000E+00;  0.0000000E+00;  4.0000000E+04;  0.0000000E+00;  4.0000000E+04; -2.5348121E-03;  0.0000000E+00;  5.2354579E-05;  2.3915874E+02;
 -1.1000000E-01;  9.9999998E-03; -1.9000000E-01;843;  0.0000000E+00;  0.0000000E+00;  0.0000000E+00;  1.0002933E+03;  1.0000000E-01;  2.4295609E+02;0;  0.0000000E+00;  0.0000000E+00;  0.0000000E+00;0; -2.6198111E-03;  4.0000000E+04;  0.0000000E+00;  0.0000000E+00;  4.0000000E+04;  0.0000000E+00;  4.0000000E+04; -2.6692497E-03;  0.0000000E+00;  4.9438451E-05;  2.4149855E+02;
 -1.1000000E-01;  9.9999998E-03; -1.8000001E-01;844;  0.0000000E+00;  0.0000000E+00;  0.0000000E+00;  1.0003041E+03;  1.0000000E-01;  2.5194350E+02;0;  0.0000000E+00;  0.0000000E+00;  0.0000000E+00;0; -2.7431948E-03;  4.0000000E+04;  0.0000000E+00;  0.0000000E+00;  4.0000000E+04;  0.0000000E+00;  4.0000000E+04; -2.7881507E-03;  0.0000000E+00;  4.4955901E-05;  2.3909801E+02;
 -1.1000000E-01;  9.9999998E-03; -1.7000000E-01;845;  0.0000000E+00;  0.0000000E+00;  0.0000000E+00;  1.0003223E+03;  1.0000000E-01;  2.6695541E+02;0;  0.0000000E+00;  0.0000000E+00;  0.0000000E+00;0; -2.8491754E-03;  4.0000000E+04;  0.0000000E+00;  0.0000000E+00;  4.0000000E+04;  0.0000000E+00;  4.0000000E+04; -2.8892260E-03;  0.0000000E+00;  4.0050563E-05;  2.3322398E+02;
 -1.1000000E-01;  9.9999998E-03; -1.6000000E-01;846;  0.0000000E+00;  0.0000000E+00;  0.0000000E+00;  1.0003312E+03;  1.0000000E-01;  2.7436261E+02;0;  0.0000000E+00;  0.0000000E+00;  0.0000000E+00;0; -2.9353932E-03;  4.0000000E+04;  0.0000000E+00;  0.0000000E+00;  4.0000000E+04;  0.0000000E+00;  4.0000000E+04; -2.9709102E-03;  0.0000000E+00;  3.5516870E-05;  2.2485394E+02;
 -1.1000000E-01;  9.9999998E-03; -1.5000001E-01;847;  0.0000000E+00;  0.0000000E+00;  0.0000000E+00;  1.0003396E+03;  1.0000000E-01;  2.8137476E+02;0;  0.0000000E+00;  0.0000000E+00;  0.0000000E+00;0; -3.0009318E-03;  4.0000000E+04;  0.0000000E+00;  0.0000000E+00;  4.0000000E+04;  0.0000000E+00;  4.0000000E+04; -3.0326138E-03;  0.0000000E+00;  3.1681870E-05;  2.1461703E+02;
 -1.1000000E-01;  9.9999998E-03; -1.4000000E-01;848;  0.0000000E+00;  0.0000000E+00;  0.0000000E+00;  1.0003518E+03;  1.0000000E-01;  2.9144855E+02;0;  0.0000000E+00;  0.0000000E+00;  0.0000000E+00;0; -3.0463836E-03;  4.0000000E+04;  0.0000000E+00;  0.0000000E+00;  4.0000000E+04;  0.0000000E+00;  4.0000000E+04; -3.0750111E-03;  0.0000000E+00;  2.8627430E-05;  2.0308060E+02;
 -1.1000000E-01;  9.9999998E-03; -1.3000000E-01;849;  0.0000000E+00;  0.0000000E+00;  0.0000000E+00;  1.0003704E+03;  1.0000000E-01;  3.0685553E+02;0;  0.0000000E+00;  0.0000000E+00;  0.0000000E+00;0; -3.0736711E-03;  4.0000000E+04;  0.0000000E+00;  0.0000000E+00;  4.0000000E+04;  0.0000000E+00;  4.0000000E+04; -3.0999531E-03;  0.0000000E+00;  2.6281876E-05;  1.9090675E+02;
 -1.1000000E-01;  9.9999998E-03; -1.2000000E-01;850;  0.0000000E+00;  0.0000000E+00;  0.0000000E+00;  1.0003782E+03;  1.0000000E-01;  3.1337384E+02;0;  0.0000000E+00;  0.0000000E+00;  0.0000000E+00;0; -3.0856968E-03;  4.0000000E+04;  0.0000000E+00;  0.0000000E+00;  4.0000000E+04;  0.0000000E+00;  4.0000000E+04; -3.1101676E-03;  0.0000000E+00;  2.4470666E-05;  1.7887337E+02;
 -1.1000000E-01;  9.9999998E-03; -1.1000000E-01;851;  0.0000000E+00;  0.0000000E+00;  0.0000000E+00;  1.0003816E+03;  1.0000000E-01;  3.1613922E+02;0;  0.0000000E+00;  0.0000000E+00;  0.0000000E+00;0; -3.0859609E-03;  4.0000000E+04;  0.0000000E+00;  0.0000000E+00;  4.0000000E+04;  0.0000000E+00;  4.0000000E+04; -3.1089368E-03;  0.0000000E+00;  2.2976064E-05;  1.6780244E+02;
 -1.0000000E-01;  9.9999998E-03; -2.7000001E-01;926;  0.0000000E+00;  0.0000000E+00;  0.0000000E+00;  1.0002855E+03;  1.0000000E-01;  2.3653651E+02;0;  0.0000000E+00;  0.0000000E+00;  0.0000000E+00;0; -2.4882916E-03;  4.0000000E+04;  0.0000000E+00;  0.0000000E+00;  4.0000000E+04;  0.0000000E+00;  4.0000000E+04; -2.4125096E-03;  0.0000000E+00; -7.5782009E-05;  3.7786736E+01;
 -1.0000000E-01;  9.9999998E-03; -2.5999999E-01;927;  0.0000000E+00;  0.0000000E+00;  0.0000000E+00;  1.0003138E+03;  1.0000000E-01;  2.5994327E+02;0;  0.0000000E+00;  0.0000000E+00;  0.0000000E+00;0; -2.7951133E-03;  4.0000000E+04;  0.0000000E+00;  0.0000000E+00;  4.0000000E+04;  0.0000000E+00;  4.0000000E+04; -2.7600063E-03;  0.0000000E+00; -3.5106954E-05;  1.2110414E+02;
 -1.0000000E-01;  9.9999998E-03; -2.5000000E-01;928;  0.0000000E+00;  0.0000000E+00;  0.0000000E+00;  1.0003543E+03;  1.0000000E-01;  2.9352255E+02;0;  0.0000000E+00;  0.0000000E+00;  0.0000000E+00;0; -3.0974085E-03;  4.0000000E+04;  0.0000000E+00;  0.0000000E+00;  4.0000000E+04;  0.0000000E+00;  4.0000000E+04; -3.1024758E-03;  0.0000000E+00;  5.0672247E-06;  2.0219702E+02;
 -1.0000000E-01;  9.9999998E-03; -2.3999999E-01;929;  0.0000000E+00;  0.0000000E+00;  0.0000000E+00;  1.0003747E+03;  1.0000000E-01;  3.1041098E+02;0;  0.0000000E+00;  0.0000000E+00;  0.0000000E+00;0; -3.3947870E-03;  4.0000000E+04;  0.0000000E+00;  0.0000000E+00;  4.0000000E+04;  0.0000000E+00;  4.0000000E+04; -3.4354937E-03;  0.0000000E+00;  4.0706629E-05;  2.7450864E+02;
 -1.0000000E-01;  9.9999998E-03; -2.3000000E-01;930;  0.0000000E+00;  0.0000000E+00;  0.0000000E+00;  1.0004128E+03;  1.0000000E-01;  3.4201501E+02;0;  0.0000000E+00;  0.0000000E+00;  0.0000000E+00;0; -3.6868474E-03;  4.0000000E+04;  0.0000000E+00;  0.0000000E+00;  4.0000000E+04;  0.0000000E+00;  4.0000000E+04; -3.7556498E-03;  0.0000000E+00;  6.8802328E-05;  3.3341205E+02;
 -1.0000000E-01;  9.9999998E-03; -2.2000000E-01;931;  0.0000000E+00;  0.0000000E+00;  0.0000000E+00;  1.0004379E+03;  1.0000000E-01;  3.6285394E+02;0;  0.0000000E+00;  0.0000000E+00;  0.0000000E+00;0; -3.9723711E-03;  4.0000000E+04;  0.0000000E+00;  0.0000000E+00;  4.0000000E+04;  0.0000000E+00;  4.0000000E+04; -4.0601422E-03;  0.0000000E+00;  8.7770997E-05;  3.7650137E+02;
 -1.0000000E-01;  9.9999998E-03; -2.0999999E-01;932;  0.0000000E+00;  0.0000000E+00;  0.0000000E+00;  1.0004716E+03;  1.0000000E-01;  3.9070499E+02;0;  0.0000000E+00;  0.0000000E+00;  0.0000000E+00;0; -4.2486303E-03;  4.0000000E+04;  0.0000000E+00;  0.0000000E+00;  4.0000000E+04;  0.0000000E+00;  4.0000000E+04; -4.3461756E-03;  0.0000000E+00;  9.7545242E-05;  4.0357822E+02;
 -1.0000000E-01;  9.9999998E-03; -2.0000000E-01;933;  0.0000000E+00;  0.0000000E+00;  0.0000000E+00;  1.0004973E+03;  1.0000000E-01;  4.1203772E+02;0;  0.0000000E+00;  0.0000000E+00;  0.0000000E+00;0; -4.5113117E-03;  4.0000000E+04;  0.0000000E+00;  0.0000000E+00;  4.0000000E+04;  0.0000000E+00;  4.0000000E+04; -4.6106903E-03;  0.0000000E+00;  9.9378674E-05;  4.1625983E+02;
 -1.0000000E-01;  9.9999998E-03; -1.9000000E-01;934;  0.0000000E+00;  0.0000000E+00;  0.0000000E+00;  1.0005280E+03;  1.0000000E-01;  4.3741974E+02;0;  0.0000000E+00;  0.0000000E+00;  0.0000000E+00;0; -4.7548269E-03;  4.0000000E+04;  0.0000000E+00;  0.0000000E+00;  4.0000000E+04;  0.0000000E+00;  4.0000000E+04; -4.8502246E-03;  0.0000000E+00;  9.5397561E-05;  4.1727536E+02;
 -1.0000000E-01;  9.9999998E-03; -1.8000001E-01;935;  0.0000000E+00;  0.0000000E+00;  0.0000000E+00;  1.0005595E+03;  1.0000000E-01;  4.6359183E+02;0;  0.0000000E+00;  0.0000000E+00;  0.0000000E+00;0; -4.9731000E-03;  4.0000000E+04;  0.0000000E+00;  0.0000000E+00;  4.0000000E+04;  0.0000000E+00;  4.0000000E+04; -5.0611235E-03;  0.0000000E+00;  8.8023480E-05;  4.0964886E+02;
 -1.0000000E-01;  9.9999998E-03; -1.7000000E-01;936;  0.0000000E+00;  0.0000000E+00;  0.0000000E+00;  1.0005839E+03;  1.0000000E-01;  4.8373941E+02;0;  0.0000000E+00;  0.0000000E+00;  0.0000000E+00;0; -5.1606479E-03;  4.0000000E+04;  0.0000000E+00;  0.0000000E+00;  4.0000000E+04;  0.0000000E+00;  4.0000000E+04; -5.2400664E-03;  0.0000000E+00;  7.9418554E-05;  3.9599155E+02;
 -1.0000000E-01;  9.9999998E-03; -1.6000000E-01;937;  0.0000000E+00;  0.0000000E+00;  0.0000000E+00;  1.0006023E+03;  1.0000000E-01;  4.9894885E+02;0;  0.0000000E+00;  0.0000000E+00;  0.0000000E+00;0; -5.3136656E-03;  4.0000000E+04;  0.0000000E+00;  0.0000000E+00;  4.0000000E+04;  0.0000000E+00;  4.0000000E+04; -5.3848210E-03;  0.0000000E+00;  7.1155497E-05;  3.7827390E+02;
 -1.0000000E-01;  9.9999998E-03; -1.5000001E-01;938;  0.0000000E+00;  0.0000000E+00;  0.0000000E+00;  1.0006283E+03;  1.0000000E-01;  5.2057788E+02;0;  0.0000000E+00;  0.0000000E+00;  0.0000000E+00;0; -5.4306365E-03;  4.0000000E+04;  0.0000000E+00;  0.0000000E+00;  4.0000000E+04;  0.0000000E+00;  4.0000000E+04; -5.4947683E-03;  0.0000000E+00;  6.4131615E-05;  3.5795673E+02;
 -1.0000000E-01;  9.9999998E-03; -1.4000000E-01;939;  0.0000000E+00;  0.0000000E+00;  0.0000000E+00;  1.0006451E+03;  1.0000000E-01;  5.3450342E+02;0;  0.0000000E+00;  0.0000000E+00;  0.0000000E+00;0; -5.5125719E-03;  4.0000000E+04;  0.0000000E+00;  0.0000000E+00;  4.0000000E+04;  0.0000000E+00;  4.0000000E+04; -5.5711390E-03;  0.0000000E+00;  5.8566922E-05;  3.3608530E+02;
 -1.0000000E-01;  9.9999998E-03; -1.3000000E-01;940;  0.0000000E+00;  0.0000000E+00;  0.0000000E+00;  1.0006583E+03;  1.0000000E-01;  5.4536731E+02;0;  0.0000000E+00;  0.0000000E+00;  0.0000000E+00;0; -5.5626626E-03;  4.0000000E+04;  0.0000000E+00;  0.0000000E+00;  4.0000000E+04;  0.0000000E+00;  4.0000000E+04; -5.6170085E-03;  0.0000000E+00;  5.4345979E-05;  3.1369653E+02;
 -1.0000000E-01;  9.9999998E-03; -1.2000000E-01;941;  0.0000000E+00;  0.0000000E+00;  0.0000000E+00;  1.0006697E+03;  1.0000000E-01;  5.5484851E+02;0;  0.0000000E+00;  0.0000000E+00;  0.0000000E+00;0; -5.5857678E-03;  4.0000000E+04;  0.0000000E+00;  0.0000000E+00;  4.0000000E+04;  0.0000000E+00;  4.0000000E+04; -5.6369114E-03;  0.0000000E+00;  5.1143576E-05;  2.9193771E+02;
 -1.0000000E-01;  9.9999998E-03; -1.1000000E-01;942;  0.0000000E+00;  0.0000000E+00;  0.0000000E+00;  1.0006789E+03;  1.0000000E-01;  5.6245325E+02;0;  0.0000000E+00;  0.0000000E+00;  0.0000000E+00;0; -5.5877743E-03;  4.0000000E+04;  0.0000000E+00;  0.0000000E+00;  4.0000000E+04;  0.0000000E+00;  4.0000000E+04; -5.6363093E-03;  0.0000000E+00;  4.8534897E-05;  2.7204492E+02;
 -9.0000004E-02;  9.9999998E-03; -2.7000001E-01;1017;  0.0000000E+00;  0.0000000E+00;  0.0000000E+00;  1.0004786E+03;  1.0000000E-01;  3.9653198E+02;0;  0.0000000E+00;  0.0000000E+00;  0.0000000E+00;0; -4.1896263E-03;  4.0000000E+04;  0.0000000E+00;  0.0000000E+00;  4.0000000E+04;  0.0000000E+00;  4.0000000E+04; -4.0569552E-03;  0.0000000E+00; -1.3267092E-04;  7.5056862E+01;
 -9.0000004E-02;  9.9999998E-03; -2.5999999E-01;1018;  0.0000000E+00;  0.0000000E+00;  0.0000000E+00;  1.0005314E+03;  1.0000000E-01;  4.4018509E+02;0;  0.0000000E+00;  0.0000000E+00;  0.0000000E+00;0; -4.7010854E-03;  4.0000000E+04;  0.0000000E+00;  0.0000000E+00;  4.0000000E+04;  0.0000000E+00;  4.0000000E+04; -4.6367771E-03;  0.0000000E+00; -6.4308188E-05;  2.0761871E+02;
 -9.0000004E-02;  9.9999998E-03; -2.5000000E-01;1019;  0.0000000E+00;  0.0000000E+00;  0.0000000E+00;  1.0005785E+03;  1.0000000E-01;  4.7929507E+02;0;  0.0000000E+00;  0.0000000E+00;  0.0000000E+00;0; -5.2058930E-03;  4.0000000E+04;  0.0000000E+00;  0.0000000E+00;  4.0000000E+04;  0.0000000E+00;  4.0000000E+04; -5.2092760E-03;  0.0000000E+00;  3.3830074E-06;  3.3590067E+02;
 -9.0000004E-02;  9.9999998E-03; -2.3999999E-01;1020;  0.0000000E+00;  0.0000000E+00;  0.0000000E+00;  1.0006364E+03;  1.0000000E-01;  5.2719495E+02;0;  0.0000000E+00;  0.0000000E+00;  0.0000000E+00;0; -5.7022683E-03;  4.0000000E+04;  0.0000000E+00;  0.0000000E+00;  4.0000000E+04;  0.0000000E+00;  4.0000000E+04; -5.7662032E-03;  0.0000000E+00;  6.3934647E-05;  4.4953983E+02;
 -9.0000004E-02;  9.9999998E-03; -2.3000000E-01;1021;  0.0000000E+00;  0.0000000E+00;  0.0000000E+00;  1.0006873E+03;  1.0000000E-01;  5.6936664E+02;0;  0.0000000E+00;  0.0000000E+00;  0.0000000E+00;0; -6.1884047E-03;  4.0000000E+04;  0.0000000E+00;  0.0000000E+00;  4.0000000E+04;  0.0000000E+00;  4.0000000E+04; -6.3008582E-03;  0.0000000E+00;  1.1245328E-04;  5.4139813E+02;
 -9.0000004E-02;  9.9999998E-03; -2.2000000E-01;1022;  0.0000000E+00;  0.0000000E+00;  0.0000000E+00;  1.0007408E+03;  1.0000000E-01;  6.1371106E+02;0;  0.0000000E+00;  0.0000000E+00;  0.0000000E+00;0; -6.6613783E-03;  4.0000000E+04;  0.0000000E+00;  0.0000000E+00;  4.0000000E+04;  0.0000000E+00;  4.0000000E+04; -6.8076090E-03;  0.0000000E+00;  1.4623074E-04;  6.0770068E+02;
 -9.0000004E-02;  9.9999998E-03; -2.0999999E-01;1023;  0.0000000E+00;  0.0000000E+00;  0.0000000E+00;  1.0007834E+03;  1.0000000E-01;  6.4906805E+02;0;  0.0000000E+00;  0.0000000E+00;  0.0000000E+00;0; -7.1163606E-03;  4.0000000E+04;  0.0000000E+00;  0.0000000E+00;  4.0000000E+04;  0.0000000E+00;  4.0000000E+04; -7.2812666E-03;  0.0000000E+00;  1.6490615E-04;  6.4801166E+02;
 -9.0000004E-02;  9.9999998E-03; -2.0000000E-01;1024;  0.0000000E+00;  0.0000000E+00;  0.0000000E+00;  1.0008344E+03;  1.0000000E-01;  6.9123969E+02;0;  0.0000000E+00;  0.0000000E+00;  0.0000000E+00;0; -7.5464980E-03;  4.0000000E+04;  0.0000000E+00;  0.0000000E+00;  4.0000000E+04;  0.0000000E+00;  4.0000000E+04; -7.7167158E-03;  0.0000000E+00;  1.7021764E-04;  6.6470825E+02;
 -9.0000004E-02;  9.9999998E-03; -1.9000000E-01;1025;  0.0000000E+00;  0.0000000E+00;  0.0000000E+00;  1.0008854E+03;  1.0000000E-01;  7.3351013E+02;0;  0.0000000E+00;  0.0000000E+00;  0.0000000E+00;0; -7.9433760E-03;  4.0000000E+04;  0.0000000E+00;  0.0000000E+00;  4.0000000E+04;  0.0000000E+00;  4.0000000E+04; -8.1087640E-03;  0.0000000E+00;  1.6538831E-04;  6.6205981E+02;
 -9.0000004E-02;  9.9999998E-03; -1.8000001E-01;1026;  0.0000000E+00;  0.0000000E+00;  0.0000000E+00;  1.0009315E+03;  1.0000000E-01;  7.7173126E+02;0;  0.0000000E+00;  0.0000000E+00;  0.0000000E+00;0; -8.2980301E-03;  4.0000000E+04;  0.0000000E+00;  0.0000000E+00;  4.0000000E+04;  0.0000000E+00;  4.0000000E+04; -8.4523326E-03;  0.0000000E+00;  1.5430216E-04;  6.4511005E+02;
 -9.0000004E-02;  9.9999998E-03; -1.7000000E-01;1027;  0.0000000E+00;  0.0000000E+00;  0.0000000E+00;  1.0009727E+03;  1.0000000E-01;  8.0580438E+02;0;  0.0000000E+00;  0.0000000E+00;  0.0000000E+00;0; -8.6024469E-03;  4.0000000E+04;  0.0000000E+00;  0.0000000E+00;  4.0000000E+04;  0.0000000E+00;  4.0000000E+04; -8.7430906E-03;  0.0000000E+00;  1.4064363E-04;  6.1856189E+02;
 -9.0000004E-02;  9.9999998E-03; -1.6000000E-01;1028;  0.0000000E+00;  0.0000000E+00;  0.0000000E+00;  1.0010118E+03;  1.0000000E-01;  8.3819849E+02;0;  0.0000000E+00;  0.0000000E+00;  0.0000000E+00;0; -8.8509284E-03;  4.0000000E+04;  0.0000000E+00;  0.0000000E+00;  4.0000000E+04;  0.0000000E+00;  4.0000000E+04; -8.9781480E-03;  0.0000000E+00;  1.2721936E-04;  5.8603198E+02;
 -9.0000004E-02;  9.9999998E-03; -1.5000001E-01;1029;  0.0000000E+00;  0.0000000E+00;  0.0000000E+00;  1.0010485E+03;  1.0000000E-01;  8.6871619E+02;0;  0.0000000E+00;  0.0000000E+00;  0.0000000E+00;0; -9.0412796E-03;  4.0000000E+04;  0.0000000E+00;  0.0000000E+00;  4.0000000E+04;  0.0000000E+00;  4.0000000E+04; -9.1570141E-03;  0.0000000E+00;  1.1573454E-04;  5.5012244E+02;
 -9.0000004E-02;  9.9999998E-03; -1.4000000E-01;1030;  0.0000000E+00;  0.0000000E+00;  0.0000000E+00;  1.0010758E+03;  1.0000000E-01;  8.9133282E+02;0;  0.0000000E+00;  0.0000000E+00;  0.0000000E+00;0; -9.1751050E-03;  4.0000000E+04;  0.0000000E+00;  0.0000000E+00;  4.0000000E+04;  0.0000000E+00;  4.0000000E+04; -9.2819082E-03;  0.0000000E+00;  1.0680348E-04;  5.1270160E+02;
 -9.0000004E-02;  9.9999998E-03; -1.3000000E-01;1031;  0.0000000E+00;  0.0000000E+00;  0.0000000E+00;  1.0011041E+03;  1.0000000E-01;  9.1473956E+02;0;  0.0000000E+00;  0.0000000E+00;  0.0000000E+00;0; -9.2574535E-03;  4.0000000E+04;  0.0000000E+00;  0.0000000E+00;  4.0000000E+04;  0.0000000E+00;  4.0000000E+04; -9.3576834E-03;  0.0000000E+00;  1.0022974E-04;  4.7527542E+02;
 -9.0000004E-02;  9.9999998E-03; -1.2000000E-01;1032;  0.0000000E+00;  0.0000000E+00;  0.0000000E+00;  1.0011227E+03;  1.0000000E-01;  9.3014655E+02;0;  0.0000000E+00;  0.0000000E+00;  0.0000000E+00;0; -9.2959646E-03;  4.0000000E+04;  0.0000000E+00;  0.0000000E+00;  4.0000000E+04;  0.0000000E+00;  4.0000000E+04; -9.3913916E-03;  0.0000000E+00;  9.5426767E-05;  4.3941016E+02;
 -9.0000004E-02;  9.9999998E-03; -1.1000000E-01;1033;  0.0000000E+00;  0.0000000E+00;  0.0000000E+00;  1.0011357E+03;  1.0000000E-01;  9.4091168E+02;0;  0.0000000E+00;  0.0000000E+00;  0.0000000E+00;0; -9.2999078E-03;  4.0000000E+04;  0.0000000E+00;  0.0000000E+00;  4.0000000E+04;  0.0000000E+00;  4.0000000E+04; -9.3915220E-03;  0.0000000E+00;  9.1614427E-05;  4.0678632E+02;
 -7.9999998E-02;  9.9999998E-03; -2.7000001E-01;1108;  0.0000000E+00;  0.0000000E+00;  0.0000000E+00;  1.0007577E+03;  1.0000000E-01;  6.2773535E+02;0;  0.0000000E+00;  0.0000000E+00;  0.0000000E+00;0; -6.6259471E-03;  4.0000000E+04;  0.0000000E+00;  0.0000000E+00;  4.0000000E+04;  0.0000000E+00;  4.0000000E+04; -6.4112567E-03;  0.0000000E+00; -2.1469014E-04;  1.3614549E+02;
 -7.9999998E-02;  9.9999998E-03; -2.5999999E-01;1109;  0.0000000E+00;  0.0000000E+00;  0.0000000E+00;  1.0008376E+03;  1.0000000E-01;  6.9400507E+02;0;  0.0000000E+00;  0.0000000E+00;  0.0000000E+00;0; -7.4253399E-03;  4.0000000E+04;  0.0000000E+00;  0.0000000E+00;  4.0000000E+04;  0.0000000E+00;  4.0000000E+04; -7.3183263E-03;  0.0000000E+00; -1.0701343E-04;  3.3328275E+02;
 -7.9999998E-02;  9.9999998E-03; -2.5000000E-01;1110;  0.0000000E+00;  0.0000000E+00;  0.0000000E+00;  1.0009204E+03;  1.0000000E-01;  7.6254633E+02;0;  0.0000000E+00;  0.0000000E+00;  0.0000000E+00;0; -8.2145939E-03;  4.0000000E+04;  0.0000000E+00;  0.0000000E+00;  4.0000000E+04;  0.0000000E+00;  4.0000000E+04; -8.2141096E-03;  0.0000000E+00; -4.8399500E-07;  5.2277448E+02;
 -7.9999998E-02;  9.9999998E-03; -2.3999999E-01;1111;  0.0000000E+00;  0.0000000E+00;  0.0000000E+00;  1.0010022E+03;  1.0000000E-01;  8.3029749E+02;0;  0.0000000E+00;  0.0000000E+00;  0.0000000E+00;0; -8.9897802E-03;  4.0000000E+04;  0.0000000E+00;  0.0000000E+00;  4.0000000E+04;  0.0000000E+00;  4.0000000E+04; -9.0848804E-03;  0.0000000E+00;  9.5100120E-05;  6.8915082E+02;
 -7.9999998E-02;  9.9999998E-03; -2.3000000E-01;1112;  0.0000000E+00;  0.0000000E+00;  0.0000000E+00;  1.0010817E+03;  1.0000000E-01;  8.9617218E+02;0;  0.0000000E+00;  0.0000000E+00;  0.0000000E+00;0; -9.7469054E-03;  4.0000000E+04;  0.0000000E+00;  0.0000000E+00;  4.0000000E+04;  0.0000000E+00;  4.0000000E+04; -9.9192280E-03;  0.0000000E+00;  1.7232263E-04;  8.2216754E+02;
 -7.9999998E-02;  9.9999998E-03; -2.2000000E-01;1113;  0.0000000E+00;  0.0000000E+00;  0.0000000E+00;  1.0011577E+03;  1.0000000E-01;  9.5918274E+02;0;  0.0000000E+00;  0.0000000E+00;  0.0000000E+00;0; -1.0480448E-02;  4.0000000E+04;  0.0000000E+00;  0.0000000E+00;  4.0000000E+04;  0.0000000E+00;  4.0000000E+04; -1.0707462E-02;  0.0000000E+00;  2.2701426E-04;  9.1653967E+02;
 -7.9999998E-02;  9.9999998E-03; -2.0999999E-01;1114;  0.0000000E+00;  0.0000000E+00;  0.0000000E+00;  1.0012379E+03;  1.0000000E-01;  1.0255513E+03;0;  0.0000000E+00;  0.0000000E+00;  0.0000000E+00;0; -1.1182539E-02;  4.0000000E+04;  0.0000000E+00;  0.0000000E+00;  4.0000000E+04;  0.0000000E+00;  4.0000000E+04; -1.1441017E-02;  0.0000000E+00;  2.5847740E-04;  9.7176300E+02;
 -7.9999998E-02;  9.9999998E-03; -2.0000000E-01;1115;  0.0000000E+00;  0.0000000E+00;  0.0000000E+00;  1.0013136E+03;  1.0000000E-01;  1.0882655E+03;0;  0.0000000E+00;  0.0000000E+00;  0.0000000E+00;0; -1.1842807E-02;  4.0000000E+04;  0.0000000E+00;  0.0000000E+00;  4.0000000E+04;  0.0000000E+00;  4.0000000E+04; -1.2111944E-02;  0.0000000E+00;  2.6913732E-04;  9.9136066E+02;
 -7.9999998E-02;  9.9999998E-03; -1.9000000E-01;1116;  0.0000000E+00;  0.0000000E+00;  0.0000000E+00;  1.0013893E+03;  1.0000000E-01;  1.1510786E+03;0;  0.0000000E+00;  0.0000000E+00;  0.0000000E+00;0; -1.2449113E-02;  4.0000000E+04;  0.0000000E+00;  0.0000000E+00;  4.0000000E+04;  0.0000000E+00;  4.0000000E+04; -1.2712812E-02;  0.0000000E+00;  2.6369892E-04;  9.8163690E+02;
 -7.9999998E-02;  9.9999998E-03; -1.8000001E-01;1117;  0.0000000E+00;  0.0000000E+00;  0.0000000E+00;  1.0014627E+03;  1.0000000E-01;  1.2118176E+03;0;  0.0000000E+00;  0.0000000E+00;  0.0000000E+00;0; -1.2988892E-02;  4.0000000E+04;  0.0000000E+00;  0.0000000E+00;  4.0000000E+04;  0.0000000E+00;  4.0000000E+04; -1.3236903E-02;  0.0000000E+00;  2.4801030E-04;  9.5019452E+02;
 -7.9999998E-02;  9.9999998E-03; -1.7000000E-01;1118;  0.0000000E+00;  0.0000000E+00;  0.0000000E+00;  1.0015262E+03;  1.0000000E-01;  1.2644580E+03;0;  0.0000000E+00;  0.0000000E+00;  0.0000000E+00;0; -1.3451003E-02;  4.0000000E+04;  0.0000000E+00;  0.0000000E+00;  4.0000000E+04;  0.0000000E+00;  4.0000000E+04; -1.3678840E-02;  0.0000000E+00;  2.2783667E-04;  9.0447980E+02;
 -7.9999998E-02;  9.9999998E-03; -1.6000000E-01;1119;  0.0000000E+00;  0.0000000E+00;  0.0000000E+00;  1.0015862E+03;  1.0000000E-01;  1.3141356E+03;0;  0.0000000E+00;  0.0000000E+00;  0.0000000E+00;0; -1.3827582E-02;  4.0000000E+04;  0.0000000E+00;  0.0000000E+00;  4.0000000E+04;  0.0000000E+00;  4.0000000E+04; -1.4035376E-02;  0.0000000E+00;  2.0779377E-04;  8.5055615E+02;
 -7.9999998E-02;  9.9999998E-03; -1.5000001E-01;1120;  0.0000000E+00;  0.0000000E+00;  0.0000000E+00;  1.0016431E+03;  1.0000000E-01;  1.3612455E+03;0;  0.0000000E+00;  0.0000000E+00;  0.0000000E+00;0; -1.4115706E-02;  4.0000000E+04;  0.0000000E+00;  0.0000000E+00;  4.0000000E+04;  0.0000000E+00;  4.0000000E+04; -1.4306452E-02;  0.0000000E+00;  1.9074634E-04;  7.9261090E+02;
 -7.9999998E-02;  9.9999998E-03; -1.4000000E-01;1121;  0.0000000E+00;  0.0000000E+00;  0.0000000E+00;  1.0016851E+03;  1.0000000E-01;  1.3960099E+03;0;  0.0000000E+00;  0.0000000E+00;  0.0000000E+00;0; -1.4317924E-02;  4.0000000E+04;  0.0000000E+00;  0.0000000E+00;  4.0000000E+04;  0.0000000E+00;  4.0000000E+04; -1.4495810E-02;  0.0000000E+00;  1.7788586E-04;  7.3358044E+02;
 -7.9999998E-02;  9.9999998E-03; -1.3000000E-01;1122;  0.0000000E+00;  0.0000000E+00;  0.0000000E+00;  1.0017272E+03;  1.0000000E-01;  1.4309719E+03;0;  0.0000000E+00;  0.0000000E+00;  0.0000000E+00;0; -1.4441878E-02;  4.0000000E+04;  0.0000000E+00;  0.0000000E+00;  4.0000000E+04;  0.0000000E+00;  4.0000000E+04; -1.4610828E-02;  0.0000000E+00;  1.6895033E-04;  6.7560352E+02;
 -7.9999998E-02;  9.9999998E-03; -1.2000000E-01;1123;  0.0000000E+00;  0.0000000E+00;  0.0000000E+00;  1.0017552E+03;  1.0000000E-01;  1.4541812E+03;0;  0.0000000E+00;  0.0000000E+00;  0.0000000E+00;0; -1.4499078E-02;  4.0000000E+04;  0.0000000E+00;  0.0000000E+00;  4.0000000E+04;  0.0000000E+00;  4.0000000E+04; -1.4661982E-02;  0.0000000E+00;  1.6290374E-04;  6.2066547E+02;
 -7.9999998E-02;  9.9999998E-03; -1.1000000E-01;1124;  0.0000000E+00;  0.0000000E+00;  0.0000000E+00;  1.0017757E+03;  1.0000000E-01;  1.4711682E+03;0;  0.0000000E+00;  0.0000000E+00;  0.0000000E+00;0; -1.4503431E-02;  4.0000000E+04;  0.0000000E+00;  0.0000000E+00;  4.0000000E+04;  0.0000000E+00;  4.0000000E+04; -1.4661802E-02;  0.0000000E+00;  1.5837114E-04;  5.7089075E+02;
 -7.0000000E-02;  9.9999998E-03; -2.7000001E-01;1199;  0.0000000E+00;  0.0000000E+00;  0.0000000E+00;  1.0011392E+03;  1.0000000E-01;  9.4377576E+02;0;  0.0000000E+00;  0.0000000E+00;  0.0000000E+00;0; -9.9511510E-03;  4.0000000E+04;  0.0000000E+00;  0.0000000E+00;  4.0000000E+04;  0.0000000E+00;  4.0000000E+04; -9.6253734E-03;  0.0000000E+00; -3.2577713E-04;  2.2879854E+02;
 -7.0000000E-02;  9.9999998E-03; -2.5999999E-01;1200;  0.0000000E+00;  0.0000000E+00;  0.0000000E+00;  1.0012611E+03;  1.0000000E-01;  1.0448099E+03;0;  0.0000000E+00;  0.0000000E+00;  0.0000000E+00;0; -1.1136363E-02;  4.0000000E+04;  0.0000000E+00;  0.0000000E+00;  4.0000000E+04;  0.0000000E+00;  4.0000000E+04; -1.0971496E-02;  0.0000000E+00; -1.6486713E-04;  5.0647214E+02;
 -7.0000000E-02;  9.9999998E-03; -2.5000000E-01;1201;  0.0000000E+00;  0.0000000E+00;  0.0000000E+00;  1.0013810E+03;  1.0000000E-01;  1.1441652E+03;0;  0.0000000E+00;  0.0000000E+00;  0.0000000E+00;0; -1.2305771E-02;  4.0000000E+04;  0.0000000E+00;  0.0000000E+00;  4.0000000E+04;  0.0000000E+00;  4.0000000E+04; -1.2299540E-02;  0.0000000E+00; -6.2307204E-06;  7.7109631E+02;
 -7.0000000E-02;  9.9999998E-03; -2.3999999E-01;1202;  0.0000000E+00;  0.0000000E+00;  0.0000000E+00;  1.0015031E+03;  1.0000000E-01;  1.2452981E+03;0;  0.0000000E+00;  0.0000000E+00;  0.0000000E+00;0; -1.3452529E-02;  4.0000000E+04;  0.0000000E+00;  0.0000000E+00;  4.0000000E+04;  0.0000000E+00;  4.0000000E+04; -1.3588470E-02;  0.0000000E+00;  1.3594178E-04;  1.0007546E+03;
 -7.0000000E-02;  9.9999998E-03; -2.3000000E-01;1203;  0.0000000E+00;  0.0000000E+00;  0.0000000E+00;  1.0016206E+03;  1.0000000E-01;  1.3426781E+03;0;  0.0000000E+00;  0.0000000E+00;  0.0000000E+00;0; -1.4569517E-02;  4.0000000E+04;  0.0000000E+00;  0.0000000E+00;  4.0000000E+04;  0.0000000E+00;  4.0000000E+04; -1.4820538E-02;  0.0000000E+00;  2.5102077E-04;  1.1816198E+03;
 -7.0000000E-02;  9.9999998E-03; -2.2000000E-01;1204;  0.0000000E+00;  0.0000000E+00;  0.0000000E+00;  1.0017355E+03;  1.0000000E-01;  1.4377865E+03;0;  0.0000000E+00;  0.0000000E+00;  0.0000000E+00;0; -1.5647661E-02;  4.0000000E+04;  0.0000000E+00;  0.0000000E+00;  4.0000000E+04;  0.0000000E+00;  4.0000000E+04; -1.5980748E-02;  0.0000000E+00;  3.3308720E-04;  1.3070107E+03;
 -7.0000000E-02;  9.9999998E-03; -2.0999999E-01;1205;  0.0000000E+00;  0.0000000E+00;  0.0000000E+00;  1.0018520E+03;  1.0000000E-01;  1.5343763E+03;0;  0.0000000E+00;  0.0000000E+00;  0.0000000E+00;0; -1.6674824E-02;  4.0000000E+04;  0.0000000E+00;  0.0000000E+00;  4.0000000E+04;  0.0000000E+00;  4.0000000E+04; -1.7056007E-02;  0.0000000E+00;  3.8118326E-04;  1.3768555E+03;
 -7.0000000E-02;  9.9999998E-03; -2.0000000E-01;1206;  0.0000000E+00;  0.0000000E+00;  0.0000000E+00;  1.0019639E+03;  1.0000000E-01;  1.6270157E+03;0;  0.0000000E+00;  0.0000000E+00;  0.0000000E+00;0; -1.7636038E-02;  4.0000000E+04;  0.0000000E+00;  0.0000000E+00;  4.0000000E+04;  0.0000000E+00;  4.0000000E+04; -1.8034823E-02;  0.0000000E+00;  3.9878435E-04;  1.3964673E+03;
 -7.0000000E-02;  9.9999998E-03; -1.9000000E-01;1207;  0.0000000E+00;  0.0000000E+00;  0.0000000E+00;  1.0020754E+03;  1.0000000E-01;  1.7194575E+03;0;  0.0000000E+00;  0.0000000E+00;  0.0000000E+00;0; -1.8514371E-02;  4.0000000E+04;  0.0000000E+00;  0.0000000E+00;  4.0000000E+04;  0.0000000E+00;  4.0000000E+04; -1.8907001E-02;  0.0000000E+00;  3.9263035E-04;  1.3748250E+03;
 -7.0000000E-02;  9.9999998E-03; -1.8000001E-01;1208;  0.0000000E+00;  0.0000000E+00;  0.0000000E+00;  1.0021793E+03;  1.0000000E-01;  1.8054799E+03;0;  0.0000000E+00;  0.0000000E+00;  0.0000000E+00;0; -1.9292846E-02;  4.0000000E+04;  0.0000000E+00;  0.0000000E+00;  4.0000000E+04;  0.0000000E+00;  4.0000000E+04; -1.9664023E-02;  0.0000000E+00;  3.7117608E-04;  1.3227136E+03;
 -7.0000000E-02;  9.9999998E-03; -1.7000000E-01;1209;  0.0000000E+00;  0.0000000E+00;  0.0000000E+00;  1.0022772E+03;  1.0000000E-01;  1.8866627E+03;0;  0.0000000E+00;  0.0000000E+00;  0.0000000E+00;0; -1.9956619E-02;  4.0000000E+04;  0.0000000E+00;  0.0000000E+00;  4.0000000E+04;  0.0000000E+00;  4.0000000E+04; -2.0299537E-02;  0.0000000E+00;  3.4291946E-04;  1.2508276E+03;
 -7.0000000E-02;  9.9999998E-03; -1.6000000E-01;1210;  0.0000000E+00;  0.0000000E+00;  0.0000000E+00;  1.0023699E+03;  1.0000000E-01;  1.9634012E+03;0;  0.0000000E+00;  0.0000000E+00;  0.0000000E+00;0; -2.0495506E-02;  4.0000000E+04;  0.0000000E+00;  0.0000000E+00;  4.0000000E+04;  0.0000000E+00;  4.0000000E+04; -2.0810392E-02;  0.0000000E+00;  3.1488572E-04;  1.1682520E+03;
 -7.0000000E-02;  9.9999998E-03; -1.5000001E-01;1211;  0.0000000E+00;  0.0000000E+00;  0.0000000E+00;  1.0024443E+03;  1.0000000E-01;  2.0250292E+03;0;  0.0000000E+00;  0.0000000E+00;  0.0000000E+00;0; -2.0905947E-02;  4.0000000E+04;  0.0000000E+00;  0.0000000E+00;  4.0000000E+04;  0.0000000E+00;  4.0000000E+04; -2.1197544E-02;  0.0000000E+00;  2.9159721E-04;  1.0814030E+03;
 -7.0000000E-02;  9.9999998E-03; -1.4000000E-01;1212;  0.0000000E+00;  0.0000000E+00;  0.0000000E+00;  1.0025107E+03;  1.0000000E-01;  2.0801387E+03;0;  0.0000000E+00;  0.0000000E+00;  0.0000000E+00;0; -2.1192018E-02;  4.0000000E+04;  0.0000000E+00;  0.0000000E+00;  4.0000000E+04;  0.0000000E+00;  4.0000000E+04; -2.1466926E-02;  0.0000000E+00;  2.7490826E-04;  9.9438147E+02;
 -7.0000000E-02;  9.9999998E-03; -1.3000000E-01;1213;  0.0000000E+00;  0.0000000E+00;  0.0000000E+00;  1.0025687E+03;  1.0000000E-01;  2.1281375E+03;0;  0.0000000E+00;  0.0000000E+00;  0.0000000E+00;0; -2.1364845E-02;  4.0000000E+04;  0.0000000E+00;  0.0000000E+00;  4.0000000E+04;  0.0000000E+00;  4.0000000E+04; -2.1629347E-02;  0.0000000E+00;  2.6450108E-04;  9.1010486E+02;
 -7.0000000E-02;  9.9999998E-03; -1.2000000E-01;1214;  0.0000000E+00;  0.0000000E+00;  0.0000000E+00;  1.0026086E+03;  1.0000000E-01;  2.1611240E+03;0;  0.0000000E+00;  0.0000000E+00;  0.0000000E+00;0; -2.1441244E-02;  4.0000000E+04;  0.0000000E+00;  0.0000000E+00;  4.0000000E+04;  0.0000000E+00;  4.0000000E+04; -2.1699842E-02;  0.0000000E+00;  2.5859839E-04;  8.3094391E+02;
 -7.0000000E-02;  9.9999998E-03; -1.1000000E-01;1215;  0.0000000E+00;  0.0000000E+00;  0.0000000E+00;  1.0026456E+03;  1.0000000E-01;  2.1918394E+03;0;  0.0000000E+00;  0.0000000E+00;  0.0000000E+00;0; -2.1441279E-02;  4.0000000E+04;  0.0000000E+00;  0.0000000E+00;  4.0000000E+04;  0.0000000E+00;  4.0000000E+04; -2.1696139E-02;  0.0000000E+00;  2.5485927E-04;  7.5942664E+02;
 -5.9999999E-02;  9.9999998E-03; -2.7000001E-01;1290;  0.0000000E+00;  0.0000000E+00;  0.0000000E+00;  1.0016354E+03;  1.0000000E-01;  1.3549247E+03;0;  0.0000000E+00;  0.0000000E+00;  0.0000000E+00;0; -1.4284670E-02;  4.0000000E+04;  0.0000000E+00;  0.0000000E+00;  4.0000000E+04;  0.0000000E+00;  4.0000000E+04; -1.3816649E-02;  0.0000000E+00; -4.6802120E-04;  3.5985495E+02;
 -5.9999999E-02;  9.9999998E-03; -2.5999999E-01;1291;  0.0000000E+00;  0.0000000E+00;  0.0000000E+00;  1.0018140E+03;  1.0000000E-01;  1.5028711E+03;0;  0.0000000E+00;  0.0000000E+00;  0.0000000E+00;0; -1.5962802E-02;  4.0000000E+04;  0.0000000E+00;  0.0000000E+00;  4.0000000E+04;  0.0000000E+00;  4.0000000E+04; -1.5724918E-02;  0.0000000E+00; -2.3788479E-04;  7.3371893E+02;
 -5.9999999E-02;  9.9999998E-03; -2.5000000E-01;1292;  0.0000000E+00;  0.0000000E+00;  0.0000000E+00;  1.0019850E+03;  1.0000000E-01;  1.6445955E+03;0;  0.0000000E+00;  0.0000000E+00;  0.0000000E+00;0; -1.7616317E-02;  4.0000000E+04;  0.0000000E+00;  0.0000000E+00;  4.0000000E+04;  0.0000000E+00;  4.0000000E+04; -1.7603982E-02;  0.0000000E+00; -1.2333882E-05;  1.0860118E+03;
 -5.9999999E-02;  9.9999998E-03; -2.3999999E-01;1293;  0.0000000E+00;  0.0000000E+00;  0.0000000E+00;  1.0021568E+03;  1.0000000E-01;  1.7869125E+03;0;  0.0000000E+00;  0.0000000E+00;  0.0000000E+00;0; -1.9234700E-02;  4.0000000E+04;  0.0000000E+00;  0.0000000E+00;  4.0000000E+04;  0.0000000E+00;  4.0000000E+04; -1.9423535E-02;  0.0000000E+00;  1.8883562E-04;  1.3871680E+03;
 -5.9999999E-02;  9.9999998E-03; -2.3000000E-01;1294;  0.0000000E+00;  0.0000000E+00;  0.0000000E+00;  1.0023241E+03;  1.0000000E-01;  1.9254764E+03;0;  0.0000000E+00;  0.0000000E+00;  0.0000000E+00;0; -2.0806897E-02;  4.0000000E+04;  0.0000000E+00;  0.0000000E+00;  4.0000000E+04;  0.0000000E+00;  4.0000000E+04; -2.1157982E-02;  0.0000000E+00;  3.5108495E-04;  1.6195837E+03;
 -5.9999999E-02;  9.9999998E-03; -2.2000000E-01;1295;  0.0000000E+00;  0.0000000E+00;  0.0000000E+00;  1.0024891E+03;  1.0000000E-01;  2.0621638E+03;0;  0.0000000E+00;  0.0000000E+00;  0.0000000E+00;0; -2.2319078E-02;  4.0000000E+04;  0.0000000E+00;  0.0000000E+00;  4.0000000E+04;  0.0000000E+00;  4.0000000E+04; -2.2785643E-02;  0.0000000E+00;  4.6656514E-04;  1.7756876E+03;
 -5.9999999E-02;  9.9999998E-03; -2.0999999E-01;1296;  0.0000000E+00;  0.0000000E+00;  0.0000000E+00;  1.0026508E+03;  1.0000000E-01;  2.1961848E+03;0;  0.0000000E+00;  0.0000000E+00;  0.0000000E+00;0; -2.3753656E-02;  4.0000000E+04;  0.0000000E+00;  0.0000000E+00;  4.0000000E+04;  0.0000000E+00;  4.0000000E+04; -2.4287982E-02;  0.0000000E+00;  5.3432561E-04;  1.8567506E+03;
 -5.9999999E-02;  9.9999998E-03; -2.0000000E-01;1297;  0.0000000E+00;  0.0000000E+00;  0.0000000E+00;  1.0028103E+03;  1.0000000E-01;  2.3283291E+03;0;  0.0000000E+00;  0.0000000E+00;  0.0000000E+00;0; -2.5089711E-02;  4.0000000E+04;  0.0000000E+00;  0.0000000E+00;  4.0000000E+04;  0.0000000E+00;  4.0000000E+04; -2.5649199E-02;  0.0000000E+00;  5.5948849E-04;  1.8708938E+03;
 -5.9999999E-02;  9.9999998E-03; -1.9000000E-01;1298;  0.0000000E+00;  0.0000000E+00;  0.0000000E+00;  1.0029611E+03;  1.0000000E-01;  2.4532639E+03;0;  0.0000000E+00;  0.0000000E+00;  0.0000000E+00;0; -2.6304377E-02;  4.0000000E+04;  0.0000000E+00;  0.0000000E+00;  4.0000000E+04;  0.0000000E+00;  4.0000000E+04; -2.6855994E-02;  0.0000000E+00;  5.5161671E-04;  1.8306855E+03;
 -5.9999999E-02;  9.9999998E-03; -1.8000001E-01;1299;  0.0000000E+00;  0.0000000E+00;  0.0000000E+00;  1.0031104E+03;  1.0000000E-01;  2.5769148E+03;0;  0.0000000E+00;  0.0000000E+00;  0.0000000E+00;0; -2.7375344E-02;  4.0000000E+04;  0.0000000E+00;  0.0000000E+00;  4.0000000E+04;  0.0000000E+00;  4.0000000E+04; -2.7897956E-02;  0.0000000E+00;  5.2261166E-04;  1.7507142E+03;
 -5.9999999E-02;  9.9999998E-03; -1.7000000E-01;1300;  0.0000000E+00;  0.0000000E+00;  0.0000000E+00;  1.0032476E+03;  1.0000000E-01;  2.6905906E+03;0;  0.0000000E+00;  0.0000000E+00;  0.0000000E+00;0; -2.8283700E-02;  4.0000000E+04;  0.0000000E+00;  0.0000000E+00;  4.0000000E+04;  0.0000000E+00;  4.0000000E+04; -2.8768184E-02;  0.0000000E+00;  4.8448367E-04;  1.6453632E+03;
 -5.9999999E-02;  9.9999998E-03; -1.6000000E-01;1301;  0.0000000E+00;  0.0000000E+00;  0.0000000E+00;  1.0033720E+03;  1.0000000E-01;  2.7936001E+03;0;  0.0000000E+00;  0.0000000E+00;  0.0000000E+00;0; -2.9016739E-02;  4.0000000E+04;  0.0000000E+00;  0.0000000E+00;  4.0000000E+04;  0.0000000E+00;  4.0000000E+04; -2.9464049E-02;  0.0000000E+00;  4.4730966E-04;  1.5270051E+03;
 -5.9999999E-02;  9.9999998E-03; -1.5000001E-01;1302;  0.0000000E+00;  0.0000000E+00;  0.0000000E+00;  1.0034832E+03;  1.0000000E-01;  2.8857456E+03;0;  0.0000000E+00;  0.0000000E+00;  0.0000000E+00;0; -2.9570654E-02;  4.0000000E+04;  0.0000000E+00;  0.0000000E+00;  4.0000000E+04;  0.0000000E+00;  4.0000000E+04; -2.9988397E-02;  0.0000000E+00;  4.1774256E-04;  1.4046367E+03;
 -5.9999999E-02;  9.9999998E-03; -1.4000000E-01;1303;  0.0000000E+00;  0.0000000E+00;  0.0000000E+00;  1.0035768E+03;  1.0000000E-01;  2.9633730E+03;0;  0.0000000E+00;  0.0000000E+00;  0.0000000E+00;0; -2.9951805E-02;  4.0000000E+04;  0.0000000E+00;  0.0000000E+00;  4.0000000E+04;  0.0000000E+00;  4.0000000E+04; -3.0350268E-02;  0.0000000E+00;  3.9846223E-04;  1.2837819E+03;
 -5.9999999E-02;  9.9999998E-03; -1.3000000E-01;1304;  0.0000000E+00;  0.0000000E+00;  0.0000000E+00;  1.0036524E+03;  1.0000000E-01;  3.0259885E+03;0;  0.0000000E+00;  0.0000000E+00;  0.0000000E+00;0; -3.0176166E-02;  4.0000000E+04;  0.0000000E+00;  0.0000000E+00;  4.0000000E+04;  0.0000000E+00;  4.0000000E+04; -3.0565042E-02;  0.0000000E+00;  3.8887645E-04;  1.1679531E+03;
 -5.9999999E-02;  9.9999998E-03; -1.2000000E-01;1305;  0.0000000E+00;  0.0000000E+00;  0.0000000E+00;  1.0037138E+03;  1.0000000E-01;  3.0768513E+03;0;  0.0000000E+00;  0.0000000E+00;  0.0000000E+00;0; -3.0267362E-02;  4.0000000E+04;  0.0000000E+00;  0.0000000E+00;  4.0000000E+04;  0.0000000E+00;  4.0000000E+04; -3.0653441E-02;  0.0000000E+00;  3.8607957E-04;  1.0598643E+03;
 -5.9999999E-02;  9.9999998E-03; -1.1000000E-01;1306;  0.0000000E+00;  0.0000000E+00;  0.0000000E+00;  1.0037642E+03;  1.0000000E-01;  3.1186279E+03;0;  0.0000000E+00;  0.0000000E+00;  0.0000000E+00;0; -3.0253511E-02;  4.0000000E+04;  0.0000000E+00;  0.0000000E+00;  4.0000000E+04;  0.0000000E+00;  4.0000000E+04; -3.0639721E-02;  0.0000000E+00;  3.8621016E-04;  9.6235730E+02;
 -5.0000001E-02;  9.9999998E-03; -2.7000001E-01;1381;  0.0000000E+00;  0.0000000E+00;  0.0000000E+00;  1.0022650E+03;  1.0000000E-01;  1.8764901E+03;0;  0.0000000E+00;  0.0000000E+00;  0.0000000E+00;0; -1.9670982E-02;  4.0000000E+04;  0.0000000E+00;  0.0000000E+00;  4.0000000E+04;  0.0000000E+00;  4.0000000E+04; -1.9030333E-02;  0.0000000E+00; -6.4064900E-04;  5.3372833E+02;
 -5.0000001E-02;  9.9999998E-03; -2.5999999E-01;1382;  0.0000000E+00;  0.0000000E+00;  0.0000000E+00;  1.0025028E+03;  1.0000000E-01;  2.0735215E+03;0;  0.0000000E+00;  0.0000000E+00;  0.0000000E+00;0; -2.1948120E-02;  4.0000000E+04;  0.0000000E+00;  0.0000000E+00;  4.0000000E+04;  0.0000000E+00;  4.0000000E+04; -2.1624452E-02;  0.0000000E+00; -3.2366798E-04;  1.0179748E+03;
 -5.0000001E-02;  9.9999998E-03; -2.5000000E-01;1383;  0.0000000E+00;  0.0000000E+00;  0.0000000E+00;  1.0027435E+03;  1.0000000E-01;  2.2729233E+03;0;  0.0000000E+00;  0.0000000E+00;  0.0000000E+00;0; -2.4187664E-02;  4.0000000E+04;  0.0000000E+00;  0.0000000E+00;  4.0000000E+04;  0.0000000E+00;  4.0000000E+04; -2.4172124E-02;  0.0000000E+00; -1.5539743E-05;  1.4675850E+03;
 -5.0000001E-02;  9.9999998E-03; -2.3999999E-01;1384;  0.0000000E+00;  0.0000000E+00;  0.0000000E+00;  1.0029725E+03;  1.0000000E-01;  2.4626465E+03;0;  0.0000000E+00;  0.0000000E+00;  0.0000000E+00;0; -2.6375102E-02;  4.0000000E+04;  0.0000000E+00;  0.0000000E+00;  4.0000000E+04;  0.0000000E+00;  4.0000000E+04; -2.6632126E-02;  0.0000000E+00;  2.5702501E-04;  1.8444749E+03;
 -5.0000001E-02;  9.9999998E-03; -2.3000000E-01;1385;  0.0000000E+00;  0.0000000E+00;  0.0000000E+00;  1.0031992E+03;  1.0000000E-01;  2.6504929E+03;0;  0.0000000E+00;  0.0000000E+00;  0.0000000E+00;0; -2.8494574E-02;  4.0000000E+04;  0.0000000E+00;  0.0000000E+00;  4.0000000E+04;  0.0000000E+00;  4.0000000E+04; -2.8969523E-02;  0.0000000E+00;  4.7494844E-04;  2.1274966E+03;
 -5.0000001E-02;  9.9999998E-03; -2.2000000E-01;1386;  0.0000000E+00;  0.0000000E+00;  0.0000000E+00;  1.0034241E+03;  1.0000000E-01;  2.8368582E+03;0;  0.0000000E+00;  0.0000000E+00;  0.0000000E+00;0; -3.0526478E-02;  4.0000000E+04;  0.0000000E+00;  0.0000000E+00;  4.0000000E+04;  0.0000000E+00;  4.0000000E+04; -3.1154938E-02;  0.0000000E+00;  6.2846090E-04;  2.3092605E+03;
 -5.0000001E-02;  9.9999998E-03; -2.0999999E-01;1387;  0.0000000E+00;  0.0000000E+00;  0.0000000E+00;  1.0036416E+03;  1.0000000E-01;  3.0170010E+03;0;  0.0000000E+00;  0.0000000E+00;  0.0000000E+00;0; -3.2446429E-02;  4.0000000E+04;  0.0000000E+00;  0.0000000E+00;  4.0000000E+04;  0.0000000E+00;  4.0000000E+04; -3.3163577E-02;  0.0000000E+00;  7.1714859E-04;  2.3938508E+03;
 -5.0000001E-02;  9.9999998E-03; -2.0000000E-01;1388;  0.0000000E+00;  0.0000000E+00;  0.0000000E+00;  1.0038580E+03;  1.0000000E-01;  3.1962554E+03;0;  0.0000000E+00;  0.0000000E+00;  0.0000000E+00;0; -3.4226120E-02;  4.0000000E+04;  0.0000000E+00;  0.0000000E+00;  4.0000000E+04;  0.0000000E+00;  4.0000000E+04; -3.4974795E-02;  0.0000000E+00;  7.4867648E-04;  2.3936606E+03;
 -5.0000001E-02;  9.9999998E-03; -1.9000000E-01;1389;  0.0000000E+00;  0.0000000E+00;  0.0000000E+00;  1.0040654E+03;  1.0000000E-01;  3.3681023E+03;0;  0.0000000E+00;  0.0000000E+00;  0.0000000E+00;0; -3.5835646E-02;  4.0000000E+04;  0.0000000E+00;  0.0000000E+00;  4.0000000E+04;  0.0000000E+00;  4.0000000E+04; -3.6572155E-02;  0.0000000E+00;  7.3651021E-04;  2.3260217E+03;
 -5.0000001E-02;  9.9999998E-03; -1.8000001E-01;1390;  0.0000000E+00;  0.0000000E+00;  0.0000000E+00;  1.0042629E+03;  1.0000000E-01;  3.5317520E+03;0;  0.0000000E+00;  0.0000000E+00;  0.0000000E+00;0; -3.7246451E-02;  4.0000000E+04;  0.0000000E+00;  0.0000000E+00;  4.0000000E+04;  0.0000000E+00;  4.0000000E+04; -3.7943542E-02;  0.0000000E+00;  6.9709105E-04;  2.2100825E+03;
 -5.0000001E-02;  9.9999998E-03; -1.7000000E-01;1391;  0.0000000E+00;  0.0000000E+00;  0.0000000E+00;  1.0044464E+03;  1.0000000E-01;  3.6837476E+03;0;  0.0000000E+00;  0.0000000E+00;  0.0000000E+00;0; -3.8434971E-02;  4.0000000E+04;  0.0000000E+00;  0.0000000E+00;  4.0000000E+04;  0.0000000E+00;  4.0000000E+04; -3.9081857E-02;  0.0000000E+00;  6.4688537E-04;  2.0641936E+03;
 -5.0000001E-02;  9.9999998E-03; -1.6000000E-01;1392;  0.0000000E+00;  0.0000000E+00;  0.0000000E+00;  1.0046129E+03;  1.0000000E-01;  3.8217190E+03;0;  0.0000000E+00;  0.0000000E+00;  0.0000000E+00;0; -3.9386306E-02;  4.0000000E+04;  0.0000000E+00;  0.0000000E+00;  4.0000000E+04;  0.0000000E+00;  4.0000000E+04; -3.9986026E-02;  0.0000000E+00;  5.9971912E-04;  1.9039580E+03;
 -5.0000001E-02;  9.9999998E-03; -1.5000001E-01;1393;  0.0000000E+00;  0.0000000E+00;  0.0000000E+00;  1.0047591E+03;  1.0000000E-01;  3.9428020E+03;0;  0.0000000E+00;  0.0000000E+00;  0.0000000E+00;0; -4.0096883E-02;  4.0000000E+04;  0.0000000E+00;  0.0000000E+00;  4.0000000E+04;  0.0000000E+00;  4.0000000E+04; -4.0661659E-02;  0.0000000E+00;  5.6477636E-04;  1.7408629E+03;
 -5.0000001E-02;  9.9999998E-03; -1.4000000E-01;1394;  0.0000000E+00;  0.0000000E+00;  0.0000000E+00;  1.0048851E+03;  1.0000000E-01;  4.0471941E+03;0;  0.0000000E+00;  0.0000000E+00;  0.0000000E+00;0; -4.0576488E-02;  4.0000000E+04;  0.0000000E+00;  0.0000000E+00;  4.0000000E+04;  0.0000000E+00;  4.0000000E+04; -4.1122161E-02;  0.0000000E+00;  5.4567371E-04;  1.5818442E+03;
 -5.0000001E-02;  9.9999998E-03; -1.3000000E-01;1395;  0.0000000E+00;  0.0000000E+00;  0.0000000E+00;  1.0049897E+03;  1.0000000E-01;  4.1339077E+03;0;  0.0000000E+00;  0.0000000E+00;  0.0000000E+00;0; -4.0847354E-02;  4.0000000E+04;  0.0000000E+00;  0.0000000E+00;  4.0000000E+04;  0.0000000E+00;  4.0000000E+04; -4.1388482E-02;  0.0000000E+00;  5.4112700E-04;  1.4307112E+03;
 -5.0000001E-02;  9.9999998E-03; -1.2000000E-01;1396;  0.0000000E+00;  0.0000000E+00;  0.0000000E+00;  1.0050769E+03;  1.0000000E-01;  4.2061030E+03;0;  0.0000000E+00;  0.0000000E+00;  0.0000000E+00;0; -4.0941842E-02;  4.0000000E+04;  0.0000000E+00;  0.0000000E+00;  4.0000000E+04;  0.0000000E+00;  4.0000000E+04; -4.1488361E-02;  0.0000000E+00;  5.4651999E-04;  1.2903016E+03;
 -5.0000001E-02;  9.9999998E-03; -1.1000000E-01;1397;  0.0000000E+00;  0.0000000E+00;  0.0000000E+00;  1.0051473E+03;  1.0000000E-01;  4.2643730E+03;0;  0.0000000E+00;  0.0000000E+00;  0.0000000E+00;0; -4.0898167E-02;  4.0000000E+04;  0.0000000E+00;  0.0000000E+00;  4.0000000E+04;  0.0000000E+00;  4.0000000E+04; -4.1453857E-02;  0.0000000E+00;  5.5569090E-04;  1.1636035E+03;
 -3.9999999E-02;  9.9999998E-03; -2.7000001E-01;1472;  0.0000000E+00;  0.0000000E+00;  0.0000000E+00;  1.0030175E+03;  1.0000000E-01;  2.4998799E+03;0;  0.0000000E+00;  0.0000000E+00;  0.0000000E+00;0; -2.6038500E-02;  4.0000000E+04;  0.0000000E+00;  0.0000000E+00;  4.0000000E+04;  0.0000000E+00;  4.0000000E+04; -2.5199570E-02;  0.0000000E+00; -8.3893019E-04;  7.5133820E+02;
 -3.9999999E-02;  9.9999998E-03; -2.5999999E-01;1473;  0.0000000E+00;  0.0000000E+00;  0.0000000E+00;  1.0033337E+03;  1.0000000E-01;  2.7618972E+03;0;  0.0000000E+00;  0.0000000E+00;  0.0000000E+00;0; -2.9005380E-02;  4.0000000E+04;  0.0000000E+00;  0.0000000E+00;  4.0000000E+04;  0.0000000E+00;  4.0000000E+04; -2.8588716E-02;  0.0000000E+00; -4.1666429E-04;  1.3571849E+03;
 -3.9999999E-02;  9.9999998E-03; -2.5000000E-01;1474;  0.0000000E+00;  0.0000000E+00;  0.0000000E+00;  1.0036420E+03;  1.0000000E-01;  3.0173962E+03;0;  0.0000000E+00;  0.0000000E+00;  0.0000000E+00;0; -3.1917010E-02;  4.0000000E+04;  0.0000000E+00;  0.0000000E+00;  4.0000000E+04;  0.0000000E+00;  4.0000000E+04; -3.1906519E-02;  0.0000000E+00; -1.0489441E-05;  1.9090903E+03;
 -3.9999999E-02;  9.9999998E-03; -2.3999999E-01;1475;  0.0000000E+00;  0.0000000E+00;  0.0000000E+00;  1.0039434E+03;  1.0000000E-01;  3.2670681E+03;0;  0.0000000E+00;  0.0000000E+00;  0.0000000E+00;0; -3.4754734E-02;  4.0000000E+04;  0.0000000E+00;  0.0000000E+00;  4.0000000E+04;  0.0000000E+00;  4.0000000E+04; -3.5099413E-02;  0.0000000E+00;  3.4467762E-04;  2.3601602E+03;
 -3.9999999E-02;  9.9999998E-03; -2.3000000E-01;1476;  0.0000000E+00;  0.0000000E+00;  0.0000000E+00;  1.0042406E+03;  1.0000000E-01;  3.5132834E+03;0;  0.0000000E+00;  0.0000000E+00;  0.0000000E+00;0; -3.7497509E-02;  4.0000000E+04;  0.0000000E+00;  0.0000000E+00;  4.0000000E+04;  0.0000000E+00;  4.0000000E+04; -3.8122278E-02;  0.0000000E+00;  6.2476686E-04;  2.6865442E+03;
 -3.9999999E-02;  9.9999998E-03; -2.2000000E-01;1477;  0.0000000E+00;  0.0000000E+00;  0.0000000E+00;  1.0045317E+03;  1.0000000E-01;  3.7544617E+03;0;  0.0000000E+00;  0.0000000E+00;  0.0000000E+00;0; -4.0118854E-02;  4.0000000E+04;  0.0000000E+00;  0.0000000E+00;  4.0000000E+04;  0.0000000E+00;  4.0000000E+04; -4.0937215E-02;  0.0000000E+00;  8.1836135E-04;  2.8827991E+03;
 -3.9999999E-02;  9.9999998E-03; -2.0999999E-01;1478;  0.0000000E+00;  0.0000000E+00;  0.0000000E+00;  1.0048168E+03;  1.0000000E-01;  3.9907019E+03;0;  0.0000000E+00;  0.0000000E+00;  0.0000000E+00;0; -4.2586390E-02;  4.0000000E+04;  0.0000000E+00;  0.0000000E+00;  4.0000000E+04;  0.0000000E+00;  4.0000000E+04; -4.3512821E-02;  0.0000000E+00;  9.2643086E-04;  2.9579092E+03;
 -3.9999999E-02;  9.9999998E-03; -2.0000000E-01;1479;  0.0000000E+00;  0.0000000E+00;  0.0000000E+00;  1.0050964E+03;  1.0000000E-01;  4.2222017E+03;0;  0.0000000E+00;  0.0000000E+00;  0.0000000E+00;0; -4.4863176E-02;  4.0000000E+04;  0.0000000E+00;  0.0000000E+00;  4.0000000E+04;  0.0000000E+00;  4.0000000E+04; -4.5823600E-02;  0.0000000E+00;  9.6042338E-04;  2.9305420E+03;
 -3.9999999E-02;  9.9999998E-03; -1.9000000E-01;1480;  0.0000000E+00;  0.0000000E+00;  0.0000000E+00;  1.0053644E+03;  1.0000000E-01;  4.4443188E+03;0;  0.0000000E+00;  0.0000000E+00;  0.0000000E+00;0; -4.6910897E-02;  4.0000000E+04;  0.0000000E+00;  0.0000000E+00;  4.0000000E+04;  0.0000000E+00;  4.0000000E+04; -4.7850020E-02;  0.0000000E+00;  9.3912234E-04;  2.8243030E+03;
 -3.9999999E-02;  9.9999998E-03; -1.8000001E-01;1481;  0.0000000E+00;  0.0000000E+00;  0.0000000E+00;  1.0056215E+03;  1.0000000E-01;  4.6572510E+03;0;  0.0000000E+00;  0.0000000E+00;  0.0000000E+00;0; -4.8693936E-02;  4.0000000E+04;  0.0000000E+00;  0.0000000E+00;  4.0000000E+04;  0.0000000E+00;  4.0000000E+04; -4.9578819E-02;  0.0000000E+00;  8.8488276E-04;  2.6636619E+03;
 -3.9999999E-02;  9.9999998E-03; -1.7000000E-01;1482;  0.0000000E+00;  0.0000000E+00;  0.0000000E+00;  1.0058570E+03;  1.0000000E-01;  4.8524058E+03;0;  0.0000000E+00;  0.0000000E+00;  0.0000000E+00;0; -5.0184030E-02;  4.0000000E+04;  0.0000000E+00;  0.0000000E+00;  4.0000000E+04;  0.0000000E+00;  4.0000000E+04; -5.1003784E-02;  0.0000000E+00;  8.1975473E-04;  2.4710603E+03;
 -3.9999999E-02;  9.9999998E-03; -1.6000000E-01;1483;  0.0000000E+00;  0.0000000E+00;  0.0000000E+00;  1.0060710E+03;  1.0000000E-01;  5.0297837E+03;0;  0.0000000E+00;  0.0000000E+00;  0.0000000E+00;0; -5.1364001E-02;  4.0000000E+04;  0.0000000E+00;  0.0000000E+00;  4.0000000E+04;  0.0000000E+00;  4.0000000E+04; -5.2126065E-02;  0.0000000E+00;  7.6206500E-04;  2.2649409E+03;
 -3.9999999E-02;  9.9999998E-03; -1.5000001E-01;1484;  0.0000000E+00;  0.0000000E+00;  0.0000000E+00;  1.0062614E+03;  1.0000000E-01;  5.1874087E+03;0;  0.0000000E+00;  0.0000000E+00;  0.0000000E+00;0; -5.2231744E-02;  4.0000000E+04;  0.0000000E+00;  0.0000000E+00;  4.0000000E+04;  0.0000000E+00;  4.0000000E+04; -5.2955590E-02;  0.0000000E+00;  7.2384498E-04;  2.0585913E+03;
 -3.9999999E-02;  9.9999998E-03; -1.4000000E-01;1485;  0.0000000E+00;  0.0000000E+00;  0.0000000E+00;  1.0064292E+03;  1.0000000E-01;  5.3264668E+03;0;  0.0000000E+00;  0.0000000E+00;  0.0000000E+00;0; -5.2801408E-02;  4.0000000E+04;  0.0000000E+00;  0.0000000E+00;  4.0000000E+04;  0.0000000E+00;  4.0000000E+04; -5.3510964E-02;  0.0000000E+00;  7.0955424E-04;  1.8598829E+03;
 -3.9999999E-02;  9.9999998E-03; -1.3000000E-01;1486;  0.0000000E+00;  0.0000000E+00;  0.0000000E+00;  1.0065692E+03;  1.0000000E-01;  5.4424141E+03;0;  0.0000000E+00;  0.0000000E+00;  0.0000000E+00;0; -5.3103443E-02;  4.0000000E+04;  0.0000000E+00;  0.0000000E+00;  4.0000000E+04;  0.0000000E+00;  4.0000000E+04; -5.3820096E-02;  0.0000000E+00;  7.1665092E-04;  1.6724196E+03;
 -3.9999999E-02;  9.9999998E-03; -1.2000000E-01;1487;  0.0000000E+00;  0.0000000E+00;  0.0000000E+00;  1.0066824E+03;  1.0000000E-01;  5.5362383E+03;0;  0.0000000E+00;  0.0000000E+00;  0.0000000E+00;0; -5.3180911E-02;  4.0000000E+04;  0.0000000E+00;  0.0000000E+00;  4.0000000E+04;  0.0000000E+00;  4.0000000E+04; -5.3918809E-02;  0.0000000E+00;  7.3789986E-04;  1.4986589E+03;
 -3.9999999E-02;  9.9999998E-03; -1.1000000E-01;1488;  0.0000000E+00;  0.0000000E+00;  0.0000000E+00;  1.0067718E+03;  1.0000000E-01;  5.6103105E+03;0;  0.0000000E+00;  0.0000000E+00;  0.0000000E+00;0; -5.3084373E-02;  4.0000000E+04;  0.0000000E+00;  0.0000000E+00;  4.0000000E+04;  0.0000000E+00;  4.0000000E+04; -5.3848181E-02;  0.0000000E+00;  7.6380587E-04;  1.3414606E+03;
 -2.9999999E-02;  9.9999998E-03; -2.7000001E-01;1563;  0.0000000E+00;  0.0000000E+00;  0.0000000E+00;  1.0038820E+03;  1.0000000E-01;  3.2161067E+03;0;  0.0000000E+00;  0.0000000E+00;  0.0000000E+00;0; -3.3177227E-02;  4.0000000E+04;  0.0000000E+00;  0.0000000E+00;  4.0000000E+04;  0.0000000E+00;  4.0000000E+04; -3.2124147E-02;  0.0000000E+00; -1.0530796E-03;  1.0102153E+03;
 -2.9999999E-02;  9.9999998E-03; -2.5999999E-01;1564;  0.0000000E+00;  0.0000000E+00;  0.0000000E+00;  1.0042816E+03;  1.0000000E-01;  3.5471589E+03;0;  0.0000000E+00;  0.0000000E+00;  0.0000000E+00;0; -3.6894061E-02;  4.0000000E+04;  0.0000000E+00;  0.0000000E+00;  4.0000000E+04;  0.0000000E+00;  4.0000000E+04; -3.6386430E-02;  0.0000000E+00; -5.0763000E-04;  1.7437278E+03;
 -2.9999999E-02;  9.9999998E-03; -2.5000000E-01;1565;  0.0000000E+00;  0.0000000E+00;  0.0000000E+00;  1.0046669E+03;  1.0000000E-01;  3.8664585E+03;0;  0.0000000E+00;  0.0000000E+00;  0.0000000E+00;0; -4.0533379E-02;  4.0000000E+04;  0.0000000E+00;  0.0000000E+00;  4.0000000E+04;  0.0000000E+00;  4.0000000E+04; -4.0543690E-02;  0.0000000E+00;  1.0309826E-05;  2.3961016E+03;
 -2.9999999E-02;  9.9999998E-03; -2.3999999E-01;1566;  0.0000000E+00;  0.0000000E+00;  0.0000000E+00;  1.0050477E+03;  1.0000000E-01;  4.1819062E+03;0;  0.0000000E+00;  0.0000000E+00;  0.0000000E+00;0; -4.4072755E-02;  4.0000000E+04;  0.0000000E+00;  0.0000000E+00;  4.0000000E+04;  0.0000000E+00;  4.0000000E+04; -4.4529323E-02;  0.0000000E+00;  4.5656905E-04;  2.9121128E+03;
 -2.9999999E-02;  9.9999998E-03; -2.3000000E-01;1567;  0.0000000E+00;  0.0000000E+00;  0.0000000E+00;  1.0054205E+03;  1.0000000E-01;  4.4907373E+03;0;  0.0000000E+00;  0.0000000E+00;  0.0000000E+00;0; -4.7485560E-02;  4.0000000E+04;  0.0000000E+00;  0.0000000E+00;  4.0000000E+04;  0.0000000E+00;  4.0000000E+04; -4.8287489E-02;  0.0000000E+00;  8.0192718E-04;  3.2668772E+03;
 -2.9999999E-02;  9.9999998E-03; -2.2000000E-01;1568;  0.0000000E+00;  0.0000000E+00;  0.0000000E+00;  1.0057829E+03;  1.0000000E-01;  4.7909756E+03;0;  0.0000000E+00;  0.0000000E+00;  0.0000000E+00;0; -5.0737884E-02;  4.0000000E+04;  0.0000000E+00;  0.0000000E+00;  4.0000000E+04;  0.0000000E+00;  4.0000000E+04; -5.1771786E-02;  0.0000000E+00;  1.0339017E-03;  3.4593918E+03;
 -2.9999999E-02;  9.9999998E-03; -2.0999999E-01;1569;  0.0000000E+00;  0.0000000E+00;  0.0000000E+00;  1.0061417E+03;  1.0000000E-01;  5.0883501E+03;0;  0.0000000E+00;  0.0000000E+00;  0.0000000E+00;0; -5.3788230E-02;  4.0000000E+04;  0.0000000E+00;  0.0000000E+00;  4.0000000E+04;  0.0000000E+00;  4.0000000E+04; -5.4944262E-02;  0.0000000E+00;  1.1560315E-03;  3.5062761E+03;
 -2.9999999E-02;  9.9999998E-03; -2.0000000E-01;1570;  0.0000000E+00;  0.0000000E+00;  0.0000000E+00;  1.0064899E+03;  1.0000000E-01;  5.3767368E+03;0;  0.0000000E+00;  0.0000000E+00;  0.0000000E+00;0; -5.6589708E-02;  4.0000000E+04;  0.0000000E+00;  0.0000000E+00;  4.0000000E+04;  0.0000000E+00;  4.0000000E+04; -5.7774834E-02;  0.0000000E+00;  1.1851261E-03;  3.4349204E+03;
 -2.9999999E-02;  9.9999998E-03; -1.9000000E-01;1571;  0.0000000E+00;  0.0000000E+00;  0.0000000E+00;  1.0068261E+03;  1.0000000E-01;  5.6553462E+03;0;  0.0000000E+00;  0.0000000E+00;  0.0000000E+00;0; -5.9094716E-02;  4.0000000E+04;  0.0000000E+00;  0.0000000E+00;  4.0000000E+04;  0.0000000E+00;  4.0000000E+04; -6.0241755E-02;  0.0000000E+00;  1.1470402E-03;  3.2769272E+03;
 -2.9999999E-02;  9.9999998E-03; -1.8000001E-01;1572;  0.0000000E+00;  0.0000000E+00;  0.0000000E+00;  1.0071438E+03;  1.0000000E-01;  5.9185488E+03;0;  0.0000000E+00;  0.0000000E+00;  0.0000000E+00;0; -6.1259959E-02;  4.0000000E+04;  0.0000000E+00;  0.0000000E+00;  4.0000000E+04;  0.0000000E+00;  4.0000000E+04; -6.2331639E-02;  0.0000000E+00;  1.0716809E-03;  3.0628730E+03;
 -2.9999999E-02;  9.9999998E-03; -1.7000000E-01;1573;  0.0000000E+00;  0.0000000E+00;  0.0000000E+00;  1.0074406E+03;  1.0000000E-01;  6.1643687E+03;0;  0.0000000E+00;  0.0000000E+00;  0.0000000E+00;0; -6.3051969E-02;  4.0000000E+04;  0.0000000E+00;  0.0000000E+00;  4.0000000E+04;  0.0000000E+00;  4.0000000E+04; -6.4039968E-02;  0.0000000E+00;  9.8799565E-04;  2.8192319E+03;
 -2.9999999E-02;  9.9999998E-03; -1.6000000E-01;1574;  0.0000000E+00;  0.0000000E+00;  0.0000000E+00;  1.0077087E+03;  1.0000000E-01;  6.3865850E+03;0;  0.0000000E+00;  0.0000000E+00;  0.0000000E+00;0; -6.4452253E-02;  4.0000000E+04;  0.0000000E+00;  0.0000000E+00;  4.0000000E+04;  0.0000000E+00;  4.0000000E+04; -6.5371841E-02;  0.0000000E+00;  9.1958937E-04;  2.5664189E+03;
 -2.9999999E-02;  9.9999998E-03; -1.5000001E-01;1575;  0.0000000E+00;  0.0000000E+00;  0.0000000E+00;  1.0079532E+03;  1.0000000E-01;  6.5890483E+03;0;  0.0000000E+00;  0.0000000E+00;  0.0000000E+00;0; -6.5460719E-02;  4.0000000E+04;  0.0000000E+00;  0.0000000E+00;  4.0000000E+04;  0.0000000E+00;  4.0000000E+04; -6.6342257E-02;  0.0000000E+00;  8.8153419E-04;  2.3183335E+03;
 -2.9999999E-02;  9.9999998E-03; -1.4000000E-01;1576;  0.0000000E+00;  0.0000000E+00;  0.0000000E+00;  1.0081659E+03;  1.0000000E-01;  6.7652407E+03;0;  0.0000000E+00;  0.0000000E+00;  0.0000000E+00;0; -6.6097833E-02;  4.0000000E+04;  0.0000000E+00;  0.0000000E+00;  4.0000000E+04;  0.0000000E+00;  4.0000000E+04; -6.6976622E-02;  0.0000000E+00;  8.7879179E-04;  2.0826262E+03;
 -2.9999999E-02;  9.9999998E-03; -1.3000000E-01;1577;  0.0000000E+00;  0.0000000E+00;  0.0000000E+00;  1.0083391E+03;  1.0000000E-01;  6.9087427E+03;0;  0.0000000E+00;  0.0000000E+00;  0.0000000E+00;0; -6.6403888E-02;  4.0000000E+04;  0.0000000E+00;  0.0000000E+00;  4.0000000E+04;  0.0000000E+00;  4.0000000E+04; -6.7310654E-02;  0.0000000E+00;  9.0676878E-04;  1.8618440E+03;
 -2.9999999E-02;  9.9999998E-03; -1.2000000E-01;1578;  0.0000000E+00;  0.0000000E+00;  0.0000000E+00;  1.0084766E+03;  1.0000000E-01;  7.0227148E+03;0;  0.0000000E+00;  0.0000000E+00;  0.0000000E+00;0; -6.6434704E-02;  4.0000000E+04;  0.0000000E+00;  0.0000000E+00;  4.0000000E+04;  0.0000000E+00;  4.0000000E+04; -6.7389071E-02;  0.0000000E+00;  9.5436763E-04;  1.6572505E+03;
 -2.9999999E-02;  9.9999998E-03; -1.1000000E-01;1579;  0.0000000E+00;  0.0000000E+00;  0.0000000E+00;  1.0085807E+03;  1.0000000E-01;  7.1089346E+03;0;  0.0000000E+00;  0.0000000E+00;  0.0000000E+00;0; -6.6255309E-02;  4.0000000E+04;  0.0000000E+00;  0.0000000E+00;  4.0000000E+04;  0.0000000E+00;  4.0000000E+04; -6.7262761E-02;  0.0000000E+00;  1.0074495E-03;  1.4711361E+03;
 -2.0000000E-02;  9.9999998E-03; -2.7000001E-01;1654;  0.0000000E+00;  0.0000000E+00;  0.0000000E+00;  1.0048246E+03;  1.0000000E-01;  3.9971216E+03;0;  0.0000000E+00;  0.0000000E+00;  0.0000000E+00;0; -4.0750921E-02;  4.0000000E+04;  0.0000000E+00;  0.0000000E+00;  4.0000000E+04;  0.0000000E+00;  4.0000000E+04; -3.9483603E-02;  0.0000000E+00; -1.2673171E-03;  1.3058108E+03;
 -2.0000000E-02;  9.9999998E-03; -2.5999999E-01;1655;  0.0000000E+00;  0.0000000E+00;  0.0000000E+00;  1.0053108E+03;  1.0000000E-01;  4.3998755E+03;0;  0.0000000E+00;  0.0000000E+00;  0.0000000E+00;0; -4.5236144E-02;  4.0000000E+04;  0.0000000E+00;  0.0000000E+00;  4.0000000E+04;  0.0000000E+00;  4.0000000E+04; -4.4652540E-02;  0.0000000E+00; -5.8360299E-04;  2.1647432E+03;
 -2.0000000E-02;  9.9999998E-03; -2.5000000E-01;1656;  0.0000000E+00;  0.0000000E+00;  0.0000000E+00;  1.0057825E+03;  1.0000000E-01;  4.7906792E+03;0;  0.0000000E+00;  0.0000000E+00;  0.0000000E+00;0; -4.9618032E-02;  4.0000000E+04;  0.0000000E+00;  0.0000000E+00;  4.0000000E+04;  0.0000000E+00;  4.0000000E+04; -4.9673937E-02;  0.0000000E+00;  5.5905195E-05;  2.9063401E+03;
 -2.0000000E-02;  9.9999998E-03; -2.3999999E-01;1657;  0.0000000E+00;  0.0000000E+00;  0.0000000E+00;  1.0062404E+03;  1.0000000E-01;  5.1700269E+03;0;  0.0000000E+00;  0.0000000E+00;  0.0000000E+00;0; -5.3870775E-02;  4.0000000E+04;  0.0000000E+00;  0.0000000E+00;  4.0000000E+04;  0.0000000E+00;  4.0000000E+04; -5.4467980E-02;  0.0000000E+00;  5.9720367E-04;  3.4685818E+03;
 -2.0000000E-02;  9.9999998E-03; -2.3000000E-01;1658;  0.0000000E+00;  0.0000000E+00;  0.0000000E+00;  1.0066906E+03;  1.0000000E-01;  5.5429541E+03;0;  0.0000000E+00;  0.0000000E+00;  0.0000000E+00;0; -5.7961926E-02;  4.0000000E+04;  0.0000000E+00;  0.0000000E+00;  4.0000000E+04;  0.0000000E+00;  4.0000000E+04; -5.8968041E-02;  0.0000000E+00;  1.0061141E-03;  3.8281011E+03;
 -2.0000000E-02;  9.9999998E-03; -2.2000000E-01;1659;  0.0000000E+00;  0.0000000E+00;  0.0000000E+00;  1.0071303E+03;  1.0000000E-01;  5.9072896E+03;0;  0.0000000E+00;  0.0000000E+00;  0.0000000E+00;0; -6.1849594E-02;  4.0000000E+04;  0.0000000E+00;  0.0000000E+00;  4.0000000E+04;  0.0000000E+00;  4.0000000E+04; -6.3119560E-02;  0.0000000E+00;  1.2699681E-03;  3.9914922E+03;
 -2.0000000E-02;  9.9999998E-03; -2.0999999E-01;1660;  0.0000000E+00;  0.0000000E+00;  0.0000000E+00;  1.0075630E+03;  1.0000000E-01;  6.2657983E+03;0;  0.0000000E+00;  0.0000000E+00;  0.0000000E+00;0; -6.5482318E-02;  4.0000000E+04;  0.0000000E+00;  0.0000000E+00;  4.0000000E+04;  0.0000000E+00;  4.0000000E+04; -6.6878662E-02;  0.0000000E+00;  1.3963422E-03;  3.9862422E+03;
 -2.0000000E-02;  9.9999998E-03; -2.0000000E-01;1661;  0.0000000E+00;  0.0000000E+00;  0.0000000E+00;  1.0079840E+03;  1.0000000E-01;  6.6146279E+03;0;  0.0000000E+00;  0.0000000E+00;  0.0000000E+00;0; -6.8802856E-02;  4.0000000E+04;  0.0000000E+00;  0.0000000E+00;  4.0000000E+04;  0.0000000E+00;  4.0000000E+04; -7.0212141E-02;  0.0000000E+00;  1.4092821E-03;  3.8510669E+03;
 -2.0000000E-02;  9.9999998E-03; -1.9000000E-01;1662;  0.0000000E+00;  0.0000000E+00;  0.0000000E+00;  1.0083890E+03;  1.0000000E-01;  6.9501245E+03;0;  0.0000000E+00;  0.0000000E+00;  0.0000000E+00;0; -7.1753323E-02;  4.0000000E+04;  0.0000000E+00;  0.0000000E+00;  4.0000000E+04;  0.0000000E+00;  4.0000000E+04; -7.3097050E-02;  0.0000000E+00;  1.3437249E-03;  3.6272441E+03;
 -2.0000000E-02;  9.9999998E-03; -1.8000001E-01;1663;  0.0000000E+00;  0.0000000E+00;  0.0000000E+00;  1.0087740E+03;  1.0000000E-01;  7.2691279E+03;0;  0.0000000E+00;  0.0000000E+00;  0.0000000E+00;0; -7.4282423E-02;  4.0000000E+04;  0.0000000E+00;  0.0000000E+00;  4.0000000E+04;  0.0000000E+00;  4.0000000E+04; -7.5521410E-02;  0.0000000E+00;  1.2389860E-03;  3.3522686E+03;
 -2.0000000E-02;  9.9999998E-03; -1.7000000E-01;1664;  0.0000000E+00;  0.0000000E+00;  0.0000000E+00;  1.0091326E+03;  1.0000000E-01;  7.5662056E+03;0;  0.0000000E+00;  0.0000000E+00;  0.0000000E+00;0; -7.6351680E-02;  4.0000000E+04;  0.0000000E+00;  0.0000000E+00;  4.0000000E+04;  0.0000000E+00;  4.0000000E+04; -7.7483997E-02;  0.0000000E+00;  1.1323155E-03;  3.0562019E+03;
 -2.0000000E-02;  9.9999998E-03; -1.6000000E-01;1665;  0.0000000E+00;  0.0000000E+00;  0.0000000E+00;  1.0094677E+03;  1.0000000E-01;  7.8438276E+03;0;  0.0000000E+00;  0.0000000E+00;  0.0000000E+00;0; -7.7941559E-02;  4.0000000E+04;  0.0000000E+00;  0.0000000E+00;  4.0000000E+04;  0.0000000E+00;  4.0000000E+04; -7.8994915E-02;  0.0000000E+00;  1.0533567E-03;  2.7602581E+03;
 -2.0000000E-02;  9.9999998E-03; -1.5000001E-01;1666;  0.0000000E+00;  0.0000000E+00;  0.0000000E+00;  1.0097639E+03;  1.0000000E-01;  8.0892529E+03;0;  0.0000000E+00;  0.0000000E+00;  0.0000000E+00;0; -7.9055890E-02;  4.0000000E+04;  0.0000000E+00;  0.0000000E+00;  4.0000000E+04;  0.0000000E+00;  4.0000000E+04; -8.0076165E-02;  0.0000000E+00;  1.0202779E-03;  2.4772800E+03;
 -2.0000000E-02;  9.9999998E-03; -1.4000000E-01;1667;  0.0000000E+00;  0.0000000E+00;  0.0000000E+00;  1.0100146E+03;  1.0000000E-01;  8.2969502E+03;0;  0.0000000E+00;  0.0000000E+00;  0.0000000E+00;0; -7.9722561E-02;  4.0000000E+04;  0.0000000E+00;  0.0000000E+00;  4.0000000E+04;  0.0000000E+00;  4.0000000E+04; -8.0760501E-02;  0.0000000E+00;  1.0379440E-03;  2.2128591E+03;
 -2.0000000E-02;  9.9999998E-03; -1.3000000E-01;1668;  0.0000000E+00;  0.0000000E+00;  0.0000000E+00;  1.0102206E+03;  1.0000000E-01;  8.4676123E+03;0;  0.0000000E+00;  0.0000000E+00;  0.0000000E+00;0; -7.9993650E-02;  4.0000000E+04;  0.0000000E+00;  0.0000000E+00;  4.0000000E+04;  0.0000000E+00;  4.0000000E+04; -8.1092283E-02;  0.0000000E+00;  1.0986304E-03;  1.9671378E+03;
 -2.0000000E-02;  9.9999998E-03; -1.2000000E-01;1669;  0.0000000E+00;  0.0000000E+00;  0.0000000E+00;  1.0103806E+03;  1.0000000E-01;  8.6000527E+03;0;  0.0000000E+00;  0.0000000E+00;  0.0000000E+00;0; -7.9939753E-02;  4.0000000E+04;  0.0000000E+00;  0.0000000E+00;  4.0000000E+04;  0.0000000E+00;  4.0000000E+04; -8.1125595E-02;  0.0000000E+00;  1.1858448E-03;  1.7389406E+03;
 -2.0000000E-02;  9.9999998E-03; -1.1000000E-01;1670;  0.0000000E+00;  0.0000000E+00;  0.0000000E+00;  1.0104987E+03;  1.0000000E-01;  8.6979268E+03;0;  0.0000000E+00;  0.0000000E+00;  0.0000000E+00;0; -7.9642124E-02;  4.0000000E+04;  0.0000000E+00;  0.0000000E+00;  4.0000000E+04;  0.0000000E+00;  4.0000000E+04; -8.0921337E-02;  0.0000000E+00;  1.2792143E-03;  1.5293441E+03;
 -9.9999998E-03;  9.9999998E-03; -2.7000001E-01;1745;  0.0000000E+00;  0.0000000E+00;  0.0000000E+00;  1.0058127E+03;  1.0000000E-01;  4.8156665E+03;0;  0.0000000E+00;  0.0000000E+00;  0.0000000E+00;0; -4.8324235E-02;  4.0000000E+04;  0.0000000E+00;  0.0000000E+00;  4.0000000E+04;  0.0000000E+00;  4.0000000E+04; -4.6864487E-02;  0.0000000E+00; -1.4597457E-03;  1.6319960E+03;
 -9.9999998E-03;  9.9999998E-03; -2.5999999E-01;1746;  0.0000000E+00;  0.0000000E+00;  0.0000000E+00;  1.0063834E+03;  1.0000000E-01;  5.2885420E+03;0;  0.0000000E+00;  0.0000000E+00;  0.0000000E+00;0; -5.3549558E-02;  4.0000000E+04;  0.0000000E+00;  0.0000000E+00;  4.0000000E+04;  0.0000000E+00;  4.0000000E+04; -5.2920740E-02;  0.0000000E+00; -6.2881655E-04;  2.6017468E+03;
 -9.9999998E-03;  9.9999998E-03; -2.5000000E-01;1747;  0.0000000E+00;  0.0000000E+00;  0.0000000E+00;  1.0069360E+03;  1.0000000E-01;  5.7464053E+03;0;  0.0000000E+00;  0.0000000E+00;  0.0000000E+00;0; -5.8643386E-02;  4.0000000E+04;  0.0000000E+00;  0.0000000E+00;  4.0000000E+04;  0.0000000E+00;  4.0000000E+04; -5.8778927E-02;  0.0000000E+00;  1.3554249E-04;  3.4092861E+03;
 -9.9999998E-03;  9.9999998E-03; -2.3999999E-01;1748;  0.0000000E+00;  0.0000000E+00;  0.0000000E+00;  1.0074732E+03;  1.0000000E-01;  6.1914297E+03;0;  0.0000000E+00;  0.0000000E+00;  0.0000000E+00;0; -6.3576199E-02;  4.0000000E+04;  0.0000000E+00;  0.0000000E+00;  4.0000000E+04;  0.0000000E+00;  4.0000000E+04; -6.4345606E-02;  0.0000000E+00;  7.6940615E-04;  3.9883972E+03;
 -9.9999998E-03;  9.9999998E-03; -2.3000000E-01;1749;  0.0000000E+00;  0.0000000E+00;  0.0000000E+00;  1.0079996E+03;  1.0000000E-01;  6.6274668E+03;0;  0.0000000E+00;  0.0000000E+00;  0.0000000E+00;0; -6.8309873E-02;  4.0000000E+04;  0.0000000E+00;  0.0000000E+00;  4.0000000E+04;  0.0000000E+00;  4.0000000E+04; -6.9543950E-02;  0.0000000E+00;  1.2340788E-03;  4.3205991E+03;
 -9.9999998E-03;  9.9999998E-03; -2.2000000E-01;1750;  0.0000000E+00;  0.0000000E+00;  0.0000000E+00;  1.0085156E+03;  1.0000000E-01;  7.0550103E+03;0;  0.0000000E+00;  0.0000000E+00;  0.0000000E+00;0; -7.2794184E-02;  4.0000000E+04;  0.0000000E+00;  0.0000000E+00;  4.0000000E+04;  0.0000000E+00;  4.0000000E+04; -7.4311979E-02;  0.0000000E+00;  1.5177940E-03;  4.4236382E+03;
 -9.9999998E-03;  9.9999998E-03; -2.0999999E-01;1751;  0.0000000E+00;  0.0000000E+00;  0.0000000E+00;  1.0090193E+03;  1.0000000E-01;  7.4722827E+03;0;  0.0000000E+00;  0.0000000E+00;  0.0000000E+00;0; -7.6967739E-02;  4.0000000E+04;  0.0000000E+00;  0.0000000E+00;  4.0000000E+04;  0.0000000E+00;  4.0000000E+04; -7.8601576E-02;  0.0000000E+00;  1.6338351E-03;  4.3390439E+03;
 -9.9999998E-03;  9.9999998E-03; -2.0000000E-01;1752;  0.0000000E+00;  0.0000000E+00;  0.0000000E+00;  1.0095129E+03;  1.0000000E-01;  7.8812588E+03;0;  0.0000000E+00;  0.0000000E+00;  0.0000000E+00;0; -8.0762684E-02;  4.0000000E+04;  0.0000000E+00;  0.0000000E+00;  4.0000000E+04;  0.0000000E+00;  4.0000000E+04; -8.2378224E-02;  0.0000000E+00;  1.6155419E-03;  4.1192017E+03;
 -9.9999998E-03;  9.9999998E-03; -1.9000000E-01;1753;  0.0000000E+00;  0.0000000E+00;  0.0000000E+00;  1.0099896E+03;  1.0000000E-01;  8.2762100E+03;0;  0.0000000E+00;  0.0000000E+00;  0.0000000E+00;0; -8.4110960E-02;  4.0000000E+04;  0.0000000E+00;  0.0000000E+00;  4.0000000E+04;  0.0000000E+00;  4.0000000E+04; -8.5620031E-02;  0.0000000E+00;  1.5090696E-03;  3.8165391E+03;
 -9.9999998E-03;  9.9999998E-03; -1.8000001E-01;1754;  0.0000000E+00;  0.0000000E+00;  0.0000000E+00;  1.0104449E+03;  1.0000000E-01;  8.6533848E+03;0;  0.0000000E+00;  0.0000000E+00;  0.0000000E+00;0; -8.6953178E-02;  4.0000000E+04;  0.0000000E+00;  0.0000000E+00;  4.0000000E+04;  0.0000000E+00;  4.0000000E+04; -8.8318221E-02;  0.0000000E+00;  1.3650439E-03;  3.4758154E+03;
 -9.9999998E-03;  9.9999998E-03; -1.7000000E-01;1755;  0.0000000E+00;  0.0000000E+00;  0.0000000E+00;  1.0108718E+03;  1.0000000E-01;  9.0070537E+03;0;  0.0000000E+00;  0.0000000E+00;  0.0000000E+00;0; -8.9246929E-02;  4.0000000E+04;  0.0000000E+00;  0.0000000E+00;  4.0000000E+04;  0.0000000E+00;  4.0000000E+04; -9.0477318E-02;  0.0000000E+00;  1.2303879E-03;  3.1300881E+03;
 -9.9999998E-03;  9.9999998E-03; -1.6000000E-01;1756;  0.0000000E+00;  0.0000000E+00;  0.0000000E+00;  1.0112614E+03;  1.0000000E-01;  9.3299092E+03;0;  0.0000000E+00;  0.0000000E+00;  0.0000000E+00;0; -9.0972692E-02;  4.0000000E+04;  0.0000000E+00;  0.0000000E+00;  4.0000000E+04;  0.0000000E+00;  4.0000000E+04; -9.2114158E-02;  0.0000000E+00;  1.1414629E-03;  2.7999976E+03;
 -9.9999998E-03;  9.9999998E-03; -1.5000001E-01;1757;  0.0000000E+00;  0.0000000E+00;  0.0000000E+00;  1.0116028E+03;  1.0000000E-01;  9.6126660E+03;0;  0.0000000E+00;  0.0000000E+00;  0.0000000E+00;0; -9.2138961E-02;  4.0000000E+04;  0.0000000E+00;  0.0000000E+00;  4.0000000E+04;  0.0000000E+00;  4.0000000E+04; -9.3258373E-02;  0.0000000E+00;  1.1194149E-03;  2.4951707E+03;
 -9.9999998E-03;  9.9999998E-03; -1.4000000E-01;1758;  0.0000000E+00;  0.0000000E+00;  0.0000000E+00;  1.0118880E+03;  1.0000000E-01;  9.8490059E+03;0;  0.0000000E+00;  0.0000000E+00;  0.0000000E+00;0; -9.2783086E-02;  4.0000000E+04;  0.0000000E+00;  0.0000000E+00;  4.0000000E+04;  0.0000000E+00;  4.0000000E+04; -9.3951285E-02;  0.0000000E+00;  1.1682005E-03;  2.2169211E+03;
 -9.9999998E-03;  9.9999998E-03; -1.3000000E-01;1759;  0.0000000E+00;  0.0000000E+00;  0.0000000E+00;  1.0121212E+03;  1.0000000E-01;  1.0042186E+04;0;  0.0000000E+00;  0.0000000E+00;  0.0000000E+00;0; -9.2970319E-02;  4.0000000E+04;  0.0000000E+00;  0.0000000E+00;  4.0000000E+04;  0.0000000E+00;  4.0000000E+04; -9.4245940E-02;  0.0000000E+00;  1.2756177E-03;  1.9610040E+03;
 -9.9999998E-03;  9.9999998E-03; -1.2000000E-01;1760;  0.0000000E+00;  0.0000000E+00;  0.0000000E+00;  1.0122999E+03;  1.0000000E-01;  1.0190230E+04;0;  0.0000000E+00;  0.0000000E+00;  0.0000000E+00;0; -9.2787549E-02;  4.0000000E+04;  0.0000000E+00;  0.0000000E+00;  4.0000000E+04;  0.0000000E+00;  4.0000000E+04; -9.4205573E-02;  0.0000000E+00;  1.4180237E-03;  1.7222253E+03;
 -9.9999998E-03;  9.9999998E-03; -1.1000000E-01;1761;  0.0000000E+00;  0.0000000E+00;  0.0000000E+00;  1.0124260E+03;  1.0000000E-01;  1.0294721E+04;0;  0.0000000E+00;  0.0000000E+00;  0.0000000E+00;0; -9.2333548E-02;  4.0000000E+04;  0.0000000E+00;  0.0000000E+00;  4.0000000E+04;  0.0000000E+00;  4.0000000E+04; -9.3900539E-02;  0.0000000E+00;  1.5669888E-03;  1.4992900E+03;
 -1.9000000E-01;  9.9999998E-03; -1.0000000E-01;124;  0.0000000E+00;  0.0000000E+00;  0.0000000E+00;  1.0000000E+03;  1.0000000E-01;  0.0000000E+00;0;  0.0000000E+00;  0.0000000E+00;  0.0000000E+00;0;  0.0000000E+00;  4.0000000E+04;  0.0000000E+00;  0.0000000E+00;  4.0000000E+04;  0.0000000E+00;  4.0000000E+04;  0.0000000E+00;  0.0000000E+00;  0.0000000E+00;  0.0000000E+00;
 -1.9000000E-01;  9.9999998E-03; -9.0000004E-02;125;  0.0000000E+00;  0.0000000E+00;  0.0000000E+00;  1.0000000E+03;  1.0000000E-01;  0.0000000E+00;0;  0.0000000E+00;  0.0000000E+00;  0.0000000E+00;0;  0.0000000E+00;  4.0000000E+04;  0.0000000E+00;  0.0000000E+00;  4.0000000E+04;  0.0000000E+00;  4.0000000E+04;  0.0000000E+00;  0.0000000E+00;  0.0000000E+00;  0.0000000E+00;
 -1.9000000E-01;  9.9999998E-03; -7.9999998E-02;126;  0.0000000E+00;  0.0000000E+00;  0.0000000E+00;  1.0000000E+03;  1.0000000E-01;  0.0000000E+00;0;  0.0000000E+00;  0.0000000E+00;  0.0000000E+00;0;  0.0000000E+00;  4.0000000E+04;  0.0000000E+00;  0.0000000E+00;  4.0000000E+04;  0.0000000E+00;  4.0000000E+04;  0.0000000E+00;  0.0000000E+00;  0.0000000E+00;  0.0000000E+00;
 -1.9000000E-01;  9.9999998E-03; -7.0000000E-02;127;  0.0000000E+00;  0.0000000E+00;  0.0000000E+00;  1.0000000E+03;  1.0000000E-01;  0.0000000E+00;0;  0.0000000E+00;  0.0000000E+00;  0.0000000E+00;0;  0.0000000E+00;  4.0000000E+04;  0.0000000E+00;  0.0000000E+00;  4.0000000E+04;  0.0000000E+00;  4.0000000E+04;  0.0000000E+00;  0.0000000E+00;  0.0000000E+00;  0.0000000E+00;
 -1.9000000E-01;  9.9999998E-03; -5.9999999E-02;128;  0.0000000E+00;  0.0000000E+00;  0.0000000E+00;  1.0000000E+03;  1.0000000E-01;  0.0000000E+00;0;  0.0000000E+00;  0.0000000E+00;  0.0000000E+00;0;  0.0000000E+00;  4.0000000E+04;  0.0000000E+00;  0.0000000E+00;  4.0000000E+04;  0.0000000E+00;  4.0000000E+04;  0.0000000E+00;  0.0000000E+00;  0.0000000E+00;  0.0000000E+00;
 -1.9000000E-01;  9.9999998E-03; -5.0000001E-02;129;  0.0000000E+00;  0.0000000E+00;  0.0000000E+00;  1.0000000E+03;  1.0000000E-01;  0.0000000E+00;0;  0.0000000E+00;  0.0000000E+00;  0.0000000E+00;0;  0.0000000E+00;  4.0000000E+04;  0.0000000E+00;  0.0000000E+00;  4.0000000E+04;  0.0000000E+00;  4.0000000E+04;  0.0000000E+00;  0.0000000E+00;  0.0000000E+00;  0.0000000E+00;
 -1.9000000E-01;  9.9999998E-03; -3.9999999E-02;130;  0.0000000E+00;  0.0000000E+00;  0.0000000E+00;  1.0000000E+03;  1.0000000E-01;  0.0000000E+00;0;  0.0000000E+00;  0.0000000E+00;  0.0000000E+00;0;  0.0000000E+00;  4.0000000E+04;  0.0000000E+00;  0.0000000E+00;  4.0000000E+04;  0.0000000E+00;  4.0000000E+04;  0.0000000E+00;  0.0000000E+00;  0.0000000E+00;  0.0000000E+00;
 -1.9000000E-01;  9.9999998E-03; -2.9999999E-02;131;  0.0000000E+00;  0.0000000E+00;  0.0000000E+00;  1.0000000E+03;  1.0000000E-01;  0.0000000E+00;0;  0.0000000E+00;  0.0000000E+00;  0.0000000E+00;0;  0.0000000E+00;  4.0000000E+04;  0.0000000E+00;  0.0000000E+00;  4.0000000E+04;  0.0000000E+00;  4.0000000E+04;  0.0000000E+00;  0.0000000E+00;  0.0000000E+00;  0.0000000E+00;
 -1.9000000E-01;  9.9999998E-03; -2.0000000E-02;132;  0.0000000E+00;  0.0000000E+00;  0.0000000E+00;  1.0000000E+03;  1.0000000E-01;  0.0000000E+00;0;  0.0000000E+00;  0.0000000E+00;  0.0000000E+00;0;  0.0000000E+00;  4.0000000E+04;  0.0000000E+00;  0.0000000E+00;  4.0000000E+04;  0.0000000E+00;  4.0000000E+04;  0.0000000E+00;  0.0000000E+00;  0.0000000E+00;  0.0000000E+00;
 -1.9000000E-01;  9.9999998E-03; -9.9999998E-03;133;  0.0000000E+00;  0.0000000E+00;  0.0000000E+00;  1.0000000E+03;  1.0000000E-01;  0.0000000E+00;0;  0.0000000E+00;  0.0000000E+00;  0.0000000E+00;0;  0.0000000E+00;  4.0000000E+04;  0.0000000E+00;  0.0000000E+00;  4.0000000E+04;  0.0000000E+00;  4.0000000E+04;  0.0000000E+00;  0.0000000E+00;  0.0000000E+00;  0.0000000E+00;
 -1.9000000E-01;  9.9999998E-03;  0.0000000E+00;134;  0.0000000E+00;  0.0000000E+00;  0.0000000E+00;  1.0000000E+03;  1.0000000E-01;  0.0000000E+00;0;  0.0000000E+00;  0.0000000E+00;  0.0000000E+00;0;  0.0000000E+00;  4.0000000E+04;  0.0000000E+00;  0.0000000E+00;  4.0000000E+04;  0.0000000E+00;  4.0000000E+04;  0.0000000E+00;  0.0000000E+00;  0.0000000E+00;  0.0000000E+00;
 -1.9000000E-01;  9.9999998E-03;  9.9999998E-03;135;  0.0000000E+00;  0.0000000E+00;  0.0000000E+00;  1.0000000E+03;  1.0000000E-01;  0.0000000E+00;0;  0.0000000E+00;  0.0000000E+00;  0.0000000E+00;0;  0.0000000E+00;  4.0000000E+04;  0.0000000E+00;  0.0000000E+00;  4.0000000E+04;  0.0000000E+00;  4.0000000E+04;  0.0000000E+00;  0.0000000E+00;  0.0000000E+00;  0.0000000E+00;
 -1.9000000E-01;  9.9999998E-03;  2.0000000E-02;136;  0.0000000E+00;  0.0000000E+00;  0.0000000E+00;  1.0000000E+03;  1.0000000E-01;  0.0000000E+00;0;  0.0000000E+00;  0.0000000E+00;  0.0000000E+00;0;  0.0000000E+00;  4.0000000E+04;  0.0000000E+00;  0.0000000E+00;  4.0000000E+04;  0.0000000E+00;  4.0000000E+04;  0.0000000E+00;  0.0000000E+00;  0.0000000E+00;  0.0000000E+00;
 -1.9000000E-01;  9.9999998E-03;  2.9999999E-02;137;  0.0000000E+00;  0.0000000E+00;  0.0000000E+00;  1.0000000E+03;  1.0000000E-01;  0.0000000E+00;0;  0.0000000E+00;  0.0000000E+00;  0.0000000E+00;0;  0.0000000E+00;  4.0000000E+04;  0.0000000E+00;  0.0000000E+00;  4.0000000E+04;  0.0000000E+00;  4.0000000E+04;  0.0000000E+00;  0.0000000E+00;  0.0000000E+00;  0.0000000E+00;
 -1.9000000E-01;  9.9999998E-03;  3.9999999E-02;138;  0.0000000E+00;  0.0000000E+00;  0.0000000E+00;  1.0000000E+03;  1.0000000E-01;  0.0000000E+00;0;  0.0000000E+00;  0.0000000E+00;  0.0000000E+00;0;  0.0000000E+00;  4.0000000E+04;  0.0000000E+00;  0.0000000E+00;  4.0000000E+04;  0.0000000E+00;  4.0000000E+04;  0.0000000E+00;  0.0000000E+00;  0.0000000E+00;  0.0000000E+00;
 -1.9000000E-01;  9.9999998E-03;  5.0000001E-02;139;  0.0000000E+00;  0.0000000E+00;  0.0000000E+00;  1.0000000E+03;  1.0000000E-01;  0.0000000E+00;0;  0.0000000E+00;  0.0000000E+00;  0.0000000E+00;0;  0.0000000E+00;  4.0000000E+04;  0.0000000E+00;  0.0000000E+00;  4.0000000E+04;  0.0000000E+00;  4.0000000E+04;  0.0000000E+00;  0.0000000E+00;  0.0000000E+00;  0.0000000E+00;
 -1.9000000E-01;  9.9999998E-03;  5.9999999E-02;140;  0.0000000E+00;  0.0000000E+00;  0.0000000E+00;  1.0000000E+03;  1.0000000E-01;  0.0000000E+00;0;  0.0000000E+00;  0.0000000E+00;  0.0000000E+00;0;  0.0000000E+00;  4.0000000E+04;  0.0000000E+00;  0.0000000E+00;  4.0000000E+04;  0.0000000E+00;  4.0000000E+04;  0.0000000E+00;  0.0000000E+00;  0.0000000E+00;  0.0000000E+00;
 -1.8000001E-01;  9.9999998E-03; -1.0000000E-01;215;  0.0000000E+00;  0.0000000E+00;  0.0000000E+00;  1.0000000E+03;  1.0000000E-01;  0.0000000E+00;0;  0.0000000E+00;  0.0000000E+00;  0.0000000E+00;0;  0.0000000E+00;  4.0000000E+04;  0.0000000E+00;  0.0000000E+00;  4.0000000E+04;  0.0000000E+00;  4.0000000E+04;  0.0000000E+00;  0.0000000E+00;  0.0000000E+00;  0.0000000E+00;
 -1.8000001E-01;  9.9999998E-03; -9.0000004E-02;216;  0.0000000E+00;  0.0000000E+00;  0.0000000E+00;  1.0000000E+03;  1.0000000E-01;  0.0000000E+00;0;  0.0000000E+00;  0.0000000E+00;  0.0000000E+00;0;  0.0000000E+00;  4.0000000E+04;  0.0000000E+00;  0.0000000E+00;  4.0000000E+04;  0.0000000E+00;  4.0000000E+04;  0.0000000E+00;  0.0000000E+00;  0.0000000E+00;  0.0000000E+00;
 -1.8000001E-01;  9.9999998E-03; -7.9999998E-02;217;  0.0000000E+00;  0.0000000E+00;  0.0000000E+00;  1.0000000E+03;  1.0000000E-01;  0.0000000E+00;0;  0.0000000E+00;  0.0000000E+00;  0.0000000E+00;0;  0.0000000E+00;  4.0000000E+04;  0.0000000E+00;  0.0000000E+00;  4.0000000E+04;  0.0000000E+00;  4.0000000E+04;  0.0000000E+00;  0.0000000E+00;  0.0000000E+00;  0.0000000E+00;
 -1.8000001E-01;  9.9999998E-03; -7.0000000E-02;218;  0.0000000E+00;  0.0000000E+00;  0.0000000E+00;  1.0000000E+03;  1.0000000E-01;  0.0000000E+00;0;  0.0000000E+00;  0.0000000E+00;  0.0000000E+00;0;  0.0000000E+00;  4.0000000E+04;  0.0000000E+00;  0.0000000E+00;  4.0000000E+04;  0.0000000E+00;  4.0000000E+04;  0.0000000E+00;  0.0000000E+00;  0.0000000E+00;  0.0000000E+00;
 -1.8000001E-01;  9.9999998E-03; -5.9999999E-02;219;  0.0000000E+00;  0.0000000E+00;  0.0000000E+00;  1.0000000E+03;  1.0000000E-01;  0.0000000E+00;0;  0.0000000E+00;  0.0000000E+00;  0.0000000E+00;0;  0.0000000E+00;  4.0000000E+04;  0.0000000E+00;  0.0000000E+00;  4.0000000E+04;  0.0000000E+00;  4.0000000E+04;  0.0000000E+00;  0.0000000E+00;  0.0000000E+00;  0.0000000E+00;
 -1.8000001E-01;  9.9999998E-03; -5.0000001E-02;220;  0.0000000E+00;  0.0000000E+00;  0.0000000E+00;  1.0000000E+03;  1.0000000E-01;  0.0000000E+00;0;  0.0000000E+00;  0.0000000E+00;  0.0000000E+00;0;  0.0000000E+00;  4.0000000E+04;  0.0000000E+00;  0.0000000E+00;  4.0000000E+04;  0.0000000E+00;  4.0000000E+04;  0.0000000E+00;  0.0000000E+00;  0.0000000E+00;  0.0000000E+00;
 -1.8000001E-01;  9.9999998E-03; -3.9999999E-02;221;  0.0000000E+00;  0.0000000E+00;  0.0000000E+00;  1.0000000E+03;  1.0000000E-01;  0.0000000E+00;0;  0.0000000E+00;  0.0000000E+00;  0.0000000E+00;0;  0.0000000E+00;  4.0000000E+04;  0.0000000E+00;  0.0000000E+00;  4.0000000E+04;  0.0000000E+00;  4.0000000E+04;  0.0000000E+00;  0.0000000E+00;  0.0000000E+00;  0.0000000E+00;
 -1.8000001E-01;  9.9999998E-03; -2.9999999E-02;222;  0.0000000E+00;  0.0000000E+00;  0.0000000E+00;  1.0000000E+03;  1.0000000E-01;  0.0000000E+00;0;  0.0000000E+00;  0.0000000E+00;  0.0000000E+00;0;  0.0000000E+00;  4.0000000E+04;  0.0000000E+00;  0.0000000E+00;  4.0000000E+04;  0.0000000E+00;  4.0000000E+04;  0.0000000E+00;  0.0000000E+00;  0.0000000E+00;  0.0000000E+00;
 -1.8000001E-01;  9.9999998E-03; -2.0000000E-02;223;  0.0000000E+00;  0.0000000E+00;  0.0000000E+00;  1.0000000E+03;  1.0000000E-01;  0.0000000E+00;0;  0.0000000E+00;  0.0000000E+00;  0.0000000E+00;0;  0.0000000E+00;  4.0000000E+04;  0.0000000E+00;  0.0000000E+00;  4.0000000E+04;  0.0000000E+00;  4.0000000E+04;  0.0000000E+00;  0.0000000E+00;  0.0000000E+00;  0.0000000E+00;
 -1.8000001E-01;  9.9999998E-03; -9.9999998E-03;224;  0.0000000E+00;  0.0000000E+00;  0.0000000E+00;  1.0000000E+03;  1.0000000E-01;  0.0000000E+00;0;  0.0000000E+00;  0.0000000E+00;  0.0000000E+00;0;  0.0000000E+00;  4.0000000E+04;  0.0000000E+00;  0.0000000E+00;  4.0000000E+04;  0.0000000E+00;  4.0000000E+04;  0.0000000E+00;  0.0000000E+00;  0.0000000E+00;  0.0000000E+00;
 -1.8000001E-01;  9.9999998E-03;  0.0000000E+00;225;  0.0000000E+00;  0.0000000E+00;  0.0000000E+00;  1.0000000E+03;  1.0000000E-01;  0.0000000E+00;0;  0.0000000E+00;  0.0000000E+00;  0.0000000E+00;0;  0.0000000E+00;  4.0000000E+04;  0.0000000E+00;  0.0000000E+00;  4.0000000E+04;  0.0000000E+00;  4.0000000E+04;  0.0000000E+00;  0.0000000E+00;  0.0000000E+00;  0.0000000E+00;
 -1.8000001E-01;  9.9999998E-03;  9.9999998E-03;226;  0.0000000E+00;  0.0000000E+00;  0.0000000E+00;  1.0000000E+03;  1.0000000E-01;  0.0000000E+00;0;  0.0000000E+00;  0.0000000E+00;  0.0000000E+00;0;  0.0000000E+00;  4.0000000E+04;  0.0000000E+00;  0.0000000E+00;  4.0000000E+04;  0.0000000E+00;  4.0000000E+04;  0.0000000E+00;  0.0000000E+00;  0.0000000E+00;  0.0000000E+00;
 -1.8000001E-01;  9.9999998E-03;  2.0000000E-02;227;  0.0000000E+00;  0.0000000E+00;  0.0000000E+00;  1.0000000E+03;  1.0000000E-01;  0.0000000E+00;0;  0.0000000E+00;  0.0000000E+00;  0.0000000E+00;0;  0.0000000E+00;  4.0000000E+04;  0.0000000E+00;  0.0000000E+00;  4.0000000E+04;  0.0000000E+00;  4.0000000E+04;  0.0000000E+00;  0.0000000E+00;  0.0000000E+00;  0.0000000E+00;
 -1.8000001E-01;  9.9999998E-03;  2.9999999E-02;228;  0.0000000E+00;  0.0000000E+00;  0.0000000E+00;  1.0000000E+03;  1.0000000E-01;  0.0000000E+00;0;  0.0000000E+00;  0.0000000E+00;  0.0000000E+00;0;  0.0000000E+00;  4.0000000E+04;  0.0000000E+00;  0.0000000E+00;  4.0000000E+04;  0.0000000E+00;  4.0000000E+04;  0.0000000E+00;  0.0000000E+00;  0.0000000E+00;  0.0000000E+00;
 -1.8000001E-01;  9.9999998E-03;  3.9999999E-02;229;  0.0000000E+00;  0.0000000E+00;  0.0000000E+00;  1.0000000E+03;  1.0000000E-01;  0.0000000E+00;0;  0.0000000E+00;  0.0000000E+00;  0.0000000E+00;0;  0.0000000E+00;  4.0000000E+04;  0.0000000E+00;  0.0000000E+00;  4.0000000E+04;  0.0000000E+00;  4.0000000E+04;  0.0000000E+00;  0.0000000E+00;  0.0000000E+00;  0.0000000E+00;
 -1.8000001E-01;  9.9999998E-03;  5.0000001E-02;230;  0.0000000E+00;  0.0000000E+00;  0.0000000E+00;  1.0000000E+03;  1.0000000E-01;  0.0000000E+00;0;  0.0000000E+00;  0.0000000E+00;  0.0000000E+00;0;  0.0000000E+00;  4.0000000E+04;  0.0000000E+00;  0.0000000E+00;  4.0000000E+04;  0.0000000E+00;  4.0000000E+04;  0.0000000E+00;  0.0000000E+00;  0.0000000E+00;  0.0000000E+00;
 -1.8000001E-01;  9.9999998E-03;  5.9999999E-02;231;  0.0000000E+00;  0.0000000E+00;  0.0000000E+00;  1.0000000E+03;  1.0000000E-01;  0.0000000E+00;0;  0.0000000E+00;  0.0000000E+00;  0.0000000E+00;0;  0.0000000E+00;  4.0000000E+04;  0.0000000E+00;  0.0000000E+00;  4.0000000E+04;  0.0000000E+00;  4.0000000E+04;  0.0000000E+00;  0.0000000E+00;  0.0000000E+00;  0.0000000E+00;
 -1.7000000E-01;  9.9999998E-03; -1.0000000E-01;306;  0.0000000E+00;  0.0000000E+00;  0.0000000E+00;  1.0000000E+03;  1.0000000E-01;  0.0000000E+00;0;  0.0000000E+00;  0.0000000E+00;  0.0000000E+00;0;  0.0000000E+00;  4.0000000E+04;  0.0000000E+00;  0.0000000E+00;  4.0000000E+04;  0.0000000E+00;  4.0000000E+04;  0.0000000E+00;  0.0000000E+00;  0.0000000E+00;  1.9801023E-09;
 -1.7000000E-01;  9.9999998E-03; -9.0000004E-02;307;  0.0000000E+00;  0.0000000E+00;  0.0000000E+00;  1.0000000E+03;  1.0000000E-01;  0.0000000E+00;0;  0.0000000E+00;  0.0000000E+00;  0.0000000E+00;0;  0.0000000E+00;  4.0000000E+04;  0.0000000E+00;  0.0000000E+00;  4.0000000E+04;  0.0000000E+00;  4.0000000E+04;  0.0000000E+00;  0.0000000E+00;  0.0000000E+00;  1.9974504E-09;
 -1.7000000E-01;  9.9999998E-03; -7.9999998E-02;308;  0.0000000E+00;  0.0000000E+00;  0.0000000E+00;  1.0000000E+03;  1.0000000E-01;  0.0000000E+00;0;  0.0000000E+00;  0.0000000E+00;  0.0000000E+00;0;  0.0000000E+00;  4.0000000E+04;  0.0000000E+00;  0.0000000E+00;  4.0000000E+04;  0.0000000E+00;  4.0000000E+04;  0.0000000E+00;  0.0000000E+00;  0.0000000E+00;  2.0288866E-09;
 -1.7000000E-01;  9.9999998E-03; -7.0000000E-02;309;  0.0000000E+00;  0.0000000E+00;  0.0000000E+00;  1.0000000E+03;  1.0000000E-01;  0.0000000E+00;0;  0.0000000E+00;  0.0000000E+00;  0.0000000E+00;0;  0.0000000E+00;  4.0000000E+04;  0.0000000E+00;  0.0000000E+00;  4.0000000E+04;  0.0000000E+00;  4.0000000E+04;  0.0000000E+00;  0.0000000E+00;  0.0000000E+00;  2.0664868E-09;
 -1.7000000E-01;  9.9999998E-03; -5.9999999E-02;310;  0.0000000E+00;  0.0000000E+00;  0.0000000E+00;  1.0000000E+03;  1.0000000E-01;  0.0000000E+00;0;  0.0000000E+00;  0.0000000E+00;  0.0000000E+00;0;  0.0000000E+00;  4.0000000E+04;  0.0000000E+00;  0.0000000E+00;  4.0000000E+04;  0.0000000E+00;  4.0000000E+04;  0.0000000E+00;  0.0000000E+00;  0.0000000E+00;  2.0963358E-09;
 -1.7000000E-01;  9.9999998E-03; -5.0000001E-02;311;  0.0000000E+00;  0.0000000E+00;  0.0000000E+00;  1.0000000E+03;  1.0000000E-01;  0.0000000E+00;0;  0.0000000E+00;  0.0000000E+00;  0.0000000E+00;0;  0.0000000E+00;  4.0000000E+04;  0.0000000E+00;  0.0000000E+00;  4.0000000E+04;  0.0000000E+00;  4.0000000E+04;  0.0000000E+00;  0.0000000E+00;  0.0000000E+00;  2.0985100E-09;
 -1.7000000E-01;  9.9999998E-03; -3.9999999E-02;312;  0.0000000E+00;  0.0000000E+00;  0.0000000E+00;  1.0000000E+03;  1.0000000E-01;  0.0000000E+00;0;  0.0000000E+00;  0.0000000E+00;  0.0000000E+00;0;  0.0000000E+00;  4.0000000E+04;  0.0000000E+00;  0.0000000E+00;  4.0000000E+04;  0.0000000E+00;  4.0000000E+04;  0.0000000E+00;  0.0000000E+00;  0.0000000E+00;  2.0709305E-09;
 -1.7000000E-01;  9.9999998E-03; -2.9999999E-02;313;  0.0000000E+00;  0.0000000E+00;  0.0000000E+00;  1.0000000E+03;  1.0000000E-01;  0.0000000E+00;0;  0.0000000E+00;  0.0000000E+00;  0.0000000E+00;0;  0.0000000E+00;  4.0000000E+04;  0.0000000E+00;  0.0000000E+00;  4.0000000E+04;  0.0000000E+00;  4.0000000E+04;  0.0000000E+00;  0.0000000E+00;  0.0000000E+00;  2.0022204E-09;
 -1.7000000E-01;  9.9999998E-03; -2.0000000E-02;314;  0.0000000E+00;  0.0000000E+00;  0.0000000E+00;  1.0000000E+03;  1.0000000E-01;  0.0000000E+00;0;  0.0000000E+00;  0.0000000E+00;  0.0000000E+00;0;  0.0000000E+00;  4.0000000E+04;  0.0000000E+00;  0.0000000E+00;  4.0000000E+04;  0.0000000E+00;  4.0000000E+04;  0.0000000E+00;  0.0000000E+00;  0.0000000E+00;  1.8807096E-09;
 -1.7000000E-01;  9.9999998E-03; -9.9999998E-03;315;  0.0000000E+00;  0.0000000E+00;  0.0000000E+00;  1.0000000E+03;  1.0000000E-01;  0.0000000E+00;0;  0.0000000E+00;  0.0000000E+00;  0.0000000E+00;0;  0.0000000E+00;  4.0000000E+04;  0.0000000E+00;  0.0000000E+00;  4.0000000E+04;  0.0000000E+00;  4.0000000E+04;  0.0000000E+00;  0.0000000E+00;  0.0000000E+00;  1.7538491E-09;
 -1.7000000E-01;  9.9999998E-03;  0.0000000E+00;316;  0.0000000E+00;  0.0000000E+00;  0.0000000E+00;  1.0000000E+03;  1.0000000E-01;  0.0000000E+00;0;  0.0000000E+00;  0.0000000E+00;  0.0000000E+00;0;  0.0000000E+00;  4.0000000E+04;  0.0000000E+00;  0.0000000E+00;  4.0000000E+04;  0.0000000E+00;  4.0000000E+04;  0.0000000E+00;  0.0000000E+00;  0.0000000E+00;  1.6940426E-09;
 -1.7000000E-01;  9.9999998E-03;  9.9999998E-03;317;  0.0000000E+00;  0.0000000E+00;  0.0000000E+00;  1.0000000E+03;  1.0000000E-01;  0.0000000E+00;0;  0.0000000E+00;  0.0000000E+00;  0.0000000E+00;0;  0.0000000E+00;  4.0000000E+04;  0.0000000E+00;  0.0000000E+00;  4.0000000E+04;  0.0000000E+00;  4.0000000E+04;  0.0000000E+00;  0.0000000E+00;  0.0000000E+00;  1.7541210E-09;
 -1.7000000E-01;  9.9999998E-03;  2.0000000E-02;318;  0.0000000E+00;  0.0000000E+00;  0.0000000E+00;  1.0000000E+03;  1.0000000E-01;  0.0000000E+00;0;  0.0000000E+00;  0.0000000E+00;  0.0000000E+00;0;  0.0000000E+00;  4.0000000E+04;  0.0000000E+00;  0.0000000E+00;  4.0000000E+04;  0.0000000E+00;  4.0000000E+04;  0.0000000E+00;  0.0000000E+00;  0.0000000E+00;  1.8806892E-09;
 -1.7000000E-01;  9.9999998E-03;  2.9999999E-02;319;  0.0000000E+00;  0.0000000E+00;  0.0000000E+00;  1.0000000E+03;  1.0000000E-01;  0.0000000E+00;0;  0.0000000E+00;  0.0000000E+00;  0.0000000E+00;0;  0.0000000E+00;  4.0000000E+04;  0.0000000E+00;  0.0000000E+00;  4.0000000E+04;  0.0000000E+00;  4.0000000E+04;  0.0000000E+00;  0.0000000E+00;  0.0000000E+00;  2.0024555E-09;
 -1.7000000E-01;  9.9999998E-03;  3.9999999E-02;320;  0.0000000E+00;  0.0000000E+00;  0.0000000E+00;  1.0000000E+03;  1.0000000E-01;  0.0000000E+00;0;  0.0000000E+00;  0.0000000E+00;  0.0000000E+00;0;  0.0000000E+00;  4.0000000E+04;  0.0000000E+00;  0.0000000E+00;  4.0000000E+04;  0.0000000E+00;  4.0000000E+04;  0.0000000E+00;  0.0000000E+00;  0.0000000E+00;  2.0701814E-09;
 -1.7000000E-01;  9.9999998E-03;  5.0000001E-02;321;  0.0000000E+00;  0.0000000E+00;  0.0000000E+00;  1.0000000E+03;  1.0000000E-01;  0.0000000E+00;0;  0.0000000E+00;  0.0000000E+00;  0.0000000E+00;0;  0.0000000E+00;  4.0000000E+04;  0.0000000E+00;  0.0000000E+00;  4.0000000E+04;  0.0000000E+00;  4.0000000E+04;  0.0000000E+00;  0.0000000E+00;  0.0000000E+00;  2.0988598E-09;
 -1.7000000E-01;  9.9999998E-03;  5.9999999E-02;322;  0.0000000E+00;  0.0000000E+00;  0.0000000E+00;  1.0000000E+03;  1.0000000E-01;  0.0000000E+00;0;  0.0000000E+00;  0.0000000E+00;  0.0000000E+00;0;  0.0000000E+00;  4.0000000E+04;  0.0000000E+00;  0.0000000E+00;  4.0000000E+04;  0.0000000E+00;  4.0000000E+04;  0.0000000E+00;  0.0000000E+00;  0.0000000E+00;  2.0959194E-09;
 -1.6000000E-01;  9.9999998E-03; -1.0000000E-01;397;  0.0000000E+00;  0.0000000E+00;  0.0000000E+00;  1.0000000E+03;  1.0000000E-01;  0.0000000E+00;0;  0.0000000E+00;  0.0000000E+00;  0.0000000E+00;0; -1.5689055E-06;  4.0000000E+04;  0.0000000E+00;  0.0000000E+00;  4.0000000E+04;  0.0000000E+00;  4.0000000E+04; -1.5702394E-06;  0.0000000E+00;  1.3339231E-09;  2.4747536E-01;
 -1.6000000E-01;  9.9999998E-03; -9.0000004E-02;398;  0.0000000E+00;  0.0000000E+00;  0.0000000E+00;  1.0000000E+03;  1.0000000E-01;  0.0000000E+00;0;  0.0000000E+00;  0.0000000E+00;  0.0000000E+00;0; -1.5683240E-06;  4.0000000E+04;  0.0000000E+00;  0.0000000E+00;  4.0000000E+04;  0.0000000E+00;  4.0000000E+04; -1.5695225E-06;  0.0000000E+00;  1.1984553E-09;  2.4367328E-01;
 -1.6000000E-01;  9.9999998E-03; -7.9999998E-02;399;  0.0000000E+00;  0.0000000E+00;  0.0000000E+00;  1.0000000E+03;  1.0000000E-01;  0.0000000E+00;0;  0.0000000E+00;  0.0000000E+00;  0.0000000E+00;0; -1.5707244E-06;  4.0000000E+04;  0.0000000E+00;  0.0000000E+00;  4.0000000E+04;  0.0000000E+00;  4.0000000E+04; -1.5717645E-06;  0.0000000E+00;  1.0401132E-09;  2.4132301E-01;
 -1.6000000E-01;  9.9999998E-03; -7.0000000E-02;400;  0.0000000E+00;  0.0000000E+00;  0.0000000E+00;  1.0000000E+03;  1.0000000E-01;  0.0000000E+00;0;  0.0000000E+00;  0.0000000E+00;  0.0000000E+00;0; -1.5765886E-06;  4.0000000E+04;  0.0000000E+00;  0.0000000E+00;  4.0000000E+04;  0.0000000E+00;  4.0000000E+04; -1.5774639E-06;  0.0000000E+00;  8.7530799E-10;  2.4016128E-01;
 -1.6000000E-01;  9.9999998E-03; -5.9999999E-02;401;  0.0000000E+00;  0.0000000E+00;  0.0000000E+00;  1.0000000E+03;  1.0000000E-01;  0.0000000E+00;0;  0.0000000E+00;  0.0000000E+00;  0.0000000E+00;0; -1.5857003E-06;  4.0000000E+04;  0.0000000E+00;  0.0000000E+00;  4.0000000E+04;  0.0000000E+00;  4.0000000E+04; -1.5864247E-06;  0.0000000E+00;  7.2441952E-10;  2.3979920E-01;
 -1.6000000E-01;  9.9999998E-03; -5.0000001E-02;402;  0.0000000E+00;  0.0000000E+00;  0.0000000E+00;  1.0000000E+03;  1.0000000E-01;  0.0000000E+00;0;  0.0000000E+00;  0.0000000E+00;  0.0000000E+00;0; -1.5972187E-06;  4.0000000E+04;  0.0000000E+00;  0.0000000E+00;  4.0000000E+04;  0.0000000E+00;  4.0000000E+04; -1.5978227E-06;  0.0000000E+00;  6.0403493E-10;  2.3985364E-01;
 -1.6000000E-01;  9.9999998E-03; -3.9999999E-02;403;  0.0000000E+00;  0.0000000E+00;  0.0000000E+00;  1.0000000E+03;  1.0000000E-01;  0.0000000E+00;0;  0.0000000E+00;  0.0000000E+00;  0.0000000E+00;0; -1.6098077E-06;  4.0000000E+04;  0.0000000E+00;  0.0000000E+00;  4.0000000E+04;  0.0000000E+00;  4.0000000E+04; -1.6103294E-06;  0.0000000E+00;  5.2175664E-10;  2.4003449E-01;
 -1.6000000E-01;  9.9999998E-03; -2.9999999E-02;404;  0.0000000E+00;  0.0000000E+00;  0.0000000E+00;  1.0000000E+03;  1.0000000E-01;  0.0000000E+00;0;  0.0000000E+00;  0.0000000E+00;  0.0000000E+00;0; -1.6218836E-06;  4.0000000E+04;  0.0000000E+00;  0.0000000E+00;  4.0000000E+04;  0.0000000E+00;  4.0000000E+04; -1.6223588E-06;  0.0000000E+00;  4.7521742E-10;  2.4017343E-01;
 -1.6000000E-01;  9.9999998E-03; -2.0000000E-02;405;  0.0000000E+00;  0.0000000E+00;  0.0000000E+00;  1.0000000E+03;  1.0000000E-01;  0.0000000E+00;0;  0.0000000E+00;  0.0000000E+00;  0.0000000E+00;0; -1.6318733E-06;  4.0000000E+04;  0.0000000E+00;  0.0000000E+00;  4.0000000E+04;  0.0000000E+00;  4.0000000E+04; -1.6323282E-06;  0.0000000E+00;  4.5498710E-10;  2.4022177E-01;
 -1.6000000E-01;  9.9999998E-03; -9.9999998E-03;406;  0.0000000E+00;  0.0000000E+00;  0.0000000E+00;  1.0000000E+03;  1.0000000E-01;  0.0000000E+00;0;  0.0000000E+00;  0.0000000E+00;  0.0000000E+00;0; -1.6384552E-06;  4.0000000E+04;  0.0000000E+00;  0.0000000E+00;  4.0000000E+04;  0.0000000E+00;  4.0000000E+04; -1.6389043E-06;  0.0000000E+00;  4.4920007E-10;  2.4020945E-01;
 -1.6000000E-01;  9.9999998E-03;  0.0000000E+00;407;  0.0000000E+00;  0.0000000E+00;  0.0000000E+00;  1.0000000E+03;  1.0000000E-01;  0.0000000E+00;0;  0.0000000E+00;  0.0000000E+00;  0.0000000E+00;0; -1.6407517E-06;  4.0000000E+04;  0.0000000E+00;  0.0000000E+00;  4.0000000E+04;  0.0000000E+00;  4.0000000E+04; -1.6412001E-06;  0.0000000E+00;  4.4842502E-10;  2.4019742E-01;
 -1.6000000E-01;  9.9999998E-03;  9.9999998E-03;408;  0.0000000E+00;  0.0000000E+00;  0.0000000E+00;  1.0000000E+03;  1.0000000E-01;  0.0000000E+00;0;  0.0000000E+00;  0.0000000E+00;  0.0000000E+00;0; -1.6384543E-06;  4.0000000E+04;  0.0000000E+00;  0.0000000E+00;  4.0000000E+04;  0.0000000E+00;  4.0000000E+04; -1.6389034E-06;  0.0000000E+00;  4.4917647E-10;  2.4020927E-01;
 -1.6000000E-01;  9.9999998E-03;  2.0000000E-02;409;  0.0000000E+00;  0.0000000E+00;  0.0000000E+00;  1.0000000E+03;  1.0000000E-01;  0.0000000E+00;0;  0.0000000E+00;  0.0000000E+00;  0.0000000E+00;0; -1.6318722E-06;  4.0000000E+04;  0.0000000E+00;  0.0000000E+00;  4.0000000E+04;  0.0000000E+00;  4.0000000E+04; -1.6323272E-06;  0.0000000E+00;  4.5495910E-10;  2.4022163E-01;
 -1.6000000E-01;  9.9999998E-03;  2.9999999E-02;410;  0.0000000E+00;  0.0000000E+00;  0.0000000E+00;  1.0000000E+03;  1.0000000E-01;  0.0000000E+00;0;  0.0000000E+00;  0.0000000E+00;  0.0000000E+00;0; -1.6218822E-06;  4.0000000E+04;  0.0000000E+00;  0.0000000E+00;  4.0000000E+04;  0.0000000E+00;  4.0000000E+04; -1.6223574E-06;  0.0000000E+00;  4.7520116E-10;  2.4017328E-01;
 -1.6000000E-01;  9.9999998E-03;  3.9999999E-02;411;  0.0000000E+00;  0.0000000E+00;  0.0000000E+00;  1.0000000E+03;  1.0000000E-01;  0.0000000E+00;0;  0.0000000E+00;  0.0000000E+00;  0.0000000E+00;0; -1.6098057E-06;  4.0000000E+04;  0.0000000E+00;  0.0000000E+00;  4.0000000E+04;  0.0000000E+00;  4.0000000E+04; -1.6103274E-06;  0.0000000E+00;  5.2175525E-10;  2.4003427E-01;
 -1.6000000E-01;  9.9999998E-03;  5.0000001E-02;412;  0.0000000E+00;  0.0000000E+00;  0.0000000E+00;  1.0000000E+03;  1.0000000E-01;  0.0000000E+00;0;  0.0000000E+00;  0.0000000E+00;  0.0000000E+00;0; -1.5972172E-06;  4.0000000E+04;  0.0000000E+00;  0.0000000E+00;  4.0000000E+04;  0.0000000E+00;  4.0000000E+04; -1.5978212E-06;  0.0000000E+00;  6.0404026E-10;  2.3985340E-01;
 -1.6000000E-01;  9.9999998E-03;  5.9999999E-02;413;  0.0000000E+00;  0.0000000E+00;  0.0000000E+00;  1.0000000E+03;  1.0000000E-01;  0.0000000E+00;0;  0.0000000E+00;  0.0000000E+00;  0.0000000E+00;0; -1.5856976E-06;  4.0000000E+04;  0.0000000E+00;  0.0000000E+00;  4.0000000E+04;  0.0000000E+00;  4.0000000E+04; -1.5864221E-06;  0.0000000E+00;  7.2441758E-10;  2.3979905E-01;
 -1.5000001E-01;  9.9999998E-03; -1.0000000E-01;488;  0.0000000E+00;  0.0000000E+00;  0.0000000E+00;  1.0000000E+03;  1.0000000E-01;  0.0000000E+00;0;  0.0000000E+00;  0.0000000E+00;  0.0000000E+00;0; -3.6149195E-05;  4.0000000E+04;  0.0000000E+00;  0.0000000E+00;  4.0000000E+04;  0.0000000E+00;  4.0000000E+04; -3.6226520E-05;  0.0000000E+00;  7.7326014E-08;  3.4529345E+00;
 -1.5000001E-01;  9.9999998E-03; -9.0000004E-02;489;  0.0000000E+00;  0.0000000E+00;  0.0000000E+00;  1.0000000E+03;  1.0000000E-01;  0.0000000E+00;0;  0.0000000E+00;  0.0000000E+00;  0.0000000E+00;0; -3.5978432E-05;  4.0000000E+04;  0.0000000E+00;  0.0000000E+00;  4.0000000E+04;  0.0000000E+00;  4.0000000E+04; -3.6047692E-05;  0.0000000E+00;  6.9260459E-08;  3.3750887E+00;
 -1.5000001E-01;  9.9999998E-03; -7.9999998E-02;490;  0.0000000E+00;  0.0000000E+00;  0.0000000E+00;  1.0000000E+03;  1.0000000E-01;  0.0000000E+00;0;  0.0000000E+00;  0.0000000E+00;  0.0000000E+00;0; -3.5843426E-05;  4.0000000E+04;  0.0000000E+00;  0.0000000E+00;  4.0000000E+04;  0.0000000E+00;  4.0000000E+04; -3.5904057E-05;  0.0000000E+00;  6.0632175E-08;  3.3304288E+00;
 -1.5000001E-01;  9.9999998E-03; -7.0000000E-02;491;  0.0000000E+00;  0.0000000E+00;  0.0000000E+00;  1.0000000E+03;  1.0000000E-01;  0.0000000E+00;0;  0.0000000E+00;  0.0000000E+00;  0.0000000E+00;0; -3.5766043E-05;  4.0000000E+04;  0.0000000E+00;  0.0000000E+00;  4.0000000E+04;  0.0000000E+00;  4.0000000E+04; -3.5817982E-05;  0.0000000E+00;  5.1937771E-08;  3.3150501E+00;
 -1.5000001E-01;  9.9999998E-03; -5.9999999E-02;492;  0.0000000E+00;  0.0000000E+00;  0.0000000E+00;  1.0000000E+03;  1.0000000E-01;  0.0000000E+00;0;  0.0000000E+00;  0.0000000E+00;  0.0000000E+00;0; -3.5752335E-05;  4.0000000E+04;  0.0000000E+00;  0.0000000E+00;  4.0000000E+04;  0.0000000E+00;  4.0000000E+04; -3.5796209E-05;  0.0000000E+00;  4.3874198E-08;  3.3209307E+00;
 -1.5000001E-01;  9.9999998E-03; -5.0000001E-02;493;  0.0000000E+00;  0.0000000E+00;  0.0000000E+00;  1.0000000E+03;  1.0000000E-01;  0.0000000E+00;0;  0.0000000E+00;  0.0000000E+00;  0.0000000E+00;0; -3.5794841E-05;  4.0000000E+04;  0.0000000E+00;  0.0000000E+00;  4.0000000E+04;  0.0000000E+00;  4.0000000E+04; -3.5831901E-05;  0.0000000E+00;  3.7058484E-08;  3.3388171E+00;
 -1.5000001E-01;  9.9999998E-03; -3.9999999E-02;494;  0.0000000E+00;  0.0000000E+00;  0.0000000E+00;  1.0000000E+03;  1.0000000E-01;  0.0000000E+00;0;  0.0000000E+00;  0.0000000E+00;  0.0000000E+00;0; -3.5876255E-05;  4.0000000E+04;  0.0000000E+00;  0.0000000E+00;  4.0000000E+04;  0.0000000E+00;  4.0000000E+04; -3.5908095E-05;  0.0000000E+00;  3.1838443E-08;  3.3606799E+00;
 -1.5000001E-01;  9.9999998E-03; -2.9999999E-02;495;  0.0000000E+00;  0.0000000E+00;  0.0000000E+00;  1.0000000E+03;  1.0000000E-01;  0.0000000E+00;0;  0.0000000E+00;  0.0000000E+00;  0.0000000E+00;0; -3.5973982E-05;  4.0000000E+04;  0.0000000E+00;  0.0000000E+00;  4.0000000E+04;  0.0000000E+00;  4.0000000E+04; -3.6002224E-05;  0.0000000E+00;  2.8242868E-08;  3.3809507E+00;
 -1.5000001E-01;  9.9999998E-03; -2.0000000E-02;496;  0.0000000E+00;  0.0000000E+00;  0.0000000E+00;  1.0000000E+03;  1.0000000E-01;  0.0000000E+00;0;  0.0000000E+00;  0.0000000E+00;  0.0000000E+00;0; -3.6064474E-05;  4.0000000E+04;  0.0000000E+00;  0.0000000E+00;  4.0000000E+04;  0.0000000E+00;  4.0000000E+04; -3.6090521E-05;  0.0000000E+00;  2.6049259E-08;  3.3965099E+00;
 -1.5000001E-01;  9.9999998E-03; -9.9999998E-03;497;  0.0000000E+00;  0.0000000E+00;  0.0000000E+00;  1.0000000E+03;  1.0000000E-01;  0.0000000E+00;0;  0.0000000E+00;  0.0000000E+00;  0.0000000E+00;0; -3.6127785E-05;  4.0000000E+04;  0.0000000E+00;  0.0000000E+00;  4.0000000E+04;  0.0000000E+00;  4.0000000E+04; -3.6152709E-05;  0.0000000E+00;  2.4924542E-08;  3.4060495E+00;
 -1.5000001E-01;  9.9999998E-03;  0.0000000E+00;498;  0.0000000E+00;  0.0000000E+00;  0.0000000E+00;  1.0000000E+03;  1.0000000E-01;  0.0000000E+00;0;  0.0000000E+00;  0.0000000E+00;  0.0000000E+00;0; -3.6150443E-05;  4.0000000E+04;  0.0000000E+00;  0.0000000E+00;  4.0000000E+04;  0.0000000E+00;  4.0000000E+04; -3.6175028E-05;  0.0000000E+00;  2.4586001E-08;  3.4092352E+00;
 -1.5000001E-01;  9.9999998E-03;  9.9999998E-03;499;  0.0000000E+00;  0.0000000E+00;  0.0000000E+00;  1.0000000E+03;  1.0000000E-01;  0.0000000E+00;0;  0.0000000E+00;  0.0000000E+00;  0.0000000E+00;0; -3.6127774E-05;  4.0000000E+04;  0.0000000E+00;  0.0000000E+00;  4.0000000E+04;  0.0000000E+00;  4.0000000E+04; -3.6152698E-05;  0.0000000E+00;  2.4924207E-08;  3.4060495E+00;
 -1.5000001E-01;  9.9999998E-03;  2.0000000E-02;500;  0.0000000E+00;  0.0000000E+00;  0.0000000E+00;  1.0000000E+03;  1.0000000E-01;  0.0000000E+00;0;  0.0000000E+00;  0.0000000E+00;  0.0000000E+00;0; -3.6064459E-05;  4.0000000E+04;  0.0000000E+00;  0.0000000E+00;  4.0000000E+04;  0.0000000E+00;  4.0000000E+04; -3.6090507E-05;  0.0000000E+00;  2.6048747E-08;  3.3965087E+00;
 -1.5000001E-01;  9.9999998E-03;  2.9999999E-02;501;  0.0000000E+00;  0.0000000E+00;  0.0000000E+00;  1.0000000E+03;  1.0000000E-01;  0.0000000E+00;0;  0.0000000E+00;  0.0000000E+00;  0.0000000E+00;0; -3.5973950E-05;  4.0000000E+04;  0.0000000E+00;  0.0000000E+00;  4.0000000E+04;  0.0000000E+00;  4.0000000E+04; -3.6002191E-05;  0.0000000E+00;  2.8242320E-08;  3.3809481E+00;
 -1.5000001E-01;  9.9999998E-03;  3.9999999E-02;502;  0.0000000E+00;  0.0000000E+00;  0.0000000E+00;  1.0000000E+03;  1.0000000E-01;  0.0000000E+00;0;  0.0000000E+00;  0.0000000E+00;  0.0000000E+00;0; -3.5876223E-05;  4.0000000E+04;  0.0000000E+00;  0.0000000E+00;  4.0000000E+04;  0.0000000E+00;  4.0000000E+04; -3.5908062E-05;  0.0000000E+00;  3.1838042E-08;  3.3606770E+00;
 -1.5000001E-01;  9.9999998E-03;  5.0000001E-02;503;  0.0000000E+00;  0.0000000E+00;  0.0000000E+00;  1.0000000E+03;  1.0000000E-01;  0.0000000E+00;0;  0.0000000E+00;  0.0000000E+00;  0.0000000E+00;0; -3.5794812E-05;  4.0000000E+04;  0.0000000E+00;  0.0000000E+00;  4.0000000E+04;  0.0000000E+00;  4.0000000E+04; -3.5831868E-05;  0.0000000E+00;  3.7058264E-08;  3.3388140E+00;
 -1.5000001E-01;  9.9999998E-03;  5.9999999E-02;504;  0.0000000E+00;  0.0000000E+00;  0.0000000E+00;  1.0000000E+03;  1.0000000E-01;  0.0000000E+00;0;  0.0000000E+00;  0.0000000E+00;  0.0000000E+00;0; -3.5752266E-05;  4.0000000E+04;  0.0000000E+00;  0.0000000E+00;  4.0000000E+04;  0.0000000E+00;  4.0000000E+04; -3.5796140E-05;  0.0000000E+00;  4.3874063E-08;  3.3209271E+00;
 -1.4000000E-01;  9.9999998E-03; -1.0000000E-01;579;  0.0000000E+00;  0.0000000E+00;  0.0000000E+00;  1.0000050E+03;  1.0000000E-01;  4.1480308E+00;0;  0.0000000E+00;  0.0000000E+00;  0.0000000E+00;0; -1.9549874E-04;  4.0000000E+04;  0.0000000E+00;  0.0000000E+00;  4.0000000E+04;  0.0000000E+00;  4.0000000E+04; -1.9614551E-04;  0.0000000E+00;  6.4677414E-07;  1.5175770E+01;
 -1.4000000E-01;  9.9999998E-03; -9.0000004E-02;580;  0.0000000E+00;  0.0000000E+00;  0.0000000E+00;  1.0000055E+03;  1.0000000E-01;  4.5430813E+00;0;  0.0000000E+00;  0.0000000E+00;  0.0000000E+00;0; -1.9454016E-04;  4.0000000E+04;  0.0000000E+00;  0.0000000E+00;  4.0000000E+04;  0.0000000E+00;  4.0000000E+04; -1.9512478E-04;  0.0000000E+00;  5.8462223E-07;  1.4750494E+01;
 -1.4000000E-01;  9.9999998E-03; -7.9999998E-02;581;  0.0000000E+00;  0.0000000E+00;  0.0000000E+00;  1.0000060E+03;  1.0000000E-01;  4.9381318E+00;0;  0.0000000E+00;  0.0000000E+00;  0.0000000E+00;0; -1.9365201E-04;  4.0000000E+04;  0.0000000E+00;  0.0000000E+00;  4.0000000E+04;  0.0000000E+00;  4.0000000E+04; -1.9417155E-04;  0.0000000E+00;  5.1953532E-07;  1.4502801E+01;
 -1.4000000E-01;  9.9999998E-03; -7.0000000E-02;582;  0.0000000E+00;  0.0000000E+00;  0.0000000E+00;  1.0000063E+03;  1.0000000E-01;  5.2344198E+00;0;  0.0000000E+00;  0.0000000E+00;  0.0000000E+00;0; -1.9296813E-04;  4.0000000E+04;  0.0000000E+00;  0.0000000E+00;  4.0000000E+04;  0.0000000E+00;  4.0000000E+04; -1.9342170E-04;  0.0000000E+00;  4.5357572E-07;  1.4419955E+01;
 -1.4000000E-01;  9.9999998E-03; -5.9999999E-02;583;  0.0000000E+00;  0.0000000E+00;  0.0000000E+00;  1.0000066E+03;  1.0000000E-01;  5.4319453E+00;0;  0.0000000E+00;  0.0000000E+00;  0.0000000E+00;0; -1.9254869E-04;  4.0000000E+04;  0.0000000E+00;  0.0000000E+00;  4.0000000E+04;  0.0000000E+00;  4.0000000E+04; -1.9293925E-04;  0.0000000E+00;  3.9056411E-07;  1.4467150E+01;
 -1.4000000E-01;  9.9999998E-03; -5.0000001E-02;584;  0.0000000E+00;  0.0000000E+00;  0.0000000E+00;  1.0000068E+03;  1.0000000E-01;  5.6294703E+00;0;  0.0000000E+00;  0.0000000E+00;  0.0000000E+00;0; -1.9238975E-04;  4.0000000E+04;  0.0000000E+00;  0.0000000E+00;  4.0000000E+04;  0.0000000E+00;  4.0000000E+04; -1.9272424E-04;  0.0000000E+00;  3.3448333E-07;  1.4597502E+01;
 -1.4000000E-01;  9.9999998E-03; -3.9999999E-02;585;  0.0000000E+00;  0.0000000E+00;  0.0000000E+00;  1.0000070E+03;  1.0000000E-01;  5.8269958E+00;0;  0.0000000E+00;  0.0000000E+00;  0.0000000E+00;0; -1.9243747E-04;  4.0000000E+04;  0.0000000E+00;  0.0000000E+00;  4.0000000E+04;  0.0000000E+00;  4.0000000E+04; -1.9272575E-04;  0.0000000E+00;  2.8828251E-07;  1.4763696E+01;
 -1.4000000E-01;  9.9999998E-03; -2.9999999E-02;586;  0.0000000E+00;  0.0000000E+00;  0.0000000E+00;  1.0000073E+03;  1.0000000E-01;  6.0245209E+00;0;  0.0000000E+00;  0.0000000E+00;  0.0000000E+00;0; -1.9260948E-04;  4.0000000E+04;  0.0000000E+00;  0.0000000E+00;  4.0000000E+04;  0.0000000E+00;  4.0000000E+04; -1.9286280E-04;  0.0000000E+00;  2.5331926E-07;  1.4926658E+01;
 -1.4000000E-01;  9.9999998E-03; -2.0000000E-02;587;  0.0000000E+00;  0.0000000E+00;  0.0000000E+00;  1.0000074E+03;  1.0000000E-01;  6.1232834E+00;0;  0.0000000E+00;  0.0000000E+00;  0.0000000E+00;0; -1.9281542E-04;  4.0000000E+04;  0.0000000E+00;  0.0000000E+00;  4.0000000E+04;  0.0000000E+00;  4.0000000E+04; -1.9304492E-04;  0.0000000E+00;  2.2949270E-07;  1.5058724E+01;
 -1.4000000E-01;  9.9999998E-03; -9.9999998E-03;588;  0.0000000E+00;  0.0000000E+00;  0.0000000E+00;  1.0000074E+03;  1.0000000E-01;  6.1232834E+00;0;  0.0000000E+00;  0.0000000E+00;  0.0000000E+00;0; -1.9297516E-04;  4.0000000E+04;  0.0000000E+00;  0.0000000E+00;  4.0000000E+04;  0.0000000E+00;  4.0000000E+04; -1.9319102E-04;  0.0000000E+00;  2.1586855E-07;  1.5143321E+01;
 -1.4000000E-01;  9.9999998E-03;  0.0000000E+00;589;  0.0000000E+00;  0.0000000E+00;  0.0000000E+00;  1.0000075E+03;  1.0000000E-01;  6.2220464E+00;0;  0.0000000E+00;  0.0000000E+00;  0.0000000E+00;0; -1.9303488E-04;  4.0000000E+04;  0.0000000E+00;  0.0000000E+00;  4.0000000E+04;  0.0000000E+00;  4.0000000E+04; -1.9324635E-04;  0.0000000E+00;  2.1146299E-07;  1.5172313E+01;
 -1.4000000E-01;  9.9999998E-03;  9.9999998E-03;590;  0.0000000E+00;  0.0000000E+00;  0.0000000E+00;  1.0000074E+03;  1.0000000E-01;  6.1232834E+00;0;  0.0000000E+00;  0.0000000E+00;  0.0000000E+00;0; -1.9297519E-04;  4.0000000E+04;  0.0000000E+00;  0.0000000E+00;  4.0000000E+04;  0.0000000E+00;  4.0000000E+04; -1.9319105E-04;  0.0000000E+00;  2.1586742E-07;  1.5143325E+01;
 -1.4000000E-01;  9.9999998E-03;  2.0000000E-02;591;  0.0000000E+00;  0.0000000E+00;  0.0000000E+00;  1.0000074E+03;  1.0000000E-01;  6.1232834E+00;0;  0.0000000E+00;  0.0000000E+00;  0.0000000E+00;0; -1.9281532E-04;  4.0000000E+04;  0.0000000E+00;  0.0000000E+00;  4.0000000E+04;  0.0000000E+00;  4.0000000E+04; -1.9304481E-04;  0.0000000E+00;  2.2949047E-07;  1.5058724E+01;
 -1.4000000E-01;  9.9999998E-03;  2.9999999E-02;592;  0.0000000E+00;  0.0000000E+00;  0.0000000E+00;  1.0000073E+03;  1.0000000E-01;  6.0245209E+00;0;  0.0000000E+00;  0.0000000E+00;  0.0000000E+00;0; -1.9260935E-04;  4.0000000E+04;  0.0000000E+00;  0.0000000E+00;  4.0000000E+04;  0.0000000E+00;  4.0000000E+04; -1.9286267E-04;  0.0000000E+00;  2.5331647E-07;  1.4926669E+01;
 -1.4000000E-01;  9.9999998E-03;  3.9999999E-02;593;  0.0000000E+00;  0.0000000E+00;  0.0000000E+00;  1.0000070E+03;  1.0000000E-01;  5.8269958E+00;0;  0.0000000E+00;  0.0000000E+00;  0.0000000E+00;0; -1.9243736E-04;  4.0000000E+04;  0.0000000E+00;  0.0000000E+00;  4.0000000E+04;  0.0000000E+00;  4.0000000E+04; -1.9272564E-04;  0.0000000E+00;  2.8827958E-07;  1.4763700E+01;
 -1.4000000E-01;  9.9999998E-03;  5.0000001E-02;594;  0.0000000E+00;  0.0000000E+00;  0.0000000E+00;  1.0000068E+03;  1.0000000E-01;  5.6294703E+00;0;  0.0000000E+00;  0.0000000E+00;  0.0000000E+00;0; -1.9238955E-04;  4.0000000E+04;  0.0000000E+00;  0.0000000E+00;  4.0000000E+04;  0.0000000E+00;  4.0000000E+04; -1.9272402E-04;  0.0000000E+00;  3.3448049E-07;  1.4597508E+01;
 -1.4000000E-01;  9.9999998E-03;  5.9999999E-02;595;  0.0000000E+00;  0.0000000E+00;  0.0000000E+00;  1.0000066E+03;  1.0000000E-01;  5.4319453E+00;0;  0.0000000E+00;  0.0000000E+00;  0.0000000E+00;0; -1.9254841E-04;  4.0000000E+04;  0.0000000E+00;  0.0000000E+00;  4.0000000E+04;  0.0000000E+00;  4.0000000E+04; -1.9293897E-04;  0.0000000E+00;  3.9056113E-07;  1.4467151E+01;
 -1.3000000E-01;  9.9999998E-03; -1.0000000E-01;670;  0.0000000E+00;  0.0000000E+00;  0.0000000E+00;  1.0000777E+03;  1.0000000E-01;  6.4393242E+01;0;  0.0000000E+00;  0.0000000E+00;  0.0000000E+00;0; -6.2534551E-04;  4.0000000E+04;  0.0000000E+00;  0.0000000E+00;  4.0000000E+04;  0.0000000E+00;  4.0000000E+04; -6.2816392E-04;  0.0000000E+00;  2.8183915E-06;  4.1622509E+01;
 -1.3000000E-01;  9.9999998E-03; -9.0000004E-02;671;  0.0000000E+00;  0.0000000E+00;  0.0000000E+00;  1.0000781E+03;  1.0000000E-01;  6.4689529E+01;0;  0.0000000E+00;  0.0000000E+00;  0.0000000E+00;0; -6.2245043E-04;  4.0000000E+04;  0.0000000E+00;  0.0000000E+00;  4.0000000E+04;  0.0000000E+00;  4.0000000E+04; -6.2502542E-04;  0.0000000E+00;  2.5750148E-06;  4.0233582E+01;
 -1.3000000E-01;  9.9999998E-03; -7.9999998E-02;672;  0.0000000E+00;  0.0000000E+00;  0.0000000E+00;  1.0000784E+03;  1.0000000E-01;  6.4887054E+01;0;  0.0000000E+00;  0.0000000E+00;  0.0000000E+00;0; -6.1950844E-04;  4.0000000E+04;  0.0000000E+00;  0.0000000E+00;  4.0000000E+04;  0.0000000E+00;  4.0000000E+04; -6.2182854E-04;  0.0000000E+00;  2.3200930E-06;  3.9401237E+01;
 -1.3000000E-01;  9.9999998E-03; -7.0000000E-02;673;  0.0000000E+00;  0.0000000E+00;  0.0000000E+00;  1.0000786E+03;  1.0000000E-01;  6.5084579E+01;0;  0.0000000E+00;  0.0000000E+00;  0.0000000E+00;0; -6.1696558E-04;  4.0000000E+04;  0.0000000E+00;  0.0000000E+00;  4.0000000E+04;  0.0000000E+00;  4.0000000E+04; -6.1902317E-04;  0.0000000E+00;  2.0575899E-06;  3.9101635E+01;
 -1.3000000E-01;  9.9999998E-03; -5.9999999E-02;674;  0.0000000E+00;  0.0000000E+00;  0.0000000E+00;  1.0000787E+03;  1.0000000E-01;  6.5183342E+01;0;  0.0000000E+00;  0.0000000E+00;  0.0000000E+00;0; -6.1506557E-04;  4.0000000E+04;  0.0000000E+00;  0.0000000E+00;  4.0000000E+04;  0.0000000E+00;  4.0000000E+04; -6.1686477E-04;  0.0000000E+00;  1.7991927E-06;  3.9243847E+01;
 -1.3000000E-01;  9.9999998E-03; -5.0000001E-02;675;  0.0000000E+00;  0.0000000E+00;  0.0000000E+00;  1.0000789E+03;  1.0000000E-01;  6.5380867E+01;0;  0.0000000E+00;  0.0000000E+00;  0.0000000E+00;0; -6.1386905E-04;  4.0000000E+04;  0.0000000E+00;  0.0000000E+00;  4.0000000E+04;  0.0000000E+00;  4.0000000E+04; -6.1542861E-04;  0.0000000E+00;  1.5595310E-06;  3.9692810E+01;
 -1.3000000E-01;  9.9999998E-03; -3.9999999E-02;676;  0.0000000E+00;  0.0000000E+00;  0.0000000E+00;  1.0000791E+03;  1.0000000E-01;  6.5578392E+01;0;  0.0000000E+00;  0.0000000E+00;  0.0000000E+00;0; -6.1329192E-04;  4.0000000E+04;  0.0000000E+00;  0.0000000E+00;  4.0000000E+04;  0.0000000E+00;  4.0000000E+04; -6.1464385E-04;  0.0000000E+00;  1.3519365E-06;  4.0297894E+01;
 -1.3000000E-01;  9.9999998E-03; -2.9999999E-02;677;  0.0000000E+00;  0.0000000E+00;  0.0000000E+00;  1.0000790E+03;  1.0000000E-01;  6.5479630E+01;0;  0.0000000E+00;  0.0000000E+00;  0.0000000E+00;0; -6.1316125E-04;  4.0000000E+04;  0.0000000E+00;  0.0000000E+00;  4.0000000E+04;  0.0000000E+00;  4.0000000E+04; -6.1434711E-04;  0.0000000E+00;  1.1858449E-06;  4.0917572E+01;
 -1.3000000E-01;  9.9999998E-03; -2.0000000E-02;678;  0.0000000E+00;  0.0000000E+00;  0.0000000E+00;  1.0000792E+03;  1.0000000E-01;  6.5578392E+01;0;  0.0000000E+00;  0.0000000E+00;  0.0000000E+00;0; -6.1326759E-04;  4.0000000E+04;  0.0000000E+00;  0.0000000E+00;  4.0000000E+04;  0.0000000E+00;  4.0000000E+04; -6.1433384E-04;  0.0000000E+00;  1.0662284E-06;  4.1437923E+01;
 -1.3000000E-01;  9.9999998E-03; -9.9999998E-03;679;  0.0000000E+00;  0.0000000E+00;  0.0000000E+00;  1.0000792E+03;  1.0000000E-01;  6.5677155E+01;0;  0.0000000E+00;  0.0000000E+00;  0.0000000E+00;0; -6.1342027E-04;  4.0000000E+04;  0.0000000E+00;  0.0000000E+00;  4.0000000E+04;  0.0000000E+00;  4.0000000E+04; -6.1441486E-04;  0.0000000E+00;  9.9459419E-07;  4.1779942E+01;
 -1.3000000E-01;  9.9999998E-03;  0.0000000E+00;680;  0.0000000E+00;  0.0000000E+00;  0.0000000E+00;  1.0000793E+03;  1.0000000E-01;  6.5677155E+01;0;  0.0000000E+00;  0.0000000E+00;  0.0000000E+00;0; -6.1348738E-04;  4.0000000E+04;  0.0000000E+00;  0.0000000E+00;  4.0000000E+04;  0.0000000E+00;  4.0000000E+04; -6.1445817E-04;  0.0000000E+00;  9.7079840E-07;  4.1898693E+01;
 -1.3000000E-01;  9.9999998E-03;  9.9999998E-03;681;  0.0000000E+00;  0.0000000E+00;  0.0000000E+00;  1.0000792E+03;  1.0000000E-01;  6.5677155E+01;0;  0.0000000E+00;  0.0000000E+00;  0.0000000E+00;0; -6.1342004E-04;  4.0000000E+04;  0.0000000E+00;  0.0000000E+00;  4.0000000E+04;  0.0000000E+00;  4.0000000E+04; -6.1441463E-04;  0.0000000E+00;  9.9459055E-07;  4.1779942E+01;
 -1.3000000E-01;  9.9999998E-03;  2.0000000E-02;682;  0.0000000E+00;  0.0000000E+00;  0.0000000E+00;  1.0000792E+03;  1.0000000E-01;  6.5578392E+01;0;  0.0000000E+00;  0.0000000E+00;  0.0000000E+00;0; -6.1326742E-04;  4.0000000E+04;  0.0000000E+00;  0.0000000E+00;  4.0000000E+04;  0.0000000E+00;  4.0000000E+04; -6.1433366E-04;  0.0000000E+00;  1.0662214E-06;  4.1437935E+01;
 -1.3000000E-01;  9.9999998E-03;  2.9999999E-02;683;  0.0000000E+00;  0.0000000E+00;  0.0000000E+00;  1.0000790E+03;  1.0000000E-01;  6.5479630E+01;0;  0.0000000E+00;  0.0000000E+00;  0.0000000E+00;0; -6.1316078E-04;  4.0000000E+04;  0.0000000E+00;  0.0000000E+00;  4.0000000E+04;  0.0000000E+00;  4.0000000E+04; -6.1434665E-04;  0.0000000E+00;  1.1858366E-06;  4.0917599E+01;
 -1.3000000E-01;  9.9999998E-03;  3.9999999E-02;684;  0.0000000E+00;  0.0000000E+00;  0.0000000E+00;  1.0000791E+03;  1.0000000E-01;  6.5578392E+01;0;  0.0000000E+00;  0.0000000E+00;  0.0000000E+00;0; -6.1329169E-04;  4.0000000E+04;  0.0000000E+00;  0.0000000E+00;  4.0000000E+04;  0.0000000E+00;  4.0000000E+04; -6.1464362E-04;  0.0000000E+00;  1.3519266E-06;  4.0297928E+01;
 -1.3000000E-01;  9.9999998E-03;  5.0000001E-02;685;  0.0000000E+00;  0.0000000E+00;  0.0000000E+00;  1.0000789E+03;  1.0000000E-01;  6.5380867E+01;0;  0.0000000E+00;  0.0000000E+00;  0.0000000E+00;0; -6.1386888E-04;  4.0000000E+04;  0.0000000E+00;  0.0000000E+00;  4.0000000E+04;  0.0000000E+00;  4.0000000E+04; -6.1542838E-04;  0.0000000E+00;  1.5595194E-06;  3.9692875E+01;
 -1.3000000E-01;  9.9999998E-03;  5.9999999E-02;686;  0.0000000E+00;  0.0000000E+00;  0.0000000E+00;  1.0000787E+03;  1.0000000E-01;  6.5183342E+01;0;  0.0000000E+00;  0.0000000E+00;  0.0000000E+00;0; -6.1506516E-04;  4.0000000E+04;  0.0000000E+00;  0.0000000E+00;  4.0000000E+04;  0.0000000E+00;  4.0000000E+04; -6.1686436E-04;  0.0000000E+00;  1.7991791E-06;  3.9243874E+01;
 -1.2000000E-01;  9.9999998E-03; -1.0000000E-01;761;  0.0000000E+00;  0.0000000E+00;  0.0000000E+00;  1.0001920E+03;  1.0000000E-01;  1.5900784E+02;0;  0.0000000E+00;  0.0000000E+00;  0.0000000E+00;0; -1.5124768E-03;  4.0000000E+04;  0.0000000E+00;  0.0000000E+00;  4.0000000E+04;  0.0000000E+00;  4.0000000E+04; -1.5211728E-03;  0.0000000E+00;  8.6960363E-06;  8.8080299E+01;
 -1.2000000E-01;  9.9999998E-03; -9.0000004E-02;762;  0.0000000E+00;  0.0000000E+00;  0.0000000E+00;  1.0001925E+03;  1.0000000E-01;  1.5950166E+02;0;  0.0000000E+00;  0.0000000E+00;  0.0000000E+00;0; -1.5059490E-03;  4.0000000E+04;  0.0000000E+00;  0.0000000E+00;  4.0000000E+04;  0.0000000E+00;  4.0000000E+04; -1.5139815E-03;  0.0000000E+00;  8.0325526E-06;  8.4654488E+01;
 -1.2000000E-01;  9.9999998E-03; -7.9999998E-02;763;  0.0000000E+00;  0.0000000E+00;  0.0000000E+00;  1.0001927E+03;  1.0000000E-01;  1.5969919E+02;0;  0.0000000E+00;  0.0000000E+00;  0.0000000E+00;0; -1.4988530E-03;  4.0000000E+04;  0.0000000E+00;  0.0000000E+00;  4.0000000E+04;  0.0000000E+00;  4.0000000E+04; -1.5061811E-03;  0.0000000E+00;  7.3280848E-06;  8.2537247E+01;
 -1.2000000E-01;  9.9999998E-03; -7.0000000E-02;764;  0.0000000E+00;  0.0000000E+00;  0.0000000E+00;  1.0001930E+03;  1.0000000E-01;  1.5989671E+02;0;  0.0000000E+00;  0.0000000E+00;  0.0000000E+00;0; -1.4922803E-03;  4.0000000E+04;  0.0000000E+00;  0.0000000E+00;  4.0000000E+04;  0.0000000E+00;  4.0000000E+04; -1.4988660E-03;  0.0000000E+00;  6.5857162E-06;  8.1698563E+01;
 -1.2000000E-01;  9.9999998E-03; -5.9999999E-02;765;  0.0000000E+00;  0.0000000E+00;  0.0000000E+00;  1.0001931E+03;  1.0000000E-01;  1.5999547E+02;0;  0.0000000E+00;  0.0000000E+00;  0.0000000E+00;0; -1.4868911E-03;  4.0000000E+04;  0.0000000E+00;  0.0000000E+00;  4.0000000E+04;  0.0000000E+00;  4.0000000E+04; -1.4927239E-03;  0.0000000E+00;  5.8328969E-06;  8.1956329E+01;
 -1.2000000E-01;  9.9999998E-03; -5.0000001E-02;766;  0.0000000E+00;  0.0000000E+00;  0.0000000E+00;  1.0001931E+03;  1.0000000E-01;  1.5999547E+02;0;  0.0000000E+00;  0.0000000E+00;  0.0000000E+00;0; -1.4829525E-03;  4.0000000E+04;  0.0000000E+00;  0.0000000E+00;  4.0000000E+04;  0.0000000E+00;  4.0000000E+04; -1.4880628E-03;  0.0000000E+00;  5.1102870E-06;  8.3016479E+01;
 -1.2000000E-01;  9.9999998E-03; -3.9999999E-02;767;  0.0000000E+00;  0.0000000E+00;  0.0000000E+00;  1.0001931E+03;  1.0000000E-01;  1.5999547E+02;0;  0.0000000E+00;  0.0000000E+00;  0.0000000E+00;0; -1.4804102E-03;  4.0000000E+04;  0.0000000E+00;  0.0000000E+00;  4.0000000E+04;  0.0000000E+00;  4.0000000E+04; -1.4848711E-03;  0.0000000E+00;  4.4608628E-06;  8.4526985E+01;
 -1.2000000E-01;  9.9999998E-03; -2.9999999E-02;768;  0.0000000E+00;  0.0000000E+00;  0.0000000E+00;  1.0001932E+03;  1.0000000E-01;  1.5999547E+02;0;  0.0000000E+00;  0.0000000E+00;  0.0000000E+00;0; -1.4790008E-03;  4.0000000E+04;  0.0000000E+00;  0.0000000E+00;  4.0000000E+04;  0.0000000E+00;  4.0000000E+04; -1.4829227E-03;  0.0000000E+00;  3.9218576E-06;  8.6130966E+01;
 -1.2000000E-01;  9.9999998E-03; -2.0000000E-02;769;  0.0000000E+00;  0.0000000E+00;  0.0000000E+00;  1.0001934E+03;  1.0000000E-01;  1.6019299E+02;0;  0.0000000E+00;  0.0000000E+00;  0.0000000E+00;0; -1.4783608E-03;  4.0000000E+04;  0.0000000E+00;  0.0000000E+00;  4.0000000E+04;  0.0000000E+00;  4.0000000E+04; -1.4818814E-03;  0.0000000E+00;  3.5205737E-06;  8.7515320E+01;
 -1.2000000E-01;  9.9999998E-03; -9.9999998E-03;770;  0.0000000E+00;  0.0000000E+00;  0.0000000E+00;  1.0001934E+03;  1.0000000E-01;  1.6019299E+02;0;  0.0000000E+00;  0.0000000E+00;  0.0000000E+00;0; -1.4781448E-03;  4.0000000E+04;  0.0000000E+00;  0.0000000E+00;  4.0000000E+04;  0.0000000E+00;  4.0000000E+04; -1.4814188E-03;  0.0000000E+00;  3.2740747E-06;  8.8443268E+01;
 -1.2000000E-01;  9.9999998E-03;  0.0000000E+00;771;  0.0000000E+00;  0.0000000E+00;  0.0000000E+00;  1.0001933E+03;  1.0000000E-01;  1.6019299E+02;0;  0.0000000E+00;  0.0000000E+00;  0.0000000E+00;0; -1.4781009E-03;  4.0000000E+04;  0.0000000E+00;  0.0000000E+00;  4.0000000E+04;  0.0000000E+00;  4.0000000E+04; -1.4812920E-03;  0.0000000E+00;  3.1910492E-06;  8.8768631E+01;
 -1.2000000E-01;  9.9999998E-03;  9.9999998E-03;772;  0.0000000E+00;  0.0000000E+00;  0.0000000E+00;  1.0001934E+03;  1.0000000E-01;  1.6019299E+02;0;  0.0000000E+00;  0.0000000E+00;  0.0000000E+00;0; -1.4781445E-03;  4.0000000E+04;  0.0000000E+00;  0.0000000E+00;  4.0000000E+04;  0.0000000E+00;  4.0000000E+04; -1.4814186E-03;  0.0000000E+00;  3.2740652E-06;  8.8443306E+01;
 -1.2000000E-01;  9.9999998E-03;  2.0000000E-02;773;  0.0000000E+00;  0.0000000E+00;  0.0000000E+00;  1.0001934E+03;  1.0000000E-01;  1.6019299E+02;0;  0.0000000E+00;  0.0000000E+00;  0.0000000E+00;0; -1.4783603E-03;  4.0000000E+04;  0.0000000E+00;  0.0000000E+00;  4.0000000E+04;  0.0000000E+00;  4.0000000E+04; -1.4818808E-03;  0.0000000E+00;  3.5205567E-06;  8.7515358E+01;
 -1.2000000E-01;  9.9999998E-03;  2.9999999E-02;774;  0.0000000E+00;  0.0000000E+00;  0.0000000E+00;  1.0001932E+03;  1.0000000E-01;  1.5999547E+02;0;  0.0000000E+00;  0.0000000E+00;  0.0000000E+00;0; -1.4790009E-03;  4.0000000E+04;  0.0000000E+00;  0.0000000E+00;  4.0000000E+04;  0.0000000E+00;  4.0000000E+04; -1.4829227E-03;  0.0000000E+00;  3.9218321E-06;  8.6131027E+01;
 -1.2000000E-01;  9.9999998E-03;  3.9999999E-02;775;  0.0000000E+00;  0.0000000E+00;  0.0000000E+00;  1.0001931E+03;  1.0000000E-01;  1.5999547E+02;0;  0.0000000E+00;  0.0000000E+00;  0.0000000E+00;0; -1.4804099E-03;  4.0000000E+04;  0.0000000E+00;  0.0000000E+00;  4.0000000E+04;  0.0000000E+00;  4.0000000E+04; -1.4848707E-03;  0.0000000E+00;  4.4608350E-06;  8.4527084E+01;
 -1.2000000E-01;  9.9999998E-03;  5.0000001E-02;776;  0.0000000E+00;  0.0000000E+00;  0.0000000E+00;  1.0001931E+03;  1.0000000E-01;  1.5999547E+02;0;  0.0000000E+00;  0.0000000E+00;  0.0000000E+00;0; -1.4829515E-03;  4.0000000E+04;  0.0000000E+00;  0.0000000E+00;  4.0000000E+04;  0.0000000E+00;  4.0000000E+04; -1.4880617E-03;  0.0000000E+00;  5.1102465E-06;  8.3016594E+01;
 -1.2000000E-01;  9.9999998E-03;  5.9999999E-02;777;  0.0000000E+00;  0.0000000E+00;  0.0000000E+00;  1.0001931E+03;  1.0000000E-01;  1.5999547E+02;0;  0.0000000E+00;  0.0000000E+00;  0.0000000E+00;0; -1.4868914E-03;  4.0000000E+04;  0.0000000E+00;  0.0000000E+00;  4.0000000E+04;  0.0000000E+00;  4.0000000E+04; -1.4927243E-03;  0.0000000E+00;  5.8328492E-06;  8.1956490E+01;
 -1.1000000E-01;  9.9999998E-03; -1.0000000E-01;852;  0.0000000E+00;  0.0000000E+00;  0.0000000E+00;  1.0003839E+03;  1.0000000E-01;  3.1801569E+02;0;  0.0000000E+00;  0.0000000E+00;  0.0000000E+00;0; -3.0781138E-03;  4.0000000E+04;  0.0000000E+00;  0.0000000E+00;  4.0000000E+04;  0.0000000E+00;  4.0000000E+04; -3.0997053E-03;  0.0000000E+00;  2.1591564E-05;  1.5844913E+02;
 -1.1000000E-01;  9.9999998E-03; -9.0000004E-02;853;  0.0000000E+00;  0.0000000E+00;  0.0000000E+00;  1.0003852E+03;  1.0000000E-01;  3.1910208E+02;0;  0.0000000E+00;  0.0000000E+00;  0.0000000E+00;0; -3.0655861E-03;  4.0000000E+04;  0.0000000E+00;  0.0000000E+00;  4.0000000E+04;  0.0000000E+00;  4.0000000E+04; -3.0857483E-03;  0.0000000E+00;  2.0162235E-05;  1.5137492E+02;
 -1.1000000E-01;  9.9999998E-03; -7.9999998E-02;854;  0.0000000E+00;  0.0000000E+00;  0.0000000E+00;  1.0003861E+03;  1.0000000E-01;  3.1989218E+02;0;  0.0000000E+00;  0.0000000E+00;  0.0000000E+00;0; -3.0512831E-03;  4.0000000E+04;  0.0000000E+00;  0.0000000E+00;  4.0000000E+04;  0.0000000E+00;  4.0000000E+04; -3.0698893E-03;  0.0000000E+00;  1.8606252E-05;  1.4686865E+02;
 -1.1000000E-01;  9.9999998E-03; -7.0000000E-02;855;  0.0000000E+00;  0.0000000E+00;  0.0000000E+00;  1.0003865E+03;  1.0000000E-01;  3.2018848E+02;0;  0.0000000E+00;  0.0000000E+00;  0.0000000E+00;0; -3.0374154E-03;  4.0000000E+04;  0.0000000E+00;  0.0000000E+00;  4.0000000E+04;  0.0000000E+00;  4.0000000E+04; -3.0543325E-03;  0.0000000E+00;  1.6916945E-05;  1.4491136E+02;
 -1.1000000E-01;  9.9999998E-03; -5.9999999E-02;856;  0.0000000E+00;  0.0000000E+00;  0.0000000E+00;  1.0003867E+03;  1.0000000E-01;  3.2038599E+02;0;  0.0000000E+00;  0.0000000E+00;  0.0000000E+00;0; -3.0254114E-03;  4.0000000E+04;  0.0000000E+00;  0.0000000E+00;  4.0000000E+04;  0.0000000E+00;  4.0000000E+04; -3.0405612E-03;  0.0000000E+00;  1.5149899E-05;  1.4519131E+02;
 -1.1000000E-01;  9.9999998E-03; -5.0000001E-02;857;  0.0000000E+00;  0.0000000E+00;  0.0000000E+00;  1.0003868E+03;  1.0000000E-01;  3.2048477E+02;0;  0.0000000E+00;  0.0000000E+00;  0.0000000E+00;0; -3.0159804E-03;  4.0000000E+04;  0.0000000E+00;  0.0000000E+00;  4.0000000E+04;  0.0000000E+00;  4.0000000E+04; -3.0293814E-03;  0.0000000E+00;  1.3401134E-05;  1.4716661E+02;
 -1.1000000E-01;  9.9999998E-03; -3.9999999E-02;858;  0.0000000E+00;  0.0000000E+00;  0.0000000E+00;  1.0003869E+03;  1.0000000E-01;  3.2058353E+02;0;  0.0000000E+00;  0.0000000E+00;  0.0000000E+00;0; -3.0092187E-03;  4.0000000E+04;  0.0000000E+00;  0.0000000E+00;  4.0000000E+04;  0.0000000E+00;  4.0000000E+04; -3.0210018E-03;  0.0000000E+00;  1.1783035E-05;  1.5015359E+02;
 -1.1000000E-01;  9.9999998E-03; -2.9999999E-02;859;  0.0000000E+00;  0.0000000E+00;  0.0000000E+00;  1.0003870E+03;  1.0000000E-01;  3.2058353E+02;0;  0.0000000E+00;  0.0000000E+00;  0.0000000E+00;0; -3.0048154E-03;  4.0000000E+04;  0.0000000E+00;  0.0000000E+00;  4.0000000E+04;  0.0000000E+00;  4.0000000E+04; -3.0152195E-03;  0.0000000E+00;  1.0403931E-05;  1.5342648E+02;
 -1.1000000E-01;  9.9999998E-03; -2.0000000E-02;860;  0.0000000E+00;  0.0000000E+00;  0.0000000E+00;  1.0003870E+03;  1.0000000E-01;  3.2068228E+02;0;  0.0000000E+00;  0.0000000E+00;  0.0000000E+00;0; -3.0022454E-03;  4.0000000E+04;  0.0000000E+00;  0.0000000E+00;  4.0000000E+04;  0.0000000E+00;  4.0000000E+04; -3.0115994E-03;  0.0000000E+00;  9.3540284E-06;  1.5631308E+02;
 -1.1000000E-01;  9.9999998E-03; -9.9999998E-03;861;  0.0000000E+00;  0.0000000E+00;  0.0000000E+00;  1.0003871E+03;  1.0000000E-01;  3.2078104E+02;0;  0.0000000E+00;  0.0000000E+00;  0.0000000E+00;0; -3.0009674E-03;  4.0000000E+04;  0.0000000E+00;  0.0000000E+00;  4.0000000E+04;  0.0000000E+00;  4.0000000E+04; -3.0096660E-03;  0.0000000E+00;  8.6984992E-06;  1.5827606E+02;
 -1.1000000E-01;  9.9999998E-03;  0.0000000E+00;862;  0.0000000E+00;  0.0000000E+00;  0.0000000E+00;  1.0003871E+03;  1.0000000E-01;  3.2078104E+02;0;  0.0000000E+00;  0.0000000E+00;  0.0000000E+00;0; -3.0005886E-03;  4.0000000E+04;  0.0000000E+00;  0.0000000E+00;  4.0000000E+04;  0.0000000E+00;  4.0000000E+04; -3.0090644E-03;  0.0000000E+00;  8.4757739E-06;  1.5896906E+02;
 -1.1000000E-01;  9.9999998E-03;  9.9999998E-03;863;  0.0000000E+00;  0.0000000E+00;  0.0000000E+00;  1.0003871E+03;  1.0000000E-01;  3.2078104E+02;0;  0.0000000E+00;  0.0000000E+00;  0.0000000E+00;0; -3.0009674E-03;  4.0000000E+04;  0.0000000E+00;  0.0000000E+00;  4.0000000E+04;  0.0000000E+00;  4.0000000E+04; -3.0096660E-03;  0.0000000E+00;  8.6984764E-06;  1.5827611E+02;
 -1.1000000E-01;  9.9999998E-03;  2.0000000E-02;864;  0.0000000E+00;  0.0000000E+00;  0.0000000E+00;  1.0003870E+03;  1.0000000E-01;  3.2068228E+02;0;  0.0000000E+00;  0.0000000E+00;  0.0000000E+00;0; -3.0022427E-03;  4.0000000E+04;  0.0000000E+00;  0.0000000E+00;  4.0000000E+04;  0.0000000E+00;  4.0000000E+04; -3.0115966E-03;  0.0000000E+00;  9.3539920E-06;  1.5631325E+02;
 -1.1000000E-01;  9.9999998E-03;  2.9999999E-02;865;  0.0000000E+00;  0.0000000E+00;  0.0000000E+00;  1.0003870E+03;  1.0000000E-01;  3.2058353E+02;0;  0.0000000E+00;  0.0000000E+00;  0.0000000E+00;0; -3.0048133E-03;  4.0000000E+04;  0.0000000E+00;  0.0000000E+00;  4.0000000E+04;  0.0000000E+00;  4.0000000E+04; -3.0152171E-03;  0.0000000E+00;  1.0403864E-05;  1.5342676E+02;
 -1.1000000E-01;  9.9999998E-03;  3.9999999E-02;866;  0.0000000E+00;  0.0000000E+00;  0.0000000E+00;  1.0003869E+03;  1.0000000E-01;  3.2058353E+02;0;  0.0000000E+00;  0.0000000E+00;  0.0000000E+00;0; -3.0092166E-03;  4.0000000E+04;  0.0000000E+00;  0.0000000E+00;  4.0000000E+04;  0.0000000E+00;  4.0000000E+04; -3.0209995E-03;  0.0000000E+00;  1.1782955E-05;  1.5015390E+02;
 -1.1000000E-01;  9.9999998E-03;  5.0000001E-02;867;  0.0000000E+00;  0.0000000E+00;  0.0000000E+00;  1.0003868E+03;  1.0000000E-01;  3.2048477E+02;0;  0.0000000E+00;  0.0000000E+00;  0.0000000E+00;0; -3.0159783E-03;  4.0000000E+04;  0.0000000E+00;  0.0000000E+00;  4.0000000E+04;  0.0000000E+00;  4.0000000E+04; -3.0293793E-03;  0.0000000E+00;  1.3401038E-05;  1.4716678E+02;
 -1.1000000E-01;  9.9999998E-03;  5.9999999E-02;868;  0.0000000E+00;  0.0000000E+00;  0.0000000E+00;  1.0003867E+03;  1.0000000E-01;  3.2038599E+02;0;  0.0000000E+00;  0.0000000E+00;  0.0000000E+00;0; -3.0254072E-03;  4.0000000E+04;  0.0000000E+00;  0.0000000E+00;  4.0000000E+04;  0.0000000E+00;  4.0000000E+04; -3.0405570E-03;  0.0000000E+00;  1.5149783E-05;  1.4519185E+02;
 -1.0000000E-01;  9.9999998E-03; -1.0000000E-01;943;  0.0000000E+00;  0.0000000E+00;  0.0000000E+00;  1.0006862E+03;  1.0000000E-01;  5.6847772E+02;0;  0.0000000E+00;  0.0000000E+00;  0.0000000E+00;0; -5.5748802E-03;  4.0000000E+04;  0.0000000E+00;  0.0000000E+00;  4.0000000E+04;  0.0000000E+00;  4.0000000E+04; -5.6209820E-03;  0.0000000E+00;  4.6101879E-05;  2.5518474E+02;
 -1.0000000E-01;  9.9999998E-03; -9.0000004E-02;944;  0.0000000E+00;  0.0000000E+00;  0.0000000E+00;  1.0006882E+03;  1.0000000E-01;  5.7015674E+02;0;  0.0000000E+00;  0.0000000E+00;  0.0000000E+00;0; -5.5529955E-03;  4.0000000E+04;  0.0000000E+00;  0.0000000E+00;  4.0000000E+04;  0.0000000E+00;  4.0000000E+04; -5.5965125E-03;  0.0000000E+00;  4.3516950E-05;  2.4227313E+02;
 -1.0000000E-01;  9.9999998E-03; -7.9999998E-02;945;  0.0000000E+00;  0.0000000E+00;  0.0000000E+00;  1.0006892E+03;  1.0000000E-01;  5.7104559E+02;0;  0.0000000E+00;  0.0000000E+00;  0.0000000E+00;0; -5.5271941E-03;  4.0000000E+04;  0.0000000E+00;  0.0000000E+00;  4.0000000E+04;  0.0000000E+00;  4.0000000E+04; -5.5677867E-03;  0.0000000E+00;  4.0592688E-05;  2.3381334E+02;
 -1.0000000E-01;  9.9999998E-03; -7.0000000E-02;946;  0.0000000E+00;  0.0000000E+00;  0.0000000E+00;  1.0006896E+03;  1.0000000E-01;  5.7134186E+02;0;  0.0000000E+00;  0.0000000E+00;  0.0000000E+00;0; -5.5014198E-03;  4.0000000E+04;  0.0000000E+00;  0.0000000E+00;  4.0000000E+04;  0.0000000E+00;  4.0000000E+04; -5.5387155E-03;  0.0000000E+00;  3.7295733E-05;  2.2982457E+02;
 -1.0000000E-01;  9.9999998E-03; -5.9999999E-02;947;  0.0000000E+00;  0.0000000E+00;  0.0000000E+00;  1.0006909E+03;  1.0000000E-01;  5.7242828E+02;0;  0.0000000E+00;  0.0000000E+00;  0.0000000E+00;0; -5.4783616E-03;  4.0000000E+04;  0.0000000E+00;  0.0000000E+00;  4.0000000E+04;  0.0000000E+00;  4.0000000E+04; -5.5120909E-03;  0.0000000E+00;  3.3729433E-05;  2.2982603E+02;
 -1.0000000E-01;  9.9999998E-03; -5.0000001E-02;948;  0.0000000E+00;  0.0000000E+00;  0.0000000E+00;  1.0006913E+03;  1.0000000E-01;  5.7272455E+02;0;  0.0000000E+00;  0.0000000E+00;  0.0000000E+00;0; -5.4594791E-03;  4.0000000E+04;  0.0000000E+00;  0.0000000E+00;  4.0000000E+04;  0.0000000E+00;  4.0000000E+04; -5.4895747E-03;  0.0000000E+00;  3.0095822E-05;  2.3292990E+02;
 -1.0000000E-01;  9.9999998E-03; -3.9999999E-02;949;  0.0000000E+00;  0.0000000E+00;  0.0000000E+00;  1.0006917E+03;  1.0000000E-01;  5.7302081E+02;0;  0.0000000E+00;  0.0000000E+00;  0.0000000E+00;0; -5.4452163E-03;  4.0000000E+04;  0.0000000E+00;  0.0000000E+00;  4.0000000E+04;  0.0000000E+00;  4.0000000E+04; -5.4718652E-03;  0.0000000E+00;  2.6648839E-05;  2.3796429E+02;
 -1.0000000E-01;  9.9999998E-03; -2.9999999E-02;950;  0.0000000E+00;  0.0000000E+00;  0.0000000E+00;  1.0006920E+03;  1.0000000E-01;  5.7331714E+02;0;  0.0000000E+00;  0.0000000E+00;  0.0000000E+00;0; -5.4352907E-03;  4.0000000E+04;  0.0000000E+00;  0.0000000E+00;  4.0000000E+04;  0.0000000E+00;  4.0000000E+04; -5.4589398E-03;  0.0000000E+00;  2.3648981E-05;  2.4364368E+02;
 -1.0000000E-01;  9.9999998E-03; -2.0000000E-02;951;  0.0000000E+00;  0.0000000E+00;  0.0000000E+00;  1.0006923E+03;  1.0000000E-01;  5.7351465E+02;0;  0.0000000E+00;  0.0000000E+00;  0.0000000E+00;0; -5.4290132E-03;  4.0000000E+04;  0.0000000E+00;  0.0000000E+00;  4.0000000E+04;  0.0000000E+00;  4.0000000E+04; -5.4503405E-03;  0.0000000E+00;  2.1327231E-05;  2.4874011E+02;
 -1.0000000E-01;  9.9999998E-03; -9.9999998E-03;952;  0.0000000E+00;  0.0000000E+00;  0.0000000E+00;  1.0006924E+03;  1.0000000E-01;  5.7371216E+02;0;  0.0000000E+00;  0.0000000E+00;  0.0000000E+00;0; -5.4256343E-03;  4.0000000E+04;  0.0000000E+00;  0.0000000E+00;  4.0000000E+04;  0.0000000E+00;  4.0000000E+04; -5.4454952E-03;  0.0000000E+00;  1.9860723E-05;  2.5224199E+02;
 -1.0000000E-01;  9.9999998E-03;  0.0000000E+00;953;  0.0000000E+00;  0.0000000E+00;  0.0000000E+00;  1.0006925E+03;  1.0000000E-01;  5.7371216E+02;0;  0.0000000E+00;  0.0000000E+00;  0.0000000E+00;0; -5.4245726E-03;  4.0000000E+04;  0.0000000E+00;  0.0000000E+00;  4.0000000E+04;  0.0000000E+00;  4.0000000E+04; -5.4439320E-03;  0.0000000E+00;  1.9359488E-05;  2.5348633E+02;
 -1.0000000E-01;  9.9999998E-03;  9.9999998E-03;954;  0.0000000E+00;  0.0000000E+00;  0.0000000E+00;  1.0006924E+03;  1.0000000E-01;  5.7371216E+02;0;  0.0000000E+00;  0.0000000E+00;  0.0000000E+00;0; -5.4256334E-03;  4.0000000E+04;  0.0000000E+00;  0.0000000E+00;  4.0000000E+04;  0.0000000E+00;  4.0000000E+04; -5.4454943E-03;  0.0000000E+00;  1.9860707E-05;  2.5224211E+02;
 -1.0000000E-01;  9.9999998E-03;  2.0000000E-02;955;  0.0000000E+00;  0.0000000E+00;  0.0000000E+00;  1.0006923E+03;  1.0000000E-01;  5.7351465E+02;0;  0.0000000E+00;  0.0000000E+00;  0.0000000E+00;0; -5.4290127E-03;  4.0000000E+04;  0.0000000E+00;  0.0000000E+00;  4.0000000E+04;  0.0000000E+00;  4.0000000E+04; -5.4503400E-03;  0.0000000E+00;  2.1327171E-05;  2.4874033E+02;
 -1.0000000E-01;  9.9999998E-03;  2.9999999E-02;956;  0.0000000E+00;  0.0000000E+00;  0.0000000E+00;  1.0006920E+03;  1.0000000E-01;  5.7331714E+02;0;  0.0000000E+00;  0.0000000E+00;  0.0000000E+00;0; -5.4352884E-03;  4.0000000E+04;  0.0000000E+00;  0.0000000E+00;  4.0000000E+04;  0.0000000E+00;  4.0000000E+04; -5.4589375E-03;  0.0000000E+00;  2.3648850E-05;  2.4364406E+02;
 -1.0000000E-01;  9.9999998E-03;  3.9999999E-02;957;  0.0000000E+00;  0.0000000E+00;  0.0000000E+00;  1.0006917E+03;  1.0000000E-01;  5.7302081E+02;0;  0.0000000E+00;  0.0000000E+00;  0.0000000E+00;0; -5.4452121E-03;  4.0000000E+04;  0.0000000E+00;  0.0000000E+00;  4.0000000E+04;  0.0000000E+00;  4.0000000E+04; -5.4718610E-03;  0.0000000E+00;  2.6648688E-05;  2.3796495E+02;
 -1.0000000E-01;  9.9999998E-03;  5.0000001E-02;958;  0.0000000E+00;  0.0000000E+00;  0.0000000E+00;  1.0006913E+03;  1.0000000E-01;  5.7272455E+02;0;  0.0000000E+00;  0.0000000E+00;  0.0000000E+00;0; -5.4594809E-03;  4.0000000E+04;  0.0000000E+00;  0.0000000E+00;  4.0000000E+04;  0.0000000E+00;  4.0000000E+04; -5.4895766E-03;  0.0000000E+00;  3.0095647E-05;  2.3293056E+02;
 -1.0000000E-01;  9.9999998E-03;  5.9999999E-02;959;  0.0000000E+00;  0.0000000E+00;  0.0000000E+00;  1.0006909E+03;  1.0000000E-01;  5.7242828E+02;0;  0.0000000E+00;  0.0000000E+00;  0.0000000E+00;0; -5.4783593E-03;  4.0000000E+04;  0.0000000E+00;  0.0000000E+00;  4.0000000E+04;  0.0000000E+00;  4.0000000E+04; -5.5120885E-03;  0.0000000E+00;  3.3729204E-05;  2.2982695E+02;
 -9.0000004E-02;  9.9999998E-03; -1.0000000E-01;1034;  0.0000000E+00;  0.0000000E+00;  0.0000000E+00;  1.0011451E+03;  1.0000000E-01;  9.4871393E+02;0;  0.0000000E+00;  0.0000000E+00;  0.0000000E+00;0; -9.2791039E-03;  4.0000000E+04;  0.0000000E+00;  0.0000000E+00;  4.0000000E+04;  0.0000000E+00;  4.0000000E+04; -9.3671121E-03;  0.0000000E+00;  8.8008259E-05;  3.7905356E+02;
 -9.0000004E-02;  9.9999998E-03; -9.0000004E-02;1035;  0.0000000E+00;  0.0000000E+00;  0.0000000E+00;  1.0011528E+03;  1.0000000E-01;  9.5513348E+02;0;  0.0000000E+00;  0.0000000E+00;  0.0000000E+00;0; -9.2429649E-03;  4.0000000E+04;  0.0000000E+00;  0.0000000E+00;  4.0000000E+04;  0.0000000E+00;  4.0000000E+04; -9.3269413E-03;  0.0000000E+00;  8.3976469E-05;  3.5756094E+02;
 -9.0000004E-02;  9.9999998E-03; -7.9999998E-02;1036;  0.0000000E+00;  0.0000000E+00;  0.0000000E+00;  1.0011570E+03;  1.0000000E-01;  9.5859015E+02;0;  0.0000000E+00;  0.0000000E+00;  0.0000000E+00;0; -9.1996696E-03;  4.0000000E+04;  0.0000000E+00;  0.0000000E+00;  4.0000000E+04;  0.0000000E+00;  4.0000000E+04; -9.2788106E-03;  0.0000000E+00;  7.9140744E-05;  3.4311197E+02;
 -9.0000004E-02;  9.9999998E-03; -7.0000000E-02;1037;  0.0000000E+00;  0.0000000E+00;  0.0000000E+00;  1.0011594E+03;  1.0000000E-01;  9.6056543E+02;0;  0.0000000E+00;  0.0000000E+00;  0.0000000E+00;0; -9.1557009E-03;  4.0000000E+04;  0.0000000E+00;  0.0000000E+00;  4.0000000E+04;  0.0000000E+00;  4.0000000E+04; -9.2291143E-03;  0.0000000E+00;  7.3413692E-05;  3.3579190E+02;
 -9.0000004E-02;  9.9999998E-03; -5.9999999E-02;1038;  0.0000000E+00;  0.0000000E+00;  0.0000000E+00;  1.0011608E+03;  1.0000000E-01;  9.6175055E+02;0;  0.0000000E+00;  0.0000000E+00;  0.0000000E+00;0; -9.1155674E-03;  4.0000000E+04;  0.0000000E+00;  0.0000000E+00;  4.0000000E+04;  0.0000000E+00;  4.0000000E+04; -9.1825463E-03;  0.0000000E+00;  6.6978893E-05;  3.3492929E+02;
 -9.0000004E-02;  9.9999998E-03; -5.0000001E-02;1039;  0.0000000E+00;  0.0000000E+00;  0.0000000E+00;  1.0011614E+03;  1.0000000E-01;  9.6214563E+02;0;  0.0000000E+00;  0.0000000E+00;  0.0000000E+00;0; -9.0819038E-03;  4.0000000E+04;  0.0000000E+00;  0.0000000E+00;  4.0000000E+04;  0.0000000E+00;  4.0000000E+04; -9.1421325E-03;  0.0000000E+00;  6.0228540E-05;  3.3918091E+02;
 -9.0000004E-02;  9.9999998E-03; -3.9999999E-02;1040;  0.0000000E+00;  0.0000000E+00;  0.0000000E+00;  1.0011619E+03;  1.0000000E-01;  9.6254065E+02;0;  0.0000000E+00;  0.0000000E+00;  0.0000000E+00;0; -9.0557337E-03;  4.0000000E+04;  0.0000000E+00;  0.0000000E+00;  4.0000000E+04;  0.0000000E+00;  4.0000000E+04; -9.1094114E-03;  0.0000000E+00;  5.3677890E-05;  3.4671692E+02;
 -9.0000004E-02;  9.9999998E-03; -2.9999999E-02;1041;  0.0000000E+00;  0.0000000E+00;  0.0000000E+00;  1.0011620E+03;  1.0000000E-01;  9.6263947E+02;0;  0.0000000E+00;  0.0000000E+00;  0.0000000E+00;0; -9.0368791E-03;  4.0000000E+04;  0.0000000E+00;  0.0000000E+00;  4.0000000E+04;  0.0000000E+00;  4.0000000E+04; -9.0847546E-03;  0.0000000E+00;  4.7875779E-05;  3.5548135E+02;
 -9.0000004E-02;  9.9999998E-03; -2.0000000E-02;1042;  0.0000000E+00;  0.0000000E+00;  0.0000000E+00;  1.0011623E+03;  1.0000000E-01;  9.6293573E+02;0;  0.0000000E+00;  0.0000000E+00;  0.0000000E+00;0; -9.0245139E-03;  4.0000000E+04;  0.0000000E+00;  0.0000000E+00;  4.0000000E+04;  0.0000000E+00;  4.0000000E+04; -9.0678399E-03;  0.0000000E+00;  4.3325916E-05;  3.6346616E+02;
 -9.0000004E-02;  9.9999998E-03; -9.9999998E-03;1043;  0.0000000E+00;  0.0000000E+00;  0.0000000E+00;  1.0011622E+03;  1.0000000E-01;  9.6293573E+02;0;  0.0000000E+00;  0.0000000E+00;  0.0000000E+00;0; -9.0176286E-03;  4.0000000E+04;  0.0000000E+00;  0.0000000E+00;  4.0000000E+04;  0.0000000E+00;  4.0000000E+04; -9.0580555E-03;  0.0000000E+00;  4.0426596E-05;  3.6900186E+02;
 -9.0000004E-02;  9.9999998E-03;  0.0000000E+00;1044;  0.0000000E+00;  0.0000000E+00;  0.0000000E+00;  1.0011622E+03;  1.0000000E-01;  9.6283698E+02;0;  0.0000000E+00;  0.0000000E+00;  0.0000000E+00;0; -9.0154251E-03;  4.0000000E+04;  0.0000000E+00;  0.0000000E+00;  4.0000000E+04;  0.0000000E+00;  4.0000000E+04; -9.0548564E-03;  0.0000000E+00;  3.9431190E-05;  3.7097720E+02;
 -9.0000004E-02;  9.9999998E-03;  9.9999998E-03;1045;  0.0000000E+00;  0.0000000E+00;  0.0000000E+00;  1.0011622E+03;  1.0000000E-01;  9.6293573E+02;0;  0.0000000E+00;  0.0000000E+00;  0.0000000E+00;0; -9.0176202E-03;  4.0000000E+04;  0.0000000E+00;  0.0000000E+00;  4.0000000E+04;  0.0000000E+00;  4.0000000E+04; -9.0580471E-03;  0.0000000E+00;  4.0426541E-05;  3.6900223E+02;
 -9.0000004E-02;  9.9999998E-03;  2.0000000E-02;1046;  0.0000000E+00;  0.0000000E+00;  0.0000000E+00;  1.0011623E+03;  1.0000000E-01;  9.6293573E+02;0;  0.0000000E+00;  0.0000000E+00;  0.0000000E+00;0; -9.0245074E-03;  4.0000000E+04;  0.0000000E+00;  0.0000000E+00;  4.0000000E+04;  0.0000000E+00;  4.0000000E+04; -9.0678334E-03;  0.0000000E+00;  4.3325770E-05;  3.6346631E+02;
 -9.0000004E-02;  9.9999998E-03;  2.9999999E-02;1047;  0.0000000E+00;  0.0000000E+00;  0.0000000E+00;  1.0011620E+03;  1.0000000E-01;  9.6263947E+02;0;  0.0000000E+00;  0.0000000E+00;  0.0000000E+00;0; -9.0368679E-03;  4.0000000E+04;  0.0000000E+00;  0.0000000E+00;  4.0000000E+04;  0.0000000E+00;  4.0000000E+04; -9.0847434E-03;  0.0000000E+00;  4.7875572E-05;  3.5548257E+02;
 -9.0000004E-02;  9.9999998E-03;  3.9999999E-02;1048;  0.0000000E+00;  0.0000000E+00;  0.0000000E+00;  1.0011619E+03;  1.0000000E-01;  9.6254065E+02;0;  0.0000000E+00;  0.0000000E+00;  0.0000000E+00;0; -9.0557253E-03;  4.0000000E+04;  0.0000000E+00;  0.0000000E+00;  4.0000000E+04;  0.0000000E+00;  4.0000000E+04; -9.1094030E-03;  0.0000000E+00;  5.3677584E-05;  3.4671790E+02;
 -9.0000004E-02;  9.9999998E-03;  5.0000001E-02;1049;  0.0000000E+00;  0.0000000E+00;  0.0000000E+00;  1.0011614E+03;  1.0000000E-01;  9.6214563E+02;0;  0.0000000E+00;  0.0000000E+00;  0.0000000E+00;0; -9.0818983E-03;  4.0000000E+04;  0.0000000E+00;  0.0000000E+00;  4.0000000E+04;  0.0000000E+00;  4.0000000E+04; -9.1421269E-03;  0.0000000E+00;  6.0228194E-05;  3.3918182E+02;
 -9.0000004E-02;  9.9999998E-03;  5.9999999E-02;1050;  0.0000000E+00;  0.0000000E+00;  0.0000000E+00;  1.0011608E+03;  1.0000000E-01;  9.6175055E+02;0;  0.0000000E+00;  0.0000000E+00;  0.0000000E+00;0; -9.1155544E-03;  4.0000000E+04;  0.0000000E+00;  0.0000000E+00;  4.0000000E+04;  0.0000000E+00;  4.0000000E+04; -9.1825332E-03;  0.0000000E+00;  6.6978508E-05;  3.3492960E+02;
 -7.9999998E-02;  9.9999998E-03; -1.0000000E-01;1125;  0.0000000E+00;  0.0000000E+00;  0.0000000E+00;  1.0017908E+03;  1.0000000E-01;  1.4836123E+03;0;  0.0000000E+00;  0.0000000E+00;  0.0000000E+00;0; -1.4469701E-02;  4.0000000E+04;  0.0000000E+00;  0.0000000E+00;  4.0000000E+04;  0.0000000E+00;  4.0000000E+04; -1.4623660E-02;  0.0000000E+00;  1.5395904E-04;  5.2843866E+02;
 -7.9999998E-02;  9.9999998E-03; -9.0000004E-02;1126;  0.0000000E+00;  0.0000000E+00;  0.0000000E+00;  1.0018043E+03;  1.0000000E-01;  1.4947726E+03;0;  0.0000000E+00;  0.0000000E+00;  0.0000000E+00;0; -1.4412082E-02;  4.0000000E+04;  0.0000000E+00;  0.0000000E+00;  4.0000000E+04;  0.0000000E+00;  4.0000000E+04; -1.4560609E-02;  0.0000000E+00;  1.4852738E-04;  4.9517563E+02;
 -7.9999998E-02;  9.9999998E-03; -7.9999998E-02;1127;  0.0000000E+00;  0.0000000E+00;  0.0000000E+00;  1.0018121E+03;  1.0000000E-01;  1.5012909E+03;0;  0.0000000E+00;  0.0000000E+00;  0.0000000E+00;0; -1.4342996E-02;  4.0000000E+04;  0.0000000E+00;  0.0000000E+00;  4.0000000E+04;  0.0000000E+00;  4.0000000E+04; -1.4484371E-02;  0.0000000E+00;  1.4137446E-04;  4.7227728E+02;
 -7.9999998E-02;  9.9999998E-03; -7.0000000E-02;1128;  0.0000000E+00;  0.0000000E+00;  0.0000000E+00;  1.0018173E+03;  1.0000000E-01;  1.5056365E+03;0;  0.0000000E+00;  0.0000000E+00;  0.0000000E+00;0; -1.4272406E-02;  4.0000000E+04;  0.0000000E+00;  0.0000000E+00;  4.0000000E+04;  0.0000000E+00;  4.0000000E+04; -1.4404723E-02;  0.0000000E+00;  1.3231806E-04;  4.5994885E+02;
 -7.9999998E-02;  9.9999998E-03; -5.9999999E-02;1129;  0.0000000E+00;  0.0000000E+00;  0.0000000E+00;  1.0018198E+03;  1.0000000E-01;  1.5077104E+03;0;  0.0000000E+00;  0.0000000E+00;  0.0000000E+00;0; -1.4207323E-02;  4.0000000E+04;  0.0000000E+00;  0.0000000E+00;  4.0000000E+04;  0.0000000E+00;  4.0000000E+04; -1.4328998E-02;  0.0000000E+00;  1.2167422E-04;  4.5730469E+02;
 -7.9999998E-02;  9.9999998E-03; -5.0000001E-02;1130;  0.0000000E+00;  0.0000000E+00;  0.0000000E+00;  1.0018212E+03;  1.0000000E-01;  1.5087969E+03;0;  0.0000000E+00;  0.0000000E+00;  0.0000000E+00;0; -1.4152030E-02;  4.0000000E+04;  0.0000000E+00;  0.0000000E+00;  4.0000000E+04;  0.0000000E+00;  4.0000000E+04; -1.4262187E-02;  0.0000000E+00;  1.1015812E-04;  4.6245593E+02;
 -7.9999998E-02;  9.9999998E-03; -3.9999999E-02;1131;  0.0000000E+00;  0.0000000E+00;  0.0000000E+00;  1.0018222E+03;  1.0000000E-01;  1.5096857E+03;0;  0.0000000E+00;  0.0000000E+00;  0.0000000E+00;0; -1.4108326E-02;  4.0000000E+04;  0.0000000E+00;  0.0000000E+00;  4.0000000E+04;  0.0000000E+00;  4.0000000E+04; -1.4207062E-02;  0.0000000E+00;  9.8735603E-05;  4.7273944E+02;
 -7.9999998E-02;  9.9999998E-03; -2.9999999E-02;1132;  0.0000000E+00;  0.0000000E+00;  0.0000000E+00;  1.0018226E+03;  1.0000000E-01;  1.5099819E+03;0;  0.0000000E+00;  0.0000000E+00;  0.0000000E+00;0; -1.4076264E-02;  4.0000000E+04;  0.0000000E+00;  0.0000000E+00;  4.0000000E+04;  0.0000000E+00;  4.0000000E+04; -1.4164723E-02;  0.0000000E+00;  8.8458568E-05;  4.8510995E+02;
 -7.9999998E-02;  9.9999998E-03; -2.0000000E-02;1133;  0.0000000E+00;  0.0000000E+00;  0.0000000E+00;  1.0018226E+03;  1.0000000E-01;  1.5099819E+03;0;  0.0000000E+00;  0.0000000E+00;  0.0000000E+00;0; -1.4054834E-02;  4.0000000E+04;  0.0000000E+00;  0.0000000E+00;  4.0000000E+04;  0.0000000E+00;  4.0000000E+04; -1.4135145E-02;  0.0000000E+00;  8.0310434E-05;  4.9656223E+02;
 -7.9999998E-02;  9.9999998E-03; -9.9999998E-03;1134;  0.0000000E+00;  0.0000000E+00;  0.0000000E+00;  1.0018224E+03;  1.0000000E-01;  1.5098832E+03;0;  0.0000000E+00;  0.0000000E+00;  0.0000000E+00;0; -1.4042689E-02;  4.0000000E+04;  0.0000000E+00;  0.0000000E+00;  4.0000000E+04;  0.0000000E+00;  4.0000000E+04; -1.4117771E-02;  0.0000000E+00;  7.5081596E-05;  5.0456296E+02;
 -7.9999998E-02;  9.9999998E-03;  0.0000000E+00;1135;  0.0000000E+00;  0.0000000E+00;  0.0000000E+00;  1.0018225E+03;  1.0000000E-01;  1.5098832E+03;0;  0.0000000E+00;  0.0000000E+00;  0.0000000E+00;0; -1.4038769E-02;  4.0000000E+04;  0.0000000E+00;  0.0000000E+00;  4.0000000E+04;  0.0000000E+00;  4.0000000E+04; -1.4112049E-02;  0.0000000E+00;  7.3280309E-05;  5.0742856E+02;
 -7.9999998E-02;  9.9999998E-03;  9.9999998E-03;1136;  0.0000000E+00;  0.0000000E+00;  0.0000000E+00;  1.0018224E+03;  1.0000000E-01;  1.5098832E+03;0;  0.0000000E+00;  0.0000000E+00;  0.0000000E+00;0; -1.4042691E-02;  4.0000000E+04;  0.0000000E+00;  0.0000000E+00;  4.0000000E+04;  0.0000000E+00;  4.0000000E+04; -1.4117773E-02;  0.0000000E+00;  7.5081429E-05;  5.0456332E+02;
 -7.9999998E-02;  9.9999998E-03;  2.0000000E-02;1137;  0.0000000E+00;  0.0000000E+00;  0.0000000E+00;  1.0018226E+03;  1.0000000E-01;  1.5099819E+03;0;  0.0000000E+00;  0.0000000E+00;  0.0000000E+00;0; -1.4054833E-02;  4.0000000E+04;  0.0000000E+00;  0.0000000E+00;  4.0000000E+04;  0.0000000E+00;  4.0000000E+04; -1.4135143E-02;  0.0000000E+00;  8.0310230E-05;  4.9656329E+02;
 -7.9999998E-02;  9.9999998E-03;  2.9999999E-02;1138;  0.0000000E+00;  0.0000000E+00;  0.0000000E+00;  1.0018226E+03;  1.0000000E-01;  1.5099819E+03;0;  0.0000000E+00;  0.0000000E+00;  0.0000000E+00;0; -1.4076256E-02;  4.0000000E+04;  0.0000000E+00;  0.0000000E+00;  4.0000000E+04;  0.0000000E+00;  4.0000000E+04; -1.4164714E-02;  0.0000000E+00;  8.8458197E-05;  4.8511099E+02;
 -7.9999998E-02;  9.9999998E-03;  3.9999999E-02;1139;  0.0000000E+00;  0.0000000E+00;  0.0000000E+00;  1.0018222E+03;  1.0000000E-01;  1.5096857E+03;0;  0.0000000E+00;  0.0000000E+00;  0.0000000E+00;0; -1.4108319E-02;  4.0000000E+04;  0.0000000E+00;  0.0000000E+00;  4.0000000E+04;  0.0000000E+00;  4.0000000E+04; -1.4207054E-02;  0.0000000E+00;  9.8735116E-05;  4.7273969E+02;
 -7.9999998E-02;  9.9999998E-03;  5.0000001E-02;1140;  0.0000000E+00;  0.0000000E+00;  0.0000000E+00;  1.0018212E+03;  1.0000000E-01;  1.5087969E+03;0;  0.0000000E+00;  0.0000000E+00;  0.0000000E+00;0; -1.4152010E-02;  4.0000000E+04;  0.0000000E+00;  0.0000000E+00;  4.0000000E+04;  0.0000000E+00;  4.0000000E+04; -1.4262168E-02;  0.0000000E+00;  1.1015759E-04;  4.6245697E+02;
 -7.9999998E-02;  9.9999998E-03;  5.9999999E-02;1141;  0.0000000E+00;  0.0000000E+00;  0.0000000E+00;  1.0018198E+03;  1.0000000E-01;  1.5077104E+03;0;  0.0000000E+00;  0.0000000E+00;  0.0000000E+00;0; -1.4207310E-02;  4.0000000E+04;  0.0000000E+00;  0.0000000E+00;  4.0000000E+04;  0.0000000E+00;  4.0000000E+04; -1.4328984E-02;  0.0000000E+00;  1.2167356E-04;  4.5730743E+02;
 -7.0000000E-02;  9.9999998E-03; -1.0000000E-01;1216;  0.0000000E+00;  0.0000000E+00;  0.0000000E+00;  1.0026696E+03;  1.0000000E-01;  2.2116904E+03;0;  0.0000000E+00;  0.0000000E+00;  0.0000000E+00;0; -2.1386266E-02;  4.0000000E+04;  0.0000000E+00;  0.0000000E+00;  4.0000000E+04;  0.0000000E+00;  4.0000000E+04; -2.1637177E-02;  0.0000000E+00;  2.5091160E-04;  6.9821753E+02;
 -7.0000000E-02;  9.9999998E-03; -9.0000004E-02;1217;  0.0000000E+00;  0.0000000E+00;  0.0000000E+00;  1.0026862E+03;  1.0000000E-01;  2.2254185E+03;0;  0.0000000E+00;  0.0000000E+00;  0.0000000E+00;0; -2.1296715E-02;  4.0000000E+04;  0.0000000E+00;  0.0000000E+00;  4.0000000E+04;  0.0000000E+00;  4.0000000E+04; -2.1541515E-02;  0.0000000E+00;  2.4480044E-04;  6.4974835E+02;
 -7.0000000E-02;  9.9999998E-03; -7.9999998E-02;1218;  0.0000000E+00;  0.0000000E+00;  0.0000000E+00;  1.0026964E+03;  1.0000000E-01;  2.2339121E+03;0;  0.0000000E+00;  0.0000000E+00;  0.0000000E+00;0; -2.1190619E-02;  4.0000000E+04;  0.0000000E+00;  0.0000000E+00;  4.0000000E+04;  0.0000000E+00;  4.0000000E+04; -2.1425925E-02;  0.0000000E+00;  2.3530527E-04;  6.1565216E+02;
 -7.0000000E-02;  9.9999998E-03; -7.0000000E-02;1219;  0.0000000E+00;  0.0000000E+00;  0.0000000E+00;  1.0027033E+03;  1.0000000E-01;  2.2396404E+03;0;  0.0000000E+00;  0.0000000E+00;  0.0000000E+00;0; -2.1082414E-02;  4.0000000E+04;  0.0000000E+00;  0.0000000E+00;  4.0000000E+04;  0.0000000E+00;  4.0000000E+04; -2.1304503E-02;  0.0000000E+00;  2.2208900E-04;  5.9632245E+02;
 -7.0000000E-02;  9.9999998E-03; -5.9999999E-02;1220;  0.0000000E+00;  0.0000000E+00;  0.0000000E+00;  1.0027067E+03;  1.0000000E-01;  2.2424058E+03;0;  0.0000000E+00;  0.0000000E+00;  0.0000000E+00;0; -2.0982448E-02;  4.0000000E+04;  0.0000000E+00;  0.0000000E+00;  4.0000000E+04;  0.0000000E+00;  4.0000000E+04; -2.1188127E-02;  0.0000000E+00;  2.0567820E-04;  5.9066412E+02;
 -7.0000000E-02;  9.9999998E-03; -5.0000001E-02;1221;  0.0000000E+00;  0.0000000E+00;  0.0000000E+00;  1.0027093E+03;  1.0000000E-01;  2.2445786E+03;0;  0.0000000E+00;  0.0000000E+00;  0.0000000E+00;0; -2.0897044E-02;  4.0000000E+04;  0.0000000E+00;  0.0000000E+00;  4.0000000E+04;  0.0000000E+00;  4.0000000E+04; -2.1084353E-02;  0.0000000E+00;  1.8730902E-04;  5.9616412E+02;
 -7.0000000E-02;  9.9999998E-03; -3.9999999E-02;1222;  0.0000000E+00;  0.0000000E+00;  0.0000000E+00;  1.0027101E+03;  1.0000000E-01;  2.2452698E+03;0;  0.0000000E+00;  0.0000000E+00;  0.0000000E+00;0; -2.0829011E-02;  4.0000000E+04;  0.0000000E+00;  0.0000000E+00;  4.0000000E+04;  0.0000000E+00;  4.0000000E+04; -2.0997690E-02;  0.0000000E+00;  1.6867921E-04;  6.0917896E+02;
 -7.0000000E-02;  9.9999998E-03; -2.9999999E-02;1223;  0.0000000E+00;  0.0000000E+00;  0.0000000E+00;  1.0027105E+03;  1.0000000E-01;  2.2455662E+03;0;  0.0000000E+00;  0.0000000E+00;  0.0000000E+00;0; -2.0778662E-02;  4.0000000E+04;  0.0000000E+00;  0.0000000E+00;  4.0000000E+04;  0.0000000E+00;  4.0000000E+04; -2.0930326E-02;  0.0000000E+00;  1.5166425E-04;  6.2546802E+02;
 -7.0000000E-02;  9.9999998E-03; -2.0000000E-02;1224;  0.0000000E+00;  0.0000000E+00;  0.0000000E+00;  1.0027100E+03;  1.0000000E-01;  2.2451711E+03;0;  0.0000000E+00;  0.0000000E+00;  0.0000000E+00;0; -2.0744687E-02;  4.0000000E+04;  0.0000000E+00;  0.0000000E+00;  4.0000000E+04;  0.0000000E+00;  4.0000000E+04; -2.0882726E-02;  0.0000000E+00;  1.3803874E-04;  6.4080420E+02;
 -7.0000000E-02;  9.9999998E-03; -9.9999998E-03;1225;  0.0000000E+00;  0.0000000E+00;  0.0000000E+00;  1.0027099E+03;  1.0000000E-01;  2.2450723E+03;0;  0.0000000E+00;  0.0000000E+00;  0.0000000E+00;0; -2.0725284E-02;  4.0000000E+04;  0.0000000E+00;  0.0000000E+00;  4.0000000E+04;  0.0000000E+00;  4.0000000E+04; -2.0854525E-02;  0.0000000E+00;  1.2924121E-04;  6.5161145E+02;
 -7.0000000E-02;  9.9999998E-03;  0.0000000E+00;1226;  0.0000000E+00;  0.0000000E+00;  0.0000000E+00;  1.0027098E+03;  1.0000000E-01;  2.2450723E+03;0;  0.0000000E+00;  0.0000000E+00;  0.0000000E+00;0; -2.0719020E-02;  4.0000000E+04;  0.0000000E+00;  0.0000000E+00;  4.0000000E+04;  0.0000000E+00;  4.0000000E+04; -2.0845221E-02;  0.0000000E+00;  1.2620167E-04;  6.5549255E+02;
 -7.0000000E-02;  9.9999998E-03;  9.9999998E-03;1227;  0.0000000E+00;  0.0000000E+00;  0.0000000E+00;  1.0027099E+03;  1.0000000E-01;  2.2450723E+03;0;  0.0000000E+00;  0.0000000E+00;  0.0000000E+00;0; -2.0725280E-02;  4.0000000E+04;  0.0000000E+00;  0.0000000E+00;  4.0000000E+04;  0.0000000E+00;  4.0000000E+04; -2.0854522E-02;  0.0000000E+00;  1.2924103E-04;  6.5161188E+02;
 -7.0000000E-02;  9.9999998E-03;  2.0000000E-02;1228;  0.0000000E+00;  0.0000000E+00;  0.0000000E+00;  1.0027100E+03;  1.0000000E-01;  2.2451711E+03;0;  0.0000000E+00;  0.0000000E+00;  0.0000000E+00;0; -2.0744683E-02;  4.0000000E+04;  0.0000000E+00;  0.0000000E+00;  4.0000000E+04;  0.0000000E+00;  4.0000000E+04; -2.0882722E-02;  0.0000000E+00;  1.3803855E-04;  6.4080566E+02;
 -7.0000000E-02;  9.9999998E-03;  2.9999999E-02;1229;  0.0000000E+00;  0.0000000E+00;  0.0000000E+00;  1.0027105E+03;  1.0000000E-01;  2.2455662E+03;0;  0.0000000E+00;  0.0000000E+00;  0.0000000E+00;0; -2.0778665E-02;  4.0000000E+04;  0.0000000E+00;  0.0000000E+00;  4.0000000E+04;  0.0000000E+00;  4.0000000E+04; -2.0930329E-02;  0.0000000E+00;  1.5166367E-04;  6.2546887E+02;
 -7.0000000E-02;  9.9999998E-03;  3.9999999E-02;1230;  0.0000000E+00;  0.0000000E+00;  0.0000000E+00;  1.0027101E+03;  1.0000000E-01;  2.2452698E+03;0;  0.0000000E+00;  0.0000000E+00;  0.0000000E+00;0; -2.0829009E-02;  4.0000000E+04;  0.0000000E+00;  0.0000000E+00;  4.0000000E+04;  0.0000000E+00;  4.0000000E+04; -2.0997688E-02;  0.0000000E+00;  1.6867847E-04;  6.0917944E+02;
 -7.0000000E-02;  9.9999998E-03;  5.0000001E-02;1231;  0.0000000E+00;  0.0000000E+00;  0.0000000E+00;  1.0027093E+03;  1.0000000E-01;  2.2445786E+03;0;  0.0000000E+00;  0.0000000E+00;  0.0000000E+00;0; -2.0897046E-02;  4.0000000E+04;  0.0000000E+00;  0.0000000E+00;  4.0000000E+04;  0.0000000E+00;  4.0000000E+04; -2.1084353E-02;  0.0000000E+00;  1.8730805E-04;  5.9616675E+02;
 -7.0000000E-02;  9.9999998E-03;  5.9999999E-02;1232;  0.0000000E+00;  0.0000000E+00;  0.0000000E+00;  1.0027067E+03;  1.0000000E-01;  2.2424058E+03;0;  0.0000000E+00;  0.0000000E+00;  0.0000000E+00;0; -2.0982433E-02;  4.0000000E+04;  0.0000000E+00;  0.0000000E+00;  4.0000000E+04;  0.0000000E+00;  4.0000000E+04; -2.1188110E-02;  0.0000000E+00;  2.0567740E-04;  5.9066504E+02;
 -5.9999999E-02;  9.9999998E-03; -1.0000000E-01;1307;  0.0000000E+00;  0.0000000E+00;  0.0000000E+00;  1.0038011E+03;  1.0000000E-01;  3.1491455E+03;0;  0.0000000E+00;  0.0000000E+00;  0.0000000E+00;0; -3.0164331E-02;  4.0000000E+04;  0.0000000E+00;  0.0000000E+00;  4.0000000E+04;  0.0000000E+00;  4.0000000E+04; -3.0549709E-02;  0.0000000E+00;  3.8537729E-04;  8.7856171E+02;
 -5.9999999E-02;  9.9999998E-03; -9.0000004E-02;1308;  0.0000000E+00;  0.0000000E+00;  0.0000000E+00;  1.0038257E+03;  1.0000000E-01;  3.1694907E+03;0;  0.0000000E+00;  0.0000000E+00;  0.0000000E+00;0; -3.0028349E-02;  4.0000000E+04;  0.0000000E+00;  0.0000000E+00;  4.0000000E+04;  0.0000000E+00;  4.0000000E+04; -3.0408723E-02;  0.0000000E+00;  3.8037423E-04;  8.1151257E+02;
 -5.9999999E-02;  9.9999998E-03; -7.9999998E-02;1309;  0.0000000E+00;  0.0000000E+00;  0.0000000E+00;  1.0038422E+03;  1.0000000E-01;  3.1831199E+03;0;  0.0000000E+00;  0.0000000E+00;  0.0000000E+00;0; -2.9870568E-02;  4.0000000E+04;  0.0000000E+00;  0.0000000E+00;  4.0000000E+04;  0.0000000E+00;  4.0000000E+04; -3.0239752E-02;  0.0000000E+00;  3.6918453E-04;  7.6339838E+02;
 -5.9999999E-02;  9.9999998E-03; -7.0000000E-02;1310;  0.0000000E+00;  0.0000000E+00;  0.0000000E+00;  1.0038510E+03;  1.0000000E-01;  3.1905271E+03;0;  0.0000000E+00;  0.0000000E+00;  0.0000000E+00;0; -2.9711043E-02;  4.0000000E+04;  0.0000000E+00;  0.0000000E+00;  4.0000000E+04;  0.0000000E+00;  4.0000000E+04; -3.0062275E-02;  0.0000000E+00;  3.5123163E-04;  7.3489368E+02;
 -5.9999999E-02;  9.9999998E-03; -5.9999999E-02;1311;  0.0000000E+00;  0.0000000E+00;  0.0000000E+00;  1.0038555E+03;  1.0000000E-01;  3.1941812E+03;0;  0.0000000E+00;  0.0000000E+00;  0.0000000E+00;0; -2.9564191E-02;  4.0000000E+04;  0.0000000E+00;  0.0000000E+00;  4.0000000E+04;  0.0000000E+00;  4.0000000E+04; -2.9891556E-02;  0.0000000E+00;  3.2736541E-04;  7.2473468E+02;
 -5.9999999E-02;  9.9999998E-03; -5.0000001E-02;1312;  0.0000000E+00;  0.0000000E+00;  0.0000000E+00;  1.0038586E+03;  1.0000000E-01;  3.1967490E+03;0;  0.0000000E+00;  0.0000000E+00;  0.0000000E+00;0; -2.9438764E-02;  4.0000000E+04;  0.0000000E+00;  0.0000000E+00;  4.0000000E+04;  0.0000000E+00;  4.0000000E+04; -2.9738385E-02;  0.0000000E+00;  2.9962053E-04;  7.2974866E+02;
 -5.9999999E-02;  9.9999998E-03; -3.9999999E-02;1313;  0.0000000E+00;  0.0000000E+00;  0.0000000E+00;  1.0038591E+03;  1.0000000E-01;  3.1971440E+03;0;  0.0000000E+00;  0.0000000E+00;  0.0000000E+00;0; -2.9338716E-02;  4.0000000E+04;  0.0000000E+00;  0.0000000E+00;  4.0000000E+04;  0.0000000E+00;  4.0000000E+04; -2.9609539E-02;  0.0000000E+00;  2.7082392E-04;  7.4518884E+02;
 -5.9999999E-02;  9.9999998E-03; -2.9999999E-02;1314;  0.0000000E+00;  0.0000000E+00;  0.0000000E+00;  1.0038586E+03;  1.0000000E-01;  3.1967490E+03;0;  0.0000000E+00;  0.0000000E+00;  0.0000000E+00;0; -2.9264467E-02;  4.0000000E+04;  0.0000000E+00;  0.0000000E+00;  4.0000000E+04;  0.0000000E+00;  4.0000000E+04; -2.9508593E-02;  0.0000000E+00;  2.4412601E-04;  7.6546521E+02;
 -5.9999999E-02;  9.9999998E-03; -2.0000000E-02;1315;  0.0000000E+00;  0.0000000E+00;  0.0000000E+00;  1.0038578E+03;  1.0000000E-01;  3.1960579E+03;0;  0.0000000E+00;  0.0000000E+00;  0.0000000E+00;0; -2.9214185E-02;  4.0000000E+04;  0.0000000E+00;  0.0000000E+00;  4.0000000E+04;  0.0000000E+00;  4.0000000E+04; -2.9436719E-02;  0.0000000E+00;  2.2253480E-04;  7.8491309E+02;
 -5.9999999E-02;  9.9999998E-03; -9.9999998E-03;1316;  0.0000000E+00;  0.0000000E+00;  0.0000000E+00;  1.0038574E+03;  1.0000000E-01;  3.1957615E+03;0;  0.0000000E+00;  0.0000000E+00;  0.0000000E+00;0; -2.9185411E-02;  4.0000000E+04;  0.0000000E+00;  0.0000000E+00;  4.0000000E+04;  0.0000000E+00;  4.0000000E+04; -2.9393919E-02;  0.0000000E+00;  2.0850869E-04;  7.9874146E+02;
 -5.9999999E-02;  9.9999998E-03;  0.0000000E+00;1317;  0.0000000E+00;  0.0000000E+00;  0.0000000E+00;  1.0038575E+03;  1.0000000E-01;  3.1958604E+03;0;  0.0000000E+00;  0.0000000E+00;  0.0000000E+00;0; -2.9176055E-02;  4.0000000E+04;  0.0000000E+00;  0.0000000E+00;  4.0000000E+04;  0.0000000E+00;  4.0000000E+04; -2.9379703E-02;  0.0000000E+00;  2.0364815E-04;  8.0373267E+02;
 -5.9999999E-02;  9.9999998E-03;  9.9999998E-03;1318;  0.0000000E+00;  0.0000000E+00;  0.0000000E+00;  1.0038574E+03;  1.0000000E-01;  3.1957615E+03;0;  0.0000000E+00;  0.0000000E+00;  0.0000000E+00;0; -2.9185401E-02;  4.0000000E+04;  0.0000000E+00;  0.0000000E+00;  4.0000000E+04;  0.0000000E+00;  4.0000000E+04; -2.9393909E-02;  0.0000000E+00;  2.0850833E-04;  7.9874292E+02;
 -5.9999999E-02;  9.9999998E-03;  2.0000000E-02;1319;  0.0000000E+00;  0.0000000E+00;  0.0000000E+00;  1.0038578E+03;  1.0000000E-01;  3.1960579E+03;0;  0.0000000E+00;  0.0000000E+00;  0.0000000E+00;0; -2.9214183E-02;  4.0000000E+04;  0.0000000E+00;  0.0000000E+00;  4.0000000E+04;  0.0000000E+00;  4.0000000E+04; -2.9436717E-02;  0.0000000E+00;  2.2253435E-04;  7.8491382E+02;
 -5.9999999E-02;  9.9999998E-03;  2.9999999E-02;1320;  0.0000000E+00;  0.0000000E+00;  0.0000000E+00;  1.0038586E+03;  1.0000000E-01;  3.1967490E+03;0;  0.0000000E+00;  0.0000000E+00;  0.0000000E+00;0; -2.9264458E-02;  4.0000000E+04;  0.0000000E+00;  0.0000000E+00;  4.0000000E+04;  0.0000000E+00;  4.0000000E+04; -2.9508583E-02;  0.0000000E+00;  2.4412514E-04;  7.6546716E+02;
 -5.9999999E-02;  9.9999998E-03;  3.9999999E-02;1321;  0.0000000E+00;  0.0000000E+00;  0.0000000E+00;  1.0038591E+03;  1.0000000E-01;  3.1971440E+03;0;  0.0000000E+00;  0.0000000E+00;  0.0000000E+00;0; -2.9338716E-02;  4.0000000E+04;  0.0000000E+00;  0.0000000E+00;  4.0000000E+04;  0.0000000E+00;  4.0000000E+04; -2.9609539E-02;  0.0000000E+00;  2.7082290E-04;  7.4519147E+02;
 -5.9999999E-02;  9.9999998E-03;  5.0000001E-02;1322;  0.0000000E+00;  0.0000000E+00;  0.0000000E+00;  1.0038586E+03;  1.0000000E-01;  3.1967490E+03;0;  0.0000000E+00;  0.0000000E+00;  0.0000000E+00;0; -2.9438758E-02;  4.0000000E+04;  0.0000000E+00;  0.0000000E+00;  4.0000000E+04;  0.0000000E+00;  4.0000000E+04; -2.9738378E-02;  0.0000000E+00;  2.9961939E-04;  7.2975183E+02;
 -5.9999999E-02;  9.9999998E-03;  5.9999999E-02;1323;  0.0000000E+00;  0.0000000E+00;  0.0000000E+00;  1.0038555E+03;  1.0000000E-01;  3.1941812E+03;0;  0.0000000E+00;  0.0000000E+00;  0.0000000E+00;0; -2.9564174E-02;  4.0000000E+04;  0.0000000E+00;  0.0000000E+00;  4.0000000E+04;  0.0000000E+00;  4.0000000E+04; -2.9891538E-02;  0.0000000E+00;  3.2736364E-04;  7.2473889E+02;
 -5.0000001E-02;  9.9999998E-03; -1.0000000E-01;1398;  0.0000000E+00;  0.0000000E+00;  0.0000000E+00;  1.0051954E+03;  1.0000000E-01;  4.3042734E+03;0;  0.0000000E+00;  0.0000000E+00;  0.0000000E+00;0; -4.0756531E-02;  4.0000000E+04;  0.0000000E+00;  0.0000000E+00;  4.0000000E+04;  0.0000000E+00;  4.0000000E+04; -4.1319016E-02;  0.0000000E+00;  5.6248350E-04;  1.0541504E+03;
 -5.0000001E-02;  9.9999998E-03; -9.0000004E-02;1399;  0.0000000E+00;  0.0000000E+00;  0.0000000E+00;  1.0052291E+03;  1.0000000E-01;  4.3322231E+03;0;  0.0000000E+00;  0.0000000E+00;  0.0000000E+00;0; -4.0555213E-02;  4.0000000E+04;  0.0000000E+00;  0.0000000E+00;  4.0000000E+04;  0.0000000E+00;  4.0000000E+04; -4.1117046E-02;  0.0000000E+00;  5.6183449E-04;  9.6561938E+02;
 -5.0000001E-02;  9.9999998E-03; -7.9999998E-02;1400;  0.0000000E+00;  0.0000000E+00;  0.0000000E+00;  1.0052480E+03;  1.0000000E-01;  4.3479263E+03;0;  0.0000000E+00;  0.0000000E+00;  0.0000000E+00;0; -4.0327765E-02;  4.0000000E+04;  0.0000000E+00;  0.0000000E+00;  4.0000000E+04;  0.0000000E+00;  4.0000000E+04; -4.0878326E-02;  0.0000000E+00;  5.5056106E-04;  9.0088300E+02;
 -5.0000001E-02;  9.9999998E-03; -7.0000000E-02;1401;  0.0000000E+00;  0.0000000E+00;  0.0000000E+00;  1.0052604E+03;  1.0000000E-01;  4.3580991E+03;0;  0.0000000E+00;  0.0000000E+00;  0.0000000E+00;0; -4.0100895E-02;  4.0000000E+04;  0.0000000E+00;  0.0000000E+00;  4.0000000E+04;  0.0000000E+00;  4.0000000E+04; -4.0628634E-02;  0.0000000E+00;  5.2774104E-04;  8.6101825E+02;
 -5.0000001E-02;  9.9999998E-03; -5.9999999E-02;1402;  0.0000000E+00;  0.0000000E+00;  0.0000000E+00;  1.0052667E+03;  1.0000000E-01;  4.3633335E+03;0;  0.0000000E+00;  0.0000000E+00;  0.0000000E+00;0; -3.9893668E-02;  4.0000000E+04;  0.0000000E+00;  0.0000000E+00;  4.0000000E+04;  0.0000000E+00;  4.0000000E+04; -4.0388364E-02;  0.0000000E+00;  4.9469789E-04;  8.4471387E+02;
 -5.0000001E-02;  9.9999998E-03; -5.0000001E-02;1403;  0.0000000E+00;  0.0000000E+00;  0.0000000E+00;  1.0052678E+03;  1.0000000E-01;  4.3642222E+03;0;  0.0000000E+00;  0.0000000E+00;  0.0000000E+00;0; -3.9717488E-02;  4.0000000E+04;  0.0000000E+00;  0.0000000E+00;  4.0000000E+04;  0.0000000E+00;  4.0000000E+04; -4.0172130E-02;  0.0000000E+00;  4.5464010E-04;  8.4814154E+02;
 -5.0000001E-02;  9.9999998E-03; -3.9999999E-02;1404;  0.0000000E+00;  0.0000000E+00;  0.0000000E+00;  1.0052673E+03;  1.0000000E-01;  4.3639258E+03;0;  0.0000000E+00;  0.0000000E+00;  0.0000000E+00;0; -3.9577454E-02;  4.0000000E+04;  0.0000000E+00;  0.0000000E+00;  4.0000000E+04;  0.0000000E+00;  4.0000000E+04; -3.9989509E-02;  0.0000000E+00;  4.1205614E-04;  8.6541913E+02;
 -5.0000001E-02;  9.9999998E-03; -2.9999999E-02;1405;  0.0000000E+00;  0.0000000E+00;  0.0000000E+00;  1.0052654E+03;  1.0000000E-01;  4.3622471E+03;0;  0.0000000E+00;  0.0000000E+00;  0.0000000E+00;0; -3.9473690E-02;  4.0000000E+04;  0.0000000E+00;  0.0000000E+00;  4.0000000E+04;  0.0000000E+00;  4.0000000E+04; -3.9845672E-02;  0.0000000E+00;  3.7197961E-04;  8.8944684E+02;
 -5.0000001E-02;  9.9999998E-03; -2.0000000E-02;1406;  0.0000000E+00;  0.0000000E+00;  0.0000000E+00;  1.0052652E+03;  1.0000000E-01;  4.3621484E+03;0;  0.0000000E+00;  0.0000000E+00;  0.0000000E+00;0; -3.9403558E-02;  4.0000000E+04;  0.0000000E+00;  0.0000000E+00;  4.0000000E+04;  0.0000000E+00;  4.0000000E+04; -3.9742813E-02;  0.0000000E+00;  3.3925407E-04;  9.1302124E+02;
 -5.0000001E-02;  9.9999998E-03; -9.9999998E-03;1407;  0.0000000E+00;  0.0000000E+00;  0.0000000E+00;  1.0052648E+03;  1.0000000E-01;  4.3617534E+03;0;  0.0000000E+00;  0.0000000E+00;  0.0000000E+00;0; -3.9363392E-02;  4.0000000E+04;  0.0000000E+00;  0.0000000E+00;  4.0000000E+04;  0.0000000E+00;  4.0000000E+04; -3.9681260E-02;  0.0000000E+00;  3.1786729E-04;  9.2994519E+02;
 -5.0000001E-02;  9.9999998E-03;  0.0000000E+00;1408;  0.0000000E+00;  0.0000000E+00;  0.0000000E+00;  1.0052646E+03;  1.0000000E-01;  4.3616543E+03;0;  0.0000000E+00;  0.0000000E+00;  0.0000000E+00;0; -3.9350413E-02;  4.0000000E+04;  0.0000000E+00;  0.0000000E+00;  4.0000000E+04;  0.0000000E+00;  4.0000000E+04; -3.9660849E-02;  0.0000000E+00;  3.1043516E-04;  9.3607501E+02;
 -5.0000001E-02;  9.9999998E-03;  9.9999998E-03;1409;  0.0000000E+00;  0.0000000E+00;  0.0000000E+00;  1.0052648E+03;  1.0000000E-01;  4.3617534E+03;0;  0.0000000E+00;  0.0000000E+00;  0.0000000E+00;0; -3.9363388E-02;  4.0000000E+04;  0.0000000E+00;  0.0000000E+00;  4.0000000E+04;  0.0000000E+00;  4.0000000E+04; -3.9681256E-02;  0.0000000E+00;  3.1786700E-04;  9.2994513E+02;
 -5.0000001E-02;  9.9999998E-03;  2.0000000E-02;1410;  0.0000000E+00;  0.0000000E+00;  0.0000000E+00;  1.0052652E+03;  1.0000000E-01;  4.3621484E+03;0;  0.0000000E+00;  0.0000000E+00;  0.0000000E+00;0; -3.9403554E-02;  4.0000000E+04;  0.0000000E+00;  0.0000000E+00;  4.0000000E+04;  0.0000000E+00;  4.0000000E+04; -3.9742809E-02;  0.0000000E+00;  3.3925328E-04;  9.1302142E+02;
 -5.0000001E-02;  9.9999998E-03;  2.9999999E-02;1411;  0.0000000E+00;  0.0000000E+00;  0.0000000E+00;  1.0052654E+03;  1.0000000E-01;  4.3622471E+03;0;  0.0000000E+00;  0.0000000E+00;  0.0000000E+00;0; -3.9473709E-02;  4.0000000E+04;  0.0000000E+00;  0.0000000E+00;  4.0000000E+04;  0.0000000E+00;  4.0000000E+04; -3.9845686E-02;  0.0000000E+00;  3.7197879E-04;  8.8945105E+02;
 -5.0000001E-02;  9.9999998E-03;  3.9999999E-02;1412;  0.0000000E+00;  0.0000000E+00;  0.0000000E+00;  1.0052673E+03;  1.0000000E-01;  4.3639258E+03;0;  0.0000000E+00;  0.0000000E+00;  0.0000000E+00;0; -3.9577432E-02;  4.0000000E+04;  0.0000000E+00;  0.0000000E+00;  4.0000000E+04;  0.0000000E+00;  4.0000000E+04; -3.9989486E-02;  0.0000000E+00;  4.1205468E-04;  8.6542157E+02;
 -5.0000001E-02;  9.9999998E-03;  5.0000001E-02;1413;  0.0000000E+00;  0.0000000E+00;  0.0000000E+00;  1.0052678E+03;  1.0000000E-01;  4.3642222E+03;0;  0.0000000E+00;  0.0000000E+00;  0.0000000E+00;0; -3.9717477E-02;  4.0000000E+04;  0.0000000E+00;  0.0000000E+00;  4.0000000E+04;  0.0000000E+00;  4.0000000E+04; -4.0172115E-02;  0.0000000E+00;  4.5463839E-04;  8.4814539E+02;
 -5.0000001E-02;  9.9999998E-03;  5.9999999E-02;1414;  0.0000000E+00;  0.0000000E+00;  0.0000000E+00;  1.0052667E+03;  1.0000000E-01;  4.3633335E+03;0;  0.0000000E+00;  0.0000000E+00;  0.0000000E+00;0; -3.9893612E-02;  4.0000000E+04;  0.0000000E+00;  0.0000000E+00;  4.0000000E+04;  0.0000000E+00;  4.0000000E+04; -4.0388308E-02;  0.0000000E+00;  4.9469585E-04;  8.4471747E+02;
 -3.9999999E-02;  9.9999998E-03; -1.0000000E-01;1489;  0.0000000E+00;  0.0000000E+00;  0.0000000E+00;  1.0068323E+03;  1.0000000E-01;  5.6603833E+03;0;  0.0000000E+00;  0.0000000E+00;  0.0000000E+00;0; -5.2866433E-02;  4.0000000E+04;  0.0000000E+00;  0.0000000E+00;  4.0000000E+04;  0.0000000E+00;  4.0000000E+04; -5.3651396E-02;  0.0000000E+00;  7.8496255E-04;  1.2046924E+03;
 -3.9999999E-02;  9.9999998E-03; -9.0000004E-02;1490;  0.0000000E+00;  0.0000000E+00;  0.0000000E+00;  1.0068709E+03;  1.0000000E-01;  5.6923823E+03;0;  0.0000000E+00;  0.0000000E+00;  0.0000000E+00;0; -5.2576989E-02;  4.0000000E+04;  0.0000000E+00;  0.0000000E+00;  4.0000000E+04;  0.0000000E+00;  4.0000000E+04; -5.3370669E-02;  0.0000000E+00;  7.9367892E-04;  1.0927371E+03;
 -3.9999999E-02;  9.9999998E-03; -7.9999998E-02;1491;  0.0000000E+00;  0.0000000E+00;  0.0000000E+00;  1.0068943E+03;  1.0000000E-01;  5.7118384E+03;0;  0.0000000E+00;  0.0000000E+00;  0.0000000E+00;0; -5.2259404E-02;  4.0000000E+04;  0.0000000E+00;  0.0000000E+00;  4.0000000E+04;  0.0000000E+00;  4.0000000E+04; -5.3044528E-02;  0.0000000E+00;  7.8512199E-04;  1.0093070E+03;
 -3.9999999E-02;  9.9999998E-03; -7.0000000E-02;1492;  0.0000000E+00;  0.0000000E+00;  0.0000000E+00;  1.0069093E+03;  1.0000000E-01;  5.7241836E+03;0;  0.0000000E+00;  0.0000000E+00;  0.0000000E+00;0; -5.1947810E-02;  4.0000000E+04;  0.0000000E+00;  0.0000000E+00;  4.0000000E+04;  0.0000000E+00;  4.0000000E+04; -5.2705701E-02;  0.0000000E+00;  7.5789081E-04;  9.5609302E+02;
 -3.9999999E-02;  9.9999998E-03; -5.9999999E-02;1493;  0.0000000E+00;  0.0000000E+00;  0.0000000E+00;  1.0069148E+03;  1.0000000E-01;  5.7288257E+03;0;  0.0000000E+00;  0.0000000E+00;  0.0000000E+00;0; -5.1666394E-02;  4.0000000E+04;  0.0000000E+00;  0.0000000E+00;  4.0000000E+04;  0.0000000E+00;  4.0000000E+04; -5.2380383E-02;  0.0000000E+00;  7.1398879E-04;  9.3189911E+02;
 -3.9999999E-02;  9.9999998E-03; -5.0000001E-02;1494;  0.0000000E+00;  0.0000000E+00;  0.0000000E+00;  1.0069159E+03;  1.0000000E-01;  5.7297144E+03;0;  0.0000000E+00;  0.0000000E+00;  0.0000000E+00;0; -5.1429205E-02;  4.0000000E+04;  0.0000000E+00;  0.0000000E+00;  4.0000000E+04;  0.0000000E+00;  4.0000000E+04; -5.2087490E-02;  0.0000000E+00;  6.5828487E-04;  9.3239508E+02;
 -3.9999999E-02;  9.9999998E-03; -3.9999999E-02;1495;  0.0000000E+00;  0.0000000E+00;  0.0000000E+00;  1.0069154E+03;  1.0000000E-01;  5.7293193E+03;0;  0.0000000E+00;  0.0000000E+00;  0.0000000E+00;0; -5.1241975E-02;  4.0000000E+04;  0.0000000E+00;  0.0000000E+00;  4.0000000E+04;  0.0000000E+00;  4.0000000E+04; -5.1839590E-02;  0.0000000E+00;  5.9761561E-04;  9.5055920E+02;
 -3.9999999E-02;  9.9999998E-03; -2.9999999E-02;1496;  0.0000000E+00;  0.0000000E+00;  0.0000000E+00;  1.0069131E+03;  1.0000000E-01;  5.7274429E+03;0;  0.0000000E+00;  0.0000000E+00;  0.0000000E+00;0; -5.1103991E-02;  4.0000000E+04;  0.0000000E+00;  0.0000000E+00;  4.0000000E+04;  0.0000000E+00;  4.0000000E+04; -5.1643677E-02;  0.0000000E+00;  5.3968682E-04;  9.7778223E+02;
 -3.9999999E-02;  9.9999998E-03; -2.0000000E-02;1497;  0.0000000E+00;  0.0000000E+00;  0.0000000E+00;  1.0069117E+03;  1.0000000E-01;  5.7261592E+03;0;  0.0000000E+00;  0.0000000E+00;  0.0000000E+00;0; -5.1011156E-02;  4.0000000E+04;  0.0000000E+00;  0.0000000E+00;  4.0000000E+04;  0.0000000E+00;  4.0000000E+04; -5.1503111E-02;  0.0000000E+00;  4.9195526E-04;  1.0051786E+03;
 -3.9999999E-02;  9.9999998E-03; -9.9999998E-03;1498;  0.0000000E+00;  0.0000000E+00;  0.0000000E+00;  1.0069106E+03;  1.0000000E-01;  5.7253691E+03;0;  0.0000000E+00;  0.0000000E+00;  0.0000000E+00;0; -5.0958302E-02;  4.0000000E+04;  0.0000000E+00;  0.0000000E+00;  4.0000000E+04;  0.0000000E+00;  4.0000000E+04; -5.1418897E-02;  0.0000000E+00;  4.6059440E-04;  1.0250933E+03;
 -3.9999999E-02;  9.9999998E-03;  0.0000000E+00;1499;  0.0000000E+00;  0.0000000E+00;  0.0000000E+00;  1.0069104E+03;  1.0000000E-01;  5.7251714E+03;0;  0.0000000E+00;  0.0000000E+00;  0.0000000E+00;0; -5.0941102E-02;  4.0000000E+04;  0.0000000E+00;  0.0000000E+00;  4.0000000E+04;  0.0000000E+00;  4.0000000E+04; -5.1390771E-02;  0.0000000E+00;  4.4966780E-04;  1.0323285E+03;
 -3.9999999E-02;  9.9999998E-03;  9.9999998E-03;1500;  0.0000000E+00;  0.0000000E+00;  0.0000000E+00;  1.0069106E+03;  1.0000000E-01;  5.7253691E+03;0;  0.0000000E+00;  0.0000000E+00;  0.0000000E+00;0; -5.0958276E-02;  4.0000000E+04;  0.0000000E+00;  0.0000000E+00;  4.0000000E+04;  0.0000000E+00;  4.0000000E+04; -5.1418871E-02;  0.0000000E+00;  4.6059379E-04;  1.0250935E+03;
 -3.9999999E-02;  9.9999998E-03;  2.0000000E-02;1501;  0.0000000E+00;  0.0000000E+00;  0.0000000E+00;  1.0069117E+03;  1.0000000E-01;  5.7261592E+03;0;  0.0000000E+00;  0.0000000E+00;  0.0000000E+00;0; -5.1011171E-02;  4.0000000E+04;  0.0000000E+00;  0.0000000E+00;  4.0000000E+04;  0.0000000E+00;  4.0000000E+04; -5.1503126E-02;  0.0000000E+00;  4.9195415E-04;  1.0051817E+03;
 -3.9999999E-02;  9.9999998E-03;  2.9999999E-02;1502;  0.0000000E+00;  0.0000000E+00;  0.0000000E+00;  1.0069132E+03;  1.0000000E-01;  5.7274429E+03;0;  0.0000000E+00;  0.0000000E+00;  0.0000000E+00;0; -5.1103994E-02;  4.0000000E+04;  0.0000000E+00;  0.0000000E+00;  4.0000000E+04;  0.0000000E+00;  4.0000000E+04; -5.1643681E-02;  0.0000000E+00;  5.3968502E-04;  9.7778772E+02;
 -3.9999999E-02;  9.9999998E-03;  3.9999999E-02;1503;  0.0000000E+00;  0.0000000E+00;  0.0000000E+00;  1.0069154E+03;  1.0000000E-01;  5.7293193E+03;0;  0.0000000E+00;  0.0000000E+00;  0.0000000E+00;0; -5.1241942E-02;  4.0000000E+04;  0.0000000E+00;  0.0000000E+00;  4.0000000E+04;  0.0000000E+00;  4.0000000E+04; -5.1839557E-02;  0.0000000E+00;  5.9761328E-04;  9.5056671E+02;
 -3.9999999E-02;  9.9999998E-03;  5.0000001E-02;1504;  0.0000000E+00;  0.0000000E+00;  0.0000000E+00;  1.0069159E+03;  1.0000000E-01;  5.7297144E+03;0;  0.0000000E+00;  0.0000000E+00;  0.0000000E+00;0; -5.1429201E-02;  4.0000000E+04;  0.0000000E+00;  0.0000000E+00;  4.0000000E+04;  0.0000000E+00;  4.0000000E+04; -5.2087482E-02;  0.0000000E+00;  6.5828225E-04;  9.3239813E+02;
 -3.9999999E-02;  9.9999998E-03;  5.9999999E-02;1505;  0.0000000E+00;  0.0000000E+00;  0.0000000E+00;  1.0069148E+03;  1.0000000E-01;  5.7288257E+03;0;  0.0000000E+00;  0.0000000E+00;  0.0000000E+00;0; -5.1666394E-02;  4.0000000E+04;  0.0000000E+00;  0.0000000E+00;  4.0000000E+04;  0.0000000E+00;  4.0000000E+04; -5.2380379E-02;  0.0000000E+00;  7.1398588E-04;  9.3190491E+02;
 -2.9999999E-02;  9.9999998E-03; -1.0000000E-01;1580;  0.0000000E+00;  0.0000000E+00;  0.0000000E+00;  1.0086519E+03;  1.0000000E-01;  7.1679946E+03;0;  0.0000000E+00;  0.0000000E+00;  0.0000000E+00;0; -6.5932646E-02;  4.0000000E+04;  0.0000000E+00;  0.0000000E+00;  4.0000000E+04;  0.0000000E+00;  4.0000000E+04; -6.6984780E-02;  0.0000000E+00;  1.0521335E-03;  1.3075593E+03;
 -2.9999999E-02;  9.9999998E-03; -9.0000004E-02;1581;  0.0000000E+00;  0.0000000E+00;  0.0000000E+00;  1.0086999E+03;  1.0000000E-01;  7.2076973E+03;0;  0.0000000E+00;  0.0000000E+00;  0.0000000E+00;0; -6.5529637E-02;  4.0000000E+04;  0.0000000E+00;  0.0000000E+00;  4.0000000E+04;  0.0000000E+00;  4.0000000E+04; -6.6606760E-02;  0.0000000E+00;  1.0771262E-03;  1.1717017E+03;
 -2.9999999E-02;  9.9999998E-03; -7.9999998E-02;1582;  0.0000000E+00;  0.0000000E+00;  0.0000000E+00;  1.0087282E+03;  1.0000000E-01;  7.2312031E+03;0;  0.0000000E+00;  0.0000000E+00;  0.0000000E+00;0; -6.5100394E-02;  4.0000000E+04;  0.0000000E+00;  0.0000000E+00;  4.0000000E+04;  0.0000000E+00;  4.0000000E+04; -6.6175766E-02;  0.0000000E+00;  1.0753690E-03;  1.0683162E+03;
 -2.9999999E-02;  9.9999998E-03; -7.0000000E-02;1583;  0.0000000E+00;  0.0000000E+00;  0.0000000E+00;  1.0087404E+03;  1.0000000E-01;  7.2411777E+03;0;  0.0000000E+00;  0.0000000E+00;  0.0000000E+00;0; -6.4687185E-02;  4.0000000E+04;  0.0000000E+00;  0.0000000E+00;  4.0000000E+04;  0.0000000E+00;  4.0000000E+04; -6.5732010E-02;  0.0000000E+00;  1.0448276E-03;  1.0000536E+03;
 -2.9999999E-02;  9.9999998E-03; -5.9999999E-02;1584;  0.0000000E+00;  0.0000000E+00;  0.0000000E+00;  1.0087445E+03;  1.0000000E-01;  7.2446348E+03;0;  0.0000000E+00;  0.0000000E+00;  0.0000000E+00;0; -6.4319037E-02;  4.0000000E+04;  0.0000000E+00;  0.0000000E+00;  4.0000000E+04;  0.0000000E+00;  4.0000000E+04; -6.5307491E-02;  0.0000000E+00;  9.8845130E-04;  9.6614917E+02;
 -2.9999999E-02;  9.9999998E-03; -5.0000001E-02;1585;  0.0000000E+00;  0.0000000E+00;  0.0000000E+00;  1.0087443E+03;  1.0000000E-01;  7.2445356E+03;0;  0.0000000E+00;  0.0000000E+00;  0.0000000E+00;0; -6.4012252E-02;  4.0000000E+04;  0.0000000E+00;  0.0000000E+00;  4.0000000E+04;  0.0000000E+00;  4.0000000E+04; -6.4925626E-02;  0.0000000E+00;  9.1337762E-04;  9.6201959E+02;
 -2.9999999E-02;  9.9999998E-03; -3.9999999E-02;1586;  0.0000000E+00;  0.0000000E+00;  0.0000000E+00;  1.0087419E+03;  1.0000000E-01;  7.2425605E+03;0;  0.0000000E+00;  0.0000000E+00;  0.0000000E+00;0; -6.3772552E-02;  4.0000000E+04;  0.0000000E+00;  0.0000000E+00;  4.0000000E+04;  0.0000000E+00;  4.0000000E+04; -6.4602204E-02;  0.0000000E+00;  8.2965306E-04;  9.7968335E+02;
 -2.9999999E-02;  9.9999998E-03; -2.9999999E-02;1587;  0.0000000E+00;  0.0000000E+00;  0.0000000E+00;  1.0087391E+03;  1.0000000E-01;  7.2401904E+03;0;  0.0000000E+00;  0.0000000E+00;  0.0000000E+00;0; -6.3597627E-02;  4.0000000E+04;  0.0000000E+00;  0.0000000E+00;  4.0000000E+04;  0.0000000E+00;  4.0000000E+04; -6.4346261E-02;  0.0000000E+00;  7.4863568E-04;  1.0090590E+03;
 -2.9999999E-02;  9.9999998E-03; -2.0000000E-02;1588;  0.0000000E+00;  0.0000000E+00;  0.0000000E+00;  1.0087363E+03;  1.0000000E-01;  7.2378198E+03;0;  0.0000000E+00;  0.0000000E+00;  0.0000000E+00;0; -6.3480884E-02;  4.0000000E+04;  0.0000000E+00;  0.0000000E+00;  4.0000000E+04;  0.0000000E+00;  4.0000000E+04; -6.4162232E-02;  0.0000000E+00;  6.8134681E-04;  1.0395898E+03;
 -2.9999999E-02;  9.9999998E-03; -9.9999998E-03;1589;  0.0000000E+00;  0.0000000E+00;  0.0000000E+00;  1.0087348E+03;  1.0000000E-01;  7.2366348E+03;0;  0.0000000E+00;  0.0000000E+00;  0.0000000E+00;0; -6.3414745E-02;  4.0000000E+04;  0.0000000E+00;  0.0000000E+00;  4.0000000E+04;  0.0000000E+00;  4.0000000E+04; -6.4051680E-02;  0.0000000E+00;  6.3693442E-04;  1.0621024E+03;
 -2.9999999E-02;  9.9999998E-03;  0.0000000E+00;1590;  0.0000000E+00;  0.0000000E+00;  0.0000000E+00;  1.0087339E+03;  1.0000000E-01;  7.2359434E+03;0;  0.0000000E+00;  0.0000000E+00;  0.0000000E+00;0; -6.3393384E-02;  4.0000000E+04;  0.0000000E+00;  0.0000000E+00;  4.0000000E+04;  0.0000000E+00;  4.0000000E+04; -6.4014815E-02;  0.0000000E+00;  6.2142801E-04;  1.0703348E+03;
 -2.9999999E-02;  9.9999998E-03;  9.9999998E-03;1591;  0.0000000E+00;  0.0000000E+00;  0.0000000E+00;  1.0087348E+03;  1.0000000E-01;  7.2366348E+03;0;  0.0000000E+00;  0.0000000E+00;  0.0000000E+00;0; -6.3414723E-02;  4.0000000E+04;  0.0000000E+00;  0.0000000E+00;  4.0000000E+04;  0.0000000E+00;  4.0000000E+04; -6.4051658E-02;  0.0000000E+00;  6.3693337E-04;  1.0621035E+03;
 -2.9999999E-02;  9.9999998E-03;  2.0000000E-02;1592;  0.0000000E+00;  0.0000000E+00;  0.0000000E+00;  1.0087363E+03;  1.0000000E-01;  7.2378198E+03;0;  0.0000000E+00;  0.0000000E+00;  0.0000000E+00;0; -6.3480869E-02;  4.0000000E+04;  0.0000000E+00;  0.0000000E+00;  4.0000000E+04;  0.0000000E+00;  4.0000000E+04; -6.4162217E-02;  0.0000000E+00;  6.8134523E-04;  1.0395930E+03;
 -2.9999999E-02;  9.9999998E-03;  2.9999999E-02;1593;  0.0000000E+00;  0.0000000E+00;  0.0000000E+00;  1.0087391E+03;  1.0000000E-01;  7.2401904E+03;0;  0.0000000E+00;  0.0000000E+00;  0.0000000E+00;0; -6.3597664E-02;  4.0000000E+04;  0.0000000E+00;  0.0000000E+00;  4.0000000E+04;  0.0000000E+00;  4.0000000E+04; -6.4346299E-02;  0.0000000E+00;  7.4863381E-04;  1.0090645E+03;
 -2.9999999E-02;  9.9999998E-03;  3.9999999E-02;1594;  0.0000000E+00;  0.0000000E+00;  0.0000000E+00;  1.0087419E+03;  1.0000000E-01;  7.2425605E+03;0;  0.0000000E+00;  0.0000000E+00;  0.0000000E+00;0; -6.3772619E-02;  4.0000000E+04;  0.0000000E+00;  0.0000000E+00;  4.0000000E+04;  0.0000000E+00;  4.0000000E+04; -6.4602271E-02;  0.0000000E+00;  8.2965021E-04;  9.7968909E+02;
 -2.9999999E-02;  9.9999998E-03;  5.0000001E-02;1595;  0.0000000E+00;  0.0000000E+00;  0.0000000E+00;  1.0087443E+03;  1.0000000E-01;  7.2445356E+03;0;  0.0000000E+00;  0.0000000E+00;  0.0000000E+00;0; -6.4012282E-02;  4.0000000E+04;  0.0000000E+00;  0.0000000E+00;  4.0000000E+04;  0.0000000E+00;  4.0000000E+04; -6.4925656E-02;  0.0000000E+00;  9.1337413E-04;  9.6202948E+02;
 -2.9999999E-02;  9.9999998E-03;  5.9999999E-02;1596;  0.0000000E+00;  0.0000000E+00;  0.0000000E+00;  1.0087445E+03;  1.0000000E-01;  7.2446348E+03;0;  0.0000000E+00;  0.0000000E+00;  0.0000000E+00;0; -6.4319067E-02;  4.0000000E+04;  0.0000000E+00;  0.0000000E+00;  4.0000000E+04;  0.0000000E+00;  4.0000000E+04; -6.5307513E-02;  0.0000000E+00;  9.8844711E-04;  9.6615045E+02;
 -2.0000000E-02;  9.9999998E-03; -1.0000000E-01;1671;  0.0000000E+00;  0.0000000E+00;  0.0000000E+00;  1.0105793E+03;  1.0000000E-01;  8.7646904E+03;0;  0.0000000E+00;  0.0000000E+00;  0.0000000E+00;0; -7.9183459E-02;  4.0000000E+04;  0.0000000E+00;  0.0000000E+00;  4.0000000E+04;  0.0000000E+00;  4.0000000E+04; -8.0542371E-02;  0.0000000E+00;  1.3589103E-03;  1.3423383E+03;
 -2.0000000E-02;  9.9999998E-03; -9.0000004E-02;1672;  0.0000000E+00;  0.0000000E+00;  0.0000000E+00;  1.0106296E+03;  1.0000000E-01;  8.8064668E+03;0;  0.0000000E+00;  0.0000000E+00;  0.0000000E+00;0; -7.8640811E-02;  4.0000000E+04;  0.0000000E+00;  0.0000000E+00;  4.0000000E+04;  0.0000000E+00;  4.0000000E+04; -8.0049716E-02;  0.0000000E+00;  1.4089081E-03;  1.1839771E+03;
 -2.0000000E-02;  9.9999998E-03; -7.9999998E-02;1673;  0.0000000E+00;  0.0000000E+00;  0.0000000E+00;  1.0106570E+03;  1.0000000E-01;  8.8290840E+03;0;  0.0000000E+00;  0.0000000E+00;  0.0000000E+00;0; -7.8079619E-02;  4.0000000E+04;  0.0000000E+00;  0.0000000E+00;  4.0000000E+04;  0.0000000E+00;  4.0000000E+04; -7.9498865E-02;  0.0000000E+00;  1.4192433E-03;  1.0604406E+03;
 -2.0000000E-02;  9.9999998E-03; -7.0000000E-02;1674;  0.0000000E+00;  0.0000000E+00;  0.0000000E+00;  1.0106694E+03;  1.0000000E-01;  8.8393545E+03;0;  0.0000000E+00;  0.0000000E+00;  0.0000000E+00;0; -7.7549987E-02;  4.0000000E+04;  0.0000000E+00;  0.0000000E+00;  4.0000000E+04;  0.0000000E+00;  4.0000000E+04; -7.8937069E-02;  0.0000000E+00;  1.3870840E-03;  9.7575854E+02;
 -2.0000000E-02;  9.9999998E-03; -5.9999999E-02;1675;  0.0000000E+00;  0.0000000E+00;  0.0000000E+00;  1.0106714E+03;  1.0000000E-01;  8.8411328E+03;0;  0.0000000E+00;  0.0000000E+00;  0.0000000E+00;0; -7.7085577E-02;  4.0000000E+04;  0.0000000E+00;  0.0000000E+00;  4.0000000E+04;  0.0000000E+00;  4.0000000E+04; -7.8402229E-02;  0.0000000E+00;  1.3166487E-03;  9.3013214E+02;
 -2.0000000E-02;  9.9999998E-03; -5.0000001E-02;1676;  0.0000000E+00;  0.0000000E+00;  0.0000000E+00;  1.0106696E+03;  1.0000000E-01;  8.8395527E+03;0;  0.0000000E+00;  0.0000000E+00;  0.0000000E+00;0; -7.6703951E-02;  4.0000000E+04;  0.0000000E+00;  0.0000000E+00;  4.0000000E+04;  0.0000000E+00;  4.0000000E+04; -7.7922046E-02;  0.0000000E+00;  1.2180982E-03;  9.1916882E+02;
 -2.0000000E-02;  9.9999998E-03; -3.9999999E-02;1677;  0.0000000E+00;  0.0000000E+00;  0.0000000E+00;  1.0106640E+03;  1.0000000E-01;  8.8349102E+03;0;  0.0000000E+00;  0.0000000E+00;  0.0000000E+00;0; -7.6409727E-02;  4.0000000E+04;  0.0000000E+00;  0.0000000E+00;  4.0000000E+04;  0.0000000E+00;  4.0000000E+04; -7.7515446E-02;  0.0000000E+00;  1.1057153E-03;  9.3427332E+02;
 -2.0000000E-02;  9.9999998E-03; -2.9999999E-02;1678;  0.0000000E+00;  0.0000000E+00;  0.0000000E+00;  1.0106592E+03;  1.0000000E-01;  8.8309600E+03;0;  0.0000000E+00;  0.0000000E+00;  0.0000000E+00;0; -7.6197669E-02;  4.0000000E+04;  0.0000000E+00;  0.0000000E+00;  4.0000000E+04;  0.0000000E+00;  4.0000000E+04; -7.7193342E-02;  0.0000000E+00;  9.9566951E-04;  9.6410846E+02;
 -2.0000000E-02;  9.9999998E-03; -2.0000000E-02;1679;  0.0000000E+00;  0.0000000E+00;  0.0000000E+00;  1.0106550E+03;  1.0000000E-01;  8.8275039E+03;0;  0.0000000E+00;  0.0000000E+00;  0.0000000E+00;0; -7.6057933E-02;  4.0000000E+04;  0.0000000E+00;  0.0000000E+00;  4.0000000E+04;  0.0000000E+00;  4.0000000E+04; -7.6961584E-02;  0.0000000E+00;  9.0365042E-04;  9.9653223E+02;
 -2.0000000E-02;  9.9999998E-03; -9.9999998E-03;1680;  0.0000000E+00;  0.0000000E+00;  0.0000000E+00;  1.0106529E+03;  1.0000000E-01;  8.8257256E+03;0;  0.0000000E+00;  0.0000000E+00;  0.0000000E+00;0; -7.5979583E-02;  4.0000000E+04;  0.0000000E+00;  0.0000000E+00;  4.0000000E+04;  0.0000000E+00;  4.0000000E+04; -7.6822266E-02;  0.0000000E+00;  8.4268587E-04;  1.0208919E+03;
 -2.0000000E-02;  9.9999998E-03;  0.0000000E+00;1681;  0.0000000E+00;  0.0000000E+00;  0.0000000E+00;  1.0106520E+03;  1.0000000E-01;  8.8250342E+03;0;  0.0000000E+00;  0.0000000E+00;  0.0000000E+00;0; -7.5954296E-02;  4.0000000E+04;  0.0000000E+00;  0.0000000E+00;  4.0000000E+04;  0.0000000E+00;  4.0000000E+04; -7.6775663E-02;  0.0000000E+00;  8.2136592E-04;  1.0298693E+03;
 -2.0000000E-02;  9.9999998E-03;  9.9999998E-03;1682;  0.0000000E+00;  0.0000000E+00;  0.0000000E+00;  1.0106529E+03;  1.0000000E-01;  8.8257256E+03;0;  0.0000000E+00;  0.0000000E+00;  0.0000000E+00;0; -7.5979516E-02;  4.0000000E+04;  0.0000000E+00;  0.0000000E+00;  4.0000000E+04;  0.0000000E+00;  4.0000000E+04; -7.6822199E-02;  0.0000000E+00;  8.4268540E-04;  1.0208941E+03;
 -2.0000000E-02;  9.9999998E-03;  2.0000000E-02;1683;  0.0000000E+00;  0.0000000E+00;  0.0000000E+00;  1.0106550E+03;  1.0000000E-01;  8.8275039E+03;0;  0.0000000E+00;  0.0000000E+00;  0.0000000E+00;0; -7.6057889E-02;  4.0000000E+04;  0.0000000E+00;  0.0000000E+00;  4.0000000E+04;  0.0000000E+00;  4.0000000E+04; -7.6961540E-02;  0.0000000E+00;  9.0364873E-04;  9.9653668E+02;
 -2.0000000E-02;  9.9999998E-03;  2.9999999E-02;1684;  0.0000000E+00;  0.0000000E+00;  0.0000000E+00;  1.0106592E+03;  1.0000000E-01;  8.8309600E+03;0;  0.0000000E+00;  0.0000000E+00;  0.0000000E+00;0; -7.6197758E-02;  4.0000000E+04;  0.0000000E+00;  0.0000000E+00;  4.0000000E+04;  0.0000000E+00;  4.0000000E+04; -7.7193424E-02;  0.0000000E+00;  9.9566614E-04;  9.6411792E+02;
 -2.0000000E-02;  9.9999998E-03;  3.9999999E-02;1685;  0.0000000E+00;  0.0000000E+00;  0.0000000E+00;  1.0106639E+03;  1.0000000E-01;  8.8349102E+03;0;  0.0000000E+00;  0.0000000E+00;  0.0000000E+00;0; -7.6409712E-02;  4.0000000E+04;  0.0000000E+00;  0.0000000E+00;  4.0000000E+04;  0.0000000E+00;  4.0000000E+04; -7.7515423E-02;  0.0000000E+00;  1.1057121E-03;  9.3427844E+02;
 -2.0000000E-02;  9.9999998E-03;  5.0000001E-02;1686;  0.0000000E+00;  0.0000000E+00;  0.0000000E+00;  1.0106696E+03;  1.0000000E-01;  8.8395527E+03;0;  0.0000000E+00;  0.0000000E+00;  0.0000000E+00;0; -7.6704033E-02;  4.0000000E+04;  0.0000000E+00;  0.0000000E+00;  4.0000000E+04;  0.0000000E+00;  4.0000000E+04; -7.7922128E-02;  0.0000000E+00;  1.2180934E-03;  9.1917389E+02;
 -2.0000000E-02;  9.9999998E-03;  5.9999999E-02;1687;  0.0000000E+00;  0.0000000E+00;  0.0000000E+00;  1.0106714E+03;  1.0000000E-01;  8.8411328E+03;0;  0.0000000E+00;  0.0000000E+00;  0.0000000E+00;0; -7.7085584E-02;  4.0000000E+04;  0.0000000E+00;  0.0000000E+00;  4.0000000E+04;  0.0000000E+00;  4.0000000E+04; -7.8402229E-02;  0.0000000E+00;  1.3166434E-03;  9.3013794E+02;
 -9.9999998E-03;  9.9999998E-03; -1.0000000E-01;1762;  0.0000000E+00;  0.0000000E+00;  0.0000000E+00;  1.0125120E+03;  1.0000000E-01;  1.0365929E+04;0;  0.0000000E+00;  0.0000000E+00;  0.0000000E+00;0; -9.1707587E-02;  4.0000000E+04;  0.0000000E+00;  0.0000000E+00;  4.0000000E+04;  0.0000000E+00;  4.0000000E+04; -9.3402661E-02;  0.0000000E+00;  1.6950744E-03;  1.2957389E+03;
 -9.9999998E-03;  9.9999998E-03; -9.0000004E-02;1763;  0.0000000E+00;  0.0000000E+00;  0.0000000E+00;  1.0125626E+03;  1.0000000E-01;  1.0407903E+04;0;  0.0000000E+00;  0.0000000E+00;  0.0000000E+00;0; -9.1001153E-02;  4.0000000E+04;  0.0000000E+00;  0.0000000E+00;  4.0000000E+04;  0.0000000E+00;  4.0000000E+04; -9.2781410E-02;  0.0000000E+00;  1.7802586E-03;  1.1185557E+03;
 -9.9999998E-03;  9.9999998E-03; -7.9999998E-02;1764;  0.0000000E+00;  0.0000000E+00;  0.0000000E+00;  1.0125895E+03;  1.0000000E-01;  1.0430224E+04;0;  0.0000000E+00;  0.0000000E+00;  0.0000000E+00;0; -9.0291031E-02;  4.0000000E+04;  0.0000000E+00;  0.0000000E+00;  4.0000000E+04;  0.0000000E+00;  4.0000000E+04; -9.2099942E-02;  0.0000000E+00;  1.8089117E-03;  9.7574506E+02;
 -9.9999998E-03;  9.9999998E-03; -7.0000000E-02;1765;  0.0000000E+00;  0.0000000E+00;  0.0000000E+00;  1.0125964E+03;  1.0000000E-01;  1.0435952E+04;0;  0.0000000E+00;  0.0000000E+00;  0.0000000E+00;0; -8.9634478E-02;  4.0000000E+04;  0.0000000E+00;  0.0000000E+00;  4.0000000E+04;  0.0000000E+00;  4.0000000E+04; -9.1411725E-02;  0.0000000E+00;  1.7772439E-03;  8.7349872E+02;
 -9.9999998E-03;  9.9999998E-03; -5.9999999E-02;1766;  0.0000000E+00;  0.0000000E+00;  0.0000000E+00;  1.0125941E+03;  1.0000000E-01;  1.0433977E+04;0;  0.0000000E+00;  0.0000000E+00;  0.0000000E+00;0; -8.9068890E-02;  4.0000000E+04;  0.0000000E+00;  0.0000000E+00;  4.0000000E+04;  0.0000000E+00;  4.0000000E+04; -9.0760022E-02;  0.0000000E+00;  1.6911342E-03;  8.1371344E+02;
 -9.9999998E-03;  9.9999998E-03; -5.0000001E-02;1767;  0.0000000E+00;  0.0000000E+00;  0.0000000E+00;  1.0125865E+03;  1.0000000E-01;  1.0427655E+04;0;  0.0000000E+00;  0.0000000E+00;  0.0000000E+00;0; -8.8611670E-02;  4.0000000E+04;  0.0000000E+00;  0.0000000E+00;  4.0000000E+04;  0.0000000E+00;  4.0000000E+04; -9.0176307E-02;  0.0000000E+00;  1.5646347E-03;  7.9288861E+02;
 -9.9999998E-03;  9.9999998E-03; -3.9999999E-02;1768;  0.0000000E+00;  0.0000000E+00;  0.0000000E+00;  1.0125789E+03;  1.0000000E-01;  1.0421434E+04;0;  0.0000000E+00;  0.0000000E+00;  0.0000000E+00;0; -8.8264666E-02;  4.0000000E+04;  0.0000000E+00;  0.0000000E+00;  4.0000000E+04;  0.0000000E+00;  4.0000000E+04; -8.9682110E-02;  0.0000000E+00;  1.4174432E-03;  8.0242175E+02;
 -9.9999998E-03;  9.9999998E-03; -2.9999999E-02;1769;  0.0000000E+00;  0.0000000E+00;  0.0000000E+00;  1.0125731E+03;  1.0000000E-01;  1.0416495E+04;0;  0.0000000E+00;  0.0000000E+00;  0.0000000E+00;0; -8.8018768E-02;  4.0000000E+04;  0.0000000E+00;  0.0000000E+00;  4.0000000E+04;  0.0000000E+00;  4.0000000E+04; -8.9290597E-02;  0.0000000E+00;  1.2718313E-03;  8.3010492E+02;
 -9.9999998E-03;  9.9999998E-03; -2.0000000E-02;1770;  0.0000000E+00;  0.0000000E+00;  0.0000000E+00;  1.0125676E+03;  1.0000000E-01;  1.0412051E+04;0;  0.0000000E+00;  0.0000000E+00;  0.0000000E+00;0; -8.7859310E-02;  4.0000000E+04;  0.0000000E+00;  0.0000000E+00;  4.0000000E+04;  0.0000000E+00;  4.0000000E+04; -8.9008704E-02;  0.0000000E+00;  1.1493939E-03;  8.6246338E+02;
 -9.9999998E-03;  9.9999998E-03; -9.9999998E-03;1771;  0.0000000E+00;  0.0000000E+00;  0.0000000E+00;  1.0125632E+03;  1.0000000E-01;  1.0408397E+04;0;  0.0000000E+00;  0.0000000E+00;  0.0000000E+00;0; -8.7770902E-02;  4.0000000E+04;  0.0000000E+00;  0.0000000E+00;  4.0000000E+04;  0.0000000E+00;  4.0000000E+04; -8.8838935E-02;  0.0000000E+00;  1.0680319E-03;  8.8746295E+02;
 -9.9999998E-03;  9.9999998E-03;  0.0000000E+00;1772;  0.0000000E+00;  0.0000000E+00;  0.0000000E+00;  1.0125623E+03;  1.0000000E-01;  1.0407606E+04;0;  0.0000000E+00;  0.0000000E+00;  0.0000000E+00;0; -8.7742627E-02;  4.0000000E+04;  0.0000000E+00;  0.0000000E+00;  4.0000000E+04;  0.0000000E+00;  4.0000000E+04; -8.8782169E-02;  0.0000000E+00;  1.0395421E-03;  8.9677838E+02;
 -9.9999998E-03;  9.9999998E-03;  9.9999998E-03;1773;  0.0000000E+00;  0.0000000E+00;  0.0000000E+00;  1.0125632E+03;  1.0000000E-01;  1.0408397E+04;0;  0.0000000E+00;  0.0000000E+00;  0.0000000E+00;0; -8.7770991E-02;  4.0000000E+04;  0.0000000E+00;  0.0000000E+00;  4.0000000E+04;  0.0000000E+00;  4.0000000E+04; -8.8839024E-02;  0.0000000E+00;  1.0680325E-03;  8.8746814E+02;
 -9.9999998E-03;  9.9999998E-03;  2.0000000E-02;1774;  0.0000000E+00;  0.0000000E+00;  0.0000000E+00;  1.0125676E+03;  1.0000000E-01;  1.0412051E+04;0;  0.0000000E+00;  0.0000000E+00;  0.0000000E+00;0; -8.7859266E-02;  4.0000000E+04;  0.0000000E+00;  0.0000000E+00;  4.0000000E+04;  0.0000000E+00;  4.0000000E+04; -8.9008659E-02;  0.0000000E+00;  1.1493918E-03;  8.6247107E+02;
 -9.9999998E-03;  9.9999998E-03;  2.9999999E-02;1775;  0.0000000E+00;  0.0000000E+00;  0.0000000E+00;  1.0125731E+03;  1.0000000E-01;  1.0416495E+04;0;  0.0000000E+00;  0.0000000E+00;  0.0000000E+00;0; -8.8018835E-02;  4.0000000E+04;  0.0000000E+00;  0.0000000E+00;  4.0000000E+04;  0.0000000E+00;  4.0000000E+04; -8.9290664E-02;  0.0000000E+00;  1.2718291E-03;  8.3011511E+02;
 -9.9999998E-03;  9.9999998E-03;  3.9999999E-02;1776;  0.0000000E+00;  0.0000000E+00;  0.0000000E+00;  1.0125789E+03;  1.0000000E-01;  1.0421434E+04;0;  0.0000000E+00;  0.0000000E+00;  0.0000000E+00;0; -8.8264711E-02;  4.0000000E+04;  0.0000000E+00;  0.0000000E+00;  4.0000000E+04;  0.0000000E+00;  4.0000000E+04; -8.9682154E-02;  0.0000000E+00;  1.4174395E-03;  8.0243188E+02;
 -9.9999998E-03;  9.9999998E-03;  5.0000001E-02;1777;  0.0000000E+00;  0.0000000E+00;  0.0000000E+00;  1.0125865E+03;  1.0000000E-01;  1.0427655E+04;0;  0.0000000E+00;  0.0000000E+00;  0.0000000E+00;0; -8.8611677E-02;  4.0000000E+04;  0.0000000E+00;  0.0000000E+00;  4.0000000E+04;  0.0000000E+00;  4.0000000E+04; -9.0176307E-02;  0.0000000E+00;  1.5646303E-03;  7.9289667E+02;
 -9.9999998E-03;  9.9999998E-03;  5.9999999E-02;1778;  0.0000000E+00;  0.0000000E+00;  0.0000000E+00;  1.0125941E+03;  1.0000000E-01;  1.0433977E+04;0;  0.0000000E+00;  0.0000000E+00;  0.0000000E+00;0; -8.9068763E-02;  4.0000000E+04;  0.0000000E+00;  0.0000000E+00;  4.0000000E+04;  0.0000000E+00;  4.0000000E+04; -9.0759888E-02;  0.0000000E+00;  1.6911288E-03;  8.1372333E+02;
 -1.9000000E-01;  9.9999998E-03;  7.0000000E-02;141;  0.0000000E+00;  0.0000000E+00;  0.0000000E+00;  1.0000000E+03;  1.0000000E-01;  0.0000000E+00;0;  0.0000000E+00;  0.0000000E+00;  0.0000000E+00;0;  0.0000000E+00;  4.0000000E+04;  0.0000000E+00;  0.0000000E+00;  4.0000000E+04;  0.0000000E+00;  4.0000000E+04;  0.0000000E+00;  0.0000000E+00;  0.0000000E+00;  0.0000000E+00;
 -1.9000000E-01;  9.9999998E-03;  7.9999998E-02;142;  0.0000000E+00;  0.0000000E+00;  0.0000000E+00;  1.0000000E+03;  1.0000000E-01;  0.0000000E+00;0;  0.0000000E+00;  0.0000000E+00;  0.0000000E+00;0;  0.0000000E+00;  4.0000000E+04;  0.0000000E+00;  0.0000000E+00;  4.0000000E+04;  0.0000000E+00;  4.0000000E+04;  0.0000000E+00;  0.0000000E+00;  0.0000000E+00;  0.0000000E+00;
 -1.9000000E-01;  9.9999998E-03;  9.0000004E-02;143;  0.0000000E+00;  0.0000000E+00;  0.0000000E+00;  1.0000000E+03;  1.0000000E-01;  0.0000000E+00;0;  0.0000000E+00;  0.0000000E+00;  0.0000000E+00;0;  0.0000000E+00;  4.0000000E+04;  0.0000000E+00;  0.0000000E+00;  4.0000000E+04;  0.0000000E+00;  4.0000000E+04;  0.0000000E+00;  0.0000000E+00;  0.0000000E+00;  0.0000000E+00;
 -1.9000000E-01;  9.9999998E-03;  1.0000000E-01;144;  0.0000000E+00;  0.0000000E+00;  0.0000000E+00;  1.0000000E+03;  1.0000000E-01;  0.0000000E+00;0;  0.0000000E+00;  0.0000000E+00;  0.0000000E+00;0;  0.0000000E+00;  4.0000000E+04;  0.0000000E+00;  0.0000000E+00;  4.0000000E+04;  0.0000000E+00;  4.0000000E+04;  0.0000000E+00;  0.0000000E+00;  0.0000000E+00;  0.0000000E+00;
 -1.9000000E-01;  9.9999998E-03;  1.1000000E-01;145;  0.0000000E+00;  0.0000000E+00;  0.0000000E+00;  1.0000000E+03;  1.0000000E-01;  0.0000000E+00;0;  0.0000000E+00;  0.0000000E+00;  0.0000000E+00;0;  0.0000000E+00;  4.0000000E+04;  0.0000000E+00;  0.0000000E+00;  4.0000000E+04;  0.0000000E+00;  4.0000000E+04;  0.0000000E+00;  0.0000000E+00;  0.0000000E+00;  0.0000000E+00;
 -1.9000000E-01;  9.9999998E-03;  1.2000000E-01;146;  0.0000000E+00;  0.0000000E+00;  0.0000000E+00;  1.0000000E+03;  1.0000000E-01;  0.0000000E+00;0;  0.0000000E+00;  0.0000000E+00;  0.0000000E+00;0;  0.0000000E+00;  4.0000000E+04;  0.0000000E+00;  0.0000000E+00;  4.0000000E+04;  0.0000000E+00;  4.0000000E+04;  0.0000000E+00;  0.0000000E+00;  0.0000000E+00;  0.0000000E+00;
 -1.9000000E-01;  9.9999998E-03;  1.3000000E-01;147;  0.0000000E+00;  0.0000000E+00;  0.0000000E+00;  1.0000000E+03;  1.0000000E-01;  0.0000000E+00;0;  0.0000000E+00;  0.0000000E+00;  0.0000000E+00;0;  0.0000000E+00;  4.0000000E+04;  0.0000000E+00;  0.0000000E+00;  4.0000000E+04;  0.0000000E+00;  4.0000000E+04;  0.0000000E+00;  0.0000000E+00;  0.0000000E+00;  0.0000000E+00;
 -1.9000000E-01;  9.9999998E-03;  1.4000000E-01;148;  0.0000000E+00;  0.0000000E+00;  0.0000000E+00;  1.0000000E+03;  1.0000000E-01;  0.0000000E+00;0;  0.0000000E+00;  0.0000000E+00;  0.0000000E+00;0;  0.0000000E+00;  4.0000000E+04;  0.0000000E+00;  0.0000000E+00;  4.0000000E+04;  0.0000000E+00;  4.0000000E+04;  0.0000000E+00;  0.0000000E+00;  0.0000000E+00;  0.0000000E+00;
 -1.9000000E-01;  9.9999998E-03;  1.5000001E-01;149;  0.0000000E+00;  0.0000000E+00;  0.0000000E+00;  1.0000000E+03;  1.0000000E-01;  0.0000000E+00;0;  0.0000000E+00;  0.0000000E+00;  0.0000000E+00;0;  0.0000000E+00;  4.0000000E+04;  0.0000000E+00;  0.0000000E+00;  4.0000000E+04;  0.0000000E+00;  4.0000000E+04;  0.0000000E+00;  0.0000000E+00;  0.0000000E+00;  0.0000000E+00;
 -1.9000000E-01;  9.9999998E-03;  1.6000000E-01;150;  0.0000000E+00;  0.0000000E+00;  0.0000000E+00;  1.0000000E+03;  1.0000000E-01;  0.0000000E+00;0;  0.0000000E+00;  0.0000000E+00;  0.0000000E+00;0;  0.0000000E+00;  4.0000000E+04;  0.0000000E+00;  0.0000000E+00;  4.0000000E+04;  0.0000000E+00;  4.0000000E+04;  0.0000000E+00;  0.0000000E+00;  0.0000000E+00;  0.0000000E+00;
 -1.9000000E-01;  9.9999998E-03;  1.7000000E-01;151;  0.0000000E+00;  0.0000000E+00;  0.0000000E+00;  1.0000000E+03;  1.0000000E-01;  0.0000000E+00;0;  0.0000000E+00;  0.0000000E+00;  0.0000000E+00;0;  0.0000000E+00;  4.0000000E+04;  0.0000000E+00;  0.0000000E+00;  4.0000000E+04;  0.0000000E+00;  4.0000000E+04;  0.0000000E+00;  0.0000000E+00;  0.0000000E+00;  0.0000000E+00;
 -1.9000000E-01;  9.9999998E-03;  1.8000001E-01;152;  0.0000000E+00;  0.0000000E+00;  0.0000000E+00;  1.0000000E+03;  1.0000000E-01;  0.0000000E+00;0;  0.0000000E+00;  0.0000000E+00;  0.0000000E+00;0;  0.0000000E+00;  4.0000000E+04;  0.0000000E+00;  0.0000000E+00;  4.0000000E+04;  0.0000000E+00;  4.0000000E+04;  0.0000000E+00;  0.0000000E+00;  0.0000000E+00;  0.0000000E+00;
 -1.9000000E-01;  9.9999998E-03;  1.9000000E-01;153;  0.0000000E+00;  0.0000000E+00;  0.0000000E+00;  1.0000000E+03;  1.0000000E-01;  0.0000000E+00;0;  0.0000000E+00;  0.0000000E+00;  0.0000000E+00;0;  0.0000000E+00;  4.0000000E+04;  0.0000000E+00;  0.0000000E+00;  4.0000000E+04;  0.0000000E+00;  4.0000000E+04;  0.0000000E+00;  0.0000000E+00;  0.0000000E+00;  0.0000000E+00;
 -1.9000000E-01;  9.9999998E-03;  2.0000000E-01;154;  0.0000000E+00;  0.0000000E+00;  0.0000000E+00;  1.0000000E+03;  1.0000000E-01;  0.0000000E+00;0;  0.0000000E+00;  0.0000000E+00;  0.0000000E+00;0;  0.0000000E+00;  4.0000000E+04;  0.0000000E+00;  0.0000000E+00;  4.0000000E+04;  0.0000000E+00;  4.0000000E+04;  0.0000000E+00;  0.0000000E+00;  0.0000000E+00;  0.0000000E+00;
 -1.9000000E-01;  9.9999998E-03;  2.0999999E-01;155;  0.0000000E+00;  0.0000000E+00;  0.0000000E+00;  1.0000000E+03;  1.0000000E-01;  0.0000000E+00;0;  0.0000000E+00;  0.0000000E+00;  0.0000000E+00;0;  0.0000000E+00;  4.0000000E+04;  0.0000000E+00;  0.0000000E+00;  4.0000000E+04;  0.0000000E+00;  4.0000000E+04;  0.0000000E+00;  0.0000000E+00;  0.0000000E+00;  0.0000000E+00;
 -1.9000000E-01;  9.9999998E-03;  2.2000000E-01;156;  0.0000000E+00;  0.0000000E+00;  0.0000000E+00;  1.0000000E+03;  1.0000000E-01;  0.0000000E+00;0;  0.0000000E+00;  0.0000000E+00;  0.0000000E+00;0;  0.0000000E+00;  4.0000000E+04;  0.0000000E+00;  0.0000000E+00;  4.0000000E+04;  0.0000000E+00;  4.0000000E+04;  0.0000000E+00;  0.0000000E+00;  0.0000000E+00;  0.0000000E+00;
 -1.9000000E-01;  9.9999998E-03;  2.3000000E-01;157;  0.0000000E+00;  0.0000000E+00;  0.0000000E+00;  1.0000000E+03;  1.0000000E-01;  0.0000000E+00;0;  0.0000000E+00;  0.0000000E+00;  0.0000000E+00;0;  0.0000000E+00;  4.0000000E+04;  0.0000000E+00;  0.0000000E+00;  4.0000000E+04;  0.0000000E+00;  4.0000000E+04;  0.0000000E+00;  0.0000000E+00;  0.0000000E+00;  0.0000000E+00;
 -1.8000001E-01;  9.9999998E-03;  7.0000000E-02;232;  0.0000000E+00;  0.0000000E+00;  0.0000000E+00;  1.0000000E+03;  1.0000000E-01;  0.0000000E+00;0;  0.0000000E+00;  0.0000000E+00;  0.0000000E+00;0;  0.0000000E+00;  4.0000000E+04;  0.0000000E+00;  0.0000000E+00;  4.0000000E+04;  0.0000000E+00;  4.0000000E+04;  0.0000000E+00;  0.0000000E+00;  0.0000000E+00;  0.0000000E+00;
 -1.8000001E-01;  9.9999998E-03;  7.9999998E-02;233;  0.0000000E+00;  0.0000000E+00;  0.0000000E+00;  1.0000000E+03;  1.0000000E-01;  0.0000000E+00;0;  0.0000000E+00;  0.0000000E+00;  0.0000000E+00;0;  0.0000000E+00;  4.0000000E+04;  0.0000000E+00;  0.0000000E+00;  4.0000000E+04;  0.0000000E+00;  4.0000000E+04;  0.0000000E+00;  0.0000000E+00;  0.0000000E+00;  0.0000000E+00;
 -1.8000001E-01;  9.9999998E-03;  9.0000004E-02;234;  0.0000000E+00;  0.0000000E+00;  0.0000000E+00;  1.0000000E+03;  1.0000000E-01;  0.0000000E+00;0;  0.0000000E+00;  0.0000000E+00;  0.0000000E+00;0;  0.0000000E+00;  4.0000000E+04;  0.0000000E+00;  0.0000000E+00;  4.0000000E+04;  0.0000000E+00;  4.0000000E+04;  0.0000000E+00;  0.0000000E+00;  0.0000000E+00;  0.0000000E+00;
 -1.8000001E-01;  9.9999998E-03;  1.0000000E-01;235;  0.0000000E+00;  0.0000000E+00;  0.0000000E+00;  1.0000000E+03;  1.0000000E-01;  0.0000000E+00;0;  0.0000000E+00;  0.0000000E+00;  0.0000000E+00;0;  0.0000000E+00;  4.0000000E+04;  0.0000000E+00;  0.0000000E+00;  4.0000000E+04;  0.0000000E+00;  4.0000000E+04;  0.0000000E+00;  0.0000000E+00;  0.0000000E+00;  0.0000000E+00;
 -1.8000001E-01;  9.9999998E-03;  1.1000000E-01;236;  0.0000000E+00;  0.0000000E+00;  0.0000000E+00;  1.0000000E+03;  1.0000000E-01;  0.0000000E+00;0;  0.0000000E+00;  0.0000000E+00;  0.0000000E+00;0;  0.0000000E+00;  4.0000000E+04;  0.0000000E+00;  0.0000000E+00;  4.0000000E+04;  0.0000000E+00;  4.0000000E+04;  0.0000000E+00;  0.0000000E+00;  0.0000000E+00;  0.0000000E+00;
 -1.8000001E-01;  9.9999998E-03;  1.2000000E-01;237;  0.0000000E+00;  0.0000000E+00;  0.0000000E+00;  1.0000000E+03;  1.0000000E-01;  0.0000000E+00;0;  0.0000000E+00;  0.0000000E+00;  0.0000000E+00;0;  0.0000000E+00;  4.0000000E+04;  0.0000000E+00;  0.0000000E+00;  4.0000000E+04;  0.0000000E+00;  4.0000000E+04;  0.0000000E+00;  0.0000000E+00;  0.0000000E+00;  0.0000000E+00;
 -1.8000001E-01;  9.9999998E-03;  1.3000000E-01;238;  0.0000000E+00;  0.0000000E+00;  0.0000000E+00;  1.0000000E+03;  1.0000000E-01;  0.0000000E+00;0;  0.0000000E+00;  0.0000000E+00;  0.0000000E+00;0;  0.0000000E+00;  4.0000000E+04;  0.0000000E+00;  0.0000000E+00;  4.0000000E+04;  0.0000000E+00;  4.0000000E+04;  0.0000000E+00;  0.0000000E+00;  0.0000000E+00;  0.0000000E+00;
 -1.8000001E-01;  9.9999998E-03;  1.4000000E-01;239;  0.0000000E+00;  0.0000000E+00;  0.0000000E+00;  1.0000000E+03;  1.0000000E-01;  0.0000000E+00;0;  0.0000000E+00;  0.0000000E+00;  0.0000000E+00;0;  0.0000000E+00;  4.0000000E+04;  0.0000000E+00;  0.0000000E+00;  4.0000000E+04;  0.0000000E+00;  4.0000000E+04;  0.0000000E+00;  0.0000000E+00;  0.0000000E+00;  0.0000000E+00;
 -1.8000001E-01;  9.9999998E-03;  1.5000001E-01;240;  0.0000000E+00;  0.0000000E+00;  0.0000000E+00;  1.0000000E+03;  1.0000000E-01;  0.0000000E+00;0;  0.0000000E+00;  0.0000000E+00;  0.0000000E+00;0;  0.0000000E+00;  4.0000000E+04;  0.0000000E+00;  0.0000000E+00;  4.0000000E+04;  0.0000000E+00;  4.0000000E+04;  0.0000000E+00;  0.0000000E+00;  0.0000000E+00;  0.0000000E+00;
 -1.8000001E-01;  9.9999998E-03;  1.6000000E-01;241;  0.0000000E+00;  0.0000000E+00;  0.0000000E+00;  1.0000000E+03;  1.0000000E-01;  0.0000000E+00;0;  0.0000000E+00;  0.0000000E+00;  0.0000000E+00;0;  0.0000000E+00;  4.0000000E+04;  0.0000000E+00;  0.0000000E+00;  4.0000000E+04;  0.0000000E+00;  4.0000000E+04;  0.0000000E+00;  0.0000000E+00;  0.0000000E+00;  0.0000000E+00;
 -1.8000001E-01;  9.9999998E-03;  1.7000000E-01;242;  0.0000000E+00;  0.0000000E+00;  0.0000000E+00;  1.0000000E+03;  1.0000000E-01;  0.0000000E+00;0;  0.0000000E+00;  0.0000000E+00;  0.0000000E+00;0;  0.0000000E+00;  4.0000000E+04;  0.0000000E+00;  0.0000000E+00;  4.0000000E+04;  0.0000000E+00;  4.0000000E+04;  0.0000000E+00;  0.0000000E+00;  0.0000000E+00;  0.0000000E+00;
 -1.8000001E-01;  9.9999998E-03;  1.8000001E-01;243;  0.0000000E+00;  0.0000000E+00;  0.0000000E+00;  1.0000000E+03;  1.0000000E-01;  0.0000000E+00;0;  0.0000000E+00;  0.0000000E+00;  0.0000000E+00;0;  0.0000000E+00;  4.0000000E+04;  0.0000000E+00;  0.0000000E+00;  4.0000000E+04;  0.0000000E+00;  4.0000000E+04;  0.0000000E+00;  0.0000000E+00;  0.0000000E+00;  0.0000000E+00;
 -1.8000001E-01;  9.9999998E-03;  1.9000000E-01;244;  0.0000000E+00;  0.0000000E+00;  0.0000000E+00;  1.0000000E+03;  1.0000000E-01;  0.0000000E+00;0;  0.0000000E+00;  0.0000000E+00;  0.0000000E+00;0;  0.0000000E+00;  4.0000000E+04;  0.0000000E+00;  0.0000000E+00;  4.0000000E+04;  0.0000000E+00;  4.0000000E+04;  0.0000000E+00;  0.0000000E+00;  0.0000000E+00;  0.0000000E+00;
 -1.8000001E-01;  9.9999998E-03;  2.0000000E-01;245;  0.0000000E+00;  0.0000000E+00;  0.0000000E+00;  1.0000000E+03;  1.0000000E-01;  0.0000000E+00;0;  0.0000000E+00;  0.0000000E+00;  0.0000000E+00;0;  0.0000000E+00;  4.0000000E+04;  0.0000000E+00;  0.0000000E+00;  4.0000000E+04;  0.0000000E+00;  4.0000000E+04;  0.0000000E+00;  0.0000000E+00;  0.0000000E+00;  0.0000000E+00;
 -1.8000001E-01;  9.9999998E-03;  2.0999999E-01;246;  0.0000000E+00;  0.0000000E+00;  0.0000000E+00;  1.0000000E+03;  1.0000000E-01;  0.0000000E+00;0;  0.0000000E+00;  0.0000000E+00;  0.0000000E+00;0;  0.0000000E+00;  4.0000000E+04;  0.0000000E+00;  0.0000000E+00;  4.0000000E+04;  0.0000000E+00;  4.0000000E+04;  0.0000000E+00;  0.0000000E+00;  0.0000000E+00;  0.0000000E+00;
 -1.8000001E-01;  9.9999998E-03;  2.2000000E-01;247;  0.0000000E+00;  0.0000000E+00;  0.0000000E+00;  1.0000000E+03;  1.0000000E-01;  0.0000000E+00;0;  0.0000000E+00;  0.0000000E+00;  0.0000000E+00;0;  0.0000000E+00;  4.0000000E+04;  0.0000000E+00;  0.0000000E+00;  4.0000000E+04;  0.0000000E+00;  4.0000000E+04;  0.0000000E+00;  0.0000000E+00;  0.0000000E+00;  0.0000000E+00;
 -1.8000001E-01;  9.9999998E-03;  2.3000000E-01;248;  0.0000000E+00;  0.0000000E+00;  0.0000000E+00;  1.0000000E+03;  1.0000000E-01;  0.0000000E+00;0;  0.0000000E+00;  0.0000000E+00;  0.0000000E+00;0;  0.0000000E+00;  4.0000000E+04;  0.0000000E+00;  0.0000000E+00;  4.0000000E+04;  0.0000000E+00;  4.0000000E+04;  0.0000000E+00;  0.0000000E+00;  0.0000000E+00;  0.0000000E+00;
 -1.7000000E-01;  9.9999998E-03;  7.0000000E-02;323;  0.0000000E+00;  0.0000000E+00;  0.0000000E+00;  1.0000000E+03;  1.0000000E-01;  0.0000000E+00;0;  0.0000000E+00;  0.0000000E+00;  0.0000000E+00;0;  0.0000000E+00;  4.0000000E+04;  0.0000000E+00;  0.0000000E+00;  4.0000000E+04;  0.0000000E+00;  4.0000000E+04;  0.0000000E+00;  0.0000000E+00;  0.0000000E+00;  2.0677076E-09;
 -1.7000000E-01;  9.9999998E-03;  7.9999998E-02;324;  0.0000000E+00;  0.0000000E+00;  0.0000000E+00;  1.0000000E+03;  1.0000000E-01;  0.0000000E+00;0;  0.0000000E+00;  0.0000000E+00;  0.0000000E+00;0;  0.0000000E+00;  4.0000000E+04;  0.0000000E+00;  0.0000000E+00;  4.0000000E+04;  0.0000000E+00;  4.0000000E+04;  0.0000000E+00;  0.0000000E+00;  0.0000000E+00;  2.0276110E-09;
 -1.7000000E-01;  9.9999998E-03;  9.0000004E-02;325;  0.0000000E+00;  0.0000000E+00;  0.0000000E+00;  1.0000000E+03;  1.0000000E-01;  0.0000000E+00;0;  0.0000000E+00;  0.0000000E+00;  0.0000000E+00;0;  0.0000000E+00;  4.0000000E+04;  0.0000000E+00;  0.0000000E+00;  4.0000000E+04;  0.0000000E+00;  4.0000000E+04;  0.0000000E+00;  0.0000000E+00;  0.0000000E+00;  1.9964661E-09;
 -1.7000000E-01;  9.9999998E-03;  1.0000000E-01;326;  0.0000000E+00;  0.0000000E+00;  0.0000000E+00;  1.0000000E+03;  1.0000000E-01;  0.0000000E+00;0;  0.0000000E+00;  0.0000000E+00;  0.0000000E+00;0;  0.0000000E+00;  4.0000000E+04;  0.0000000E+00;  0.0000000E+00;  4.0000000E+04;  0.0000000E+00;  4.0000000E+04;  0.0000000E+00;  0.0000000E+00;  0.0000000E+00;  1.9806543E-09;
 -1.7000000E-01;  9.9999998E-03;  1.1000000E-01;327;  0.0000000E+00;  0.0000000E+00;  0.0000000E+00;  1.0000000E+03;  1.0000000E-01;  0.0000000E+00;0;  0.0000000E+00;  0.0000000E+00;  0.0000000E+00;0;  0.0000000E+00;  4.0000000E+04;  0.0000000E+00;  0.0000000E+00;  4.0000000E+04;  0.0000000E+00;  4.0000000E+04;  0.0000000E+00;  0.0000000E+00;  0.0000000E+00;  1.9613826E-09;
 -1.7000000E-01;  9.9999998E-03;  1.2000000E-01;328;  0.0000000E+00;  0.0000000E+00;  0.0000000E+00;  1.0000000E+03;  1.0000000E-01;  0.0000000E+00;0;  0.0000000E+00;  0.0000000E+00;  0.0000000E+00;0;  0.0000000E+00;  4.0000000E+04;  0.0000000E+00;  0.0000000E+00;  4.0000000E+04;  0.0000000E+00;  4.0000000E+04;  0.0000000E+00;  0.0000000E+00;  0.0000000E+00;  1.9547131E-09;
 -1.7000000E-01;  9.9999998E-03;  1.3000000E-01;329;  0.0000000E+00;  0.0000000E+00;  0.0000000E+00;  1.0000000E+03;  1.0000000E-01;  0.0000000E+00;0;  0.0000000E+00;  0.0000000E+00;  0.0000000E+00;0;  0.0000000E+00;  4.0000000E+04;  0.0000000E+00;  0.0000000E+00;  4.0000000E+04;  0.0000000E+00;  4.0000000E+04;  0.0000000E+00;  0.0000000E+00;  0.0000000E+00;  1.9304123E-09;
 -1.7000000E-01;  9.9999998E-03;  1.4000000E-01;330;  0.0000000E+00;  0.0000000E+00;  0.0000000E+00;  1.0000000E+03;  1.0000000E-01;  0.0000000E+00;0;  0.0000000E+00;  0.0000000E+00;  0.0000000E+00;0;  0.0000000E+00;  4.0000000E+04;  0.0000000E+00;  0.0000000E+00;  4.0000000E+04;  0.0000000E+00;  4.0000000E+04;  0.0000000E+00;  0.0000000E+00;  0.0000000E+00;  1.9071280E-09;
 -1.7000000E-01;  9.9999998E-03;  1.5000001E-01;331;  0.0000000E+00;  0.0000000E+00;  0.0000000E+00;  1.0000000E+03;  1.0000000E-01;  0.0000000E+00;0;  0.0000000E+00;  0.0000000E+00;  0.0000000E+00;0;  0.0000000E+00;  4.0000000E+04;  0.0000000E+00;  0.0000000E+00;  4.0000000E+04;  0.0000000E+00;  4.0000000E+04;  0.0000000E+00;  0.0000000E+00;  0.0000000E+00;  1.8279691E-09;
 -1.7000000E-01;  9.9999998E-03;  1.6000000E-01;332;  0.0000000E+00;  0.0000000E+00;  0.0000000E+00;  1.0000000E+03;  1.0000000E-01;  0.0000000E+00;0;  0.0000000E+00;  0.0000000E+00;  0.0000000E+00;0;  0.0000000E+00;  4.0000000E+04;  0.0000000E+00;  0.0000000E+00;  4.0000000E+04;  0.0000000E+00;  4.0000000E+04;  0.0000000E+00;  0.0000000E+00;  0.0000000E+00;  1.7068014E-09;
 -1.7000000E-01;  9.9999998E-03;  1.7000000E-01;333;  0.0000000E+00;  0.0000000E+00;  0.0000000E+00;  1.0000000E+03;  1.0000000E-01;  0.0000000E+00;0;  0.0000000E+00;  0.0000000E+00;  0.0000000E+00;0;  0.0000000E+00;  4.0000000E+04;  0.0000000E+00;  0.0000000E+00;  4.0000000E+04;  0.0000000E+00;  4.0000000E+04;  0.0000000E+00;  0.0000000E+00;  0.0000000E+00;  1.5737418E-09;
 -1.7000000E-01;  9.9999998E-03;  1.8000001E-01;334;  0.0000000E+00;  0.0000000E+00;  0.0000000E+00;  1.0000000E+03;  1.0000000E-01;  0.0000000E+00;0;  0.0000000E+00;  0.0000000E+00;  0.0000000E+00;0;  0.0000000E+00;  4.0000000E+04;  0.0000000E+00;  0.0000000E+00;  4.0000000E+04;  0.0000000E+00;  4.0000000E+04;  0.0000000E+00;  0.0000000E+00;  0.0000000E+00;  1.4536757E-09;
 -1.7000000E-01;  9.9999998E-03;  1.9000000E-01;335;  0.0000000E+00;  0.0000000E+00;  0.0000000E+00;  1.0000000E+03;  1.0000000E-01;  0.0000000E+00;0;  0.0000000E+00;  0.0000000E+00;  0.0000000E+00;0;  0.0000000E+00;  4.0000000E+04;  0.0000000E+00;  0.0000000E+00;  4.0000000E+04;  0.0000000E+00;  4.0000000E+04;  0.0000000E+00;  0.0000000E+00;  0.0000000E+00;  1.3804979E-09;
 -1.7000000E-01;  9.9999998E-03;  2.0000000E-01;336;  0.0000000E+00;  0.0000000E+00;  0.0000000E+00;  1.0000000E+03;  1.0000000E-01;  0.0000000E+00;0;  0.0000000E+00;  0.0000000E+00;  0.0000000E+00;0;  0.0000000E+00;  4.0000000E+04;  0.0000000E+00;  0.0000000E+00;  4.0000000E+04;  0.0000000E+00;  4.0000000E+04;  0.0000000E+00;  0.0000000E+00;  0.0000000E+00;  1.3572699E-09;
 -1.7000000E-01;  9.9999998E-03;  2.0999999E-01;337;  0.0000000E+00;  0.0000000E+00;  0.0000000E+00;  1.0000000E+03;  1.0000000E-01;  0.0000000E+00;0;  0.0000000E+00;  0.0000000E+00;  0.0000000E+00;0;  0.0000000E+00;  4.0000000E+04;  0.0000000E+00;  0.0000000E+00;  4.0000000E+04;  0.0000000E+00;  4.0000000E+04;  0.0000000E+00;  0.0000000E+00;  0.0000000E+00;  1.3090043E-09;
 -1.7000000E-01;  9.9999998E-03;  2.2000000E-01;338;  0.0000000E+00;  0.0000000E+00;  0.0000000E+00;  1.0000000E+03;  1.0000000E-01;  0.0000000E+00;0;  0.0000000E+00;  0.0000000E+00;  0.0000000E+00;0;  0.0000000E+00;  4.0000000E+04;  0.0000000E+00;  0.0000000E+00;  4.0000000E+04;  0.0000000E+00;  4.0000000E+04;  0.0000000E+00;  0.0000000E+00;  0.0000000E+00;  1.1702984E-09;
 -1.7000000E-01;  9.9999998E-03;  2.3000000E-01;339;  0.0000000E+00;  0.0000000E+00;  0.0000000E+00;  1.0000000E+03;  1.0000000E-01;  0.0000000E+00;0;  0.0000000E+00;  0.0000000E+00;  0.0000000E+00;0;  0.0000000E+00;  4.0000000E+04;  0.0000000E+00;  0.0000000E+00;  4.0000000E+04;  0.0000000E+00;  4.0000000E+04;  0.0000000E+00;  0.0000000E+00;  0.0000000E+00;  9.6134622E-10;
 -1.6000000E-01;  9.9999998E-03;  7.0000000E-02;414;  0.0000000E+00;  0.0000000E+00;  0.0000000E+00;  1.0000000E+03;  1.0000000E-01;  0.0000000E+00;0;  0.0000000E+00;  0.0000000E+00;  0.0000000E+00;0; -1.5765861E-06;  4.0000000E+04;  0.0000000E+00;  0.0000000E+00;  4.0000000E+04;  0.0000000E+00;  4.0000000E+04; -1.5774614E-06;  0.0000000E+00;  8.7530455E-10;  2.4016109E-01;
 -1.6000000E-01;  9.9999998E-03;  7.9999998E-02;415;  0.0000000E+00;  0.0000000E+00;  0.0000000E+00;  1.0000000E+03;  1.0000000E-01;  0.0000000E+00;0;  0.0000000E+00;  0.0000000E+00;  0.0000000E+00;0; -1.5707226E-06;  4.0000000E+04;  0.0000000E+00;  0.0000000E+00;  4.0000000E+04;  0.0000000E+00;  4.0000000E+04; -1.5717627E-06;  0.0000000E+00;  1.0401108E-09;  2.4132290E-01;
 -1.6000000E-01;  9.9999998E-03;  9.0000004E-02;416;  0.0000000E+00;  0.0000000E+00;  0.0000000E+00;  1.0000000E+03;  1.0000000E-01;  0.0000000E+00;0;  0.0000000E+00;  0.0000000E+00;  0.0000000E+00;0; -1.5683219E-06;  4.0000000E+04;  0.0000000E+00;  0.0000000E+00;  4.0000000E+04;  0.0000000E+00;  4.0000000E+04; -1.5695204E-06;  0.0000000E+00;  1.1984427E-09;  2.4367331E-01;
 -1.6000000E-01;  9.9999998E-03;  1.0000000E-01;417;  0.0000000E+00;  0.0000000E+00;  0.0000000E+00;  1.0000000E+03;  1.0000000E-01;  0.0000000E+00;0;  0.0000000E+00;  0.0000000E+00;  0.0000000E+00;0; -1.5689045E-06;  4.0000000E+04;  0.0000000E+00;  0.0000000E+00;  4.0000000E+04;  0.0000000E+00;  4.0000000E+04; -1.5702384E-06;  0.0000000E+00;  1.3338977E-09;  2.4747549E-01;
 -1.6000000E-01;  9.9999998E-03;  1.1000000E-01;418;  0.0000000E+00;  0.0000000E+00;  0.0000000E+00;  1.0000000E+03;  1.0000000E-01;  0.0000000E+00;0;  0.0000000E+00;  0.0000000E+00;  0.0000000E+00;0; -1.5713194E-06;  4.0000000E+04;  0.0000000E+00;  0.0000000E+00;  4.0000000E+04;  0.0000000E+00;  4.0000000E+04; -1.5727622E-06;  0.0000000E+00;  1.4428325E-09;  2.5271600E-01;
 -1.6000000E-01;  9.9999998E-03;  1.2000000E-01;419;  0.0000000E+00;  0.0000000E+00;  0.0000000E+00;  1.0000000E+03;  1.0000000E-01;  0.0000000E+00;0;  0.0000000E+00;  0.0000000E+00;  0.0000000E+00;0; -1.5739350E-06;  4.0000000E+04;  0.0000000E+00;  0.0000000E+00;  4.0000000E+04;  0.0000000E+00;  4.0000000E+04; -1.5754781E-06;  0.0000000E+00;  1.5430260E-09;  2.5898892E-01;
 -1.6000000E-01;  9.9999998E-03;  1.3000000E-01;420;  0.0000000E+00;  0.0000000E+00;  0.0000000E+00;  1.0000000E+03;  1.0000000E-01;  0.0000000E+00;0;  0.0000000E+00;  0.0000000E+00;  0.0000000E+00;0; -1.5748965E-06;  4.0000000E+04;  0.0000000E+00;  0.0000000E+00;  4.0000000E+04;  0.0000000E+00;  4.0000000E+04; -1.5765714E-06;  0.0000000E+00;  1.6749860E-09;  2.6553637E-01;
 -1.6000000E-01;  9.9999998E-03;  1.4000000E-01;421;  0.0000000E+00;  0.0000000E+00;  0.0000000E+00;  1.0000000E+03;  1.0000000E-01;  0.0000000E+00;0;  0.0000000E+00;  0.0000000E+00;  0.0000000E+00;0; -1.5725215E-06;  4.0000000E+04;  0.0000000E+00;  0.0000000E+00;  4.0000000E+04;  0.0000000E+00;  4.0000000E+04; -1.5744222E-06;  0.0000000E+00;  1.9007660E-09;  2.7139953E-01;
 -1.6000000E-01;  9.9999998E-03;  1.5000001E-01;422;  0.0000000E+00;  0.0000000E+00;  0.0000000E+00;  1.0000000E+03;  1.0000000E-01;  0.0000000E+00;0;  0.0000000E+00;  0.0000000E+00;  0.0000000E+00;0; -1.5656917E-06;  4.0000000E+04;  0.0000000E+00;  0.0000000E+00;  4.0000000E+04;  0.0000000E+00;  4.0000000E+04; -1.5679901E-06;  0.0000000E+00;  2.2983897E-09;  2.7559248E-01;
 -1.6000000E-01;  9.9999998E-03;  1.6000000E-01;423;  0.0000000E+00;  0.0000000E+00;  0.0000000E+00;  1.0000000E+03;  1.0000000E-01;  0.0000000E+00;0;  0.0000000E+00;  0.0000000E+00;  0.0000000E+00;0; -1.5541121E-06;  4.0000000E+04;  0.0000000E+00;  0.0000000E+00;  4.0000000E+04;  0.0000000E+00;  4.0000000E+04; -1.5570706E-06;  0.0000000E+00;  2.9584479E-09;  2.7719080E-01;
 -1.6000000E-01;  9.9999998E-03;  1.7000000E-01;424;  0.0000000E+00;  0.0000000E+00;  0.0000000E+00;  1.0000000E+03;  1.0000000E-01;  0.0000000E+00;0;  0.0000000E+00;  0.0000000E+00;  0.0000000E+00;0; -1.5384205E-06;  4.0000000E+04;  0.0000000E+00;  0.0000000E+00;  4.0000000E+04;  0.0000000E+00;  4.0000000E+04; -1.5424098E-06;  0.0000000E+00;  3.9892463E-09;  2.7538231E-01;
 -1.6000000E-01;  9.9999998E-03;  1.8000001E-01;425;  0.0000000E+00;  0.0000000E+00;  0.0000000E+00;  1.0000000E+03;  1.0000000E-01;  0.0000000E+00;0;  0.0000000E+00;  0.0000000E+00;  0.0000000E+00;0; -1.5200237E-06;  4.0000000E+04;  0.0000000E+00;  0.0000000E+00;  4.0000000E+04;  0.0000000E+00;  4.0000000E+04; -1.5255468E-06;  0.0000000E+00;  5.5231681E-09;  2.6959625E-01;
 -1.6000000E-01;  9.9999998E-03;  1.9000000E-01;426;  0.0000000E+00;  0.0000000E+00;  0.0000000E+00;  1.0000000E+03;  1.0000000E-01;  0.0000000E+00;0;  0.0000000E+00;  0.0000000E+00;  0.0000000E+00;0; -1.5009559E-06;  4.0000000E+04;  0.0000000E+00;  0.0000000E+00;  4.0000000E+04;  0.0000000E+00;  4.0000000E+04; -1.5086740E-06;  0.0000000E+00;  7.7180689E-09;  2.5967109E-01;
 -1.6000000E-01;  9.9999998E-03;  2.0000000E-01;427;  0.0000000E+00;  0.0000000E+00;  0.0000000E+00;  1.0000000E+03;  1.0000000E-01;  0.0000000E+00;0;  0.0000000E+00;  0.0000000E+00;  0.0000000E+00;0; -1.4835799E-06;  4.0000000E+04;  0.0000000E+00;  0.0000000E+00;  4.0000000E+04;  0.0000000E+00;  4.0000000E+04; -1.4943097E-06;  0.0000000E+00;  1.0729719E-08;  2.4595433E-01;
 -1.6000000E-01;  9.9999998E-03;  2.0999999E-01;428;  0.0000000E+00;  0.0000000E+00;  0.0000000E+00;  1.0000000E+03;  1.0000000E-01;  0.0000000E+00;0;  0.0000000E+00;  0.0000000E+00;  0.0000000E+00;0; -1.4705093E-06;  4.0000000E+04;  0.0000000E+00;  0.0000000E+00;  4.0000000E+04;  0.0000000E+00;  4.0000000E+04; -1.4851454E-06;  0.0000000E+00;  1.4636067E-08;  2.2925895E-01;
 -1.6000000E-01;  9.9999998E-03;  2.2000000E-01;429;  0.0000000E+00;  0.0000000E+00;  0.0000000E+00;  1.0000000E+03;  1.0000000E-01;  0.0000000E+00;0;  0.0000000E+00;  0.0000000E+00;  0.0000000E+00;0; -1.4649585E-06;  4.0000000E+04;  0.0000000E+00;  0.0000000E+00;  4.0000000E+04;  0.0000000E+00;  4.0000000E+04; -1.4843259E-06;  0.0000000E+00;  1.9367505E-08;  2.1043132E-01;
 -1.6000000E-01;  9.9999998E-03;  2.3000000E-01;430;  0.0000000E+00;  0.0000000E+00;  0.0000000E+00;  1.0000000E+03;  1.0000000E-01;  0.0000000E+00;0;  0.0000000E+00;  0.0000000E+00;  0.0000000E+00;0; -1.4711745E-06;  4.0000000E+04;  0.0000000E+00;  0.0000000E+00;  4.0000000E+04;  0.0000000E+00;  4.0000000E+04; -1.4957911E-06;  0.0000000E+00;  2.4616574E-08;  1.8940683E-01;
 -1.5000001E-01;  9.9999998E-03;  7.0000000E-02;505;  0.0000000E+00;  0.0000000E+00;  0.0000000E+00;  1.0000000E+03;  1.0000000E-01;  0.0000000E+00;0;  0.0000000E+00;  0.0000000E+00;  0.0000000E+00;0; -3.5765996E-05;  4.0000000E+04;  0.0000000E+00;  0.0000000E+00;  4.0000000E+04;  0.0000000E+00;  4.0000000E+04; -3.5817931E-05;  0.0000000E+00;  5.1937572E-08;  3.3150501E+00;
 -1.5000001E-01;  9.9999998E-03;  7.9999998E-02;506;  0.0000000E+00;  0.0000000E+00;  0.0000000E+00;  1.0000000E+03;  1.0000000E-01;  0.0000000E+00;0;  0.0000000E+00;  0.0000000E+00;  0.0000000E+00;0; -3.5843412E-05;  4.0000000E+04;  0.0000000E+00;  0.0000000E+00;  4.0000000E+04;  0.0000000E+00;  4.0000000E+04; -3.5904042E-05;  0.0000000E+00;  6.0631685E-08;  3.3304288E+00;
 -1.5000001E-01;  9.9999998E-03;  9.0000004E-02;507;  0.0000000E+00;  0.0000000E+00;  0.0000000E+00;  1.0000000E+03;  1.0000000E-01;  0.0000000E+00;0;  0.0000000E+00;  0.0000000E+00;  0.0000000E+00;0; -3.5978435E-05;  4.0000000E+04;  0.0000000E+00;  0.0000000E+00;  4.0000000E+04;  0.0000000E+00;  4.0000000E+04; -3.6047695E-05;  0.0000000E+00;  6.9259777E-08;  3.3750894E+00;
 -1.5000001E-01;  9.9999998E-03;  1.0000000E-01;508;  0.0000000E+00;  0.0000000E+00;  0.0000000E+00;  1.0000000E+03;  1.0000000E-01;  0.0000000E+00;0;  0.0000000E+00;  0.0000000E+00;  0.0000000E+00;0; -3.6149213E-05;  4.0000000E+04;  0.0000000E+00;  0.0000000E+00;  4.0000000E+04;  0.0000000E+00;  4.0000000E+04; -3.6226538E-05;  0.0000000E+00;  7.7325261E-08;  3.4529326E+00;
 -1.5000001E-01;  9.9999998E-03;  1.1000000E-01;509;  0.0000000E+00;  0.0000000E+00;  0.0000000E+00;  1.0000000E+03;  1.0000000E-01;  0.0000000E+00;0;  0.0000000E+00;  0.0000000E+00;  0.0000000E+00;0; -3.6318357E-05;  4.0000000E+04;  0.0000000E+00;  0.0000000E+00;  4.0000000E+04;  0.0000000E+00;  4.0000000E+04; -3.6403184E-05;  0.0000000E+00;  8.4825196E-08;  3.5614533E+00;
 -1.5000001E-01;  9.9999998E-03;  1.2000000E-01;510;  0.0000000E+00;  0.0000000E+00;  0.0000000E+00;  1.0000000E+03;  1.0000000E-01;  0.0000000E+00;0;  0.0000000E+00;  0.0000000E+00;  0.0000000E+00;0; -3.6435726E-05;  4.0000000E+04;  0.0000000E+00;  0.0000000E+00;  4.0000000E+04;  0.0000000E+00;  4.0000000E+04; -3.6528185E-05;  0.0000000E+00;  9.2460297E-08;  3.6911926E+00;
 -1.5000001E-01;  9.9999998E-03;  1.3000000E-01;511;  0.0000000E+00;  0.0000000E+00;  0.0000000E+00;  1.0000000E+03;  1.0000000E-01;  0.0000000E+00;0;  0.0000000E+00;  0.0000000E+00;  0.0000000E+00;0; -3.6443435E-05;  4.0000000E+04;  0.0000000E+00;  0.0000000E+00;  4.0000000E+04;  0.0000000E+00;  4.0000000E+04; -3.6545094E-05;  0.0000000E+00;  1.0166021E-07;  3.8269393E+00;
 -1.5000001E-01;  9.9999998E-03;  1.4000000E-01;512;  0.0000000E+00;  0.0000000E+00;  0.0000000E+00;  1.0000000E+03;  1.0000000E-01;  0.0000000E+00;0;  0.0000000E+00;  0.0000000E+00;  0.0000000E+00;0; -3.6282967E-05;  4.0000000E+04;  0.0000000E+00;  0.0000000E+00;  4.0000000E+04;  0.0000000E+00;  4.0000000E+04; -3.6397400E-05;  0.0000000E+00;  1.1443087E-07;  3.9501796E+00;
 -1.5000001E-01;  9.9999998E-03;  1.5000001E-01;513;  0.0000000E+00;  0.0000000E+00;  0.0000000E+00;  1.0000000E+03;  1.0000000E-01;  0.0000000E+00;0;  0.0000000E+00;  0.0000000E+00;  0.0000000E+00;0; -3.5903064E-05;  4.0000000E+04;  0.0000000E+00;  0.0000000E+00;  4.0000000E+04;  0.0000000E+00;  4.0000000E+04; -3.6036123E-05;  0.0000000E+00;  1.3305932E-07;  4.0423322E+00;
 -1.5000001E-01;  9.9999998E-03;  1.6000000E-01;514;  0.0000000E+00;  0.0000000E+00;  0.0000000E+00;  1.0000000E+03;  1.0000000E-01;  0.0000000E+00;0;  0.0000000E+00;  0.0000000E+00;  0.0000000E+00;0; -3.5267200E-05;  4.0000000E+04;  0.0000000E+00;  0.0000000E+00;  4.0000000E+04;  0.0000000E+00;  4.0000000E+04; -3.5426936E-05;  0.0000000E+00;  1.5973666E-07;  4.0877438E+00;
 -1.5000001E-01;  9.9999998E-03;  1.7000000E-01;515;  0.0000000E+00;  0.0000000E+00;  0.0000000E+00;  1.0000000E+03;  1.0000000E-01;  0.0000000E+00;0;  0.0000000E+00;  0.0000000E+00;  0.0000000E+00;0; -3.4360244E-05;  4.0000000E+04;  0.0000000E+00;  0.0000000E+00;  4.0000000E+04;  0.0000000E+00;  4.0000000E+04; -3.4556382E-05;  0.0000000E+00;  1.9613863E-07;  4.0759544E+00;
 -1.5000001E-01;  9.9999998E-03;  1.8000001E-01;516;  0.0000000E+00;  0.0000000E+00;  0.0000000E+00;  1.0000000E+03;  1.0000000E-01;  0.0000000E+00;0;  0.0000000E+00;  0.0000000E+00;  0.0000000E+00;0; -3.3192311E-05;  4.0000000E+04;  0.0000000E+00;  0.0000000E+00;  4.0000000E+04;  0.0000000E+00;  4.0000000E+04; -3.3435226E-05;  0.0000000E+00;  2.4291447E-07;  4.0028758E+00;
 -1.5000001E-01;  9.9999998E-03;  1.9000000E-01;517;  0.0000000E+00;  0.0000000E+00;  0.0000000E+00;  1.0000000E+03;  1.0000000E-01;  0.0000000E+00;0;  0.0000000E+00;  0.0000000E+00;  0.0000000E+00;0; -3.1801290E-05;  4.0000000E+04;  0.0000000E+00;  0.0000000E+00;  4.0000000E+04;  0.0000000E+00;  4.0000000E+04; -3.2100492E-05;  0.0000000E+00;  2.9920236E-07;  3.8706365E+00;
 -1.5000001E-01;  9.9999998E-03;  2.0000000E-01;518;  0.0000000E+00;  0.0000000E+00;  0.0000000E+00;  1.0000000E+03;  1.0000000E-01;  0.0000000E+00;0;  0.0000000E+00;  0.0000000E+00;  0.0000000E+00;0; -3.0252126E-05;  4.0000000E+04;  0.0000000E+00;  0.0000000E+00;  4.0000000E+04;  0.0000000E+00;  4.0000000E+04; -3.0614370E-05;  0.0000000E+00;  3.6224441E-07;  3.6852269E+00;
 -1.5000001E-01;  9.9999998E-03;  2.0999999E-01;519;  0.0000000E+00;  0.0000000E+00;  0.0000000E+00;  1.0000000E+03;  1.0000000E-01;  0.0000000E+00;0;  0.0000000E+00;  0.0000000E+00;  0.0000000E+00;0; -2.8632516E-05;  4.0000000E+04;  0.0000000E+00;  0.0000000E+00;  4.0000000E+04;  0.0000000E+00;  4.0000000E+04; -2.9059596E-05;  0.0000000E+00;  4.2708126E-07;  3.4507000E+00;
 -1.5000001E-01;  9.9999998E-03;  2.2000000E-01;520;  0.0000000E+00;  0.0000000E+00;  0.0000000E+00;  1.0000000E+03;  1.0000000E-01;  0.0000000E+00;0;  0.0000000E+00;  0.0000000E+00;  0.0000000E+00;0; -2.7044585E-05;  4.0000000E+04;  0.0000000E+00;  0.0000000E+00;  4.0000000E+04;  0.0000000E+00;  4.0000000E+04; -2.7531205E-05;  0.0000000E+00;  4.8661963E-07;  3.1628582E+00;
 -1.5000001E-01;  9.9999998E-03;  2.3000000E-01;521;  0.0000000E+00;  0.0000000E+00;  0.0000000E+00;  1.0000000E+03;  1.0000000E-01;  0.0000000E+00;0;  0.0000000E+00;  0.0000000E+00;  0.0000000E+00;0; -2.5572821E-05;  4.0000000E+04;  0.0000000E+00;  0.0000000E+00;  4.0000000E+04;  0.0000000E+00;  4.0000000E+04; -2.6095553E-05;  0.0000000E+00;  5.2273259E-07;  2.7980838E+00;
 -1.4000000E-01;  9.9999998E-03;  7.0000000E-02;596;  0.0000000E+00;  0.0000000E+00;  0.0000000E+00;  1.0000063E+03;  1.0000000E-01;  5.2344198E+00;0;  0.0000000E+00;  0.0000000E+00;  0.0000000E+00;0; -1.9296781E-04;  4.0000000E+04;  0.0000000E+00;  0.0000000E+00;  4.0000000E+04;  0.0000000E+00;  4.0000000E+04; -1.9342138E-04;  0.0000000E+00;  4.5357240E-07;  1.4419955E+01;
 -1.4000000E-01;  9.9999998E-03;  7.9999998E-02;597;  0.0000000E+00;  0.0000000E+00;  0.0000000E+00;  1.0000060E+03;  1.0000000E-01;  4.9381318E+00;0;  0.0000000E+00;  0.0000000E+00;  0.0000000E+00;0; -1.9365195E-04;  4.0000000E+04;  0.0000000E+00;  0.0000000E+00;  4.0000000E+04;  0.0000000E+00;  4.0000000E+04; -1.9417149E-04;  0.0000000E+00;  5.1953157E-07;  1.4502792E+01;
 -1.4000000E-01;  9.9999998E-03;  9.0000004E-02;598;  0.0000000E+00;  0.0000000E+00;  0.0000000E+00;  1.0000055E+03;  1.0000000E-01;  4.5430813E+00;0;  0.0000000E+00;  0.0000000E+00;  0.0000000E+00;0; -1.9453999E-04;  4.0000000E+04;  0.0000000E+00;  0.0000000E+00;  4.0000000E+04;  0.0000000E+00;  4.0000000E+04; -1.9512461E-04;  0.0000000E+00;  5.8461814E-07;  1.4750500E+01;
 -1.4000000E-01;  9.9999998E-03;  1.0000000E-01;599;  0.0000000E+00;  0.0000000E+00;  0.0000000E+00;  1.0000050E+03;  1.0000000E-01;  4.1480308E+00;0;  0.0000000E+00;  0.0000000E+00;  0.0000000E+00;0; -1.9549874E-04;  4.0000000E+04;  0.0000000E+00;  0.0000000E+00;  4.0000000E+04;  0.0000000E+00;  4.0000000E+04; -1.9614551E-04;  0.0000000E+00;  6.4677045E-07;  1.5175759E+01;
 -1.4000000E-01;  9.9999998E-03;  1.1000000E-01;600;  0.0000000E+00;  0.0000000E+00;  0.0000000E+00;  1.0000042E+03;  1.0000000E-01;  3.4566925E+00;0;  0.0000000E+00;  0.0000000E+00;  0.0000000E+00;0; -1.9632302E-04;  4.0000000E+04;  0.0000000E+00;  0.0000000E+00;  4.0000000E+04;  0.0000000E+00;  4.0000000E+04; -1.9703015E-04;  0.0000000E+00;  7.0713975E-07;  1.5761899E+01;
 -1.4000000E-01;  9.9999998E-03;  1.2000000E-01;601;  0.0000000E+00;  0.0000000E+00;  0.0000000E+00;  1.0000031E+03;  1.0000000E-01;  2.5678287E+00;0;  0.0000000E+00;  0.0000000E+00;  0.0000000E+00;0; -1.9674940E-04;  4.0000000E+04;  0.0000000E+00;  0.0000000E+00;  4.0000000E+04;  0.0000000E+00;  4.0000000E+04; -1.9752035E-04;  0.0000000E+00;  7.7094853E-07;  1.6461611E+01;
 -1.4000000E-01;  9.9999998E-03;  1.3000000E-01;602;  0.0000000E+00;  0.0000000E+00;  0.0000000E+00;  1.0000000E+03;  1.0000000E-01;  0.0000000E+00;0;  0.0000000E+00;  0.0000000E+00;  0.0000000E+00;0; -1.9648159E-04;  4.0000000E+04;  0.0000000E+00;  0.0000000E+00;  4.0000000E+04;  0.0000000E+00;  4.0000000E+04; -1.9732898E-04;  0.0000000E+00;  8.4739355E-07;  1.7202248E+01;
 -1.4000000E-01;  9.9999998E-03;  1.4000000E-01;603;  0.0000000E+00;  0.0000000E+00;  0.0000000E+00;  1.0000000E+03;  1.0000000E-01;  0.0000000E+00;0;  0.0000000E+00;  0.0000000E+00;  0.0000000E+00;0; -1.9522205E-04;  4.0000000E+04;  0.0000000E+00;  0.0000000E+00;  4.0000000E+04;  0.0000000E+00;  4.0000000E+04; -1.9617048E-04;  0.0000000E+00;  9.4844233E-07;  1.7897430E+01;
 -1.4000000E-01;  9.9999998E-03;  1.5000001E-01;604;  0.0000000E+00;  0.0000000E+00;  0.0000000E+00;  1.0000000E+03;  1.0000000E-01;  0.0000000E+00;0;  0.0000000E+00;  0.0000000E+00;  0.0000000E+00;0; -1.9271090E-04;  4.0000000E+04;  0.0000000E+00;  0.0000000E+00;  4.0000000E+04;  0.0000000E+00;  4.0000000E+04; -1.9379747E-04;  0.0000000E+00;  1.0865829E-06;  1.8461117E+01;
 -1.4000000E-01;  9.9999998E-03;  1.6000000E-01;605;  0.0000000E+00;  0.0000000E+00;  0.0000000E+00;  1.0000000E+03;  1.0000000E-01;  0.0000000E+00;0;  0.0000000E+00;  0.0000000E+00;  0.0000000E+00;0; -1.8876552E-04;  4.0000000E+04;  0.0000000E+00;  0.0000000E+00;  4.0000000E+04;  0.0000000E+00;  4.0000000E+04; -1.9003729E-04;  0.0000000E+00;  1.2717575E-06;  1.8822273E+01;
 -1.4000000E-01;  9.9999998E-03;  1.7000000E-01;606;  0.0000000E+00;  0.0000000E+00;  0.0000000E+00;  1.0000000E+03;  1.0000000E-01;  0.0000000E+00;0;  0.0000000E+00;  0.0000000E+00;  0.0000000E+00;0; -1.8331318E-04;  4.0000000E+04;  0.0000000E+00;  0.0000000E+00;  4.0000000E+04;  0.0000000E+00;  4.0000000E+04; -1.8482118E-04;  0.0000000E+00;  1.5080017E-06;  1.8935724E+01;
 -1.4000000E-01;  9.9999998E-03;  1.8000001E-01;607;  0.0000000E+00;  0.0000000E+00;  0.0000000E+00;  1.0000000E+03;  1.0000000E-01;  0.0000000E+00;0;  0.0000000E+00;  0.0000000E+00;  0.0000000E+00;0; -1.7641576E-04;  4.0000000E+04;  0.0000000E+00;  0.0000000E+00;  4.0000000E+04;  0.0000000E+00;  4.0000000E+04; -1.7820630E-04;  0.0000000E+00;  1.7905451E-06;  1.8785095E+01;
 -1.4000000E-01;  9.9999998E-03;  1.9000000E-01;608;  0.0000000E+00;  0.0000000E+00;  0.0000000E+00;  1.0000000E+03;  1.0000000E-01;  0.0000000E+00;0;  0.0000000E+00;  0.0000000E+00;  0.0000000E+00;0; -1.6827785E-04;  4.0000000E+04;  0.0000000E+00;  0.0000000E+00;  4.0000000E+04;  0.0000000E+00;  4.0000000E+04; -1.7038180E-04;  0.0000000E+00;  2.1039441E-06;  1.8372845E+01;
 -1.4000000E-01;  9.9999998E-03;  2.0000000E-01;609;  0.0000000E+00;  0.0000000E+00;  0.0000000E+00;  1.0000000E+03;  1.0000000E-01;  0.0000000E+00;0;  0.0000000E+00;  0.0000000E+00;  0.0000000E+00;0; -1.5923630E-04;  4.0000000E+04;  0.0000000E+00;  0.0000000E+00;  4.0000000E+04;  0.0000000E+00;  4.0000000E+04; -1.6165820E-04;  0.0000000E+00;  2.4218989E-06;  1.7698448E+01;
 -1.4000000E-01;  9.9999998E-03;  2.0999999E-01;610;  0.0000000E+00;  0.0000000E+00;  0.0000000E+00;  1.0000000E+03;  1.0000000E-01;  0.0000000E+00;0;  0.0000000E+00;  0.0000000E+00;  0.0000000E+00;0; -1.4972281E-04;  4.0000000E+04;  0.0000000E+00;  0.0000000E+00;  4.0000000E+04;  0.0000000E+00;  4.0000000E+04; -1.5242647E-04;  0.0000000E+00;  2.7036622E-06;  1.6731632E+01;
 -1.4000000E-01;  9.9999998E-03;  2.2000000E-01;611;  0.0000000E+00;  0.0000000E+00;  0.0000000E+00;  1.0000000E+03;  1.0000000E-01;  0.0000000E+00;0;  0.0000000E+00;  0.0000000E+00;  0.0000000E+00;0; -1.4011972E-04;  4.0000000E+04;  0.0000000E+00;  0.0000000E+00;  4.0000000E+04;  0.0000000E+00;  4.0000000E+04; -1.4295720E-04;  0.0000000E+00;  2.8374734E-06;  1.5351983E+01;
 -1.4000000E-01;  9.9999998E-03;  2.3000000E-01;612;  0.0000000E+00;  0.0000000E+00;  0.0000000E+00;  1.0000000E+03;  1.0000000E-01;  0.0000000E+00;0;  0.0000000E+00;  0.0000000E+00;  0.0000000E+00;0; -1.3065019E-04;  4.0000000E+04;  0.0000000E+00;  0.0000000E+00;  4.0000000E+04;  0.0000000E+00;  4.0000000E+04; -1.3332533E-04;  0.0000000E+00;  2.6751336E-06;  1.3414120E+01;
 -1.3000000E-01;  9.9999998E-03;  7.0000000E-02;687;  0.0000000E+00;  0.0000000E+00;  0.0000000E+00;  1.0000786E+03;  1.0000000E-01;  6.5084579E+01;0;  0.0000000E+00;  0.0000000E+00;  0.0000000E+00;0; -6.1696529E-04;  4.0000000E+04;  0.0000000E+00;  0.0000000E+00;  4.0000000E+04;  0.0000000E+00;  4.0000000E+04; -6.1902287E-04;  0.0000000E+00;  2.0575726E-06;  3.9101673E+01;
 -1.3000000E-01;  9.9999998E-03;  7.9999998E-02;688;  0.0000000E+00;  0.0000000E+00;  0.0000000E+00;  1.0000784E+03;  1.0000000E-01;  6.4887054E+01;0;  0.0000000E+00;  0.0000000E+00;  0.0000000E+00;0; -6.1950804E-04;  4.0000000E+04;  0.0000000E+00;  0.0000000E+00;  4.0000000E+04;  0.0000000E+00;  4.0000000E+04; -6.2182813E-04;  0.0000000E+00;  2.3200764E-06;  3.9401245E+01;
 -1.3000000E-01;  9.9999998E-03;  9.0000004E-02;689;  0.0000000E+00;  0.0000000E+00;  0.0000000E+00;  1.0000781E+03;  1.0000000E-01;  6.4689529E+01;0;  0.0000000E+00;  0.0000000E+00;  0.0000000E+00;0; -6.2245020E-04;  4.0000000E+04;  0.0000000E+00;  0.0000000E+00;  4.0000000E+04;  0.0000000E+00;  4.0000000E+04; -6.2502519E-04;  0.0000000E+00;  2.5749980E-06;  4.0233624E+01;
 -1.3000000E-01;  9.9999998E-03;  1.0000000E-01;690;  0.0000000E+00;  0.0000000E+00;  0.0000000E+00;  1.0000777E+03;  1.0000000E-01;  6.4393242E+01;0;  0.0000000E+00;  0.0000000E+00;  0.0000000E+00;0; -6.2534545E-04;  4.0000000E+04;  0.0000000E+00;  0.0000000E+00;  4.0000000E+04;  0.0000000E+00;  4.0000000E+04; -6.2816381E-04;  0.0000000E+00;  2.8183763E-06;  4.1622520E+01;
 -1.3000000E-01;  9.9999998E-03;  1.1000000E-01;691;  0.0000000E+00;  0.0000000E+00;  0.0000000E+00;  1.0000771E+03;  1.0000000E-01;  6.3899426E+01;0;  0.0000000E+00;  0.0000000E+00;  0.0000000E+00;0; -6.2755652E-04;  4.0000000E+04;  0.0000000E+00;  0.0000000E+00;  4.0000000E+04;  0.0000000E+00;  4.0000000E+04; -6.3061458E-04;  0.0000000E+00;  3.0580370E-06;  4.3509815E+01;
 -1.3000000E-01;  9.9999998E-03;  1.2000000E-01;692;  0.0000000E+00;  0.0000000E+00;  0.0000000E+00;  1.0000763E+03;  1.0000000E-01;  6.3208088E+01;0;  0.0000000E+00;  0.0000000E+00;  0.0000000E+00;0; -6.2829227E-04;  4.0000000E+04;  0.0000000E+00;  0.0000000E+00;  4.0000000E+04;  0.0000000E+00;  4.0000000E+04; -6.3160772E-04;  0.0000000E+00;  3.3154713E-06;  4.5756695E+01;
 -1.3000000E-01;  9.9999998E-03;  1.3000000E-01;693;  0.0000000E+00;  0.0000000E+00;  0.0000000E+00;  1.0000751E+03;  1.0000000E-01;  6.2220463E+01;0;  0.0000000E+00;  0.0000000E+00;  0.0000000E+00;0; -6.2668143E-04;  4.0000000E+04;  0.0000000E+00;  0.0000000E+00;  4.0000000E+04;  0.0000000E+00;  4.0000000E+04; -6.3030573E-04;  0.0000000E+00;  3.6242968E-06;  4.8160076E+01;
 -1.3000000E-01;  9.9999998E-03;  1.4000000E-01;694;  0.0000000E+00;  0.0000000E+00;  0.0000000E+00;  1.0000734E+03;  1.0000000E-01;  6.0837784E+01;0;  0.0000000E+00;  0.0000000E+00;  0.0000000E+00;0; -6.2186370E-04;  4.0000000E+04;  0.0000000E+00;  0.0000000E+00;  4.0000000E+04;  0.0000000E+00;  4.0000000E+04; -6.2588858E-04;  0.0000000E+00;  4.0248633E-06;  5.0483078E+01;
 -1.3000000E-01;  9.9999998E-03;  1.5000001E-01;695;  0.0000000E+00;  0.0000000E+00;  0.0000000E+00;  1.0000707E+03;  1.0000000E-01;  5.8566246E+01;0;  0.0000000E+00;  0.0000000E+00;  0.0000000E+00;0; -6.1310374E-04;  4.0000000E+04;  0.0000000E+00;  0.0000000E+00;  4.0000000E+04;  0.0000000E+00;  4.0000000E+04; -6.1765889E-04;  0.0000000E+00;  4.5551737E-06;  5.2494453E+01;
 -1.3000000E-01;  9.9999998E-03;  1.6000000E-01;696;  0.0000000E+00;  0.0000000E+00;  0.0000000E+00;  1.0000677E+03;  1.0000000E-01;  5.6097179E+01;0;  0.0000000E+00;  0.0000000E+00;  0.0000000E+00;0; -5.9989665E-04;  4.0000000E+04;  0.0000000E+00;  0.0000000E+00;  4.0000000E+04;  0.0000000E+00;  4.0000000E+04; -6.0513633E-04;  0.0000000E+00;  5.2396726E-06;  5.4004257E+01;
 -1.3000000E-01;  9.9999998E-03;  1.7000000E-01;697;  0.0000000E+00;  0.0000000E+00;  0.0000000E+00;  1.0000673E+03;  1.0000000E-01;  5.5702129E+01;0;  0.0000000E+00;  0.0000000E+00;  0.0000000E+00;0; -5.8206258E-04;  4.0000000E+04;  0.0000000E+00;  0.0000000E+00;  4.0000000E+04;  0.0000000E+00;  4.0000000E+04; -5.8814074E-04;  0.0000000E+00;  6.0781449E-06;  5.4887093E+01;
 -1.3000000E-01;  9.9999998E-03;  1.8000001E-01;698;  0.0000000E+00;  0.0000000E+00;  0.0000000E+00;  1.0000668E+03;  1.0000000E-01;  5.5405842E+01;0;  0.0000000E+00;  0.0000000E+00;  0.0000000E+00;0; -5.5981084E-04;  4.0000000E+04;  0.0000000E+00;  0.0000000E+00;  4.0000000E+04;  0.0000000E+00;  4.0000000E+04; -5.6684815E-04;  0.0000000E+00;  7.0373117E-06;  5.5073673E+01;
 -1.3000000E-01;  9.9999998E-03;  1.9000000E-01;699;  0.0000000E+00;  0.0000000E+00;  0.0000000E+00;  1.0000663E+03;  1.0000000E-01;  5.5010788E+01;0;  0.0000000E+00;  0.0000000E+00;  0.0000000E+00;0; -5.3375232E-04;  4.0000000E+04;  0.0000000E+00;  0.0000000E+00;  4.0000000E+04;  0.0000000E+00;  4.0000000E+04; -5.4180005E-04;  0.0000000E+00;  8.0477193E-06;  5.4511139E+01;
 -1.3000000E-01;  9.9999998E-03;  2.0000000E-01;700;  0.0000000E+00;  0.0000000E+00;  0.0000000E+00;  1.0000637E+03;  1.0000000E-01;  5.2838013E+01;0;  0.0000000E+00;  0.0000000E+00;  0.0000000E+00;0; -5.0483295E-04;  4.0000000E+04;  0.0000000E+00;  0.0000000E+00;  4.0000000E+04;  0.0000000E+00;  4.0000000E+04; -5.1381002E-04;  0.0000000E+00;  8.9770629E-06;  5.3084156E+01;
 -1.3000000E-01;  9.9999998E-03;  2.0999999E-01;701;  0.0000000E+00;  0.0000000E+00;  0.0000000E+00;  1.0000611E+03;  1.0000000E-01;  5.0665234E+01;0;  0.0000000E+00;  0.0000000E+00;  0.0000000E+00;0; -4.7411711E-04;  4.0000000E+04;  0.0000000E+00;  0.0000000E+00;  4.0000000E+04;  0.0000000E+00;  4.0000000E+04; -4.8365394E-04;  0.0000000E+00;  9.5368296E-06;  5.0502800E+01;
 -1.3000000E-01;  9.9999998E-03;  2.2000000E-01;702;  0.0000000E+00;  0.0000000E+00;  0.0000000E+00;  1.0000584E+03;  1.0000000E-01;  4.8393692E+01;0;  0.0000000E+00;  0.0000000E+00;  0.0000000E+00;0; -4.4259283E-04;  4.0000000E+04;  0.0000000E+00;  0.0000000E+00;  4.0000000E+04;  0.0000000E+00;  4.0000000E+04; -4.5198016E-04;  0.0000000E+00;  9.3873232E-06;  4.6433636E+01;
 -1.3000000E-01;  9.9999998E-03;  2.3000000E-01;703;  0.0000000E+00;  0.0000000E+00;  0.0000000E+00;  1.0000504E+03;  1.0000000E-01;  4.1677834E+01;0;  0.0000000E+00;  0.0000000E+00;  0.0000000E+00;0; -4.1091995E-04;  4.0000000E+04;  0.0000000E+00;  0.0000000E+00;  4.0000000E+04;  0.0000000E+00;  4.0000000E+04; -4.1914062E-04;  0.0000000E+00;  8.2206589E-06;  4.0577038E+01;
 -1.2000000E-01;  9.9999998E-03;  7.0000000E-02;778;  0.0000000E+00;  0.0000000E+00;  0.0000000E+00;  1.0001930E+03;  1.0000000E-01;  1.5989671E+02;0;  0.0000000E+00;  0.0000000E+00;  0.0000000E+00;0; -1.4922797E-03;  4.0000000E+04;  0.0000000E+00;  0.0000000E+00;  4.0000000E+04;  0.0000000E+00;  4.0000000E+04; -1.4988653E-03;  0.0000000E+00;  6.5856666E-06;  8.1698639E+01;
 -1.2000000E-01;  9.9999998E-03;  7.9999998E-02;779;  0.0000000E+00;  0.0000000E+00;  0.0000000E+00;  1.0001927E+03;  1.0000000E-01;  1.5969919E+02;0;  0.0000000E+00;  0.0000000E+00;  0.0000000E+00;0; -1.4988534E-03;  4.0000000E+04;  0.0000000E+00;  0.0000000E+00;  4.0000000E+04;  0.0000000E+00;  4.0000000E+04; -1.5061814E-03;  0.0000000E+00;  7.3280371E-06;  8.2537224E+01;
 -1.2000000E-01;  9.9999998E-03;  9.0000004E-02;780;  0.0000000E+00;  0.0000000E+00;  0.0000000E+00;  1.0001925E+03;  1.0000000E-01;  1.5950166E+02;0;  0.0000000E+00;  0.0000000E+00;  0.0000000E+00;0; -1.5059491E-03;  4.0000000E+04;  0.0000000E+00;  0.0000000E+00;  4.0000000E+04;  0.0000000E+00;  4.0000000E+04; -1.5139816E-03;  0.0000000E+00;  8.0324980E-06;  8.4654510E+01;
 -1.2000000E-01;  9.9999998E-03;  1.0000000E-01;781;  0.0000000E+00;  0.0000000E+00;  0.0000000E+00;  1.0001920E+03;  1.0000000E-01;  1.5900784E+02;0;  0.0000000E+00;  0.0000000E+00;  0.0000000E+00;0; -1.5124768E-03;  4.0000000E+04;  0.0000000E+00;  0.0000000E+00;  4.0000000E+04;  0.0000000E+00;  4.0000000E+04; -1.5211728E-03;  0.0000000E+00;  8.6959881E-06;  8.8080223E+01;
 -1.2000000E-01;  9.9999998E-03;  1.1000000E-01;782;  0.0000000E+00;  0.0000000E+00;  0.0000000E+00;  1.0001911E+03;  1.0000000E-01;  1.5831651E+02;0;  0.0000000E+00;  0.0000000E+00;  0.0000000E+00;0; -1.5169523E-03;  4.0000000E+04;  0.0000000E+00;  0.0000000E+00;  4.0000000E+04;  0.0000000E+00;  4.0000000E+04; -1.5263003E-03;  0.0000000E+00;  9.3480421E-06;  9.2670258E+01;
 -1.2000000E-01;  9.9999998E-03;  1.2000000E-01;783;  0.0000000E+00;  0.0000000E+00;  0.0000000E+00;  1.0001897E+03;  1.0000000E-01;  1.5713136E+02;0;  0.0000000E+00;  0.0000000E+00;  0.0000000E+00;0; -1.5175864E-03;  4.0000000E+04;  0.0000000E+00;  0.0000000E+00;  4.0000000E+04;  0.0000000E+00;  4.0000000E+04; -1.5276390E-03;  0.0000000E+00;  1.0052532E-05;  9.8119156E+01;
 -1.2000000E-01;  9.9999998E-03;  1.3000000E-01;784;  0.0000000E+00;  0.0000000E+00;  0.0000000E+00;  1.0001876E+03;  1.0000000E-01;  1.5535364E+02;0;  0.0000000E+00;  0.0000000E+00;  0.0000000E+00;0; -1.5124405E-03;  4.0000000E+04;  0.0000000E+00;  0.0000000E+00;  4.0000000E+04;  0.0000000E+00;  4.0000000E+04; -1.5233412E-03;  0.0000000E+00;  1.0900623E-05;  1.0399851E+02;
 -1.2000000E-01;  9.9999998E-03;  1.4000000E-01;785;  0.0000000E+00;  0.0000000E+00;  0.0000000E+00;  1.0001844E+03;  1.0000000E-01;  1.5278580E+02;0;  0.0000000E+00;  0.0000000E+00;  0.0000000E+00;0; -1.4996389E-03;  4.0000000E+04;  0.0000000E+00;  0.0000000E+00;  4.0000000E+04;  0.0000000E+00;  4.0000000E+04; -1.5116328E-03;  0.0000000E+00;  1.1993890E-05;  1.0982454E+02;
 -1.2000000E-01;  9.9999998E-03;  1.5000001E-01;786;  0.0000000E+00;  0.0000000E+00;  0.0000000E+00;  1.0001776E+03;  1.0000000E-01;  1.4715633E+02;0;  0.0000000E+00;  0.0000000E+00;  0.0000000E+00;0; -1.4775969E-03;  4.0000000E+04;  0.0000000E+00;  0.0000000E+00;  4.0000000E+04;  0.0000000E+00;  4.0000000E+04; -1.4910166E-03;  0.0000000E+00;  1.3419693E-05;  1.1513268E+02;
 -1.2000000E-01;  9.9999998E-03;  1.6000000E-01;787;  0.0000000E+00;  0.0000000E+00;  0.0000000E+00;  1.0001656E+03;  1.0000000E-01;  1.3718130E+02;0;  0.0000000E+00;  0.0000000E+00;  0.0000000E+00;0; -1.4452569E-03;  4.0000000E+04;  0.0000000E+00;  0.0000000E+00;  4.0000000E+04;  0.0000000E+00;  4.0000000E+04; -1.4604797E-03;  0.0000000E+00;  1.5222765E-05;  1.1953957E+02;
 -1.2000000E-01;  9.9999998E-03;  1.7000000E-01;788;  0.0000000E+00;  0.0000000E+00;  0.0000000E+00;  1.0001564E+03;  1.0000000E-01;  1.2957658E+02;0;  0.0000000E+00;  0.0000000E+00;  0.0000000E+00;0; -1.4022787E-03;  4.0000000E+04;  0.0000000E+00;  0.0000000E+00;  4.0000000E+04;  0.0000000E+00;  4.0000000E+04; -1.4196576E-03;  0.0000000E+00;  1.7378905E-05;  1.2275977E+02;
 -1.2000000E-01;  9.9999998E-03;  1.8000001E-01;789;  0.0000000E+00;  0.0000000E+00;  0.0000000E+00;  1.0001461E+03;  1.0000000E-01;  1.2098423E+02;0;  0.0000000E+00;  0.0000000E+00;  0.0000000E+00;0; -1.3491499E-03;  4.0000000E+04;  0.0000000E+00;  0.0000000E+00;  4.0000000E+04;  0.0000000E+00;  4.0000000E+04; -1.3689279E-03;  0.0000000E+00;  1.9778032E-05;  1.2456341E+02;
 -1.2000000E-01;  9.9999998E-03;  1.9000000E-01;790;  0.0000000E+00;  0.0000000E+00;  0.0000000E+00;  1.0001383E+03;  1.0000000E-01;  1.1456466E+02;0;  0.0000000E+00;  0.0000000E+00;  0.0000000E+00;0; -1.2871863E-03;  4.0000000E+04;  0.0000000E+00;  0.0000000E+00;  4.0000000E+04;  0.0000000E+00;  4.0000000E+04; -1.3093499E-03;  0.0000000E+00;  2.2163566E-05;  1.2464429E+02;
 -1.2000000E-01;  9.9999998E-03;  2.0000000E-01;791;  0.0000000E+00;  0.0000000E+00;  0.0000000E+00;  1.0001307E+03;  1.0000000E-01;  1.0824385E+02;0;  0.0000000E+00;  0.0000000E+00;  0.0000000E+00;0; -1.2183102E-03;  4.0000000E+04;  0.0000000E+00;  0.0000000E+00;  4.0000000E+04;  0.0000000E+00;  4.0000000E+04; -1.2423076E-03;  0.0000000E+00;  2.3997360E-05;  1.2243863E+02;
 -1.2000000E-01;  9.9999998E-03;  2.0999999E-01;792;  0.0000000E+00;  0.0000000E+00;  0.0000000E+00;  1.0001255E+03;  1.0000000E-01;  1.0399706E+02;0;  0.0000000E+00;  0.0000000E+00;  0.0000000E+00;0; -1.1447291E-03;  4.0000000E+04;  0.0000000E+00;  0.0000000E+00;  4.0000000E+04;  0.0000000E+00;  4.0000000E+04; -1.1693265E-03;  0.0000000E+00;  2.4597372E-05;  1.1724986E+02;
 -1.2000000E-01;  9.9999998E-03;  2.2000000E-01;793;  0.0000000E+00;  0.0000000E+00;  0.0000000E+00;  1.0001198E+03;  1.0000000E-01;  9.9256454E+01;0;  0.0000000E+00;  0.0000000E+00;  0.0000000E+00;0; -1.0684606E-03;  4.0000000E+04;  0.0000000E+00;  0.0000000E+00;  4.0000000E+04;  0.0000000E+00;  4.0000000E+04; -1.0917073E-03;  0.0000000E+00;  2.3246666E-05;  1.0830148E+02;
 -1.2000000E-01;  9.9999998E-03;  2.3000000E-01;794;  0.0000000E+00;  0.0000000E+00;  0.0000000E+00;  1.0001046E+03;  1.0000000E-01;  8.6614838E+01;0;  0.0000000E+00;  0.0000000E+00;  0.0000000E+00;0; -9.9088997E-04;  4.0000000E+04;  0.0000000E+00;  0.0000000E+00;  4.0000000E+04;  0.0000000E+00;  4.0000000E+04; -1.0102738E-03;  0.0000000E+00;  1.9383908E-05;  9.4975960E+01;
 -1.1000000E-01;  9.9999998E-03;  7.0000000E-02;869;  0.0000000E+00;  0.0000000E+00;  0.0000000E+00;  1.0003865E+03;  1.0000000E-01;  3.2018848E+02;0;  0.0000000E+00;  0.0000000E+00;  0.0000000E+00;0; -3.0374140E-03;  4.0000000E+04;  0.0000000E+00;  0.0000000E+00;  4.0000000E+04;  0.0000000E+00;  4.0000000E+04; -3.0543308E-03;  0.0000000E+00;  1.6916814E-05;  1.4491144E+02;
 -1.1000000E-01;  9.9999998E-03;  7.9999998E-02;870;  0.0000000E+00;  0.0000000E+00;  0.0000000E+00;  1.0003861E+03;  1.0000000E-01;  3.1989218E+02;0;  0.0000000E+00;  0.0000000E+00;  0.0000000E+00;0; -3.0512782E-03;  4.0000000E+04;  0.0000000E+00;  0.0000000E+00;  4.0000000E+04;  0.0000000E+00;  4.0000000E+04; -3.0698844E-03;  0.0000000E+00;  1.8606122E-05;  1.4686882E+02;
 -1.1000000E-01;  9.9999998E-03;  9.0000004E-02;871;  0.0000000E+00;  0.0000000E+00;  0.0000000E+00;  1.0003852E+03;  1.0000000E-01;  3.1910208E+02;0;  0.0000000E+00;  0.0000000E+00;  0.0000000E+00;0; -3.0655831E-03;  4.0000000E+04;  0.0000000E+00;  0.0000000E+00;  4.0000000E+04;  0.0000000E+00;  4.0000000E+04; -3.0857453E-03;  0.0000000E+00;  2.0162106E-05;  1.5137473E+02;
 -1.1000000E-01;  9.9999998E-03;  1.0000000E-01;872;  0.0000000E+00;  0.0000000E+00;  0.0000000E+00;  1.0003839E+03;  1.0000000E-01;  3.1801569E+02;0;  0.0000000E+00;  0.0000000E+00;  0.0000000E+00;0; -3.0781121E-03;  4.0000000E+04;  0.0000000E+00;  0.0000000E+00;  4.0000000E+04;  0.0000000E+00;  4.0000000E+04; -3.0997037E-03;  0.0000000E+00;  2.1591437E-05;  1.5844885E+02;
 -1.1000000E-01;  9.9999998E-03;  1.1000000E-01;873;  0.0000000E+00;  0.0000000E+00;  0.0000000E+00;  1.0003816E+03;  1.0000000E-01;  3.1613922E+02;0;  0.0000000E+00;  0.0000000E+00;  0.0000000E+00;0; -3.0859613E-03;  4.0000000E+04;  0.0000000E+00;  0.0000000E+00;  4.0000000E+04;  0.0000000E+00;  4.0000000E+04; -3.1089373E-03;  0.0000000E+00;  2.2975961E-05;  1.6780217E+02;
 -1.1000000E-01;  9.9999998E-03;  1.2000000E-01;874;  0.0000000E+00;  0.0000000E+00;  0.0000000E+00;  1.0003782E+03;  1.0000000E-01;  3.1337384E+02;0;  0.0000000E+00;  0.0000000E+00;  0.0000000E+00;0; -3.0856973E-03;  4.0000000E+04;  0.0000000E+00;  0.0000000E+00;  4.0000000E+04;  0.0000000E+00;  4.0000000E+04; -3.1101678E-03;  0.0000000E+00;  2.4470561E-05;  1.7887306E+02;
 -1.1000000E-01;  9.9999998E-03;  1.3000000E-01;875;  0.0000000E+00;  0.0000000E+00;  0.0000000E+00;  1.0003704E+03;  1.0000000E-01;  3.0685553E+02;0;  0.0000000E+00;  0.0000000E+00;  0.0000000E+00;0; -3.0736693E-03;  4.0000000E+04;  0.0000000E+00;  0.0000000E+00;  4.0000000E+04;  0.0000000E+00;  4.0000000E+04; -3.0999510E-03;  0.0000000E+00;  2.6281774E-05;  1.9090634E+02;
 -1.1000000E-01;  9.9999998E-03;  1.4000000E-01;876;  0.0000000E+00;  0.0000000E+00;  0.0000000E+00;  1.0003518E+03;  1.0000000E-01;  2.9144855E+02;0;  0.0000000E+00;  0.0000000E+00;  0.0000000E+00;0; -3.0463841E-03;  4.0000000E+04;  0.0000000E+00;  0.0000000E+00;  4.0000000E+04;  0.0000000E+00;  4.0000000E+04; -3.0750113E-03;  0.0000000E+00;  2.8627303E-05;  2.0308034E+02;
 -1.1000000E-01;  9.9999998E-03;  1.5000001E-01;877;  0.0000000E+00;  0.0000000E+00;  0.0000000E+00;  1.0003396E+03;  1.0000000E-01;  2.8137476E+02;0;  0.0000000E+00;  0.0000000E+00;  0.0000000E+00;0; -3.0009332E-03;  4.0000000E+04;  0.0000000E+00;  0.0000000E+00;  4.0000000E+04;  0.0000000E+00;  4.0000000E+04; -3.0326149E-03;  0.0000000E+00;  3.1681760E-05;  2.1461674E+02;
 -1.1000000E-01;  9.9999998E-03;  1.6000000E-01;878;  0.0000000E+00;  0.0000000E+00;  0.0000000E+00;  1.0003312E+03;  1.0000000E-01;  2.7436261E+02;0;  0.0000000E+00;  0.0000000E+00;  0.0000000E+00;0; -2.9353919E-03;  4.0000000E+04;  0.0000000E+00;  0.0000000E+00;  4.0000000E+04;  0.0000000E+00;  4.0000000E+04; -2.9709085E-03;  0.0000000E+00;  3.5516787E-05;  2.2485391E+02;
 -1.1000000E-01;  9.9999998E-03;  1.7000000E-01;879;  0.0000000E+00;  0.0000000E+00;  0.0000000E+00;  1.0003223E+03;  1.0000000E-01;  2.6695541E+02;0;  0.0000000E+00;  0.0000000E+00;  0.0000000E+00;0; -2.8491730E-03;  4.0000000E+04;  0.0000000E+00;  0.0000000E+00;  4.0000000E+04;  0.0000000E+00;  4.0000000E+04; -2.8892234E-03;  0.0000000E+00;  4.0050418E-05;  2.3322404E+02;
 -1.1000000E-01;  9.9999998E-03;  1.8000001E-01;880;  0.0000000E+00;  0.0000000E+00;  0.0000000E+00;  1.0003041E+03;  1.0000000E-01;  2.5194350E+02;0;  0.0000000E+00;  0.0000000E+00;  0.0000000E+00;0; -2.7431946E-03;  4.0000000E+04;  0.0000000E+00;  0.0000000E+00;  4.0000000E+04;  0.0000000E+00;  4.0000000E+04; -2.7881505E-03;  0.0000000E+00;  4.4955759E-05;  2.3909821E+02;
 -1.1000000E-01;  9.9999998E-03;  1.9000000E-01;881;  0.0000000E+00;  0.0000000E+00;  0.0000000E+00;  1.0002933E+03;  1.0000000E-01;  2.4295609E+02;0;  0.0000000E+00;  0.0000000E+00;  0.0000000E+00;0; -2.6198097E-03;  4.0000000E+04;  0.0000000E+00;  0.0000000E+00;  4.0000000E+04;  0.0000000E+00;  4.0000000E+04; -2.6692480E-03;  0.0000000E+00;  4.9438338E-05;  2.4149890E+02;
 -1.1000000E-01;  9.9999998E-03;  2.0000000E-01;882;  0.0000000E+00;  0.0000000E+00;  0.0000000E+00;  1.0002728E+03;  1.0000000E-01;  2.2606769E+02;0;  0.0000000E+00;  0.0000000E+00;  0.0000000E+00;0; -2.4824578E-03;  4.0000000E+04;  0.0000000E+00;  0.0000000E+00;  4.0000000E+04;  0.0000000E+00;  4.0000000E+04; -2.5348123E-03;  0.0000000E+00;  5.2354491E-05;  2.3915912E+02;
 -1.1000000E-01;  9.9999998E-03;  2.0999999E-01;883;  0.0000000E+00;  0.0000000E+00;  0.0000000E+00;  1.0002602E+03;  1.0000000E-01;  2.1559885E+02;0;  0.0000000E+00;  0.0000000E+00;  0.0000000E+00;0; -2.3349964E-03;  4.0000000E+04;  0.0000000E+00;  0.0000000E+00;  4.0000000E+04;  0.0000000E+00;  4.0000000E+04; -2.3873313E-03;  0.0000000E+00;  5.2334948E-05;  2.3050999E+02;
 -1.1000000E-01;  9.9999998E-03;  2.2000000E-01;884;  0.0000000E+00;  0.0000000E+00;  0.0000000E+00;  1.0002401E+03;  1.0000000E-01;  1.9890796E+02;0;  0.0000000E+00;  0.0000000E+00;  0.0000000E+00;0; -2.1809340E-03;  4.0000000E+04;  0.0000000E+00;  0.0000000E+00;  4.0000000E+04;  0.0000000E+00;  4.0000000E+04; -2.2290046E-03;  0.0000000E+00;  4.8070709E-05;  2.1397624E+02;
 -1.1000000E-01;  9.9999998E-03;  2.3000000E-01;885;  0.0000000E+00;  0.0000000E+00;  0.0000000E+00;  1.0002253E+03;  1.0000000E-01;  1.8666139E+02;0;  0.0000000E+00;  0.0000000E+00;  0.0000000E+00;0; -2.0228259E-03;  4.0000000E+04;  0.0000000E+00;  0.0000000E+00;  4.0000000E+04;  0.0000000E+00;  4.0000000E+04; -2.0615116E-03;  0.0000000E+00;  3.8685757E-05;  1.8849805E+02;
 -1.0000000E-01;  9.9999998E-03;  7.0000000E-02;960;  0.0000000E+00;  0.0000000E+00;  0.0000000E+00;  1.0006896E+03;  1.0000000E-01;  5.7134186E+02;0;  0.0000000E+00;  0.0000000E+00;  0.0000000E+00;0; -5.5014235E-03;  4.0000000E+04;  0.0000000E+00;  0.0000000E+00;  4.0000000E+04;  0.0000000E+00;  4.0000000E+04; -5.5387188E-03;  0.0000000E+00;  3.7295504E-05;  2.2982491E+02;
 -1.0000000E-01;  9.9999998E-03;  7.9999998E-02;961;  0.0000000E+00;  0.0000000E+00;  0.0000000E+00;  1.0006892E+03;  1.0000000E-01;  5.7104559E+02;0;  0.0000000E+00;  0.0000000E+00;  0.0000000E+00;0; -5.5271941E-03;  4.0000000E+04;  0.0000000E+00;  0.0000000E+00;  4.0000000E+04;  0.0000000E+00;  4.0000000E+04; -5.5677867E-03;  0.0000000E+00;  4.0592451E-05;  2.3381424E+02;
 -1.0000000E-01;  9.9999998E-03;  9.0000004E-02;962;  0.0000000E+00;  0.0000000E+00;  0.0000000E+00;  1.0006882E+03;  1.0000000E-01;  5.7015674E+02;0;  0.0000000E+00;  0.0000000E+00;  0.0000000E+00;0; -5.5529941E-03;  4.0000000E+04;  0.0000000E+00;  0.0000000E+00;  4.0000000E+04;  0.0000000E+00;  4.0000000E+04; -5.5965106E-03;  0.0000000E+00;  4.3516691E-05;  2.4227327E+02;
 -1.0000000E-01;  9.9999998E-03;  1.0000000E-01;963;  0.0000000E+00;  0.0000000E+00;  0.0000000E+00;  1.0006862E+03;  1.0000000E-01;  5.6847772E+02;0;  0.0000000E+00;  0.0000000E+00;  0.0000000E+00;0; -5.5748806E-03;  4.0000000E+04;  0.0000000E+00;  0.0000000E+00;  4.0000000E+04;  0.0000000E+00;  4.0000000E+04; -5.6209820E-03;  0.0000000E+00;  4.6101606E-05;  2.5518462E+02;
 -1.0000000E-01;  9.9999998E-03;  1.1000000E-01;964;  0.0000000E+00;  0.0000000E+00;  0.0000000E+00;  1.0006789E+03;  1.0000000E-01;  5.6245325E+02;0;  0.0000000E+00;  0.0000000E+00;  0.0000000E+00;0; -5.5877720E-03;  4.0000000E+04;  0.0000000E+00;  0.0000000E+00;  4.0000000E+04;  0.0000000E+00;  4.0000000E+04; -5.6363065E-03;  0.0000000E+00;  4.8534628E-05;  2.7204440E+02;
 -1.0000000E-01;  9.9999998E-03;  1.2000000E-01;965;  0.0000000E+00;  0.0000000E+00;  0.0000000E+00;  1.0006697E+03;  1.0000000E-01;  5.5484851E+02;0;  0.0000000E+00;  0.0000000E+00;  0.0000000E+00;0; -5.5857664E-03;  4.0000000E+04;  0.0000000E+00;  0.0000000E+00;  4.0000000E+04;  0.0000000E+00;  4.0000000E+04; -5.6369095E-03;  0.0000000E+00;  5.1143332E-05;  2.9193726E+02;
 -1.0000000E-01;  9.9999998E-03;  1.3000000E-01;966;  0.0000000E+00;  0.0000000E+00;  0.0000000E+00;  1.0006583E+03;  1.0000000E-01;  5.4536731E+02;0;  0.0000000E+00;  0.0000000E+00;  0.0000000E+00;0; -5.5626649E-03;  4.0000000E+04;  0.0000000E+00;  0.0000000E+00;  4.0000000E+04;  0.0000000E+00;  4.0000000E+04; -5.6170104E-03;  0.0000000E+00;  5.4345684E-05;  3.1369604E+02;
 -1.0000000E-01;  9.9999998E-03;  1.4000000E-01;967;  0.0000000E+00;  0.0000000E+00;  0.0000000E+00;  1.0006451E+03;  1.0000000E-01;  5.3450342E+02;0;  0.0000000E+00;  0.0000000E+00;  0.0000000E+00;0; -5.5125747E-03;  4.0000000E+04;  0.0000000E+00;  0.0000000E+00;  4.0000000E+04;  0.0000000E+00;  4.0000000E+04; -5.5711414E-03;  0.0000000E+00;  5.8566653E-05;  3.3608505E+02;
 -1.0000000E-01;  9.9999998E-03;  1.5000001E-01;968;  0.0000000E+00;  0.0000000E+00;  0.0000000E+00;  1.0006283E+03;  1.0000000E-01;  5.2057788E+02;0;  0.0000000E+00;  0.0000000E+00;  0.0000000E+00;0; -5.4306434E-03;  4.0000000E+04;  0.0000000E+00;  0.0000000E+00;  4.0000000E+04;  0.0000000E+00;  4.0000000E+04; -5.4947748E-03;  0.0000000E+00;  6.4131367E-05;  3.5795648E+02;
 -1.0000000E-01;  9.9999998E-03;  1.6000000E-01;969;  0.0000000E+00;  0.0000000E+00;  0.0000000E+00;  1.0006023E+03;  1.0000000E-01;  4.9894885E+02;0;  0.0000000E+00;  0.0000000E+00;  0.0000000E+00;0; -5.3136637E-03;  4.0000000E+04;  0.0000000E+00;  0.0000000E+00;  4.0000000E+04;  0.0000000E+00;  4.0000000E+04; -5.3848191E-03;  0.0000000E+00;  7.1155235E-05;  3.7827347E+02;
 -1.0000000E-01;  9.9999998E-03;  1.7000000E-01;970;  0.0000000E+00;  0.0000000E+00;  0.0000000E+00;  1.0005839E+03;  1.0000000E-01;  4.8373941E+02;0;  0.0000000E+00;  0.0000000E+00;  0.0000000E+00;0; -5.1606488E-03;  4.0000000E+04;  0.0000000E+00;  0.0000000E+00;  4.0000000E+04;  0.0000000E+00;  4.0000000E+04; -5.2400669E-03;  0.0000000E+00;  7.9418271E-05;  3.9599170E+02;
 -1.0000000E-01;  9.9999998E-03;  1.8000001E-01;971;  0.0000000E+00;  0.0000000E+00;  0.0000000E+00;  1.0005595E+03;  1.0000000E-01;  4.6359183E+02;0;  0.0000000E+00;  0.0000000E+00;  0.0000000E+00;0; -4.9730977E-03;  4.0000000E+04;  0.0000000E+00;  0.0000000E+00;  4.0000000E+04;  0.0000000E+00;  4.0000000E+04; -5.0611212E-03;  0.0000000E+00;  8.8023262E-05;  4.0964923E+02;
 -1.0000000E-01;  9.9999998E-03;  1.9000000E-01;972;  0.0000000E+00;  0.0000000E+00;  0.0000000E+00;  1.0005280E+03;  1.0000000E-01;  4.3741974E+02;0;  0.0000000E+00;  0.0000000E+00;  0.0000000E+00;0; -4.7548250E-03;  4.0000000E+04;  0.0000000E+00;  0.0000000E+00;  4.0000000E+04;  0.0000000E+00;  4.0000000E+04; -4.8502223E-03;  0.0000000E+00;  9.5397343E-05;  4.1727512E+02;
 -1.0000000E-01;  9.9999998E-03;  2.0000000E-01;973;  0.0000000E+00;  0.0000000E+00;  0.0000000E+00;  1.0004973E+03;  1.0000000E-01;  4.1203772E+02;0;  0.0000000E+00;  0.0000000E+00;  0.0000000E+00;0; -4.5113140E-03;  4.0000000E+04;  0.0000000E+00;  0.0000000E+00;  4.0000000E+04;  0.0000000E+00;  4.0000000E+04; -4.6106926E-03;  0.0000000E+00;  9.9378463E-05;  4.1626016E+02;
 -1.0000000E-01;  9.9999998E-03;  2.0999999E-01;974;  0.0000000E+00;  0.0000000E+00;  0.0000000E+00;  1.0004716E+03;  1.0000000E-01;  3.9070499E+02;0;  0.0000000E+00;  0.0000000E+00;  0.0000000E+00;0; -4.2486335E-03;  4.0000000E+04;  0.0000000E+00;  0.0000000E+00;  4.0000000E+04;  0.0000000E+00;  4.0000000E+04; -4.3461784E-03;  0.0000000E+00;  9.7545082E-05;  4.0357867E+02;
 -1.0000000E-01;  9.9999998E-03;  2.2000000E-01;975;  0.0000000E+00;  0.0000000E+00;  0.0000000E+00;  1.0004379E+03;  1.0000000E-01;  3.6285394E+02;0;  0.0000000E+00;  0.0000000E+00;  0.0000000E+00;0; -3.9723720E-03;  4.0000000E+04;  0.0000000E+00;  0.0000000E+00;  4.0000000E+04;  0.0000000E+00;  4.0000000E+04; -4.0601427E-03;  0.0000000E+00;  8.7770837E-05;  3.7650214E+02;
 -1.0000000E-01;  9.9999998E-03;  2.3000000E-01;976;  0.0000000E+00;  0.0000000E+00;  0.0000000E+00;  1.0004128E+03;  1.0000000E-01;  3.4201501E+02;0;  0.0000000E+00;  0.0000000E+00;  0.0000000E+00;0; -3.6868469E-03;  4.0000000E+04;  0.0000000E+00;  0.0000000E+00;  4.0000000E+04;  0.0000000E+00;  4.0000000E+04; -3.7556493E-03;  0.0000000E+00;  6.8802277E-05;  3.3341278E+02;
 -9.0000004E-02;  9.9999998E-03;  7.0000000E-02;1051;  0.0000000E+00;  0.0000000E+00;  0.0000000E+00;  1.0011594E+03;  1.0000000E-01;  9.6056543E+02;0;  0.0000000E+00;  0.0000000E+00;  0.0000000E+00;0; -9.1556972E-03;  4.0000000E+04;  0.0000000E+00;  0.0000000E+00;  4.0000000E+04;  0.0000000E+00;  4.0000000E+04; -9.2291106E-03;  0.0000000E+00;  7.3413299E-05;  3.3579272E+02;
 -9.0000004E-02;  9.9999998E-03;  7.9999998E-02;1052;  0.0000000E+00;  0.0000000E+00;  0.0000000E+00;  1.0011570E+03;  1.0000000E-01;  9.5859015E+02;0;  0.0000000E+00;  0.0000000E+00;  0.0000000E+00;0; -9.1996668E-03;  4.0000000E+04;  0.0000000E+00;  0.0000000E+00;  4.0000000E+04;  0.0000000E+00;  4.0000000E+04; -9.2788069E-03;  0.0000000E+00;  7.9140285E-05;  3.4311249E+02;
 -9.0000004E-02;  9.9999998E-03;  9.0000004E-02;1053;  0.0000000E+00;  0.0000000E+00;  0.0000000E+00;  1.0011528E+03;  1.0000000E-01;  9.5513348E+02;0;  0.0000000E+00;  0.0000000E+00;  0.0000000E+00;0; -9.2429565E-03;  4.0000000E+04;  0.0000000E+00;  0.0000000E+00;  4.0000000E+04;  0.0000000E+00;  4.0000000E+04; -9.3269330E-03;  0.0000000E+00;  8.3975974E-05;  3.5756149E+02;
 -9.0000004E-02;  9.9999998E-03;  1.0000000E-01;1054;  0.0000000E+00;  0.0000000E+00;  0.0000000E+00;  1.0011451E+03;  1.0000000E-01;  9.4871393E+02;0;  0.0000000E+00;  0.0000000E+00;  0.0000000E+00;0; -9.2791030E-03;  4.0000000E+04;  0.0000000E+00;  0.0000000E+00;  4.0000000E+04;  0.0000000E+00;  4.0000000E+04; -9.3671111E-03;  0.0000000E+00;  8.8007808E-05;  3.7905399E+02;
 -9.0000004E-02;  9.9999998E-03;  1.1000000E-01;1055;  0.0000000E+00;  0.0000000E+00;  0.0000000E+00;  1.0011357E+03;  1.0000000E-01;  9.4091168E+02;0;  0.0000000E+00;  0.0000000E+00;  0.0000000E+00;0; -9.2999050E-03;  4.0000000E+04;  0.0000000E+00;  0.0000000E+00;  4.0000000E+04;  0.0000000E+00;  4.0000000E+04; -9.3915192E-03;  0.0000000E+00;  9.1614042E-05;  4.0678598E+02;
 -9.0000004E-02;  9.9999998E-03;  1.2000000E-01;1056;  0.0000000E+00;  0.0000000E+00;  0.0000000E+00;  1.0011227E+03;  1.0000000E-01;  9.3014655E+02;0;  0.0000000E+00;  0.0000000E+00;  0.0000000E+00;0; -9.2959562E-03;  4.0000000E+04;  0.0000000E+00;  0.0000000E+00;  4.0000000E+04;  0.0000000E+00;  4.0000000E+04; -9.3913823E-03;  0.0000000E+00;  9.5426323E-05;  4.3940915E+02;
 -9.0000004E-02;  9.9999998E-03;  1.3000000E-01;1057;  0.0000000E+00;  0.0000000E+00;  0.0000000E+00;  1.0011041E+03;  1.0000000E-01;  9.1473956E+02;0;  0.0000000E+00;  0.0000000E+00;  0.0000000E+00;0; -9.2574526E-03;  4.0000000E+04;  0.0000000E+00;  0.0000000E+00;  4.0000000E+04;  0.0000000E+00;  4.0000000E+04; -9.3576815E-03;  0.0000000E+00;  1.0022926E-04;  4.7527484E+02;
 -9.0000004E-02;  9.9999998E-03;  1.4000000E-01;1058;  0.0000000E+00;  0.0000000E+00;  0.0000000E+00;  1.0010758E+03;  1.0000000E-01;  8.9133282E+02;0;  0.0000000E+00;  0.0000000E+00;  0.0000000E+00;0; -9.1751069E-03;  4.0000000E+04;  0.0000000E+00;  0.0000000E+00;  4.0000000E+04;  0.0000000E+00;  4.0000000E+04; -9.2819100E-03;  0.0000000E+00;  1.0680308E-04;  5.1270093E+02;
 -9.0000004E-02;  9.9999998E-03;  1.5000001E-01;1059;  0.0000000E+00;  0.0000000E+00;  0.0000000E+00;  1.0010485E+03;  1.0000000E-01;  8.6871619E+02;0;  0.0000000E+00;  0.0000000E+00;  0.0000000E+00;0; -9.0412833E-03;  4.0000000E+04;  0.0000000E+00;  0.0000000E+00;  4.0000000E+04;  0.0000000E+00;  4.0000000E+04; -9.1570178E-03;  0.0000000E+00;  1.1573415E-04;  5.5012195E+02;
 -9.0000004E-02;  9.9999998E-03;  1.6000000E-01;1060;  0.0000000E+00;  0.0000000E+00;  0.0000000E+00;  1.0010118E+03;  1.0000000E-01;  8.3819849E+02;0;  0.0000000E+00;  0.0000000E+00;  0.0000000E+00;0; -8.8509265E-03;  4.0000000E+04;  0.0000000E+00;  0.0000000E+00;  4.0000000E+04;  0.0000000E+00;  4.0000000E+04; -8.9781452E-03;  0.0000000E+00;  1.2721893E-04;  5.8603168E+02;
 -9.0000004E-02;  9.9999998E-03;  1.7000000E-01;1061;  0.0000000E+00;  0.0000000E+00;  0.0000000E+00;  1.0009727E+03;  1.0000000E-01;  8.0580438E+02;0;  0.0000000E+00;  0.0000000E+00;  0.0000000E+00;0; -8.6024404E-03;  4.0000000E+04;  0.0000000E+00;  0.0000000E+00;  4.0000000E+04;  0.0000000E+00;  4.0000000E+04; -8.7430831E-03;  0.0000000E+00;  1.4064310E-04;  6.1856146E+02;
 -9.0000004E-02;  9.9999998E-03;  1.8000001E-01;1062;  0.0000000E+00;  0.0000000E+00;  0.0000000E+00;  1.0009315E+03;  1.0000000E-01;  7.7173126E+02;0;  0.0000000E+00;  0.0000000E+00;  0.0000000E+00;0; -8.2980283E-03;  4.0000000E+04;  0.0000000E+00;  0.0000000E+00;  4.0000000E+04;  0.0000000E+00;  4.0000000E+04; -8.4523298E-03;  0.0000000E+00;  1.5430171E-04;  6.4511047E+02;
 -9.0000004E-02;  9.9999998E-03;  1.9000000E-01;1063;  0.0000000E+00;  0.0000000E+00;  0.0000000E+00;  1.0008854E+03;  1.0000000E-01;  7.3351013E+02;0;  0.0000000E+00;  0.0000000E+00;  0.0000000E+00;0; -7.9433722E-03;  4.0000000E+04;  0.0000000E+00;  0.0000000E+00;  4.0000000E+04;  0.0000000E+00;  4.0000000E+04; -8.1087602E-03;  0.0000000E+00;  1.6538790E-04;  6.6206024E+02;
 -9.0000004E-02;  9.9999998E-03;  2.0000000E-01;1064;  0.0000000E+00;  0.0000000E+00;  0.0000000E+00;  1.0008344E+03;  1.0000000E-01;  6.9123969E+02;0;  0.0000000E+00;  0.0000000E+00;  0.0000000E+00;0; -7.5464989E-03;  4.0000000E+04;  0.0000000E+00;  0.0000000E+00;  4.0000000E+04;  0.0000000E+00;  4.0000000E+04; -7.7167163E-03;  0.0000000E+00;  1.7021720E-04;  6.6470941E+02;
 -9.0000004E-02;  9.9999998E-03;  2.0999999E-01;1065;  0.0000000E+00;  0.0000000E+00;  0.0000000E+00;  1.0007834E+03;  1.0000000E-01;  6.4906805E+02;0;  0.0000000E+00;  0.0000000E+00;  0.0000000E+00;0; -7.1163611E-03;  4.0000000E+04;  0.0000000E+00;  0.0000000E+00;  4.0000000E+04;  0.0000000E+00;  4.0000000E+04; -7.2812671E-03;  0.0000000E+00;  1.6490587E-04;  6.4801276E+02;
 -9.0000004E-02;  9.9999998E-03;  2.2000000E-01;1066;  0.0000000E+00;  0.0000000E+00;  0.0000000E+00;  1.0007408E+03;  1.0000000E-01;  6.1371106E+02;0;  0.0000000E+00;  0.0000000E+00;  0.0000000E+00;0; -6.6613792E-03;  4.0000000E+04;  0.0000000E+00;  0.0000000E+00;  4.0000000E+04;  0.0000000E+00;  4.0000000E+04; -6.8076095E-03;  0.0000000E+00;  1.4623042E-04;  6.0770135E+02;
 -9.0000004E-02;  9.9999998E-03;  2.3000000E-01;1067;  0.0000000E+00;  0.0000000E+00;  0.0000000E+00;  1.0006873E+03;  1.0000000E-01;  5.6936664E+02;0;  0.0000000E+00;  0.0000000E+00;  0.0000000E+00;0; -6.1884024E-03;  4.0000000E+04;  0.0000000E+00;  0.0000000E+00;  4.0000000E+04;  0.0000000E+00;  4.0000000E+04; -6.3008554E-03;  0.0000000E+00;  1.1245324E-04;  5.4139874E+02;
 -7.9999998E-02;  9.9999998E-03;  7.0000000E-02;1142;  0.0000000E+00;  0.0000000E+00;  0.0000000E+00;  1.0018173E+03;  1.0000000E-01;  1.5056365E+03;0;  0.0000000E+00;  0.0000000E+00;  0.0000000E+00;0; -1.4272382E-02;  4.0000000E+04;  0.0000000E+00;  0.0000000E+00;  4.0000000E+04;  0.0000000E+00;  4.0000000E+04; -1.4404699E-02;  0.0000000E+00;  1.3231729E-04;  4.5994989E+02;
 -7.9999998E-02;  9.9999998E-03;  7.9999998E-02;1143;  0.0000000E+00;  0.0000000E+00;  0.0000000E+00;  1.0018121E+03;  1.0000000E-01;  1.5012909E+03;0;  0.0000000E+00;  0.0000000E+00;  0.0000000E+00;0; -1.4342985E-02;  4.0000000E+04;  0.0000000E+00;  0.0000000E+00;  4.0000000E+04;  0.0000000E+00;  4.0000000E+04; -1.4484359E-02;  0.0000000E+00;  1.4137362E-04;  4.7227777E+02;
 -7.9999998E-02;  9.9999998E-03;  9.0000004E-02;1144;  0.0000000E+00;  0.0000000E+00;  0.0000000E+00;  1.0018043E+03;  1.0000000E-01;  1.4947726E+03;0;  0.0000000E+00;  0.0000000E+00;  0.0000000E+00;0; -1.4412069E-02;  4.0000000E+04;  0.0000000E+00;  0.0000000E+00;  4.0000000E+04;  0.0000000E+00;  4.0000000E+04; -1.4560595E-02;  0.0000000E+00;  1.4852638E-04;  4.9517545E+02;
 -7.9999998E-02;  9.9999998E-03;  1.0000000E-01;1145;  0.0000000E+00;  0.0000000E+00;  0.0000000E+00;  1.0017908E+03;  1.0000000E-01;  1.4836123E+03;0;  0.0000000E+00;  0.0000000E+00;  0.0000000E+00;0; -1.4469692E-02;  4.0000000E+04;  0.0000000E+00;  0.0000000E+00;  4.0000000E+04;  0.0000000E+00;  4.0000000E+04; -1.4623649E-02;  0.0000000E+00;  1.5395798E-04;  5.2843774E+02;
 -7.9999998E-02;  9.9999998E-03;  1.1000000E-01;1146;  0.0000000E+00;  0.0000000E+00;  0.0000000E+00;  1.0017757E+03;  1.0000000E-01;  1.4711682E+03;0;  0.0000000E+00;  0.0000000E+00;  0.0000000E+00;0; -1.4503419E-02;  4.0000000E+04;  0.0000000E+00;  0.0000000E+00;  4.0000000E+04;  0.0000000E+00;  4.0000000E+04; -1.4661790E-02;  0.0000000E+00;  1.5837017E-04;  5.7089075E+02;
 -7.9999998E-02;  9.9999998E-03;  1.2000000E-01;1147;  0.0000000E+00;  0.0000000E+00;  0.0000000E+00;  1.0017552E+03;  1.0000000E-01;  1.4541812E+03;0;  0.0000000E+00;  0.0000000E+00;  0.0000000E+00;0; -1.4499065E-02;  4.0000000E+04;  0.0000000E+00;  0.0000000E+00;  4.0000000E+04;  0.0000000E+00;  4.0000000E+04; -1.4661968E-02;  0.0000000E+00;  1.6290278E-04;  6.2066376E+02;
 -7.9999998E-02;  9.9999998E-03;  1.3000000E-01;1148;  0.0000000E+00;  0.0000000E+00;  0.0000000E+00;  1.0017272E+03;  1.0000000E-01;  1.4309719E+03;0;  0.0000000E+00;  0.0000000E+00;  0.0000000E+00;0; -1.4441867E-02;  4.0000000E+04;  0.0000000E+00;  0.0000000E+00;  4.0000000E+04;  0.0000000E+00;  4.0000000E+04; -1.4610817E-02;  0.0000000E+00;  1.6894942E-04;  6.7560315E+02;
 -7.9999998E-02;  9.9999998E-03;  1.4000000E-01;1149;  0.0000000E+00;  0.0000000E+00;  0.0000000E+00;  1.0016851E+03;  1.0000000E-01;  1.3960099E+03;0;  0.0000000E+00;  0.0000000E+00;  0.0000000E+00;0; -1.4317920E-02;  4.0000000E+04;  0.0000000E+00;  0.0000000E+00;  4.0000000E+04;  0.0000000E+00;  4.0000000E+04; -1.4495806E-02;  0.0000000E+00;  1.7788497E-04;  7.3357947E+02;
 -7.9999998E-02;  9.9999998E-03;  1.5000001E-01;1150;  0.0000000E+00;  0.0000000E+00;  0.0000000E+00;  1.0016431E+03;  1.0000000E-01;  1.3612455E+03;0;  0.0000000E+00;  0.0000000E+00;  0.0000000E+00;0; -1.4115708E-02;  4.0000000E+04;  0.0000000E+00;  0.0000000E+00;  4.0000000E+04;  0.0000000E+00;  4.0000000E+04; -1.4306453E-02;  0.0000000E+00;  1.9074537E-04;  7.9260968E+02;
 -7.9999998E-02;  9.9999998E-03;  1.6000000E-01;1151;  0.0000000E+00;  0.0000000E+00;  0.0000000E+00;  1.0015862E+03;  1.0000000E-01;  1.3141356E+03;0;  0.0000000E+00;  0.0000000E+00;  0.0000000E+00;0; -1.3827581E-02;  4.0000000E+04;  0.0000000E+00;  0.0000000E+00;  4.0000000E+04;  0.0000000E+00;  4.0000000E+04; -1.4035374E-02;  0.0000000E+00;  2.0779297E-04;  8.5055573E+02;
 -7.9999998E-02;  9.9999998E-03;  1.7000000E-01;1152;  0.0000000E+00;  0.0000000E+00;  0.0000000E+00;  1.0015262E+03;  1.0000000E-01;  1.2644580E+03;0;  0.0000000E+00;  0.0000000E+00;  0.0000000E+00;0; -1.3451003E-02;  4.0000000E+04;  0.0000000E+00;  0.0000000E+00;  4.0000000E+04;  0.0000000E+00;  4.0000000E+04; -1.3678839E-02;  0.0000000E+00;  2.2783584E-04;  9.0448029E+02;
 -7.9999998E-02;  9.9999998E-03;  1.8000001E-01;1153;  0.0000000E+00;  0.0000000E+00;  0.0000000E+00;  1.0014627E+03;  1.0000000E-01;  1.2118176E+03;0;  0.0000000E+00;  0.0000000E+00;  0.0000000E+00;0; -1.2988885E-02;  4.0000000E+04;  0.0000000E+00;  0.0000000E+00;  4.0000000E+04;  0.0000000E+00;  4.0000000E+04; -1.3236894E-02;  0.0000000E+00;  2.4800946E-04;  9.5019391E+02;
 -7.9999998E-02;  9.9999998E-03;  1.9000000E-01;1154;  0.0000000E+00;  0.0000000E+00;  0.0000000E+00;  1.0013893E+03;  1.0000000E-01;  1.1510786E+03;0;  0.0000000E+00;  0.0000000E+00;  0.0000000E+00;0; -1.2449112E-02;  4.0000000E+04;  0.0000000E+00;  0.0000000E+00;  4.0000000E+04;  0.0000000E+00;  4.0000000E+04; -1.2712810E-02;  0.0000000E+00;  2.6369814E-04;  9.8163794E+02;
 -7.9999998E-02;  9.9999998E-03;  2.0000000E-01;1155;  0.0000000E+00;  0.0000000E+00;  0.0000000E+00;  1.0013136E+03;  1.0000000E-01;  1.0882655E+03;0;  0.0000000E+00;  0.0000000E+00;  0.0000000E+00;0; -1.1842804E-02;  4.0000000E+04;  0.0000000E+00;  0.0000000E+00;  4.0000000E+04;  0.0000000E+00;  4.0000000E+04; -1.2111940E-02;  0.0000000E+00;  2.6913677E-04;  9.9136237E+02;
 -7.9999998E-02;  9.9999998E-03;  2.0999999E-01;1156;  0.0000000E+00;  0.0000000E+00;  0.0000000E+00;  1.0012379E+03;  1.0000000E-01;  1.0255513E+03;0;  0.0000000E+00;  0.0000000E+00;  0.0000000E+00;0; -1.1182535E-02;  4.0000000E+04;  0.0000000E+00;  0.0000000E+00;  4.0000000E+04;  0.0000000E+00;  4.0000000E+04; -1.1441011E-02;  0.0000000E+00;  2.5847679E-04;  9.7176422E+02;
 -7.9999998E-02;  9.9999998E-03;  2.2000000E-01;1157;  0.0000000E+00;  0.0000000E+00;  0.0000000E+00;  1.0011577E+03;  1.0000000E-01;  9.5918274E+02;0;  0.0000000E+00;  0.0000000E+00;  0.0000000E+00;0; -1.0480450E-02;  4.0000000E+04;  0.0000000E+00;  0.0000000E+00;  4.0000000E+04;  0.0000000E+00;  4.0000000E+04; -1.0707463E-02;  0.0000000E+00;  2.2701360E-04;  9.1654095E+02;
 -7.9999998E-02;  9.9999998E-03;  2.3000000E-01;1158;  0.0000000E+00;  0.0000000E+00;  0.0000000E+00;  1.0010817E+03;  1.0000000E-01;  8.9617218E+02;0;  0.0000000E+00;  0.0000000E+00;  0.0000000E+00;0; -9.7468970E-03;  4.0000000E+04;  0.0000000E+00;  0.0000000E+00;  4.0000000E+04;  0.0000000E+00;  4.0000000E+04; -9.9192197E-03;  0.0000000E+00;  1.7232235E-04;  8.2216864E+02;
 -7.0000000E-02;  9.9999998E-03;  7.0000000E-02;1233;  0.0000000E+00;  0.0000000E+00;  0.0000000E+00;  1.0027033E+03;  1.0000000E-01;  2.2396404E+03;0;  0.0000000E+00;  0.0000000E+00;  0.0000000E+00;0; -2.1082414E-02;  4.0000000E+04;  0.0000000E+00;  0.0000000E+00;  4.0000000E+04;  0.0000000E+00;  4.0000000E+04; -2.1304501E-02;  0.0000000E+00;  2.2208782E-04;  5.9632404E+02;
 -7.0000000E-02;  9.9999998E-03;  7.9999998E-02;1234;  0.0000000E+00;  0.0000000E+00;  0.0000000E+00;  1.0026964E+03;  1.0000000E-01;  2.2339121E+03;0;  0.0000000E+00;  0.0000000E+00;  0.0000000E+00;0; -2.1190615E-02;  4.0000000E+04;  0.0000000E+00;  0.0000000E+00;  4.0000000E+04;  0.0000000E+00;  4.0000000E+04; -2.1425920E-02;  0.0000000E+00;  2.3530415E-04;  6.1565326E+02;
 -7.0000000E-02;  9.9999998E-03;  9.0000004E-02;1235;  0.0000000E+00;  0.0000000E+00;  0.0000000E+00;  1.0026862E+03;  1.0000000E-01;  2.2254185E+03;0;  0.0000000E+00;  0.0000000E+00;  0.0000000E+00;0; -2.1296697E-02;  4.0000000E+04;  0.0000000E+00;  0.0000000E+00;  4.0000000E+04;  0.0000000E+00;  4.0000000E+04; -2.1541495E-02;  0.0000000E+00;  2.4479898E-04;  6.4974902E+02;
 -7.0000000E-02;  9.9999998E-03;  1.0000000E-01;1236;  0.0000000E+00;  0.0000000E+00;  0.0000000E+00;  1.0026696E+03;  1.0000000E-01;  2.2116904E+03;0;  0.0000000E+00;  0.0000000E+00;  0.0000000E+00;0; -2.1386266E-02;  4.0000000E+04;  0.0000000E+00;  0.0000000E+00;  4.0000000E+04;  0.0000000E+00;  4.0000000E+04; -2.1637175E-02;  0.0000000E+00;  2.5091012E-04;  6.9821704E+02;
 -7.0000000E-02;  9.9999998E-03;  1.1000000E-01;1237;  0.0000000E+00;  0.0000000E+00;  0.0000000E+00;  1.0026456E+03;  1.0000000E-01;  2.1918394E+03;0;  0.0000000E+00;  0.0000000E+00;  0.0000000E+00;0; -2.1441281E-02;  4.0000000E+04;  0.0000000E+00;  0.0000000E+00;  4.0000000E+04;  0.0000000E+00;  4.0000000E+04; -2.1696139E-02;  0.0000000E+00;  2.5485797E-04;  7.5942554E+02;
 -7.0000000E-02;  9.9999998E-03;  1.2000000E-01;1238;  0.0000000E+00;  0.0000000E+00;  0.0000000E+00;  1.0026086E+03;  1.0000000E-01;  2.1611240E+03;0;  0.0000000E+00;  0.0000000E+00;  0.0000000E+00;0; -2.1441229E-02;  4.0000000E+04;  0.0000000E+00;  0.0000000E+00;  4.0000000E+04;  0.0000000E+00;  4.0000000E+04; -2.1699825E-02;  0.0000000E+00;  2.5859682E-04;  8.3094257E+02;
 -7.0000000E-02;  9.9999998E-03;  1.3000000E-01;1239;  0.0000000E+00;  0.0000000E+00;  0.0000000E+00;  1.0025687E+03;  1.0000000E-01;  2.1281375E+03;0;  0.0000000E+00;  0.0000000E+00;  0.0000000E+00;0; -2.1364857E-02;  4.0000000E+04;  0.0000000E+00;  0.0000000E+00;  4.0000000E+04;  0.0000000E+00;  4.0000000E+04; -2.1629356E-02;  0.0000000E+00;  2.6449986E-04;  9.1010333E+02;
 -7.0000000E-02;  9.9999998E-03;  1.4000000E-01;1240;  0.0000000E+00;  0.0000000E+00;  0.0000000E+00;  1.0025107E+03;  1.0000000E-01;  2.0801387E+03;0;  0.0000000E+00;  0.0000000E+00;  0.0000000E+00;0; -2.1191999E-02;  4.0000000E+04;  0.0000000E+00;  0.0000000E+00;  4.0000000E+04;  0.0000000E+00;  4.0000000E+04; -2.1466907E-02;  0.0000000E+00;  2.7490690E-04;  9.9438092E+02;
 -7.0000000E-02;  9.9999998E-03;  1.5000001E-01;1241;  0.0000000E+00;  0.0000000E+00;  0.0000000E+00;  1.0024443E+03;  1.0000000E-01;  2.0250292E+03;0;  0.0000000E+00;  0.0000000E+00;  0.0000000E+00;0; -2.0905942E-02;  4.0000000E+04;  0.0000000E+00;  0.0000000E+00;  4.0000000E+04;  0.0000000E+00;  4.0000000E+04; -2.1197537E-02;  0.0000000E+00;  2.9159573E-04;  1.0814020E+03;
 -7.0000000E-02;  9.9999998E-03;  1.6000000E-01;1242;  0.0000000E+00;  0.0000000E+00;  0.0000000E+00;  1.0023699E+03;  1.0000000E-01;  1.9634012E+03;0;  0.0000000E+00;  0.0000000E+00;  0.0000000E+00;0; -2.0495515E-02;  4.0000000E+04;  0.0000000E+00;  0.0000000E+00;  4.0000000E+04;  0.0000000E+00;  4.0000000E+04; -2.0810399E-02;  0.0000000E+00;  3.1488441E-04;  1.1682515E+03;
 -7.0000000E-02;  9.9999998E-03;  1.7000000E-01;1243;  0.0000000E+00;  0.0000000E+00;  0.0000000E+00;  1.0022772E+03;  1.0000000E-01;  1.8866627E+03;0;  0.0000000E+00;  0.0000000E+00;  0.0000000E+00;0; -1.9956611E-02;  4.0000000E+04;  0.0000000E+00;  0.0000000E+00;  4.0000000E+04;  0.0000000E+00;  4.0000000E+04; -2.0299530E-02;  0.0000000E+00;  3.4291841E-04;  1.2508279E+03;
 -7.0000000E-02;  9.9999998E-03;  1.8000001E-01;1244;  0.0000000E+00;  0.0000000E+00;  0.0000000E+00;  1.0021793E+03;  1.0000000E-01;  1.8054799E+03;0;  0.0000000E+00;  0.0000000E+00;  0.0000000E+00;0; -1.9292846E-02;  4.0000000E+04;  0.0000000E+00;  0.0000000E+00;  4.0000000E+04;  0.0000000E+00;  4.0000000E+04; -1.9664021E-02;  0.0000000E+00;  3.7117477E-04;  1.3227126E+03;
 -7.0000000E-02;  9.9999998E-03;  1.9000000E-01;1245;  0.0000000E+00;  0.0000000E+00;  0.0000000E+00;  1.0020754E+03;  1.0000000E-01;  1.7194575E+03;0;  0.0000000E+00;  0.0000000E+00;  0.0000000E+00;0; -1.8514376E-02;  4.0000000E+04;  0.0000000E+00;  0.0000000E+00;  4.0000000E+04;  0.0000000E+00;  4.0000000E+04; -1.8907005E-02;  0.0000000E+00;  3.9262918E-04;  1.3748251E+03;
 -7.0000000E-02;  9.9999998E-03;  2.0000000E-01;1246;  0.0000000E+00;  0.0000000E+00;  0.0000000E+00;  1.0019639E+03;  1.0000000E-01;  1.6270157E+03;0;  0.0000000E+00;  0.0000000E+00;  0.0000000E+00;0; -1.7636038E-02;  4.0000000E+04;  0.0000000E+00;  0.0000000E+00;  4.0000000E+04;  0.0000000E+00;  4.0000000E+04; -1.8034821E-02;  0.0000000E+00;  3.9878333E-04;  1.3964678E+03;
 -7.0000000E-02;  9.9999998E-03;  2.0999999E-01;1247;  0.0000000E+00;  0.0000000E+00;  0.0000000E+00;  1.0018520E+03;  1.0000000E-01;  1.5343763E+03;0;  0.0000000E+00;  0.0000000E+00;  0.0000000E+00;0; -1.6674826E-02;  4.0000000E+04;  0.0000000E+00;  0.0000000E+00;  4.0000000E+04;  0.0000000E+00;  4.0000000E+04; -1.7056009E-02;  0.0000000E+00;  3.8118215E-04;  1.3768566E+03;
 -7.0000000E-02;  9.9999998E-03;  2.2000000E-01;1248;  0.0000000E+00;  0.0000000E+00;  0.0000000E+00;  1.0017355E+03;  1.0000000E-01;  1.4377865E+03;0;  0.0000000E+00;  0.0000000E+00;  0.0000000E+00;0; -1.5647663E-02;  4.0000000E+04;  0.0000000E+00;  0.0000000E+00;  4.0000000E+04;  0.0000000E+00;  4.0000000E+04; -1.5980748E-02;  0.0000000E+00;  3.3308618E-04;  1.3070126E+03;
 -7.0000000E-02;  9.9999998E-03;  2.3000000E-01;1249;  0.0000000E+00;  0.0000000E+00;  0.0000000E+00;  1.0016206E+03;  1.0000000E-01;  1.3426781E+03;0;  0.0000000E+00;  0.0000000E+00;  0.0000000E+00;0; -1.4569516E-02;  4.0000000E+04;  0.0000000E+00;  0.0000000E+00;  4.0000000E+04;  0.0000000E+00;  4.0000000E+04; -1.4820537E-02;  0.0000000E+00;  2.5102048E-04;  1.1816205E+03;
 -5.9999999E-02;  9.9999998E-03;  7.0000000E-02;1324;  0.0000000E+00;  0.0000000E+00;  0.0000000E+00;  1.0038510E+03;  1.0000000E-01;  3.1905271E+03;0;  0.0000000E+00;  0.0000000E+00;  0.0000000E+00;0; -2.9711034E-02;  4.0000000E+04;  0.0000000E+00;  0.0000000E+00;  4.0000000E+04;  0.0000000E+00;  4.0000000E+04; -3.0062264E-02;  0.0000000E+00;  3.5122980E-04;  7.3489606E+02;
 -5.9999999E-02;  9.9999998E-03;  7.9999998E-02;1325;  0.0000000E+00;  0.0000000E+00;  0.0000000E+00;  1.0038422E+03;  1.0000000E-01;  3.1831199E+03;0;  0.0000000E+00;  0.0000000E+00;  0.0000000E+00;0; -2.9870557E-02;  4.0000000E+04;  0.0000000E+00;  0.0000000E+00;  4.0000000E+04;  0.0000000E+00;  4.0000000E+04; -3.0239739E-02;  0.0000000E+00;  3.6918247E-04;  7.6340063E+02;
 -5.9999999E-02;  9.9999998E-03;  9.0000004E-02;1326;  0.0000000E+00;  0.0000000E+00;  0.0000000E+00;  1.0038256E+03;  1.0000000E-01;  3.1694907E+03;0;  0.0000000E+00;  0.0000000E+00;  0.0000000E+00;0; -3.0028356E-02;  4.0000000E+04;  0.0000000E+00;  0.0000000E+00;  4.0000000E+04;  0.0000000E+00;  4.0000000E+04; -3.0408729E-02;  0.0000000E+00;  3.8037205E-04;  8.1151379E+02;
 -5.9999999E-02;  9.9999998E-03;  1.0000000E-01;1327;  0.0000000E+00;  0.0000000E+00;  0.0000000E+00;  1.0038011E+03;  1.0000000E-01;  3.1491455E+03;0;  0.0000000E+00;  0.0000000E+00;  0.0000000E+00;0; -3.0164346E-02;  4.0000000E+04;  0.0000000E+00;  0.0000000E+00;  4.0000000E+04;  0.0000000E+00;  4.0000000E+04; -3.0549722E-02;  0.0000000E+00;  3.8537534E-04;  8.7856219E+02;
 -5.9999999E-02;  9.9999998E-03;  1.1000000E-01;1328;  0.0000000E+00;  0.0000000E+00;  0.0000000E+00;  1.0037642E+03;  1.0000000E-01;  3.1186279E+03;0;  0.0000000E+00;  0.0000000E+00;  0.0000000E+00;0; -3.0253509E-02;  4.0000000E+04;  0.0000000E+00;  0.0000000E+00;  4.0000000E+04;  0.0000000E+00;  4.0000000E+04; -3.0639717E-02;  0.0000000E+00;  3.8620786E-04;  9.6235779E+02;
 -5.9999999E-02;  9.9999998E-03;  1.2000000E-01;1329;  0.0000000E+00;  0.0000000E+00;  0.0000000E+00;  1.0037138E+03;  1.0000000E-01;  3.0768513E+03;0;  0.0000000E+00;  0.0000000E+00;  0.0000000E+00;0; -3.0267352E-02;  4.0000000E+04;  0.0000000E+00;  0.0000000E+00;  4.0000000E+04;  0.0000000E+00;  4.0000000E+04; -3.0653430E-02;  0.0000000E+00;  3.8607704E-04;  1.0598641E+03;
 -5.9999999E-02;  9.9999998E-03;  1.3000000E-01;1330;  0.0000000E+00;  0.0000000E+00;  0.0000000E+00;  1.0036524E+03;  1.0000000E-01;  3.0259885E+03;0;  0.0000000E+00;  0.0000000E+00;  0.0000000E+00;0; -3.0176174E-02;  4.0000000E+04;  0.0000000E+00;  0.0000000E+00;  4.0000000E+04;  0.0000000E+00;  4.0000000E+04; -3.0565048E-02;  0.0000000E+00;  3.8887406E-04;  1.1679517E+03;
 -5.9999999E-02;  9.9999998E-03;  1.4000000E-01;1331;  0.0000000E+00;  0.0000000E+00;  0.0000000E+00;  1.0035768E+03;  1.0000000E-01;  2.9633730E+03;0;  0.0000000E+00;  0.0000000E+00;  0.0000000E+00;0; -2.9951803E-02;  4.0000000E+04;  0.0000000E+00;  0.0000000E+00;  4.0000000E+04;  0.0000000E+00;  4.0000000E+04; -3.0350264E-02;  0.0000000E+00;  3.9845990E-04;  1.2837797E+03;
 -5.9999999E-02;  9.9999998E-03;  1.5000001E-01;1332;  0.0000000E+00;  0.0000000E+00;  0.0000000E+00;  1.0034832E+03;  1.0000000E-01;  2.8857456E+03;0;  0.0000000E+00;  0.0000000E+00;  0.0000000E+00;0; -2.9570652E-02;  4.0000000E+04;  0.0000000E+00;  0.0000000E+00;  4.0000000E+04;  0.0000000E+00;  4.0000000E+04; -2.9988391E-02;  0.0000000E+00;  4.1774000E-04;  1.4046362E+03;
 -5.9999999E-02;  9.9999998E-03;  1.6000000E-01;1333;  0.0000000E+00;  0.0000000E+00;  0.0000000E+00;  1.0033721E+03;  1.0000000E-01;  2.7936987E+03;0;  0.0000000E+00;  0.0000000E+00;  0.0000000E+00;0; -2.9016729E-02;  4.0000000E+04;  0.0000000E+00;  0.0000000E+00;  4.0000000E+04;  0.0000000E+00;  4.0000000E+04; -2.9464036E-02;  0.0000000E+00;  4.4730768E-04;  1.5270033E+03;
 -5.9999999E-02;  9.9999998E-03;  1.7000000E-01;1334;  0.0000000E+00;  0.0000000E+00;  0.0000000E+00;  1.0032476E+03;  1.0000000E-01;  2.6905906E+03;0;  0.0000000E+00;  0.0000000E+00;  0.0000000E+00;0; -2.8283685E-02;  4.0000000E+04;  0.0000000E+00;  0.0000000E+00;  4.0000000E+04;  0.0000000E+00;  4.0000000E+04; -2.8768167E-02;  0.0000000E+00;  4.8448108E-04;  1.6453628E+03;
 -5.9999999E-02;  9.9999998E-03;  1.8000001E-01;1335;  0.0000000E+00;  0.0000000E+00;  0.0000000E+00;  1.0031104E+03;  1.0000000E-01;  2.5769148E+03;0;  0.0000000E+00;  0.0000000E+00;  0.0000000E+00;0; -2.7375354E-02;  4.0000000E+04;  0.0000000E+00;  0.0000000E+00;  4.0000000E+04;  0.0000000E+00;  4.0000000E+04; -2.7897963E-02;  0.0000000E+00;  5.2260951E-04;  1.7507141E+03;
 -5.9999999E-02;  9.9999998E-03;  1.9000000E-01;1336;  0.0000000E+00;  0.0000000E+00;  0.0000000E+00;  1.0029611E+03;  1.0000000E-01;  2.4531653E+03;0;  0.0000000E+00;  0.0000000E+00;  0.0000000E+00;0; -2.6304377E-02;  4.0000000E+04;  0.0000000E+00;  0.0000000E+00;  4.0000000E+04;  0.0000000E+00;  4.0000000E+04; -2.6855992E-02;  0.0000000E+00;  5.5161479E-04;  1.8306870E+03;
 -5.9999999E-02;  9.9999998E-03;  2.0000000E-01;1337;  0.0000000E+00;  0.0000000E+00;  0.0000000E+00;  1.0028103E+03;  1.0000000E-01;  2.3283291E+03;0;  0.0000000E+00;  0.0000000E+00;  0.0000000E+00;0; -2.5089722E-02;  4.0000000E+04;  0.0000000E+00;  0.0000000E+00;  4.0000000E+04;  0.0000000E+00;  4.0000000E+04; -2.5649209E-02;  0.0000000E+00;  5.5948680E-04;  1.8708971E+03;
 -5.9999999E-02;  9.9999998E-03;  2.0999999E-01;1338;  0.0000000E+00;  0.0000000E+00;  0.0000000E+00;  1.0026508E+03;  1.0000000E-01;  2.1961848E+03;0;  0.0000000E+00;  0.0000000E+00;  0.0000000E+00;0; -2.3753641E-02;  4.0000000E+04;  0.0000000E+00;  0.0000000E+00;  4.0000000E+04;  0.0000000E+00;  4.0000000E+04; -2.4287965E-02;  0.0000000E+00;  5.3432392E-04;  1.8567527E+03;
 -5.9999999E-02;  9.9999998E-03;  2.2000000E-01;1339;  0.0000000E+00;  0.0000000E+00;  0.0000000E+00;  1.0024891E+03;  1.0000000E-01;  2.0621638E+03;0;  0.0000000E+00;  0.0000000E+00;  0.0000000E+00;0; -2.2319071E-02;  4.0000000E+04;  0.0000000E+00;  0.0000000E+00;  4.0000000E+04;  0.0000000E+00;  4.0000000E+04; -2.2785634E-02;  0.0000000E+00;  4.6656359E-04;  1.7756884E+03;
 -5.9999999E-02;  9.9999998E-03;  2.3000000E-01;1340;  0.0000000E+00;  0.0000000E+00;  0.0000000E+00;  1.0023241E+03;  1.0000000E-01;  1.9254764E+03;0;  0.0000000E+00;  0.0000000E+00;  0.0000000E+00;0; -2.0806881E-02;  4.0000000E+04;  0.0000000E+00;  0.0000000E+00;  4.0000000E+04;  0.0000000E+00;  4.0000000E+04; -2.1157965E-02;  0.0000000E+00;  3.5108402E-04;  1.6195862E+03;
 -5.0000001E-02;  9.9999998E-03;  7.0000000E-02;1415;  0.0000000E+00;  0.0000000E+00;  0.0000000E+00;  1.0052604E+03;  1.0000000E-01;  4.3580991E+03;0;  0.0000000E+00;  0.0000000E+00;  0.0000000E+00;0; -4.0100828E-02;  4.0000000E+04;  0.0000000E+00;  0.0000000E+00;  4.0000000E+04;  0.0000000E+00;  4.0000000E+04; -4.0628567E-02;  0.0000000E+00;  5.2773871E-04;  8.6102136E+02;
 -5.0000001E-02;  9.9999998E-03;  7.9999998E-02;1416;  0.0000000E+00;  0.0000000E+00;  0.0000000E+00;  1.0052480E+03;  1.0000000E-01;  4.3479263E+03;0;  0.0000000E+00;  0.0000000E+00;  0.0000000E+00;0; -4.0327720E-02;  4.0000000E+04;  0.0000000E+00;  0.0000000E+00;  4.0000000E+04;  0.0000000E+00;  4.0000000E+04; -4.0878277E-02;  0.0000000E+00;  5.5055786E-04;  9.0088263E+02;
 -5.0000001E-02;  9.9999998E-03;  9.0000004E-02;1417;  0.0000000E+00;  0.0000000E+00;  0.0000000E+00;  1.0052291E+03;  1.0000000E-01;  4.3322231E+03;0;  0.0000000E+00;  0.0000000E+00;  0.0000000E+00;0; -4.0555183E-02;  4.0000000E+04;  0.0000000E+00;  0.0000000E+00;  4.0000000E+04;  0.0000000E+00;  4.0000000E+04; -4.1117013E-02;  0.0000000E+00;  5.6183117E-04;  9.6562213E+02;
 -5.0000001E-02;  9.9999998E-03;  1.0000000E-01;1418;  0.0000000E+00;  0.0000000E+00;  0.0000000E+00;  1.0051954E+03;  1.0000000E-01;  4.3042734E+03;0;  0.0000000E+00;  0.0000000E+00;  0.0000000E+00;0; -4.0756501E-02;  4.0000000E+04;  0.0000000E+00;  0.0000000E+00;  4.0000000E+04;  0.0000000E+00;  4.0000000E+04; -4.1318983E-02;  0.0000000E+00;  5.6247972E-04;  1.0541497E+03;
 -5.0000001E-02;  9.9999998E-03;  1.1000000E-01;1419;  0.0000000E+00;  0.0000000E+00;  0.0000000E+00;  1.0051473E+03;  1.0000000E-01;  4.2643730E+03;0;  0.0000000E+00;  0.0000000E+00;  0.0000000E+00;0; -4.0898152E-02;  4.0000000E+04;  0.0000000E+00;  0.0000000E+00;  4.0000000E+04;  0.0000000E+00;  4.0000000E+04; -4.1453838E-02;  0.0000000E+00;  5.5568799E-04;  1.1636008E+03;
 -5.0000001E-02;  9.9999998E-03;  1.2000000E-01;1420;  0.0000000E+00;  0.0000000E+00;  0.0000000E+00;  1.0050769E+03;  1.0000000E-01;  4.2061030E+03;0;  0.0000000E+00;  0.0000000E+00;  0.0000000E+00;0; -4.0941805E-02;  4.0000000E+04;  0.0000000E+00;  0.0000000E+00;  4.0000000E+04;  0.0000000E+00;  4.0000000E+04; -4.1488320E-02;  0.0000000E+00;  5.4651679E-04;  1.2903007E+03;
 -5.0000001E-02;  9.9999998E-03;  1.3000000E-01;1421;  0.0000000E+00;  0.0000000E+00;  0.0000000E+00;  1.0049897E+03;  1.0000000E-01;  4.1339077E+03;0;  0.0000000E+00;  0.0000000E+00;  0.0000000E+00;0; -4.0847331E-02;  4.0000000E+04;  0.0000000E+00;  0.0000000E+00;  4.0000000E+04;  0.0000000E+00;  4.0000000E+04; -4.1388456E-02;  0.0000000E+00;  5.4112345E-04;  1.4307076E+03;
 -5.0000001E-02;  9.9999998E-03;  1.4000000E-01;1422;  0.0000000E+00;  0.0000000E+00;  0.0000000E+00;  1.0048851E+03;  1.0000000E-01;  4.0471941E+03;0;  0.0000000E+00;  0.0000000E+00;  0.0000000E+00;0; -4.0576454E-02;  4.0000000E+04;  0.0000000E+00;  0.0000000E+00;  4.0000000E+04;  0.0000000E+00;  4.0000000E+04; -4.1122124E-02;  0.0000000E+00;  5.4567010E-04;  1.5818392E+03;
 -5.0000001E-02;  9.9999998E-03;  1.5000001E-01;1423;  0.0000000E+00;  0.0000000E+00;  0.0000000E+00;  1.0047591E+03;  1.0000000E-01;  3.9428020E+03;0;  0.0000000E+00;  0.0000000E+00;  0.0000000E+00;0; -4.0096872E-02;  4.0000000E+04;  0.0000000E+00;  0.0000000E+00;  4.0000000E+04;  0.0000000E+00;  4.0000000E+04; -4.0661644E-02;  0.0000000E+00;  5.6477380E-04;  1.7408643E+03;
 -5.0000001E-02;  9.9999998E-03;  1.6000000E-01;1424;  0.0000000E+00;  0.0000000E+00;  0.0000000E+00;  1.0046129E+03;  1.0000000E-01;  3.8217190E+03;0;  0.0000000E+00;  0.0000000E+00;  0.0000000E+00;0; -3.9386280E-02;  4.0000000E+04;  0.0000000E+00;  0.0000000E+00;  4.0000000E+04;  0.0000000E+00;  4.0000000E+04; -3.9985996E-02;  0.0000000E+00;  5.9971574E-04;  1.9039564E+03;
 -5.0000001E-02;  9.9999998E-03;  1.7000000E-01;1425;  0.0000000E+00;  0.0000000E+00;  0.0000000E+00;  1.0044464E+03;  1.0000000E-01;  3.6837476E+03;0;  0.0000000E+00;  0.0000000E+00;  0.0000000E+00;0; -3.8434945E-02;  4.0000000E+04;  0.0000000E+00;  0.0000000E+00;  4.0000000E+04;  0.0000000E+00;  4.0000000E+04; -3.9081827E-02;  0.0000000E+00;  6.4688252E-04;  2.0641924E+03;
 -5.0000001E-02;  9.9999998E-03;  1.8000001E-01;1426;  0.0000000E+00;  0.0000000E+00;  0.0000000E+00;  1.0042629E+03;  1.0000000E-01;  3.5317520E+03;0;  0.0000000E+00;  0.0000000E+00;  0.0000000E+00;0; -3.7246425E-02;  4.0000000E+04;  0.0000000E+00;  0.0000000E+00;  4.0000000E+04;  0.0000000E+00;  4.0000000E+04; -3.7943512E-02;  0.0000000E+00;  6.9708790E-04;  2.2100835E+03;
 -5.0000001E-02;  9.9999998E-03;  1.9000000E-01;1427;  0.0000000E+00;  0.0000000E+00;  0.0000000E+00;  1.0040654E+03;  1.0000000E-01;  3.3681023E+03;0;  0.0000000E+00;  0.0000000E+00;  0.0000000E+00;0; -3.5835609E-02;  4.0000000E+04;  0.0000000E+00;  0.0000000E+00;  4.0000000E+04;  0.0000000E+00;  4.0000000E+04; -3.6572117E-02;  0.0000000E+00;  7.3650805E-04;  2.3260234E+03;
 -5.0000001E-02;  9.9999998E-03;  2.0000000E-01;1428;  0.0000000E+00;  0.0000000E+00;  0.0000000E+00;  1.0038580E+03;  1.0000000E-01;  3.1962554E+03;0;  0.0000000E+00;  0.0000000E+00;  0.0000000E+00;0; -3.4226142E-02;  4.0000000E+04;  0.0000000E+00;  0.0000000E+00;  4.0000000E+04;  0.0000000E+00;  4.0000000E+04; -3.4974817E-02;  0.0000000E+00;  7.4867473E-04;  2.3936638E+03;
 -5.0000001E-02;  9.9999998E-03;  2.0999999E-01;1429;  0.0000000E+00;  0.0000000E+00;  0.0000000E+00;  1.0036416E+03;  1.0000000E-01;  3.0170010E+03;0;  0.0000000E+00;  0.0000000E+00;  0.0000000E+00;0; -3.2446407E-02;  4.0000000E+04;  0.0000000E+00;  0.0000000E+00;  4.0000000E+04;  0.0000000E+00;  4.0000000E+04; -3.3163555E-02;  0.0000000E+00;  7.1714702E-04;  2.3938525E+03;
 -5.0000001E-02;  9.9999998E-03;  2.2000000E-01;1430;  0.0000000E+00;  0.0000000E+00;  0.0000000E+00;  1.0034241E+03;  1.0000000E-01;  2.8368582E+03;0;  0.0000000E+00;  0.0000000E+00;  0.0000000E+00;0; -3.0526478E-02;  4.0000000E+04;  0.0000000E+00;  0.0000000E+00;  4.0000000E+04;  0.0000000E+00;  4.0000000E+04; -3.1154936E-02;  0.0000000E+00;  6.2845927E-04;  2.3092644E+03;
 -5.0000001E-02;  9.9999998E-03;  2.3000000E-01;1431;  0.0000000E+00;  0.0000000E+00;  0.0000000E+00;  1.0031992E+03;  1.0000000E-01;  2.6504929E+03;0;  0.0000000E+00;  0.0000000E+00;  0.0000000E+00;0; -2.8494552E-02;  4.0000000E+04;  0.0000000E+00;  0.0000000E+00;  4.0000000E+04;  0.0000000E+00;  4.0000000E+04; -2.8969498E-02;  0.0000000E+00;  4.7494724E-04;  2.1274988E+03;
 -3.9999999E-02;  9.9999998E-03;  7.0000000E-02;1506;  0.0000000E+00;  0.0000000E+00;  0.0000000E+00;  1.0069093E+03;  1.0000000E-01;  5.7241836E+03;0;  0.0000000E+00;  0.0000000E+00;  0.0000000E+00;0; -5.1947784E-02;  4.0000000E+04;  0.0000000E+00;  0.0000000E+00;  4.0000000E+04;  0.0000000E+00;  4.0000000E+04; -5.2705672E-02;  0.0000000E+00;  7.5788726E-04;  9.5609967E+02;
 -3.9999999E-02;  9.9999998E-03;  7.9999998E-02;1507;  0.0000000E+00;  0.0000000E+00;  0.0000000E+00;  1.0068943E+03;  1.0000000E-01;  5.7118384E+03;0;  0.0000000E+00;  0.0000000E+00;  0.0000000E+00;0; -5.2259419E-02;  4.0000000E+04;  0.0000000E+00;  0.0000000E+00;  4.0000000E+04;  0.0000000E+00;  4.0000000E+04; -5.3044535E-02;  0.0000000E+00;  7.8511733E-04;  1.0093120E+03;
 -3.9999999E-02;  9.9999998E-03;  9.0000004E-02;1508;  0.0000000E+00;  0.0000000E+00;  0.0000000E+00;  1.0068709E+03;  1.0000000E-01;  5.6923823E+03;0;  0.0000000E+00;  0.0000000E+00;  0.0000000E+00;0; -5.2576974E-02;  4.0000000E+04;  0.0000000E+00;  0.0000000E+00;  4.0000000E+04;  0.0000000E+00;  4.0000000E+04; -5.3370647E-02;  0.0000000E+00;  7.9367420E-04;  1.0927389E+03;
 -3.9999999E-02;  9.9999998E-03;  1.0000000E-01;1509;  0.0000000E+00;  0.0000000E+00;  0.0000000E+00;  1.0068323E+03;  1.0000000E-01;  5.6603833E+03;0;  0.0000000E+00;  0.0000000E+00;  0.0000000E+00;0; -5.2866474E-02;  4.0000000E+04;  0.0000000E+00;  0.0000000E+00;  4.0000000E+04;  0.0000000E+00;  4.0000000E+04; -5.3651433E-02;  0.0000000E+00;  7.8495825E-04;  1.2046915E+03;
 -3.9999999E-02;  9.9999998E-03;  1.1000000E-01;1510;  0.0000000E+00;  0.0000000E+00;  0.0000000E+00;  1.0067718E+03;  1.0000000E-01;  5.6103105E+03;0;  0.0000000E+00;  0.0000000E+00;  0.0000000E+00;0; -5.3084381E-02;  4.0000000E+04;  0.0000000E+00;  0.0000000E+00;  4.0000000E+04;  0.0000000E+00;  4.0000000E+04; -5.3848181E-02;  0.0000000E+00;  7.6380139E-04;  1.3414580E+03;
 -3.9999999E-02;  9.9999998E-03;  1.2000000E-01;1511;  0.0000000E+00;  0.0000000E+00;  0.0000000E+00;  1.0066824E+03;  1.0000000E-01;  5.5362383E+03;0;  0.0000000E+00;  0.0000000E+00;  0.0000000E+00;0; -5.3180866E-02;  4.0000000E+04;  0.0000000E+00;  0.0000000E+00;  4.0000000E+04;  0.0000000E+00;  4.0000000E+04; -5.3918760E-02;  0.0000000E+00;  7.3789532E-04;  1.4986539E+03;
 -3.9999999E-02;  9.9999998E-03;  1.3000000E-01;1512;  0.0000000E+00;  0.0000000E+00;  0.0000000E+00;  1.0065692E+03;  1.0000000E-01;  5.4424141E+03;0;  0.0000000E+00;  0.0000000E+00;  0.0000000E+00;0; -5.3103473E-02;  4.0000000E+04;  0.0000000E+00;  0.0000000E+00;  4.0000000E+04;  0.0000000E+00;  4.0000000E+04; -5.3820118E-02;  0.0000000E+00;  7.1664614E-04;  1.6724130E+03;
 -3.9999999E-02;  9.9999998E-03;  1.4000000E-01;1513;  0.0000000E+00;  0.0000000E+00;  0.0000000E+00;  1.0064292E+03;  1.0000000E-01;  5.3264668E+03;0;  0.0000000E+00;  0.0000000E+00;  0.0000000E+00;0; -5.2801404E-02;  4.0000000E+04;  0.0000000E+00;  0.0000000E+00;  4.0000000E+04;  0.0000000E+00;  4.0000000E+04; -5.3510953E-02;  0.0000000E+00;  7.0955022E-04;  1.8598796E+03;
 -3.9999999E-02;  9.9999998E-03;  1.5000001E-01;1514;  0.0000000E+00;  0.0000000E+00;  0.0000000E+00;  1.0062614E+03;  1.0000000E-01;  5.1874087E+03;0;  0.0000000E+00;  0.0000000E+00;  0.0000000E+00;0; -5.2231699E-02;  4.0000000E+04;  0.0000000E+00;  0.0000000E+00;  4.0000000E+04;  0.0000000E+00;  4.0000000E+04; -5.2955542E-02;  0.0000000E+00;  7.2384102E-04;  2.0585874E+03;
 -3.9999999E-02;  9.9999998E-03;  1.6000000E-01;1515;  0.0000000E+00;  0.0000000E+00;  0.0000000E+00;  1.0060710E+03;  1.0000000E-01;  5.0297837E+03;0;  0.0000000E+00;  0.0000000E+00;  0.0000000E+00;0; -5.1363993E-02;  4.0000000E+04;  0.0000000E+00;  0.0000000E+00;  4.0000000E+04;  0.0000000E+00;  4.0000000E+04; -5.2126054E-02;  0.0000000E+00;  7.6206186E-04;  2.2649409E+03;
 -3.9999999E-02;  9.9999998E-03;  1.7000000E-01;1516;  0.0000000E+00;  0.0000000E+00;  0.0000000E+00;  1.0058570E+03;  1.0000000E-01;  4.8524058E+03;0;  0.0000000E+00;  0.0000000E+00;  0.0000000E+00;0; -5.0184000E-02;  4.0000000E+04;  0.0000000E+00;  0.0000000E+00;  4.0000000E+04;  0.0000000E+00;  4.0000000E+04; -5.1003750E-02;  0.0000000E+00;  8.1975065E-04;  2.4710657E+03;
 -3.9999999E-02;  9.9999998E-03;  1.8000001E-01;1517;  0.0000000E+00;  0.0000000E+00;  0.0000000E+00;  1.0056215E+03;  1.0000000E-01;  4.6572510E+03;0;  0.0000000E+00;  0.0000000E+00;  0.0000000E+00;0; -4.8693944E-02;  4.0000000E+04;  0.0000000E+00;  0.0000000E+00;  4.0000000E+04;  0.0000000E+00;  4.0000000E+04; -4.9578823E-02;  0.0000000E+00;  8.8487839E-04;  2.6636619E+03;
 -3.9999999E-02;  9.9999998E-03;  1.9000000E-01;1518;  0.0000000E+00;  0.0000000E+00;  0.0000000E+00;  1.0053644E+03;  1.0000000E-01;  4.4443188E+03;0;  0.0000000E+00;  0.0000000E+00;  0.0000000E+00;0; -4.6910912E-02;  4.0000000E+04;  0.0000000E+00;  0.0000000E+00;  4.0000000E+04;  0.0000000E+00;  4.0000000E+04; -4.7850031E-02;  0.0000000E+00;  9.3911914E-04;  2.8243057E+03;
 -3.9999999E-02;  9.9999998E-03;  2.0000000E-01;1519;  0.0000000E+00;  0.0000000E+00;  0.0000000E+00;  1.0050964E+03;  1.0000000E-01;  4.2222017E+03;0;  0.0000000E+00;  0.0000000E+00;  0.0000000E+00;0; -4.4863172E-02;  4.0000000E+04;  0.0000000E+00;  0.0000000E+00;  4.0000000E+04;  0.0000000E+00;  4.0000000E+04; -4.5823593E-02;  0.0000000E+00;  9.6042006E-04;  2.9305469E+03;
 -3.9999999E-02;  9.9999998E-03;  2.0999999E-01;1520;  0.0000000E+00;  0.0000000E+00;  0.0000000E+00;  1.0048168E+03;  1.0000000E-01;  3.9907019E+03;0;  0.0000000E+00;  0.0000000E+00;  0.0000000E+00;0; -4.2586368E-02;  4.0000000E+04;  0.0000000E+00;  0.0000000E+00;  4.0000000E+04;  0.0000000E+00;  4.0000000E+04; -4.3512795E-02;  0.0000000E+00;  9.2642871E-04;  2.9579128E+03;
 -3.9999999E-02;  9.9999998E-03;  2.2000000E-01;1521;  0.0000000E+00;  0.0000000E+00;  0.0000000E+00;  1.0045317E+03;  1.0000000E-01;  3.7544617E+03;0;  0.0000000E+00;  0.0000000E+00;  0.0000000E+00;0; -4.0118821E-02;  4.0000000E+04;  0.0000000E+00;  0.0000000E+00;  4.0000000E+04;  0.0000000E+00;  4.0000000E+04; -4.0937182E-02;  0.0000000E+00;  8.1835943E-04;  2.8828022E+03;
 -3.9999999E-02;  9.9999998E-03;  2.3000000E-01;1522;  0.0000000E+00;  0.0000000E+00;  0.0000000E+00;  1.0042406E+03;  1.0000000E-01;  3.5132834E+03;0;  0.0000000E+00;  0.0000000E+00;  0.0000000E+00;0; -3.7497476E-02;  4.0000000E+04;  0.0000000E+00;  0.0000000E+00;  4.0000000E+04;  0.0000000E+00;  4.0000000E+04; -3.8122240E-02;  0.0000000E+00;  6.2476553E-04;  2.6865488E+03;
 -2.9999999E-02;  9.9999998E-03;  7.0000000E-02;1597;  0.0000000E+00;  0.0000000E+00;  0.0000000E+00;  1.0087404E+03;  1.0000000E-01;  7.2411777E+03;0;  0.0000000E+00;  0.0000000E+00;  0.0000000E+00;0; -6.4687148E-02;  4.0000000E+04;  0.0000000E+00;  0.0000000E+00;  4.0000000E+04;  0.0000000E+00;  4.0000000E+04; -6.5731972E-02;  0.0000000E+00;  1.0448238E-03;  1.0000604E+03;
 -2.9999999E-02;  9.9999998E-03;  7.9999998E-02;1598;  0.0000000E+00;  0.0000000E+00;  0.0000000E+00;  1.0087282E+03;  1.0000000E-01;  7.2312031E+03;0;  0.0000000E+00;  0.0000000E+00;  0.0000000E+00;0; -6.5100379E-02;  4.0000000E+04;  0.0000000E+00;  0.0000000E+00;  4.0000000E+04;  0.0000000E+00;  4.0000000E+04; -6.6175744E-02;  0.0000000E+00;  1.0753629E-03;  1.0683175E+03;
 -2.9999999E-02;  9.9999998E-03;  9.0000004E-02;1599;  0.0000000E+00;  0.0000000E+00;  0.0000000E+00;  1.0086999E+03;  1.0000000E-01;  7.2076973E+03;0;  0.0000000E+00;  0.0000000E+00;  0.0000000E+00;0; -6.5529615E-02;  4.0000000E+04;  0.0000000E+00;  0.0000000E+00;  4.0000000E+04;  0.0000000E+00;  4.0000000E+04; -6.6606738E-02;  0.0000000E+00;  1.0771204E-03;  1.1717056E+03;
 -2.9999999E-02;  9.9999998E-03;  1.0000000E-01;1600;  0.0000000E+00;  0.0000000E+00;  0.0000000E+00;  1.0086519E+03;  1.0000000E-01;  7.1679946E+03;0;  0.0000000E+00;  0.0000000E+00;  0.0000000E+00;0; -6.5932661E-02;  4.0000000E+04;  0.0000000E+00;  0.0000000E+00;  4.0000000E+04;  0.0000000E+00;  4.0000000E+04; -6.6984788E-02;  0.0000000E+00;  1.0521270E-03;  1.3075585E+03;
 -2.9999999E-02;  9.9999998E-03;  1.1000000E-01;1601;  0.0000000E+00;  0.0000000E+00;  0.0000000E+00;  1.0085807E+03;  1.0000000E-01;  7.1089346E+03;0;  0.0000000E+00;  0.0000000E+00;  0.0000000E+00;0; -6.6255271E-02;  4.0000000E+04;  0.0000000E+00;  0.0000000E+00;  4.0000000E+04;  0.0000000E+00;  4.0000000E+04; -6.7262717E-02;  0.0000000E+00;  1.0074447E-03;  1.4711349E+03;
 -2.9999999E-02;  9.9999998E-03;  1.2000000E-01;1602;  0.0000000E+00;  0.0000000E+00;  0.0000000E+00;  1.0084766E+03;  1.0000000E-01;  7.0227148E+03;0;  0.0000000E+00;  0.0000000E+00;  0.0000000E+00;0; -6.6434570E-02;  4.0000000E+04;  0.0000000E+00;  0.0000000E+00;  4.0000000E+04;  0.0000000E+00;  4.0000000E+04; -6.7388929E-02;  0.0000000E+00;  9.5436064E-04;  1.6572439E+03;
 -2.9999999E-02;  9.9999998E-03;  1.3000000E-01;1603;  0.0000000E+00;  0.0000000E+00;  0.0000000E+00;  1.0083391E+03;  1.0000000E-01;  6.9087427E+03;0;  0.0000000E+00;  0.0000000E+00;  0.0000000E+00;0; -6.6403843E-02;  4.0000000E+04;  0.0000000E+00;  0.0000000E+00;  4.0000000E+04;  0.0000000E+00;  4.0000000E+04; -6.7310609E-02;  0.0000000E+00;  9.0676238E-04;  1.8618451E+03;
 -2.9999999E-02;  9.9999998E-03;  1.4000000E-01;1604;  0.0000000E+00;  0.0000000E+00;  0.0000000E+00;  1.0081659E+03;  1.0000000E-01;  6.7652407E+03;0;  0.0000000E+00;  0.0000000E+00;  0.0000000E+00;0; -6.6097766E-02;  4.0000000E+04;  0.0000000E+00;  0.0000000E+00;  4.0000000E+04;  0.0000000E+00;  4.0000000E+04; -6.6976555E-02;  0.0000000E+00;  8.7878562E-04;  2.0826233E+03;
 -2.9999999E-02;  9.9999998E-03;  1.5000001E-01;1605;  0.0000000E+00;  0.0000000E+00;  0.0000000E+00;  1.0079532E+03;  1.0000000E-01;  6.5890483E+03;0;  0.0000000E+00;  0.0000000E+00;  0.0000000E+00;0; -6.5460712E-02;  4.0000000E+04;  0.0000000E+00;  0.0000000E+00;  4.0000000E+04;  0.0000000E+00;  4.0000000E+04; -6.6342242E-02;  0.0000000E+00;  8.8152685E-04;  2.3183315E+03;
 -2.9999999E-02;  9.9999998E-03;  1.6000000E-01;1606;  0.0000000E+00;  0.0000000E+00;  0.0000000E+00;  1.0077087E+03;  1.0000000E-01;  6.3865850E+03;0;  0.0000000E+00;  0.0000000E+00;  0.0000000E+00;0; -6.4452268E-02;  4.0000000E+04;  0.0000000E+00;  0.0000000E+00;  4.0000000E+04;  0.0000000E+00;  4.0000000E+04; -6.5371849E-02;  0.0000000E+00;  9.1958354E-04;  2.5664163E+03;
 -2.9999999E-02;  9.9999998E-03;  1.7000000E-01;1607;  0.0000000E+00;  0.0000000E+00;  0.0000000E+00;  1.0074406E+03;  1.0000000E-01;  6.1643687E+03;0;  0.0000000E+00;  0.0000000E+00;  0.0000000E+00;0; -6.3051939E-02;  4.0000000E+04;  0.0000000E+00;  0.0000000E+00;  4.0000000E+04;  0.0000000E+00;  4.0000000E+04; -6.4039931E-02;  0.0000000E+00;  9.8799076E-04;  2.8192283E+03;
 -2.9999999E-02;  9.9999998E-03;  1.8000001E-01;1608;  0.0000000E+00;  0.0000000E+00;  0.0000000E+00;  1.0071438E+03;  1.0000000E-01;  5.9185488E+03;0;  0.0000000E+00;  0.0000000E+00;  0.0000000E+00;0; -6.1259918E-02;  4.0000000E+04;  0.0000000E+00;  0.0000000E+00;  4.0000000E+04;  0.0000000E+00;  4.0000000E+04; -6.2331595E-02;  0.0000000E+00;  1.0716764E-03;  3.0628770E+03;
 -2.9999999E-02;  9.9999998E-03;  1.9000000E-01;1609;  0.0000000E+00;  0.0000000E+00;  0.0000000E+00;  1.0068261E+03;  1.0000000E-01;  5.6553462E+03;0;  0.0000000E+00;  0.0000000E+00;  0.0000000E+00;0; -5.9094727E-02;  4.0000000E+04;  0.0000000E+00;  0.0000000E+00;  4.0000000E+04;  0.0000000E+00;  4.0000000E+04; -6.0241763E-02;  0.0000000E+00;  1.1470359E-03;  3.2769307E+03;
 -2.9999999E-02;  9.9999998E-03;  2.0000000E-01;1610;  0.0000000E+00;  0.0000000E+00;  0.0000000E+00;  1.0064899E+03;  1.0000000E-01;  5.3767368E+03;0;  0.0000000E+00;  0.0000000E+00;  0.0000000E+00;0; -5.6589700E-02;  4.0000000E+04;  0.0000000E+00;  0.0000000E+00;  4.0000000E+04;  0.0000000E+00;  4.0000000E+04; -5.7774823E-02;  0.0000000E+00;  1.1851222E-03;  3.4349263E+03;
 -2.9999999E-02;  9.9999998E-03;  2.0999999E-01;1611;  0.0000000E+00;  0.0000000E+00;  0.0000000E+00;  1.0061417E+03;  1.0000000E-01;  5.0883501E+03;0;  0.0000000E+00;  0.0000000E+00;  0.0000000E+00;0; -5.3788185E-02;  4.0000000E+04;  0.0000000E+00;  0.0000000E+00;  4.0000000E+04;  0.0000000E+00;  4.0000000E+04; -5.4944213E-02;  0.0000000E+00;  1.1560278E-03;  3.5062793E+03;
 -2.9999999E-02;  9.9999998E-03;  2.2000000E-01;1612;  0.0000000E+00;  0.0000000E+00;  0.0000000E+00;  1.0057829E+03;  1.0000000E-01;  4.7909756E+03;0;  0.0000000E+00;  0.0000000E+00;  0.0000000E+00;0; -5.0737854E-02;  4.0000000E+04;  0.0000000E+00;  0.0000000E+00;  4.0000000E+04;  0.0000000E+00;  4.0000000E+04; -5.1771753E-02;  0.0000000E+00;  1.0338986E-03;  3.4593953E+03;
 -2.9999999E-02;  9.9999998E-03;  2.3000000E-01;1613;  0.0000000E+00;  0.0000000E+00;  0.0000000E+00;  1.0054205E+03;  1.0000000E-01;  4.4907373E+03;0;  0.0000000E+00;  0.0000000E+00;  0.0000000E+00;0; -4.7485538E-02;  4.0000000E+04;  0.0000000E+00;  0.0000000E+00;  4.0000000E+04;  0.0000000E+00;  4.0000000E+04; -4.8287462E-02;  0.0000000E+00;  8.0192351E-04;  3.2668833E+03;
 -2.0000000E-02;  9.9999998E-03;  7.0000000E-02;1688;  0.0000000E+00;  0.0000000E+00;  0.0000000E+00;  1.0106694E+03;  1.0000000E-01;  8.8393545E+03;0;  0.0000000E+00;  0.0000000E+00;  0.0000000E+00;0; -7.7550046E-02;  4.0000000E+04;  0.0000000E+00;  0.0000000E+00;  4.0000000E+04;  0.0000000E+00;  4.0000000E+04; -7.8937128E-02;  0.0000000E+00;  1.3870784E-03;  9.7576068E+02;
 -2.0000000E-02;  9.9999998E-03;  7.9999998E-02;1689;  0.0000000E+00;  0.0000000E+00;  0.0000000E+00;  1.0106570E+03;  1.0000000E-01;  8.8290840E+03;0;  0.0000000E+00;  0.0000000E+00;  0.0000000E+00;0; -7.8079611E-02;  4.0000000E+04;  0.0000000E+00;  0.0000000E+00;  4.0000000E+04;  0.0000000E+00;  4.0000000E+04; -7.9498850E-02;  0.0000000E+00;  1.4192351E-03;  1.0604485E+03;
 -2.0000000E-02;  9.9999998E-03;  9.0000004E-02;1690;  0.0000000E+00;  0.0000000E+00;  0.0000000E+00;  1.0106296E+03;  1.0000000E-01;  8.8064668E+03;0;  0.0000000E+00;  0.0000000E+00;  0.0000000E+00;0; -7.8640781E-02;  4.0000000E+04;  0.0000000E+00;  0.0000000E+00;  4.0000000E+04;  0.0000000E+00;  4.0000000E+04; -8.0049679E-02;  0.0000000E+00;  1.4089003E-03;  1.1839814E+03;
 -2.0000000E-02;  9.9999998E-03;  1.0000000E-01;1691;  0.0000000E+00;  0.0000000E+00;  0.0000000E+00;  1.0105793E+03;  1.0000000E-01;  8.7646904E+03;0;  0.0000000E+00;  0.0000000E+00;  0.0000000E+00;0; -7.9183459E-02;  4.0000000E+04;  0.0000000E+00;  0.0000000E+00;  4.0000000E+04;  0.0000000E+00;  4.0000000E+04; -8.0542363E-02;  0.0000000E+00;  1.3589028E-03;  1.3423405E+03;
 -2.0000000E-02;  9.9999998E-03;  1.1000000E-01;1692;  0.0000000E+00;  0.0000000E+00;  0.0000000E+00;  1.0104987E+03;  1.0000000E-01;  8.6979268E+03;0;  0.0000000E+00;  0.0000000E+00;  0.0000000E+00;0; -7.9642206E-02;  4.0000000E+04;  0.0000000E+00;  0.0000000E+00;  4.0000000E+04;  0.0000000E+00;  4.0000000E+04; -8.0921412E-02;  0.0000000E+00;  1.2792078E-03;  1.5293402E+03;
 -2.0000000E-02;  9.9999998E-03;  1.2000000E-01;1693;  0.0000000E+00;  0.0000000E+00;  0.0000000E+00;  1.0103805E+03;  1.0000000E-01;  8.6000527E+03;0;  0.0000000E+00;  0.0000000E+00;  0.0000000E+00;0; -7.9939730E-02;  4.0000000E+04;  0.0000000E+00;  0.0000000E+00;  4.0000000E+04;  0.0000000E+00;  4.0000000E+04; -8.1125565E-02;  0.0000000E+00;  1.1858363E-03;  1.7389379E+03;
 -2.0000000E-02;  9.9999998E-03;  1.3000000E-01;1694;  0.0000000E+00;  0.0000000E+00;  0.0000000E+00;  1.0102206E+03;  1.0000000E-01;  8.4676123E+03;0;  0.0000000E+00;  0.0000000E+00;  0.0000000E+00;0; -7.9993740E-02;  4.0000000E+04;  0.0000000E+00;  0.0000000E+00;  4.0000000E+04;  0.0000000E+00;  4.0000000E+04; -8.1092365E-02;  0.0000000E+00;  1.0986227E-03;  1.9671324E+03;
 -2.0000000E-02;  9.9999998E-03;  1.4000000E-01;1695;  0.0000000E+00;  0.0000000E+00;  0.0000000E+00;  1.0100146E+03;  1.0000000E-01;  8.2969502E+03;0;  0.0000000E+00;  0.0000000E+00;  0.0000000E+00;0; -7.9722576E-02;  4.0000000E+04;  0.0000000E+00;  0.0000000E+00;  4.0000000E+04;  0.0000000E+00;  4.0000000E+04; -8.0760516E-02;  0.0000000E+00;  1.0379371E-03;  2.2128530E+03;
 -2.0000000E-02;  9.9999998E-03;  1.5000001E-01;1696;  0.0000000E+00;  0.0000000E+00;  0.0000000E+00;  1.0097639E+03;  1.0000000E-01;  8.0892529E+03;0;  0.0000000E+00;  0.0000000E+00;  0.0000000E+00;0; -7.9055928E-02;  4.0000000E+04;  0.0000000E+00;  0.0000000E+00;  4.0000000E+04;  0.0000000E+00;  4.0000000E+04; -8.0076195E-02;  0.0000000E+00;  1.0202697E-03;  2.4772725E+03;
 -2.0000000E-02;  9.9999998E-03;  1.6000000E-01;1697;  0.0000000E+00;  0.0000000E+00;  0.0000000E+00;  1.0094677E+03;  1.0000000E-01;  7.8438276E+03;0;  0.0000000E+00;  0.0000000E+00;  0.0000000E+00;0; -7.7941604E-02;  4.0000000E+04;  0.0000000E+00;  0.0000000E+00;  4.0000000E+04;  0.0000000E+00;  4.0000000E+04; -7.8994952E-02;  0.0000000E+00;  1.0533507E-03;  2.7602500E+03;
 -2.0000000E-02;  9.9999998E-03;  1.7000000E-01;1698;  0.0000000E+00;  0.0000000E+00;  0.0000000E+00;  1.0091326E+03;  1.0000000E-01;  7.5662056E+03;0;  0.0000000E+00;  0.0000000E+00;  0.0000000E+00;0; -7.6351672E-02;  4.0000000E+04;  0.0000000E+00;  0.0000000E+00;  4.0000000E+04;  0.0000000E+00;  4.0000000E+04; -7.7483982E-02;  0.0000000E+00;  1.1323080E-03;  3.0561982E+03;
 -2.0000000E-02;  9.9999998E-03;  1.8000001E-01;1699;  0.0000000E+00;  0.0000000E+00;  0.0000000E+00;  1.0087740E+03;  1.0000000E-01;  7.2691279E+03;0;  0.0000000E+00;  0.0000000E+00;  0.0000000E+00;0; -7.4282289E-02;  4.0000000E+04;  0.0000000E+00;  0.0000000E+00;  4.0000000E+04;  0.0000000E+00;  4.0000000E+04; -7.5521268E-02;  0.0000000E+00;  1.2389811E-03;  3.3522720E+03;
 -2.0000000E-02;  9.9999998E-03;  1.9000000E-01;1700;  0.0000000E+00;  0.0000000E+00;  0.0000000E+00;  1.0083890E+03;  1.0000000E-01;  6.9501245E+03;0;  0.0000000E+00;  0.0000000E+00;  0.0000000E+00;0; -7.1753331E-02;  4.0000000E+04;  0.0000000E+00;  0.0000000E+00;  4.0000000E+04;  0.0000000E+00;  4.0000000E+04; -7.3097050E-02;  0.0000000E+00;  1.3437185E-03;  3.6272512E+03;
 -2.0000000E-02;  9.9999998E-03;  2.0000000E-01;1701;  0.0000000E+00;  0.0000000E+00;  0.0000000E+00;  1.0079840E+03;  1.0000000E-01;  6.6146279E+03;0;  0.0000000E+00;  0.0000000E+00;  0.0000000E+00;0; -6.8802804E-02;  4.0000000E+04;  0.0000000E+00;  0.0000000E+00;  4.0000000E+04;  0.0000000E+00;  4.0000000E+04; -7.0212081E-02;  0.0000000E+00;  1.4092767E-03;  3.8510762E+03;
 -2.0000000E-02;  9.9999998E-03;  2.0999999E-01;1702;  0.0000000E+00;  0.0000000E+00;  0.0000000E+00;  1.0075630E+03;  1.0000000E-01;  6.2657983E+03;0;  0.0000000E+00;  0.0000000E+00;  0.0000000E+00;0; -6.5482304E-02;  4.0000000E+04;  0.0000000E+00;  0.0000000E+00;  4.0000000E+04;  0.0000000E+00;  4.0000000E+04; -6.6878639E-02;  0.0000000E+00;  1.3963372E-03;  3.9862419E+03;
 -2.0000000E-02;  9.9999998E-03;  2.2000000E-01;1703;  0.0000000E+00;  0.0000000E+00;  0.0000000E+00;  1.0071303E+03;  1.0000000E-01;  5.9072896E+03;0;  0.0000000E+00;  0.0000000E+00;  0.0000000E+00;0; -6.1849546E-02;  4.0000000E+04;  0.0000000E+00;  0.0000000E+00;  4.0000000E+04;  0.0000000E+00;  4.0000000E+04; -6.3119508E-02;  0.0000000E+00;  1.2699644E-03;  3.9914998E+03;
 -2.0000000E-02;  9.9999998E-03;  2.3000000E-01;1704;  0.0000000E+00;  0.0000000E+00;  0.0000000E+00;  1.0066906E+03;  1.0000000E-01;  5.5429541E+03;0;  0.0000000E+00;  0.0000000E+00;  0.0000000E+00;0; -5.7961889E-02;  4.0000000E+04;  0.0000000E+00;  0.0000000E+00;  4.0000000E+04;  0.0000000E+00;  4.0000000E+04; -5.8968000E-02;  0.0000000E+00;  1.0061113E-03;  3.8281084E+03;
 -9.9999998E-03;  9.9999998E-03;  7.0000000E-02;1779;  0.0000000E+00;  0.0000000E+00;  0.0000000E+00;  1.0125964E+03;  1.0000000E-01;  1.0435952E+04;0;  0.0000000E+00;  0.0000000E+00;  0.0000000E+00;0; -8.9634478E-02;  4.0000000E+04;  0.0000000E+00;  0.0000000E+00;  4.0000000E+04;  0.0000000E+00;  4.0000000E+04; -9.1411710E-02;  0.0000000E+00;  1.7772354E-03;  8.7350153E+02;
 -9.9999998E-03;  9.9999998E-03;  7.9999998E-02;1780;  0.0000000E+00;  0.0000000E+00;  0.0000000E+00;  1.0125895E+03;  1.0000000E-01;  1.0430224E+04;0;  0.0000000E+00;  0.0000000E+00;  0.0000000E+00;0; -9.0290979E-02;  4.0000000E+04;  0.0000000E+00;  0.0000000E+00;  4.0000000E+04;  0.0000000E+00;  4.0000000E+04; -9.2099883E-02;  0.0000000E+00;  1.8089041E-03;  9.7575439E+02;
 -9.9999998E-03;  9.9999998E-03;  9.0000004E-02;1781;  0.0000000E+00;  0.0000000E+00;  0.0000000E+00;  1.0125626E+03;  1.0000000E-01;  1.0407903E+04;0;  0.0000000E+00;  0.0000000E+00;  0.0000000E+00;0; -9.1001205E-02;  4.0000000E+04;  0.0000000E+00;  0.0000000E+00;  4.0000000E+04;  0.0000000E+00;  4.0000000E+04; -9.2781454E-02;  0.0000000E+00;  1.7802493E-03;  1.1185642E+03;
 -9.9999998E-03;  9.9999998E-03;  1.0000000E-01;1782;  0.0000000E+00;  0.0000000E+00;  0.0000000E+00;  1.0125120E+03;  1.0000000E-01;  1.0365929E+04;0;  0.0000000E+00;  0.0000000E+00;  0.0000000E+00;0; -9.1707520E-02;  4.0000000E+04;  0.0000000E+00;  0.0000000E+00;  4.0000000E+04;  0.0000000E+00;  4.0000000E+04; -9.3402587E-02;  0.0000000E+00;  1.6950649E-03;  1.2957349E+03;
 -9.9999998E-03;  9.9999998E-03;  1.1000000E-01;1783;  0.0000000E+00;  0.0000000E+00;  0.0000000E+00;  1.0124260E+03;  1.0000000E-01;  1.0294721E+04;0;  0.0000000E+00;  0.0000000E+00;  0.0000000E+00;0; -9.2333548E-02;  4.0000000E+04;  0.0000000E+00;  0.0000000E+00;  4.0000000E+04;  0.0000000E+00;  4.0000000E+04; -9.3900524E-02;  0.0000000E+00;  1.5669799E-03;  1.4992893E+03;
 -9.9999998E-03;  9.9999998E-03;  1.2000000E-01;1784;  0.0000000E+00;  0.0000000E+00;  0.0000000E+00;  1.0122999E+03;  1.0000000E-01;  1.0190230E+04;0;  0.0000000E+00;  0.0000000E+00;  0.0000000E+00;0; -9.2787631E-02;  4.0000000E+04;  0.0000000E+00;  0.0000000E+00;  4.0000000E+04;  0.0000000E+00;  4.0000000E+04; -9.4205648E-02;  0.0000000E+00;  1.4180153E-03;  1.7222216E+03;
 -9.9999998E-03;  9.9999998E-03;  1.3000000E-01;1785;  0.0000000E+00;  0.0000000E+00;  0.0000000E+00;  1.0121212E+03;  1.0000000E-01;  1.0042186E+04;0;  0.0000000E+00;  0.0000000E+00;  0.0000000E+00;0; -9.2970334E-02;  4.0000000E+04;  0.0000000E+00;  0.0000000E+00;  4.0000000E+04;  0.0000000E+00;  4.0000000E+04; -9.4245940E-02;  0.0000000E+00;  1.2756090E-03;  1.9609952E+03;
 -9.9999998E-03;  9.9999998E-03;  1.4000000E-01;1786;  0.0000000E+00;  0.0000000E+00;  0.0000000E+00;  1.0118880E+03;  1.0000000E-01;  9.8490059E+03;0;  0.0000000E+00;  0.0000000E+00;  0.0000000E+00;0; -9.2783108E-02;  4.0000000E+04;  0.0000000E+00;  0.0000000E+00;  4.0000000E+04;  0.0000000E+00;  4.0000000E+04; -9.3951300E-02;  0.0000000E+00;  1.1681931E-03;  2.2169082E+03;
 -9.9999998E-03;  9.9999998E-03;  1.5000001E-01;1787;  0.0000000E+00;  0.0000000E+00;  0.0000000E+00;  1.0116028E+03;  1.0000000E-01;  9.6126660E+03;0;  0.0000000E+00;  0.0000000E+00;  0.0000000E+00;0; -9.2138886E-02;  4.0000000E+04;  0.0000000E+00;  0.0000000E+00;  4.0000000E+04;  0.0000000E+00;  4.0000000E+04; -9.3258291E-02;  0.0000000E+00;  1.1194058E-03;  2.4951694E+03;
 -9.9999998E-03;  9.9999998E-03;  1.6000000E-01;1788;  0.0000000E+00;  0.0000000E+00;  0.0000000E+00;  1.0112614E+03;  1.0000000E-01;  9.3299092E+03;0;  0.0000000E+00;  0.0000000E+00;  0.0000000E+00;0; -9.0972625E-02;  4.0000000E+04;  0.0000000E+00;  0.0000000E+00;  4.0000000E+04;  0.0000000E+00;  4.0000000E+04; -9.2114083E-02;  0.0000000E+00;  1.1414551E-03;  2.7999915E+03;
 -9.9999998E-03;  9.9999998E-03;  1.7000000E-01;1789;  0.0000000E+00;  0.0000000E+00;  0.0000000E+00;  1.0108718E+03;  1.0000000E-01;  9.0070537E+03;0;  0.0000000E+00;  0.0000000E+00;  0.0000000E+00;0; -8.9246884E-02;  4.0000000E+04;  0.0000000E+00;  0.0000000E+00;  4.0000000E+04;  0.0000000E+00;  4.0000000E+04; -9.0477265E-02;  0.0000000E+00;  1.2303795E-03;  3.1300825E+03;
 -9.9999998E-03;  9.9999998E-03;  1.8000001E-01;1790;  0.0000000E+00;  0.0000000E+00;  0.0000000E+00;  1.0104449E+03;  1.0000000E-01;  8.6533848E+03;0;  0.0000000E+00;  0.0000000E+00;  0.0000000E+00;0; -8.6953178E-02;  4.0000000E+04;  0.0000000E+00;  0.0000000E+00;  4.0000000E+04;  0.0000000E+00;  4.0000000E+04; -8.8318214E-02;  0.0000000E+00;  1.3650368E-03;  3.4758196E+03;
 -9.9999998E-03;  9.9999998E-03;  1.9000000E-01;1791;  0.0000000E+00;  0.0000000E+00;  0.0000000E+00;  1.0099896E+03;  1.0000000E-01;  8.2762100E+03;0;  0.0000000E+00;  0.0000000E+00;  0.0000000E+00;0; -8.4111005E-02;  4.0000000E+04;  0.0000000E+00;  0.0000000E+00;  4.0000000E+04;  0.0000000E+00;  4.0000000E+04; -8.5620068E-02;  0.0000000E+00;  1.5090624E-03;  3.8165503E+03;
 -9.9999998E-03;  9.9999998E-03;  2.0000000E-01;1792;  0.0000000E+00;  0.0000000E+00;  0.0000000E+00;  1.0095129E+03;  1.0000000E-01;  7.8812588E+03;0;  0.0000000E+00;  0.0000000E+00;  0.0000000E+00;0; -8.0762699E-02;  4.0000000E+04;  0.0000000E+00;  0.0000000E+00;  4.0000000E+04;  0.0000000E+00;  4.0000000E+04; -8.2378231E-02;  0.0000000E+00;  1.6155341E-03;  4.1192056E+03;
 -9.9999998E-03;  9.9999998E-03;  2.0999999E-01;1793;  0.0000000E+00;  0.0000000E+00;  0.0000000E+00;  1.0090193E+03;  1.0000000E-01;  7.4722827E+03;0;  0.0000000E+00;  0.0000000E+00;  0.0000000E+00;0; -7.6967798E-02;  4.0000000E+04;  0.0000000E+00;  0.0000000E+00;  4.0000000E+04;  0.0000000E+00;  4.0000000E+04; -7.8601629E-02;  0.0000000E+00;  1.6338282E-03;  4.3390581E+03;
 -9.9999998E-03;  9.9999998E-03;  2.2000000E-01;1794;  0.0000000E+00;  0.0000000E+00;  0.0000000E+00;  1.0085156E+03;  1.0000000E-01;  7.0550103E+03;0;  0.0000000E+00;  0.0000000E+00;  0.0000000E+00;0; -7.2794184E-02;  4.0000000E+04;  0.0000000E+00;  0.0000000E+00;  4.0000000E+04;  0.0000000E+00;  4.0000000E+04; -7.4311972E-02;  0.0000000E+00;  1.5177893E-03;  4.4236460E+03;
 -9.9999998E-03;  9.9999998E-03;  2.3000000E-01;1795;  0.0000000E+00;  0.0000000E+00;  0.0000000E+00;  1.0079996E+03;  1.0000000E-01;  6.6274668E+03;0;  0.0000000E+00;  0.0000000E+00;  0.0000000E+00;0; -6.8309784E-02;  4.0000000E+04;  0.0000000E+00;  0.0000000E+00;  4.0000000E+04;  0.0000000E+00;  4.0000000E+04; -6.9543861E-02;  0.0000000E+00;  1.2340745E-03;  4.3206074E+03;
 -1.9000000E-01;  9.9999998E-03;  2.3999999E-01;158;  0.0000000E+00;  0.0000000E+00;  0.0000000E+00;  1.0000000E+03;  1.0000000E-01;  0.0000000E+00;0;  0.0000000E+00;  0.0000000E+00;  0.0000000E+00;0;  0.0000000E+00;  4.0000000E+04;  0.0000000E+00;  0.0000000E+00;  4.0000000E+04;  0.0000000E+00;  4.0000000E+04;  0.0000000E+00;  0.0000000E+00;  0.0000000E+00;  0.0000000E+00;
 -1.9000000E-01;  9.9999998E-03;  2.5000000E-01;159;  0.0000000E+00;  0.0000000E+00;  0.0000000E+00;  1.0000000E+03;  1.0000000E-01;  0.0000000E+00;0;  0.0000000E+00;  0.0000000E+00;  0.0000000E+00;0;  0.0000000E+00;  4.0000000E+04;  0.0000000E+00;  0.0000000E+00;  4.0000000E+04;  0.0000000E+00;  4.0000000E+04;  0.0000000E+00;  0.0000000E+00;  0.0000000E+00;  0.0000000E+00;
 -1.9000000E-01;  9.9999998E-03;  2.5999999E-01;160;  0.0000000E+00;  0.0000000E+00;  0.0000000E+00;  1.0000000E+03;  1.0000000E-01;  0.0000000E+00;0;  0.0000000E+00;  0.0000000E+00;  0.0000000E+00;0;  0.0000000E+00;  4.0000000E+04;  0.0000000E+00;  0.0000000E+00;  4.0000000E+04;  0.0000000E+00;  4.0000000E+04;  0.0000000E+00;  0.0000000E+00;  0.0000000E+00;  0.0000000E+00;
 -1.9000000E-01;  9.9999998E-03;  2.7000001E-01;161;  0.0000000E+00;  0.0000000E+00;  0.0000000E+00;  1.0000000E+03;  1.0000000E-01;  0.0000000E+00;0;  0.0000000E+00;  0.0000000E+00;  0.0000000E+00;0;  0.0000000E+00;  4.0000000E+04;  0.0000000E+00;  0.0000000E+00;  4.0000000E+04;  0.0000000E+00;  4.0000000E+04;  0.0000000E+00;  0.0000000E+00;  0.0000000E+00;  0.0000000E+00;
 -1.9000000E-01;  9.9999998E-03;  2.8000000E-01;162;  0.0000000E+00;  0.0000000E+00;  0.0000000E+00;  1.0000000E+03;  1.0000000E-01;  0.0000000E+00;0;  0.0000000E+00;  0.0000000E+00;  0.0000000E+00;0;  0.0000000E+00;  4.0000000E+04;  0.0000000E+00;  0.0000000E+00;  4.0000000E+04;  0.0000000E+00;  4.0000000E+04;  0.0000000E+00;  0.0000000E+00;  0.0000000E+00;  0.0000000E+00;
 -1.9000000E-01;  9.9999998E-03;  2.8999999E-01;163;  0.0000000E+00;  0.0000000E+00;  0.0000000E+00;  1.0000000E+03;  1.0000000E-01;  0.0000000E+00;0;  0.0000000E+00;  0.0000000E+00;  0.0000000E+00;0;  0.0000000E+00;  4.0000000E+04;  0.0000000E+00;  0.0000000E+00;  4.0000000E+04;  0.0000000E+00;  4.0000000E+04;  0.0000000E+00;  0.0000000E+00;  0.0000000E+00;  0.0000000E+00;
 -1.9000000E-01;  9.9999998E-03;  3.0000001E-01;164;  0.0000000E+00;  0.0000000E+00;  0.0000000E+00;  1.0000000E+03;  1.0000000E-01;  0.0000000E+00;0;  0.0000000E+00;  0.0000000E+00;  0.0000000E+00;0;  0.0000000E+00;  4.0000000E+04;  0.0000000E+00;  0.0000000E+00;  4.0000000E+04;  0.0000000E+00;  4.0000000E+04;  0.0000000E+00;  0.0000000E+00;  0.0000000E+00;  0.0000000E+00;
 -1.9000000E-01;  9.9999998E-03;  3.1000000E-01;165;  0.0000000E+00;  0.0000000E+00;  0.0000000E+00;  1.0000000E+03;  1.0000000E-01;  0.0000000E+00;0;  0.0000000E+00;  0.0000000E+00;  0.0000000E+00;0;  0.0000000E+00;  4.0000000E+04;  0.0000000E+00;  0.0000000E+00;  4.0000000E+04;  0.0000000E+00;  4.0000000E+04;  0.0000000E+00;  0.0000000E+00;  0.0000000E+00;  0.0000000E+00;
 -1.9000000E-01;  9.9999998E-03;  3.1999999E-01;166;  0.0000000E+00;  0.0000000E+00;  0.0000000E+00;  1.0000000E+03;  1.0000000E-01;  0.0000000E+00;0;  0.0000000E+00;  0.0000000E+00;  0.0000000E+00;0;  0.0000000E+00;  4.0000000E+04;  0.0000000E+00;  0.0000000E+00;  4.0000000E+04;  0.0000000E+00;  4.0000000E+04;  0.0000000E+00;  0.0000000E+00;  0.0000000E+00;  0.0000000E+00;
 -1.9000000E-01;  9.9999998E-03;  3.3000001E-01;167;  0.0000000E+00;  0.0000000E+00;  0.0000000E+00;  1.0000000E+03;  1.0000000E-01;  0.0000000E+00;0;  0.0000000E+00;  0.0000000E+00;  0.0000000E+00;0;  0.0000000E+00;  4.0000000E+04;  0.0000000E+00;  0.0000000E+00;  4.0000000E+04;  0.0000000E+00;  4.0000000E+04;  0.0000000E+00;  0.0000000E+00;  0.0000000E+00;  0.0000000E+00;
 -1.9000000E-01;  9.9999998E-03;  3.4000000E-01;168;  0.0000000E+00;  0.0000000E+00;  0.0000000E+00;  1.0000000E+03;  1.0000000E-01;  0.0000000E+00;0;  0.0000000E+00;  0.0000000E+00;  0.0000000E+00;0;  0.0000000E+00;  4.0000000E+04;  0.0000000E+00;  0.0000000E+00;  4.0000000E+04;  0.0000000E+00;  4.0000000E+04;  0.0000000E+00;  0.0000000E+00;  0.0000000E+00;  0.0000000E+00;
 -1.9000000E-01;  9.9999998E-03;  3.4999999E-01;169;  0.0000000E+00;  0.0000000E+00;  0.0000000E+00;  1.0000000E+03;  1.0000000E-01;  0.0000000E+00;0;  0.0000000E+00;  0.0000000E+00;  0.0000000E+00;0;  0.0000000E+00;  4.0000000E+04;  0.0000000E+00;  0.0000000E+00;  4.0000000E+04;  0.0000000E+00;  4.0000000E+04;  0.0000000E+00;  0.0000000E+00;  0.0000000E+00;  0.0000000E+00;
 -1.9000000E-01;  9.9999998E-03;  3.6000001E-01;170;  0.0000000E+00;  0.0000000E+00;  0.0000000E+00;  1.0000000E+03;  1.0000000E-01;  0.0000000E+00;0;  0.0000000E+00;  0.0000000E+00;  0.0000000E+00;0;  0.0000000E+00;  4.0000000E+04;  0.0000000E+00;  0.0000000E+00;  4.0000000E+04;  0.0000000E+00;  4.0000000E+04;  0.0000000E+00;  0.0000000E+00;  0.0000000E+00;  0.0000000E+00;
 -1.9000000E-01;  9.9999998E-03;  3.7000000E-01;171;  0.0000000E+00;  0.0000000E+00;  0.0000000E+00;  1.0000000E+03;  1.0000000E-01;  0.0000000E+00;0;  0.0000000E+00;  0.0000000E+00;  0.0000000E+00;0;  0.0000000E+00;  4.0000000E+04;  0.0000000E+00;  0.0000000E+00;  4.0000000E+04;  0.0000000E+00;  4.0000000E+04;  0.0000000E+00;  0.0000000E+00;  0.0000000E+00;  0.0000000E+00;
 -1.9000000E-01;  9.9999998E-03;  3.8000000E-01;172;  0.0000000E+00;  0.0000000E+00;  0.0000000E+00;  1.0000000E+03;  1.0000000E-01;  0.0000000E+00;0;  0.0000000E+00;  0.0000000E+00;  0.0000000E+00;0;  0.0000000E+00;  4.0000000E+04;  0.0000000E+00;  0.0000000E+00;  4.0000000E+04;  0.0000000E+00;  4.0000000E+04;  0.0000000E+00;  0.0000000E+00;  0.0000000E+00;  0.0000000E+00;
 -1.9000000E-01;  9.9999998E-03;  3.8999999E-01;173;  0.0000000E+00;  0.0000000E+00;  0.0000000E+00;  1.0000000E+03;  1.0000000E-01;  0.0000000E+00;0;  0.0000000E+00;  0.0000000E+00;  0.0000000E+00;0;  0.0000000E+00;  4.0000000E+04;  0.0000000E+00;  0.0000000E+00;  4.0000000E+04;  0.0000000E+00;  4.0000000E+04;  0.0000000E+00;  0.0000000E+00;  0.0000000E+00;  0.0000000E+00;
 -1.9000000E-01;  9.9999998E-03;  4.0000001E-01;174;  0.0000000E+00;  0.0000000E+00;  0.0000000E+00;  1.0000000E+03;  1.0000000E-01;  0.0000000E+00;0;  0.0000000E+00;  0.0000000E+00;  0.0000000E+00;0;  0.0000000E+00;  4.0000000E+04;  0.0000000E+00;  0.0000000E+00;  4.0000000E+04;  0.0000000E+00;  4.0000000E+04;  0.0000000E+00;  0.0000000E+00;  0.0000000E+00;  0.0000000E+00;
 -1.8000001E-01;  9.9999998E-03;  2.3999999E-01;249;  0.0000000E+00;  0.0000000E+00;  0.0000000E+00;  1.0000000E+03;  1.0000000E-01;  0.0000000E+00;0;  0.0000000E+00;  0.0000000E+00;  0.0000000E+00;0;  0.0000000E+00;  4.0000000E+04;  0.0000000E+00;  0.0000000E+00;  4.0000000E+04;  0.0000000E+00;  4.0000000E+04;  0.0000000E+00;  0.0000000E+00;  0.0000000E+00;  0.0000000E+00;
 -1.8000001E-01;  9.9999998E-03;  2.5000000E-01;250;  0.0000000E+00;  0.0000000E+00;  0.0000000E+00;  1.0000000E+03;  1.0000000E-01;  0.0000000E+00;0;  0.0000000E+00;  0.0000000E+00;  0.0000000E+00;0;  0.0000000E+00;  4.0000000E+04;  0.0000000E+00;  0.0000000E+00;  4.0000000E+04;  0.0000000E+00;  4.0000000E+04;  0.0000000E+00;  0.0000000E+00;  0.0000000E+00;  0.0000000E+00;
 -1.8000001E-01;  9.9999998E-03;  2.5999999E-01;251;  0.0000000E+00;  0.0000000E+00;  0.0000000E+00;  1.0000000E+03;  1.0000000E-01;  0.0000000E+00;0;  0.0000000E+00;  0.0000000E+00;  0.0000000E+00;0;  0.0000000E+00;  4.0000000E+04;  0.0000000E+00;  0.0000000E+00;  4.0000000E+04;  0.0000000E+00;  4.0000000E+04;  0.0000000E+00;  0.0000000E+00;  0.0000000E+00;  0.0000000E+00;
 -1.8000001E-01;  9.9999998E-03;  2.7000001E-01;252;  0.0000000E+00;  0.0000000E+00;  0.0000000E+00;  1.0000000E+03;  1.0000000E-01;  0.0000000E+00;0;  0.0000000E+00;  0.0000000E+00;  0.0000000E+00;0;  0.0000000E+00;  4.0000000E+04;  0.0000000E+00;  0.0000000E+00;  4.0000000E+04;  0.0000000E+00;  4.0000000E+04;  0.0000000E+00;  0.0000000E+00;  0.0000000E+00;  0.0000000E+00;
 -1.8000001E-01;  9.9999998E-03;  2.8000000E-01;253;  0.0000000E+00;  0.0000000E+00;  0.0000000E+00;  1.0000000E+03;  1.0000000E-01;  0.0000000E+00;0;  0.0000000E+00;  0.0000000E+00;  0.0000000E+00;0;  0.0000000E+00;  4.0000000E+04;  0.0000000E+00;  0.0000000E+00;  4.0000000E+04;  0.0000000E+00;  4.0000000E+04;  0.0000000E+00;  0.0000000E+00;  0.0000000E+00;  0.0000000E+00;
 -1.8000001E-01;  9.9999998E-03;  2.8999999E-01;254;  0.0000000E+00;  0.0000000E+00;  0.0000000E+00;  1.0000000E+03;  1.0000000E-01;  0.0000000E+00;0;  0.0000000E+00;  0.0000000E+00;  0.0000000E+00;0;  0.0000000E+00;  4.0000000E+04;  0.0000000E+00;  0.0000000E+00;  4.0000000E+04;  0.0000000E+00;  4.0000000E+04;  0.0000000E+00;  0.0000000E+00;  0.0000000E+00;  0.0000000E+00;
 -1.8000001E-01;  9.9999998E-03;  3.0000001E-01;255;  0.0000000E+00;  0.0000000E+00;  0.0000000E+00;  1.0000000E+03;  1.0000000E-01;  0.0000000E+00;0;  0.0000000E+00;  0.0000000E+00;  0.0000000E+00;0;  0.0000000E+00;  4.0000000E+04;  0.0000000E+00;  0.0000000E+00;  4.0000000E+04;  0.0000000E+00;  4.0000000E+04;  0.0000000E+00;  0.0000000E+00;  0.0000000E+00;  0.0000000E+00;
 -1.8000001E-01;  9.9999998E-03;  3.1000000E-01;256;  0.0000000E+00;  0.0000000E+00;  0.0000000E+00;  1.0000000E+03;  1.0000000E-01;  0.0000000E+00;0;  0.0000000E+00;  0.0000000E+00;  0.0000000E+00;0;  0.0000000E+00;  4.0000000E+04;  0.0000000E+00;  0.0000000E+00;  4.0000000E+04;  0.0000000E+00;  4.0000000E+04;  0.0000000E+00;  0.0000000E+00;  0.0000000E+00;  0.0000000E+00;
 -1.8000001E-01;  9.9999998E-03;  3.1999999E-01;257;  0.0000000E+00;  0.0000000E+00;  0.0000000E+00;  1.0000000E+03;  1.0000000E-01;  0.0000000E+00;0;  0.0000000E+00;  0.0000000E+00;  0.0000000E+00;0;  0.0000000E+00;  4.0000000E+04;  0.0000000E+00;  0.0000000E+00;  4.0000000E+04;  0.0000000E+00;  4.0000000E+04;  0.0000000E+00;  0.0000000E+00;  0.0000000E+00;  0.0000000E+00;
 -1.8000001E-01;  9.9999998E-03;  3.3000001E-01;258;  0.0000000E+00;  0.0000000E+00;  0.0000000E+00;  1.0000000E+03;  1.0000000E-01;  0.0000000E+00;0;  0.0000000E+00;  0.0000000E+00;  0.0000000E+00;0;  0.0000000E+00;  4.0000000E+04;  0.0000000E+00;  0.0000000E+00;  4.0000000E+04;  0.0000000E+00;  4.0000000E+04;  0.0000000E+00;  0.0000000E+00;  0.0000000E+00;  0.0000000E+00;
 -1.8000001E-01;  9.9999998E-03;  3.4000000E-01;259;  0.0000000E+00;  0.0000000E+00;  0.0000000E+00;  1.0000000E+03;  1.0000000E-01;  0.0000000E+00;0;  0.0000000E+00;  0.0000000E+00;  0.0000000E+00;0;  0.0000000E+00;  4.0000000E+04;  0.0000000E+00;  0.0000000E+00;  4.0000000E+04;  0.0000000E+00;  4.0000000E+04;  0.0000000E+00;  0.0000000E+00;  0.0000000E+00;  0.0000000E+00;
 -1.8000001E-01;  9.9999998E-03;  3.4999999E-01;260;  0.0000000E+00;  0.0000000E+00;  0.0000000E+00;  1.0000000E+03;  1.0000000E-01;  0.0000000E+00;0;  0.0000000E+00;  0.0000000E+00;  0.0000000E+00;0;  0.0000000E+00;  4.0000000E+04;  0.0000000E+00;  0.0000000E+00;  4.0000000E+04;  0.0000000E+00;  4.0000000E+04;  0.0000000E+00;  0.0000000E+00;  0.0000000E+00;  0.0000000E+00;
 -1.8000001E-01;  9.9999998E-03;  3.6000001E-01;261;  0.0000000E+00;  0.0000000E+00;  0.0000000E+00;  1.0000000E+03;  1.0000000E-01;  0.0000000E+00;0;  0.0000000E+00;  0.0000000E+00;  0.0000000E+00;0;  0.0000000E+00;  4.0000000E+04;  0.0000000E+00;  0.0000000E+00;  4.0000000E+04;  0.0000000E+00;  4.0000000E+04;  0.0000000E+00;  0.0000000E+00;  0.0000000E+00;  0.0000000E+00;
 -1.8000001E-01;  9.9999998E-03;  3.7000000E-01;262;  0.0000000E+00;  0.0000000E+00;  0.0000000E+00;  1.0000000E+03;  1.0000000E-01;  0.0000000E+00;0;  0.0000000E+00;  0.0000000E+00;  0.0000000E+00;0;  0.0000000E+00;  4.0000000E+04;  0.0000000E+00;  0.0000000E+00;  4.0000000E+04;  0.0000000E+00;  4.0000000E+04;  0.0000000E+00;  0.0000000E+00;  0.0000000E+00;  0.0000000E+00;
 -1.8000001E-01;  9.9999998E-03;  3.8000000E-01;263;  0.0000000E+00;  0.0000000E+00;  0.0000000E+00;  1.0000000E+03;  1.0000000E-01;  0.0000000E+00;0;  0.0000000E+00;  0.0000000E+00;  0.0000000E+00;0;  0.0000000E+00;  4.0000000E+04;  0.0000000E+00;  0.0000000E+00;  4.0000000E+04;  0.0000000E+00;  4.0000000E+04;  0.0000000E+00;  0.0000000E+00;  0.0000000E+00;  0.0000000E+00;
 -1.8000001E-01;  9.9999998E-03;  3.8999999E-01;264;  0.0000000E+00;  0.0000000E+00;  0.0000000E+00;  1.0000000E+03;  1.0000000E-01;  0.0000000E+00;0;  0.0000000E+00;  0.0000000E+00;  0.0000000E+00;0;  0.0000000E+00;  4.0000000E+04;  0.0000000E+00;  0.0000000E+00;  4.0000000E+04;  0.0000000E+00;  4.0000000E+04;  0.0000000E+00;  0.0000000E+00;  0.0000000E+00;  0.0000000E+00;
 -1.8000001E-01;  9.9999998E-03;  4.0000001E-01;265;  0.0000000E+00;  0.0000000E+00;  0.0000000E+00;  1.0000000E+03;  1.0000000E-01;  0.0000000E+00;0;  0.0000000E+00;  0.0000000E+00;  0.0000000E+00;0;  0.0000000E+00;  4.0000000E+04;  0.0000000E+00;  0.0000000E+00;  4.0000000E+04;  0.0000000E+00;  4.0000000E+04;  0.0000000E+00;  0.0000000E+00;  0.0000000E+00;  0.0000000E+00;
 -1.7000000E-01;  9.9999998E-03;  2.3999999E-01;340;  0.0000000E+00;  0.0000000E+00;  0.0000000E+00;  1.0000000E+03;  1.0000000E-01;  0.0000000E+00;0;  0.0000000E+00;  0.0000000E+00;  0.0000000E+00;0;  0.0000000E+00;  4.0000000E+04;  0.0000000E+00;  0.0000000E+00;  4.0000000E+04;  0.0000000E+00;  4.0000000E+04;  0.0000000E+00;  0.0000000E+00;  0.0000000E+00;  7.1569556E-10;
 -1.7000000E-01;  9.9999998E-03;  2.5000000E-01;341;  0.0000000E+00;  0.0000000E+00;  0.0000000E+00;  1.0000000E+03;  1.0000000E-01;  0.0000000E+00;0;  0.0000000E+00;  0.0000000E+00;  0.0000000E+00;0;  0.0000000E+00;  4.0000000E+04;  0.0000000E+00;  0.0000000E+00;  4.0000000E+04;  0.0000000E+00;  4.0000000E+04;  0.0000000E+00;  0.0000000E+00;  0.0000000E+00;  4.6691867E-10;
 -1.7000000E-01;  9.9999998E-03;  2.5999999E-01;342;  0.0000000E+00;  0.0000000E+00;  0.0000000E+00;  1.0000000E+03;  1.0000000E-01;  0.0000000E+00;0;  0.0000000E+00;  0.0000000E+00;  0.0000000E+00;0;  0.0000000E+00;  4.0000000E+04;  0.0000000E+00;  0.0000000E+00;  4.0000000E+04;  0.0000000E+00;  4.0000000E+04;  0.0000000E+00;  0.0000000E+00;  0.0000000E+00;  2.4656574E-10;
 -1.7000000E-01;  9.9999998E-03;  2.7000001E-01;343;  0.0000000E+00;  0.0000000E+00;  0.0000000E+00;  1.0000000E+03;  1.0000000E-01;  0.0000000E+00;0;  0.0000000E+00;  0.0000000E+00;  0.0000000E+00;0;  0.0000000E+00;  4.0000000E+04;  0.0000000E+00;  0.0000000E+00;  4.0000000E+04;  0.0000000E+00;  4.0000000E+04;  0.0000000E+00;  0.0000000E+00;  0.0000000E+00;  9.0626097E-11;
 -1.7000000E-01;  9.9999998E-03;  2.8000000E-01;344;  0.0000000E+00;  0.0000000E+00;  0.0000000E+00;  1.0000000E+03;  1.0000000E-01;  0.0000000E+00;0;  0.0000000E+00;  0.0000000E+00;  0.0000000E+00;0;  0.0000000E+00;  4.0000000E+04;  0.0000000E+00;  0.0000000E+00;  4.0000000E+04;  0.0000000E+00;  4.0000000E+04;  0.0000000E+00;  0.0000000E+00;  0.0000000E+00;  1.4966250E-11;
 -1.7000000E-01;  9.9999998E-03;  2.8999999E-01;345;  0.0000000E+00;  0.0000000E+00;  0.0000000E+00;  1.0000000E+03;  1.0000000E-01;  0.0000000E+00;0;  0.0000000E+00;  0.0000000E+00;  0.0000000E+00;0;  0.0000000E+00;  4.0000000E+04;  0.0000000E+00;  0.0000000E+00;  4.0000000E+04;  0.0000000E+00;  4.0000000E+04;  0.0000000E+00;  0.0000000E+00;  0.0000000E+00;  6.8908875E-14;
 -1.7000000E-01;  9.9999998E-03;  3.0000001E-01;346;  0.0000000E+00;  0.0000000E+00;  0.0000000E+00;  1.0000000E+03;  1.0000000E-01;  0.0000000E+00;0;  0.0000000E+00;  0.0000000E+00;  0.0000000E+00;0;  0.0000000E+00;  4.0000000E+04;  0.0000000E+00;  0.0000000E+00;  4.0000000E+04;  0.0000000E+00;  4.0000000E+04;  0.0000000E+00;  0.0000000E+00;  0.0000000E+00;  0.0000000E+00;
 -1.7000000E-01;  9.9999998E-03;  3.1000000E-01;347;  0.0000000E+00;  0.0000000E+00;  0.0000000E+00;  1.0000000E+03;  1.0000000E-01;  0.0000000E+00;0;  0.0000000E+00;  0.0000000E+00;  0.0000000E+00;0;  0.0000000E+00;  4.0000000E+04;  0.0000000E+00;  0.0000000E+00;  4.0000000E+04;  0.0000000E+00;  4.0000000E+04;  0.0000000E+00;  0.0000000E+00;  0.0000000E+00;  0.0000000E+00;
 -1.7000000E-01;  9.9999998E-03;  3.1999999E-01;348;  0.0000000E+00;  0.0000000E+00;  0.0000000E+00;  1.0000000E+03;  1.0000000E-01;  0.0000000E+00;0;  0.0000000E+00;  0.0000000E+00;  0.0000000E+00;0;  0.0000000E+00;  4.0000000E+04;  0.0000000E+00;  0.0000000E+00;  4.0000000E+04;  0.0000000E+00;  4.0000000E+04;  0.0000000E+00;  0.0000000E+00;  0.0000000E+00;  0.0000000E+00;
 -1.7000000E-01;  9.9999998E-03;  3.3000001E-01;349;  0.0000000E+00;  0.0000000E+00;  0.0000000E+00;  1.0000000E+03;  1.0000000E-01;  0.0000000E+00;0;  0.0000000E+00;  0.0000000E+00;  0.0000000E+00;0;  0.0000000E+00;  4.0000000E+04;  0.0000000E+00;  0.0000000E+00;  4.0000000E+04;  0.0000000E+00;  4.0000000E+04;  0.0000000E+00;  0.0000000E+00;  0.0000000E+00;  0.0000000E+00;
 -1.7000000E-01;  9.9999998E-03;  3.4000000E-01;350;  0.0000000E+00;  0.0000000E+00;  0.0000000E+00;  1.0000000E+03;  1.0000000E-01;  0.0000000E+00;0;  0.0000000E+00;  0.0000000E+00;  0.0000000E+00;0;  0.0000000E+00;  4.0000000E+04;  0.0000000E+00;  0.0000000E+00;  4.0000000E+04;  0.0000000E+00;  4.0000000E+04;  0.0000000E+00;  0.0000000E+00;  0.0000000E+00;  0.0000000E+00;
 -1.7000000E-01;  9.9999998E-03;  3.4999999E-01;351;  0.0000000E+00;  0.0000000E+00;  0.0000000E+00;  1.0000000E+03;  1.0000000E-01;  0.0000000E+00;0;  0.0000000E+00;  0.0000000E+00;  0.0000000E+00;0;  0.0000000E+00;  4.0000000E+04;  0.0000000E+00;  0.0000000E+00;  4.0000000E+04;  0.0000000E+00;  4.0000000E+04;  0.0000000E+00;  0.0000000E+00;  0.0000000E+00;  0.0000000E+00;
 -1.7000000E-01;  9.9999998E-03;  3.6000001E-01;352;  0.0000000E+00;  0.0000000E+00;  0.0000000E+00;  1.0000000E+03;  1.0000000E-01;  0.0000000E+00;0;  0.0000000E+00;  0.0000000E+00;  0.0000000E+00;0;  0.0000000E+00;  4.0000000E+04;  0.0000000E+00;  0.0000000E+00;  4.0000000E+04;  0.0000000E+00;  4.0000000E+04;  0.0000000E+00;  0.0000000E+00;  0.0000000E+00;  0.0000000E+00;
 -1.7000000E-01;  9.9999998E-03;  3.7000000E-01;353;  0.0000000E+00;  0.0000000E+00;  0.0000000E+00;  1.0000000E+03;  1.0000000E-01;  0.0000000E+00;0;  0.0000000E+00;  0.0000000E+00;  0.0000000E+00;0;  0.0000000E+00;  4.0000000E+04;  0.0000000E+00;  0.0000000E+00;  4.0000000E+04;  0.0000000E+00;  4.0000000E+04;  0.0000000E+00;  0.0000000E+00;  0.0000000E+00;  0.0000000E+00;
 -1.7000000E-01;  9.9999998E-03;  3.8000000E-01;354;  0.0000000E+00;  0.0000000E+00;  0.0000000E+00;  1.0000000E+03;  1.0000000E-01;  0.0000000E+00;0;  0.0000000E+00;  0.0000000E+00;  0.0000000E+00;0;  0.0000000E+00;  4.0000000E+04;  0.0000000E+00;  0.0000000E+00;  4.0000000E+04;  0.0000000E+00;  4.0000000E+04;  0.0000000E+00;  0.0000000E+00;  0.0000000E+00;  0.0000000E+00;
 -1.7000000E-01;  9.9999998E-03;  3.8999999E-01;355;  0.0000000E+00;  0.0000000E+00;  0.0000000E+00;  1.0000000E+03;  1.0000000E-01;  0.0000000E+00;0;  0.0000000E+00;  0.0000000E+00;  0.0000000E+00;0;  0.0000000E+00;  4.0000000E+04;  0.0000000E+00;  0.0000000E+00;  4.0000000E+04;  0.0000000E+00;  4.0000000E+04;  0.0000000E+00;  0.0000000E+00;  0.0000000E+00;  0.0000000E+00;
 -1.7000000E-01;  9.9999998E-03;  4.0000001E-01;356;  0.0000000E+00;  0.0000000E+00;  0.0000000E+00;  1.0000000E+03;  1.0000000E-01;  0.0000000E+00;0;  0.0000000E+00;  0.0000000E+00;  0.0000000E+00;0;  0.0000000E+00;  4.0000000E+04;  0.0000000E+00;  0.0000000E+00;  4.0000000E+04;  0.0000000E+00;  4.0000000E+04;  0.0000000E+00;  0.0000000E+00;  0.0000000E+00;  0.0000000E+00;
 -1.6000000E-01;  9.9999998E-03;  2.3999999E-01;431;  0.0000000E+00;  0.0000000E+00;  0.0000000E+00;  1.0000000E+03;  1.0000000E-01;  0.0000000E+00;0;  0.0000000E+00;  0.0000000E+00;  0.0000000E+00;0; -1.4940459E-06;  4.0000000E+04;  0.0000000E+00;  0.0000000E+00;  4.0000000E+04;  0.0000000E+00;  4.0000000E+04; -1.5237800E-06;  0.0000000E+00;  2.9734135E-08;  1.6448262E-01;
 -1.6000000E-01;  9.9999998E-03;  2.5000000E-01;432;  0.0000000E+00;  0.0000000E+00;  0.0000000E+00;  1.0000000E+03;  1.0000000E-01;  0.0000000E+00;0;  0.0000000E+00;  0.0000000E+00;  0.0000000E+00;0; -1.5343405E-06;  4.0000000E+04;  0.0000000E+00;  0.0000000E+00;  4.0000000E+04;  0.0000000E+00;  4.0000000E+04; -1.5671347E-06;  0.0000000E+00;  3.2794258E-08;  1.3198954E-01;
 -1.6000000E-01;  9.9999998E-03;  2.5999999E-01;433;  0.0000000E+00;  0.0000000E+00;  0.0000000E+00;  1.0000000E+03;  1.0000000E-01;  0.0000000E+00;0;  0.0000000E+00;  0.0000000E+00;  0.0000000E+00;0; -1.5587643E-06;  4.0000000E+04;  0.0000000E+00;  0.0000000E+00;  4.0000000E+04;  0.0000000E+00;  4.0000000E+04; -1.5845580E-06;  0.0000000E+00;  2.5793700E-08;  8.4224962E-02;
 -1.6000000E-01;  9.9999998E-03;  2.7000001E-01;434;  0.0000000E+00;  0.0000000E+00;  0.0000000E+00;  1.0000000E+03;  1.0000000E-01;  0.0000000E+00;0;  0.0000000E+00;  0.0000000E+00;  0.0000000E+00;0; -1.5129505E-06;  4.0000000E+04;  0.0000000E+00;  0.0000000E+00;  4.0000000E+04;  0.0000000E+00;  4.0000000E+04; -1.5177824E-06;  0.0000000E+00;  4.8319517E-09;  2.2955250E-02;
 -1.6000000E-01;  9.9999998E-03;  2.8000000E-01;435;  0.0000000E+00;  0.0000000E+00;  0.0000000E+00;  1.0000000E+03;  1.0000000E-01;  0.0000000E+00;0;  0.0000000E+00;  0.0000000E+00;  0.0000000E+00;0; -1.3592021E-06;  4.0000000E+04;  0.0000000E+00;  0.0000000E+00;  4.0000000E+04;  0.0000000E+00;  4.0000000E+04; -1.3358643E-06;  0.0000000E+00; -2.3337785E-08;  3.6952440E-02;
 -1.6000000E-01;  9.9999998E-03;  2.8999999E-01;436;  0.0000000E+00;  0.0000000E+00;  0.0000000E+00;  1.0000000E+03;  1.0000000E-01;  0.0000000E+00;0;  0.0000000E+00;  0.0000000E+00;  0.0000000E+00;0; -1.0984478E-06;  4.0000000E+04;  0.0000000E+00;  0.0000000E+00;  4.0000000E+04;  0.0000000E+00;  4.0000000E+04; -1.0524054E-06;  0.0000000E+00; -4.6042331E-08;  7.6663509E-02;
 -1.6000000E-01;  9.9999998E-03;  3.0000001E-01;437;  0.0000000E+00;  0.0000000E+00;  0.0000000E+00;  1.0000000E+03;  1.0000000E-01;  0.0000000E+00;0;  0.0000000E+00;  0.0000000E+00;  0.0000000E+00;0; -7.7291651E-07;  4.0000000E+04;  0.0000000E+00;  0.0000000E+00;  4.0000000E+04;  0.0000000E+00;  4.0000000E+04; -7.1970396E-07;  0.0000000E+00; -5.3212567E-08;  8.5685670E-02;
 -1.6000000E-01;  9.9999998E-03;  3.1000000E-01;438;  0.0000000E+00;  0.0000000E+00;  0.0000000E+00;  1.0000000E+03;  1.0000000E-01;  0.0000000E+00;0;  0.0000000E+00;  0.0000000E+00;  0.0000000E+00;0; -4.5080532E-07;  4.0000000E+04;  0.0000000E+00;  0.0000000E+00;  4.0000000E+04;  0.0000000E+00;  4.0000000E+04; -4.0725035E-07;  0.0000000E+00; -4.3554977E-08;  6.7724384E-02;
 -1.6000000E-01;  9.9999998E-03;  3.1999999E-01;439;  0.0000000E+00;  0.0000000E+00;  0.0000000E+00;  1.0000000E+03;  1.0000000E-01;  0.0000000E+00;0;  0.0000000E+00;  0.0000000E+00;  0.0000000E+00;0; -1.9889018E-07;  4.0000000E+04;  0.0000000E+00;  0.0000000E+00;  4.0000000E+04;  0.0000000E+00;  4.0000000E+04; -1.7407831E-07;  0.0000000E+00; -2.4811870E-08;  3.7828121E-02;
 -1.6000000E-01;  9.9999998E-03;  3.3000001E-01;440;  0.0000000E+00;  0.0000000E+00;  0.0000000E+00;  1.0000000E+03;  1.0000000E-01;  0.0000000E+00;0;  0.0000000E+00;  0.0000000E+00;  0.0000000E+00;0; -5.3522697E-08;  4.0000000E+04;  0.0000000E+00;  0.0000000E+00;  4.0000000E+04;  0.0000000E+00;  4.0000000E+04; -4.5298915E-08;  0.0000000E+00; -8.2237817E-09;  1.2830043E-02;
 -1.6000000E-01;  9.9999998E-03;  3.4000000E-01;441;  0.0000000E+00;  0.0000000E+00;  0.0000000E+00;  1.0000000E+03;  1.0000000E-01;  0.0000000E+00;0;  0.0000000E+00;  0.0000000E+00;  0.0000000E+00;0; -3.7415195E-09;  4.0000000E+04;  0.0000000E+00;  0.0000000E+00;  4.0000000E+04;  0.0000000E+00;  4.0000000E+04; -3.0444194E-09;  0.0000000E+00; -6.9710027E-10;  1.4178804E-03;
 -1.6000000E-01;  9.9999998E-03;  3.4999999E-01;442;  0.0000000E+00;  0.0000000E+00;  0.0000000E+00;  1.0000000E+03;  1.0000000E-01;  0.0000000E+00;0;  0.0000000E+00;  0.0000000E+00;  0.0000000E+00;0;  0.0000000E+00;  4.0000000E+04;  0.0000000E+00;  0.0000000E+00;  4.0000000E+04;  0.0000000E+00;  4.0000000E+04;  0.0000000E+00;  0.0000000E+00;  0.0000000E+00;  0.0000000E+00;
 -1.6000000E-01;  9.9999998E-03;  3.6000001E-01;443;  0.0000000E+00;  0.0000000E+00;  0.0000000E+00;  1.0000000E+03;  1.0000000E-01;  0.0000000E+00;0;  0.0000000E+00;  0.0000000E+00;  0.0000000E+00;0;  0.0000000E+00;  4.0000000E+04;  0.0000000E+00;  0.0000000E+00;  4.0000000E+04;  0.0000000E+00;  4.0000000E+04;  0.0000000E+00;  0.0000000E+00;  0.0000000E+00;  0.0000000E+00;
 -1.6000000E-01;  9.9999998E-03;  3.7000000E-01;444;  0.0000000E+00;  0.0000000E+00;  0.0000000E+00;  1.0000000E+03;  1.0000000E-01;  0.0000000E+00;0;  0.0000000E+00;  0.0000000E+00;  0.0000000E+00;0;  0.0000000E+00;  4.0000000E+04;  0.0000000E+00;  0.0000000E+00;  4.0000000E+04;  0.0000000E+00;  4.0000000E+04;  0.0000000E+00;  0.0000000E+00;  0.0000000E+00;  0.0000000E+00;
 -1.6000000E-01;  9.9999998E-03;  3.8000000E-01;445;  0.0000000E+00;  0.0000000E+00;  0.0000000E+00;  1.0000000E+03;  1.0000000E-01;  0.0000000E+00;0;  0.0000000E+00;  0.0000000E+00;  0.0000000E+00;0;  0.0000000E+00;  4.0000000E+04;  0.0000000E+00;  0.0000000E+00;  4.0000000E+04;  0.0000000E+00;  4.0000000E+04;  0.0000000E+00;  0.0000000E+00;  0.0000000E+00;  0.0000000E+00;
 -1.6000000E-01;  9.9999998E-03;  3.8999999E-01;446;  0.0000000E+00;  0.0000000E+00;  0.0000000E+00;  1.0000000E+03;  1.0000000E-01;  0.0000000E+00;0;  0.0000000E+00;  0.0000000E+00;  0.0000000E+00;0;  0.0000000E+00;  4.0000000E+04;  0.0000000E+00;  0.0000000E+00;  4.0000000E+04;  0.0000000E+00;  4.0000000E+04;  0.0000000E+00;  0.0000000E+00;  0.0000000E+00;  0.0000000E+00;
 -1.6000000E-01;  9.9999998E-03;  4.0000001E-01;447;  0.0000000E+00;  0.0000000E+00;  0.0000000E+00;  1.0000000E+03;  1.0000000E-01;  0.0000000E+00;0;  0.0000000E+00;  0.0000000E+00;  0.0000000E+00;0;  0.0000000E+00;  4.0000000E+04;  0.0000000E+00;  0.0000000E+00;  4.0000000E+04;  0.0000000E+00;  4.0000000E+04;  0.0000000E+00;  0.0000000E+00;  0.0000000E+00;  0.0000000E+00;
 -1.5000001E-01;  9.9999998E-03;  2.3999999E-01;522;  0.0000000E+00;  0.0000000E+00;  0.0000000E+00;  1.0000000E+03;  1.0000000E-01;  0.0000000E+00;0;  0.0000000E+00;  0.0000000E+00;  0.0000000E+00;0; -2.4194325E-05;  4.0000000E+04;  0.0000000E+00;  0.0000000E+00;  4.0000000E+04;  0.0000000E+00;  4.0000000E+04; -2.4680849E-05;  0.0000000E+00;  4.8652367E-07;  2.3040569E+00;
 -1.5000001E-01;  9.9999998E-03;  2.5000000E-01;523;  0.0000000E+00;  0.0000000E+00;  0.0000000E+00;  1.0000000E+03;  1.0000000E-01;  0.0000000E+00;0;  0.0000000E+00;  0.0000000E+00;  0.0000000E+00;0; -2.2792039E-05;  4.0000000E+04;  0.0000000E+00;  0.0000000E+00;  4.0000000E+04;  0.0000000E+00;  4.0000000E+04; -2.3132068E-05;  0.0000000E+00;  3.4002824E-07;  1.6576424E+00;
 -1.5000001E-01;  9.9999998E-03;  2.5999999E-01;524;  0.0000000E+00;  0.0000000E+00;  0.0000000E+00;  1.0000000E+03;  1.0000000E-01;  0.0000000E+00;0;  0.0000000E+00;  0.0000000E+00;  0.0000000E+00;0; -2.1206028E-05;  4.0000000E+04;  0.0000000E+00;  0.0000000E+00;  4.0000000E+04;  0.0000000E+00;  4.0000000E+04; -2.1291793E-05;  0.0000000E+00;  8.5765045E-08;  8.9730227E-01;
 -1.5000001E-01;  9.9999998E-03;  2.7000001E-01;525;  0.0000000E+00;  0.0000000E+00;  0.0000000E+00;  1.0000000E+03;  1.0000000E-01;  0.0000000E+00;0;  0.0000000E+00;  0.0000000E+00;  0.0000000E+00;0; -1.9258485E-05;  4.0000000E+04;  0.0000000E+00;  0.0000000E+00;  4.0000000E+04;  0.0000000E+00;  4.0000000E+04; -1.9022951E-05;  0.0000000E+00; -2.3553316E-07;  1.1103716E-01;
 -1.5000001E-01;  9.9999998E-03;  2.8000000E-01;526;  0.0000000E+00;  0.0000000E+00;  0.0000000E+00;  1.0000000E+03;  1.0000000E-01;  0.0000000E+00;0;  0.0000000E+00;  0.0000000E+00;  0.0000000E+00;0; -1.6830076E-05;  4.0000000E+04;  0.0000000E+00;  0.0000000E+00;  4.0000000E+04;  0.0000000E+00;  4.0000000E+04; -1.6276745E-05;  0.0000000E+00; -5.5333021E-07;  5.8628350E-01;
 -1.5000001E-01;  9.9999998E-03;  2.8999999E-01;527;  0.0000000E+00;  0.0000000E+00;  0.0000000E+00;  1.0000000E+03;  1.0000000E-01;  0.0000000E+00;0;  0.0000000E+00;  0.0000000E+00;  0.0000000E+00;0; -1.3935951E-05;  4.0000000E+04;  0.0000000E+00;  0.0000000E+00;  4.0000000E+04;  0.0000000E+00;  4.0000000E+04; -1.3147275E-05;  0.0000000E+00; -7.8867572E-07;  1.0732011E+00;
 -1.5000001E-01;  9.9999998E-03;  3.0000001E-01;528;  0.0000000E+00;  0.0000000E+00;  0.0000000E+00;  1.0000000E+03;  1.0000000E-01;  0.0000000E+00;0;  0.0000000E+00;  0.0000000E+00;  0.0000000E+00;0; -1.0747612E-05;  4.0000000E+04;  0.0000000E+00;  0.0000000E+00;  4.0000000E+04;  0.0000000E+00;  4.0000000E+04; -9.8639930E-06;  0.0000000E+00; -8.8361827E-07;  1.2797897E+00;
 -1.5000001E-01;  9.9999998E-03;  3.1000000E-01;529;  0.0000000E+00;  0.0000000E+00;  0.0000000E+00;  1.0000000E+03;  1.0000000E-01;  0.0000000E+00;0;  0.0000000E+00;  0.0000000E+00;  0.0000000E+00;0; -7.5601779E-06;  4.0000000E+04;  0.0000000E+00;  0.0000000E+00;  4.0000000E+04;  0.0000000E+00;  4.0000000E+04; -6.7359324E-06;  0.0000000E+00; -8.2424543E-07;  1.2098223E+00;
 -1.5000001E-01;  9.9999998E-03;  3.1999999E-01;530;  0.0000000E+00;  0.0000000E+00;  0.0000000E+00;  1.0000000E+03;  1.0000000E-01;  0.0000000E+00;0;  0.0000000E+00;  0.0000000E+00;  0.0000000E+00;0; -4.7138819E-06;  4.0000000E+04;  0.0000000E+00;  0.0000000E+00;  4.0000000E+04;  0.0000000E+00;  4.0000000E+04; -4.0686014E-06;  0.0000000E+00; -6.4528069E-07;  9.4161856E-01;
 -1.5000001E-01;  9.9999998E-03;  3.3000001E-01;531;  0.0000000E+00;  0.0000000E+00;  0.0000000E+00;  1.0000000E+03;  1.0000000E-01;  0.0000000E+00;0;  0.0000000E+00;  0.0000000E+00;  0.0000000E+00;0; -2.4924720E-06;  4.0000000E+04;  0.0000000E+00;  0.0000000E+00;  4.0000000E+04;  0.0000000E+00;  4.0000000E+04; -2.0780960E-06;  0.0000000E+00; -4.1437593E-07;  5.9609336E-01;
 -1.5000001E-01;  9.9999998E-03;  3.4000000E-01;532;  0.0000000E+00;  0.0000000E+00;  0.0000000E+00;  1.0000000E+03;  1.0000000E-01;  0.0000000E+00;0;  0.0000000E+00;  0.0000000E+00;  0.0000000E+00;0; -1.0340223E-06;  4.0000000E+04;  0.0000000E+00;  0.0000000E+00;  4.0000000E+04;  0.0000000E+00;  4.0000000E+04; -8.2930183E-07;  0.0000000E+00; -2.0472038E-07;  2.9026133E-01;
 -1.5000001E-01;  9.9999998E-03;  3.4999999E-01;533;  0.0000000E+00;  0.0000000E+00;  0.0000000E+00;  1.0000000E+03;  1.0000000E-01;  0.0000000E+00;0;  0.0000000E+00;  0.0000000E+00;  0.0000000E+00;0; -2.8685577E-07;  4.0000000E+04;  0.0000000E+00;  0.0000000E+00;  4.0000000E+04;  0.0000000E+00;  4.0000000E+04; -2.2006716E-07;  0.0000000E+00; -6.6788608E-08;  9.4937637E-02;
 -1.5000001E-01;  9.9999998E-03;  3.6000001E-01;534;  0.0000000E+00;  0.0000000E+00;  0.0000000E+00;  1.0000000E+03;  1.0000000E-01;  0.0000000E+00;0;  0.0000000E+00;  0.0000000E+00;  0.0000000E+00;0; -3.3709505E-08;  4.0000000E+04;  0.0000000E+00;  0.0000000E+00;  4.0000000E+04;  0.0000000E+00;  4.0000000E+04; -2.4662791E-08;  0.0000000E+00; -9.0467118E-09;  1.4128821E-02;
 -1.5000001E-01;  9.9999998E-03;  3.7000000E-01;535;  0.0000000E+00;  0.0000000E+00;  0.0000000E+00;  1.0000000E+03;  1.0000000E-01;  0.0000000E+00;0;  0.0000000E+00;  0.0000000E+00;  0.0000000E+00;0;  0.0000000E+00;  4.0000000E+04;  0.0000000E+00;  0.0000000E+00;  4.0000000E+04;  0.0000000E+00;  4.0000000E+04;  0.0000000E+00;  0.0000000E+00;  0.0000000E+00;  3.0836869E-09;
 -1.5000001E-01;  9.9999998E-03;  3.8000000E-01;536;  0.0000000E+00;  0.0000000E+00;  0.0000000E+00;  1.0000000E+03;  1.0000000E-01;  0.0000000E+00;0;  0.0000000E+00;  0.0000000E+00;  0.0000000E+00;0;  0.0000000E+00;  4.0000000E+04;  0.0000000E+00;  0.0000000E+00;  4.0000000E+04;  0.0000000E+00;  4.0000000E+04;  0.0000000E+00;  0.0000000E+00;  0.0000000E+00;  0.0000000E+00;
 -1.5000001E-01;  9.9999998E-03;  3.8999999E-01;537;  0.0000000E+00;  0.0000000E+00;  0.0000000E+00;  1.0000000E+03;  1.0000000E-01;  0.0000000E+00;0;  0.0000000E+00;  0.0000000E+00;  0.0000000E+00;0;  0.0000000E+00;  4.0000000E+04;  0.0000000E+00;  0.0000000E+00;  4.0000000E+04;  0.0000000E+00;  4.0000000E+04;  0.0000000E+00;  0.0000000E+00;  0.0000000E+00;  0.0000000E+00;
 -1.5000001E-01;  9.9999998E-03;  4.0000001E-01;538;  0.0000000E+00;  0.0000000E+00;  0.0000000E+00;  1.0000000E+03;  1.0000000E-01;  0.0000000E+00;0;  0.0000000E+00;  0.0000000E+00;  0.0000000E+00;0;  0.0000000E+00;  4.0000000E+04;  0.0000000E+00;  0.0000000E+00;  4.0000000E+04;  0.0000000E+00;  4.0000000E+04;  0.0000000E+00;  0.0000000E+00;  0.0000000E+00;  0.0000000E+00;
 -1.4000000E-01;  9.9999998E-03;  2.3999999E-01;613;  0.0000000E+00;  0.0000000E+00;  0.0000000E+00;  1.0000000E+03;  1.0000000E-01;  0.0000000E+00;0;  0.0000000E+00;  0.0000000E+00;  0.0000000E+00;0; -1.2134067E-04;  4.0000000E+04;  0.0000000E+00;  0.0000000E+00;  4.0000000E+04;  0.0000000E+00;  4.0000000E+04; -1.2345280E-04;  0.0000000E+00;  2.1121316E-06;  1.0848992E+01;
 -1.4000000E-01;  9.9999998E-03;  2.5000000E-01;614;  0.0000000E+00;  0.0000000E+00;  0.0000000E+00;  1.0000000E+03;  1.0000000E-01;  0.0000000E+00;0;  0.0000000E+00;  0.0000000E+00;  0.0000000E+00;0; -1.1196110E-04;  4.0000000E+04;  0.0000000E+00;  0.0000000E+00;  4.0000000E+04;  0.0000000E+00;  4.0000000E+04; -1.1307794E-04;  0.0000000E+00;  1.1168432E-06;  7.6901894E+00;
 -1.4000000E-01;  9.9999998E-03;  2.5999999E-01;615;  0.0000000E+00;  0.0000000E+00;  0.0000000E+00;  1.0000000E+03;  1.0000000E-01;  0.0000000E+00;0;  0.0000000E+00;  0.0000000E+00;  0.0000000E+00;0; -1.0213225E-04;  4.0000000E+04;  0.0000000E+00;  0.0000000E+00;  4.0000000E+04;  0.0000000E+00;  4.0000000E+04; -1.0190377E-04;  0.0000000E+00; -2.2847090E-07;  4.1355090E+00;
 -1.4000000E-01;  9.9999998E-03;  2.7000001E-01;616;  0.0000000E+00;  0.0000000E+00;  0.0000000E+00;  1.0000000E+03;  1.0000000E-01;  0.0000000E+00;0;  0.0000000E+00;  0.0000000E+00;  0.0000000E+00;0; -9.1451395E-05;  4.0000000E+04;  0.0000000E+00;  0.0000000E+00;  4.0000000E+04;  0.0000000E+00;  4.0000000E+04; -8.9717338E-05;  0.0000000E+00; -1.7340573E-06;  5.3806442E-01;
 -1.4000000E-01;  9.9999998E-03;  2.8000000E-01;617;  0.0000000E+00;  0.0000000E+00;  0.0000000E+00;  1.0000000E+03;  1.0000000E-01;  0.0000000E+00;0;  0.0000000E+00;  0.0000000E+00;  0.0000000E+00;0; -7.9674996E-05;  4.0000000E+04;  0.0000000E+00;  0.0000000E+00;  4.0000000E+04;  0.0000000E+00;  4.0000000E+04; -7.6532851E-05;  0.0000000E+00; -3.1421405E-06;  2.6800327E+00;
 -1.4000000E-01;  9.9999998E-03;  2.8999999E-01;618;  0.0000000E+00;  0.0000000E+00;  0.0000000E+00;  1.0000000E+03;  1.0000000E-01;  0.0000000E+00;0;  0.0000000E+00;  0.0000000E+00;  0.0000000E+00;0; -6.6874061E-05;  4.0000000E+04;  0.0000000E+00;  0.0000000E+00;  4.0000000E+04;  0.0000000E+00;  4.0000000E+04; -6.2681342E-05;  0.0000000E+00; -4.1927165E-06;  5.0841508E+00;
 -1.4000000E-01;  9.9999998E-03;  3.0000001E-01;619;  0.0000000E+00;  0.0000000E+00;  0.0000000E+00;  1.0000000E+03;  1.0000000E-01;  0.0000000E+00;0;  0.0000000E+00;  0.0000000E+00;  0.0000000E+00;0; -5.3484244E-05;  4.0000000E+04;  0.0000000E+00;  0.0000000E+00;  4.0000000E+04;  0.0000000E+00;  4.0000000E+04; -4.8786951E-05;  0.0000000E+00; -4.6972932E-06;  6.4011860E+00;
 -1.4000000E-01;  9.9999998E-03;  3.1000000E-01;620;  0.0000000E+00;  0.0000000E+00;  0.0000000E+00;  1.0000000E+03;  1.0000000E-01;  0.0000000E+00;0;  0.0000000E+00;  0.0000000E+00;  0.0000000E+00;0; -4.0250281E-05;  4.0000000E+04;  0.0000000E+00;  0.0000000E+00;  4.0000000E+04;  0.0000000E+00;  4.0000000E+04; -3.5653109E-05;  0.0000000E+00; -4.5971719E-06;  6.5789013E+00;
 -1.4000000E-01;  9.9999998E-03;  3.1999999E-01;621;  0.0000000E+00;  0.0000000E+00;  0.0000000E+00;  1.0000000E+03;  1.0000000E-01;  0.0000000E+00;0;  0.0000000E+00;  0.0000000E+00;  0.0000000E+00;0; -2.8069888E-05;  4.0000000E+04;  0.0000000E+00;  0.0000000E+00;  4.0000000E+04;  0.0000000E+00;  4.0000000E+04; -2.4092476E-05;  0.0000000E+00; -3.9774104E-06;  5.8063006E+00;
 -1.4000000E-01;  9.9999998E-03;  3.3000001E-01;622;  0.0000000E+00;  0.0000000E+00;  0.0000000E+00;  1.0000000E+03;  1.0000000E-01;  0.0000000E+00;0;  0.0000000E+00;  0.0000000E+00;  0.0000000E+00;0; -1.7772658E-05;  4.0000000E+04;  0.0000000E+00;  0.0000000E+00;  4.0000000E+04;  0.0000000E+00;  4.0000000E+04; -1.4742027E-05;  0.0000000E+00; -3.0306312E-06;  4.4438639E+00;
 -1.4000000E-01;  9.9999998E-03;  3.4000000E-01;623;  0.0000000E+00;  0.0000000E+00;  0.0000000E+00;  1.0000000E+03;  1.0000000E-01;  0.0000000E+00;0;  0.0000000E+00;  0.0000000E+00;  0.0000000E+00;0; -9.9102745E-06;  4.0000000E+04;  0.0000000E+00;  0.0000000E+00;  4.0000000E+04;  0.0000000E+00;  4.0000000E+04; -7.9162246E-06;  0.0000000E+00; -1.9940501E-06;  2.9108248E+00;
 -1.4000000E-01;  9.9999998E-03;  3.4999999E-01;624;  0.0000000E+00;  0.0000000E+00;  0.0000000E+00;  1.0000000E+03;  1.0000000E-01;  0.0000000E+00;0;  0.0000000E+00;  0.0000000E+00;  0.0000000E+00;0; -4.6241812E-06;  4.0000000E+04;  0.0000000E+00;  0.0000000E+00;  4.0000000E+04;  0.0000000E+00;  4.0000000E+04; -3.5403957E-06;  0.0000000E+00; -1.0837857E-06;  1.5690513E+00;
 -1.4000000E-01;  9.9999998E-03;  3.6000001E-01;625;  0.0000000E+00;  0.0000000E+00;  0.0000000E+00;  1.0000000E+03;  1.0000000E-01;  0.0000000E+00;0;  0.0000000E+00;  0.0000000E+00;  0.0000000E+00;0; -1.6308154E-06;  4.0000000E+04;  0.0000000E+00;  0.0000000E+00;  4.0000000E+04;  0.0000000E+00;  4.0000000E+04; -1.1889574E-06;  0.0000000E+00; -4.4185805E-07;  6.3604438E-01;
 -1.4000000E-01;  9.9999998E-03;  3.7000000E-01;626;  0.0000000E+00;  0.0000000E+00;  0.0000000E+00;  1.0000000E+03;  1.0000000E-01;  0.0000000E+00;0;  0.0000000E+00;  0.0000000E+00;  0.0000000E+00;0; -3.3680283E-07;  4.0000000E+04;  0.0000000E+00;  0.0000000E+00;  4.0000000E+04;  0.0000000E+00;  4.0000000E+04; -2.3094394E-07;  0.0000000E+00; -1.0585888E-07;  1.5381604E-01;
 -1.4000000E-01;  9.9999998E-03;  3.8000000E-01;627;  0.0000000E+00;  0.0000000E+00;  0.0000000E+00;  1.0000000E+03;  1.0000000E-01;  0.0000000E+00;0;  0.0000000E+00;  0.0000000E+00;  0.0000000E+00;0; -1.5773393E-08;  4.0000000E+04;  0.0000000E+00;  0.0000000E+00;  4.0000000E+04;  0.0000000E+00;  4.0000000E+04; -9.9954516E-09;  0.0000000E+00; -5.7779412E-09;  9.9860793E-03;
 -1.4000000E-01;  9.9999998E-03;  3.8999999E-01;628;  0.0000000E+00;  0.0000000E+00;  0.0000000E+00;  1.0000000E+03;  1.0000000E-01;  0.0000000E+00;0;  0.0000000E+00;  0.0000000E+00;  0.0000000E+00;0;  0.0000000E+00;  4.0000000E+04;  0.0000000E+00;  0.0000000E+00;  4.0000000E+04;  0.0000000E+00;  4.0000000E+04;  0.0000000E+00;  0.0000000E+00;  0.0000000E+00;  0.0000000E+00;
 -1.4000000E-01;  9.9999998E-03;  4.0000001E-01;629;  0.0000000E+00;  0.0000000E+00;  0.0000000E+00;  1.0000000E+03;  1.0000000E-01;  0.0000000E+00;0;  0.0000000E+00;  0.0000000E+00;  0.0000000E+00;0;  0.0000000E+00;  4.0000000E+04;  0.0000000E+00;  0.0000000E+00;  4.0000000E+04;  0.0000000E+00;  4.0000000E+04;  0.0000000E+00;  0.0000000E+00;  0.0000000E+00;  0.0000000E+00;
 -1.3000000E-01;  9.9999998E-03;  2.3999999E-01;704;  0.0000000E+00;  0.0000000E+00;  0.0000000E+00;  1.0000474E+03;  1.0000000E-01;  3.9307529E+01;0;  0.0000000E+00;  0.0000000E+00;  0.0000000E+00;0; -3.7928220E-04;  4.0000000E+04;  0.0000000E+00;  0.0000000E+00;  4.0000000E+04;  0.0000000E+00;  4.0000000E+04; -3.8514822E-04;  0.0000000E+00;  5.8660207E-06;  3.2816689E+01;
 -1.3000000E-01;  9.9999998E-03;  2.5000000E-01;705;  0.0000000E+00;  0.0000000E+00;  0.0000000E+00;  1.0000448E+03;  1.0000000E-01;  3.7134750E+01;0;  0.0000000E+00;  0.0000000E+00;  0.0000000E+00;0; -3.4736143E-04;  4.0000000E+04;  0.0000000E+00;  0.0000000E+00;  4.0000000E+04;  0.0000000E+00;  4.0000000E+04; -3.4973721E-04;  0.0000000E+00;  2.3757709E-06;  2.3356722E+01;
 -1.3000000E-01;  9.9999998E-03;  2.5999999E-01;706;  0.0000000E+00;  0.0000000E+00;  0.0000000E+00;  1.0000355E+03;  1.0000000E-01;  2.9431267E+01;0;  0.0000000E+00;  0.0000000E+00;  0.0000000E+00;0; -3.1456334E-04;  4.0000000E+04;  0.0000000E+00;  0.0000000E+00;  4.0000000E+04;  0.0000000E+00;  4.0000000E+04; -3.1263367E-04;  0.0000000E+00; -1.9296697E-06;  1.2808327E+01;
 -1.3000000E-01;  9.9999998E-03;  2.7000001E-01;707;  0.0000000E+00;  0.0000000E+00;  0.0000000E+00;  1.0000311E+03;  1.0000000E-01;  2.5777048E+01;0;  0.0000000E+00;  0.0000000E+00;  0.0000000E+00;0; -2.8027780E-04;  4.0000000E+04;  0.0000000E+00;  0.0000000E+00;  4.0000000E+04;  0.0000000E+00;  4.0000000E+04; -2.7377179E-04;  0.0000000E+00; -6.5060112E-06;  2.1342480E+00;
 -1.3000000E-01;  9.9999998E-03;  2.8000000E-01;708;  0.0000000E+00;  0.0000000E+00;  0.0000000E+00;  1.0000160E+03;  1.0000000E-01;  1.3234194E+01;0;  0.0000000E+00;  0.0000000E+00;  0.0000000E+00;0; -2.4420212E-04;  4.0000000E+04;  0.0000000E+00;  0.0000000E+00;  4.0000000E+04;  0.0000000E+00;  4.0000000E+04; -2.3351032E-04;  0.0000000E+00; -1.0691788E-05;  7.5380282E+00;
 -1.3000000E-01;  9.9999998E-03;  2.8999999E-01;709;  0.0000000E+00;  0.0000000E+00;  0.0000000E+00;  1.0000093E+03;  1.0000000E-01;  7.7034860E+00;0;  0.0000000E+00;  0.0000000E+00;  0.0000000E+00;0; -2.0659729E-04;  4.0000000E+04;  0.0000000E+00;  0.0000000E+00;  4.0000000E+04;  0.0000000E+00;  4.0000000E+04; -1.9274377E-04;  0.0000000E+00; -1.3853524E-05;  1.5117482E+01;
 -1.3000000E-01;  9.9999998E-03;  3.0000001E-01;710;  0.0000000E+00;  0.0000000E+00;  0.0000000E+00;  1.0000000E+03;  1.0000000E-01;  0.0000000E+00;0;  0.0000000E+00;  0.0000000E+00;  0.0000000E+00;0; -1.6838078E-04;  4.0000000E+04;  0.0000000E+00;  0.0000000E+00;  4.0000000E+04;  0.0000000E+00;  4.0000000E+04; -1.5284617E-04;  0.0000000E+00; -1.5534601E-05;  1.9844301E+01;
 -1.3000000E-01;  9.9999998E-03;  3.1000000E-01;711;  0.0000000E+00;  0.0000000E+00;  0.0000000E+00;  1.0000000E+03;  1.0000000E-01;  0.0000000E+00;0;  0.0000000E+00;  0.0000000E+00;  0.0000000E+00;0; -1.3105026E-04;  4.0000000E+04;  0.0000000E+00;  0.0000000E+00;  4.0000000E+04;  0.0000000E+00;  4.0000000E+04; -1.1547494E-04;  0.0000000E+00; -1.5575315E-05;  2.1466667E+01;
 -1.3000000E-01;  9.9999998E-03;  3.1999999E-01;712;  0.0000000E+00;  0.0000000E+00;  0.0000000E+00;  1.0000000E+03;  1.0000000E-01;  0.0000000E+00;0;  0.0000000E+00;  0.0000000E+00;  0.0000000E+00;0; -9.6425370E-05;  4.0000000E+04;  0.0000000E+00;  0.0000000E+00;  4.0000000E+04;  0.0000000E+00;  4.0000000E+04; -8.2282299E-05;  0.0000000E+00; -1.4143071E-05;  2.0299278E+01;
 -1.3000000E-01;  9.9999998E-03;  3.3000001E-01;713;  0.0000000E+00;  0.0000000E+00;  0.0000000E+00;  1.0000000E+03;  1.0000000E-01;  0.0000000E+00;0;  0.0000000E+00;  0.0000000E+00;  0.0000000E+00;0; -6.6250177E-05;  4.0000000E+04;  0.0000000E+00;  0.0000000E+00;  4.0000000E+04;  0.0000000E+00;  4.0000000E+04; -5.4593525E-05;  0.0000000E+00; -1.1656653E-05;  1.7094671E+01;
 -1.3000000E-01;  9.9999998E-03;  3.4000000E-01;714;  0.0000000E+00;  0.0000000E+00;  0.0000000E+00;  1.0000000E+03;  1.0000000E-01;  0.0000000E+00;0;  0.0000000E+00;  0.0000000E+00;  0.0000000E+00;0; -4.1800828E-05;  4.0000000E+04;  0.0000000E+00;  0.0000000E+00;  4.0000000E+04;  0.0000000E+00;  4.0000000E+04; -3.3142296E-05;  0.0000000E+00; -8.6585324E-06;  1.2822685E+01;
 -1.3000000E-01;  9.9999998E-03;  3.4999999E-01;715;  0.0000000E+00;  0.0000000E+00;  0.0000000E+00;  1.0000000E+03;  1.0000000E-01;  0.0000000E+00;0;  0.0000000E+00;  0.0000000E+00;  0.0000000E+00;0; -2.3623183E-05;  4.0000000E+04;  0.0000000E+00;  0.0000000E+00;  4.0000000E+04;  0.0000000E+00;  4.0000000E+04; -1.7935532E-05;  0.0000000E+00; -5.6876515E-06;  8.4414864E+00;
 -1.3000000E-01;  9.9999998E-03;  3.6000001E-01;716;  0.0000000E+00;  0.0000000E+00;  0.0000000E+00;  1.0000000E+03;  1.0000000E-01;  0.0000000E+00;0;  0.0000000E+00;  0.0000000E+00;  0.0000000E+00;0; -1.1466422E-05;  4.0000000E+04;  0.0000000E+00;  0.0000000E+00;  4.0000000E+04;  0.0000000E+00;  4.0000000E+04; -8.2867336E-06;  0.0000000E+00; -3.1796883E-06;  4.7095380E+00;
 -1.3000000E-01;  9.9999998E-03;  3.7000000E-01;717;  0.0000000E+00;  0.0000000E+00;  0.0000000E+00;  1.0000000E+03;  1.0000000E-01;  0.0000000E+00;0;  0.0000000E+00;  0.0000000E+00;  0.0000000E+00;0; -4.4181875E-06;  4.0000000E+04;  0.0000000E+00;  0.0000000E+00;  4.0000000E+04;  0.0000000E+00;  4.0000000E+04; -3.0173342E-06;  0.0000000E+00; -1.4008532E-06;  2.0696743E+00;
 -1.3000000E-01;  9.9999998E-03;  3.8000000E-01;718;  0.0000000E+00;  0.0000000E+00;  0.0000000E+00;  1.0000000E+03;  1.0000000E-01;  0.0000000E+00;0;  0.0000000E+00;  0.0000000E+00;  0.0000000E+00;0; -1.1388759E-06;  4.0000000E+04;  0.0000000E+00;  0.0000000E+00;  4.0000000E+04;  0.0000000E+00;  4.0000000E+04; -7.2970039E-07;  0.0000000E+00; -4.0917547E-07;  6.0727489E-01;
 -1.3000000E-01;  9.9999998E-03;  3.8999999E-01;719;  0.0000000E+00;  0.0000000E+00;  0.0000000E+00;  1.0000000E+03;  1.0000000E-01;  0.0000000E+00;0;  0.0000000E+00;  0.0000000E+00;  0.0000000E+00;0; -1.0786256E-07;  4.0000000E+04;  0.0000000E+00;  0.0000000E+00;  4.0000000E+04;  0.0000000E+00;  4.0000000E+04; -6.3488599E-08;  0.0000000E+00; -4.4373959E-08;  6.8839796E-02;
 -1.3000000E-01;  9.9999998E-03;  4.0000001E-01;720;  0.0000000E+00;  0.0000000E+00;  0.0000000E+00;  1.0000000E+03;  1.0000000E-01;  0.0000000E+00;0;  0.0000000E+00;  0.0000000E+00;  0.0000000E+00;0;  0.0000000E+00;  4.0000000E+04;  0.0000000E+00;  0.0000000E+00;  4.0000000E+04;  0.0000000E+00;  4.0000000E+04;  0.0000000E+00;  0.0000000E+00;  0.0000000E+00;  0.0000000E+00;
 -1.2000000E-01;  9.9999998E-03;  2.3999999E-01;795;  0.0000000E+00;  0.0000000E+00;  0.0000000E+00;  1.0001006E+03;  1.0000000E-01;  8.3355667E+01;0;  0.0000000E+00;  0.0000000E+00;  0.0000000E+00;0; -9.1259257E-04;  4.0000000E+04;  0.0000000E+00;  0.0000000E+00;  4.0000000E+04;  0.0000000E+00;  4.0000000E+04; -9.2540856E-04;  0.0000000E+00;  1.2816003E-05;  7.7146690E+01;
 -1.2000000E-01;  9.9999998E-03;  2.5000000E-01;796;  0.0000000E+00;  0.0000000E+00;  0.0000000E+00;  1.0000970E+03;  1.0000000E-01;  8.0392792E+01;0;  0.0000000E+00;  0.0000000E+00;  0.0000000E+00;0; -8.3335117E-04;  4.0000000E+04;  0.0000000E+00;  0.0000000E+00;  4.0000000E+04;  0.0000000E+00;  4.0000000E+04; -8.3719648E-04;  0.0000000E+00;  3.8453204E-06;  5.5422871E+01;
 -1.2000000E-01;  9.9999998E-03;  2.5999999E-01;797;  0.0000000E+00;  0.0000000E+00;  0.0000000E+00;  1.0000833E+03;  1.0000000E-01;  6.8936325E+01;0;  0.0000000E+00;  0.0000000E+00;  0.0000000E+00;0; -7.5251854E-04;  4.0000000E+04;  0.0000000E+00;  0.0000000E+00;  4.0000000E+04;  0.0000000E+00;  4.0000000E+04; -7.4580999E-04;  0.0000000E+00; -6.7085475E-06;  3.1223690E+01;
 -1.2000000E-01;  9.9999998E-03;  2.7000001E-01;798;  0.0000000E+00;  0.0000000E+00;  0.0000000E+00;  1.0000786E+03;  1.0000000E-01;  6.5084579E+01;0;  0.0000000E+00;  0.0000000E+00;  0.0000000E+00;0; -6.6944683E-04;  4.0000000E+04;  0.0000000E+00;  0.0000000E+00;  4.0000000E+04;  0.0000000E+00;  4.0000000E+04; -6.5181841E-04;  0.0000000E+00; -1.7628430E-05;  6.6277337E+00;
 -1.2000000E-01;  9.9999998E-03;  2.8000000E-01;799;  0.0000000E+00;  0.0000000E+00;  0.0000000E+00;  1.0000712E+03;  1.0000000E-01;  5.8961296E+01;0;  0.0000000E+00;  0.0000000E+00;  0.0000000E+00;0; -5.8397301E-04;  4.0000000E+04;  0.0000000E+00;  0.0000000E+00;  4.0000000E+04;  0.0000000E+00;  4.0000000E+04; -5.5645360E-04;  0.0000000E+00; -2.7519391E-05;  1.5971744E+01;
 -1.2000000E-01;  9.9999998E-03;  2.8999999E-01;800;  0.0000000E+00;  0.0000000E+00;  0.0000000E+00;  1.0000641E+03;  1.0000000E-01;  5.3134300E+01;0;  0.0000000E+00;  0.0000000E+00;  0.0000000E+00;0; -4.9681409E-04;  4.0000000E+04;  0.0000000E+00;  0.0000000E+00;  4.0000000E+04;  0.0000000E+00;  4.0000000E+04; -4.6173262E-04;  0.0000000E+00; -3.5081481E-05;  3.4302307E+01;
 -1.2000000E-01;  9.9999998E-03;  3.0000001E-01;801;  0.0000000E+00;  0.0000000E+00;  0.0000000E+00;  1.0000519E+03;  1.0000000E-01;  4.2961746E+01;0;  0.0000000E+00;  0.0000000E+00;  0.0000000E+00;0; -4.0970976E-04;  4.0000000E+04;  0.0000000E+00;  0.0000000E+00;  4.0000000E+04;  0.0000000E+00;  4.0000000E+04; -3.7033166E-04;  0.0000000E+00; -3.9378097E-05;  4.6681442E+01;
 -1.2000000E-01;  9.9999998E-03;  3.1000000E-01;802;  0.0000000E+00;  0.0000000E+00;  0.0000000E+00;  1.0000449E+03;  1.0000000E-01;  3.7134750E+01;0;  0.0000000E+00;  0.0000000E+00;  0.0000000E+00;0; -3.2533801E-04;  4.0000000E+04;  0.0000000E+00;  0.0000000E+00;  4.0000000E+04;  0.0000000E+00;  4.0000000E+04; -2.8527938E-04;  0.0000000E+00; -4.0058625E-05;  5.2397072E+01;
 -1.2000000E-01;  9.9999998E-03;  3.1999999E-01;803;  0.0000000E+00;  0.0000000E+00;  0.0000000E+00;  1.0000161E+03;  1.0000000E-01;  1.3332956E+01;0;  0.0000000E+00;  0.0000000E+00;  0.0000000E+00;0; -2.4692982E-04;  4.0000000E+04;  0.0000000E+00;  0.0000000E+00;  4.0000000E+04;  0.0000000E+00;  4.0000000E+04; -2.0951366E-04;  0.0000000E+00; -3.7416172E-05;  5.1841518E+01;
 -1.2000000E-01;  9.9999998E-03;  3.3000001E-01;804;  0.0000000E+00;  0.0000000E+00;  0.0000000E+00;  1.0000000E+03;  1.0000000E-01;  0.0000000E+00;0;  0.0000000E+00;  0.0000000E+00;  0.0000000E+00;0; -1.7762210E-04;  4.0000000E+04;  0.0000000E+00;  0.0000000E+00;  4.0000000E+04;  0.0000000E+00;  4.0000000E+04; -1.4538002E-04;  0.0000000E+00; -3.2242089E-05;  4.6304253E+01;
 -1.2000000E-01;  9.9999998E-03;  3.4000000E-01;805;  0.0000000E+00;  0.0000000E+00;  0.0000000E+00;  1.0000000E+03;  1.0000000E-01;  0.0000000E+00;0;  0.0000000E+00;  0.0000000E+00;  0.0000000E+00;0; -1.1979576E-04;  4.0000000E+04;  0.0000000E+00;  0.0000000E+00;  4.0000000E+04;  0.0000000E+00;  4.0000000E+04; -9.4210583E-05;  0.0000000E+00; -2.5585179E-05;  3.7580982E+01;
 -1.2000000E-01;  9.9999998E-03;  3.4999999E-01;806;  0.0000000E+00;  0.0000000E+00;  0.0000000E+00;  1.0000000E+03;  1.0000000E-01;  0.0000000E+00;0;  0.0000000E+00;  0.0000000E+00;  0.0000000E+00;0; -7.4627751E-05;  4.0000000E+04;  0.0000000E+00;  0.0000000E+00;  4.0000000E+04;  0.0000000E+00;  4.0000000E+04; -5.6104880E-05;  0.0000000E+00; -1.8522875E-05;  2.7576078E+01;
 -1.2000000E-01;  9.9999998E-03;  3.6000001E-01;807;  0.0000000E+00;  0.0000000E+00;  0.0000000E+00;  1.0000000E+03;  1.0000000E-01;  0.0000000E+00;0;  0.0000000E+00;  0.0000000E+00;  0.0000000E+00;0; -4.1961364E-05;  4.0000000E+04;  0.0000000E+00;  0.0000000E+00;  4.0000000E+04;  0.0000000E+00;  4.0000000E+04; -2.9968402E-05;  0.0000000E+00; -1.1992963E-05;  1.7981218E+01;
 -1.2000000E-01;  9.9999998E-03;  3.7000000E-01;808;  0.0000000E+00;  0.0000000E+00;  0.0000000E+00;  1.0000000E+03;  1.0000000E-01;  0.0000000E+00;0;  0.0000000E+00;  0.0000000E+00;  0.0000000E+00;0; -2.0489528E-05;  4.0000000E+04;  0.0000000E+00;  0.0000000E+00;  4.0000000E+04;  0.0000000E+00;  4.0000000E+04; -1.3801275E-05;  0.0000000E+00; -6.6882535E-06;  1.0055916E+01;
 -1.2000000E-01;  9.9999998E-03;  3.8000000E-01;809;  0.0000000E+00;  0.0000000E+00;  0.0000000E+00;  1.0000000E+03;  1.0000000E-01;  0.0000000E+00;0;  0.0000000E+00;  0.0000000E+00;  0.0000000E+00;0; -8.0976788E-06;  4.0000000E+04;  0.0000000E+00;  0.0000000E+00;  4.0000000E+04;  0.0000000E+00;  4.0000000E+04; -5.1081911E-06;  0.0000000E+00; -2.9894873E-06;  4.4977536E+00;
 -1.2000000E-01;  9.9999998E-03;  3.8999999E-01;810;  0.0000000E+00;  0.0000000E+00;  0.0000000E+00;  1.0000000E+03;  1.0000000E-01;  0.0000000E+00;0;  0.0000000E+00;  0.0000000E+00;  0.0000000E+00;0; -2.2155205E-06;  4.0000000E+04;  0.0000000E+00;  0.0000000E+00;  4.0000000E+04;  0.0000000E+00;  4.0000000E+04; -1.3008860E-06;  0.0000000E+00; -9.1463448E-07;  1.3812922E+00;
 -1.2000000E-01;  9.9999998E-03;  4.0000001E-01;811;  0.0000000E+00;  0.0000000E+00;  0.0000000E+00;  1.0000000E+03;  1.0000000E-01;  0.0000000E+00;0;  0.0000000E+00;  0.0000000E+00;  0.0000000E+00;0; -2.6748660E-07;  4.0000000E+04;  0.0000000E+00;  0.0000000E+00;  4.0000000E+04;  0.0000000E+00;  4.0000000E+04; -1.4638715E-07;  0.0000000E+00; -1.2109943E-07;  1.8909702E-01;
 -1.1000000E-01;  9.9999998E-03;  2.3999999E-01;886;  0.0000000E+00;  0.0000000E+00;  0.0000000E+00;  1.0002047E+03;  1.0000000E-01;  1.6957545E+02;0;  0.0000000E+00;  0.0000000E+00;  0.0000000E+00;0; -1.8620314E-03;  4.0000000E+04;  0.0000000E+00;  0.0000000E+00;  4.0000000E+04;  0.0000000E+00;  4.0000000E+04; -1.8860900E-03;  0.0000000E+00;  2.4058663E-05;  1.5405470E+02;
 -1.1000000E-01;  9.9999998E-03;  2.5000000E-01;887;  0.0000000E+00;  0.0000000E+00;  0.0000000E+00;  1.0001934E+03;  1.0000000E-01;  1.6019299E+02;0;  0.0000000E+00;  0.0000000E+00;  0.0000000E+00;0; -1.6987913E-03;  4.0000000E+04;  0.0000000E+00;  0.0000000E+00;  4.0000000E+04;  0.0000000E+00;  4.0000000E+04; -1.7037741E-03;  0.0000000E+00;  4.9827581E-06;  1.1197977E+02;
 -1.1000000E-01;  9.9999998E-03;  2.5999999E-01;888;  0.0000000E+00;  0.0000000E+00;  0.0000000E+00;  1.0001771E+03;  1.0000000E-01;  1.4666252E+02;0;  0.0000000E+00;  0.0000000E+00;  0.0000000E+00;0; -1.5327350E-03;  4.0000000E+04;  0.0000000E+00;  0.0000000E+00;  4.0000000E+04;  0.0000000E+00;  4.0000000E+04; -1.5158751E-03;  0.0000000E+00; -1.6859805E-05;  6.5006569E+01;
 -1.1000000E-01;  9.9999998E-03;  2.7000001E-01;889;  0.0000000E+00;  0.0000000E+00;  0.0000000E+00;  1.0001556E+03;  1.0000000E-01;  1.2888524E+02;0;  0.0000000E+00;  0.0000000E+00;  0.0000000E+00;0; -1.3634963E-03;  4.0000000E+04;  0.0000000E+00;  0.0000000E+00;  4.0000000E+04;  0.0000000E+00;  4.0000000E+04; -1.3243615E-03;  0.0000000E+00; -3.9134746E-05;  1.7006351E+01;
 -1.1000000E-01;  9.9999998E-03;  2.8000000E-01;890;  0.0000000E+00;  0.0000000E+00;  0.0000000E+00;  1.0001326E+03;  1.0000000E-01;  1.0982405E+02;0;  0.0000000E+00;  0.0000000E+00;  0.0000000E+00;0; -1.1914080E-03;  4.0000000E+04;  0.0000000E+00;  0.0000000E+00;  4.0000000E+04;  0.0000000E+00;  4.0000000E+04; -1.1321616E-03;  0.0000000E+00; -5.9246424E-05;  2.7850307E+01;
 -1.1000000E-01;  9.9999998E-03;  2.8999999E-01;891;  0.0000000E+00;  0.0000000E+00;  0.0000000E+00;  1.0001206E+03;  1.0000000E-01;  9.9947792E+01;0;  0.0000000E+00;  0.0000000E+00;  0.0000000E+00;0; -1.0180620E-03;  4.0000000E+04;  0.0000000E+00;  0.0000000E+00;  4.0000000E+04;  0.0000000E+00;  4.0000000E+04; -9.4325782E-04;  0.0000000E+00; -7.4804186E-05;  6.5099388E+01;
 -1.1000000E-01;  9.9999998E-03;  3.0000001E-01;892;  0.0000000E+00;  0.0000000E+00;  0.0000000E+00;  1.0000997E+03;  1.0000000E-01;  8.2565567E+01;0;  0.0000000E+00;  0.0000000E+00;  0.0000000E+00;0; -8.4652286E-04;  4.0000000E+04;  0.0000000E+00;  0.0000000E+00;  4.0000000E+04;  0.0000000E+00;  4.0000000E+04; -7.6244678E-04;  0.0000000E+00; -8.4076062E-05;  9.1678894E+01;
 -1.1000000E-01;  9.9999998E-03;  3.1000000E-01;893;  0.0000000E+00;  0.0000000E+00;  0.0000000E+00;  1.0000804E+03;  1.0000000E-01;  6.6566017E+01;0;  0.0000000E+00;  0.0000000E+00;  0.0000000E+00;0; -6.8125641E-04;  4.0000000E+04;  0.0000000E+00;  0.0000000E+00;  4.0000000E+04;  0.0000000E+00;  4.0000000E+04; -5.9487770E-04;  0.0000000E+00; -8.6378743E-05;  1.0599905E+02;
 -1.1000000E-01;  9.9999998E-03;  3.1999999E-01;894;  0.0000000E+00;  0.0000000E+00;  0.0000000E+00;  1.0000677E+03;  1.0000000E-01;  5.6097179E+01;0;  0.0000000E+00;  0.0000000E+00;  0.0000000E+00;0; -5.2758283E-04;  4.0000000E+04;  0.0000000E+00;  0.0000000E+00;  4.0000000E+04;  0.0000000E+00;  4.0000000E+04; -4.4540013E-04;  0.0000000E+00; -8.2182669E-05;  1.0839780E+02;
 -1.1000000E-01;  9.9999998E-03;  3.3000001E-01;895;  0.0000000E+00;  0.0000000E+00;  0.0000000E+00;  1.0000504E+03;  1.0000000E-01;  4.1776596E+01;0;  0.0000000E+00;  0.0000000E+00;  0.0000000E+00;0; -3.9068668E-04;  4.0000000E+04;  0.0000000E+00;  0.0000000E+00;  4.0000000E+04;  0.0000000E+00;  4.0000000E+04; -3.1783091E-04;  0.0000000E+00; -7.2855779E-05;  1.0082130E+02;
 -1.1000000E-01;  9.9999998E-03;  3.4000000E-01;896;  0.0000000E+00;  0.0000000E+00;  0.0000000E+00;  1.0000266E+03;  1.0000000E-01;  2.2024069E+01;0;  0.0000000E+00;  0.0000000E+00;  0.0000000E+00;0; -2.7455977E-04;  4.0000000E+04;  0.0000000E+00;  0.0000000E+00;  4.0000000E+04;  0.0000000E+00;  4.0000000E+04; -2.1432423E-04;  0.0000000E+00; -6.0235547E-05;  8.6188431E+01;
 -1.1000000E-01;  9.9999998E-03;  3.4999999E-01;897;  0.0000000E+00;  0.0000000E+00;  0.0000000E+00;  1.0000000E+03;  1.0000000E-01;  0.0000000E+00;0;  0.0000000E+00;  0.0000000E+00;  0.0000000E+00;0; -1.8128184E-04;  4.0000000E+04;  0.0000000E+00;  0.0000000E+00;  4.0000000E+04;  0.0000000E+00;  4.0000000E+04; -1.3504946E-04;  0.0000000E+00; -4.6232377E-05;  6.7730988E+01;
 -1.1000000E-01;  9.9999998E-03;  3.6000001E-01;898;  0.0000000E+00;  0.0000000E+00;  0.0000000E+00;  1.0000000E+03;  1.0000000E-01;  0.0000000E+00;0;  0.0000000E+00;  0.0000000E+00;  0.0000000E+00;0; -1.1081435E-04;  4.0000000E+04;  0.0000000E+00;  0.0000000E+00;  4.0000000E+04;  0.0000000E+00;  4.0000000E+04; -7.8257050E-05;  0.0000000E+00; -3.2557302E-05;  4.8489040E+01;
 -1.1000000E-01;  9.9999998E-03;  3.7000000E-01;899;  0.0000000E+00;  0.0000000E+00;  0.0000000E+00;  1.0000000E+03;  1.0000000E-01;  0.0000000E+00;0;  0.0000000E+00;  0.0000000E+00;  0.0000000E+00;0; -6.1276543E-05;  4.0000000E+04;  0.0000000E+00;  0.0000000E+00;  4.0000000E+04;  0.0000000E+00;  4.0000000E+04; -4.0706120E-05;  0.0000000E+00; -2.0570425E-05;  3.0979221E+01;
 -1.1000000E-01;  9.9999998E-03;  3.8000000E-01;900;  0.0000000E+00;  0.0000000E+00;  0.0000000E+00;  1.0000000E+03;  1.0000000E-01;  0.0000000E+00;0;  0.0000000E+00;  0.0000000E+00;  0.0000000E+00;0; -2.9476199E-05;  4.0000000E+04;  0.0000000E+00;  0.0000000E+00;  4.0000000E+04;  0.0000000E+00;  4.0000000E+04; -1.8277056E-05;  0.0000000E+00; -1.1199144E-05;  1.6985199E+01;
 -1.1000000E-01;  9.9999998E-03;  3.8999999E-01;901;  0.0000000E+00;  0.0000000E+00;  0.0000000E+00;  1.0000000E+03;  1.0000000E-01;  0.0000000E+00;0;  0.0000000E+00;  0.0000000E+00;  0.0000000E+00;0; -1.1454151E-05;  4.0000000E+04;  0.0000000E+00;  0.0000000E+00;  4.0000000E+04;  0.0000000E+00;  4.0000000E+04; -6.5872391E-06;  0.0000000E+00; -4.8669117E-06;  7.4165068E+00;
 -1.1000000E-01;  9.9999998E-03;  4.0000001E-01;902;  0.0000000E+00;  0.0000000E+00;  0.0000000E+00;  1.0000000E+03;  1.0000000E-01;  0.0000000E+00;0;  0.0000000E+00;  0.0000000E+00;  0.0000000E+00;0; -3.0721676E-06;  4.0000000E+04;  0.0000000E+00;  0.0000000E+00;  4.0000000E+04;  0.0000000E+00;  4.0000000E+04; -1.6375390E-06;  0.0000000E+00; -1.4346286E-06;  2.2025175E+00;
 -1.0000000E-01;  9.9999998E-03;  2.3999999E-01;977;  0.0000000E+00;  0.0000000E+00;  0.0000000E+00;  1.0003747E+03;  1.0000000E-01;  3.1041098E+02;0;  0.0000000E+00;  0.0000000E+00;  0.0000000E+00;0; -3.3947846E-03;  4.0000000E+04;  0.0000000E+00;  0.0000000E+00;  4.0000000E+04;  0.0000000E+00;  4.0000000E+04; -3.4354914E-03;  0.0000000E+00;  4.0706615E-05;  2.7450870E+02;
 -1.0000000E-01;  9.9999998E-03;  2.5000000E-01;978;  0.0000000E+00;  0.0000000E+00;  0.0000000E+00;  1.0003543E+03;  1.0000000E-01;  2.9352255E+02;0;  0.0000000E+00;  0.0000000E+00;  0.0000000E+00;0; -3.0974103E-03;  4.0000000E+04;  0.0000000E+00;  0.0000000E+00;  4.0000000E+04;  0.0000000E+00;  4.0000000E+04; -3.1024776E-03;  0.0000000E+00;  5.0672752E-06;  2.0219720E+02;
 -1.0000000E-01;  9.9999998E-03;  2.5999999E-01;979;  0.0000000E+00;  0.0000000E+00;  0.0000000E+00;  1.0003138E+03;  1.0000000E-01;  2.5994327E+02;0;  0.0000000E+00;  0.0000000E+00;  0.0000000E+00;0; -2.7951119E-03;  4.0000000E+04;  0.0000000E+00;  0.0000000E+00;  4.0000000E+04;  0.0000000E+00;  4.0000000E+04; -2.7600050E-03;  0.0000000E+00; -3.5106859E-05;  1.2110411E+02;
 -1.0000000E-01;  9.9999998E-03;  2.7000001E-01;980;  0.0000000E+00;  0.0000000E+00;  0.0000000E+00;  1.0002855E+03;  1.0000000E-01;  2.3653651E+02;0;  0.0000000E+00;  0.0000000E+00;  0.0000000E+00;0; -2.4882909E-03;  4.0000000E+04;  0.0000000E+00;  0.0000000E+00;  4.0000000E+04;  0.0000000E+00;  4.0000000E+04; -2.4125089E-03;  0.0000000E+00; -7.5781834E-05;  3.7786293E+01;
 -1.0000000E-01;  9.9999998E-03;  2.8000000E-01;981;  0.0000000E+00;  0.0000000E+00;  0.0000000E+00;  1.0002529E+03;  1.0000000E-01;  2.0957433E+02;0;  0.0000000E+00;  0.0000000E+00;  0.0000000E+00;0; -2.1782883E-03;  4.0000000E+04;  0.0000000E+00;  0.0000000E+00;  4.0000000E+04;  0.0000000E+00;  4.0000000E+04; -2.0657575E-03;  0.0000000E+00; -1.1253078E-04;  4.1875416E+01;
 -1.0000000E-01;  9.9999998E-03;  2.8999999E-01;982;  0.0000000E+00;  0.0000000E+00;  0.0000000E+00;  1.0002112E+03;  1.0000000E-01;  1.7500740E+02;0;  0.0000000E+00;  0.0000000E+00;  0.0000000E+00;0; -1.8681622E-03;  4.0000000E+04;  0.0000000E+00;  0.0000000E+00;  4.0000000E+04;  0.0000000E+00;  4.0000000E+04; -1.7268788E-03;  0.0000000E+00; -1.4128335E-04;  1.0874319E+02;
 -1.0000000E-01;  9.9999998E-03;  3.0000001E-01;983;  0.0000000E+00;  0.0000000E+00;  0.0000000E+00;  1.0001909E+03;  1.0000000E-01;  1.5821774E+02;0;  0.0000000E+00;  0.0000000E+00;  0.0000000E+00;0; -1.5630178E-03;  4.0000000E+04;  0.0000000E+00;  0.0000000E+00;  4.0000000E+04;  0.0000000E+00;  4.0000000E+04; -1.4039583E-03;  0.0000000E+00; -1.5905958E-04;  1.5850870E+02;
 -1.0000000E-01;  9.9999998E-03;  3.1000000E-01;984;  0.0000000E+00;  0.0000000E+00;  0.0000000E+00;  1.0001407E+03;  1.0000000E-01;  1.1653992E+02;0;  0.0000000E+00;  0.0000000E+00;  0.0000000E+00;0; -1.2699603E-03;  4.0000000E+04;  0.0000000E+00;  0.0000000E+00;  4.0000000E+04;  0.0000000E+00;  4.0000000E+04; -1.1053361E-03;  0.0000000E+00; -1.6462420E-04;  1.8801555E+02;
 -1.0000000E-01;  9.9999998E-03;  3.1999999E-01;985;  0.0000000E+00;  0.0000000E+00;  0.0000000E+00;  1.0001186E+03;  1.0000000E-01;  9.8268829E+01;0;  0.0000000E+00;  0.0000000E+00;  0.0000000E+00;0; -9.9734066E-04;  4.0000000E+04;  0.0000000E+00;  0.0000000E+00;  4.0000000E+04;  0.0000000E+00;  4.0000000E+04; -8.3866349E-04;  0.0000000E+00; -1.5867717E-04;  1.9730579E+02;
 -1.0000000E-01;  9.9999998E-03;  3.3000001E-01;986;  0.0000000E+00;  0.0000000E+00;  0.0000000E+00;  1.0000853E+03;  1.0000000E-01;  7.0615288E+01;0;  0.0000000E+00;  0.0000000E+00;  0.0000000E+00;0; -7.5329829E-04;  4.0000000E+04;  0.0000000E+00;  0.0000000E+00;  4.0000000E+04;  0.0000000E+00;  4.0000000E+04; -6.0986658E-04;  0.0000000E+00; -1.4343169E-04;  1.8907788E+02;
 -1.0000000E-01;  9.9999998E-03;  3.4000000E-01;987;  0.0000000E+00;  0.0000000E+00;  0.0000000E+00;  1.0000684E+03;  1.0000000E-01;  5.6689754E+01;0;  0.0000000E+00;  0.0000000E+00;  0.0000000E+00;0; -5.4413523E-04;  4.0000000E+04;  0.0000000E+00;  0.0000000E+00;  4.0000000E+04;  0.0000000E+00;  4.0000000E+04; -4.2223718E-04;  0.0000000E+00; -1.2189808E-04;  1.6768639E+02;
 -1.0000000E-01;  9.9999998E-03;  3.4999999E-01;988;  0.0000000E+00;  0.0000000E+00;  0.0000000E+00;  1.0000494E+03;  1.0000000E-01;  4.0887733E+01;0;  0.0000000E+00;  0.0000000E+00;  0.0000000E+00;0; -3.7319941E-04;  4.0000000E+04;  0.0000000E+00;  0.0000000E+00;  4.0000000E+04;  0.0000000E+00;  4.0000000E+04; -2.7597972E-04;  0.0000000E+00; -9.7219701E-05;  1.3811931E+02;
 -1.0000000E-01;  9.9999998E-03;  3.6000001E-01;989;  0.0000000E+00;  0.0000000E+00;  0.0000000E+00;  1.0000137E+03;  1.0000000E-01;  1.1357703E+01;0;  0.0000000E+00;  0.0000000E+00;  0.0000000E+00;0; -2.4057290E-04;  4.0000000E+04;  0.0000000E+00;  0.0000000E+00;  4.0000000E+04;  0.0000000E+00;  4.0000000E+04; -1.6833734E-04;  0.0000000E+00; -7.2235554E-05;  1.0520702E+02;
 -1.0000000E-01;  9.9999998E-03;  3.7000000E-01;990;  0.0000000E+00;  0.0000000E+00;  0.0000000E+00;  1.0000000E+03;  1.0000000E-01;  0.0000000E+00;0;  0.0000000E+00;  0.0000000E+00;  0.0000000E+00;0; -1.4350166E-04;  4.0000000E+04;  0.0000000E+00;  0.0000000E+00;  4.0000000E+04;  0.0000000E+00;  4.0000000E+04; -9.4234885E-05;  0.0000000E+00; -4.9266779E-05;  7.3153946E+01;
 -1.0000000E-01;  9.9999998E-03;  3.8000000E-01;991;  0.0000000E+00;  0.0000000E+00;  0.0000000E+00;  1.0000000E+03;  1.0000000E-01;  0.0000000E+00;0;  0.0000000E+00;  0.0000000E+00;  0.0000000E+00;0; -7.7230310E-05;  4.0000000E+04;  0.0000000E+00;  0.0000000E+00;  4.0000000E+04;  0.0000000E+00;  4.0000000E+04; -4.7191901E-05;  0.0000000E+00; -3.0038411E-05;  4.5276733E+01;
 -1.0000000E-01;  9.9999998E-03;  3.8999999E-01;992;  0.0000000E+00;  0.0000000E+00;  0.0000000E+00;  1.0000000E+03;  1.0000000E-01;  0.0000000E+00;0;  0.0000000E+00;  0.0000000E+00;  0.0000000E+00;0; -3.5869056E-05;  4.0000000E+04;  0.0000000E+00;  0.0000000E+00;  4.0000000E+04;  0.0000000E+00;  4.0000000E+04; -2.0247049E-05;  0.0000000E+00; -1.5622007E-05;  2.3826391E+01;
 -1.0000000E-01;  9.9999998E-03;  4.0000001E-01;993;  0.0000000E+00;  0.0000000E+00;  0.0000000E+00;  1.0000000E+03;  1.0000000E-01;  0.0000000E+00;0;  0.0000000E+00;  0.0000000E+00;  0.0000000E+00;0; -1.3226088E-05;  4.0000000E+04;  0.0000000E+00;  0.0000000E+00;  4.0000000E+04;  0.0000000E+00;  4.0000000E+04; -6.8778759E-06;  0.0000000E+00; -6.3482116E-06;  9.7818069E+00;
 -9.0000004E-02;  9.9999998E-03;  2.3999999E-01;1068;  0.0000000E+00;  0.0000000E+00;  0.0000000E+00;  1.0006364E+03;  1.0000000E-01;  5.2719495E+02;0;  0.0000000E+00;  0.0000000E+00;  0.0000000E+00;0; -5.7022679E-03;  4.0000000E+04;  0.0000000E+00;  0.0000000E+00;  4.0000000E+04;  0.0000000E+00;  4.0000000E+04; -5.7662027E-03;  0.0000000E+00;  6.3934611E-05;  4.4954022E+02;
 -9.0000004E-02;  9.9999998E-03;  2.5000000E-01;1069;  0.0000000E+00;  0.0000000E+00;  0.0000000E+00;  1.0005785E+03;  1.0000000E-01;  4.7929507E+02;0;  0.0000000E+00;  0.0000000E+00;  0.0000000E+00;0; -5.2058953E-03;  4.0000000E+04;  0.0000000E+00;  0.0000000E+00;  4.0000000E+04;  0.0000000E+00;  4.0000000E+04; -5.2092783E-03;  0.0000000E+00;  3.3830470E-06;  3.3590079E+02;
 -9.0000004E-02;  9.9999998E-03;  2.5999999E-01;1070;  0.0000000E+00;  0.0000000E+00;  0.0000000E+00;  1.0005314E+03;  1.0000000E-01;  4.4018509E+02;0;  0.0000000E+00;  0.0000000E+00;  0.0000000E+00;0; -4.7010840E-03;  4.0000000E+04;  0.0000000E+00;  0.0000000E+00;  4.0000000E+04;  0.0000000E+00;  4.0000000E+04; -4.6367757E-03;  0.0000000E+00; -6.4308122E-05;  2.0761853E+02;
 -9.0000004E-02;  9.9999998E-03;  2.7000001E-01;1071;  0.0000000E+00;  0.0000000E+00;  0.0000000E+00;  1.0004786E+03;  1.0000000E-01;  3.9653198E+02;0;  0.0000000E+00;  0.0000000E+00;  0.0000000E+00;0; -4.1896249E-03;  4.0000000E+04;  0.0000000E+00;  0.0000000E+00;  4.0000000E+04;  0.0000000E+00;  4.0000000E+04; -4.0569543E-03;  0.0000000E+00; -1.3267076E-04;  7.5056679E+01;
 -9.0000004E-02;  9.9999998E-03;  2.8000000E-01;1072;  0.0000000E+00;  0.0000000E+00;  0.0000000E+00;  1.0004240E+03;  1.0000000E-01;  3.5119995E+02;0;  0.0000000E+00;  0.0000000E+00;  0.0000000E+00;0; -3.6745449E-03;  4.0000000E+04;  0.0000000E+00;  0.0000000E+00;  4.0000000E+04;  0.0000000E+00;  4.0000000E+04; -3.4799208E-03;  0.0000000E+00; -1.9462401E-04;  5.5946156E+01;
 -9.0000004E-02;  9.9999998E-03;  2.8999999E-01;1073;  0.0000000E+00;  0.0000000E+00;  0.0000000E+00;  1.0003677E+03;  1.0000000E-01;  3.0458398E+02;0;  0.0000000E+00;  0.0000000E+00;  0.0000000E+00;0; -3.1611586E-03;  4.0000000E+04;  0.0000000E+00;  0.0000000E+00;  4.0000000E+04;  0.0000000E+00;  4.0000000E+04; -2.9175330E-03;  0.0000000E+00; -2.4362560E-04;  1.6499089E+02;
 -9.0000004E-02;  9.9999998E-03;  3.0000001E-01;1074;  0.0000000E+00;  0.0000000E+00;  0.0000000E+00;  1.0003141E+03;  1.0000000E-01;  2.6023956E+02;0;  0.0000000E+00;  0.0000000E+00;  0.0000000E+00;0; -2.6575751E-03;  4.0000000E+04;  0.0000000E+00;  0.0000000E+00;  4.0000000E+04;  0.0000000E+00;  4.0000000E+04; -2.3827548E-03;  0.0000000E+00; -2.7482031E-04;  2.4924258E+02;
 -9.0000004E-02;  9.9999998E-03;  3.1000000E-01;1075;  0.0000000E+00;  0.0000000E+00;  0.0000000E+00;  1.0002562E+03;  1.0000000E-01;  2.1224091E+02;0;  0.0000000E+00;  0.0000000E+00;  0.0000000E+00;0; -2.1747062E-03;  4.0000000E+04;  0.0000000E+00;  0.0000000E+00;  4.0000000E+04;  0.0000000E+00;  4.0000000E+04; -1.8886062E-03;  0.0000000E+00; -2.8610000E-04;  3.0255920E+02;
 -9.0000004E-02;  9.9999998E-03;  3.1999999E-01;1076;  0.0000000E+00;  0.0000000E+00;  0.0000000E+00;  1.0002010E+03;  1.0000000E-01;  1.6651381E+02;0;  0.0000000E+00;  0.0000000E+00;  0.0000000E+00;0; -1.7252496E-03;  4.0000000E+04;  0.0000000E+00;  0.0000000E+00;  4.0000000E+04;  0.0000000E+00;  4.0000000E+04; -1.4468119E-03;  0.0000000E+00; -2.7843763E-04;  3.2431046E+02;
 -9.0000004E-02;  9.9999998E-03;  3.3000001E-01;1077;  0.0000000E+00;  0.0000000E+00;  0.0000000E+00;  1.0001494E+03;  1.0000000E-01;  1.2374959E+02;0;  0.0000000E+00;  0.0000000E+00;  0.0000000E+00;0; -1.3215378E-03;  4.0000000E+04;  0.0000000E+00;  0.0000000E+00;  4.0000000E+04;  0.0000000E+00;  4.0000000E+04; -1.0663074E-03;  0.0000000E+00; -2.5523038E-04;  3.1800925E+02;
 -9.0000004E-02;  9.9999998E-03;  3.4000000E-01;1078;  0.0000000E+00;  0.0000000E+00;  0.0000000E+00;  1.0001155E+03;  1.0000000E-01;  9.5700996E+01;0;  0.0000000E+00;  0.0000000E+00;  0.0000000E+00;0; -9.7314676E-04;  4.0000000E+04;  0.0000000E+00;  0.0000000E+00;  4.0000000E+04;  0.0000000E+00;  4.0000000E+04; -7.5198221E-04;  0.0000000E+00; -2.2116452E-04;  2.8980621E+02;
 -9.0000004E-02;  9.9999998E-03;  3.4999999E-01;1079;  0.0000000E+00;  0.0000000E+00;  0.0000000E+00;  1.0000810E+03;  1.0000000E-01;  6.7059830E+01;0;  0.0000000E+00;  0.0000000E+00;  0.0000000E+00;0; -6.8519829E-04;  4.0000000E+04;  0.0000000E+00;  0.0000000E+00;  4.0000000E+04;  0.0000000E+00;  4.0000000E+04; -5.0405425E-04;  0.0000000E+00; -1.8114403E-04;  2.4692123E+02;
 -9.0000004E-02;  9.9999998E-03;  3.6000001E-01;1080;  0.0000000E+00;  0.0000000E+00;  0.0000000E+00;  1.0000625E+03;  1.0000000E-01;  5.1751621E+01;0;  0.0000000E+00;  0.0000000E+00;  0.0000000E+00;0; -4.5789470E-04;  4.0000000E+04;  0.0000000E+00;  0.0000000E+00;  4.0000000E+04;  0.0000000E+00;  4.0000000E+04; -3.1829643E-04;  0.0000000E+00; -1.3959828E-04;  1.9646005E+02;
 -9.0000004E-02;  9.9999998E-03;  3.7000000E-01;1081;  0.0000000E+00;  0.0000000E+00;  0.0000000E+00;  1.0000407E+03;  1.0000000E-01;  3.3776821E+01;0;  0.0000000E+00;  0.0000000E+00;  0.0000000E+00;0; -2.8717934E-04;  4.0000000E+04;  0.0000000E+00;  0.0000000E+00;  4.0000000E+04;  0.0000000E+00;  4.0000000E+04; -1.8700572E-04;  0.0000000E+00; -1.0017362E-04;  1.4475180E+02;
 -9.0000004E-02;  9.9999998E-03;  3.8000000E-01;1082;  0.0000000E+00;  0.0000000E+00;  0.0000000E+00;  1.0000000E+03;  1.0000000E-01;  0.0000000E+00;0;  0.0000000E+00;  0.0000000E+00;  0.0000000E+00;0; -1.6603163E-04;  4.0000000E+04;  0.0000000E+00;  0.0000000E+00;  4.0000000E+04;  0.0000000E+00;  4.0000000E+04; -1.0035696E-04;  0.0000000E+00; -6.5674678E-05;  9.7043320E+01;
 -9.0000004E-02;  9.9999998E-03;  3.8999999E-01;1083;  0.0000000E+00;  0.0000000E+00;  0.0000000E+00;  1.0000000E+03;  1.0000000E-01;  0.0000000E+00;0;  0.0000000E+00;  0.0000000E+00;  0.0000000E+00;0; -8.5835010E-05;  4.0000000E+04;  0.0000000E+00;  0.0000000E+00;  4.0000000E+04;  0.0000000E+00;  4.0000000E+04; -4.7766654E-05;  0.0000000E+00; -3.8068360E-05;  5.7350452E+01;
 -9.0000004E-02;  9.9999998E-03;  4.0000001E-01;1084;  0.0000000E+00;  0.0000000E+00;  0.0000000E+00;  1.0000000E+03;  1.0000000E-01;  0.0000000E+00;0;  0.0000000E+00;  0.0000000E+00;  0.0000000E+00;0; -3.7609214E-05;  4.0000000E+04;  0.0000000E+00;  0.0000000E+00;  4.0000000E+04;  0.0000000E+00;  4.0000000E+04; -1.9186375E-05;  0.0000000E+00; -1.8422841E-05;  2.8242151E+01;
 -7.9999998E-02;  9.9999998E-03;  2.3999999E-01;1159;  0.0000000E+00;  0.0000000E+00;  0.0000000E+00;  1.0010022E+03;  1.0000000E-01;  8.3029749E+02;0;  0.0000000E+00;  0.0000000E+00;  0.0000000E+00;0; -8.9897867E-03;  4.0000000E+04;  0.0000000E+00;  0.0000000E+00;  4.0000000E+04;  0.0000000E+00;  4.0000000E+04; -9.0848869E-03;  0.0000000E+00;  9.5099982E-05;  6.8915173E+02;
 -7.9999998E-02;  9.9999998E-03;  2.5000000E-01;1160;  0.0000000E+00;  0.0000000E+00;  0.0000000E+00;  1.0009204E+03;  1.0000000E-01;  7.6254633E+02;0;  0.0000000E+00;  0.0000000E+00;  0.0000000E+00;0; -8.2145929E-03;  4.0000000E+04;  0.0000000E+00;  0.0000000E+00;  4.0000000E+04;  0.0000000E+00;  4.0000000E+04; -8.2141086E-03;  0.0000000E+00; -4.8391939E-07;  5.2277478E+02;
 -7.9999998E-02;  9.9999998E-03;  2.5999999E-01;1161;  0.0000000E+00;  0.0000000E+00;  0.0000000E+00;  1.0008376E+03;  1.0000000E-01;  6.9400507E+02;0;  0.0000000E+00;  0.0000000E+00;  0.0000000E+00;0; -7.4253408E-03;  4.0000000E+04;  0.0000000E+00;  0.0000000E+00;  4.0000000E+04;  0.0000000E+00;  4.0000000E+04; -7.3183277E-03;  0.0000000E+00; -1.0701331E-04;  3.3328262E+02;
 -7.9999998E-02;  9.9999998E-03;  2.7000001E-01;1162;  0.0000000E+00;  0.0000000E+00;  0.0000000E+00;  1.0007577E+03;  1.0000000E-01;  6.2773535E+02;0;  0.0000000E+00;  0.0000000E+00;  0.0000000E+00;0; -6.6259480E-03;  4.0000000E+04;  0.0000000E+00;  0.0000000E+00;  4.0000000E+04;  0.0000000E+00;  4.0000000E+04; -6.4112581E-03;  0.0000000E+00; -2.1468967E-04;  1.3614526E+02;
 -7.9999998E-02;  9.9999998E-03;  2.8000000E-01;1163;  0.0000000E+00;  0.0000000E+00;  0.0000000E+00;  1.0006699E+03;  1.0000000E-01;  5.5504602E+02;0;  0.0000000E+00;  0.0000000E+00;  0.0000000E+00;0; -5.8219293E-03;  4.0000000E+04;  0.0000000E+00;  0.0000000E+00;  4.0000000E+04;  0.0000000E+00;  4.0000000E+04; -5.5092005E-03;  0.0000000E+00; -3.1272901E-04;  6.8644371E+01;
 -7.9999998E-02;  9.9999998E-03;  2.8999999E-01;1164;  0.0000000E+00;  0.0000000E+00;  0.0000000E+00;  1.0005820E+03;  1.0000000E-01;  4.8215921E+02;0;  0.0000000E+00;  0.0000000E+00;  0.0000000E+00;0; -5.0218301E-03;  4.0000000E+04;  0.0000000E+00;  0.0000000E+00;  4.0000000E+04;  0.0000000E+00;  4.0000000E+04; -4.6307561E-03;  0.0000000E+00; -3.9107382E-04;  2.3217607E+02;
 -7.9999998E-02;  9.9999998E-03;  3.0000001E-01;1165;  0.0000000E+00;  0.0000000E+00;  0.0000000E+00;  1.0004924E+03;  1.0000000E-01;  4.0788971E+02;0;  0.0000000E+00;  0.0000000E+00;  0.0000000E+00;0; -4.2380169E-03;  4.0000000E+04;  0.0000000E+00;  0.0000000E+00;  4.0000000E+04;  0.0000000E+00;  4.0000000E+04; -3.7958724E-03;  0.0000000E+00; -4.4214455E-04;  3.6408652E+02;
 -7.9999998E-02;  9.9999998E-03;  3.1000000E-01;1166;  0.0000000E+00;  0.0000000E+00;  0.0000000E+00;  1.0004054E+03;  1.0000000E-01;  3.3589172E+02;0;  0.0000000E+00;  0.0000000E+00;  0.0000000E+00;0; -3.4867958E-03;  4.0000000E+04;  0.0000000E+00;  0.0000000E+00;  4.0000000E+04;  0.0000000E+00;  4.0000000E+04; -3.0242843E-03;  0.0000000E+00; -4.6251155E-04;  4.5159222E+02;
 -7.9999998E-02;  9.9999998E-03;  3.1999999E-01;1167;  0.0000000E+00;  0.0000000E+00;  0.0000000E+00;  1.0003286E+03;  1.0000000E-01;  2.7228860E+02;0;  0.0000000E+00;  0.0000000E+00;  0.0000000E+00;0; -2.7869786E-03;  4.0000000E+04;  0.0000000E+00;  0.0000000E+00;  4.0000000E+04;  0.0000000E+00;  4.0000000E+04; -2.3335249E-03;  0.0000000E+00; -4.5345386E-04;  4.9279178E+02;
 -7.9999998E-02;  9.9999998E-03;  3.3000001E-01;1168;  0.0000000E+00;  0.0000000E+00;  0.0000000E+00;  1.0002566E+03;  1.0000000E-01;  2.1253720E+02;0;  0.0000000E+00;  0.0000000E+00;  0.0000000E+00;0; -2.1567938E-03;  4.0000000E+04;  0.0000000E+00;  0.0000000E+00;  4.0000000E+04;  0.0000000E+00;  4.0000000E+04; -1.7368133E-03;  0.0000000E+00; -4.1998047E-04;  4.9206744E+02;
 -7.9999998E-02;  9.9999998E-03;  3.4000000E-01;1169;  0.0000000E+00;  0.0000000E+00;  0.0000000E+00;  1.0001970E+03;  1.0000000E-01;  1.6325464E+02;0;  0.0000000E+00;  0.0000000E+00;  0.0000000E+00;0; -1.6103787E-03;  4.0000000E+04;  0.0000000E+00;  0.0000000E+00;  4.0000000E+04;  0.0000000E+00;  4.0000000E+04; -1.2412907E-03;  0.0000000E+00; -3.6908808E-04;  4.5777023E+02;
 -7.9999998E-02;  9.9999998E-03;  3.4999999E-01;1170;  0.0000000E+00;  0.0000000E+00;  0.0000000E+00;  1.0001335E+03;  1.0000000E-01;  1.1061416E+02;0;  0.0000000E+00;  0.0000000E+00;  0.0000000E+00;0; -1.1553091E-03;  4.0000000E+04;  0.0000000E+00;  0.0000000E+00;  4.0000000E+04;  0.0000000E+00;  4.0000000E+04; -8.4719458E-04;  0.0000000E+00; -3.0811457E-04;  3.9991153E+02;
 -7.9999998E-02;  9.9999998E-03;  3.6000001E-01;1171;  0.0000000E+00;  0.0000000E+00;  0.0000000E+00;  1.0000889E+03;  1.0000000E-01;  7.3676926E+01;0;  0.0000000E+00;  0.0000000E+00;  0.0000000E+00;0; -7.9191732E-04;  4.0000000E+04;  0.0000000E+00;  0.0000000E+00;  4.0000000E+04;  0.0000000E+00;  4.0000000E+04; -5.4825243E-04;  0.0000000E+00; -2.4366491E-04;  3.2841708E+02;
 -7.9999998E-02;  9.9999998E-03;  3.7000000E-01;1172;  0.0000000E+00;  0.0000000E+00;  0.0000000E+00;  1.0000683E+03;  1.0000000E-01;  5.6590992E+01;0;  0.0000000E+00;  0.0000000E+00;  0.0000000E+00;0; -5.1427924E-04;  4.0000000E+04;  0.0000000E+00;  0.0000000E+00;  4.0000000E+04;  0.0000000E+00;  4.0000000E+04; -3.3312038E-04;  0.0000000E+00; -1.8115884E-04;  2.5218794E+02;
 -7.9999998E-02;  9.9999998E-03;  3.8000000E-01;1173;  0.0000000E+00;  0.0000000E+00;  0.0000000E+00;  1.0000444E+03;  1.0000000E-01;  3.6739700E+01;0;  0.0000000E+00;  0.0000000E+00;  0.0000000E+00;0; -3.1216640E-04;  4.0000000E+04;  0.0000000E+00;  0.0000000E+00;  4.0000000E+04;  0.0000000E+00;  4.0000000E+04; -1.8736327E-04;  0.0000000E+00; -1.2480313E-04;  1.7875693E+02;
 -7.9999998E-02;  9.9999998E-03;  3.8999999E-01;1174;  0.0000000E+00;  0.0000000E+00;  0.0000000E+00;  1.0000000E+03;  1.0000000E-01;  0.0000000E+00;0;  0.0000000E+00;  0.0000000E+00;  0.0000000E+00;0; -1.7315181E-04;  4.0000000E+04;  0.0000000E+00;  0.0000000E+00;  4.0000000E+04;  0.0000000E+00;  4.0000000E+04; -9.5442098E-05;  0.0000000E+00; -7.7709708E-05;  1.1423264E+02;
 -7.9999998E-02;  9.9999998E-03;  4.0000001E-01;1175;  0.0000000E+00;  0.0000000E+00;  0.0000000E+00;  1.0000000E+03;  1.0000000E-01;  0.0000000E+00;0;  0.0000000E+00;  0.0000000E+00;  0.0000000E+00;0; -8.4443614E-05;  4.0000000E+04;  0.0000000E+00;  0.0000000E+00;  4.0000000E+04;  0.0000000E+00;  4.0000000E+04; -4.2509408E-05;  0.0000000E+00; -4.1934203E-05;  6.3177433E+01;
 -7.0000000E-02;  9.9999998E-03;  2.3999999E-01;1250;  0.0000000E+00;  0.0000000E+00;  0.0000000E+00;  1.0015031E+03;  1.0000000E-01;  1.2452981E+03;0;  0.0000000E+00;  0.0000000E+00;  0.0000000E+00;0; -1.3452530E-02;  4.0000000E+04;  0.0000000E+00;  0.0000000E+00;  4.0000000E+04;  0.0000000E+00;  4.0000000E+04; -1.3588471E-02;  0.0000000E+00;  1.3594143E-04;  1.0007555E+03;
 -7.0000000E-02;  9.9999998E-03;  2.5000000E-01;1251;  0.0000000E+00;  0.0000000E+00;  0.0000000E+00;  1.0013810E+03;  1.0000000E-01;  1.1441652E+03;0;  0.0000000E+00;  0.0000000E+00;  0.0000000E+00;0; -1.2305771E-02;  4.0000000E+04;  0.0000000E+00;  0.0000000E+00;  4.0000000E+04;  0.0000000E+00;  4.0000000E+04; -1.2299540E-02;  0.0000000E+00; -6.2307272E-06;  7.7109723E+02;
 -7.0000000E-02;  9.9999998E-03;  2.5999999E-01;1252;  0.0000000E+00;  0.0000000E+00;  0.0000000E+00;  1.0012611E+03;  1.0000000E-01;  1.0448099E+03;0;  0.0000000E+00;  0.0000000E+00;  0.0000000E+00;0; -1.1136359E-02;  4.0000000E+04;  0.0000000E+00;  0.0000000E+00;  4.0000000E+04;  0.0000000E+00;  4.0000000E+04; -1.0971491E-02;  0.0000000E+00; -1.6486707E-04;  5.0647324E+02;
 -7.0000000E-02;  9.9999998E-03;  2.7000001E-01;1253;  0.0000000E+00;  0.0000000E+00;  0.0000000E+00;  1.0011392E+03;  1.0000000E-01;  9.4377576E+02;0;  0.0000000E+00;  0.0000000E+00;  0.0000000E+00;0; -9.9511435E-03;  4.0000000E+04;  0.0000000E+00;  0.0000000E+00;  4.0000000E+04;  0.0000000E+00;  4.0000000E+04; -9.6253669E-03;  0.0000000E+00; -3.2577678E-04;  2.2879724E+02;
 -7.0000000E-02;  9.9999998E-03;  2.8000000E-01;1254;  0.0000000E+00;  0.0000000E+00;  0.0000000E+00;  1.0010074E+03;  1.0000000E-01;  8.3464307E+02;0;  0.0000000E+00;  0.0000000E+00;  0.0000000E+00;0; -8.7589696E-03;  4.0000000E+04;  0.0000000E+00;  0.0000000E+00;  4.0000000E+04;  0.0000000E+00;  4.0000000E+04; -8.2858102E-03;  0.0000000E+00; -4.7315896E-04;  8.2627350E+01;
 -7.0000000E-02;  9.9999998E-03;  2.8999999E-01;1255;  0.0000000E+00;  0.0000000E+00;  0.0000000E+00;  1.0008763E+03;  1.0000000E-01;  7.2600415E+02;0;  0.0000000E+00;  0.0000000E+00;  0.0000000E+00;0; -7.5727217E-03;  4.0000000E+04;  0.0000000E+00;  0.0000000E+00;  4.0000000E+04;  0.0000000E+00;  4.0000000E+04; -6.9806366E-03;  0.0000000E+00; -5.9208489E-04;  3.0748764E+02;
 -7.0000000E-02;  9.9999998E-03;  3.0000001E-01;1256;  0.0000000E+00;  0.0000000E+00;  0.0000000E+00;  1.0007448E+03;  1.0000000E-01;  6.1706897E+02;0;  0.0000000E+00;  0.0000000E+00;  0.0000000E+00;0; -6.4105797E-03;  4.0000000E+04;  0.0000000E+00;  0.0000000E+00;  4.0000000E+04;  0.0000000E+00;  4.0000000E+04; -5.7394560E-03;  0.0000000E+00; -6.7112379E-04;  5.0132492E+02;
 -7.0000000E-02;  9.9999998E-03;  3.1000000E-01;1257;  0.0000000E+00;  0.0000000E+00;  0.0000000E+00;  1.0006206E+03;  1.0000000E-01;  5.1415833E+02;0;  0.0000000E+00;  0.0000000E+00;  0.0000000E+00;0; -5.2962536E-03;  4.0000000E+04;  0.0000000E+00;  0.0000000E+00;  4.0000000E+04;  0.0000000E+00;  4.0000000E+04; -4.5913439E-03;  0.0000000E+00; -7.0490991E-04;  6.3459576E+02;
 -7.0000000E-02;  9.9999998E-03;  3.1999999E-01;1258;  0.0000000E+00;  0.0000000E+00;  0.0000000E+00;  1.0005076E+03;  1.0000000E-01;  4.2053131E+02;0;  0.0000000E+00;  0.0000000E+00;  0.0000000E+00;0; -4.2570615E-03;  4.0000000E+04;  0.0000000E+00;  0.0000000E+00;  4.0000000E+04;  0.0000000E+00;  4.0000000E+04; -3.5620020E-03;  0.0000000E+00; -6.9505966E-04;  7.0317944E+02;
 -7.0000000E-02;  9.9999998E-03;  3.3000001E-01;1259;  0.0000000E+00;  0.0000000E+00;  0.0000000E+00;  1.0003950E+03;  1.0000000E-01;  3.2720062E+02;0;  0.0000000E+00;  0.0000000E+00;  0.0000000E+00;0; -3.3194046E-03;  4.0000000E+04;  0.0000000E+00;  0.0000000E+00;  4.0000000E+04;  0.0000000E+00;  4.0000000E+04; -2.6706674E-03;  0.0000000E+00; -6.4873730E-04;  7.1237598E+02;
 -7.0000000E-02;  9.9999998E-03;  3.4000000E-01;1260;  0.0000000E+00;  0.0000000E+00;  0.0000000E+00;  1.0002999E+03;  1.0000000E-01;  2.4838803E+02;0;  0.0000000E+00;  0.0000000E+00;  0.0000000E+00;0; -2.5036845E-03;  4.0000000E+04;  0.0000000E+00;  0.0000000E+00;  4.0000000E+04;  0.0000000E+00;  4.0000000E+04; -1.9276283E-03;  0.0000000E+00; -5.7605625E-04;  6.7325909E+02;
 -7.0000000E-02;  9.9999998E-03;  3.4999999E-01;1261;  0.0000000E+00;  0.0000000E+00;  0.0000000E+00;  1.0002105E+03;  1.0000000E-01;  1.7441483E+02;0;  0.0000000E+00;  0.0000000E+00;  0.0000000E+00;0; -1.8207879E-03;  4.0000000E+04;  0.0000000E+00;  0.0000000E+00;  4.0000000E+04;  0.0000000E+00;  4.0000000E+04; -1.3331735E-03;  0.0000000E+00; -4.8761439E-04;  5.9927844E+02;
 -7.0000000E-02;  9.9999998E-03;  3.6000001E-01;1262;  0.0000000E+00;  0.0000000E+00;  0.0000000E+00;  1.0001432E+03;  1.0000000E-01;  1.1861393E+02;0;  0.0000000E+00;  0.0000000E+00;  0.0000000E+00;0; -1.2711859E-03;  4.0000000E+04;  0.0000000E+00;  0.0000000E+00;  4.0000000E+04;  0.0000000E+00;  4.0000000E+04; -8.7828381E-04;  0.0000000E+00; -3.9290209E-04;  5.0377368E+02;
 -7.0000000E-02;  9.9999998E-03;  3.7000000E-01;1263;  0.0000000E+00;  0.0000000E+00;  0.0000000E+00;  1.0001076E+03;  1.0000000E-01;  8.9182663E+01;0;  0.0000000E+00;  0.0000000E+00;  0.0000000E+00;0; -8.4637699E-04;  4.0000000E+04;  0.0000000E+00;  0.0000000E+00;  4.0000000E+04;  0.0000000E+00;  4.0000000E+04; -5.4673298E-04;  0.0000000E+00; -2.9964405E-04;  3.9869061E+02;
 -7.0000000E-02;  9.9999998E-03;  3.8000000E-01;1264;  0.0000000E+00;  0.0000000E+00;  0.0000000E+00;  1.0000698E+03;  1.0000000E-01;  5.7874905E+01;0;  0.0000000E+00;  0.0000000E+00;  0.0000000E+00;0; -5.3174153E-04;  4.0000000E+04;  0.0000000E+00;  0.0000000E+00;  4.0000000E+04;  0.0000000E+00;  4.0000000E+04; -3.1792783E-04;  0.0000000E+00; -2.1381372E-04;  2.9416647E+02;
 -7.0000000E-02;  9.9999998E-03;  3.8999999E-01;1265;  0.0000000E+00;  0.0000000E+00;  0.0000000E+00;  1.0000443E+03;  1.0000000E-01;  3.6739700E+01;0;  0.0000000E+00;  0.0000000E+00;  0.0000000E+00;0; -3.0966804E-04;  4.0000000E+04;  0.0000000E+00;  0.0000000E+00;  4.0000000E+04;  0.0000000E+00;  4.0000000E+04; -1.6974664E-04;  0.0000000E+00; -1.3992141E-04;  1.9863496E+02;
 -7.0000000E-02;  9.9999998E-03;  4.0000001E-01;1266;  0.0000000E+00;  0.0000000E+00;  0.0000000E+00;  1.0000000E+03;  1.0000000E-01;  0.0000000E+00;0;  0.0000000E+00;  0.0000000E+00;  0.0000000E+00;0; -1.6223747E-04;  4.0000000E+04;  0.0000000E+00;  0.0000000E+00;  4.0000000E+04;  0.0000000E+00;  4.0000000E+04; -8.1000973E-05;  0.0000000E+00; -8.1236489E-05;  1.1890987E+02;
 -5.9999999E-02;  9.9999998E-03;  2.3999999E-01;1341;  0.0000000E+00;  0.0000000E+00;  0.0000000E+00;  1.0021568E+03;  1.0000000E-01;  1.7869125E+03;0;  0.0000000E+00;  0.0000000E+00;  0.0000000E+00;0; -1.9234702E-02;  4.0000000E+04;  0.0000000E+00;  0.0000000E+00;  4.0000000E+04;  0.0000000E+00;  4.0000000E+04; -1.9423537E-02;  0.0000000E+00;  1.8883529E-04;  1.3871702E+03;
 -5.9999999E-02;  9.9999998E-03;  2.5000000E-01;1342;  0.0000000E+00;  0.0000000E+00;  0.0000000E+00;  1.0019850E+03;  1.0000000E-01;  1.6445955E+03;0;  0.0000000E+00;  0.0000000E+00;  0.0000000E+00;0; -1.7616315E-02;  4.0000000E+04;  0.0000000E+00;  0.0000000E+00;  4.0000000E+04;  0.0000000E+00;  4.0000000E+04; -1.7603980E-02;  0.0000000E+00; -1.2333950E-05;  1.0860138E+03;
 -5.9999999E-02;  9.9999998E-03;  2.5999999E-01;1343;  0.0000000E+00;  0.0000000E+00;  0.0000000E+00;  1.0018140E+03;  1.0000000E-01;  1.5028711E+03;0;  0.0000000E+00;  0.0000000E+00;  0.0000000E+00;0; -1.5962800E-02;  4.0000000E+04;  0.0000000E+00;  0.0000000E+00;  4.0000000E+04;  0.0000000E+00;  4.0000000E+04; -1.5724916E-02;  0.0000000E+00; -2.3788451E-04;  7.3371942E+02;
 -5.9999999E-02;  9.9999998E-03;  2.7000001E-01;1344;  0.0000000E+00;  0.0000000E+00;  0.0000000E+00;  1.0016354E+03;  1.0000000E-01;  1.3549247E+03;0;  0.0000000E+00;  0.0000000E+00;  0.0000000E+00;0; -1.4284674E-02;  4.0000000E+04;  0.0000000E+00;  0.0000000E+00;  4.0000000E+04;  0.0000000E+00;  4.0000000E+04; -1.3816654E-02;  0.0000000E+00; -4.6802053E-04;  3.5985452E+02;
 -5.9999999E-02;  9.9999998E-03;  2.8000000E-01;1345;  0.0000000E+00;  0.0000000E+00;  0.0000000E+00;  1.0014528E+03;  1.0000000E-01;  1.2036202E+03;0;  0.0000000E+00;  0.0000000E+00;  0.0000000E+00;0; -1.2594844E-02;  4.0000000E+04;  0.0000000E+00;  0.0000000E+00;  4.0000000E+04;  0.0000000E+00;  4.0000000E+04; -1.1914529E-02;  0.0000000E+00; -6.8031531E-04;  1.0819646E+02;
 -5.9999999E-02;  9.9999998E-03;  2.8999999E-01;1346;  0.0000000E+00;  0.0000000E+00;  0.0000000E+00;  1.0012678E+03;  1.0000000E-01;  1.0503407E+03;0;  0.0000000E+00;  0.0000000E+00;  0.0000000E+00;0; -1.0911627E-02;  4.0000000E+04;  0.0000000E+00;  0.0000000E+00;  4.0000000E+04;  0.0000000E+00;  4.0000000E+04; -1.0058402E-02;  0.0000000E+00; -8.5322472E-04;  3.8739157E+02;
 -5.9999999E-02;  9.9999998E-03;  3.0000001E-01;1347;  0.0000000E+00;  0.0000000E+00;  0.0000000E+00;  1.0010856E+03;  1.0000000E-01;  8.9943134E+02;0;  0.0000000E+00;  0.0000000E+00;  0.0000000E+00;0; -9.2606982E-03;  4.0000000E+04;  0.0000000E+00;  0.0000000E+00;  4.0000000E+04;  0.0000000E+00;  4.0000000E+04; -8.2907239E-03;  0.0000000E+00; -9.6997403E-04;  6.5742633E+02;
 -5.9999999E-02;  9.9999998E-03;  3.1000000E-01;1348;  0.0000000E+00;  0.0000000E+00;  0.0000000E+00;  1.0009113E+03;  1.0000000E-01;  7.5504034E+02;0;  0.0000000E+00;  0.0000000E+00;  0.0000000E+00;0; -7.6757334E-03;  4.0000000E+04;  0.0000000E+00;  0.0000000E+00;  4.0000000E+04;  0.0000000E+00;  4.0000000E+04; -6.6532879E-03;  0.0000000E+00; -1.0224456E-03;  8.4844019E+02;
 -5.9999999E-02;  9.9999998E-03;  3.1999999E-01;1349;  0.0000000E+00;  0.0000000E+00;  0.0000000E+00;  1.0007338E+03;  1.0000000E-01;  6.0798279E+02;0;  0.0000000E+00;  0.0000000E+00;  0.0000000E+00;0; -6.1956295E-03;  4.0000000E+04;  0.0000000E+00;  0.0000000E+00;  4.0000000E+04;  0.0000000E+00;  4.0000000E+04; -5.1830020E-03;  0.0000000E+00; -1.0126276E-03;  9.5258191E+02;
 -5.9999999E-02;  9.9999998E-03;  3.3000001E-01;1350;  0.0000000E+00;  0.0000000E+00;  0.0000000E+00;  1.0005865E+03;  1.0000000E-01;  4.8591217E+02;0;  0.0000000E+00;  0.0000000E+00;  0.0000000E+00;0; -4.8579322E-03;  4.0000000E+04;  0.0000000E+00;  0.0000000E+00;  4.0000000E+04;  0.0000000E+00;  4.0000000E+04; -3.9073792E-03;  0.0000000E+00; -9.5055299E-04;  9.7617627E+02;
 -5.9999999E-02;  9.9999998E-03;  3.4000000E-01;1351;  0.0000000E+00;  0.0000000E+00;  0.0000000E+00;  1.0004480E+03;  1.0000000E-01;  3.7114999E+02;0;  0.0000000E+00;  0.0000000E+00;  0.0000000E+00;0; -3.6914935E-03;  4.0000000E+04;  0.0000000E+00;  0.0000000E+00;  4.0000000E+04;  0.0000000E+00;  4.0000000E+04; -2.8410233E-03;  0.0000000E+00; -8.5047039E-04;  9.3367444E+02;
 -5.9999999E-02;  9.9999998E-03;  3.4999999E-01;1352;  0.0000000E+00;  0.0000000E+00;  0.0000000E+00;  1.0003290E+03;  1.0000000E-01;  2.7258487E+02;0;  0.0000000E+00;  0.0000000E+00;  0.0000000E+00;0; -2.7115853E-03;  4.0000000E+04;  0.0000000E+00;  0.0000000E+00;  4.0000000E+04;  0.0000000E+00;  4.0000000E+04; -1.9843390E-03;  0.0000000E+00; -7.2724617E-04;  8.4273816E+02;
 -5.9999999E-02;  9.9999998E-03;  3.6000001E-01;1353;  0.0000000E+00;  0.0000000E+00;  0.0000000E+00;  1.0002328E+03;  1.0000000E-01;  1.9288344E+02;0;  0.0000000E+00;  0.0000000E+00;  0.0000000E+00;0; -1.9187590E-03;  4.0000000E+04;  0.0000000E+00;  0.0000000E+00;  4.0000000E+04;  0.0000000E+00;  4.0000000E+04; -1.3246887E-03;  0.0000000E+00; -5.9407024E-04;  7.2079596E+02;
 -5.9999999E-02;  9.9999998E-03;  3.7000000E-01;1354;  0.0000000E+00;  0.0000000E+00;  0.0000000E+00;  1.0001528E+03;  1.0000000E-01;  1.2661370E+02;0;  0.0000000E+00;  0.0000000E+00;  0.0000000E+00;0; -1.3010538E-03;  4.0000000E+04;  0.0000000E+00;  0.0000000E+00;  4.0000000E+04;  0.0000000E+00;  4.0000000E+04; -8.3948718E-04;  0.0000000E+00; -4.6156658E-04;  5.8327393E+02;
 -5.9999999E-02;  9.9999998E-03;  3.8000000E-01;1355;  0.0000000E+00;  0.0000000E+00;  0.0000000E+00;  1.0001042E+03;  1.0000000E-01;  8.6318550E+01;0;  0.0000000E+00;  0.0000000E+00;  0.0000000E+00;0; -8.3806308E-04;  4.0000000E+04;  0.0000000E+00;  0.0000000E+00;  4.0000000E+04;  0.0000000E+00;  4.0000000E+04; -5.0019647E-04;  0.0000000E+00; -3.3786663E-04;  4.4319058E+02;
 -5.9999999E-02;  9.9999998E-03;  3.8999999E-01;1356;  0.0000000E+00;  0.0000000E+00;  0.0000000E+00;  1.0000681E+03;  1.0000000E-01;  5.6393467E+01;0;  0.0000000E+00;  0.0000000E+00;  0.0000000E+00;0; -5.0538022E-04;  4.0000000E+04;  0.0000000E+00;  0.0000000E+00;  4.0000000E+04;  0.0000000E+00;  4.0000000E+04; -2.7624628E-04;  0.0000000E+00; -2.2913395E-04;  3.1144839E+02;
 -5.9999999E-02;  9.9999998E-03;  4.0000001E-01;1357;  0.0000000E+00;  0.0000000E+00;  0.0000000E+00;  1.0000315E+03;  1.0000000E-01;  2.6073338E+01;0;  0.0000000E+00;  0.0000000E+00;  0.0000000E+00;0; -2.7840491E-04;  4.0000000E+04;  0.0000000E+00;  0.0000000E+00;  4.0000000E+04;  0.0000000E+00;  4.0000000E+04; -1.3835283E-04;  0.0000000E+00; -1.4005209E-04;  1.9722511E+02;
 -5.0000001E-02;  9.9999998E-03;  2.3999999E-01;1432;  0.0000000E+00;  0.0000000E+00;  0.0000000E+00;  1.0029725E+03;  1.0000000E-01;  2.4626465E+03;0;  0.0000000E+00;  0.0000000E+00;  0.0000000E+00;0; -2.6375089E-02;  4.0000000E+04;  0.0000000E+00;  0.0000000E+00;  4.0000000E+04;  0.0000000E+00;  4.0000000E+04; -2.6632113E-02;  0.0000000E+00;  2.5702428E-04;  1.8444774E+03;
 -5.0000001E-02;  9.9999998E-03;  2.5000000E-01;1433;  0.0000000E+00;  0.0000000E+00;  0.0000000E+00;  1.0027435E+03;  1.0000000E-01;  2.2729233E+03;0;  0.0000000E+00;  0.0000000E+00;  0.0000000E+00;0; -2.4187665E-02;  4.0000000E+04;  0.0000000E+00;  0.0000000E+00;  4.0000000E+04;  0.0000000E+00;  4.0000000E+04; -2.4172125E-02;  0.0000000E+00; -1.5540156E-05;  1.4675857E+03;
 -5.0000001E-02;  9.9999998E-03;  2.5999999E-01;1434;  0.0000000E+00;  0.0000000E+00;  0.0000000E+00;  1.0025028E+03;  1.0000000E-01;  2.0735215E+03;0;  0.0000000E+00;  0.0000000E+00;  0.0000000E+00;0; -2.1948103E-02;  4.0000000E+04;  0.0000000E+00;  0.0000000E+00;  4.0000000E+04;  0.0000000E+00;  4.0000000E+04; -2.1624435E-02;  0.0000000E+00; -3.2366859E-04;  1.0179766E+03;
 -5.0000001E-02;  9.9999998E-03;  2.7000001E-01;1435;  0.0000000E+00;  0.0000000E+00;  0.0000000E+00;  1.0022650E+03;  1.0000000E-01;  1.8764901E+03;0;  0.0000000E+00;  0.0000000E+00;  0.0000000E+00;0; -1.9670976E-02;  4.0000000E+04;  0.0000000E+00;  0.0000000E+00;  4.0000000E+04;  0.0000000E+00;  4.0000000E+04; -1.9030329E-02;  0.0000000E+00; -6.4064789E-04;  5.3372803E+02;
 -5.0000001E-02;  9.9999998E-03;  2.8000000E-01;1436;  0.0000000E+00;  0.0000000E+00;  0.0000000E+00;  1.0020154E+03;  1.0000000E-01;  1.6696812E+03;0;  0.0000000E+00;  0.0000000E+00;  0.0000000E+00;0; -1.7373633E-02;  4.0000000E+04;  0.0000000E+00;  0.0000000E+00;  4.0000000E+04;  0.0000000E+00;  4.0000000E+04; -1.6438119E-02;  0.0000000E+00; -9.3551324E-04;  1.5830054E+02;
 -5.0000001E-02;  9.9999998E-03;  2.8999999E-01;1437;  0.0000000E+00;  0.0000000E+00;  0.0000000E+00;  1.0017631E+03;  1.0000000E-01;  1.4606995E+03;0;  0.0000000E+00;  0.0000000E+00;  0.0000000E+00;0; -1.5080547E-02;  4.0000000E+04;  0.0000000E+00;  0.0000000E+00;  4.0000000E+04;  0.0000000E+00;  4.0000000E+04; -1.3902657E-02;  0.0000000E+00; -1.1778901E-03;  4.6795111E+02;
 -5.0000001E-02;  9.9999998E-03;  3.0000001E-01;1438;  0.0000000E+00;  0.0000000E+00;  0.0000000E+00;  1.0015148E+03;  1.0000000E-01;  1.2549768E+03;0;  0.0000000E+00;  0.0000000E+00;  0.0000000E+00;0; -1.2826611E-02;  4.0000000E+04;  0.0000000E+00;  0.0000000E+00;  4.0000000E+04;  0.0000000E+00;  4.0000000E+04; -1.1482926E-02;  0.0000000E+00; -1.3436849E-03;  8.2722638E+02;
 -5.0000001E-02;  9.9999998E-03;  3.1000000E-01;1439;  0.0000000E+00;  0.0000000E+00;  0.0000000E+00;  1.0012661E+03;  1.0000000E-01;  1.0488593E+03;0;  0.0000000E+00;  0.0000000E+00;  0.0000000E+00;0; -1.0658416E-02;  4.0000000E+04;  0.0000000E+00;  0.0000000E+00;  4.0000000E+04;  0.0000000E+00;  4.0000000E+04; -9.2374720E-03;  0.0000000E+00; -1.4209438E-03;  1.0873265E+03;
 -5.0000001E-02;  9.9999998E-03;  3.1999999E-01;1440;  0.0000000E+00;  0.0000000E+00;  0.0000000E+00;  1.0010303E+03;  1.0000000E-01;  8.5360547E+02;0;  0.0000000E+00;  0.0000000E+00;  0.0000000E+00;0; -8.6302962E-03;  4.0000000E+04;  0.0000000E+00;  0.0000000E+00;  4.0000000E+04;  0.0000000E+00;  4.0000000E+04; -7.2181877E-03;  0.0000000E+00; -1.4121082E-03;  1.2345350E+03;
 -5.0000001E-02;  9.9999998E-03;  3.3000001E-01;1441;  0.0000000E+00;  0.0000000E+00;  0.0000000E+00;  1.0008190E+03;  1.0000000E-01;  6.7849933E+02;0;  0.0000000E+00;  0.0000000E+00;  0.0000000E+00;0; -6.7946399E-03;  4.0000000E+04;  0.0000000E+00;  0.0000000E+00;  4.0000000E+04;  0.0000000E+00;  4.0000000E+04; -5.4636118E-03;  0.0000000E+00; -1.3310278E-03;  1.2764142E+03;
 -5.0000001E-02;  9.9999998E-03;  3.4000000E-01;1442;  0.0000000E+00;  0.0000000E+00;  0.0000000E+00;  1.0006290E+03;  1.0000000E-01;  5.2117047E+02;0;  0.0000000E+00;  0.0000000E+00;  0.0000000E+00;0; -5.1914677E-03;  4.0000000E+04;  0.0000000E+00;  0.0000000E+00;  4.0000000E+04;  0.0000000E+00;  4.0000000E+04; -3.9941003E-03;  0.0000000E+00; -1.1973672E-03;  1.2316458E+03;
 -5.0000001E-02;  9.9999998E-03;  3.4999999E-01;1443;  0.0000000E+00;  0.0000000E+00;  0.0000000E+00;  1.0004645E+03;  1.0000000E-01;  3.8487799E+02;0;  0.0000000E+00;  0.0000000E+00;  0.0000000E+00;0; -3.8416558E-03;  4.0000000E+04;  0.0000000E+00;  0.0000000E+00;  4.0000000E+04;  0.0000000E+00;  4.0000000E+04; -2.8102081E-03;  0.0000000E+00; -1.0314476E-03;  1.1230466E+03;
 -5.0000001E-02;  9.9999998E-03;  3.6000001E-01;1444;  0.0000000E+00;  0.0000000E+00;  0.0000000E+00;  1.0003351E+03;  1.0000000E-01;  2.7762177E+02;0;  0.0000000E+00;  0.0000000E+00;  0.0000000E+00;0; -2.7457359E-03;  4.0000000E+04;  0.0000000E+00;  0.0000000E+00;  4.0000000E+04;  0.0000000E+00;  4.0000000E+04; -1.8946659E-03;  0.0000000E+00; -8.5107004E-04;  9.7278156E+02;
 -5.0000001E-02;  9.9999998E-03;  3.7000000E-01;1445;  0.0000000E+00;  0.0000000E+00;  0.0000000E+00;  1.0002327E+03;  1.0000000E-01;  1.9278467E+02;0;  0.0000000E+00;  0.0000000E+00;  0.0000000E+00;0; -1.8872111E-03;  4.0000000E+04;  0.0000000E+00;  0.0000000E+00;  4.0000000E+04;  0.0000000E+00;  4.0000000E+04; -1.2168471E-03;  0.0000000E+00; -6.7036395E-04;  8.0017700E+02;
 -5.0000001E-02;  9.9999998E-03;  3.8000000E-01;1446;  0.0000000E+00;  0.0000000E+00;  0.0000000E+00;  1.0001432E+03;  1.0000000E-01;  1.1861393E+02;0;  0.0000000E+00;  0.0000000E+00;  0.0000000E+00;0; -1.2383041E-03;  4.0000000E+04;  0.0000000E+00;  0.0000000E+00;  4.0000000E+04;  0.0000000E+00;  4.0000000E+04; -7.3829805E-04;  0.0000000E+00; -5.0000602E-04;  6.2130157E+02;
 -5.0000001E-02;  9.9999998E-03;  3.8999999E-01;1447;  0.0000000E+00;  0.0000000E+00;  0.0000000E+00;  1.0000941E+03;  1.0000000E-01;  7.7923721E+01;0;  0.0000000E+00;  0.0000000E+00;  0.0000000E+00;0; -7.6607428E-04;  4.0000000E+04;  0.0000000E+00;  0.0000000E+00;  4.0000000E+04;  0.0000000E+00;  4.0000000E+04; -4.1802318E-04;  0.0000000E+00; -3.4805114E-04;  4.4957770E+02;
 -5.0000001E-02;  9.9999998E-03;  4.0000001E-01;1448;  0.0000000E+00;  0.0000000E+00;  0.0000000E+00;  1.0000590E+03;  1.0000000E-01;  4.8887505E+01;0;  0.0000000E+00;  0.0000000E+00;  0.0000000E+00;0; -4.3759303E-04;  4.0000000E+04;  0.0000000E+00;  0.0000000E+00;  4.0000000E+04;  0.0000000E+00;  4.0000000E+04; -2.1681642E-04;  0.0000000E+00; -2.2077661E-04;  2.9653931E+02;
 -3.9999999E-02;  9.9999998E-03;  2.3999999E-01;1523;  0.0000000E+00;  0.0000000E+00;  0.0000000E+00;  1.0039434E+03;  1.0000000E-01;  3.2670681E+03;0;  0.0000000E+00;  0.0000000E+00;  0.0000000E+00;0; -3.4754746E-02;  4.0000000E+04;  0.0000000E+00;  0.0000000E+00;  4.0000000E+04;  0.0000000E+00;  4.0000000E+04; -3.5099421E-02;  0.0000000E+00;  3.4467620E-04;  2.3601619E+03;
 -3.9999999E-02;  9.9999998E-03;  2.5000000E-01;1524;  0.0000000E+00;  0.0000000E+00;  0.0000000E+00;  1.0036420E+03;  1.0000000E-01;  3.0173962E+03;0;  0.0000000E+00;  0.0000000E+00;  0.0000000E+00;0; -3.1917024E-02;  4.0000000E+04;  0.0000000E+00;  0.0000000E+00;  4.0000000E+04;  0.0000000E+00;  4.0000000E+04; -3.1906534E-02;  0.0000000E+00; -1.0489985E-05;  1.9090902E+03;
 -3.9999999E-02;  9.9999998E-03;  2.5999999E-01;1525;  0.0000000E+00;  0.0000000E+00;  0.0000000E+00;  1.0033337E+03;  1.0000000E-01;  2.7618972E+03;0;  0.0000000E+00;  0.0000000E+00;  0.0000000E+00;0; -2.9005369E-02;  4.0000000E+04;  0.0000000E+00;  0.0000000E+00;  4.0000000E+04;  0.0000000E+00;  4.0000000E+04; -2.8588705E-02;  0.0000000E+00; -4.1666406E-04;  1.3571892E+03;
 -3.9999999E-02;  9.9999998E-03;  2.7000001E-01;1526;  0.0000000E+00;  0.0000000E+00;  0.0000000E+00;  1.0030175E+03;  1.0000000E-01;  2.4998799E+03;0;  0.0000000E+00;  0.0000000E+00;  0.0000000E+00;0; -2.6038505E-02;  4.0000000E+04;  0.0000000E+00;  0.0000000E+00;  4.0000000E+04;  0.0000000E+00;  4.0000000E+04; -2.5199575E-02;  0.0000000E+00; -8.3893014E-04;  7.5133923E+02;
 -3.9999999E-02;  9.9999998E-03;  2.8000000E-01;1527;  0.0000000E+00;  0.0000000E+00;  0.0000000E+00;  1.0026934E+03;  1.0000000E-01;  2.2314431E+03;0;  0.0000000E+00;  0.0000000E+00;  0.0000000E+00;0; -2.3037791E-02;  4.0000000E+04;  0.0000000E+00;  0.0000000E+00;  4.0000000E+04;  0.0000000E+00;  4.0000000E+04; -2.1802155E-02;  0.0000000E+00; -1.2356355E-03;  2.3853392E+02;
 -3.9999999E-02;  9.9999998E-03;  2.8999999E-01;1528;  0.0000000E+00;  0.0000000E+00;  0.0000000E+00;  1.0023604E+03;  1.0000000E-01;  1.9555990E+03;0;  0.0000000E+00;  0.0000000E+00;  0.0000000E+00;0; -2.0033898E-02;  4.0000000E+04;  0.0000000E+00;  0.0000000E+00;  4.0000000E+04;  0.0000000E+00;  4.0000000E+04; -1.8469078E-02;  0.0000000E+00; -1.5648192E-03;  5.4475928E+02;
 -3.9999999E-02;  9.9999998E-03;  3.0000001E-01;1529;  0.0000000E+00;  0.0000000E+00;  0.0000000E+00;  1.0020291E+03;  1.0000000E-01;  1.6810388E+03;0;  0.0000000E+00;  0.0000000E+00;  0.0000000E+00;0; -1.7072110E-02;  4.0000000E+04;  0.0000000E+00;  0.0000000E+00;  4.0000000E+04;  0.0000000E+00;  4.0000000E+04; -1.5279667E-02;  0.0000000E+00; -1.7924428E-03;  1.0039447E+03;
 -3.9999999E-02;  9.9999998E-03;  3.1000000E-01;1530;  0.0000000E+00;  0.0000000E+00;  0.0000000E+00;  1.0017015E+03;  1.0000000E-01;  1.4096392E+03;0;  0.0000000E+00;  0.0000000E+00;  0.0000000E+00;0; -1.4215138E-02;  4.0000000E+04;  0.0000000E+00;  0.0000000E+00;  4.0000000E+04;  0.0000000E+00;  4.0000000E+04; -1.2313863E-02;  0.0000000E+00; -1.9012745E-03;  1.3427845E+03;
 -3.9999999E-02;  9.9999998E-03;  3.1999999E-01;1531;  0.0000000E+00;  0.0000000E+00;  0.0000000E+00;  1.0013879E+03;  1.0000000E-01;  1.1497947E+03;0;  0.0000000E+00;  0.0000000E+00;  0.0000000E+00;0; -1.1537395E-02;  4.0000000E+04;  0.0000000E+00;  0.0000000E+00;  4.0000000E+04;  0.0000000E+00;  4.0000000E+04; -9.6429940E-03;  0.0000000E+00; -1.8944016E-03;  1.5388782E+03;
 -3.9999999E-02;  9.9999998E-03;  3.3000001E-01;1532;  0.0000000E+00;  0.0000000E+00;  0.0000000E+00;  1.0011057E+03;  1.0000000E-01;  9.1602350E+02;0;  0.0000000E+00;  0.0000000E+00;  0.0000000E+00;0; -9.1106175E-03;  4.0000000E+04;  0.0000000E+00;  0.0000000E+00;  4.0000000E+04;  0.0000000E+00;  4.0000000E+04; -7.3198387E-03;  0.0000000E+00; -1.7907788E-03;  1.6015592E+03;
 -3.9999999E-02;  9.9999998E-03;  3.4000000E-01;1533;  0.0000000E+00;  0.0000000E+00;  0.0000000E+00;  1.0008510E+03;  1.0000000E-01;  7.0506647E+02;0;  0.0000000E+00;  0.0000000E+00;  0.0000000E+00;0; -6.9890041E-03;  4.0000000E+04;  0.0000000E+00;  0.0000000E+00;  4.0000000E+04;  0.0000000E+00;  4.0000000E+04; -5.3719482E-03;  0.0000000E+00; -1.6170559E-03;  1.5549589E+03;
 -3.9999999E-02;  9.9999998E-03;  3.4999999E-01;1534;  0.0000000E+00;  0.0000000E+00;  0.0000000E+00;  1.0006378E+03;  1.0000000E-01;  5.2838013E+02;0;  0.0000000E+00;  0.0000000E+00;  0.0000000E+00;0; -5.2003292E-03;  4.0000000E+04;  0.0000000E+00;  0.0000000E+00;  4.0000000E+04;  0.0000000E+00;  4.0000000E+04; -3.7999831E-03;  0.0000000E+00; -1.4003461E-03;  1.4279973E+03;
 -3.9999999E-02;  9.9999998E-03;  3.6000001E-01;1535;  0.0000000E+00;  0.0000000E+00;  0.0000000E+00;  1.0004640E+03;  1.0000000E-01;  3.8438419E+02;0;  0.0000000E+00;  0.0000000E+00;  0.0000000E+00;0; -3.7448709E-03;  4.0000000E+04;  0.0000000E+00;  0.0000000E+00;  4.0000000E+04;  0.0000000E+00;  4.0000000E+04; -2.5808876E-03;  0.0000000E+00; -1.1639831E-03;  1.2481769E+03;
 -3.9999999E-02;  9.9999998E-03;  3.7000000E-01;1536;  0.0000000E+00;  0.0000000E+00;  0.0000000E+00;  1.0003256E+03;  1.0000000E-01;  2.6972076E+02;0;  0.0000000E+00;  0.0000000E+00;  0.0000000E+00;0; -2.6004324E-03;  4.0000000E+04;  0.0000000E+00;  0.0000000E+00;  4.0000000E+04;  0.0000000E+00;  4.0000000E+04; -1.6742510E-03;  0.0000000E+00; -9.2618138E-04;  1.0389960E+03;
 -3.9999999E-02;  9.9999998E-03;  3.8000000E-01;1537;  0.0000000E+00;  0.0000000E+00;  0.0000000E+00;  1.0002147E+03;  1.0000000E-01;  1.7787151E+02;0;  0.0000000E+00;  0.0000000E+00;  0.0000000E+00;0; -1.7302197E-03;  4.0000000E+04;  0.0000000E+00;  0.0000000E+00;  4.0000000E+04;  0.0000000E+00;  4.0000000E+04; -1.0297206E-03;  0.0000000E+00; -7.0049905E-04;  8.1962982E+02;
 -3.9999999E-02;  9.9999998E-03;  3.8999999E-01;1538;  0.0000000E+00;  0.0000000E+00;  0.0000000E+00;  1.0001335E+03;  1.0000000E-01;  1.1061416E+02;0;  0.0000000E+00;  0.0000000E+00;  0.0000000E+00;0; -1.0910472E-03;  4.0000000E+04;  0.0000000E+00;  0.0000000E+00;  4.0000000E+04;  0.0000000E+00;  4.0000000E+04; -5.9395487E-04;  0.0000000E+00; -4.9709226E-04;  6.0595227E+02;
 -3.9999999E-02;  9.9999998E-03;  4.0000001E-01;1539;  0.0000000E+00;  0.0000000E+00;  0.0000000E+00;  1.0000793E+03;  1.0000000E-01;  6.5775917E+01;0;  0.0000000E+00;  0.0000000E+00;  0.0000000E+00;0; -6.4010604E-04;  4.0000000E+04;  0.0000000E+00;  0.0000000E+00;  4.0000000E+04;  0.0000000E+00;  4.0000000E+04; -3.1611559E-04;  0.0000000E+00; -3.2399045E-04;  4.1175095E+02;
 -2.9999999E-02;  9.9999998E-03;  2.3999999E-01;1614;  0.0000000E+00;  0.0000000E+00;  0.0000000E+00;  1.0050477E+03;  1.0000000E-01;  4.1819062E+03;0;  0.0000000E+00;  0.0000000E+00;  0.0000000E+00;0; -4.4072721E-02;  4.0000000E+04;  0.0000000E+00;  0.0000000E+00;  4.0000000E+04;  0.0000000E+00;  4.0000000E+04; -4.4529289E-02;  0.0000000E+00;  4.5656718E-04;  2.9121128E+03;
 -2.9999999E-02;  9.9999998E-03;  2.5000000E-01;1615;  0.0000000E+00;  0.0000000E+00;  0.0000000E+00;  1.0046669E+03;  1.0000000E-01;  3.8664585E+03;0;  0.0000000E+00;  0.0000000E+00;  0.0000000E+00;0; -4.0533334E-02;  4.0000000E+04;  0.0000000E+00;  0.0000000E+00;  4.0000000E+04;  0.0000000E+00;  4.0000000E+04; -4.0543642E-02;  0.0000000E+00;  1.0308085E-05;  2.3961055E+03;
 -2.9999999E-02;  9.9999998E-03;  2.5999999E-01;1616;  0.0000000E+00;  0.0000000E+00;  0.0000000E+00;  1.0042816E+03;  1.0000000E-01;  3.5471589E+03;0;  0.0000000E+00;  0.0000000E+00;  0.0000000E+00;0; -3.6894053E-02;  4.0000000E+04;  0.0000000E+00;  0.0000000E+00;  4.0000000E+04;  0.0000000E+00;  4.0000000E+04; -3.6386423E-02;  0.0000000E+00; -5.0763070E-04;  1.7437285E+03;
 -2.9999999E-02;  9.9999998E-03;  2.7000001E-01;1617;  0.0000000E+00;  0.0000000E+00;  0.0000000E+00;  1.0038820E+03;  1.0000000E-01;  3.2161067E+03;0;  0.0000000E+00;  0.0000000E+00;  0.0000000E+00;0; -3.3177208E-02;  4.0000000E+04;  0.0000000E+00;  0.0000000E+00;  4.0000000E+04;  0.0000000E+00;  4.0000000E+04; -3.2124128E-02;  0.0000000E+00; -1.0530788E-03;  1.0102198E+03;
 -2.9999999E-02;  9.9999998E-03;  2.8000000E-01;1618;  0.0000000E+00;  0.0000000E+00;  0.0000000E+00;  1.0034713E+03;  1.0000000E-01;  2.8758694E+03;0;  0.0000000E+00;  0.0000000E+00;  0.0000000E+00;0; -2.9407371E-02;  4.0000000E+04;  0.0000000E+00;  0.0000000E+00;  4.0000000E+04;  0.0000000E+00;  4.0000000E+04; -2.7835807E-02;  0.0000000E+00; -1.5715634E-03;  3.4871509E+02;
 -2.9999999E-02;  9.9999998E-03;  2.8999999E-01;1619;  0.0000000E+00;  0.0000000E+00;  0.0000000E+00;  1.0030499E+03;  1.0000000E-01;  2.5268420E+03;0;  0.0000000E+00;  0.0000000E+00;  0.0000000E+00;0; -2.5619812E-02;  4.0000000E+04;  0.0000000E+00;  0.0000000E+00;  4.0000000E+04;  0.0000000E+00;  4.0000000E+04; -2.3613537E-02;  0.0000000E+00; -2.0062763E-03;  6.1249060E+02;
 -2.9999999E-02;  9.9999998E-03;  3.0000001E-01;1620;  0.0000000E+00;  0.0000000E+00;  0.0000000E+00;  1.0026251E+03;  1.0000000E-01;  2.1748521E+03;0;  0.0000000E+00;  0.0000000E+00;  0.0000000E+00;0; -2.1870267E-02;  4.0000000E+04;  0.0000000E+00;  0.0000000E+00;  4.0000000E+04;  0.0000000E+00;  4.0000000E+04; -1.9560574E-02;  0.0000000E+00; -2.3096926E-03;  1.1788188E+03;
 -2.9999999E-02;  9.9999998E-03;  3.1000000E-01;1621;  0.0000000E+00;  0.0000000E+00;  0.0000000E+00;  1.0022050E+03;  1.0000000E-01;  1.8268125E+03;0;  0.0000000E+00;  0.0000000E+00;  0.0000000E+00;0; -1.8240724E-02;  4.0000000E+04;  0.0000000E+00;  0.0000000E+00;  4.0000000E+04;  0.0000000E+00;  4.0000000E+04; -1.5783358E-02;  0.0000000E+00; -2.4573652E-03;  1.6032611E+03;
 -2.9999999E-02;  9.9999998E-03;  3.1999999E-01;1622;  0.0000000E+00;  0.0000000E+00;  0.0000000E+00;  1.0018063E+03;  1.0000000E-01;  1.4964515E+03;0;  0.0000000E+00;  0.0000000E+00;  0.0000000E+00;0; -1.4830995E-02;  4.0000000E+04;  0.0000000E+00;  0.0000000E+00;  4.0000000E+04;  0.0000000E+00;  4.0000000E+04; -1.2377533E-02;  0.0000000E+00; -2.4534627E-03;  1.8514471E+03;
 -2.9999999E-02;  9.9999998E-03;  3.3000001E-01;1623;  0.0000000E+00;  0.0000000E+00;  0.0000000E+00;  1.0014436E+03;  1.0000000E-01;  1.1960155E+03;0;  0.0000000E+00;  0.0000000E+00;  0.0000000E+00;0; -1.1737186E-02;  4.0000000E+04;  0.0000000E+00;  0.0000000E+00;  4.0000000E+04;  0.0000000E+00;  4.0000000E+04; -9.4133820E-03;  0.0000000E+00; -2.3238033E-03;  1.9356431E+03;
 -2.9999999E-02;  9.9999998E-03;  3.4000000E-01;1624;  0.0000000E+00;  0.0000000E+00;  0.0000000E+00;  1.0011183E+03;  1.0000000E-01;  9.2649231E+02;0;  0.0000000E+00;  0.0000000E+00;  0.0000000E+00;0; -9.0308096E-03;  4.0000000E+04;  0.0000000E+00;  0.0000000E+00;  4.0000000E+04;  0.0000000E+00;  4.0000000E+04; -6.9269626E-03;  0.0000000E+00; -2.1038468E-03;  1.8868594E+03;
 -2.9999999E-02;  9.9999998E-03;  3.4999999E-01;1625;  0.0000000E+00;  0.0000000E+00;  0.0000000E+00;  1.0008469E+03;  1.0000000E-01;  7.0160980E+02;0;  0.0000000E+00;  0.0000000E+00;  0.0000000E+00;0; -6.7475750E-03;  4.0000000E+04;  0.0000000E+00;  0.0000000E+00;  4.0000000E+04;  0.0000000E+00;  4.0000000E+04; -4.9187560E-03;  0.0000000E+00; -1.8288190E-03;  1.7410295E+03;
 -2.9999999E-02;  9.9999998E-03;  3.6000001E-01;1626;  0.0000000E+00;  0.0000000E+00;  0.0000000E+00;  1.0006219E+03;  1.0000000E-01;  5.1524469E+02;0;  0.0000000E+00;  0.0000000E+00;  0.0000000E+00;0; -4.8871632E-03;  4.0000000E+04;  0.0000000E+00;  0.0000000E+00;  4.0000000E+04;  0.0000000E+00;  4.0000000E+04; -3.3587352E-03;  0.0000000E+00; -1.5284281E-03;  1.5313833E+03;
 -2.9999999E-02;  9.9999998E-03;  3.7000000E-01;1627;  0.0000000E+00;  0.0000000E+00;  0.0000000E+00;  1.0004362E+03;  1.0000000E-01;  3.6137250E+02;0;  0.0000000E+00;  0.0000000E+00;  0.0000000E+00;0; -3.4204950E-03;  4.0000000E+04;  0.0000000E+00;  0.0000000E+00;  4.0000000E+04;  0.0000000E+00;  4.0000000E+04; -2.1950607E-03;  0.0000000E+00; -1.2254342E-03;  1.2855834E+03;
 -2.9999999E-02;  9.9999998E-03;  3.8000000E-01;1628;  0.0000000E+00;  0.0000000E+00;  0.0000000E+00;  1.0003005E+03;  1.0000000E-01;  2.4898061E+02;0;  0.0000000E+00;  0.0000000E+00;  0.0000000E+00;0; -2.3003230E-03;  4.0000000E+04;  0.0000000E+00;  0.0000000E+00;  4.0000000E+04;  0.0000000E+00;  4.0000000E+04; -1.3637835E-03;  0.0000000E+00; -9.3653961E-04;  1.0258180E+03;
 -2.9999999E-02;  9.9999998E-03;  3.8999999E-01;1629;  0.0000000E+00;  0.0000000E+00;  0.0000000E+00;  1.0001992E+03;  1.0000000E-01;  1.6503236E+02;0;  0.0000000E+00;  0.0000000E+00;  0.0000000E+00;0; -1.4717864E-03;  4.0000000E+04;  0.0000000E+00;  0.0000000E+00;  4.0000000E+04;  0.0000000E+00;  4.0000000E+04; -7.9761230E-04;  0.0000000E+00; -6.7417411E-04;  7.7026355E+02;
 -2.9999999E-02;  9.9999998E-03;  4.0000001E-01;1630;  0.0000000E+00;  0.0000000E+00;  0.0000000E+00;  1.0001182E+03;  1.0000000E-01;  9.7873772E+01;0;  0.0000000E+00;  0.0000000E+00;  0.0000000E+00;0; -8.8096515E-04;  4.0000000E+04;  0.0000000E+00;  0.0000000E+00;  4.0000000E+04;  0.0000000E+00;  4.0000000E+04; -4.3269171E-04;  0.0000000E+00; -4.4827347E-04;  5.3478992E+02;
 -2.0000000E-02;  9.9999998E-03;  2.3999999E-01;1705;  0.0000000E+00;  0.0000000E+00;  0.0000000E+00;  1.0062404E+03;  1.0000000E-01;  5.1700269E+03;0;  0.0000000E+00;  0.0000000E+00;  0.0000000E+00;0; -5.3870779E-02;  4.0000000E+04;  0.0000000E+00;  0.0000000E+00;  4.0000000E+04;  0.0000000E+00;  4.0000000E+04; -5.4467980E-02;  0.0000000E+00;  5.9720170E-04;  3.4685881E+03;
 -2.0000000E-02;  9.9999998E-03;  2.5000000E-01;1706;  0.0000000E+00;  0.0000000E+00;  0.0000000E+00;  1.0057825E+03;  1.0000000E-01;  4.7906792E+03;0;  0.0000000E+00;  0.0000000E+00;  0.0000000E+00;0; -4.9618009E-02;  4.0000000E+04;  0.0000000E+00;  0.0000000E+00;  4.0000000E+04;  0.0000000E+00;  4.0000000E+04; -4.9673915E-02;  0.0000000E+00;  5.5903867E-05;  2.9063486E+03;
 -2.0000000E-02;  9.9999998E-03;  2.5999999E-01;1707;  0.0000000E+00;  0.0000000E+00;  0.0000000E+00;  1.0053108E+03;  1.0000000E-01;  4.3998755E+03;0;  0.0000000E+00;  0.0000000E+00;  0.0000000E+00;0; -4.5236118E-02;  4.0000000E+04;  0.0000000E+00;  0.0000000E+00;  4.0000000E+04;  0.0000000E+00;  4.0000000E+04; -4.4652514E-02;  0.0000000E+00; -5.8360386E-04;  2.1647510E+03;
 -2.0000000E-02;  9.9999998E-03;  2.7000001E-01;1708;  0.0000000E+00;  0.0000000E+00;  0.0000000E+00;  1.0048246E+03;  1.0000000E-01;  3.9971216E+03;0;  0.0000000E+00;  0.0000000E+00;  0.0000000E+00;0; -4.0750913E-02;  4.0000000E+04;  0.0000000E+00;  0.0000000E+00;  4.0000000E+04;  0.0000000E+00;  4.0000000E+04; -3.9483596E-02;  0.0000000E+00; -1.2673165E-03;  1.3058181E+03;
 -2.0000000E-02;  9.9999998E-03;  2.8000000E-01;1709;  0.0000000E+00;  0.0000000E+00;  0.0000000E+00;  1.0043242E+03;  1.0000000E-01;  3.5825159E+03;0;  0.0000000E+00;  0.0000000E+00;  0.0000000E+00;0; -3.6188643E-02;  4.0000000E+04;  0.0000000E+00;  0.0000000E+00;  4.0000000E+04;  0.0000000E+00;  4.0000000E+04; -3.4262307E-02;  0.0000000E+00; -1.9263364E-03;  4.8927274E+02;
 -2.0000000E-02;  9.9999998E-03;  2.8999999E-01;1710;  0.0000000E+00;  0.0000000E+00;  0.0000000E+00;  1.0038086E+03;  1.0000000E-01;  3.1553674E+03;0;  0.0000000E+00;  0.0000000E+00;  0.0000000E+00;0; -3.1586852E-02;  4.0000000E+04;  0.0000000E+00;  0.0000000E+00;  4.0000000E+04;  0.0000000E+00;  4.0000000E+04; -2.9101146E-02;  0.0000000E+00; -2.4857060E-03;  6.6444141E+02;
 -2.0000000E-02;  9.9999998E-03;  3.0000001E-01;1711;  0.0000000E+00;  0.0000000E+00;  0.0000000E+00;  1.0032849E+03;  1.0000000E-01;  2.7215032E+03;0;  0.0000000E+00;  0.0000000E+00;  0.0000000E+00;0; -2.7009103E-02;  4.0000000E+04;  0.0000000E+00;  0.0000000E+00;  4.0000000E+04;  0.0000000E+00;  4.0000000E+04; -2.4129480E-02;  0.0000000E+00; -2.8796229E-03;  1.3400221E+03;
 -2.0000000E-02;  9.9999998E-03;  3.1000000E-01;1712;  0.0000000E+00;  0.0000000E+00;  0.0000000E+00;  1.0027695E+03;  1.0000000E-01;  2.2945525E+03;0;  0.0000000E+00;  0.0000000E+00;  0.0000000E+00;0; -2.2558840E-02;  4.0000000E+04;  0.0000000E+00;  0.0000000E+00;  4.0000000E+04;  0.0000000E+00;  4.0000000E+04; -1.9485150E-02;  0.0000000E+00; -3.0736909E-03;  1.8532130E+03;
 -2.0000000E-02;  9.9999998E-03;  3.1999999E-01;1713;  0.0000000E+00;  0.0000000E+00;  0.0000000E+00;  1.0022766E+03;  1.0000000E-01;  1.8860701E+03;0;  0.0000000E+00;  0.0000000E+00;  0.0000000E+00;0; -1.8367248E-02;  4.0000000E+04;  0.0000000E+00;  0.0000000E+00;  4.0000000E+04;  0.0000000E+00;  4.0000000E+04; -1.5293098E-02;  0.0000000E+00; -3.0741494E-03;  2.1537393E+03;
 -2.0000000E-02;  9.9999998E-03;  3.3000001E-01;1714;  0.0000000E+00;  0.0000000E+00;  0.0000000E+00;  1.0018220E+03;  1.0000000E-01;  1.5094882E+03;0;  0.0000000E+00;  0.0000000E+00;  0.0000000E+00;0; -1.4559972E-02;  4.0000000E+04;  0.0000000E+00;  0.0000000E+00;  4.0000000E+04;  0.0000000E+00;  4.0000000E+04; -1.1644103E-02;  0.0000000E+00; -2.9158697E-03;  2.2585215E+03;
 -2.0000000E-02;  9.9999998E-03;  3.4000000E-01;1715;  0.0000000E+00;  0.0000000E+00;  0.0000000E+00;  1.0014203E+03;  1.0000000E-01;  1.1766581E+03;0;  0.0000000E+00;  0.0000000E+00;  0.0000000E+00;0; -1.1228431E-02;  4.0000000E+04;  0.0000000E+00;  0.0000000E+00;  4.0000000E+04;  0.0000000E+00;  4.0000000E+04; -8.5834740E-03;  0.0000000E+00; -2.6449566E-03;  2.2069814E+03;
 -2.0000000E-02;  9.9999998E-03;  3.4999999E-01;1716;  0.0000000E+00;  0.0000000E+00;  0.0000000E+00;  1.0010747E+03;  1.0000000E-01;  8.9034521E+02;0;  0.0000000E+00;  0.0000000E+00;  0.0000000E+00;0; -8.4169302E-03;  4.0000000E+04;  0.0000000E+00;  0.0000000E+00;  4.0000000E+04;  0.0000000E+00;  4.0000000E+04; -6.1110542E-03;  0.0000000E+00; -2.3058758E-03;  2.0426794E+03;
 -2.0000000E-02;  9.9999998E-03;  3.6000001E-01;1717;  0.0000000E+00;  0.0000000E+00;  0.0000000E+00;  1.0007890E+03;  1.0000000E-01;  6.5370990E+02;0;  0.0000000E+00;  0.0000000E+00;  0.0000000E+00;0; -6.1240429E-03;  4.0000000E+04;  0.0000000E+00;  0.0000000E+00;  4.0000000E+04;  0.0000000E+00;  4.0000000E+04; -4.1887723E-03;  0.0000000E+00; -1.9352708E-03;  1.8044401E+03;
 -2.0000000E-02;  9.9999998E-03;  3.7000000E-01;1718;  0.0000000E+00;  0.0000000E+00;  0.0000000E+00;  1.0005672E+03;  1.0000000E-01;  4.6991263E+02;0;  0.0000000E+00;  0.0000000E+00;  0.0000000E+00;0; -4.3129292E-03;  4.0000000E+04;  0.0000000E+00;  0.0000000E+00;  4.0000000E+04;  0.0000000E+00;  4.0000000E+04; -2.7521835E-03;  0.0000000E+00; -1.5607459E-03;  1.5238053E+03;
 -2.0000000E-02;  9.9999998E-03;  3.8000000E-01;1719;  0.0000000E+00;  0.0000000E+00;  0.0000000E+00;  1.0003810E+03;  1.0000000E-01;  3.1564539E+02;0;  0.0000000E+00;  0.0000000E+00;  0.0000000E+00;0; -2.9249019E-03;  4.0000000E+04;  0.0000000E+00;  0.0000000E+00;  4.0000000E+04;  0.0000000E+00;  4.0000000E+04; -1.7225858E-03;  0.0000000E+00; -1.2023160E-03;  1.2257119E+03;
 -2.0000000E-02;  9.9999998E-03;  3.8999999E-01;1720;  0.0000000E+00;  0.0000000E+00;  0.0000000E+00;  1.0002479E+03;  1.0000000E-01;  2.0532753E+02;0;  0.0000000E+00;  0.0000000E+00;  0.0000000E+00;0; -1.8925541E-03;  4.0000000E+04;  0.0000000E+00;  0.0000000E+00;  4.0000000E+04;  0.0000000E+00;  4.0000000E+04; -1.0177151E-03;  0.0000000E+00; -8.7483902E-04;  9.3042621E+02;
 -2.0000000E-02;  9.9999998E-03;  4.0000001E-01;1721;  0.0000000E+00;  0.0000000E+00;  0.0000000E+00;  1.0001470E+03;  1.0000000E-01;  1.2177433E+02;0;  0.0000000E+00;  0.0000000E+00;  0.0000000E+00;0; -1.1501908E-03;  4.0000000E+04;  0.0000000E+00;  0.0000000E+00;  4.0000000E+04;  0.0000000E+00;  4.0000000E+04; -5.5985502E-04;  0.0000000E+00; -5.9033587E-04;  6.5579413E+02;
 -9.9999998E-03;  9.9999998E-03;  2.3999999E-01;1796;  0.0000000E+00;  0.0000000E+00;  0.0000000E+00;  1.0074732E+03;  1.0000000E-01;  6.1914297E+03;0;  0.0000000E+00;  0.0000000E+00;  0.0000000E+00;0; -6.3576199E-02;  4.0000000E+04;  0.0000000E+00;  0.0000000E+00;  4.0000000E+04;  0.0000000E+00;  4.0000000E+04; -6.4345598E-02;  0.0000000E+00;  7.6940196E-04;  3.9884011E+03;
 -9.9999998E-03;  9.9999998E-03;  2.5000000E-01;1797;  0.0000000E+00;  0.0000000E+00;  0.0000000E+00;  1.0069360E+03;  1.0000000E-01;  5.7464053E+03;0;  0.0000000E+00;  0.0000000E+00;  0.0000000E+00;0; -5.8643371E-02;  4.0000000E+04;  0.0000000E+00;  0.0000000E+00;  4.0000000E+04;  0.0000000E+00;  4.0000000E+04; -5.8778908E-02;  0.0000000E+00;  1.3553900E-04;  3.4092932E+03;
 -9.9999998E-03;  9.9999998E-03;  2.5999999E-01;1798;  0.0000000E+00;  0.0000000E+00;  0.0000000E+00;  1.0063834E+03;  1.0000000E-01;  5.2885420E+03;0;  0.0000000E+00;  0.0000000E+00;  0.0000000E+00;0; -5.3549536E-02;  4.0000000E+04;  0.0000000E+00;  0.0000000E+00;  4.0000000E+04;  0.0000000E+00;  4.0000000E+04; -5.2920718E-02;  0.0000000E+00; -6.2881748E-04;  2.6017642E+03;
 -9.9999998E-03;  9.9999998E-03;  2.7000001E-01;1799;  0.0000000E+00;  0.0000000E+00;  0.0000000E+00;  1.0058127E+03;  1.0000000E-01;  4.8156665E+03;0;  0.0000000E+00;  0.0000000E+00;  0.0000000E+00;0; -4.8324231E-02;  4.0000000E+04;  0.0000000E+00;  0.0000000E+00;  4.0000000E+04;  0.0000000E+00;  4.0000000E+04; -4.6864487E-02;  0.0000000E+00; -1.4597456E-03;  1.6320009E+03;
 -9.9999998E-03;  9.9999998E-03;  2.8000000E-01;1800;  0.0000000E+00;  0.0000000E+00;  0.0000000E+00;  1.0052223E+03;  1.0000000E-01;  4.3265938E+03;0;  0.0000000E+00;  0.0000000E+00;  0.0000000E+00;0; -4.2995770E-02;  4.0000000E+04;  0.0000000E+00;  0.0000000E+00;  4.0000000E+04;  0.0000000E+00;  4.0000000E+04; -4.0722396E-02;  0.0000000E+00; -2.2733742E-03;  6.6441876E+02;
 -9.9999998E-03;  9.9999998E-03;  2.8999999E-01;1801;  0.0000000E+00;  0.0000000E+00;  0.0000000E+00;  1.0046142E+03;  1.0000000E-01;  3.8228054E+03;0;  0.0000000E+00;  0.0000000E+00;  0.0000000E+00;0; -3.7601899E-02;  4.0000000E+04;  0.0000000E+00;  0.0000000E+00;  4.0000000E+04;  0.0000000E+00;  4.0000000E+04; -3.4627132E-02;  0.0000000E+00; -2.9747658E-03;  6.9218951E+02;
 -9.9999998E-03;  9.9999998E-03;  3.0000001E-01;1802;  0.0000000E+00;  0.0000000E+00;  0.0000000E+00;  1.0039957E+03;  1.0000000E-01;  3.3104248E+03;0;  0.0000000E+00;  0.0000000E+00;  0.0000000E+00;0; -3.2207612E-02;  4.0000000E+04;  0.0000000E+00;  0.0000000E+00;  4.0000000E+04;  0.0000000E+00;  4.0000000E+04; -2.8733708E-02;  0.0000000E+00; -3.4739040E-03;  1.4706378E+03;
 -9.9999998E-03;  9.9999998E-03;  3.1000000E-01;1803;  0.0000000E+00;  0.0000000E+00;  0.0000000E+00;  1.0033784E+03;  1.0000000E-01;  2.7989331E+03;0;  0.0000000E+00;  0.0000000E+00;  0.0000000E+00;0; -2.6937168E-02;  4.0000000E+04;  0.0000000E+00;  0.0000000E+00;  4.0000000E+04;  0.0000000E+00;  4.0000000E+04; -2.3214694E-02;  0.0000000E+00; -3.7224747E-03;  2.0718901E+03;
 -9.9999998E-03;  9.9999998E-03;  3.1999999E-01;1804;  0.0000000E+00;  0.0000000E+00;  0.0000000E+00;  1.0027820E+03;  1.0000000E-01;  2.3048237E+03;0;  0.0000000E+00;  0.0000000E+00;  0.0000000E+00;0; -2.1958536E-02;  4.0000000E+04;  0.0000000E+00;  0.0000000E+00;  4.0000000E+04;  0.0000000E+00;  4.0000000E+04; -1.8228242E-02;  0.0000000E+00; -3.7302941E-03;  2.4229048E+03;
 -9.9999998E-03;  9.9999998E-03;  3.3000001E-01;1805;  0.0000000E+00;  0.0000000E+00;  0.0000000E+00;  1.0022288E+03;  1.0000000E-01;  1.8464663E+03;0;  0.0000000E+00;  0.0000000E+00;  0.0000000E+00;0; -1.7431330E-02;  4.0000000E+04;  0.0000000E+00;  0.0000000E+00;  4.0000000E+04;  0.0000000E+00;  4.0000000E+04; -1.3887899E-02;  0.0000000E+00; -3.5434307E-03;  2.5471287E+03;
 -9.9999998E-03;  9.9999998E-03;  3.4000000E-01;1806;  0.0000000E+00;  0.0000000E+00;  0.0000000E+00;  1.0017415E+03;  1.0000000E-01;  1.4427246E+03;0;  0.0000000E+00;  0.0000000E+00;  0.0000000E+00;0; -1.3468640E-02;  4.0000000E+04;  0.0000000E+00;  0.0000000E+00;  4.0000000E+04;  0.0000000E+00;  4.0000000E+04; -1.0248555E-02;  0.0000000E+00; -3.2200855E-03;  2.4936108E+03;
 -9.9999998E-03;  9.9999998E-03;  3.4999999E-01;1807;  0.0000000E+00;  0.0000000E+00;  0.0000000E+00;  1.0013216E+03;  1.0000000E-01;  1.0948826E+03;0;  0.0000000E+00;  0.0000000E+00;  0.0000000E+00;0; -1.0123606E-02;  4.0000000E+04;  0.0000000E+00;  0.0000000E+00;  4.0000000E+04;  0.0000000E+00;  4.0000000E+04; -7.3089986E-03;  0.0000000E+00; -2.8146075E-03;  2.3132156E+03;
 -9.9999998E-03;  9.9999998E-03;  3.6000001E-01;1808;  0.0000000E+00;  0.0000000E+00;  0.0000000E+00;  1.0009764E+03;  1.0000000E-01;  8.0896478E+02;0;  0.0000000E+00;  0.0000000E+00;  0.0000000E+00;0; -7.3934803E-03;  4.0000000E+04;  0.0000000E+00;  0.0000000E+00;  4.0000000E+04;  0.0000000E+00;  4.0000000E+04; -5.0226673E-03;  0.0000000E+00; -2.3708132E-03;  2.0497651E+03;
 -9.9999998E-03;  9.9999998E-03;  3.7000000E-01;1809;  0.0000000E+00;  0.0000000E+00;  0.0000000E+00;  1.0006950E+03;  1.0000000E-01;  5.7578619E+02;0;  0.0000000E+00;  0.0000000E+00;  0.0000000E+00;0; -5.2334107E-03;  4.0000000E+04;  0.0000000E+00;  0.0000000E+00;  4.0000000E+04;  0.0000000E+00;  4.0000000E+04; -3.3121496E-03;  0.0000000E+00; -1.9212614E-03;  1.7381555E+03;
 -9.9999998E-03;  9.9999998E-03;  3.8000000E-01;1810;  0.0000000E+00;  0.0000000E+00;  0.0000000E+00;  1.0004771E+03;  1.0000000E-01;  3.9524808E+02;0;  0.0000000E+00;  0.0000000E+00;  0.0000000E+00;0; -3.5730826E-03;  4.0000000E+04;  0.0000000E+00;  0.0000000E+00;  4.0000000E+04;  0.0000000E+00;  4.0000000E+04; -2.0836873E-03;  0.0000000E+00; -1.4893953E-03;  1.4056969E+03;
 -9.9999998E-03;  9.9999998E-03;  3.8999999E-01;1811;  0.0000000E+00;  0.0000000E+00;  0.0000000E+00;  1.0003193E+03;  1.0000000E-01;  2.6448636E+02;0;  0.0000000E+00;  0.0000000E+00;  0.0000000E+00;0; -2.3324741E-03;  4.0000000E+04;  0.0000000E+00;  0.0000000E+00;  4.0000000E+04;  0.0000000E+00;  4.0000000E+04; -1.2398079E-03;  0.0000000E+00; -1.0926662E-03;  1.0746805E+03;
 -9.9999998E-03;  9.9999998E-03;  4.0000001E-01;1812;  0.0000000E+00;  0.0000000E+00;  0.0000000E+00;  1.0002000E+03;  1.0000000E-01;  1.6562494E+02;0;  0.0000000E+00;  0.0000000E+00;  0.0000000E+00;0; -1.4341753E-03;  4.0000000E+04;  0.0000000E+00;  0.0000000E+00;  4.0000000E+04;  0.0000000E+00;  4.0000000E+04; -6.8876072E-04;  0.0000000E+00; -7.4541452E-04;  7.6486304E+02;
  0.0000000E+00;  9.9999998E-03;  3.0000001E-01;1834;  0.0000000E+00;  0.0000000E+00;  0.0000000E+00;  1.0047243E+03;  1.0000000E-01;  3.9139634E+03;0;  0.0000000E+00;  0.0000000E+00;  0.0000000E+00;0; -3.7127901E-02;  4.0000000E+04;  0.0000000E+00;  0.0000000E+00;  4.0000000E+04;  0.0000000E+00;  4.0000000E+04; -3.3079900E-02;  0.0000000E+00; -4.0480006E-03;  1.5450804E+03;
  0.0000000E+00;  9.9999998E-03;  3.1000000E-01;1835;  0.0000000E+00;  0.0000000E+00;  0.0000000E+00;  1.0039999E+03;  1.0000000E-01;  3.3138816E+03;0;  0.0000000E+00;  0.0000000E+00;  0.0000000E+00;0; -3.1101633E-02;  4.0000000E+04;  0.0000000E+00;  0.0000000E+00;  4.0000000E+04;  0.0000000E+00;  4.0000000E+04; -2.6739171E-02;  0.0000000E+00; -4.3624616E-03;  2.2329895E+03;
  0.0000000E+00;  9.9999998E-03;  3.1999999E-01;1836;  0.0000000E+00;  0.0000000E+00;  0.0000000E+00;  1.0032969E+03;  1.0000000E-01;  2.7313796E+03;0;  0.0000000E+00;  0.0000000E+00;  0.0000000E+00;0; -2.5387378E-02;  4.0000000E+04;  0.0000000E+00;  0.0000000E+00;  4.0000000E+04;  0.0000000E+00;  4.0000000E+04; -2.1002546E-02;  0.0000000E+00; -4.3848325E-03;  2.6334871E+03;
  0.0000000E+00;  9.9999998E-03;  3.3000001E-01;1837;  0.0000000E+00;  0.0000000E+00;  0.0000000E+00;  1.0026483E+03;  1.0000000E-01;  2.1940120E+03;0;  0.0000000E+00;  0.0000000E+00;  0.0000000E+00;0; -2.0182857E-02;  4.0000000E+04;  0.0000000E+00;  0.0000000E+00;  4.0000000E+04;  0.0000000E+00;  4.0000000E+04; -1.6008351E-02;  0.0000000E+00; -4.1745063E-03;  2.7789609E+03;
  0.0000000E+00;  9.9999998E-03;  3.4000000E-01;1838;  0.0000000E+00;  0.0000000E+00;  0.0000000E+00;  1.0020707E+03;  1.0000000E-01;  1.7155071E+03;0;  0.0000000E+00;  0.0000000E+00;  0.0000000E+00;0; -1.5623782E-02;  4.0000000E+04;  0.0000000E+00;  0.0000000E+00;  4.0000000E+04;  0.0000000E+00;  4.0000000E+04; -1.1821208E-02;  0.0000000E+00; -3.8025747E-03;  2.7278286E+03;
  0.0000000E+00;  9.9999998E-03;  3.4999999E-01;1839;  0.0000000E+00;  0.0000000E+00;  0.0000000E+00;  1.0015770E+03;  1.0000000E-01;  1.3065310E+03;0;  0.0000000E+00;  0.0000000E+00;  0.0000000E+00;0; -1.1772594E-02;  4.0000000E+04;  0.0000000E+00;  0.0000000E+00;  4.0000000E+04;  0.0000000E+00;  4.0000000E+04; -8.4392726E-03;  0.0000000E+00; -3.3333218E-03;  2.5370322E+03;
  0.0000000E+00;  9.9999998E-03;  3.6000001E-01;1840;  0.0000000E+00;  0.0000000E+00;  0.0000000E+00;  1.0011724E+03;  1.0000000E-01;  9.7133057E+02;0;  0.0000000E+00;  0.0000000E+00;  0.0000000E+00;0; -8.6260624E-03;  4.0000000E+04;  0.0000000E+00;  0.0000000E+00;  4.0000000E+04;  0.0000000E+00;  4.0000000E+04; -5.8083083E-03;  0.0000000E+00; -2.8177544E-03;  2.2542590E+03;
  0.0000000E+00;  9.9999998E-03;  3.7000000E-01;1841;  0.0000000E+00;  0.0000000E+00;  0.0000000E+00;  1.0008404E+03;  1.0000000E-01;  6.9627661E+02;0;  0.0000000E+00;  0.0000000E+00;  0.0000000E+00;0; -6.1322022E-03;  4.0000000E+04;  0.0000000E+00;  0.0000000E+00;  4.0000000E+04;  0.0000000E+00;  4.0000000E+04; -3.8387573E-03;  0.0000000E+00; -2.2934447E-03;  1.9173149E+03;
  0.0000000E+00;  9.9999998E-03;  3.8000000E-01;1842;  0.0000000E+00;  0.0000000E+00;  0.0000000E+00;  1.0005844E+03;  1.0000000E-01;  4.8413446E+02;0;  0.0000000E+00;  0.0000000E+00;  0.0000000E+00;0; -4.2100302E-03;  4.0000000E+04;  0.0000000E+00;  0.0000000E+00;  4.0000000E+04;  0.0000000E+00;  4.0000000E+04; -2.4226217E-03;  0.0000000E+00; -1.7874085E-03;  1.5557975E+03;
  0.0000000E+00;  9.9999998E-03;  3.8999999E-01;1843;  0.0000000E+00;  0.0000000E+00;  0.0000000E+00;  1.0003838E+03;  1.0000000E-01;  3.1791693E+02;0;  0.0000000E+00;  0.0000000E+00;  0.0000000E+00;0; -2.7678087E-03;  4.0000000E+04;  0.0000000E+00;  0.0000000E+00;  4.0000000E+04;  0.0000000E+00;  4.0000000E+04; -1.4479205E-03;  0.0000000E+00; -1.3198884E-03;  1.1941119E+03;
  0.0000000E+00;  9.9999998E-03;  4.0000001E-01;1844;  0.0000000E+00;  0.0000000E+00;  0.0000000E+00;  1.0002433E+03;  1.0000000E-01;  2.0157454E+02;0;  0.0000000E+00;  0.0000000E+00;  0.0000000E+00;0; -1.7172950E-03;  4.0000000E+04;  0.0000000E+00;  0.0000000E+00;  4.0000000E+04;  0.0000000E+00;  4.0000000E+04; -8.0945500E-04;  0.0000000E+00; -9.0783997E-04;  8.5412610E+02;
  9.9999998E-03;  9.9999998E-03;  3.1000000E-01;1865;  0.0000000E+00;  0.0000000E+00;  0.0000000E+00;  1.0046067E+03;  1.0000000E-01;  3.8165835E+03;0;  0.0000000E+00;  0.0000000E+00;  0.0000000E+00;0; -3.4776185E-02;  4.0000000E+04;  0.0000000E+00;  0.0000000E+00;  4.0000000E+04;  0.0000000E+00;  4.0000000E+04; -2.9832061E-02;  0.0000000E+00; -4.9441247E-03;  2.3098269E+03;
  9.9999998E-03;  9.9999998E-03;  3.1999999E-01;1866;  0.0000000E+00;  0.0000000E+00;  0.0000000E+00;  1.0038009E+03;  1.0000000E-01;  3.1489480E+03;0;  0.0000000E+00;  0.0000000E+00;  0.0000000E+00;0; -2.8438268E-02;  4.0000000E+04;  0.0000000E+00;  0.0000000E+00;  4.0000000E+04;  0.0000000E+00;  4.0000000E+04; -2.3443630E-02;  0.0000000E+00; -4.9946383E-03;  2.7638962E+03;
  9.9999998E-03;  9.9999998E-03;  3.3000001E-01;1867;  0.0000000E+00;  0.0000000E+00;  0.0000000E+00;  1.0030581E+03;  1.0000000E-01;  2.5335579E+03;0;  0.0000000E+00;  0.0000000E+00;  0.0000000E+00;0; -2.2649782E-02;  4.0000000E+04;  0.0000000E+00;  0.0000000E+00;  4.0000000E+04;  0.0000000E+00;  4.0000000E+04; -1.7876653E-02;  0.0000000E+00; -4.7731292E-03;  2.9391929E+03;
  9.9999998E-03;  9.9999998E-03;  3.4000000E-01;1868;  0.0000000E+00;  0.0000000E+00;  0.0000000E+00;  1.0023967E+03;  1.0000000E-01;  1.9856228E+03;0;  0.0000000E+00;  0.0000000E+00;  0.0000000E+00;0; -1.7569780E-02;  4.0000000E+04;  0.0000000E+00;  0.0000000E+00;  4.0000000E+04;  0.0000000E+00;  4.0000000E+04; -1.3206764E-02;  0.0000000E+00; -4.3630158E-03;  2.9003035E+03;
  9.9999998E-03;  9.9999998E-03;  3.4999999E-01;1869;  0.0000000E+00;  0.0000000E+00;  0.0000000E+00;  1.0018288E+03;  1.0000000E-01;  1.5151177E+03;0;  0.0000000E+00;  0.0000000E+00;  0.0000000E+00;0; -1.3271819E-02;  4.0000000E+04;  0.0000000E+00;  0.0000000E+00;  4.0000000E+04;  0.0000000E+00;  4.0000000E+04; -9.4335414E-03;  0.0000000E+00; -3.8382772E-03;  2.7082427E+03;
  9.9999998E-03;  9.9999998E-03;  3.6000001E-01;1870;  0.0000000E+00;  0.0000000E+00;  0.0000000E+00;  1.0013604E+03;  1.0000000E-01;  1.1269805E+03;0;  0.0000000E+00;  0.0000000E+00;  0.0000000E+00;0; -9.7543979E-03;  4.0000000E+04;  0.0000000E+00;  0.0000000E+00;  4.0000000E+04;  0.0000000E+00;  4.0000000E+04; -6.4972406E-03;  0.0000000E+00; -3.2571570E-03;  2.4140071E+03;
  9.9999998E-03;  9.9999998E-03;  3.7000000E-01;1871;  0.0000000E+00;  0.0000000E+00;  0.0000000E+00;  1.0009808E+03;  1.0000000E-01;  8.1252020E+02;0;  0.0000000E+00;  0.0000000E+00;  0.0000000E+00;0; -6.9607915E-03;  4.0000000E+04;  0.0000000E+00;  0.0000000E+00;  4.0000000E+04;  0.0000000E+00;  4.0000000E+04; -4.2983266E-03;  0.0000000E+00; -2.6624650E-03;  2.0581584E+03;
  9.9999998E-03;  9.9999998E-03;  3.8000000E-01;1872;  0.0000000E+00;  0.0000000E+00;  0.0000000E+00;  1.0006830E+03;  1.0000000E-01;  5.6581116E+02;0;  0.0000000E+00;  0.0000000E+00;  0.0000000E+00;0; -4.8015248E-03;  4.0000000E+04;  0.0000000E+00;  0.0000000E+00;  4.0000000E+04;  0.0000000E+00;  4.0000000E+04; -2.7165122E-03;  0.0000000E+00; -2.0850128E-03;  1.6729528E+03;
  9.9999998E-03;  9.9999998E-03;  3.8999999E-01;1873;  0.0000000E+00;  0.0000000E+00;  0.0000000E+00;  1.0004530E+03;  1.0000000E-01;  3.7529803E+02;0;  0.0000000E+00;  0.0000000E+00;  0.0000000E+00;0; -3.1750787E-03;  4.0000000E+04;  0.0000000E+00;  0.0000000E+00;  4.0000000E+04;  0.0000000E+00;  4.0000000E+04; -1.6269693E-03;  0.0000000E+00; -1.5481093E-03;  1.2853781E+03;
  9.9999998E-03;  9.9999998E-03;  4.0000001E-01;1874;  0.0000000E+00;  0.0000000E+00;  0.0000000E+00;  1.0002840E+03;  1.0000000E-01;  2.3525261E+02;0;  0.0000000E+00;  0.0000000E+00;  0.0000000E+00;0; -1.9840265E-03;  4.0000000E+04;  0.0000000E+00;  0.0000000E+00;  4.0000000E+04;  0.0000000E+00;  4.0000000E+04; -9.1239827E-04;  0.0000000E+00; -1.0716282E-03;  9.1994800E+02;
  2.0000000E-02;  9.9999998E-03;  3.1000000E-01;1895;  0.0000000E+00;  0.0000000E+00;  0.0000000E+00;  1.0051667E+03;  1.0000000E-01;  4.2805703E+03;0;  0.0000000E+00;  0.0000000E+00;  0.0000000E+00;0; -3.7747938E-02;  4.0000000E+04;  0.0000000E+00;  0.0000000E+00;  4.0000000E+04;  0.0000000E+00;  4.0000000E+04; -3.2323904E-02;  0.0000000E+00; -5.4240325E-03;  2.2931621E+03;
  2.0000000E-02;  9.9999998E-03;  3.1999999E-01;1896;  0.0000000E+00;  0.0000000E+00;  0.0000000E+00;  1.0042743E+03;  1.0000000E-01;  3.5411345E+03;0;  0.0000000E+00;  0.0000000E+00;  0.0000000E+00;0; -3.0941211E-02;  4.0000000E+04;  0.0000000E+00;  0.0000000E+00;  4.0000000E+04;  0.0000000E+00;  4.0000000E+04; -2.5419561E-02;  0.0000000E+00; -5.5216495E-03;  2.8113542E+03;
  2.0000000E-02;  9.9999998E-03;  3.3000001E-01;1897;  0.0000000E+00;  0.0000000E+00;  0.0000000E+00;  1.0034407E+03;  1.0000000E-01;  2.8505859E+03;0;  0.0000000E+00;  0.0000000E+00;  0.0000000E+00;0; -2.4700455E-02;  4.0000000E+04;  0.0000000E+00;  0.0000000E+00;  4.0000000E+04;  0.0000000E+00;  4.0000000E+04; -1.9393127E-02;  0.0000000E+00; -5.3073275E-03;  3.0312983E+03;
  2.0000000E-02;  9.9999998E-03;  3.4000000E-01;1898;  0.0000000E+00;  0.0000000E+00;  0.0000000E+00;  1.0026994E+03;  1.0000000E-01;  2.2363811E+03;0;  0.0000000E+00;  0.0000000E+00;  0.0000000E+00;0; -1.9206667E-02;  4.0000000E+04;  0.0000000E+00;  0.0000000E+00;  4.0000000E+04;  0.0000000E+00;  4.0000000E+04; -1.4331764E-02;  0.0000000E+00; -4.8749037E-03;  3.0183315E+03;
  2.0000000E-02;  9.9999998E-03;  3.4999999E-01;1899;  0.0000000E+00;  0.0000000E+00;  0.0000000E+00;  1.0020651E+03;  1.0000000E-01;  1.7108652E+03;0;  0.0000000E+00;  0.0000000E+00;  0.0000000E+00;0; -1.4546543E-02;  4.0000000E+04;  0.0000000E+00;  0.0000000E+00;  4.0000000E+04;  0.0000000E+00;  4.0000000E+04; -1.0238873E-02;  0.0000000E+00; -4.3076710E-03;  2.8359341E+03;
  2.0000000E-02;  9.9999998E-03;  3.6000001E-01;1900;  0.0000000E+00;  0.0000000E+00;  0.0000000E+00;  1.0015381E+03;  1.0000000E-01;  1.2742356E+03;0;  0.0000000E+00;  0.0000000E+00;  0.0000000E+00;0; -1.0723379E-02;  4.0000000E+04;  0.0000000E+00;  0.0000000E+00;  4.0000000E+04;  0.0000000E+00;  4.0000000E+04; -7.0521035E-03;  0.0000000E+00; -3.6712755E-03;  2.5381780E+03;
  2.0000000E-02;  9.9999998E-03;  3.7000000E-01;1901;  0.0000000E+00;  0.0000000E+00;  0.0000000E+00;  1.0011110E+03;  1.0000000E-01;  9.2046777E+02;0;  0.0000000E+00;  0.0000000E+00;  0.0000000E+00;0; -7.6791043E-03;  4.0000000E+04;  0.0000000E+00;  0.0000000E+00;  4.0000000E+04;  0.0000000E+00;  4.0000000E+04; -4.6650073E-03;  0.0000000E+00; -3.0140970E-03;  2.1688535E+03;
  2.0000000E-02;  9.9999998E-03;  3.8000000E-01;1902;  0.0000000E+00;  0.0000000E+00;  0.0000000E+00;  1.0007795E+03;  1.0000000E-01;  6.4580890E+02;0;  0.0000000E+00;  0.0000000E+00;  0.0000000E+00;0; -5.3189509E-03;  4.0000000E+04;  0.0000000E+00;  0.0000000E+00;  4.0000000E+04;  0.0000000E+00;  4.0000000E+04; -2.9478166E-03;  0.0000000E+00; -2.3711345E-03;  1.7636261E+03;
  2.0000000E-02;  9.9999998E-03;  3.8999999E-01;1903;  0.0000000E+00;  0.0000000E+00;  0.0000000E+00;  1.0005197E+03;  1.0000000E-01;  4.3050635E+02;0;  0.0000000E+00;  0.0000000E+00;  0.0000000E+00;0; -3.5344101E-03;  4.0000000E+04;  0.0000000E+00;  0.0000000E+00;  4.0000000E+04;  0.0000000E+00;  4.0000000E+04; -1.7653354E-03;  0.0000000E+00; -1.7690746E-03;  1.3529457E+03;
  2.0000000E-02;  9.9999998E-03;  4.0000001E-01;1904;  0.0000000E+00;  0.0000000E+00;  0.0000000E+00;  1.0003297E+03;  1.0000000E-01;  2.7317746E+02;0;  0.0000000E+00;  0.0000000E+00;  0.0000000E+00;0; -2.2211322E-03;  4.0000000E+04;  0.0000000E+00;  0.0000000E+00;  4.0000000E+04;  0.0000000E+00;  4.0000000E+04; -9.9014537E-04;  0.0000000E+00; -1.2309868E-03;  9.6474902E+02;
  2.9999999E-02;  9.9999998E-03;  3.1000000E-01;1925;  0.0000000E+00;  0.0000000E+00;  0.0000000E+00;  1.0056631E+03;  1.0000000E-01;  4.6917192E+03;0;  0.0000000E+00;  0.0000000E+00;  0.0000000E+00;0; -3.9907839E-02;  4.0000000E+04;  0.0000000E+00;  0.0000000E+00;  4.0000000E+04;  0.0000000E+00;  4.0000000E+04; -3.4125857E-02;  0.0000000E+00; -5.7819826E-03;  2.2190334E+03;
  2.9999999E-02;  9.9999998E-03;  3.1999999E-01;1926;  0.0000000E+00;  0.0000000E+00;  0.0000000E+00;  1.0046931E+03;  1.0000000E-01;  3.8881863E+03;0;  0.0000000E+00;  0.0000000E+00;  0.0000000E+00;0; -3.2802422E-02;  4.0000000E+04;  0.0000000E+00;  0.0000000E+00;  4.0000000E+04;  0.0000000E+00;  4.0000000E+04; -2.6858423E-02;  0.0000000E+00; -5.9439982E-03;  2.8072383E+03;
  2.9999999E-02;  9.9999998E-03;  3.3000001E-01;1927;  0.0000000E+00;  0.0000000E+00;  0.0000000E+00;  1.0037872E+03;  1.0000000E-01;  3.1375903E+03;0;  0.0000000E+00;  0.0000000E+00;  0.0000000E+00;0; -2.6258320E-02;  4.0000000E+04;  0.0000000E+00;  0.0000000E+00;  4.0000000E+04;  0.0000000E+00;  4.0000000E+04; -2.0501986E-02;  0.0000000E+00; -5.7563330E-03;  3.0848936E+03;
  2.9999999E-02;  9.9999998E-03;  3.4000000E-01;1928;  0.0000000E+00;  0.0000000E+00;  0.0000000E+00;  1.0029745E+03;  1.0000000E-01;  2.4643254E+03;0;  0.0000000E+00;  0.0000000E+00;  0.0000000E+00;0; -2.0474294E-02;  4.0000000E+04;  0.0000000E+00;  0.0000000E+00;  4.0000000E+04;  0.0000000E+00;  4.0000000E+04; -1.5154651E-02;  0.0000000E+00; -5.3196433E-03;  3.1100259E+03;
  2.9999999E-02;  9.9999998E-03;  3.4999999E-01;1929;  0.0000000E+00;  0.0000000E+00;  0.0000000E+00;  1.0022780E+03;  1.0000000E-01;  1.8872552E+03;0;  0.0000000E+00;  0.0000000E+00;  0.0000000E+00;0; -1.5550636E-02;  4.0000000E+04;  0.0000000E+00;  0.0000000E+00;  4.0000000E+04;  0.0000000E+00;  4.0000000E+04; -1.0825287E-02;  0.0000000E+00; -4.7253487E-03;  2.9461792E+03;
  2.9999999E-02;  9.9999998E-03;  3.6000001E-01;1930;  0.0000000E+00;  0.0000000E+00;  0.0000000E+00;  1.0016967E+03;  1.0000000E-01;  1.4056886E+03;0;  0.0000000E+00;  0.0000000E+00;  0.0000000E+00;0; -1.1498332E-02;  4.0000000E+04;  0.0000000E+00;  0.0000000E+00;  4.0000000E+04;  0.0000000E+00;  4.0000000E+04; -7.4519645E-03;  0.0000000E+00; -4.0463670E-03;  2.6501582E+03;
  2.9999999E-02;  9.9999998E-03;  3.7000000E-01;1931;  0.0000000E+00;  0.0000000E+00;  0.0000000E+00;  1.0012305E+03;  1.0000000E-01;  1.0194280E+03;0;  0.0000000E+00;  0.0000000E+00;  0.0000000E+00;0; -8.2614832E-03;  4.0000000E+04;  0.0000000E+00;  0.0000000E+00;  4.0000000E+04;  0.0000000E+00;  4.0000000E+04; -4.9245940E-03;  0.0000000E+00; -3.3368894E-03;  2.2696516E+03;
  2.9999999E-02;  9.9999998E-03;  3.8000000E-01;1932;  0.0000000E+00;  0.0000000E+00;  0.0000000E+00;  1.0008635E+03;  1.0000000E-01;  7.1543658E+02;0;  0.0000000E+00;  0.0000000E+00;  0.0000000E+00;0; -5.7436079E-03;  4.0000000E+04;  0.0000000E+00;  0.0000000E+00;  4.0000000E+04;  0.0000000E+00;  4.0000000E+04; -3.1071347E-03;  0.0000000E+00; -2.6364729E-03;  1.8446246E+03;
  2.9999999E-02;  9.9999998E-03;  3.8999999E-01;1933;  0.0000000E+00;  0.0000000E+00;  0.0000000E+00;  1.0005793E+03;  1.0000000E-01;  4.7998642E+02;0;  0.0000000E+00;  0.0000000E+00;  0.0000000E+00;0; -3.8324776E-03;  4.0000000E+04;  0.0000000E+00;  0.0000000E+00;  4.0000000E+04;  0.0000000E+00;  4.0000000E+04; -1.8568808E-03;  0.0000000E+00; -1.9755969E-03;  1.4099225E+03;
  2.9999999E-02;  9.9999998E-03;  4.0000001E-01;1934;  0.0000000E+00;  0.0000000E+00;  0.0000000E+00;  1.0003665E+03;  1.0000000E-01;  3.0359634E+02;0;  0.0000000E+00;  0.0000000E+00;  0.0000000E+00;0; -2.4195388E-03;  4.0000000E+04;  0.0000000E+00;  0.0000000E+00;  4.0000000E+04;  0.0000000E+00;  4.0000000E+04; -1.0387517E-03;  0.0000000E+00; -1.3807870E-03;  9.9797369E+02;
  3.9999999E-02;  9.9999998E-03;  3.1000000E-01;1955;  0.0000000E+00;  0.0000000E+00;  0.0000000E+00;  1.0060883E+03;  1.0000000E-01;  5.0441045E+03;0;  0.0000000E+00;  0.0000000E+00;  0.0000000E+00;0; -4.1245360E-02;  4.0000000E+04;  0.0000000E+00;  0.0000000E+00;  4.0000000E+04;  0.0000000E+00;  4.0000000E+04; -3.5229154E-02;  0.0000000E+00; -6.0162065E-03;  2.1540825E+03;
  3.9999999E-02;  9.9999998E-03;  3.1999999E-01;1956;  0.0000000E+00;  0.0000000E+00;  0.0000000E+00;  1.0050525E+03;  1.0000000E-01;  4.1858569E+03;0;  0.0000000E+00;  0.0000000E+00;  0.0000000E+00;0; -3.4010556E-02;  4.0000000E+04;  0.0000000E+00;  0.0000000E+00;  4.0000000E+04;  0.0000000E+00;  4.0000000E+04; -2.7754476E-02;  0.0000000E+00; -6.2560807E-03;  2.8112808E+03;
  3.9999999E-02;  9.9999998E-03;  3.3000001E-01;1957;  0.0000000E+00;  0.0000000E+00;  0.0000000E+00;  1.0040817E+03;  1.0000000E-01;  3.3815339E+03;0;  0.0000000E+00;  0.0000000E+00;  0.0000000E+00;0; -2.7310804E-02;  4.0000000E+04;  0.0000000E+00;  0.0000000E+00;  4.0000000E+04;  0.0000000E+00;  4.0000000E+04; -2.1198969E-02;  0.0000000E+00; -6.1118351E-03;  3.1518423E+03;
  3.9999999E-02;  9.9999998E-03;  3.4000000E-01;1958;  0.0000000E+00;  0.0000000E+00;  0.0000000E+00;  1.0032140E+03;  1.0000000E-01;  2.6627395E+03;0;  0.0000000E+00;  0.0000000E+00;  0.0000000E+00;0; -2.1360027E-02;  4.0000000E+04;  0.0000000E+00;  0.0000000E+00;  4.0000000E+04;  0.0000000E+00;  4.0000000E+04; -1.5672155E-02;  0.0000000E+00; -5.6878724E-03;  3.2205378E+03;
  3.9999999E-02;  9.9999998E-03;  3.4999999E-01;1959;  0.0000000E+00;  0.0000000E+00;  0.0000000E+00;  1.0024627E+03;  1.0000000E-01;  2.0403374E+03;0;  0.0000000E+00;  0.0000000E+00;  0.0000000E+00;0; -1.6272606E-02;  4.0000000E+04;  0.0000000E+00;  0.0000000E+00;  4.0000000E+04;  0.0000000E+00;  4.0000000E+04; -1.1190497E-02;  0.0000000E+00; -5.0821085E-03;  3.0783640E+03;
  3.9999999E-02;  9.9999998E-03;  3.6000001E-01;1960;  0.0000000E+00;  0.0000000E+00;  0.0000000E+00;  1.0018388E+03;  1.0000000E-01;  1.5234137E+03;0;  0.0000000E+00;  0.0000000E+00;  0.0000000E+00;0; -1.2069467E-02;  4.0000000E+04;  0.0000000E+00;  0.0000000E+00;  4.0000000E+04;  0.0000000E+00;  4.0000000E+04; -7.6954369E-03;  0.0000000E+00; -4.3740296E-03;  2.7843059E+03;
  3.9999999E-02;  9.9999998E-03;  3.7000000E-01;1961;  0.0000000E+00;  0.0000000E+00;  0.0000000E+00;  1.0013326E+03;  1.0000000E-01;  1.1040675E+03;0;  0.0000000E+00;  0.0000000E+00;  0.0000000E+00;0; -8.6999908E-03;  4.0000000E+04;  0.0000000E+00;  0.0000000E+00;  4.0000000E+04;  0.0000000E+00;  4.0000000E+04; -5.0764787E-03;  0.0000000E+00; -3.6235123E-03;  2.3902288E+03;
  3.9999999E-02;  9.9999998E-03;  3.8000000E-01;1962;  0.0000000E+00;  0.0000000E+00;  0.0000000E+00;  1.0009319E+03;  1.0000000E-01;  7.7212628E+02;0;  0.0000000E+00;  0.0000000E+00;  0.0000000E+00;0; -6.0692597E-03;  4.0000000E+04;  0.0000000E+00;  0.0000000E+00;  4.0000000E+04;  0.0000000E+00;  4.0000000E+04; -3.1944013E-03;  0.0000000E+00; -2.8748582E-03;  1.9410181E+03;
  3.9999999E-02;  9.9999998E-03;  3.8999999E-01;1963;  0.0000000E+00;  0.0000000E+00;  0.0000000E+00;  1.0006307E+03;  1.0000000E-01;  5.2255310E+02;0;  0.0000000E+00;  0.0000000E+00;  0.0000000E+00;0; -4.0644919E-03;  4.0000000E+04;  0.0000000E+00;  0.0000000E+00;  4.0000000E+04;  0.0000000E+00;  4.0000000E+04; -1.9018498E-03;  0.0000000E+00; -2.1626423E-03;  1.4768199E+03;
  3.9999999E-02;  9.9999998E-03;  4.0000001E-01;1964;  0.0000000E+00;  0.0000000E+00;  0.0000000E+00;  1.0004038E+03;  1.0000000E-01;  3.3450906E+02;0;  0.0000000E+00;  0.0000000E+00;  0.0000000E+00;0; -2.5756920E-03;  4.0000000E+04;  0.0000000E+00;  0.0000000E+00;  4.0000000E+04;  0.0000000E+00;  4.0000000E+04; -1.0584940E-03;  0.0000000E+00; -1.5171980E-03;  1.0354503E+03;
  5.0000001E-02;  9.9999998E-03;  3.1000000E-01;1985;  0.0000000E+00;  0.0000000E+00;  0.0000000E+00;  1.0064408E+03;  1.0000000E-01;  5.3360464E+03;0;  0.0000000E+00;  0.0000000E+00;  0.0000000E+00;0; -4.1845456E-02;  4.0000000E+04;  0.0000000E+00;  0.0000000E+00;  4.0000000E+04;  0.0000000E+00;  4.0000000E+04; -3.5710733E-02;  0.0000000E+00; -6.1347215E-03;  2.1652007E+03;
  5.0000001E-02;  9.9999998E-03;  3.1999999E-01;1986;  0.0000000E+00;  0.0000000E+00;  0.0000000E+00;  1.0053547E+03;  1.0000000E-01;  4.4362202E+03;0;  0.0000000E+00;  0.0000000E+00;  0.0000000E+00;0; -3.4634754E-02;  4.0000000E+04;  0.0000000E+00;  0.0000000E+00;  4.0000000E+04;  0.0000000E+00;  4.0000000E+04; -2.8172664E-02;  0.0000000E+00; -6.4620879E-03;  2.8895396E+03;
  5.0000001E-02;  9.9999998E-03;  3.3000001E-01;1987;  0.0000000E+00;  0.0000000E+00;  0.0000000E+00;  1.0043300E+03;  1.0000000E-01;  3.5873552E+03;0;  0.0000000E+00;  0.0000000E+00;  0.0000000E+00;0; -2.7910445E-02;  4.0000000E+04;  0.0000000E+00;  0.0000000E+00;  4.0000000E+04;  0.0000000E+00;  4.0000000E+04; -2.1536469E-02;  0.0000000E+00; -6.3739764E-03;  3.2911660E+03;
  5.0000001E-02;  9.9999998E-03;  3.4000000E-01;1988;  0.0000000E+00;  0.0000000E+00;  0.0000000E+00;  1.0034095E+03;  1.0000000E-01;  2.8247102E+03;0;  0.0000000E+00;  0.0000000E+00;  0.0000000E+00;0; -2.1901611E-02;  4.0000000E+04;  0.0000000E+00;  0.0000000E+00;  4.0000000E+04;  0.0000000E+00;  4.0000000E+04; -1.5924698E-02;  0.0000000E+00; -5.9769144E-03;  3.4009158E+03;
  5.0000001E-02;  9.9999998E-03;  3.4999999E-01;1989;  0.0000000E+00;  0.0000000E+00;  0.0000000E+00;  1.0026163E+03;  1.0000000E-01;  2.1675437E+03;0;  0.0000000E+00;  0.0000000E+00;  0.0000000E+00;0; -1.6738256E-02;  4.0000000E+04;  0.0000000E+00;  0.0000000E+00;  4.0000000E+04;  0.0000000E+00;  4.0000000E+04; -1.1364374E-02;  0.0000000E+00; -5.3738821E-03;  3.2764644E+03;
  5.0000001E-02;  9.9999998E-03;  3.6000001E-01;1990;  0.0000000E+00;  0.0000000E+00;  0.0000000E+00;  1.0019529E+03;  1.0000000E-01;  1.6179296E+03;0;  0.0000000E+00;  0.0000000E+00;  0.0000000E+00;0; -1.2453684E-02;  4.0000000E+04;  0.0000000E+00;  0.0000000E+00;  4.0000000E+04;  0.0000000E+00;  4.0000000E+04; -7.8036976E-03;  0.0000000E+00; -4.6499860E-03;  2.9786655E+03;
  5.0000001E-02;  9.9999998E-03;  3.7000000E-01;1991;  0.0000000E+00;  0.0000000E+00;  0.0000000E+00;  1.0014161E+03;  1.0000000E-01;  1.1732014E+03;0;  0.0000000E+00;  0.0000000E+00;  0.0000000E+00;0; -9.0054320E-03;  4.0000000E+04;  0.0000000E+00;  0.0000000E+00;  4.0000000E+04;  0.0000000E+00;  4.0000000E+04; -5.1352144E-03;  0.0000000E+00; -3.8702178E-03;  2.5635745E+03;
  5.0000001E-02;  9.9999998E-03;  3.8000000E-01;1992;  0.0000000E+00;  0.0000000E+00;  0.0000000E+00;  1.0009941E+03;  1.0000000E-01;  8.2358167E+02;0;  0.0000000E+00;  0.0000000E+00;  0.0000000E+00;0; -6.3028391E-03;  4.0000000E+04;  0.0000000E+00;  0.0000000E+00;  4.0000000E+04;  0.0000000E+00;  4.0000000E+04; -3.2195183E-03;  0.0000000E+00; -3.0833208E-03;  2.0812930E+03;
  5.0000001E-02;  9.9999998E-03;  3.8999999E-01;1993;  0.0000000E+00;  0.0000000E+00;  0.0000000E+00;  1.0006694E+03;  1.0000000E-01;  5.5465100E+02;0;  0.0000000E+00;  0.0000000E+00;  0.0000000E+00;0; -4.2348942E-03;  4.0000000E+04;  0.0000000E+00;  0.0000000E+00;  4.0000000E+04;  0.0000000E+00;  4.0000000E+04; -1.9069831E-03;  0.0000000E+00; -2.3279109E-03;  1.5777491E+03;
  5.0000001E-02;  9.9999998E-03;  4.0000001E-01;1994;  0.0000000E+00;  0.0000000E+00;  0.0000000E+00;  1.0004230E+03;  1.0000000E-01;  3.5040985E+02;0;  0.0000000E+00;  0.0000000E+00;  0.0000000E+00;0; -2.6923043E-03;  4.0000000E+04;  0.0000000E+00;  0.0000000E+00;  4.0000000E+04;  0.0000000E+00;  4.0000000E+04; -1.0538782E-03;  0.0000000E+00; -1.6384261E-03;  1.0967941E+03;
  5.9999999E-02;  9.9999998E-03;  3.1000000E-01;2015;  0.0000000E+00;  0.0000000E+00;  0.0000000E+00;  1.0067286E+03;  1.0000000E-01;  5.5745586E+03;0;  0.0000000E+00;  0.0000000E+00;  0.0000000E+00;0; -4.1890550E-02;  4.0000000E+04;  0.0000000E+00;  0.0000000E+00;  4.0000000E+04;  0.0000000E+00;  4.0000000E+04; -3.5740886E-02;  0.0000000E+00; -6.1496655E-03;  2.2818767E+03;
  5.9999999E-02;  9.9999998E-03;  3.1999999E-01;2016;  0.0000000E+00;  0.0000000E+00;  0.0000000E+00;  1.0056000E+03;  1.0000000E-01;  4.6394736E+03;0;  0.0000000E+00;  0.0000000E+00;  0.0000000E+00;0; -3.4826860E-02;  4.0000000E+04;  0.0000000E+00;  0.0000000E+00;  4.0000000E+04;  0.0000000E+00;  4.0000000E+04; -2.8256455E-02;  0.0000000E+00; -6.5704058E-03;  3.0862471E+03;
  5.9999999E-02;  9.9999998E-03;  3.3000001E-01;2017;  0.0000000E+00;  0.0000000E+00;  0.0000000E+00;  1.0045347E+03;  1.0000000E-01;  3.7569307E+03;0;  0.0000000E+00;  0.0000000E+00;  0.0000000E+00;0; -2.8178543E-02;  4.0000000E+04;  0.0000000E+00;  0.0000000E+00;  4.0000000E+04;  0.0000000E+00;  4.0000000E+04; -2.1631574E-02;  0.0000000E+00; -6.5469695E-03;  3.5490061E+03;
  5.9999999E-02;  9.9999998E-03;  3.4000000E-01;2018;  0.0000000E+00;  0.0000000E+00;  0.0000000E+00;  1.0035732E+03;  1.0000000E-01;  2.9604102E+03;0;  0.0000000E+00;  0.0000000E+00;  0.0000000E+00;0; -2.2192201E-02;  4.0000000E+04;  0.0000000E+00;  0.0000000E+00;  4.0000000E+04;  0.0000000E+00;  4.0000000E+04; -1.6004629E-02;  0.0000000E+00; -6.1875707E-03;  3.6937891E+03;
  5.9999999E-02;  9.9999998E-03;  3.4999999E-01;2019;  0.0000000E+00;  0.0000000E+00;  0.0000000E+00;  1.0027390E+03;  1.0000000E-01;  2.2691704E+03;0;  0.0000000E+00;  0.0000000E+00;  0.0000000E+00;0; -1.7016066E-02;  4.0000000E+04;  0.0000000E+00;  0.0000000E+00;  4.0000000E+04;  0.0000000E+00;  4.0000000E+04; -1.1416779E-02;  0.0000000E+00; -5.5992878E-03;  3.5780769E+03;
  5.9999999E-02;  9.9999998E-03;  3.6000001E-01;2020;  0.0000000E+00;  0.0000000E+00;  0.0000000E+00;  1.0020468E+03;  1.0000000E-01;  1.6957545E+03;0;  0.0000000E+00;  0.0000000E+00;  0.0000000E+00;0; -1.2699214E-02;  4.0000000E+04;  0.0000000E+00;  0.0000000E+00;  4.0000000E+04;  0.0000000E+00;  4.0000000E+04; -7.8273006E-03;  0.0000000E+00; -4.8719132E-03;  3.2659202E+03;
  5.9999999E-02;  9.9999998E-03;  3.7000000E-01;2021;  0.0000000E+00;  0.0000000E+00;  0.0000000E+00;  1.0014830E+03;  1.0000000E-01;  1.2287059E+03;0;  0.0000000E+00;  0.0000000E+00;  0.0000000E+00;0; -9.2104711E-03;  4.0000000E+04;  0.0000000E+00;  0.0000000E+00;  4.0000000E+04;  0.0000000E+00;  4.0000000E+04; -5.1356792E-03;  0.0000000E+00; -4.0747919E-03;  2.8183101E+03;
  5.9999999E-02;  9.9999998E-03;  3.8000000E-01;2022;  0.0000000E+00;  0.0000000E+00;  0.0000000E+00;  1.0010449E+03;  1.0000000E-01;  8.6565454E+02;0;  0.0000000E+00;  0.0000000E+00;  0.0000000E+00;0; -6.4659351E-03;  4.0000000E+04;  0.0000000E+00;  0.0000000E+00;  4.0000000E+04;  0.0000000E+00;  4.0000000E+04; -3.2054728E-03;  0.0000000E+00; -3.2604625E-03;  2.2907830E+03;
  5.9999999E-02;  9.9999998E-03;  3.8999999E-01;2023;  0.0000000E+00;  0.0000000E+00;  0.0000000E+00;  1.0006991E+03;  1.0000000E-01;  5.7914410E+02;0;  0.0000000E+00;  0.0000000E+00;  0.0000000E+00;0; -4.3578288E-03;  4.0000000E+04;  0.0000000E+00;  0.0000000E+00;  4.0000000E+04;  0.0000000E+00;  4.0000000E+04; -1.8867992E-03;  0.0000000E+00; -2.4710298E-03;  1.7350334E+03;
  5.9999999E-02;  9.9999998E-03;  4.0000001E-01;2024;  0.0000000E+00;  0.0000000E+00;  0.0000000E+00;  1.0004445E+03;  1.0000000E-01;  3.6828589E+02;0;  0.0000000E+00;  0.0000000E+00;  0.0000000E+00;0; -2.7785515E-03;  4.0000000E+04;  0.0000000E+00;  0.0000000E+00;  4.0000000E+04;  0.0000000E+00;  4.0000000E+04; -1.0338644E-03;  0.0000000E+00; -1.7446870E-03;  1.2011503E+03;
  7.0000000E-02;  9.9999998E-03;  3.1000000E-01;2045;  0.0000000E+00;  0.0000000E+00;  0.0000000E+00;  1.0069709E+03;  1.0000000E-01;  5.7752441E+03;0;  0.0000000E+00;  0.0000000E+00;  0.0000000E+00;0; -4.1637070E-02;  4.0000000E+04;  0.0000000E+00;  0.0000000E+00;  4.0000000E+04;  0.0000000E+00;  4.0000000E+04; -3.5563041E-02;  0.0000000E+00; -6.0740290E-03;  2.4686072E+03;
  7.0000000E-02;  9.9999998E-03;  3.1999999E-01;2046;  0.0000000E+00;  0.0000000E+00;  0.0000000E+00;  1.0058100E+03;  1.0000000E-01;  4.8134937E+03;0;  0.0000000E+00;  0.0000000E+00;  0.0000000E+00;0; -3.4800895E-02;  4.0000000E+04;  0.0000000E+00;  0.0000000E+00;  4.0000000E+04;  0.0000000E+00;  4.0000000E+04; -2.8210381E-02;  0.0000000E+00; -6.5905135E-03;  3.3991411E+03;
  7.0000000E-02;  9.9999998E-03;  3.3000001E-01;2047;  0.0000000E+00;  0.0000000E+00;  0.0000000E+00;  1.0047056E+03;  1.0000000E-01;  3.8984578E+03;0;  0.0000000E+00;  0.0000000E+00;  0.0000000E+00;0; -2.8288623E-02;  4.0000000E+04;  0.0000000E+00;  0.0000000E+00;  4.0000000E+04;  0.0000000E+00;  4.0000000E+04; -2.1651976E-02;  0.0000000E+00; -6.6366470E-03;  3.9390674E+03;
  7.0000000E-02;  9.9999998E-03;  3.4000000E-01;2048;  0.0000000E+00;  0.0000000E+00;  0.0000000E+00;  1.0037067E+03;  1.0000000E-01;  3.0709255E+03;0;  0.0000000E+00;  0.0000000E+00;  0.0000000E+00;0; -2.2367861E-02;  4.0000000E+04;  0.0000000E+00;  0.0000000E+00;  4.0000000E+04;  0.0000000E+00;  4.0000000E+04; -1.6045419E-02;  0.0000000E+00; -6.3224426E-03;  4.1189321E+03;
  7.0000000E-02;  9.9999998E-03;  3.4999999E-01;2049;  0.0000000E+00;  0.0000000E+00;  0.0000000E+00;  1.0028418E+03;  1.0000000E-01;  2.3544026E+03;0;  0.0000000E+00;  0.0000000E+00;  0.0000000E+00;0; -1.7209226E-02;  4.0000000E+04;  0.0000000E+00;  0.0000000E+00;  4.0000000E+04;  0.0000000E+00;  4.0000000E+04; -1.1450743E-02;  0.0000000E+00; -5.7584830E-03;  4.0035483E+03;
  7.0000000E-02;  9.9999998E-03;  3.6000001E-01;2050;  0.0000000E+00;  0.0000000E+00;  0.0000000E+00;  1.0021193E+03;  1.0000000E-01;  1.7558022E+03;0;  0.0000000E+00;  0.0000000E+00;  0.0000000E+00;0; -1.2881402E-02;  4.0000000E+04;  0.0000000E+00;  0.0000000E+00;  4.0000000E+04;  0.0000000E+00;  4.0000000E+04; -7.8428863E-03;  0.0000000E+00; -5.0385157E-03;  3.6650276E+03;
  7.0000000E-02;  9.9999998E-03;  3.7000000E-01;2051;  0.0000000E+00;  0.0000000E+00;  0.0000000E+00;  1.0015336E+03;  1.0000000E-01;  1.2705813E+03;0;  0.0000000E+00;  0.0000000E+00;  0.0000000E+00;0; -9.3676997E-03;  4.0000000E+04;  0.0000000E+00;  0.0000000E+00;  4.0000000E+04;  0.0000000E+00;  4.0000000E+04; -5.1322374E-03;  0.0000000E+00; -4.2354623E-03;  3.1717219E+03;
  7.0000000E-02;  9.9999998E-03;  3.8000000E-01;2052;  0.0000000E+00;  0.0000000E+00;  0.0000000E+00;  1.0010753E+03;  1.0000000E-01;  8.9083899E+02;0;  0.0000000E+00;  0.0000000E+00;  0.0000000E+00;0; -6.5933121E-03;  4.0000000E+04;  0.0000000E+00;  0.0000000E+00;  4.0000000E+04;  0.0000000E+00;  4.0000000E+04; -3.1884375E-03;  0.0000000E+00; -3.4048744E-03;  2.5854287E+03;
  7.0000000E-02;  9.9999998E-03;  3.8999999E-01;2053;  0.0000000E+00;  0.0000000E+00;  0.0000000E+00;  1.0007253E+03;  1.0000000E-01;  6.0097064E+02;0;  0.0000000E+00;  0.0000000E+00;  0.0000000E+00;0; -4.4552917E-03;  4.0000000E+04;  0.0000000E+00;  0.0000000E+00;  4.0000000E+04;  0.0000000E+00;  4.0000000E+04; -1.8636880E-03;  0.0000000E+00; -2.5916037E-03;  1.9635564E+03;
  7.0000000E-02;  9.9999998E-03;  4.0000001E-01;2054;  0.0000000E+00;  0.0000000E+00;  0.0000000E+00;  1.0004587E+03;  1.0000000E-01;  3.8003864E+02;0;  0.0000000E+00;  0.0000000E+00;  0.0000000E+00;0; -2.8481092E-03;  4.0000000E+04;  0.0000000E+00;  0.0000000E+00;  4.0000000E+04;  0.0000000E+00;  4.0000000E+04; -1.0113346E-03;  0.0000000E+00; -1.8367748E-03;  1.3622908E+03;
  7.9999998E-02;  9.9999998E-03;  3.1000000E-01;2075;  0.0000000E+00;  0.0000000E+00;  0.0000000E+00;  1.0071908E+03;  1.0000000E-01;  5.9574609E+03;0;  0.0000000E+00;  0.0000000E+00;  0.0000000E+00;0; -4.1371100E-02;  4.0000000E+04;  0.0000000E+00;  0.0000000E+00;  4.0000000E+04;  0.0000000E+00;  4.0000000E+04; -3.5450850E-02;  0.0000000E+00; -5.9202504E-03;  2.7133345E+03;
  7.9999998E-02;  9.9999998E-03;  3.1999999E-01;2076;  0.0000000E+00;  0.0000000E+00;  0.0000000E+00;  1.0059999E+03;  1.0000000E-01;  4.9708223E+03;0;  0.0000000E+00;  0.0000000E+00;  0.0000000E+00;0; -3.4796197E-02;  4.0000000E+04;  0.0000000E+00;  0.0000000E+00;  4.0000000E+04;  0.0000000E+00;  4.0000000E+04; -2.8264245E-02;  0.0000000E+00; -6.5319515E-03;  3.8096145E+03;
  7.9999998E-02;  9.9999998E-03;  3.3000001E-01;2077;  0.0000000E+00;  0.0000000E+00;  0.0000000E+00;  1.0048615E+03;  1.0000000E-01;  4.0276392E+03;0;  0.0000000E+00;  0.0000000E+00;  0.0000000E+00;0; -2.8436281E-02;  4.0000000E+04;  0.0000000E+00;  0.0000000E+00;  4.0000000E+04;  0.0000000E+00;  4.0000000E+04; -2.1786440E-02;  0.0000000E+00; -6.6498411E-03;  4.4473184E+03;
  7.9999998E-02;  9.9999998E-03;  3.4000000E-01;2078;  0.0000000E+00;  0.0000000E+00;  0.0000000E+00;  1.0038293E+03;  1.0000000E-01;  3.1724534E+03;0;  0.0000000E+00;  0.0000000E+00;  0.0000000E+00;0; -2.2584565E-02;  4.0000000E+04;  0.0000000E+00;  0.0000000E+00;  4.0000000E+04;  0.0000000E+00;  4.0000000E+04; -1.6198702E-02;  0.0000000E+00; -6.3858633E-03;  4.6683931E+03;
  7.9999998E-02;  9.9999998E-03;  3.4999999E-01;2079;  0.0000000E+00;  0.0000000E+00;  0.0000000E+00;  1.0029303E+03;  1.0000000E-01;  2.4276843E+03;0;  0.0000000E+00;  0.0000000E+00;  0.0000000E+00;0; -1.7438576E-02;  4.0000000E+04;  0.0000000E+00;  0.0000000E+00;  4.0000000E+04;  0.0000000E+00;  4.0000000E+04; -1.1584919E-02;  0.0000000E+00; -5.8536557E-03;  4.5496655E+03;
  7.9999998E-02;  9.9999998E-03;  3.6000001E-01;2080;  0.0000000E+00;  0.0000000E+00;  0.0000000E+00;  1.0021830E+03;  1.0000000E-01;  1.8085415E+03;0;  0.0000000E+00;  0.0000000E+00;  0.0000000E+00;0; -1.3090380E-02;  4.0000000E+04;  0.0000000E+00;  0.0000000E+00;  4.0000000E+04;  0.0000000E+00;  4.0000000E+04; -7.9402374E-03;  0.0000000E+00; -5.1501431E-03;  4.1757539E+03;
  7.9999998E-02;  9.9999998E-03;  3.7000000E-01;2081;  0.0000000E+00;  0.0000000E+00;  0.0000000E+00;  1.0015787E+03;  1.0000000E-01;  1.3079136E+03;0;  0.0000000E+00;  0.0000000E+00;  0.0000000E+00;0; -9.5411325E-03;  4.0000000E+04;  0.0000000E+00;  0.0000000E+00;  4.0000000E+04;  0.0000000E+00;  4.0000000E+04; -5.1899292E-03;  0.0000000E+00; -4.3512033E-03;  3.6253308E+03;
  7.9999998E-02;  9.9999998E-03;  3.8000000E-01;2082;  0.0000000E+00;  0.0000000E+00;  0.0000000E+00;  1.0011011E+03;  1.0000000E-01;  9.1217175E+02;0;  0.0000000E+00;  0.0000000E+00;  0.0000000E+00;0; -6.7279022E-03;  4.0000000E+04;  0.0000000E+00;  0.0000000E+00;  4.0000000E+04;  0.0000000E+00;  4.0000000E+04; -3.2130186E-03;  0.0000000E+00; -3.5148836E-03;  2.9678362E+03;
  7.9999998E-02;  9.9999998E-03;  3.8999999E-01;2083;  0.0000000E+00;  0.0000000E+00;  0.0000000E+00;  1.0007377E+03;  1.0000000E-01;  6.1114319E+02;0;  0.0000000E+00;  0.0000000E+00;  0.0000000E+00;0; -4.5542121E-03;  4.0000000E+04;  0.0000000E+00;  0.0000000E+00;  4.0000000E+04;  0.0000000E+00;  4.0000000E+04; -1.8660245E-03;  0.0000000E+00; -2.6881879E-03;  2.2668657E+03;
  7.9999998E-02;  9.9999998E-03;  4.0000001E-01;2084;  0.0000000E+00;  0.0000000E+00;  0.0000000E+00;  1.0004702E+03;  1.0000000E-01;  3.8951984E+02;0;  0.0000000E+00;  0.0000000E+00;  0.0000000E+00;0; -2.9168958E-03;  4.0000000E+04;  0.0000000E+00;  0.0000000E+00;  4.0000000E+04;  0.0000000E+00;  4.0000000E+04; -1.0026005E-03;  0.0000000E+00; -1.9142954E-03;  1.5847581E+03;
  9.0000004E-02;  9.9999998E-03;  3.1000000E-01;2105;  0.0000000E+00;  0.0000000E+00;  0.0000000E+00;  1.0074177E+03;  1.0000000E-01;  6.1454062E+03;0;  0.0000000E+00;  0.0000000E+00;  0.0000000E+00;0; -4.1364856E-02;  4.0000000E+04;  0.0000000E+00;  0.0000000E+00;  4.0000000E+04;  0.0000000E+00;  4.0000000E+04; -3.5664219E-02;  0.0000000E+00; -5.7006367E-03;  3.4018867E+03;
  9.0000004E-02;  9.9999998E-03;  3.1999999E-01;2106;  0.0000000E+00;  0.0000000E+00;  0.0000000E+00;  1.0061972E+03;  1.0000000E-01;  5.1342744E+03;0;  0.0000000E+00;  0.0000000E+00;  0.0000000E+00;0; -3.5042588E-02;  4.0000000E+04;  0.0000000E+00;  0.0000000E+00;  4.0000000E+04;  0.0000000E+00;  4.0000000E+04; -2.8637677E-02;  0.0000000E+00; -6.4049093E-03;  4.4610889E+03;
  9.0000004E-02;  9.9999998E-03;  3.3000001E-01;2107;  0.0000000E+00;  0.0000000E+00;  0.0000000E+00;  1.0050235E+03;  1.0000000E-01;  4.1618574E+03;0;  0.0000000E+00;  0.0000000E+00;  0.0000000E+00;0; -2.8812349E-02;  4.0000000E+04;  0.0000000E+00;  0.0000000E+00;  4.0000000E+04;  0.0000000E+00;  4.0000000E+04; -2.2217305E-02;  0.0000000E+00; -6.5950430E-03;  5.1132656E+03;
  9.0000004E-02;  9.9999998E-03;  3.4000000E-01;2108;  0.0000000E+00;  0.0000000E+00;  0.0000000E+00;  1.0039535E+03;  1.0000000E-01;  3.2753643E+03;0;  0.0000000E+00;  0.0000000E+00;  0.0000000E+00;0; -2.2997528E-02;  4.0000000E+04;  0.0000000E+00;  0.0000000E+00;  4.0000000E+04;  0.0000000E+00;  4.0000000E+04; -1.6612863E-02;  0.0000000E+00; -6.3846651E-03;  5.3392466E+03;
  9.0000004E-02;  9.9999998E-03;  3.4999999E-01;2109;  0.0000000E+00;  0.0000000E+00;  0.0000000E+00;  1.0030214E+03;  1.0000000E-01;  2.5032378E+03;0;  0.0000000E+00;  0.0000000E+00;  0.0000000E+00;0; -1.7826650E-02;  4.0000000E+04;  0.0000000E+00;  0.0000000E+00;  4.0000000E+04;  0.0000000E+00;  4.0000000E+04; -1.1936934E-02;  0.0000000E+00; -5.8897166E-03;  5.2002227E+03;
  9.0000004E-02;  9.9999998E-03;  3.6000001E-01;2110;  0.0000000E+00;  0.0000000E+00;  0.0000000E+00;  1.0022430E+03;  1.0000000E-01;  1.8583179E+03;0;  0.0000000E+00;  0.0000000E+00;  0.0000000E+00;0; -1.3419366E-02;  4.0000000E+04;  0.0000000E+00;  0.0000000E+00;  4.0000000E+04;  0.0000000E+00;  4.0000000E+04; -8.2097054E-03;  0.0000000E+00; -5.2096611E-03;  4.7804985E+03;
  9.0000004E-02;  9.9999998E-03;  3.7000000E-01;2111;  0.0000000E+00;  0.0000000E+00;  0.0000000E+00;  1.0016137E+03;  1.0000000E-01;  1.3369498E+03;0;  0.0000000E+00;  0.0000000E+00;  0.0000000E+00;0; -9.7985901E-03;  4.0000000E+04;  0.0000000E+00;  0.0000000E+00;  4.0000000E+04;  0.0000000E+00;  4.0000000E+04; -5.3757355E-03;  0.0000000E+00; -4.4228546E-03;  4.1637368E+03;
  9.0000004E-02;  9.9999998E-03;  3.8000000E-01;2112;  0.0000000E+00;  0.0000000E+00;  0.0000000E+00;  1.0011232E+03;  1.0000000E-01;  9.3054156E+02;0;  0.0000000E+00;  0.0000000E+00;  0.0000000E+00;0; -6.9162929E-03;  4.0000000E+04;  0.0000000E+00;  0.0000000E+00;  4.0000000E+04;  0.0000000E+00;  4.0000000E+04; -3.3266840E-03;  0.0000000E+00; -3.5896087E-03;  3.4256277E+03;
  9.0000004E-02;  9.9999998E-03;  3.8999999E-01;2113;  0.0000000E+00;  0.0000000E+00;  0.0000000E+00;  1.0007477E+03;  1.0000000E-01;  6.1953802E+02;0;  0.0000000E+00;  0.0000000E+00;  0.0000000E+00;0; -4.6842461E-03;  4.0000000E+04;  0.0000000E+00;  0.0000000E+00;  4.0000000E+04;  0.0000000E+00;  4.0000000E+04; -1.9254184E-03;  0.0000000E+00; -2.7588280E-03;  2.6358303E+03;
  9.0000004E-02;  9.9999998E-03;  4.0000001E-01;2114;  0.0000000E+00;  0.0000000E+00;  0.0000000E+00;  1.0004740E+03;  1.0000000E-01;  3.9268027E+02;0;  0.0000000E+00;  0.0000000E+00;  0.0000000E+00;0; -3.0020499E-03;  4.0000000E+04;  0.0000000E+00;  0.0000000E+00;  4.0000000E+04;  0.0000000E+00;  4.0000000E+04; -1.0268156E-03;  0.0000000E+00; -1.9752344E-03;  1.8625981E+03;
  1.0000000E-01;  9.9999998E-03;  3.1000000E-01;2135;  0.0000000E+00;  0.0000000E+00;  0.0000000E+00;  1.0076779E+03;  1.0000000E-01;  6.3610054E+03;0;  0.0000000E+00;  0.0000000E+00;  0.0000000E+00;0; -4.1843668E-02;  4.0000000E+04;  0.0000000E+00;  0.0000000E+00;  4.0000000E+04;  0.0000000E+00;  4.0000000E+04; -3.6414068E-02;  0.0000000E+00; -5.4295999E-03;  5.5993970E+03;
  1.0000000E-01;  9.9999998E-03;  3.1999999E-01;2136;  0.0000000E+00;  0.0000000E+00;  0.0000000E+00;  1.0064236E+03;  1.0000000E-01;  5.3218247E+03;0;  0.0000000E+00;  0.0000000E+00;  0.0000000E+00;0; -3.5734914E-02;  4.0000000E+04;  0.0000000E+00;  0.0000000E+00;  4.0000000E+04;  0.0000000E+00;  4.0000000E+04; -2.9512638E-02;  0.0000000E+00; -6.2222769E-03;  5.9871191E+03;
  1.0000000E-01;  9.9999998E-03;  3.3000001E-01;2137;  0.0000000E+00;  0.0000000E+00;  0.0000000E+00;  1.0052111E+03;  1.0000000E-01;  4.3173101E+03;0;  0.0000000E+00;  0.0000000E+00;  0.0000000E+00;0; -2.9583376E-02;  4.0000000E+04;  0.0000000E+00;  0.0000000E+00;  4.0000000E+04;  0.0000000E+00;  4.0000000E+04; -2.3099389E-02;  0.0000000E+00; -6.4839879E-03;  6.2433989E+03;
  1.0000000E-01;  9.9999998E-03;  3.4000000E-01;2138;  0.0000000E+00;  0.0000000E+00;  0.0000000E+00;  1.0040985E+03;  1.0000000E-01;  3.3955583E+03;0;  0.0000000E+00;  0.0000000E+00;  0.0000000E+00;0; -2.3745667E-02;  4.0000000E+04;  0.0000000E+00;  0.0000000E+00;  4.0000000E+04;  0.0000000E+00;  4.0000000E+04; -1.7416680E-02;  0.0000000E+00; -6.3289860E-03;  6.2479351E+03;
  1.0000000E-01;  9.9999998E-03;  3.4999999E-01;2139;  0.0000000E+00;  0.0000000E+00;  0.0000000E+00;  1.0031295E+03;  1.0000000E-01;  2.5927168E+03;0;  0.0000000E+00;  0.0000000E+00;  0.0000000E+00;0; -1.8485921E-02;  4.0000000E+04;  0.0000000E+00;  0.0000000E+00;  4.0000000E+04;  0.0000000E+00;  4.0000000E+04; -1.2611130E-02;  0.0000000E+00; -5.8747903E-03;  5.9770464E+03;
  1.0000000E-01;  9.9999998E-03;  3.6000001E-01;2140;  0.0000000E+00;  0.0000000E+00;  0.0000000E+00;  1.0023136E+03;  1.0000000E-01;  1.9167853E+03;0;  0.0000000E+00;  0.0000000E+00;  0.0000000E+00;0; -1.3956420E-02;  4.0000000E+04;  0.0000000E+00;  0.0000000E+00;  4.0000000E+04;  0.0000000E+00;  4.0000000E+04; -8.7335194E-03;  0.0000000E+00; -5.2229008E-03;  5.4617373E+03;
  1.0000000E-01;  9.9999998E-03;  3.7000000E-01;2141;  0.0000000E+00;  0.0000000E+00;  0.0000000E+00;  1.0016581E+03;  1.0000000E-01;  1.3736896E+03;0;  0.0000000E+00;  0.0000000E+00;  0.0000000E+00;0; -1.0206308E-02;  4.0000000E+04;  0.0000000E+00;  0.0000000E+00;  4.0000000E+04;  0.0000000E+00;  4.0000000E+04; -5.7524256E-03;  0.0000000E+00; -4.4538830E-03;  4.7583872E+03;
  1.0000000E-01;  9.9999998E-03;  3.8000000E-01;2142;  0.0000000E+00;  0.0000000E+00;  0.0000000E+00;  1.0011459E+03;  1.0000000E-01;  9.4940527E+02;0;  0.0000000E+00;  0.0000000E+00;  0.0000000E+00;0; -7.2057578E-03;  4.0000000E+04;  0.0000000E+00;  0.0000000E+00;  4.0000000E+04;  0.0000000E+00;  4.0000000E+04; -3.5755537E-03;  0.0000000E+00; -3.6302041E-03;  3.9320039E+03;
  1.0000000E-01;  9.9999998E-03;  3.8999999E-01;2143;  0.0000000E+00;  0.0000000E+00;  0.0000000E+00;  1.0007573E+03;  1.0000000E-01;  6.2743903E+02;0;  0.0000000E+00;  0.0000000E+00;  0.0000000E+00;0; -4.8766593E-03;  4.0000000E+04;  0.0000000E+00;  0.0000000E+00;  4.0000000E+04;  0.0000000E+00;  4.0000000E+04; -2.0740719E-03;  0.0000000E+00; -2.8025873E-03;  3.0498889E+03;
  1.0000000E-01;  9.9999998E-03;  4.0000001E-01;2144;  0.0000000E+00;  0.0000000E+00;  0.0000000E+00;  1.0004736E+03;  1.0000000E-01;  3.9238397E+02;0;  0.0000000E+00;  0.0000000E+00;  0.0000000E+00;0; -3.1219912E-03;  4.0000000E+04;  0.0000000E+00;  0.0000000E+00;  4.0000000E+04;  0.0000000E+00;  4.0000000E+04; -1.1048019E-03;  0.0000000E+00; -2.0171893E-03;  2.1820461E+03;
  1.1000000E-01;  9.9999998E-03;  3.1000000E-01;2165;  0.0000000E+00;  0.0000000E+00;  0.0000000E+00;  1.0079967E+03;  1.0000000E-01;  6.6250967E+03;0;  0.0000000E+00;  0.0000000E+00;  0.0000000E+00;0; -4.2964771E-02;  4.0000000E+04;  0.0000000E+00;  0.0000000E+00;  4.0000000E+04;  0.0000000E+00;  4.0000000E+04; -3.7837729E-02;  0.0000000E+00; -5.1270407E-03;  1.0265518E+04;
  1.1000000E-01;  9.9999998E-03;  3.1999999E-01;2166;  0.0000000E+00;  0.0000000E+00;  0.0000000E+00;  1.0067057E+03;  1.0000000E-01;  5.5554971E+03;0;  0.0000000E+00;  0.0000000E+00;  0.0000000E+00;0; -3.7016761E-02;  4.0000000E+04;  0.0000000E+00;  0.0000000E+00;  4.0000000E+04;  0.0000000E+00;  4.0000000E+04; -3.1014329E-02;  0.0000000E+00; -6.0024327E-03;  9.4665361E+03;
  1.1000000E-01;  9.9999998E-03;  3.3000001E-01;2167;  0.0000000E+00;  0.0000000E+00;  0.0000000E+00;  1.0054465E+03;  1.0000000E-01;  4.5123662E+03;0;  0.0000000E+00;  0.0000000E+00;  0.0000000E+00;0; -3.0877782E-02;  4.0000000E+04;  0.0000000E+00;  0.0000000E+00;  4.0000000E+04;  0.0000000E+00;  4.0000000E+04; -2.4544610E-02;  0.0000000E+00; -6.3331728E-03;  8.6285859E+03;
  1.1000000E-01;  9.9999998E-03;  3.4000000E-01;2168;  0.0000000E+00;  0.0000000E+00;  0.0000000E+00;  1.0042846E+03;  1.0000000E-01;  3.5497268E+03;0;  0.0000000E+00;  0.0000000E+00;  0.0000000E+00;0; -2.4940694E-02;  4.0000000E+04;  0.0000000E+00;  0.0000000E+00;  4.0000000E+04;  0.0000000E+00;  4.0000000E+04; -1.8707760E-02;  0.0000000E+00; -6.2329336E-03;  7.8281948E+03;
  1.1000000E-01;  9.9999998E-03;  3.4999999E-01;2169;  0.0000000E+00;  0.0000000E+00;  0.0000000E+00;  1.0032653E+03;  1.0000000E-01;  2.7052075E+03;0;  0.0000000E+00;  0.0000000E+00;  0.0000000E+00;0; -1.9510396E-02;  4.0000000E+04;  0.0000000E+00;  0.0000000E+00;  4.0000000E+04;  0.0000000E+00;  4.0000000E+04; -1.3690104E-02;  0.0000000E+00; -5.8202911E-03;  7.0512417E+03;
  1.1000000E-01;  9.9999998E-03;  3.6000001E-01;2170;  0.0000000E+00;  0.0000000E+00;  0.0000000E+00;  1.0024086E+03;  1.0000000E-01;  1.9954991E+03;0;  0.0000000E+00;  0.0000000E+00;  0.0000000E+00;0; -1.4778038E-02;  4.0000000E+04;  0.0000000E+00;  0.0000000E+00;  4.0000000E+04;  0.0000000E+00;  4.0000000E+04; -9.5794564E-03;  0.0000000E+00; -5.1985825E-03;  6.2467651E+03;
  1.1000000E-01;  9.9999998E-03;  3.7000000E-01;2171;  0.0000000E+00;  0.0000000E+00;  0.0000000E+00;  1.0017167E+03;  1.0000000E-01;  1.4222808E+03;0;  0.0000000E+00;  0.0000000E+00;  0.0000000E+00;0; -1.0824253E-02;  4.0000000E+04;  0.0000000E+00;  0.0000000E+00;  4.0000000E+04;  0.0000000E+00;  4.0000000E+04; -6.3738446E-03;  0.0000000E+00; -4.4504083E-03;  5.3796689E+03;
  1.1000000E-01;  9.9999998E-03;  3.8000000E-01;2172;  0.0000000E+00;  0.0000000E+00;  0.0000000E+00;  1.0011773E+03;  1.0000000E-01;  9.7537982E+02;0;  0.0000000E+00;  0.0000000E+00;  0.0000000E+00;0; -7.6411581E-03;  4.0000000E+04;  0.0000000E+00;  0.0000000E+00;  4.0000000E+04;  0.0000000E+00;  4.0000000E+04; -4.0009441E-03;  0.0000000E+00; -3.6402137E-03;  4.4485620E+03;
  1.1000000E-01;  9.9999998E-03;  3.8999999E-01;2173;  0.0000000E+00;  0.0000000E+00;  0.0000000E+00;  1.0007728E+03;  1.0000000E-01;  6.4017944E+02;0;  0.0000000E+00;  0.0000000E+00;  0.0000000E+00;0; -5.1628882E-03;  4.0000000E+04;  0.0000000E+00;  0.0000000E+00;  4.0000000E+04;  0.0000000E+00;  4.0000000E+04; -2.3423501E-03;  0.0000000E+00; -2.8205381E-03;  3.4818782E+03;
  1.1000000E-01;  9.9999998E-03;  4.0000001E-01;2174;  0.0000000E+00;  0.0000000E+00;  0.0000000E+00;  1.0004775E+03;  1.0000000E-01;  3.9554437E+02;0;  0.0000000E+00;  0.0000000E+00;  0.0000000E+00;0; -3.2965117E-03;  4.0000000E+04;  0.0000000E+00;  0.0000000E+00;  4.0000000E+04;  0.0000000E+00;  4.0000000E+04; -1.2575811E-03;  0.0000000E+00; -2.0389308E-03;  2.5305369E+03;
  1.2000000E-01;  9.9999998E-03;  3.1000000E-01;2195;  0.0000000E+00;  0.0000000E+00;  0.0000000E+00;  1.0083967E+03;  1.0000000E-01;  6.9564453E+03;0;  0.0000000E+00;  0.0000000E+00;  0.0000000E+00;0; -4.4803947E-02;  4.0000000E+04;  0.0000000E+00;  0.0000000E+00;  4.0000000E+04;  0.0000000E+00;  4.0000000E+04; -3.9982550E-02;  0.0000000E+00; -4.8213988E-03;  1.8026693E+04;
  1.2000000E-01;  9.9999998E-03;  3.1999999E-01;2196;  0.0000000E+00;  0.0000000E+00;  0.0000000E+00;  1.0070643E+03;  1.0000000E-01;  5.8525752E+03;0;  0.0000000E+00;  0.0000000E+00;  0.0000000E+00;0; -3.8967356E-02;  4.0000000E+04;  0.0000000E+00;  0.0000000E+00;  4.0000000E+04;  0.0000000E+00;  4.0000000E+04; -3.3196140E-02;  0.0000000E+00; -5.7712155E-03;  1.5849411E+04;
  1.2000000E-01;  9.9999998E-03;  3.3000001E-01;2197;  0.0000000E+00;  0.0000000E+00;  0.0000000E+00;  1.0057517E+03;  1.0000000E-01;  4.7651987E+03;0;  0.0000000E+00;  0.0000000E+00;  0.0000000E+00;0; -3.2774132E-02;  4.0000000E+04;  0.0000000E+00;  0.0000000E+00;  4.0000000E+04;  0.0000000E+00;  4.0000000E+04; -2.6609384E-02;  0.0000000E+00; -6.1647473E-03;  1.3327517E+04;
  1.2000000E-01;  9.9999998E-03;  3.4000000E-01;2198;  0.0000000E+00;  0.0000000E+00;  0.0000000E+00;  1.0045311E+03;  1.0000000E-01;  3.7539680E+03;0;  0.0000000E+00;  0.0000000E+00;  0.0000000E+00;0; -2.6656413E-02;  4.0000000E+04;  0.0000000E+00;  0.0000000E+00;  4.0000000E+04;  0.0000000E+00;  4.0000000E+04; -2.0541782E-02;  0.0000000E+00; -6.1146319E-03;  1.0918700E+04;
  1.2000000E-01;  9.9999998E-03;  3.4999999E-01;2199;  0.0000000E+00;  0.0000000E+00;  0.0000000E+00;  1.0034516E+03;  1.0000000E-01;  2.8595735E+03;0;  0.0000000E+00;  0.0000000E+00;  0.0000000E+00;0; -2.0966412E-02;  4.0000000E+04;  0.0000000E+00;  0.0000000E+00;  4.0000000E+04;  0.0000000E+00;  4.0000000E+04; -1.5225791E-02;  0.0000000E+00; -5.7406211E-03;  8.8909023E+03;
  1.2000000E-01;  9.9999998E-03;  3.6000001E-01;2200;  0.0000000E+00;  0.0000000E+00;  0.0000000E+00;  1.0025385E+03;  1.0000000E-01;  2.1030515E+03;0;  0.0000000E+00;  0.0000000E+00;  0.0000000E+00;0; -1.5941329E-02;  4.0000000E+04;  0.0000000E+00;  0.0000000E+00;  4.0000000E+04;  0.0000000E+00;  4.0000000E+04; -1.0793504E-02;  0.0000000E+00; -5.1478259E-03;  7.2932305E+03;
  1.2000000E-01;  9.9999998E-03;  3.7000000E-01;2201;  0.0000000E+00;  0.0000000E+00;  0.0000000E+00;  1.0017993E+03;  1.0000000E-01;  1.4906245E+03;0;  0.0000000E+00;  0.0000000E+00;  0.0000000E+00;0; -1.1699755E-02;  4.0000000E+04;  0.0000000E+00;  0.0000000E+00;  4.0000000E+04;  0.0000000E+00;  4.0000000E+04; -7.2790915E-03;  0.0000000E+00; -4.4206628E-03;  6.0219966E+03;
  1.2000000E-01;  9.9999998E-03;  3.8000000E-01;2202;  0.0000000E+00;  0.0000000E+00;  0.0000000E+00;  1.0012224E+03;  1.0000000E-01;  1.0127121E+03;0;  0.0000000E+00;  0.0000000E+00;  0.0000000E+00;0; -8.2601765E-03;  4.0000000E+04;  0.0000000E+00;  0.0000000E+00;  4.0000000E+04;  0.0000000E+00;  4.0000000E+04; -4.6348730E-03;  0.0000000E+00; -3.6253033E-03;  4.9299678E+03;
  1.2000000E-01;  9.9999998E-03;  3.8999999E-01;2203;  0.0000000E+00;  0.0000000E+00;  0.0000000E+00;  1.0007959E+03;  1.0000000E-01;  6.5933936E+02;0;  0.0000000E+00;  0.0000000E+00;  0.0000000E+00;0; -5.5714007E-03;  4.0000000E+04;  0.0000000E+00;  0.0000000E+00;  4.0000000E+04;  0.0000000E+00;  4.0000000E+04; -2.7555423E-03;  0.0000000E+00; -2.8158585E-03;  3.9091123E+03;
  1.2000000E-01;  9.9999998E-03;  4.0000001E-01;2204;  0.0000000E+00;  0.0000000E+00;  0.0000000E+00;  1.0004858E+03;  1.0000000E-01;  4.0245776E+02;0;  0.0000000E+00;  0.0000000E+00;  0.0000000E+00;0; -3.5454435E-03;  4.0000000E+04;  0.0000000E+00;  0.0000000E+00;  4.0000000E+04;  0.0000000E+00;  4.0000000E+04; -1.5042013E-03;  0.0000000E+00; -2.0412423E-03;  2.9203430E+03;
  1.3000000E-01;  9.9999998E-03;  3.1000000E-01;2225;  0.0000000E+00;  0.0000000E+00;  0.0000000E+00;  1.0088939E+03;  1.0000000E-01;  7.3683843E+03;0;  0.0000000E+00;  0.0000000E+00;  0.0000000E+00;0; -4.7342200E-02;  4.0000000E+04;  0.0000000E+00;  0.0000000E+00;  4.0000000E+04;  0.0000000E+00;  4.0000000E+04; -4.2791966E-02;  0.0000000E+00; -4.5502326E-03;  2.9484361E+04;
  1.3000000E-01;  9.9999998E-03;  3.1999999E-01;2226;  0.0000000E+00;  0.0000000E+00;  0.0000000E+00;  1.0075187E+03;  1.0000000E-01;  6.2290586E+03;0;  0.0000000E+00;  0.0000000E+00;  0.0000000E+00;0; -4.1585483E-02;  4.0000000E+04;  0.0000000E+00;  0.0000000E+00;  4.0000000E+04;  0.0000000E+00;  4.0000000E+04; -3.6024168E-02;  0.0000000E+00; -5.5613164E-03;  2.5881615E+04;
  1.3000000E-01;  9.9999998E-03;  3.3000001E-01;2227;  0.0000000E+00;  0.0000000E+00;  0.0000000E+00;  1.0061469E+03;  1.0000000E-01;  5.0925967E+03;0;  0.0000000E+00;  0.0000000E+00;  0.0000000E+00;0; -3.5283826E-02;  4.0000000E+04;  0.0000000E+00;  0.0000000E+00;  4.0000000E+04;  0.0000000E+00;  4.0000000E+04; -2.9278494E-02;  0.0000000E+00; -6.0053337E-03;  2.1263783E+04;
  1.3000000E-01;  9.9999998E-03;  3.4000000E-01;2228;  0.0000000E+00;  0.0000000E+00;  0.0000000E+00;  1.0048550E+03;  1.0000000E-01;  4.0223059E+03;0;  0.0000000E+00;  0.0000000E+00;  0.0000000E+00;0; -2.8912205E-02;  4.0000000E+04;  0.0000000E+00;  0.0000000E+00;  4.0000000E+04;  0.0000000E+00;  4.0000000E+04; -2.2917144E-02;  0.0000000E+00; -5.9950612E-03;  1.6499207E+04;
  1.3000000E-01;  9.9999998E-03;  3.4999999E-01;2229;  0.0000000E+00;  0.0000000E+00;  0.0000000E+00;  1.0037004E+03;  1.0000000E-01;  3.0657898E+03;0;  0.0000000E+00;  0.0000000E+00;  0.0000000E+00;0; -2.2877498E-02;  4.0000000E+04;  0.0000000E+00;  0.0000000E+00;  4.0000000E+04;  0.0000000E+00;  4.0000000E+04; -1.7225385E-02;  0.0000000E+00; -5.6521124E-03;  1.2273611E+04;
  1.3000000E-01;  9.9999998E-03;  3.6000001E-01;2230;  0.0000000E+00;  0.0000000E+00;  0.0000000E+00;  1.0027186E+03;  1.0000000E-01;  2.2522820E+03;0;  0.0000000E+00;  0.0000000E+00;  0.0000000E+00;0; -1.7471107E-02;  4.0000000E+04;  0.0000000E+00;  0.0000000E+00;  4.0000000E+04;  0.0000000E+00;  4.0000000E+04; -1.2387810E-02;  0.0000000E+00; -5.0832960E-03;  8.9919424E+03;
  1.3000000E-01;  9.9999998E-03;  3.7000000E-01;2231;  0.0000000E+00;  0.0000000E+00;  0.0000000E+00;  1.0019177E+03;  1.0000000E-01;  1.5887946E+03;0;  0.0000000E+00;  0.0000000E+00;  0.0000000E+00;0; -1.2856896E-02;  4.0000000E+04;  0.0000000E+00;  0.0000000E+00;  4.0000000E+04;  0.0000000E+00;  4.0000000E+04; -8.4825316E-03;  0.0000000E+00; -4.3743644E-03;  6.7486074E+03;
  1.3000000E-01;  9.9999998E-03;  3.8000000E-01;2232;  0.0000000E+00;  0.0000000E+00;  0.0000000E+00;  1.0012982E+03;  1.0000000E-01;  1.0755251E+03;0;  0.0000000E+00;  0.0000000E+00;  0.0000000E+00;0; -9.0849902E-03;  4.0000000E+04;  0.0000000E+00;  0.0000000E+00;  4.0000000E+04;  0.0000000E+00;  4.0000000E+04; -5.4923012E-03;  0.0000000E+00; -3.5926895E-03;  5.3295923E+03;
  1.3000000E-01;  9.9999998E-03;  3.8999999E-01;2233;  0.0000000E+00;  0.0000000E+00;  0.0000000E+00;  1.0008337E+03;  1.0000000E-01;  6.9074591E+02;0;  0.0000000E+00;  0.0000000E+00;  0.0000000E+00;0; -6.1217127E-03;  4.0000000E+04;  0.0000000E+00;  0.0000000E+00;  4.0000000E+04;  0.0000000E+00;  4.0000000E+04; -3.3281522E-03;  0.0000000E+00; -2.7935605E-03;  4.3383613E+03;
  1.3000000E-01;  9.9999998E-03;  4.0000001E-01;2234;  0.0000000E+00;  0.0000000E+00;  0.0000000E+00;  1.0005056E+03;  1.0000000E-01;  4.1885236E+02;0;  0.0000000E+00;  0.0000000E+00;  0.0000000E+00;0; -3.8848757E-03;  4.0000000E+04;  0.0000000E+00;  0.0000000E+00;  4.0000000E+04;  0.0000000E+00;  4.0000000E+04; -1.8578613E-03;  0.0000000E+00; -2.0270143E-03;  3.4424438E+03;
  1.4000000E-01;  9.9999998E-03;  3.1000000E-01;2255;  0.0000000E+00;  0.0000000E+00;  0.0000000E+00;  1.0094941E+03;  1.0000000E-01;  7.8656543E+03;0;  0.0000000E+00;  0.0000000E+00;  0.0000000E+00;0; -5.0446674E-02;  4.0000000E+04;  0.0000000E+00;  0.0000000E+00;  4.0000000E+04;  0.0000000E+00;  4.0000000E+04; -4.6090458E-02;  0.0000000E+00; -4.3562166E-03;  4.5170344E+04;
  1.4000000E-01;  9.9999998E-03;  3.1999999E-01;2256;  0.0000000E+00;  0.0000000E+00;  0.0000000E+00;  1.0080776E+03;  1.0000000E-01;  6.6921562E+03;0;  0.0000000E+00;  0.0000000E+00;  0.0000000E+00;0; -4.4763938E-02;  4.0000000E+04;  0.0000000E+00;  0.0000000E+00;  4.0000000E+04;  0.0000000E+00;  4.0000000E+04; -3.9356038E-02;  0.0000000E+00; -5.4079005E-03;  4.0247910E+04;
  1.4000000E-01;  9.9999998E-03;  3.3000001E-01;2257;  0.0000000E+00;  0.0000000E+00;  0.0000000E+00;  1.0066400E+03;  1.0000000E-01;  5.5010791E+03;0;  0.0000000E+00;  0.0000000E+00;  0.0000000E+00;0; -3.8322285E-02;  4.0000000E+04;  0.0000000E+00;  0.0000000E+00;  4.0000000E+04;  0.0000000E+00;  4.0000000E+04; -3.2439973E-02;  0.0000000E+00; -5.8823097E-03;  3.3213848E+04;
  1.4000000E-01;  9.9999998E-03;  3.4000000E-01;2258;  0.0000000E+00;  0.0000000E+00;  0.0000000E+00;  1.0052673E+03;  1.0000000E-01;  4.3639258E+03;0;  0.0000000E+00;  0.0000000E+00;  0.0000000E+00;0; -3.1644389E-02;  4.0000000E+04;  0.0000000E+00;  0.0000000E+00;  4.0000000E+04;  0.0000000E+00;  4.0000000E+04; -2.5748936E-02;  0.0000000E+00; -5.8954516E-03;  2.5413439E+04;
  1.4000000E-01;  9.9999998E-03;  3.4999999E-01;2259;  0.0000000E+00;  0.0000000E+00;  0.0000000E+00;  1.0040241E+03;  1.0000000E-01;  3.3339304E+03;0;  0.0000000E+00;  0.0000000E+00;  0.0000000E+00;0; -2.5198374E-02;  4.0000000E+04;  0.0000000E+00;  0.0000000E+00;  4.0000000E+04;  0.0000000E+00;  4.0000000E+04; -1.9626938E-02;  0.0000000E+00; -5.5714352E-03;  1.8035266E+04;
  1.4000000E-01;  9.9999998E-03;  3.6000001E-01;2260;  0.0000000E+00;  0.0000000E+00;  0.0000000E+00;  1.0029573E+03;  1.0000000E-01;  2.4500049E+03;0;  0.0000000E+00;  0.0000000E+00;  0.0000000E+00;0; -1.9337710E-02;  4.0000000E+04;  0.0000000E+00;  0.0000000E+00;  4.0000000E+04;  0.0000000E+00;  4.0000000E+04; -1.4319462E-02;  0.0000000E+00; -5.0182478E-03;  1.1954877E+04;
  1.4000000E-01;  9.9999998E-03;  3.7000000E-01;2261;  0.0000000E+00;  0.0000000E+00;  0.0000000E+00;  1.0020832E+03;  1.0000000E-01;  1.7258771E+03;0;  0.0000000E+00;  0.0000000E+00;  0.0000000E+00;0; -1.4278747E-02;  4.0000000E+04;  0.0000000E+00;  0.0000000E+00;  4.0000000E+04;  0.0000000E+00;  4.0000000E+04; -9.9566085E-03;  0.0000000E+00; -4.3221381E-03;  7.7476748E+03;
  1.4000000E-01;  9.9999998E-03;  3.8000000E-01;2262;  0.0000000E+00;  0.0000000E+00;  0.0000000E+00;  1.0013997E+03;  1.0000000E-01;  1.1596709E+03;0;  0.0000000E+00;  0.0000000E+00;  0.0000000E+00;0; -1.0108667E-02;  4.0000000E+04;  0.0000000E+00;  0.0000000E+00;  4.0000000E+04;  0.0000000E+00;  4.0000000E+04; -6.5578115E-03;  0.0000000E+00; -3.5508559E-03;  5.6051157E+03;
  1.4000000E-01;  9.9999998E-03;  3.8999999E-01;2263;  0.0000000E+00;  0.0000000E+00;  0.0000000E+00;  1.0008942E+03;  1.0000000E-01;  7.4081854E+02;0;  0.0000000E+00;  0.0000000E+00;  0.0000000E+00;0; -6.8143187E-03;  4.0000000E+04;  0.0000000E+00;  0.0000000E+00;  4.0000000E+04;  0.0000000E+00;  4.0000000E+04; -4.0540546E-03;  0.0000000E+00; -2.7602639E-03;  4.8560942E+03;
  1.4000000E-01;  9.9999998E-03;  4.0000001E-01;2264;  0.0000000E+00;  0.0000000E+00;  0.0000000E+00;  1.0005322E+03;  1.0000000E-01;  4.4097519E+02;0;  0.0000000E+00;  0.0000000E+00;  0.0000000E+00;0; -4.3201726E-03;  4.0000000E+04;  0.0000000E+00;  0.0000000E+00;  4.0000000E+04;  0.0000000E+00;  4.0000000E+04; -2.3189804E-03;  0.0000000E+00; -2.0011922E-03;  4.3476582E+03;
  1.5000001E-01;  9.9999998E-03;  3.1000000E-01;2285;  0.0000000E+00;  0.0000000E+00;  0.0000000E+00;  1.0101877E+03;  1.0000000E-01;  8.4402549E+03;0;  0.0000000E+00;  0.0000000E+00;  0.0000000E+00;0; -5.3844079E-02;  4.0000000E+04;  0.0000000E+00;  0.0000000E+00;  4.0000000E+04;  0.0000000E+00;  4.0000000E+04; -4.9566358E-02;  0.0000000E+00; -4.2777210E-03;  6.5389328E+04;
  1.5000001E-01;  9.9999998E-03;  3.1999999E-01;2286;  0.0000000E+00;  0.0000000E+00;  0.0000000E+00;  1.0087355E+03;  1.0000000E-01;  7.2371284E+03;0;  0.0000000E+00;  0.0000000E+00;  0.0000000E+00;0; -4.8252508E-02;  4.0000000E+04;  0.0000000E+00;  0.0000000E+00;  4.0000000E+04;  0.0000000E+00;  4.0000000E+04; -4.2912140E-02;  0.0000000E+00; -5.3403666E-03;  5.9473582E+04;
  1.5000001E-01;  9.9999998E-03;  3.3000001E-01;2287;  0.0000000E+00;  0.0000000E+00;  0.0000000E+00;  1.0072320E+03;  1.0000000E-01;  5.9915342E+03;0;  0.0000000E+00;  0.0000000E+00;  0.0000000E+00;0; -4.1668296E-02;  4.0000000E+04;  0.0000000E+00;  0.0000000E+00;  4.0000000E+04;  0.0000000E+00;  4.0000000E+04; -3.5849910E-02;  0.0000000E+00; -5.8183861E-03;  4.9804246E+04;
  1.5000001E-01;  9.9999998E-03;  3.4000000E-01;2288;  0.0000000E+00;  0.0000000E+00;  0.0000000E+00;  1.0057693E+03;  1.0000000E-01;  4.7797168E+03;0;  0.0000000E+00;  0.0000000E+00;  0.0000000E+00;0; -3.4665592E-02;  4.0000000E+04;  0.0000000E+00;  0.0000000E+00;  4.0000000E+04;  0.0000000E+00;  4.0000000E+04; -2.8831381E-02;  0.0000000E+00; -5.8342107E-03;  3.8303875E+04;
  1.5000001E-01;  9.9999998E-03;  3.4999999E-01;2289;  0.0000000E+00;  0.0000000E+00;  0.0000000E+00;  1.0044291E+03;  1.0000000E-01;  3.6694270E+03;0;  0.0000000E+00;  0.0000000E+00;  0.0000000E+00;0; -2.7777750E-02;  4.0000000E+04;  0.0000000E+00;  0.0000000E+00;  4.0000000E+04;  0.0000000E+00;  4.0000000E+04; -2.2263695E-02;  0.0000000E+00; -5.5140564E-03;  2.6811973E+04;
  1.5000001E-01;  9.9999998E-03;  3.6000001E-01;2290;  0.0000000E+00;  0.0000000E+00;  0.0000000E+00;  1.0032592E+03;  1.0000000E-01;  2.7001707E+03;0;  0.0000000E+00;  0.0000000E+00;  0.0000000E+00;0; -2.1425102E-02;  4.0000000E+04;  0.0000000E+00;  0.0000000E+00;  4.0000000E+04;  0.0000000E+00;  4.0000000E+04; -1.6459202E-02;  0.0000000E+00; -4.9658995E-03;  1.6779527E+04;
  1.5000001E-01;  9.9999998E-03;  3.7000000E-01;2291;  0.0000000E+00;  0.0000000E+00;  0.0000000E+00;  1.0022963E+03;  1.0000000E-01;  1.9024647E+03;0;  0.0000000E+00;  0.0000000E+00;  0.0000000E+00;0; -1.5881486E-02;  4.0000000E+04;  0.0000000E+00;  0.0000000E+00;  4.0000000E+04;  0.0000000E+00;  4.0000000E+04; -1.1606158E-02;  0.0000000E+00; -4.2753289E-03;  9.3360771E+03;
  1.5000001E-01;  9.9999998E-03;  3.8000000E-01;2292;  0.0000000E+00;  0.0000000E+00;  0.0000000E+00;  1.0015389E+03;  1.0000000E-01;  1.2750256E+03;0;  0.0000000E+00;  0.0000000E+00;  0.0000000E+00;0; -1.1275239E-02;  4.0000000E+04;  0.0000000E+00;  0.0000000E+00;  4.0000000E+04;  0.0000000E+00;  4.0000000E+04; -7.7656591E-03;  0.0000000E+00; -3.5095799E-03;  5.7226074E+03;
  1.5000001E-01;  9.9999998E-03;  3.8999999E-01;2293;  0.0000000E+00;  0.0000000E+00;  0.0000000E+00;  1.0009734E+03;  1.0000000E-01;  8.0639697E+02;0;  0.0000000E+00;  0.0000000E+00;  0.0000000E+00;0; -7.6160198E-03;  4.0000000E+04;  0.0000000E+00;  0.0000000E+00;  4.0000000E+04;  0.0000000E+00;  4.0000000E+04; -4.8916331E-03;  0.0000000E+00; -2.7243870E-03;  5.6973110E+03;
  1.5000001E-01;  9.9999998E-03;  4.0000001E-01;2294;  0.0000000E+00;  0.0000000E+00;  0.0000000E+00;  1.0005794E+03;  1.0000000E-01;  4.7998642E+02;0;  0.0000000E+00;  0.0000000E+00;  0.0000000E+00;0; -4.8355255E-03;  4.0000000E+04;  0.0000000E+00;  0.0000000E+00;  4.0000000E+04;  0.0000000E+00;  4.0000000E+04; -2.8647534E-03;  0.0000000E+00; -1.9707724E-03;  6.0572651E+03;
  1.6000000E-01;  9.9999998E-03;  3.1000000E-01;2315;  0.0000000E+00;  0.0000000E+00;  0.0000000E+00;  1.0109493E+03;  1.0000000E-01;  9.0713486E+03;0;  0.0000000E+00;  0.0000000E+00;  0.0000000E+00;0; -5.7083219E-02;  4.0000000E+04;  0.0000000E+00;  0.0000000E+00;  4.0000000E+04;  0.0000000E+00;  4.0000000E+04; -5.2746464E-02;  0.0000000E+00; -4.3367562E-03;  9.0006438E+04;
  1.6000000E-01;  9.9999998E-03;  3.1999999E-01;2316;  0.0000000E+00;  0.0000000E+00;  0.0000000E+00;  1.0094687E+03;  1.0000000E-01;  7.8446177E+03;0;  0.0000000E+00;  0.0000000E+00;  0.0000000E+00;0; -5.1614076E-02;  4.0000000E+04;  0.0000000E+00;  0.0000000E+00;  4.0000000E+04;  0.0000000E+00;  4.0000000E+04; -4.6239730E-02;  0.0000000E+00; -5.3743455E-03;  8.3640984E+04;
  1.6000000E-01;  9.9999998E-03;  3.3000001E-01;2317;  0.0000000E+00;  0.0000000E+00;  0.0000000E+00;  1.0079005E+03;  1.0000000E-01;  6.5453950E+03;0;  0.0000000E+00;  0.0000000E+00;  0.0000000E+00;0; -4.4918608E-02;  4.0000000E+04;  0.0000000E+00;  0.0000000E+00;  4.0000000E+04;  0.0000000E+00;  4.0000000E+04; -3.9090928E-02;  0.0000000E+00; -5.8276788E-03;  7.1242812E+04;
  1.6000000E-01;  9.9999998E-03;  3.4000000E-01;2318;  0.0000000E+00;  0.0000000E+00;  0.0000000E+00;  1.0063441E+03;  1.0000000E-01;  5.2559502E+03;0;  0.0000000E+00;  0.0000000E+00;  0.0000000E+00;0; -3.7621889E-02;  4.0000000E+04;  0.0000000E+00;  0.0000000E+00;  4.0000000E+04;  0.0000000E+00;  4.0000000E+04; -3.1796433E-02;  0.0000000E+00; -5.8254562E-03;  5.5425008E+04;
  1.6000000E-01;  9.9999998E-03;  3.4999999E-01;2319;  0.0000000E+00;  0.0000000E+00;  0.0000000E+00;  1.0048923E+03;  1.0000000E-01;  4.0531199E+03;0;  0.0000000E+00;  0.0000000E+00;  0.0000000E+00;0; -3.0319899E-02;  4.0000000E+04;  0.0000000E+00;  0.0000000E+00;  4.0000000E+04;  0.0000000E+00;  4.0000000E+04; -2.4825912E-02;  0.0000000E+00; -5.4939869E-03;  3.8864555E+04;
  1.6000000E-01;  9.9999998E-03;  3.6000001E-01;2320;  0.0000000E+00;  0.0000000E+00;  0.0000000E+00;  1.0036155E+03;  1.0000000E-01;  2.9953721E+03;0;  0.0000000E+00;  0.0000000E+00;  0.0000000E+00;0; -2.3498148E-02;  4.0000000E+04;  0.0000000E+00;  0.0000000E+00;  4.0000000E+04;  0.0000000E+00;  4.0000000E+04; -1.8558480E-02;  0.0000000E+00; -4.9396679E-03;  2.3757260E+04;
  1.6000000E-01;  9.9999998E-03;  3.7000000E-01;2321;  0.0000000E+00;  0.0000000E+00;  0.0000000E+00;  1.0025486E+03;  1.0000000E-01;  2.1115452E+03;0;  0.0000000E+00;  0.0000000E+00;  0.0000000E+00;0; -1.7487807E-02;  4.0000000E+04;  0.0000000E+00;  0.0000000E+00;  4.0000000E+04;  0.0000000E+00;  4.0000000E+04; -1.3241307E-02;  0.0000000E+00; -4.2464999E-03;  1.1807906E+04;
  1.6000000E-01;  9.9999998E-03;  3.8000000E-01;2322;  0.0000000E+00;  0.0000000E+00;  0.0000000E+00;  1.0017087E+03;  1.0000000E-01;  1.4155649E+03;0;  0.0000000E+00;  0.0000000E+00;  0.0000000E+00;0; -1.2458876E-02;  4.0000000E+04;  0.0000000E+00;  0.0000000E+00;  4.0000000E+04;  0.0000000E+00;  4.0000000E+04; -8.9784674E-03;  0.0000000E+00; -3.4804081E-03;  5.6590132E+03;
  1.6000000E-01;  9.9999998E-03;  3.8999999E-01;2323;  0.0000000E+00;  0.0000000E+00;  0.0000000E+00;  1.0010807E+03;  1.0000000E-01;  8.9538208E+02;0;  0.0000000E+00;  0.0000000E+00;  0.0000000E+00;0; -8.4442310E-03;  4.0000000E+04;  0.0000000E+00;  0.0000000E+00;  4.0000000E+04;  0.0000000E+00;  4.0000000E+04; -5.7479772E-03;  0.0000000E+00; -2.6962538E-03;  7.2342837E+03;
  1.6000000E-01;  9.9999998E-03;  4.0000001E-01;2324;  0.0000000E+00;  0.0000000E+00;  0.0000000E+00;  1.0006404E+03;  1.0000000E-01;  5.3055292E+02;0;  0.0000000E+00;  0.0000000E+00;  0.0000000E+00;0; -5.3822510E-03;  4.0000000E+04;  0.0000000E+00;  0.0000000E+00;  4.0000000E+04;  0.0000000E+00;  4.0000000E+04; -3.4376292E-03;  0.0000000E+00; -1.9446216E-03;  8.9969717E+03;
  1.7000000E-01;  9.9999998E-03;  3.1000000E-01;2345;  0.0000000E+00;  0.0000000E+00;  0.0000000E+00;  1.0117308E+03;  1.0000000E-01;  9.7187373E+03;0;  0.0000000E+00;  0.0000000E+00;  0.0000000E+00;0; -5.9504263E-02;  4.0000000E+04;  0.0000000E+00;  0.0000000E+00;  4.0000000E+04;  0.0000000E+00;  4.0000000E+04; -5.4970331E-02;  0.0000000E+00; -4.5339321E-03;  1.1812330E+05;
  1.7000000E-01;  9.9999998E-03;  3.1999999E-01;2346;  0.0000000E+00;  0.0000000E+00;  0.0000000E+00;  1.0102299E+03;  1.0000000E-01;  8.4752168E+03;0;  0.0000000E+00;  0.0000000E+00;  0.0000000E+00;0; -5.4199390E-02;  4.0000000E+04;  0.0000000E+00;  0.0000000E+00;  4.0000000E+04;  0.0000000E+00;  4.0000000E+04; -4.8687477E-02;  0.0000000E+00; -5.5119125E-03;  1.1194219E+05;
  1.7000000E-01;  9.9999998E-03;  3.3000001E-01;2347;  0.0000000E+00;  0.0000000E+00;  0.0000000E+00;  1.0085983E+03;  1.0000000E-01;  7.1235518E+03;0;  0.0000000E+00;  0.0000000E+00;  0.0000000E+00;0; -4.7468480E-02;  4.0000000E+04;  0.0000000E+00;  0.0000000E+00;  4.0000000E+04;  0.0000000E+00;  4.0000000E+04; -4.1550495E-02;  0.0000000E+00; -5.9179850E-03;  9.6832281E+04;
  1.7000000E-01;  9.9999998E-03;  3.4000000E-01;2348;  0.0000000E+00;  0.0000000E+00;  0.0000000E+00;  1.0069495E+03;  1.0000000E-01;  5.7575654E+03;0;  0.0000000E+00;  0.0000000E+00;  0.0000000E+00;0; -3.9977282E-02;  4.0000000E+04;  0.0000000E+00;  0.0000000E+00;  4.0000000E+04;  0.0000000E+00;  4.0000000E+04; -3.4096077E-02;  0.0000000E+00; -5.8812066E-03;  7.6219625E+04;
  1.7000000E-01;  9.9999998E-03;  3.4999999E-01;2349;  0.0000000E+00;  0.0000000E+00;  0.0000000E+00;  1.0053857E+03;  1.0000000E-01;  4.4618984E+03;0;  0.0000000E+00;  0.0000000E+00;  0.0000000E+00;0; -3.2372564E-02;  4.0000000E+04;  0.0000000E+00;  0.0000000E+00;  4.0000000E+04;  0.0000000E+00;  4.0000000E+04; -2.6847268E-02;  0.0000000E+00; -5.5252980E-03;  5.3794629E+04;
  1.7000000E-01;  9.9999998E-03;  3.6000001E-01;2350;  0.0000000E+00;  0.0000000E+00;  0.0000000E+00;  1.0039957E+03;  1.0000000E-01;  3.3103262E+03;0;  0.0000000E+00;  0.0000000E+00;  0.0000000E+00;0; -2.5194112E-02;  4.0000000E+04;  0.0000000E+00;  0.0000000E+00;  4.0000000E+04;  0.0000000E+00;  4.0000000E+04; -2.0239878E-02;  0.0000000E+00; -4.9542328E-03;  3.2665705E+04;
  1.7000000E-01;  9.9999998E-03;  3.7000000E-01;2351;  0.0000000E+00;  0.0000000E+00;  0.0000000E+00;  1.0028266E+03;  1.0000000E-01;  2.3417610E+03;0;  0.0000000E+00;  0.0000000E+00;  0.0000000E+00;0; -1.8821441E-02;  4.0000000E+04;  0.0000000E+00;  0.0000000E+00;  4.0000000E+04;  0.0000000E+00;  4.0000000E+04; -1.4571455E-02;  0.0000000E+00; -4.2499863E-03;  1.5184487E+04;
  1.7000000E-01;  9.9999998E-03;  3.8000000E-01;2352;  0.0000000E+00;  0.0000000E+00;  0.0000000E+00;  1.0018985E+03;  1.0000000E-01;  1.5728938E+03;0;  0.0000000E+00;  0.0000000E+00;  0.0000000E+00;0; -1.3460146E-02;  4.0000000E+04;  0.0000000E+00;  0.0000000E+00;  4.0000000E+04;  0.0000000E+00;  4.0000000E+04; -9.9833645E-03;  0.0000000E+00; -3.4767818E-03;  5.4071606E+03;
  1.7000000E-01;  9.9999998E-03;  3.8999999E-01;2353;  0.0000000E+00;  0.0000000E+00;  0.0000000E+00;  1.0012049E+03;  1.0000000E-01;  9.9819397E+02;0;  0.0000000E+00;  0.0000000E+00;  0.0000000E+00;0; -9.1630472E-03;  4.0000000E+04;  0.0000000E+00;  0.0000000E+00;  4.0000000E+04;  0.0000000E+00;  4.0000000E+04; -6.4749662E-03;  0.0000000E+00; -2.6880812E-03;  9.7674160E+03;
  1.7000000E-01;  9.9999998E-03;  4.0000001E-01;2354;  0.0000000E+00;  0.0000000E+00;  0.0000000E+00;  1.0007094E+03;  1.0000000E-01;  5.8773645E+02;0;  0.0000000E+00;  0.0000000E+00;  0.0000000E+00;0; -5.8742166E-03;  4.0000000E+04;  0.0000000E+00;  0.0000000E+00;  4.0000000E+04;  0.0000000E+00;  4.0000000E+04; -3.9408347E-03;  0.0000000E+00; -1.9333818E-03;  1.3392307E+04;
  1.8000001E-01;  9.9999998E-03;  3.1000000E-01;2375;  0.0000000E+00;  0.0000000E+00;  0.0000000E+00;  1.0124763E+03;  1.0000000E-01;  1.0336300E+04;0;  0.0000000E+00;  0.0000000E+00;  0.0000000E+00;0; -6.0284689E-02;  4.0000000E+04;  0.0000000E+00;  0.0000000E+00;  4.0000000E+04;  0.0000000E+00;  4.0000000E+04; -5.5419713E-02;  0.0000000E+00; -4.8649767E-03;  1.4769598E+05;
  1.8000001E-01;  9.9999998E-03;  3.1999999E-01;2376;  0.0000000E+00;  0.0000000E+00;  0.0000000E+00;  1.0109562E+03;  1.0000000E-01;  9.0770762E+03;0;  0.0000000E+00;  0.0000000E+00;  0.0000000E+00;0; -5.5209547E-02;  4.0000000E+04;  0.0000000E+00;  0.0000000E+00;  4.0000000E+04;  0.0000000E+00;  4.0000000E+04; -4.9452070E-02;  0.0000000E+00; -5.7574762E-03;  1.4219588E+05;
  1.8000001E-01;  9.9999998E-03;  3.3000001E-01;2377;  0.0000000E+00;  0.0000000E+00;  0.0000000E+00;  1.0092661E+03;  1.0000000E-01;  7.6768198E+03;0;  0.0000000E+00;  0.0000000E+00;  0.0000000E+00;0; -4.8580736E-02;  4.0000000E+04;  0.0000000E+00;  0.0000000E+00;  4.0000000E+04;  0.0000000E+00;  4.0000000E+04; -4.2479970E-02;  0.0000000E+00; -6.1007654E-03;  1.2447780E+05;
  1.8000001E-01;  9.9999998E-03;  3.4000000E-01;2378;  0.0000000E+00;  0.0000000E+00;  0.0000000E+00;  1.0075282E+03;  1.0000000E-01;  6.2369595E+03;0;  0.0000000E+00;  0.0000000E+00;  0.0000000E+00;0; -4.1083600E-02;  4.0000000E+04;  0.0000000E+00;  0.0000000E+00;  4.0000000E+04;  0.0000000E+00;  4.0000000E+04; -3.5067409E-02;  0.0000000E+00; -6.0161906E-03;  9.8894703E+04;
  1.8000001E-01;  9.9999998E-03;  3.4999999E-01;2379;  0.0000000E+00;  0.0000000E+00;  0.0000000E+00;  1.0058627E+03;  1.0000000E-01;  4.8571465E+03;0;  0.0000000E+00;  0.0000000E+00;  0.0000000E+00;0; -3.3393566E-02;  4.0000000E+04;  0.0000000E+00;  0.0000000E+00;  4.0000000E+04;  0.0000000E+00;  4.0000000E+04; -2.7769713E-02;  0.0000000E+00; -5.6238542E-03;  7.0248484E+04;
  1.8000001E-01;  9.9999998E-03;  3.6000001E-01;2380;  0.0000000E+00;  0.0000000E+00;  0.0000000E+00;  1.0043660E+03;  1.0000000E-01;  3.6170830E+03;0;  0.0000000E+00;  0.0000000E+00;  0.0000000E+00;0; -2.6081879E-02;  4.0000000E+04;  0.0000000E+00;  0.0000000E+00;  4.0000000E+04;  0.0000000E+00;  4.0000000E+04; -2.1056237E-02;  0.0000000E+00; -5.0256420E-03;  4.2632434E+04;
  1.8000001E-01;  9.9999998E-03;  3.7000000E-01;2381;  0.0000000E+00;  0.0000000E+00;  0.0000000E+00;  1.0031013E+03;  1.0000000E-01;  2.5694087E+03;0;  0.0000000E+00;  0.0000000E+00;  0.0000000E+00;0; -1.9556552E-02;  4.0000000E+04;  0.0000000E+00;  0.0000000E+00;  4.0000000E+04;  0.0000000E+00;  4.0000000E+04; -1.5255014E-02;  0.0000000E+00; -4.3015378E-03;  1.9088500E+04;
  1.8000001E-01;  9.9999998E-03;  3.8000000E-01;2382;  0.0000000E+00;  0.0000000E+00;  0.0000000E+00;  1.0020925E+03;  1.0000000E-01;  1.7335806E+03;0;  0.0000000E+00;  0.0000000E+00;  0.0000000E+00;0; -1.4044435E-02;  4.0000000E+04;  0.0000000E+00;  0.0000000E+00;  4.0000000E+04;  0.0000000E+00;  4.0000000E+04; -1.0530731E-02;  0.0000000E+00; -3.5137043E-03;  4.9950542E+03;
  1.8000001E-01;  9.9999998E-03;  3.8999999E-01;2383;  0.0000000E+00;  0.0000000E+00;  0.0000000E+00;  1.0013319E+03;  1.0000000E-01;  1.1034750E+03;0;  0.0000000E+00;  0.0000000E+00;  0.0000000E+00;0; -9.6110404E-03;  4.0000000E+04;  0.0000000E+00;  0.0000000E+00;  4.0000000E+04;  0.0000000E+00;  4.0000000E+04; -6.8974821E-03;  0.0000000E+00; -2.7135585E-03;  1.3286984E+04;
  1.8000001E-01;  9.9999998E-03;  4.0000001E-01;2384;  0.0000000E+00;  0.0000000E+00;  0.0000000E+00;  1.0007869E+03;  1.0000000E-01;  6.5193219E+02;0;  0.0000000E+00;  0.0000000E+00;  0.0000000E+00;0; -6.2052761E-03;  4.0000000E+04;  0.0000000E+00;  0.0000000E+00;  4.0000000E+04;  0.0000000E+00;  4.0000000E+04; -4.2564175E-03;  0.0000000E+00; -1.9488585E-03;  1.9138715E+04;
  1.9000000E-01;  9.9999998E-03;  3.1000000E-01;2405;  0.0000000E+00;  0.0000000E+00;  0.0000000E+00;  1.0131262E+03;  1.0000000E-01;  1.0874853E+04;0;  0.0000000E+00;  0.0000000E+00;  0.0000000E+00;0; -5.8639735E-02;  4.0000000E+04;  0.0000000E+00;  0.0000000E+00;  4.0000000E+04;  0.0000000E+00;  4.0000000E+04; -5.3284355E-02;  0.0000000E+00; -5.3553823E-03;  1.7536030E+05;
  1.9000000E-01;  9.9999998E-03;  3.1999999E-01;2406;  0.0000000E+00;  0.0000000E+00;  0.0000000E+00;  1.0115903E+03;  1.0000000E-01;  9.6022959E+03;0;  0.0000000E+00;  0.0000000E+00;  0.0000000E+00;0; -5.3909998E-02;  4.0000000E+04;  0.0000000E+00;  0.0000000E+00;  4.0000000E+04;  0.0000000E+00;  4.0000000E+04; -4.7771633E-02;  0.0000000E+00; -6.1383666E-03;  1.7072383E+05;
  1.9000000E-01;  9.9999998E-03;  3.3000001E-01;2407;  0.0000000E+00;  0.0000000E+00;  0.0000000E+00;  1.0098464E+03;  1.0000000E-01;  8.1575967E+03;0;  0.0000000E+00;  0.0000000E+00;  0.0000000E+00;0; -4.7598623E-02;  4.0000000E+04;  0.0000000E+00;  0.0000000E+00;  4.0000000E+04;  0.0000000E+00;  4.0000000E+04; -4.1199125E-02;  0.0000000E+00; -6.3994983E-03;  1.5064712E+05;
  1.9000000E-01;  9.9999998E-03;  3.4000000E-01;2408;  0.0000000E+00;  0.0000000E+00;  0.0000000E+00;  1.0080336E+03;  1.0000000E-01;  6.6557129E+03;0;  0.0000000E+00;  0.0000000E+00;  0.0000000E+00;0; -4.0381063E-02;  4.0000000E+04;  0.0000000E+00;  0.0000000E+00;  4.0000000E+04;  0.0000000E+00;  4.0000000E+04; -3.4131378E-02;  0.0000000E+00; -6.2496834E-03;  1.2045166E+05;
  1.9000000E-01;  9.9999998E-03;  3.4999999E-01;2409;  0.0000000E+00;  0.0000000E+00;  0.0000000E+00;  1.0062795E+03;  1.0000000E-01;  5.2025195E+03;0;  0.0000000E+00;  0.0000000E+00;  0.0000000E+00;0; -3.2928955E-02;  4.0000000E+04;  0.0000000E+00;  0.0000000E+00;  4.0000000E+04;  0.0000000E+00;  4.0000000E+04; -2.7122656E-02;  0.0000000E+00; -5.8062999E-03;  8.5988125E+04;
  1.9000000E-01;  9.9999998E-03;  3.6000001E-01;2410;  0.0000000E+00;  0.0000000E+00;  0.0000000E+00;  1.0046956E+03;  1.0000000E-01;  3.8902603E+03;0;  0.0000000E+00;  0.0000000E+00;  0.0000000E+00;0; -2.5811205E-02;  4.0000000E+04;  0.0000000E+00;  0.0000000E+00;  4.0000000E+04;  0.0000000E+00;  4.0000000E+04; -2.0641875E-02;  0.0000000E+00; -5.1693297E-03;  5.2234750E+04;
  1.9000000E-01;  9.9999998E-03;  3.7000000E-01;2411;  0.0000000E+00;  0.0000000E+00;  0.0000000E+00;  1.0033520E+03;  1.0000000E-01;  2.7771067E+03;0;  0.0000000E+00;  0.0000000E+00;  0.0000000E+00;0; -1.9435231E-02;  4.0000000E+04;  0.0000000E+00;  0.0000000E+00;  4.0000000E+04;  0.0000000E+00;  4.0000000E+04; -1.5019104E-02;  0.0000000E+00; -4.4161277E-03;  2.2852160E+04;
  1.9000000E-01;  9.9999998E-03;  3.8000000E-01;2412;  0.0000000E+00;  0.0000000E+00;  0.0000000E+00;  1.0022766E+03;  1.0000000E-01;  1.8861688E+03;0;  0.0000000E+00;  0.0000000E+00;  0.0000000E+00;0; -1.4029739E-02;  4.0000000E+04;  0.0000000E+00;  0.0000000E+00;  4.0000000E+04;  0.0000000E+00;  4.0000000E+04; -1.0424053E-02;  0.0000000E+00; -3.6056859E-03;  4.5274229E+03;
  1.9000000E-01;  9.9999998E-03;  3.8999999E-01;2413;  0.0000000E+00;  0.0000000E+00;  0.0000000E+00;  1.0014568E+03;  1.0000000E-01;  1.2068794E+03;0;  0.0000000E+00;  0.0000000E+00;  0.0000000E+00;0; -9.6640615E-03;  4.0000000E+04;  0.0000000E+00;  0.0000000E+00;  4.0000000E+04;  0.0000000E+00;  4.0000000E+04; -6.8778102E-03;  0.0000000E+00; -2.7862510E-03;  1.7450797E+04;
  1.9000000E-01;  9.9999998E-03;  4.0000001E-01;2414;  0.0000000E+00;  0.0000000E+00;  0.0000000E+00;  1.0008754E+03;  1.0000000E-01;  7.2531281E+02;0;  0.0000000E+00;  0.0000000E+00;  0.0000000E+00;0; -6.2922155E-03;  4.0000000E+04;  0.0000000E+00;  0.0000000E+00;  4.0000000E+04;  0.0000000E+00;  4.0000000E+04; -4.2892536E-03;  0.0000000E+00; -2.0029622E-03;  2.5758252E+04;
  2.0000000E-01;  9.9999998E-03;  3.1000000E-01;2434;  0.0000000E+00;  0.0000000E+00;  0.0000000E+00;  1.0136560E+03;  1.0000000E-01;  1.1313754E+04;0;  0.0000000E+00;  0.0000000E+00;  0.0000000E+00;0; -5.4119326E-02;  4.0000000E+04;  0.0000000E+00;  0.0000000E+00;  4.0000000E+04;  0.0000000E+00;  4.0000000E+04; -4.8057992E-02;  0.0000000E+00; -6.0613351E-03;  1.9692144E+05;
  2.0000000E-01;  9.9999998E-03;  3.1999999E-01;2435;  0.0000000E+00;  0.0000000E+00;  0.0000000E+00;  1.0121075E+03;  1.0000000E-01;  1.0030827E+04;0;  0.0000000E+00;  0.0000000E+00;  0.0000000E+00;0; -4.9919106E-02;  4.0000000E+04;  0.0000000E+00;  0.0000000E+00;  4.0000000E+04;  0.0000000E+00;  4.0000000E+04; -4.3221559E-02;  0.0000000E+00; -6.6975476E-03;  1.9307134E+05;
  2.0000000E-01;  9.9999998E-03;  3.3000001E-01;2436;  0.0000000E+00;  0.0000000E+00;  0.0000000E+00;  1.0103259E+03;  1.0000000E-01;  8.5548193E+03;0;  0.0000000E+00;  0.0000000E+00;  0.0000000E+00;0; -4.4215124E-02;  4.0000000E+04;  0.0000000E+00;  0.0000000E+00;  4.0000000E+04;  0.0000000E+00;  4.0000000E+04; -3.7374698E-02;  0.0000000E+00; -6.8404274E-03;  1.7125052E+05;
  2.0000000E-01;  9.9999998E-03;  3.4000000E-01;2437;  0.0000000E+00;  0.0000000E+00;  0.0000000E+00;  1.0084529E+03;  1.0000000E-01;  7.0030610E+03;0;  0.0000000E+00;  0.0000000E+00;  0.0000000E+00;0; -3.7639022E-02;  4.0000000E+04;  0.0000000E+00;  0.0000000E+00;  4.0000000E+04;  0.0000000E+00;  4.0000000E+04; -3.1041905E-02;  0.0000000E+00; -6.5971175E-03;  1.3755831E+05;
  2.0000000E-01;  9.9999998E-03;  3.4999999E-01;2438;  0.0000000E+00;  0.0000000E+00;  0.0000000E+00;  1.0066346E+03;  1.0000000E-01;  5.4966348E+03;0;  0.0000000E+00;  0.0000000E+00;  0.0000000E+00;0; -3.0816495E-02;  4.0000000E+04;  0.0000000E+00;  0.0000000E+00;  4.0000000E+04;  0.0000000E+00;  4.0000000E+04; -2.4733655E-02;  0.0000000E+00; -6.0828407E-03;  9.8606969E+04;
  2.0000000E-01;  9.9999998E-03;  3.6000001E-01;2439;  0.0000000E+00;  0.0000000E+00;  0.0000000E+00;  1.0049836E+03;  1.0000000E-01;  4.1288711E+03;0;  0.0000000E+00;  0.0000000E+00;  0.0000000E+00;0; -2.4274413E-02;  4.0000000E+04;  0.0000000E+00;  0.0000000E+00;  4.0000000E+04;  0.0000000E+00;  4.0000000E+04; -1.8880552E-02;  0.0000000E+00; -5.3938599E-03;  5.9993668E+04;
  2.0000000E-01;  9.9999998E-03;  3.7000000E-01;2440;  0.0000000E+00;  0.0000000E+00;  0.0000000E+00;  1.0035817E+03;  1.0000000E-01;  2.9673235E+03;0;  0.0000000E+00;  0.0000000E+00;  0.0000000E+00;0; -1.8389359E-02;  4.0000000E+04;  0.0000000E+00;  0.0000000E+00;  4.0000000E+04;  0.0000000E+00;  4.0000000E+04; -1.3786863E-02;  0.0000000E+00; -4.6024970E-03;  2.5807355E+04;
  2.0000000E-01;  9.9999998E-03;  3.8000000E-01;2441;  0.0000000E+00;  0.0000000E+00;  0.0000000E+00;  1.0024481E+03;  1.0000000E-01;  2.0281896E+03;0;  0.0000000E+00;  0.0000000E+00;  0.0000000E+00;0; -1.3373898E-02;  4.0000000E+04;  0.0000000E+00;  0.0000000E+00;  4.0000000E+04;  0.0000000E+00;  4.0000000E+04; -9.6116513E-03;  0.0000000E+00; -3.7622466E-03;  4.2214878E+03;
  2.0000000E-01;  9.9999998E-03;  3.8999999E-01;2442;  0.0000000E+00;  0.0000000E+00;  0.0000000E+00;  1.0015926E+03;  1.0000000E-01;  1.3194689E+03;0;  0.0000000E+00;  0.0000000E+00;  0.0000000E+00;0; -9.2953956E-03;  4.0000000E+04;  0.0000000E+00;  0.0000000E+00;  4.0000000E+04;  0.0000000E+00;  4.0000000E+04; -6.3791326E-03;  0.0000000E+00; -2.9162632E-03;  2.1754242E+04;
  2.0000000E-01;  9.9999998E-03;  4.0000001E-01;2443;  0.0000000E+00;  0.0000000E+00;  0.0000000E+00;  1.0009764E+03;  1.0000000E-01;  8.0896478E+02;0;  0.0000000E+00;  0.0000000E+00;  0.0000000E+00;0; -6.1164666E-03;  4.0000000E+04;  0.0000000E+00;  0.0000000E+00;  4.0000000E+04;  0.0000000E+00;  4.0000000E+04; -4.0107328E-03;  0.0000000E+00; -2.1057336E-03;  3.2556635E+04;
 -1.9000000E-01;  9.9999998E-03;  4.1000000E-01;175;  0.0000000E+00;  0.0000000E+00;  0.0000000E+00;  1.0000000E+03;  1.0000000E-01;  0.0000000E+00;0;  0.0000000E+00;  0.0000000E+00;  0.0000000E+00;0;  0.0000000E+00;  4.0000000E+04;  0.0000000E+00;  0.0000000E+00;  4.0000000E+04;  0.0000000E+00;  4.0000000E+04;  0.0000000E+00;  0.0000000E+00;  0.0000000E+00;  0.0000000E+00;
 -1.9000000E-01;  9.9999998E-03;  4.1999999E-01;176;  0.0000000E+00;  0.0000000E+00;  0.0000000E+00;  1.0000000E+03;  1.0000000E-01;  0.0000000E+00;0;  0.0000000E+00;  0.0000000E+00;  0.0000000E+00;0;  0.0000000E+00;  4.0000000E+04;  0.0000000E+00;  0.0000000E+00;  4.0000000E+04;  0.0000000E+00;  4.0000000E+04;  0.0000000E+00;  0.0000000E+00;  0.0000000E+00;  0.0000000E+00;
 -1.9000000E-01;  9.9999998E-03;  4.3000001E-01;177;  0.0000000E+00;  0.0000000E+00;  0.0000000E+00;  1.0000000E+03;  1.0000000E-01;  0.0000000E+00;0;  0.0000000E+00;  0.0000000E+00;  0.0000000E+00;0;  0.0000000E+00;  4.0000000E+04;  0.0000000E+00;  0.0000000E+00;  4.0000000E+04;  0.0000000E+00;  4.0000000E+04;  0.0000000E+00;  0.0000000E+00;  0.0000000E+00;  0.0000000E+00;
 -1.9000000E-01;  9.9999998E-03;  4.4000000E-01;178;  0.0000000E+00;  0.0000000E+00;  0.0000000E+00;  1.0000000E+03;  1.0000000E-01;  0.0000000E+00;0;  0.0000000E+00;  0.0000000E+00;  0.0000000E+00;0;  0.0000000E+00;  4.0000000E+04;  0.0000000E+00;  0.0000000E+00;  4.0000000E+04;  0.0000000E+00;  4.0000000E+04;  0.0000000E+00;  0.0000000E+00;  0.0000000E+00;  0.0000000E+00;
 -1.9000000E-01;  9.9999998E-03;  4.4999999E-01;179;  0.0000000E+00;  0.0000000E+00;  0.0000000E+00;  1.0000000E+03;  1.0000000E-01;  0.0000000E+00;0;  0.0000000E+00;  0.0000000E+00;  0.0000000E+00;0;  0.0000000E+00;  4.0000000E+04;  0.0000000E+00;  0.0000000E+00;  4.0000000E+04;  0.0000000E+00;  4.0000000E+04;  0.0000000E+00;  0.0000000E+00;  0.0000000E+00;  0.0000000E+00;
 -1.8000001E-01;  9.9999998E-03;  4.1000000E-01;266;  0.0000000E+00;  0.0000000E+00;  0.0000000E+00;  1.0000000E+03;  1.0000000E-01;  0.0000000E+00;0;  0.0000000E+00;  0.0000000E+00;  0.0000000E+00;0;  0.0000000E+00;  4.0000000E+04;  0.0000000E+00;  0.0000000E+00;  4.0000000E+04;  0.0000000E+00;  4.0000000E+04;  0.0000000E+00;  0.0000000E+00;  0.0000000E+00;  0.0000000E+00;
 -1.8000001E-01;  9.9999998E-03;  4.1999999E-01;267;  0.0000000E+00;  0.0000000E+00;  0.0000000E+00;  1.0000000E+03;  1.0000000E-01;  0.0000000E+00;0;  0.0000000E+00;  0.0000000E+00;  0.0000000E+00;0;  0.0000000E+00;  4.0000000E+04;  0.0000000E+00;  0.0000000E+00;  4.0000000E+04;  0.0000000E+00;  4.0000000E+04;  0.0000000E+00;  0.0000000E+00;  0.0000000E+00;  0.0000000E+00;
 -1.8000001E-01;  9.9999998E-03;  4.3000001E-01;268;  0.0000000E+00;  0.0000000E+00;  0.0000000E+00;  1.0000000E+03;  1.0000000E-01;  0.0000000E+00;0;  0.0000000E+00;  0.0000000E+00;  0.0000000E+00;0;  0.0000000E+00;  4.0000000E+04;  0.0000000E+00;  0.0000000E+00;  4.0000000E+04;  0.0000000E+00;  4.0000000E+04;  0.0000000E+00;  0.0000000E+00;  0.0000000E+00;  0.0000000E+00;
 -1.8000001E-01;  9.9999998E-03;  4.4000000E-01;269;  0.0000000E+00;  0.0000000E+00;  0.0000000E+00;  1.0000000E+03;  1.0000000E-01;  0.0000000E+00;0;  0.0000000E+00;  0.0000000E+00;  0.0000000E+00;0;  0.0000000E+00;  4.0000000E+04;  0.0000000E+00;  0.0000000E+00;  4.0000000E+04;  0.0000000E+00;  4.0000000E+04;  0.0000000E+00;  0.0000000E+00;  0.0000000E+00;  0.0000000E+00;
 -1.8000001E-01;  9.9999998E-03;  4.4999999E-01;270;  0.0000000E+00;  0.0000000E+00;  0.0000000E+00;  1.0000000E+03;  1.0000000E-01;  0.0000000E+00;0;  0.0000000E+00;  0.0000000E+00;  0.0000000E+00;0;  0.0000000E+00;  4.0000000E+04;  0.0000000E+00;  0.0000000E+00;  4.0000000E+04;  0.0000000E+00;  4.0000000E+04;  0.0000000E+00;  0.0000000E+00;  0.0000000E+00;  0.0000000E+00;
 -1.7000000E-01;  9.9999998E-03;  4.1000000E-01;357;  0.0000000E+00;  0.0000000E+00;  0.0000000E+00;  1.0000000E+03;  1.0000000E-01;  0.0000000E+00;0;  0.0000000E+00;  0.0000000E+00;  0.0000000E+00;0;  0.0000000E+00;  4.0000000E+04;  0.0000000E+00;  0.0000000E+00;  4.0000000E+04;  0.0000000E+00;  4.0000000E+04;  0.0000000E+00;  0.0000000E+00;  0.0000000E+00;  0.0000000E+00;
 -1.7000000E-01;  9.9999998E-03;  4.1999999E-01;358;  0.0000000E+00;  0.0000000E+00;  0.0000000E+00;  1.0000000E+03;  1.0000000E-01;  0.0000000E+00;0;  0.0000000E+00;  0.0000000E+00;  0.0000000E+00;0;  0.0000000E+00;  4.0000000E+04;  0.0000000E+00;  0.0000000E+00;  4.0000000E+04;  0.0000000E+00;  4.0000000E+04;  0.0000000E+00;  0.0000000E+00;  0.0000000E+00;  0.0000000E+00;
 -1.7000000E-01;  9.9999998E-03;  4.3000001E-01;359;  0.0000000E+00;  0.0000000E+00;  0.0000000E+00;  1.0000000E+03;  1.0000000E-01;  0.0000000E+00;0;  0.0000000E+00;  0.0000000E+00;  0.0000000E+00;0;  0.0000000E+00;  4.0000000E+04;  0.0000000E+00;  0.0000000E+00;  4.0000000E+04;  0.0000000E+00;  4.0000000E+04;  0.0000000E+00;  0.0000000E+00;  0.0000000E+00;  0.0000000E+00;
 -1.7000000E-01;  9.9999998E-03;  4.4000000E-01;360;  0.0000000E+00;  0.0000000E+00;  0.0000000E+00;  1.0000000E+03;  1.0000000E-01;  0.0000000E+00;0;  0.0000000E+00;  0.0000000E+00;  0.0000000E+00;0;  0.0000000E+00;  4.0000000E+04;  0.0000000E+00;  0.0000000E+00;  4.0000000E+04;  0.0000000E+00;  4.0000000E+04;  0.0000000E+00;  0.0000000E+00;  0.0000000E+00;  0.0000000E+00;
 -1.7000000E-01;  9.9999998E-03;  4.4999999E-01;361;  0.0000000E+00;  0.0000000E+00;  0.0000000E+00;  1.0000000E+03;  1.0000000E-01;  0.0000000E+00;0;  0.0000000E+00;  0.0000000E+00;  0.0000000E+00;0;  0.0000000E+00;  4.0000000E+04;  0.0000000E+00;  0.0000000E+00;  4.0000000E+04;  0.0000000E+00;  4.0000000E+04;  0.0000000E+00;  0.0000000E+00;  0.0000000E+00;  0.0000000E+00;
 -1.6000000E-01;  9.9999998E-03;  4.1000000E-01;448;  0.0000000E+00;  0.0000000E+00;  0.0000000E+00;  1.0000000E+03;  1.0000000E-01;  0.0000000E+00;0;  0.0000000E+00;  0.0000000E+00;  0.0000000E+00;0;  0.0000000E+00;  4.0000000E+04;  0.0000000E+00;  0.0000000E+00;  4.0000000E+04;  0.0000000E+00;  4.0000000E+04;  0.0000000E+00;  0.0000000E+00;  0.0000000E+00;  0.0000000E+00;
 -1.6000000E-01;  9.9999998E-03;  4.1999999E-01;449;  0.0000000E+00;  0.0000000E+00;  0.0000000E+00;  1.0000000E+03;  1.0000000E-01;  0.0000000E+00;0;  0.0000000E+00;  0.0000000E+00;  0.0000000E+00;0;  0.0000000E+00;  4.0000000E+04;  0.0000000E+00;  0.0000000E+00;  4.0000000E+04;  0.0000000E+00;  4.0000000E+04;  0.0000000E+00;  0.0000000E+00;  0.0000000E+00;  0.0000000E+00;
 -1.6000000E-01;  9.9999998E-03;  4.3000001E-01;450;  0.0000000E+00;  0.0000000E+00;  0.0000000E+00;  1.0000000E+03;  1.0000000E-01;  0.0000000E+00;0;  0.0000000E+00;  0.0000000E+00;  0.0000000E+00;0;  0.0000000E+00;  4.0000000E+04;  0.0000000E+00;  0.0000000E+00;  4.0000000E+04;  0.0000000E+00;  4.0000000E+04;  0.0000000E+00;  0.0000000E+00;  0.0000000E+00;  0.0000000E+00;
 -1.6000000E-01;  9.9999998E-03;  4.4000000E-01;451;  0.0000000E+00;  0.0000000E+00;  0.0000000E+00;  1.0000000E+03;  1.0000000E-01;  0.0000000E+00;0;  0.0000000E+00;  0.0000000E+00;  0.0000000E+00;0;  0.0000000E+00;  4.0000000E+04;  0.0000000E+00;  0.0000000E+00;  4.0000000E+04;  0.0000000E+00;  4.0000000E+04;  0.0000000E+00;  0.0000000E+00;  0.0000000E+00;  0.0000000E+00;
 -1.6000000E-01;  9.9999998E-03;  4.4999999E-01;452;  0.0000000E+00;  0.0000000E+00;  0.0000000E+00;  1.0000000E+03;  1.0000000E-01;  0.0000000E+00;0;  0.0000000E+00;  0.0000000E+00;  0.0000000E+00;0;  0.0000000E+00;  4.0000000E+04;  0.0000000E+00;  0.0000000E+00;  4.0000000E+04;  0.0000000E+00;  4.0000000E+04;  0.0000000E+00;  0.0000000E+00;  0.0000000E+00;  0.0000000E+00;
 -1.5000001E-01;  9.9999998E-03;  4.1000000E-01;539;  0.0000000E+00;  0.0000000E+00;  0.0000000E+00;  1.0000000E+03;  1.0000000E-01;  0.0000000E+00;0;  0.0000000E+00;  0.0000000E+00;  0.0000000E+00;0;  0.0000000E+00;  4.0000000E+04;  0.0000000E+00;  0.0000000E+00;  4.0000000E+04;  0.0000000E+00;  4.0000000E+04;  0.0000000E+00;  0.0000000E+00;  0.0000000E+00;  0.0000000E+00;
 -1.5000001E-01;  9.9999998E-03;  4.1999999E-01;540;  0.0000000E+00;  0.0000000E+00;  0.0000000E+00;  1.0000000E+03;  1.0000000E-01;  0.0000000E+00;0;  0.0000000E+00;  0.0000000E+00;  0.0000000E+00;0;  0.0000000E+00;  4.0000000E+04;  0.0000000E+00;  0.0000000E+00;  4.0000000E+04;  0.0000000E+00;  4.0000000E+04;  0.0000000E+00;  0.0000000E+00;  0.0000000E+00;  0.0000000E+00;
 -1.5000001E-01;  9.9999998E-03;  4.3000001E-01;541;  0.0000000E+00;  0.0000000E+00;  0.0000000E+00;  1.0000000E+03;  1.0000000E-01;  0.0000000E+00;0;  0.0000000E+00;  0.0000000E+00;  0.0000000E+00;0;  0.0000000E+00;  4.0000000E+04;  0.0000000E+00;  0.0000000E+00;  4.0000000E+04;  0.0000000E+00;  4.0000000E+04;  0.0000000E+00;  0.0000000E+00;  0.0000000E+00;  0.0000000E+00;
 -1.5000001E-01;  9.9999998E-03;  4.4000000E-01;542;  0.0000000E+00;  0.0000000E+00;  0.0000000E+00;  1.0000000E+03;  1.0000000E-01;  0.0000000E+00;0;  0.0000000E+00;  0.0000000E+00;  0.0000000E+00;0;  0.0000000E+00;  4.0000000E+04;  0.0000000E+00;  0.0000000E+00;  4.0000000E+04;  0.0000000E+00;  4.0000000E+04;  0.0000000E+00;  0.0000000E+00;  0.0000000E+00;  0.0000000E+00;
 -1.5000001E-01;  9.9999998E-03;  4.4999999E-01;543;  0.0000000E+00;  0.0000000E+00;  0.0000000E+00;  1.0000000E+03;  1.0000000E-01;  0.0000000E+00;0;  0.0000000E+00;  0.0000000E+00;  0.0000000E+00;0;  0.0000000E+00;  4.0000000E+04;  0.0000000E+00;  0.0000000E+00;  4.0000000E+04;  0.0000000E+00;  4.0000000E+04;  0.0000000E+00;  0.0000000E+00;  0.0000000E+00;  0.0000000E+00;
 -1.4000000E-01;  9.9999998E-03;  4.1000000E-01;630;  0.0000000E+00;  0.0000000E+00;  0.0000000E+00;  1.0000000E+03;  1.0000000E-01;  0.0000000E+00;0;  0.0000000E+00;  0.0000000E+00;  0.0000000E+00;0;  0.0000000E+00;  4.0000000E+04;  0.0000000E+00;  0.0000000E+00;  4.0000000E+04;  0.0000000E+00;  4.0000000E+04;  0.0000000E+00;  0.0000000E+00;  0.0000000E+00;  0.0000000E+00;
 -1.4000000E-01;  9.9999998E-03;  4.1999999E-01;631;  0.0000000E+00;  0.0000000E+00;  0.0000000E+00;  1.0000000E+03;  1.0000000E-01;  0.0000000E+00;0;  0.0000000E+00;  0.0000000E+00;  0.0000000E+00;0;  0.0000000E+00;  4.0000000E+04;  0.0000000E+00;  0.0000000E+00;  4.0000000E+04;  0.0000000E+00;  4.0000000E+04;  0.0000000E+00;  0.0000000E+00;  0.0000000E+00;  0.0000000E+00;
 -1.4000000E-01;  9.9999998E-03;  4.3000001E-01;632;  0.0000000E+00;  0.0000000E+00;  0.0000000E+00;  1.0000000E+03;  1.0000000E-01;  0.0000000E+00;0;  0.0000000E+00;  0.0000000E+00;  0.0000000E+00;0;  0.0000000E+00;  4.0000000E+04;  0.0000000E+00;  0.0000000E+00;  4.0000000E+04;  0.0000000E+00;  4.0000000E+04;  0.0000000E+00;  0.0000000E+00;  0.0000000E+00;  0.0000000E+00;
 -1.4000000E-01;  9.9999998E-03;  4.4000000E-01;633;  0.0000000E+00;  0.0000000E+00;  0.0000000E+00;  1.0000000E+03;  1.0000000E-01;  0.0000000E+00;0;  0.0000000E+00;  0.0000000E+00;  0.0000000E+00;0;  0.0000000E+00;  4.0000000E+04;  0.0000000E+00;  0.0000000E+00;  4.0000000E+04;  0.0000000E+00;  4.0000000E+04;  0.0000000E+00;  0.0000000E+00;  0.0000000E+00;  0.0000000E+00;
 -1.4000000E-01;  9.9999998E-03;  4.4999999E-01;634;  0.0000000E+00;  0.0000000E+00;  0.0000000E+00;  1.0000000E+03;  1.0000000E-01;  0.0000000E+00;0;  0.0000000E+00;  0.0000000E+00;  0.0000000E+00;0;  0.0000000E+00;  4.0000000E+04;  0.0000000E+00;  0.0000000E+00;  4.0000000E+04;  0.0000000E+00;  4.0000000E+04;  0.0000000E+00;  0.0000000E+00;  0.0000000E+00;  0.0000000E+00;
 -1.3000000E-01;  9.9999998E-03;  4.1000000E-01;721;  0.0000000E+00;  0.0000000E+00;  0.0000000E+00;  1.0000000E+03;  1.0000000E-01;  0.0000000E+00;0;  0.0000000E+00;  0.0000000E+00;  0.0000000E+00;0;  0.0000000E+00;  4.0000000E+04;  0.0000000E+00;  0.0000000E+00;  4.0000000E+04;  0.0000000E+00;  4.0000000E+04;  0.0000000E+00;  0.0000000E+00;  0.0000000E+00;  0.0000000E+00;
 -1.3000000E-01;  9.9999998E-03;  4.1999999E-01;722;  0.0000000E+00;  0.0000000E+00;  0.0000000E+00;  1.0000000E+03;  1.0000000E-01;  0.0000000E+00;0;  0.0000000E+00;  0.0000000E+00;  0.0000000E+00;0;  0.0000000E+00;  4.0000000E+04;  0.0000000E+00;  0.0000000E+00;  4.0000000E+04;  0.0000000E+00;  4.0000000E+04;  0.0000000E+00;  0.0000000E+00;  0.0000000E+00;  0.0000000E+00;
 -1.3000000E-01;  9.9999998E-03;  4.3000001E-01;723;  0.0000000E+00;  0.0000000E+00;  0.0000000E+00;  1.0000000E+03;  1.0000000E-01;  0.0000000E+00;0;  0.0000000E+00;  0.0000000E+00;  0.0000000E+00;0;  0.0000000E+00;  4.0000000E+04;  0.0000000E+00;  0.0000000E+00;  4.0000000E+04;  0.0000000E+00;  4.0000000E+04;  0.0000000E+00;  0.0000000E+00;  0.0000000E+00;  0.0000000E+00;
 -1.3000000E-01;  9.9999998E-03;  4.4000000E-01;724;  0.0000000E+00;  0.0000000E+00;  0.0000000E+00;  1.0000000E+03;  1.0000000E-01;  0.0000000E+00;0;  0.0000000E+00;  0.0000000E+00;  0.0000000E+00;0;  0.0000000E+00;  4.0000000E+04;  0.0000000E+00;  0.0000000E+00;  4.0000000E+04;  0.0000000E+00;  4.0000000E+04;  0.0000000E+00;  0.0000000E+00;  0.0000000E+00;  0.0000000E+00;
 -1.3000000E-01;  9.9999998E-03;  4.4999999E-01;725;  0.0000000E+00;  0.0000000E+00;  0.0000000E+00;  1.0000000E+03;  1.0000000E-01;  0.0000000E+00;0;  0.0000000E+00;  0.0000000E+00;  0.0000000E+00;0;  0.0000000E+00;  4.0000000E+04;  0.0000000E+00;  0.0000000E+00;  4.0000000E+04;  0.0000000E+00;  4.0000000E+04;  0.0000000E+00;  0.0000000E+00;  0.0000000E+00;  0.0000000E+00;
 -1.2000000E-01;  9.9999998E-03;  4.1000000E-01;812;  0.0000000E+00;  0.0000000E+00;  0.0000000E+00;  1.0000000E+03;  1.0000000E-01;  0.0000000E+00;0;  0.0000000E+00;  0.0000000E+00;  0.0000000E+00;0;  0.0000000E+00;  4.0000000E+04;  0.0000000E+00;  0.0000000E+00;  4.0000000E+04;  0.0000000E+00;  4.0000000E+04;  0.0000000E+00;  0.0000000E+00;  0.0000000E+00;  3.0553776E-06;
 -1.2000000E-01;  9.9999998E-03;  4.1999999E-01;813;  0.0000000E+00;  0.0000000E+00;  0.0000000E+00;  1.0000000E+03;  1.0000000E-01;  0.0000000E+00;0;  0.0000000E+00;  0.0000000E+00;  0.0000000E+00;0;  0.0000000E+00;  4.0000000E+04;  0.0000000E+00;  0.0000000E+00;  4.0000000E+04;  0.0000000E+00;  4.0000000E+04;  0.0000000E+00;  0.0000000E+00;  0.0000000E+00;  0.0000000E+00;
 -1.2000000E-01;  9.9999998E-03;  4.3000001E-01;814;  0.0000000E+00;  0.0000000E+00;  0.0000000E+00;  1.0000000E+03;  1.0000000E-01;  0.0000000E+00;0;  0.0000000E+00;  0.0000000E+00;  0.0000000E+00;0;  0.0000000E+00;  4.0000000E+04;  0.0000000E+00;  0.0000000E+00;  4.0000000E+04;  0.0000000E+00;  4.0000000E+04;  0.0000000E+00;  0.0000000E+00;  0.0000000E+00;  0.0000000E+00;
 -1.2000000E-01;  9.9999998E-03;  4.4000000E-01;815;  0.0000000E+00;  0.0000000E+00;  0.0000000E+00;  1.0000000E+03;  1.0000000E-01;  0.0000000E+00;0;  0.0000000E+00;  0.0000000E+00;  0.0000000E+00;0;  0.0000000E+00;  4.0000000E+04;  0.0000000E+00;  0.0000000E+00;  4.0000000E+04;  0.0000000E+00;  4.0000000E+04;  0.0000000E+00;  0.0000000E+00;  0.0000000E+00;  0.0000000E+00;
 -1.2000000E-01;  9.9999998E-03;  4.4999999E-01;816;  0.0000000E+00;  0.0000000E+00;  0.0000000E+00;  1.0000000E+03;  1.0000000E-01;  0.0000000E+00;0;  0.0000000E+00;  0.0000000E+00;  0.0000000E+00;0;  0.0000000E+00;  4.0000000E+04;  0.0000000E+00;  0.0000000E+00;  4.0000000E+04;  0.0000000E+00;  4.0000000E+04;  0.0000000E+00;  0.0000000E+00;  0.0000000E+00;  0.0000000E+00;
 -1.1000000E-01;  9.9999998E-03;  4.1000000E-01;903;  0.0000000E+00;  0.0000000E+00;  0.0000000E+00;  1.0000000E+03;  1.0000000E-01;  0.0000000E+00;0;  0.0000000E+00;  0.0000000E+00;  0.0000000E+00;0; -3.5891429E-07;  4.0000000E+04;  0.0000000E+00;  0.0000000E+00;  4.0000000E+04;  0.0000000E+00;  4.0000000E+04; -1.7994373E-07;  0.0000000E+00; -1.7897058E-07;  2.8672153E-01;
 -1.1000000E-01;  9.9999998E-03;  4.1999999E-01;904;  0.0000000E+00;  0.0000000E+00;  0.0000000E+00;  1.0000000E+03;  1.0000000E-01;  0.0000000E+00;0;  0.0000000E+00;  0.0000000E+00;  0.0000000E+00;0;  0.0000000E+00;  4.0000000E+04;  0.0000000E+00;  0.0000000E+00;  4.0000000E+04;  0.0000000E+00;  4.0000000E+04;  0.0000000E+00;  0.0000000E+00;  0.0000000E+00;  2.4097315E-06;
 -1.1000000E-01;  9.9999998E-03;  4.3000001E-01;905;  0.0000000E+00;  0.0000000E+00;  0.0000000E+00;  1.0000000E+03;  1.0000000E-01;  0.0000000E+00;0;  0.0000000E+00;  0.0000000E+00;  0.0000000E+00;0;  0.0000000E+00;  4.0000000E+04;  0.0000000E+00;  0.0000000E+00;  4.0000000E+04;  0.0000000E+00;  4.0000000E+04;  0.0000000E+00;  0.0000000E+00;  0.0000000E+00;  0.0000000E+00;
 -1.1000000E-01;  9.9999998E-03;  4.4000000E-01;906;  0.0000000E+00;  0.0000000E+00;  0.0000000E+00;  1.0000000E+03;  1.0000000E-01;  0.0000000E+00;0;  0.0000000E+00;  0.0000000E+00;  0.0000000E+00;0;  0.0000000E+00;  4.0000000E+04;  0.0000000E+00;  0.0000000E+00;  4.0000000E+04;  0.0000000E+00;  4.0000000E+04;  0.0000000E+00;  0.0000000E+00;  0.0000000E+00;  0.0000000E+00;
 -1.1000000E-01;  9.9999998E-03;  4.4999999E-01;907;  0.0000000E+00;  0.0000000E+00;  0.0000000E+00;  1.0000000E+03;  1.0000000E-01;  0.0000000E+00;0;  0.0000000E+00;  0.0000000E+00;  0.0000000E+00;0;  0.0000000E+00;  4.0000000E+04;  0.0000000E+00;  0.0000000E+00;  4.0000000E+04;  0.0000000E+00;  4.0000000E+04;  0.0000000E+00;  0.0000000E+00;  0.0000000E+00;  0.0000000E+00;
 -1.0000000E-01;  9.9999998E-03;  4.1000000E-01;994;  0.0000000E+00;  0.0000000E+00;  0.0000000E+00;  1.0000000E+03;  1.0000000E-01;  0.0000000E+00;0;  0.0000000E+00;  0.0000000E+00;  0.0000000E+00;0; -3.2199164E-06;  4.0000000E+04;  0.0000000E+00;  0.0000000E+00;  4.0000000E+04;  0.0000000E+00;  4.0000000E+04; -1.5535552E-06;  0.0000000E+00; -1.6663613E-06;  2.6086526E+00;
 -1.0000000E-01;  9.9999998E-03;  4.1999999E-01;995;  0.0000000E+00;  0.0000000E+00;  0.0000000E+00;  1.0000000E+03;  1.0000000E-01;  0.0000000E+00;0;  0.0000000E+00;  0.0000000E+00;  0.0000000E+00;0; -2.9246453E-07;  4.0000000E+04;  0.0000000E+00;  0.0000000E+00;  4.0000000E+04;  0.0000000E+00;  4.0000000E+04; -1.3565847E-07;  0.0000000E+00; -1.5680607E-07;  2.6384705E-01;
 -1.0000000E-01;  9.9999998E-03;  4.3000001E-01;996;  0.0000000E+00;  0.0000000E+00;  0.0000000E+00;  1.0000000E+03;  1.0000000E-01;  0.0000000E+00;0;  0.0000000E+00;  0.0000000E+00;  0.0000000E+00;0;  0.0000000E+00;  4.0000000E+04;  0.0000000E+00;  0.0000000E+00;  4.0000000E+04;  0.0000000E+00;  4.0000000E+04;  0.0000000E+00;  0.0000000E+00;  0.0000000E+00;  0.0000000E+00;
 -1.0000000E-01;  9.9999998E-03;  4.4000000E-01;997;  0.0000000E+00;  0.0000000E+00;  0.0000000E+00;  1.0000000E+03;  1.0000000E-01;  0.0000000E+00;0;  0.0000000E+00;  0.0000000E+00;  0.0000000E+00;0;  0.0000000E+00;  4.0000000E+04;  0.0000000E+00;  0.0000000E+00;  4.0000000E+04;  0.0000000E+00;  4.0000000E+04;  0.0000000E+00;  0.0000000E+00;  0.0000000E+00;  0.0000000E+00;
 -1.0000000E-01;  9.9999998E-03;  4.4999999E-01;998;  0.0000000E+00;  0.0000000E+00;  0.0000000E+00;  1.0000000E+03;  1.0000000E-01;  0.0000000E+00;0;  0.0000000E+00;  0.0000000E+00;  0.0000000E+00;0;  0.0000000E+00;  4.0000000E+04;  0.0000000E+00;  0.0000000E+00;  4.0000000E+04;  0.0000000E+00;  4.0000000E+04;  0.0000000E+00;  0.0000000E+00;  0.0000000E+00;  0.0000000E+00;
 -9.0000004E-02;  9.9999998E-03;  4.1000000E-01;1085;  0.0000000E+00;  0.0000000E+00;  0.0000000E+00;  1.0000000E+03;  1.0000000E-01;  0.0000000E+00;0;  0.0000000E+00;  0.0000000E+00;  0.0000000E+00;0; -1.2586244E-05;  4.0000000E+04;  0.0000000E+00;  0.0000000E+00;  4.0000000E+04;  0.0000000E+00;  4.0000000E+04; -5.9080935E-06;  0.0000000E+00; -6.6781508E-06;  1.0422273E+01;
 -9.0000004E-02;  9.9999998E-03;  4.1999999E-01;1086;  0.0000000E+00;  0.0000000E+00;  0.0000000E+00;  1.0000000E+03;  1.0000000E-01;  0.0000000E+00;0;  0.0000000E+00;  0.0000000E+00;  0.0000000E+00;0; -2.5333072E-06;  4.0000000E+04;  0.0000000E+00;  0.0000000E+00;  4.0000000E+04;  0.0000000E+00;  4.0000000E+04; -1.1152498E-06;  0.0000000E+00; -1.4180574E-06;  2.2785444E+00;
 -9.0000004E-02;  9.9999998E-03;  4.3000001E-01;1087;  0.0000000E+00;  0.0000000E+00;  0.0000000E+00;  1.0000000E+03;  1.0000000E-01;  0.0000000E+00;0;  0.0000000E+00;  0.0000000E+00;  0.0000000E+00;0; -1.2961755E-07;  4.0000000E+04;  0.0000000E+00;  0.0000000E+00;  4.0000000E+04;  0.0000000E+00;  4.0000000E+04; -5.7708490E-08;  0.0000000E+00; -7.1909056E-08;  1.3225062E-01;
 -9.0000004E-02;  9.9999998E-03;  4.4000000E-01;1088;  0.0000000E+00;  0.0000000E+00;  0.0000000E+00;  1.0000000E+03;  1.0000000E-01;  0.0000000E+00;0;  0.0000000E+00;  0.0000000E+00;  0.0000000E+00;0;  0.0000000E+00;  4.0000000E+04;  0.0000000E+00;  0.0000000E+00;  4.0000000E+04;  0.0000000E+00;  4.0000000E+04;  0.0000000E+00;  0.0000000E+00;  0.0000000E+00;  0.0000000E+00;
 -9.0000004E-02;  9.9999998E-03;  4.4999999E-01;1089;  0.0000000E+00;  0.0000000E+00;  0.0000000E+00;  1.0000000E+03;  1.0000000E-01;  0.0000000E+00;0;  0.0000000E+00;  0.0000000E+00;  0.0000000E+00;0;  0.0000000E+00;  4.0000000E+04;  0.0000000E+00;  0.0000000E+00;  4.0000000E+04;  0.0000000E+00;  4.0000000E+04;  0.0000000E+00;  0.0000000E+00;  0.0000000E+00;  0.0000000E+00;
 -7.9999998E-02;  9.9999998E-03;  4.1000000E-01;1176;  0.0000000E+00;  0.0000000E+00;  0.0000000E+00;  1.0000000E+03;  1.0000000E-01;  0.0000000E+00;0;  0.0000000E+00;  0.0000000E+00;  0.0000000E+00;0; -3.3768898E-05;  4.0000000E+04;  0.0000000E+00;  0.0000000E+00;  4.0000000E+04;  0.0000000E+00;  4.0000000E+04; -1.5548785E-05;  0.0000000E+00; -1.8220113E-05;  2.8136404E+01;
 -7.9999998E-02;  9.9999998E-03;  4.1999999E-01;1177;  0.0000000E+00;  0.0000000E+00;  0.0000000E+00;  1.0000000E+03;  1.0000000E-01;  0.0000000E+00;0;  0.0000000E+00;  0.0000000E+00;  0.0000000E+00;0; -9.6397798E-06;  4.0000000E+04;  0.0000000E+00;  0.0000000E+00;  4.0000000E+04;  0.0000000E+00;  4.0000000E+04; -4.1149742E-06;  0.0000000E+00; -5.5248061E-06;  8.7786827E+00;
 -7.9999998E-02;  9.9999998E-03;  4.3000001E-01;1178;  0.0000000E+00;  0.0000000E+00;  0.0000000E+00;  1.0000000E+03;  1.0000000E-01;  0.0000000E+00;0;  0.0000000E+00;  0.0000000E+00;  0.0000000E+00;0; -1.3910640E-06;  4.0000000E+04;  0.0000000E+00;  0.0000000E+00;  4.0000000E+04;  0.0000000E+00;  4.0000000E+04; -5.6991189E-07;  0.0000000E+00; -8.2115213E-07;  1.3732289E+00;
 -7.9999998E-02;  9.9999998E-03;  4.4000000E-01;1179;  0.0000000E+00;  0.0000000E+00;  0.0000000E+00;  1.0000000E+03;  1.0000000E-01;  0.0000000E+00;0;  0.0000000E+00;  0.0000000E+00;  0.0000000E+00;0; -2.0647425E-08;  4.0000000E+04;  0.0000000E+00;  0.0000000E+00;  4.0000000E+04;  0.0000000E+00;  4.0000000E+04; -8.9396250E-09;  0.0000000E+00; -1.1707800E-08;  2.3791160E-02;
 -7.9999998E-02;  9.9999998E-03;  4.4999999E-01;1180;  0.0000000E+00;  0.0000000E+00;  0.0000000E+00;  1.0000000E+03;  1.0000000E-01;  0.0000000E+00;0;  0.0000000E+00;  0.0000000E+00;  0.0000000E+00;0;  0.0000000E+00;  4.0000000E+04;  0.0000000E+00;  0.0000000E+00;  4.0000000E+04;  0.0000000E+00;  4.0000000E+04;  0.0000000E+00;  0.0000000E+00;  0.0000000E+00;  0.0000000E+00;
 -7.0000000E-02;  9.9999998E-03;  4.1000000E-01;1267;  0.0000000E+00;  0.0000000E+00;  0.0000000E+00;  1.0000000E+03;  1.0000000E-01;  0.0000000E+00;0;  0.0000000E+00;  0.0000000E+00;  0.0000000E+00;0; -7.2592884E-05;  4.0000000E+04;  0.0000000E+00;  0.0000000E+00;  4.0000000E+04;  0.0000000E+00;  4.0000000E+04; -3.3007113E-05;  0.0000000E+00; -3.9585775E-05;  5.9790291E+01;
 -7.0000000E-02;  9.9999998E-03;  4.1999999E-01;1268;  0.0000000E+00;  0.0000000E+00;  0.0000000E+00;  1.0000000E+03;  1.0000000E-01;  0.0000000E+00;0;  0.0000000E+00;  0.0000000E+00;  0.0000000E+00;0; -2.5221869E-05;  4.0000000E+04;  0.0000000E+00;  0.0000000E+00;  4.0000000E+04;  0.0000000E+00;  4.0000000E+04; -1.0552674E-05;  0.0000000E+00; -1.4669195E-05;  2.2931238E+01;
 -7.0000000E-02;  9.9999998E-03;  4.3000001E-01;1269;  0.0000000E+00;  0.0000000E+00;  0.0000000E+00;  1.0000000E+03;  1.0000000E-01;  0.0000000E+00;0;  0.0000000E+00;  0.0000000E+00;  0.0000000E+00;0; -5.5671289E-06;  4.0000000E+04;  0.0000000E+00;  0.0000000E+00;  4.0000000E+04;  0.0000000E+00;  4.0000000E+04; -2.1991041E-06;  0.0000000E+00; -3.3680246E-06;  5.5028753E+00;
 -7.0000000E-02;  9.9999998E-03;  4.4000000E-01;1270;  0.0000000E+00;  0.0000000E+00;  0.0000000E+00;  1.0000000E+03;  1.0000000E-01;  0.0000000E+00;0;  0.0000000E+00;  0.0000000E+00;  0.0000000E+00;0; -4.3090918E-07;  4.0000000E+04;  0.0000000E+00;  0.0000000E+00;  4.0000000E+04;  0.0000000E+00;  4.0000000E+04; -1.7005559E-07;  0.0000000E+00; -2.6085360E-07;  4.6971750E-01;
 -7.0000000E-02;  9.9999998E-03;  4.4999999E-01;1271;  0.0000000E+00;  0.0000000E+00;  0.0000000E+00;  1.0000000E+03;  1.0000000E-01;  0.0000000E+00;0;  0.0000000E+00;  0.0000000E+00;  0.0000000E+00;0;  0.0000000E+00;  4.0000000E+04;  0.0000000E+00;  0.0000000E+00;  4.0000000E+04;  0.0000000E+00;  4.0000000E+04;  0.0000000E+00;  0.0000000E+00;  0.0000000E+00;  8.6631813E-12;
 -5.9999999E-02;  9.9999998E-03;  4.1000000E-01;1358;  0.0000000E+00;  0.0000000E+00;  0.0000000E+00;  1.0000000E+03;  1.0000000E-01;  0.0000000E+00;0;  0.0000000E+00;  0.0000000E+00;  0.0000000E+00;0; -1.3440361E-04;  4.0000000E+04;  0.0000000E+00;  0.0000000E+00;  4.0000000E+04;  0.0000000E+00;  4.0000000E+04; -6.0633742E-05;  0.0000000E+00; -7.3769865E-05;  1.0779559E+02;
 -5.9999999E-02;  9.9999998E-03;  4.1999999E-01;1359;  0.0000000E+00;  0.0000000E+00;  0.0000000E+00;  1.0000000E+03;  1.0000000E-01;  0.0000000E+00;0;  0.0000000E+00;  0.0000000E+00;  0.0000000E+00;0; -5.2895983E-05;  4.0000000E+04;  0.0000000E+00;  0.0000000E+00;  4.0000000E+04;  0.0000000E+00;  4.0000000E+04; -2.1836266E-05;  0.0000000E+00; -3.1059717E-05;  4.7268162E+01;
 -5.9999999E-02;  9.9999998E-03;  4.3000001E-01;1360;  0.0000000E+00;  0.0000000E+00;  0.0000000E+00;  1.0000000E+03;  1.0000000E-01;  0.0000000E+00;0;  0.0000000E+00;  0.0000000E+00;  0.0000000E+00;0; -1.4786932E-05;  4.0000000E+04;  0.0000000E+00;  0.0000000E+00;  4.0000000E+04;  0.0000000E+00;  4.0000000E+04; -5.7011825E-06;  0.0000000E+00; -9.0857493E-06;  1.4507043E+01;
 -5.9999999E-02;  9.9999998E-03;  4.4000000E-01;1361;  0.0000000E+00;  0.0000000E+00;  0.0000000E+00;  1.0000000E+03;  1.0000000E-01;  0.0000000E+00;0;  0.0000000E+00;  0.0000000E+00;  0.0000000E+00;0; -2.1139970E-06;  4.0000000E+04;  0.0000000E+00;  0.0000000E+00;  4.0000000E+04;  0.0000000E+00;  4.0000000E+04; -7.8972522E-07;  0.0000000E+00; -1.3242718E-06;  2.2665803E+00;
 -5.9999999E-02;  9.9999998E-03;  4.4999999E-01;1362;  0.0000000E+00;  0.0000000E+00;  0.0000000E+00;  1.0000000E+03;  1.0000000E-01;  0.0000000E+00;0;  0.0000000E+00;  0.0000000E+00;  0.0000000E+00;0; -4.3211173E-08;  4.0000000E+04;  0.0000000E+00;  0.0000000E+00;  4.0000000E+04;  0.0000000E+00;  4.0000000E+04; -1.6484718E-08;  0.0000000E+00; -2.6726456E-08;  5.2229390E-02;
 -5.0000001E-02;  9.9999998E-03;  4.1000000E-01;1449;  0.0000000E+00;  0.0000000E+00;  0.0000000E+00;  1.0000088E+03;  1.0000000E-01;  7.3084354E+00;0;  0.0000000E+00;  0.0000000E+00;  0.0000000E+00;0; -2.2286701E-04;  4.0000000E+04;  0.0000000E+00;  0.0000000E+00;  4.0000000E+04;  0.0000000E+00;  4.0000000E+04; -1.0001464E-04;  0.0000000E+00; -1.2285238E-04;  1.7197845E+02;
 -5.0000001E-02;  9.9999998E-03;  4.1999999E-01;1450;  0.0000000E+00;  0.0000000E+00;  0.0000000E+00;  1.0000000E+03;  1.0000000E-01;  0.0000000E+00;0;  0.0000000E+00;  0.0000000E+00;  0.0000000E+00;0; -9.5423515E-05;  4.0000000E+04;  0.0000000E+00;  0.0000000E+00;  4.0000000E+04;  0.0000000E+00;  4.0000000E+04; -3.9021299E-05;  0.0000000E+00; -5.6402216E-05;  8.2674423E+01;
 -5.0000001E-02;  9.9999998E-03;  4.3000001E-01;1451;  0.0000000E+00;  0.0000000E+00;  0.0000000E+00;  1.0000000E+03;  1.0000000E-01;  0.0000000E+00;0;  0.0000000E+00;  0.0000000E+00;  0.0000000E+00;0; -3.0925668E-05;  4.0000000E+04;  0.0000000E+00;  0.0000000E+00;  4.0000000E+04;  0.0000000E+00;  4.0000000E+04; -1.1718564E-05;  0.0000000E+00; -1.9207104E-05;  2.9710730E+01;
 -5.0000001E-02;  9.9999998E-03;  4.4000000E-01;1452;  0.0000000E+00;  0.0000000E+00;  0.0000000E+00;  1.0000000E+03;  1.0000000E-01;  0.0000000E+00;0;  0.0000000E+00;  0.0000000E+00;  0.0000000E+00;0; -6.0814500E-06;  4.0000000E+04;  0.0000000E+00;  0.0000000E+00;  4.0000000E+04;  0.0000000E+00;  4.0000000E+04; -2.1958620E-06;  0.0000000E+00; -3.8855878E-06;  6.4373317E+00;
 -5.0000001E-02;  9.9999998E-03;  4.4999999E-01;1453;  0.0000000E+00;  0.0000000E+00;  0.0000000E+00;  1.0000000E+03;  1.0000000E-01;  0.0000000E+00;0;  0.0000000E+00;  0.0000000E+00;  0.0000000E+00;0; -3.7475004E-07;  4.0000000E+04;  0.0000000E+00;  0.0000000E+00;  4.0000000E+04;  0.0000000E+00;  4.0000000E+04; -1.3438424E-07;  0.0000000E+00; -2.4036581E-07;  4.4388315E-01;
 -3.9999999E-02;  9.9999998E-03;  4.1000000E-01;1540;  0.0000000E+00;  0.0000000E+00;  0.0000000E+00;  1.0000480E+03;  1.0000000E-01;  3.9801342E+01;0;  0.0000000E+00;  0.0000000E+00;  0.0000000E+00;0; -3.3887266E-04;  4.0000000E+04;  0.0000000E+00;  0.0000000E+00;  4.0000000E+04;  0.0000000E+00;  4.0000000E+04; -1.5131351E-04;  0.0000000E+00; -1.8755917E-04;  2.4924242E+02;
 -3.9999999E-02;  9.9999998E-03;  4.1999999E-01;1541;  0.0000000E+00;  0.0000000E+00;  0.0000000E+00;  1.0000000E+03;  1.0000000E-01;  0.0000000E+00;0;  0.0000000E+00;  0.0000000E+00;  0.0000000E+00;0; -1.5393959E-04;  4.0000000E+04;  0.0000000E+00;  0.0000000E+00;  4.0000000E+04;  0.0000000E+00;  4.0000000E+04; -6.2433377E-05;  0.0000000E+00; -9.1506205E-05;  1.2787521E+02;
 -3.9999999E-02;  9.9999998E-03;  4.3000001E-01;1542;  0.0000000E+00;  0.0000000E+00;  0.0000000E+00;  1.0000000E+03;  1.0000000E-01;  0.0000000E+00;0;  0.0000000E+00;  0.0000000E+00;  0.0000000E+00;0; -5.5071512E-05;  4.0000000E+04;  0.0000000E+00;  0.0000000E+00;  4.0000000E+04;  0.0000000E+00;  4.0000000E+04; -2.0569838E-05;  0.0000000E+00; -3.4501674E-05;  5.1165127E+01;
 -3.9999999E-02;  9.9999998E-03;  4.4000000E-01;1543;  0.0000000E+00;  0.0000000E+00;  0.0000000E+00;  1.0000000E+03;  1.0000000E-01;  0.0000000E+00;0;  0.0000000E+00;  0.0000000E+00;  0.0000000E+00;0; -1.3131271E-05;  4.0000000E+04;  0.0000000E+00;  0.0000000E+00;  4.0000000E+04;  0.0000000E+00;  4.0000000E+04; -4.6169580E-06;  0.0000000E+00; -8.5143129E-06;  1.3594126E+01;
 -3.9999999E-02;  9.9999998E-03;  4.4999999E-01;1544;  0.0000000E+00;  0.0000000E+00;  0.0000000E+00;  1.0000000E+03;  1.0000000E-01;  0.0000000E+00;0;  0.0000000E+00;  0.0000000E+00;  0.0000000E+00;0; -1.3568809E-06;  4.0000000E+04;  0.0000000E+00;  0.0000000E+00;  4.0000000E+04;  0.0000000E+00;  4.0000000E+04; -4.6172036E-07;  0.0000000E+00; -8.9516061E-07;  1.5835695E+00;
 -2.9999999E-02;  9.9999998E-03;  4.1000000E-01;1631;  0.0000000E+00;  0.0000000E+00;  0.0000000E+00;  1.0000668E+03;  1.0000000E-01;  5.5307079E+01;0;  0.0000000E+00;  0.0000000E+00;  0.0000000E+00;0; -4.7985816E-04;  4.0000000E+04;  0.0000000E+00;  0.0000000E+00;  4.0000000E+04;  0.0000000E+00;  4.0000000E+04; -2.1278174E-04;  0.0000000E+00; -2.6707642E-04;  3.3386609E+02;
 -2.9999999E-02;  9.9999998E-03;  4.1999999E-01;1632;  0.0000000E+00;  0.0000000E+00;  0.0000000E+00;  1.0000106E+03;  1.0000000E-01;  8.7898750E+00;0;  0.0000000E+00;  0.0000000E+00;  0.0000000E+00;0; -2.2744900E-04;  4.0000000E+04;  0.0000000E+00;  0.0000000E+00;  4.0000000E+04;  0.0000000E+00;  4.0000000E+04; -9.1366470E-05;  0.0000000E+00; -1.3608253E-04;  1.7944708E+02;
 -2.9999999E-02;  9.9999998E-03;  4.3000001E-01;1633;  0.0000000E+00;  0.0000000E+00;  0.0000000E+00;  1.0000000E+03;  1.0000000E-01;  0.0000000E+00;0;  0.0000000E+00;  0.0000000E+00;  0.0000000E+00;0; -8.7138040E-05;  4.0000000E+04;  0.0000000E+00;  0.0000000E+00;  4.0000000E+04;  0.0000000E+00;  4.0000000E+04; -3.2074648E-05;  0.0000000E+00; -5.5063392E-05;  7.7410263E+01;
 -2.9999999E-02;  9.9999998E-03;  4.4000000E-01;1634;  0.0000000E+00;  0.0000000E+00;  0.0000000E+00;  1.0000000E+03;  1.0000000E-01;  0.0000000E+00;0;  0.0000000E+00;  0.0000000E+00;  0.0000000E+00;0; -2.3558125E-05;  4.0000000E+04;  0.0000000E+00;  0.0000000E+00;  4.0000000E+04;  0.0000000E+00;  4.0000000E+04; -8.0806067E-06;  0.0000000E+00; -1.5477517E-05;  2.3568884E+01;
 -2.9999999E-02;  9.9999998E-03;  4.4999999E-01;1635;  0.0000000E+00;  0.0000000E+00;  0.0000000E+00;  1.0000000E+03;  1.0000000E-01;  0.0000000E+00;0;  0.0000000E+00;  0.0000000E+00;  0.0000000E+00;0; -3.2711064E-06;  4.0000000E+04;  0.0000000E+00;  0.0000000E+00;  4.0000000E+04;  0.0000000E+00;  4.0000000E+04; -1.0617495E-06;  0.0000000E+00; -2.2093568E-06;  3.7386620E+00;
 -2.0000000E-02;  9.9999998E-03;  4.1000000E-01;1722;  0.0000000E+00;  0.0000000E+00;  0.0000000E+00;  1.0000818E+03;  1.0000000E-01;  6.7751167E+01;0;  0.0000000E+00;  0.0000000E+00;  0.0000000E+00;0; -6.3989335E-04;  4.0000000E+04;  0.0000000E+00;  0.0000000E+00;  4.0000000E+04;  0.0000000E+00;  4.0000000E+04; -2.8075848E-04;  0.0000000E+00; -3.5913486E-04;  4.1835699E+02;
 -2.0000000E-02;  9.9999998E-03;  4.1999999E-01;1723;  0.0000000E+00;  0.0000000E+00;  0.0000000E+00;  1.0000462E+03;  1.0000000E-01;  3.8319904E+01;0;  0.0000000E+00;  0.0000000E+00;  0.0000000E+00;0; -3.1278445E-04;  4.0000000E+04;  0.0000000E+00;  0.0000000E+00;  4.0000000E+04;  0.0000000E+00;  4.0000000E+04; -1.2403082E-04;  0.0000000E+00; -1.8875363E-04;  2.3232883E+02;
 -2.0000000E-02;  9.9999998E-03;  4.3000001E-01;1724;  0.0000000E+00;  0.0000000E+00;  0.0000000E+00;  1.0000000E+03;  1.0000000E-01;  0.0000000E+00;0;  0.0000000E+00;  0.0000000E+00;  0.0000000E+00;0; -1.2574228E-04;  4.0000000E+04;  0.0000000E+00;  0.0000000E+00;  4.0000000E+04;  0.0000000E+00;  4.0000000E+04; -4.5496046E-05;  0.0000000E+00; -8.0246245E-05;  1.0564941E+02;
 -2.0000000E-02;  9.9999998E-03;  4.4000000E-01;1725;  0.0000000E+00;  0.0000000E+00;  0.0000000E+00;  1.0000000E+03;  1.0000000E-01;  0.0000000E+00;0;  0.0000000E+00;  0.0000000E+00;  0.0000000E+00;0; -3.6994061E-05;  4.0000000E+04;  0.0000000E+00;  0.0000000E+00;  4.0000000E+04;  0.0000000E+00;  4.0000000E+04; -1.2365854E-05;  0.0000000E+00; -2.4628207E-05;  3.5317749E+01;
 -2.0000000E-02;  9.9999998E-03;  4.4999999E-01;1726;  0.0000000E+00;  0.0000000E+00;  0.0000000E+00;  1.0000000E+03;  1.0000000E-01;  0.0000000E+00;0;  0.0000000E+00;  0.0000000E+00;  0.0000000E+00;0; -6.1662431E-06;  4.0000000E+04;  0.0000000E+00;  0.0000000E+00;  4.0000000E+04;  0.0000000E+00;  4.0000000E+04; -1.9127835E-06;  0.0000000E+00; -4.2534598E-06;  6.8258147E+00;
 -9.9999998E-03;  9.9999998E-03;  4.1000000E-01;1813;  0.0000000E+00;  0.0000000E+00;  0.0000000E+00;  1.0001145E+03;  1.0000000E-01;  9.4910896E+01;0;  0.0000000E+00;  0.0000000E+00;  0.0000000E+00;0; -8.1053982E-04;  4.0000000E+04;  0.0000000E+00;  0.0000000E+00;  4.0000000E+04;  0.0000000E+00;  4.0000000E+04; -3.5018998E-04;  0.0000000E+00; -4.6034984E-04;  4.9481165E+02;
 -9.9999998E-03;  9.9999998E-03;  4.1999999E-01;1814;  0.0000000E+00;  0.0000000E+00;  0.0000000E+00;  1.0000550E+03;  1.0000000E-01;  4.5529575E+01;0;  0.0000000E+00;  0.0000000E+00;  0.0000000E+00;0; -4.0509735E-04;  4.0000000E+04;  0.0000000E+00;  0.0000000E+00;  4.0000000E+04;  0.0000000E+00;  4.0000000E+04; -1.5779829E-04;  0.0000000E+00; -2.4729906E-04;  2.8076978E+02;
 -9.9999998E-03;  9.9999998E-03;  4.3000001E-01;1815;  0.0000000E+00;  0.0000000E+00;  0.0000000E+00;  1.0000000E+03;  1.0000000E-01;  0.0000000E+00;0;  0.0000000E+00;  0.0000000E+00;  0.0000000E+00;0; -1.6843292E-04;  4.0000000E+04;  0.0000000E+00;  0.0000000E+00;  4.0000000E+04;  0.0000000E+00;  4.0000000E+04; -5.9640712E-05;  0.0000000E+00; -1.0879221E-04;  1.3229984E+02;
 -9.9999998E-03;  9.9999998E-03;  4.4000000E-01;1816;  0.0000000E+00;  0.0000000E+00;  0.0000000E+00;  1.0000000E+03;  1.0000000E-01;  0.0000000E+00;0;  0.0000000E+00;  0.0000000E+00;  0.0000000E+00;0; -5.2464700E-05;  4.0000000E+04;  0.0000000E+00;  0.0000000E+00;  4.0000000E+04;  0.0000000E+00;  4.0000000E+04; -1.7034745E-05;  0.0000000E+00; -3.5429955E-05;  4.7125336E+01;
 -9.9999998E-03;  9.9999998E-03;  4.4999999E-01;1817;  0.0000000E+00;  0.0000000E+00;  0.0000000E+00;  1.0000000E+03;  1.0000000E-01;  0.0000000E+00;0;  0.0000000E+00;  0.0000000E+00;  0.0000000E+00;0; -9.8235105E-06;  4.0000000E+04;  0.0000000E+00;  0.0000000E+00;  4.0000000E+04;  0.0000000E+00;  4.0000000E+04; -2.9086211E-06;  0.0000000E+00; -6.9148896E-06;  1.0371516E+01;
  0.0000000E+00;  9.9999998E-03;  4.1000000E-01;1845;  0.0000000E+00;  0.0000000E+00;  0.0000000E+00;  1.0001338E+03;  1.0000000E-01;  1.1081168E+02;0;  0.0000000E+00;  0.0000000E+00;  0.0000000E+00;0; -9.8197721E-04;  4.0000000E+04;  0.0000000E+00;  0.0000000E+00;  4.0000000E+04;  0.0000000E+00;  4.0000000E+04; -4.1525441E-04;  0.0000000E+00; -5.6672283E-04;  5.5655786E+02;
  0.0000000E+00;  9.9999998E-03;  4.1999999E-01;1846;  0.0000000E+00;  0.0000000E+00;  0.0000000E+00;  1.0000707E+03;  1.0000000E-01;  5.8566246E+01;0;  0.0000000E+00;  0.0000000E+00;  0.0000000E+00;0; -4.9860688E-04;  4.0000000E+04;  0.0000000E+00;  0.0000000E+00;  4.0000000E+04;  0.0000000E+00;  4.0000000E+04; -1.8955178E-04;  0.0000000E+00; -3.0905509E-04;  3.1954779E+02;
  0.0000000E+00;  9.9999998E-03;  4.3000001E-01;1847;  0.0000000E+00;  0.0000000E+00;  0.0000000E+00;  1.0000084E+03;  1.0000000E-01;  6.9133849E+00;0;  0.0000000E+00;  0.0000000E+00;  0.0000000E+00;0; -2.1214297E-04;  4.0000000E+04;  0.0000000E+00;  0.0000000E+00;  4.0000000E+04;  0.0000000E+00;  4.0000000E+04; -7.3039795E-05;  0.0000000E+00; -1.3910317E-04;  1.5378188E+02;
  0.0000000E+00;  9.9999998E-03;  4.4000000E-01;1848;  0.0000000E+00;  0.0000000E+00;  0.0000000E+00;  1.0000000E+03;  1.0000000E-01;  0.0000000E+00;0;  0.0000000E+00;  0.0000000E+00;  0.0000000E+00;0; -6.8609625E-05;  4.0000000E+04;  0.0000000E+00;  0.0000000E+00;  4.0000000E+04;  0.0000000E+00;  4.0000000E+04; -2.1516591E-05;  0.0000000E+00; -4.7093032E-05;  5.7025219E+01;
  0.0000000E+00;  9.9999998E-03;  4.4999999E-01;1849;  0.0000000E+00;  0.0000000E+00;  0.0000000E+00;  1.0000000E+03;  1.0000000E-01;  0.0000000E+00;0;  0.0000000E+00;  0.0000000E+00;  0.0000000E+00;0; -1.3821329E-05;  4.0000000E+04;  0.0000000E+00;  0.0000000E+00;  4.0000000E+04;  0.0000000E+00;  4.0000000E+04; -3.8896283E-06;  0.0000000E+00; -9.9317003E-06;  1.3645088E+01;
  9.9999998E-03;  9.9999998E-03;  4.1000000E-01;1875;  0.0000000E+00;  0.0000000E+00;  0.0000000E+00;  1.0001607E+03;  1.0000000E-01;  1.3313203E+02;0;  0.0000000E+00;  0.0000000E+00;  0.0000000E+00;0; -1.1444325E-03;  4.0000000E+04;  0.0000000E+00;  0.0000000E+00;  4.0000000E+04;  0.0000000E+00;  4.0000000E+04; -4.7026901E-04;  0.0000000E+00; -6.7416340E-04;  5.9988983E+02;
  9.9999998E-03;  9.9999998E-03;  4.1999999E-01;1876;  0.0000000E+00;  0.0000000E+00;  0.0000000E+00;  1.0000851E+03;  1.0000000E-01;  7.0516525E+01;0;  0.0000000E+00;  0.0000000E+00;  0.0000000E+00;0; -5.8754761E-04;  4.0000000E+04;  0.0000000E+00;  0.0000000E+00;  4.0000000E+04;  0.0000000E+00;  4.0000000E+04; -2.1618948E-04;  0.0000000E+00; -3.7135812E-04;  3.4524652E+02;
  9.9999998E-03;  9.9999998E-03;  4.3000001E-01;1877;  0.0000000E+00;  0.0000000E+00;  0.0000000E+00;  1.0000317E+03;  1.0000000E-01;  2.6270863E+01;0;  0.0000000E+00;  0.0000000E+00;  0.0000000E+00;0; -2.5377818E-04;  4.0000000E+04;  0.0000000E+00;  0.0000000E+00;  4.0000000E+04;  0.0000000E+00;  4.0000000E+04; -8.4205945E-05;  0.0000000E+00; -1.6957225E-04;  1.6739801E+02;
  9.9999998E-03;  9.9999998E-03;  4.4000000E-01;1878;  0.0000000E+00;  0.0000000E+00;  0.0000000E+00;  1.0000000E+03;  1.0000000E-01;  0.0000000E+00;0;  0.0000000E+00;  0.0000000E+00;  0.0000000E+00;0; -8.4003987E-05;  4.0000000E+04;  0.0000000E+00;  0.0000000E+00;  4.0000000E+04;  0.0000000E+00;  4.0000000E+04; -2.5226733E-05;  0.0000000E+00; -5.8777256E-05;  6.3314060E+01;
  9.9999998E-03;  9.9999998E-03;  4.4999999E-01;1879;  0.0000000E+00;  0.0000000E+00;  0.0000000E+00;  1.0000000E+03;  1.0000000E-01;  0.0000000E+00;0;  0.0000000E+00;  0.0000000E+00;  0.0000000E+00;0; -1.7666669E-05;  4.0000000E+04;  0.0000000E+00;  0.0000000E+00;  4.0000000E+04;  0.0000000E+00;  4.0000000E+04; -4.6902951E-06;  0.0000000E+00; -1.2976374E-05;  1.5889925E+01;
  2.0000000E-02;  9.9999998E-03;  4.1000000E-01;1905;  0.0000000E+00;  0.0000000E+00;  0.0000000E+00;  1.0001855E+03;  1.0000000E-01;  1.5367467E+02;0;  0.0000000E+00;  0.0000000E+00;  0.0000000E+00;0; -1.2895970E-03;  4.0000000E+04;  0.0000000E+00;  0.0000000E+00;  4.0000000E+04;  0.0000000E+00;  4.0000000E+04; -5.1071268E-04;  0.0000000E+00; -7.7888434E-04;  6.2547449E+02;
  2.0000000E-02;  9.9999998E-03;  4.1999999E-01;1906;  0.0000000E+00;  0.0000000E+00;  0.0000000E+00;  1.0001039E+03;  1.0000000E-01;  8.6022255E+01;0;  0.0000000E+00;  0.0000000E+00;  0.0000000E+00;0; -6.6709542E-04;  4.0000000E+04;  0.0000000E+00;  0.0000000E+00;  4.0000000E+04;  0.0000000E+00;  4.0000000E+04; -2.3519582E-04;  0.0000000E+00; -4.3189959E-04;  3.5735941E+02;
  2.0000000E-02;  9.9999998E-03;  4.3000001E-01;1907;  0.0000000E+00;  0.0000000E+00;  0.0000000E+00;  1.0000461E+03;  1.0000000E-01;  3.8221142E+01;0;  0.0000000E+00;  0.0000000E+00;  0.0000000E+00;0; -2.9080064E-04;  4.0000000E+04;  0.0000000E+00;  0.0000000E+00;  4.0000000E+04;  0.0000000E+00;  4.0000000E+04; -9.1919377E-05;  0.0000000E+00; -1.9888126E-04;  1.7211661E+02;
  2.0000000E-02;  9.9999998E-03;  4.4000000E-01;1908;  0.0000000E+00;  0.0000000E+00;  0.0000000E+00;  1.0000000E+03;  1.0000000E-01;  0.0000000E+00;0;  0.0000000E+00;  0.0000000E+00;  0.0000000E+00;0; -9.7488984E-05;  4.0000000E+04;  0.0000000E+00;  0.0000000E+00;  4.0000000E+04;  0.0000000E+00;  4.0000000E+04; -2.7691898E-05;  0.0000000E+00; -6.9797083E-05;  6.5034836E+01;
  2.0000000E-02;  9.9999998E-03;  4.4999999E-01;1909;  0.0000000E+00;  0.0000000E+00;  0.0000000E+00;  1.0000000E+03;  1.0000000E-01;  0.0000000E+00;0;  0.0000000E+00;  0.0000000E+00;  0.0000000E+00;0; -2.0945794E-05;  4.0000000E+04;  0.0000000E+00;  0.0000000E+00;  4.0000000E+04;  0.0000000E+00;  4.0000000E+04; -5.1861116E-06;  0.0000000E+00; -1.5759682E-05;  1.6567808E+01;
  2.9999999E-02;  9.9999998E-03;  4.1000000E-01;1935;  0.0000000E+00;  0.0000000E+00;  0.0000000E+00;  1.0002184E+03;  1.0000000E-01;  1.8093315E+02;0;  0.0000000E+00;  0.0000000E+00;  0.0000000E+00;0; -1.4117623E-03;  4.0000000E+04;  0.0000000E+00;  0.0000000E+00;  4.0000000E+04;  0.0000000E+00;  4.0000000E+04; -5.3412979E-04;  0.0000000E+00; -8.7763253E-04;  6.3931244E+02;
  2.9999999E-02;  9.9999998E-03;  4.1999999E-01;1936;  0.0000000E+00;  0.0000000E+00;  0.0000000E+00;  1.0001152E+03;  1.0000000E-01;  9.5503471E+01;0;  0.0000000E+00;  0.0000000E+00;  0.0000000E+00;0; -7.3404645E-04;  4.0000000E+04;  0.0000000E+00;  0.0000000E+00;  4.0000000E+04;  0.0000000E+00;  4.0000000E+04; -2.4515597E-04;  0.0000000E+00; -4.8889051E-04;  3.5902307E+02;
  2.9999999E-02;  9.9999998E-03;  4.3000001E-01;1937;  0.0000000E+00;  0.0000000E+00;  0.0000000E+00;  1.0000506E+03;  1.0000000E-01;  4.1875359E+01;0;  0.0000000E+00;  0.0000000E+00;  0.0000000E+00;0; -3.2164634E-04;  4.0000000E+04;  0.0000000E+00;  0.0000000E+00;  4.0000000E+04;  0.0000000E+00;  4.0000000E+04; -9.5480413E-05;  0.0000000E+00; -2.2616594E-04;  1.6909926E+02;
  2.9999999E-02;  9.9999998E-03;  4.4000000E-01;1938;  0.0000000E+00;  0.0000000E+00;  0.0000000E+00;  1.0000000E+03;  1.0000000E-01;  0.0000000E+00;0;  0.0000000E+00;  0.0000000E+00;  0.0000000E+00;0; -1.0841544E-04;  4.0000000E+04;  0.0000000E+00;  0.0000000E+00;  4.0000000E+04;  0.0000000E+00;  4.0000000E+04; -2.8651019E-05;  0.0000000E+00; -7.9764424E-05;  6.2328430E+01;
  2.9999999E-02;  9.9999998E-03;  4.4999999E-01;1939;  0.0000000E+00;  0.0000000E+00;  0.0000000E+00;  1.0000000E+03;  1.0000000E-01;  0.0000000E+00;0;  0.0000000E+00;  0.0000000E+00;  0.0000000E+00;0; -2.3442821E-05;  4.0000000E+04;  0.0000000E+00;  0.0000000E+00;  4.0000000E+04;  0.0000000E+00;  4.0000000E+04; -5.3235872E-06;  0.0000000E+00; -1.8119234E-05;  1.5542933E+01;
  3.9999999E-02;  9.9999998E-03;  4.1000000E-01;1965;  0.0000000E+00;  0.0000000E+00;  0.0000000E+00;  1.0002393E+03;  1.0000000E-01;  1.9821661E+02;0;  0.0000000E+00;  0.0000000E+00;  0.0000000E+00;0; -1.5085703E-03;  4.0000000E+04;  0.0000000E+00;  0.0000000E+00;  4.0000000E+04;  0.0000000E+00;  4.0000000E+04; -5.4067117E-04;  0.0000000E+00; -9.6789910E-04;  6.5258014E+02;
  3.9999999E-02;  9.9999998E-03;  4.1999999E-01;1966;  0.0000000E+00;  0.0000000E+00;  0.0000000E+00;  1.0001202E+03;  1.0000000E-01;  9.9552742E+01;0;  0.0000000E+00;  0.0000000E+00;  0.0000000E+00;0; -7.8715920E-04;  4.0000000E+04;  0.0000000E+00;  0.0000000E+00;  4.0000000E+04;  0.0000000E+00;  4.0000000E+04; -2.4609515E-04;  0.0000000E+00; -5.4106402E-04;  3.5713065E+02;
  3.9999999E-02;  9.9999998E-03;  4.3000001E-01;1967;  0.0000000E+00;  0.0000000E+00;  0.0000000E+00;  1.0000569E+03;  1.0000000E-01;  4.7109779E+01;0;  0.0000000E+00;  0.0000000E+00;  0.0000000E+00;0; -3.4588348E-04;  4.0000000E+04;  0.0000000E+00;  0.0000000E+00;  4.0000000E+04;  0.0000000E+00;  4.0000000E+04; -9.4875657E-05;  0.0000000E+00; -2.5100782E-04;  1.6187102E+02;
  3.9999999E-02;  9.9999998E-03;  4.4000000E-01;1968;  0.0000000E+00;  0.0000000E+00;  0.0000000E+00;  1.0000000E+03;  1.0000000E-01;  0.0000000E+00;0;  0.0000000E+00;  0.0000000E+00;  0.0000000E+00;0; -1.1673060E-04;  4.0000000E+04;  0.0000000E+00;  0.0000000E+00;  4.0000000E+04;  0.0000000E+00;  4.0000000E+04; -2.8109447E-05;  0.0000000E+00; -8.8621156E-05;  5.6567215E+01;
  3.9999999E-02;  9.9999998E-03;  4.4999999E-01;1969;  0.0000000E+00;  0.0000000E+00;  0.0000000E+00;  1.0000000E+03;  1.0000000E-01;  0.0000000E+00;0;  0.0000000E+00;  0.0000000E+00;  0.0000000E+00;0; -2.5184860E-05;  4.0000000E+04;  0.0000000E+00;  0.0000000E+00;  4.0000000E+04;  0.0000000E+00;  4.0000000E+04; -5.1253760E-06;  0.0000000E+00; -2.0059484E-05;  1.3165356E+01;
  5.0000001E-02;  9.9999998E-03;  4.1000000E-01;1995;  0.0000000E+00;  0.0000000E+00;  0.0000000E+00;  1.0002523E+03;  1.0000000E-01;  2.0908051E+02;0;  0.0000000E+00;  0.0000000E+00;  0.0000000E+00;0; -1.5815074E-03;  4.0000000E+04;  0.0000000E+00;  0.0000000E+00;  4.0000000E+04;  0.0000000E+00;  4.0000000E+04; -5.3317868E-04;  0.0000000E+00; -1.0483287E-03;  6.8011810E+02;
  5.0000001E-02;  9.9999998E-03;  4.1999999E-01;1996;  0.0000000E+00;  0.0000000E+00;  0.0000000E+00;  1.0001295E+03;  1.0000000E-01;  1.0725623E+02;0;  0.0000000E+00;  0.0000000E+00;  0.0000000E+00;0; -8.2727411E-04;  4.0000000E+04;  0.0000000E+00;  0.0000000E+00;  4.0000000E+04;  0.0000000E+00;  4.0000000E+04; -2.3958604E-04;  0.0000000E+00; -5.8768806E-04;  3.6164539E+02;
  5.0000001E-02;  9.9999998E-03;  4.3000001E-01;1997;  0.0000000E+00;  0.0000000E+00;  0.0000000E+00;  1.0000646E+03;  1.0000000E-01;  5.3529350E+01;0;  0.0000000E+00;  0.0000000E+00;  0.0000000E+00;0; -3.6412553E-04;  4.0000000E+04;  0.0000000E+00;  0.0000000E+00;  4.0000000E+04;  0.0000000E+00;  4.0000000E+04; -9.0830654E-05;  0.0000000E+00; -2.7329489E-04;  1.5603693E+02;
  5.0000001E-02;  9.9999998E-03;  4.4000000E-01;1998;  0.0000000E+00;  0.0000000E+00;  0.0000000E+00;  1.0000000E+03;  1.0000000E-01;  0.0000000E+00;0;  0.0000000E+00;  0.0000000E+00;  0.0000000E+00;0; -1.2288491E-04;  4.0000000E+04;  0.0000000E+00;  0.0000000E+00;  4.0000000E+04;  0.0000000E+00;  4.0000000E+04; -2.6341466E-05;  0.0000000E+00; -9.6543445E-05;  5.0240040E+01;
  5.0000001E-02;  9.9999998E-03;  4.4999999E-01;1999;  0.0000000E+00;  0.0000000E+00;  0.0000000E+00;  1.0000000E+03;  1.0000000E-01;  0.0000000E+00;0;  0.0000000E+00;  0.0000000E+00;  0.0000000E+00;0; -2.6396441E-05;  4.0000000E+04;  0.0000000E+00;  0.0000000E+00;  4.0000000E+04;  0.0000000E+00;  4.0000000E+04; -4.6734208E-06;  0.0000000E+00; -2.1723021E-05;  1.0225668E+01;
  5.9999999E-02;  9.9999998E-03;  4.1000000E-01;2025;  0.0000000E+00;  0.0000000E+00;  0.0000000E+00;  1.0002593E+03;  1.0000000E-01;  2.1480875E+02;0;  0.0000000E+00;  0.0000000E+00;  0.0000000E+00;0; -1.6361802E-03;  4.0000000E+04;  0.0000000E+00;  0.0000000E+00;  4.0000000E+04;  0.0000000E+00;  4.0000000E+04; -5.1700359E-04;  0.0000000E+00; -1.1191766E-03;  7.3743658E+02;
  5.9999999E-02;  9.9999998E-03;  4.1999999E-01;2026;  0.0000000E+00;  0.0000000E+00;  0.0000000E+00;  1.0001318E+03;  1.0000000E-01;  1.0913271E+02;0;  0.0000000E+00;  0.0000000E+00;  0.0000000E+00;0; -8.5740216E-04;  4.0000000E+04;  0.0000000E+00;  0.0000000E+00;  4.0000000E+04;  0.0000000E+00;  4.0000000E+04; -2.2859673E-04;  0.0000000E+00; -6.2880543E-04;  3.8382565E+02;
  5.9999999E-02;  9.9999998E-03;  4.3000001E-01;2027;  0.0000000E+00;  0.0000000E+00;  0.0000000E+00;  1.0000660E+03;  1.0000000E-01;  5.4615738E+01;0;  0.0000000E+00;  0.0000000E+00;  0.0000000E+00;0; -3.7784909E-04;  4.0000000E+04;  0.0000000E+00;  0.0000000E+00;  4.0000000E+04;  0.0000000E+00;  4.0000000E+04; -8.4739600E-05;  0.0000000E+00; -2.9310948E-04;  1.5844000E+02;
  5.9999999E-02;  9.9999998E-03;  4.4000000E-01;2028;  0.0000000E+00;  0.0000000E+00;  0.0000000E+00;  1.0000000E+03;  1.0000000E-01;  0.0000000E+00;0;  0.0000000E+00;  0.0000000E+00;  0.0000000E+00;0; -1.2760326E-04;  4.0000000E+04;  0.0000000E+00;  0.0000000E+00;  4.0000000E+04;  0.0000000E+00;  4.0000000E+04; -2.3847058E-05;  0.0000000E+00; -1.0375620E-04;  4.6566936E+01;
  5.9999999E-02;  9.9999998E-03;  4.4999999E-01;2029;  0.0000000E+00;  0.0000000E+00;  0.0000000E+00;  1.0000000E+03;  1.0000000E-01;  0.0000000E+00;0;  0.0000000E+00;  0.0000000E+00;  0.0000000E+00;0; -2.7374726E-05;  4.0000000E+04;  0.0000000E+00;  0.0000000E+00;  4.0000000E+04;  0.0000000E+00;  4.0000000E+04; -4.0842983E-06;  0.0000000E+00; -2.3290428E-05;  7.7810597E+00;
  7.0000000E-02;  9.9999998E-03;  4.1000000E-01;2055;  0.0000000E+00;  0.0000000E+00;  0.0000000E+00;  1.0002682E+03;  1.0000000E-01;  2.2221594E+02;0;  0.0000000E+00;  0.0000000E+00;  0.0000000E+00;0; -1.6810291E-03;  4.0000000E+04;  0.0000000E+00;  0.0000000E+00;  4.0000000E+04;  0.0000000E+00;  4.0000000E+04; -4.9917953E-04;  0.0000000E+00; -1.1818495E-03;  8.3669586E+02;
  7.0000000E-02;  9.9999998E-03;  4.1999999E-01;2056;  0.0000000E+00;  0.0000000E+00;  0.0000000E+00;  1.0001349E+03;  1.0000000E-01;  1.1179931E+02;0;  0.0000000E+00;  0.0000000E+00;  0.0000000E+00;0; -8.8231184E-04;  4.0000000E+04;  0.0000000E+00;  0.0000000E+00;  4.0000000E+04;  0.0000000E+00;  4.0000000E+04; -2.1682048E-04;  0.0000000E+00; -6.6549133E-04;  4.3351794E+02;
  7.0000000E-02;  9.9999998E-03;  4.3000001E-01;2057;  0.0000000E+00;  0.0000000E+00;  0.0000000E+00;  1.0000672E+03;  1.0000000E-01;  5.5702129E+01;0;  0.0000000E+00;  0.0000000E+00;  0.0000000E+00;0; -3.8920133E-04;  4.0000000E+04;  0.0000000E+00;  0.0000000E+00;  4.0000000E+04;  0.0000000E+00;  4.0000000E+04; -7.8343888E-05;  0.0000000E+00; -3.1085746E-04;  1.7574480E+02;
  7.0000000E-02;  9.9999998E-03;  4.4000000E-01;2058;  0.0000000E+00;  0.0000000E+00;  0.0000000E+00;  1.0000000E+03;  1.0000000E-01;  0.0000000E+00;0;  0.0000000E+00;  0.0000000E+00;  0.0000000E+00;0; -1.3165682E-04;  4.0000000E+04;  0.0000000E+00;  0.0000000E+00;  4.0000000E+04;  0.0000000E+00;  4.0000000E+04; -2.1244328E-05;  0.0000000E+00; -1.1041250E-04;  4.8918690E+01;
  7.0000000E-02;  9.9999998E-03;  4.4999999E-01;2059;  0.0000000E+00;  0.0000000E+00;  0.0000000E+00;  1.0000000E+03;  1.0000000E-01;  0.0000000E+00;0;  0.0000000E+00;  0.0000000E+00;  0.0000000E+00;0; -2.8360044E-05;  4.0000000E+04;  0.0000000E+00;  0.0000000E+00;  4.0000000E+04;  0.0000000E+00;  4.0000000E+04; -3.4789271E-06;  0.0000000E+00; -2.4881117E-05;  6.9312906E+00;
  7.9999998E-02;  9.9999998E-03;  4.1000000E-01;2085;  0.0000000E+00;  0.0000000E+00;  0.0000000E+00;  1.0002706E+03;  1.0000000E-01;  2.2419119E+02;0;  0.0000000E+00;  0.0000000E+00;  0.0000000E+00;0; -1.7252810E-03;  4.0000000E+04;  0.0000000E+00;  0.0000000E+00;  4.0000000E+04;  0.0000000E+00;  4.0000000E+04; -4.8804272E-04;  0.0000000E+00; -1.2372383E-03;  9.8326123E+02;
  7.9999998E-02;  9.9999998E-03;  4.1999999E-01;2086;  0.0000000E+00;  0.0000000E+00;  0.0000000E+00;  1.0001359E+03;  1.0000000E-01;  1.1258941E+02;0;  0.0000000E+00;  0.0000000E+00;  0.0000000E+00;0; -9.0734288E-04;  4.0000000E+04;  0.0000000E+00;  0.0000000E+00;  4.0000000E+04;  0.0000000E+00;  4.0000000E+04; -2.0810009E-04;  0.0000000E+00; -6.9924281E-04;  5.1621167E+02;
  7.9999998E-02;  9.9999998E-03;  4.3000001E-01;2087;  0.0000000E+00;  0.0000000E+00;  0.0000000E+00;  1.0000687E+03;  1.0000000E-01;  5.6887280E+01;0;  0.0000000E+00;  0.0000000E+00;  0.0000000E+00;0; -4.0077456E-04;  4.0000000E+04;  0.0000000E+00;  0.0000000E+00;  4.0000000E+04;  0.0000000E+00;  4.0000000E+04; -7.3313036E-05;  0.0000000E+00; -3.2746152E-04;  2.1258932E+02;
  7.9999998E-02;  9.9999998E-03;  4.4000000E-01;2088;  0.0000000E+00;  0.0000000E+00;  0.0000000E+00;  1.0000000E+03;  1.0000000E-01;  0.0000000E+00;0;  0.0000000E+00;  0.0000000E+00;  0.0000000E+00;0; -1.3579668E-04;  4.0000000E+04;  0.0000000E+00;  0.0000000E+00;  4.0000000E+04;  0.0000000E+00;  4.0000000E+04; -1.9127559E-05;  0.0000000E+00; -1.1666913E-04;  6.0063484E+01;
  7.9999998E-02;  9.9999998E-03;  4.4999999E-01;2089;  0.0000000E+00;  0.0000000E+00;  0.0000000E+00;  1.0000000E+03;  1.0000000E-01;  0.0000000E+00;0;  0.0000000E+00;  0.0000000E+00;  0.0000000E+00;0; -2.9470493E-05;  4.0000000E+04;  0.0000000E+00;  0.0000000E+00;  4.0000000E+04;  0.0000000E+00;  4.0000000E+04; -2.9485000E-06;  0.0000000E+00; -2.6521993E-05;  8.6274509E+00;
  9.0000004E-02;  9.9999998E-03;  4.1000000E-01;2115;  0.0000000E+00;  0.0000000E+00;  0.0000000E+00;  1.0002712E+03;  1.0000000E-01;  2.2468500E+02;0;  0.0000000E+00;  0.0000000E+00;  0.0000000E+00;0; -1.7779385E-03;  4.0000000E+04;  0.0000000E+00;  0.0000000E+00;  4.0000000E+04;  0.0000000E+00;  4.0000000E+04; -4.9360911E-04;  0.0000000E+00; -1.2843293E-03;  1.1741704E+03;
  9.0000004E-02;  9.9999998E-03;  4.1999999E-01;2116;  0.0000000E+00;  0.0000000E+00;  0.0000000E+00;  1.0001354E+03;  1.0000000E-01;  1.1219436E+02;0;  0.0000000E+00;  0.0000000E+00;  0.0000000E+00;0; -9.3710399E-04;  4.0000000E+04;  0.0000000E+00;  0.0000000E+00;  4.0000000E+04;  0.0000000E+00;  4.0000000E+04; -2.0670383E-04;  0.0000000E+00; -7.3040015E-04;  6.3147272E+02;
  9.0000004E-02;  9.9999998E-03;  4.3000001E-01;2117;  0.0000000E+00;  0.0000000E+00;  0.0000000E+00;  1.0000709E+03;  1.0000000E-01;  5.8763771E+01;0;  0.0000000E+00;  0.0000000E+00;  0.0000000E+00;0; -4.1496422E-04;  4.0000000E+04;  0.0000000E+00;  0.0000000E+00;  4.0000000E+04;  0.0000000E+00;  4.0000000E+04; -7.1125934E-05;  0.0000000E+00; -3.4383827E-04;  2.7008334E+02;
  9.0000004E-02;  9.9999998E-03;  4.4000000E-01;2118;  0.0000000E+00;  0.0000000E+00;  0.0000000E+00;  1.0000000E+03;  1.0000000E-01;  0.0000000E+00;0;  0.0000000E+00;  0.0000000E+00;  0.0000000E+00;0; -1.4082447E-04;  4.0000000E+04;  0.0000000E+00;  0.0000000E+00;  4.0000000E+04;  0.0000000E+00;  4.0000000E+04; -1.7963535E-05;  0.0000000E+00; -1.2286093E-04;  8.1369446E+01;
  9.0000004E-02;  9.9999998E-03;  4.4999999E-01;2119;  0.0000000E+00;  0.0000000E+00;  0.0000000E+00;  1.0000000E+03;  1.0000000E-01;  0.0000000E+00;0;  0.0000000E+00;  0.0000000E+00;  0.0000000E+00;0; -3.0704698E-05;  4.0000000E+04;  0.0000000E+00;  0.0000000E+00;  4.0000000E+04;  0.0000000E+00;  4.0000000E+04; -2.5691945E-06;  0.0000000E+00; -2.8135504E-05;  1.3461589E+01;
  1.0000000E-01;  9.9999998E-03;  4.1000000E-01;2145;  0.0000000E+00;  0.0000000E+00;  0.0000000E+00;  1.0002675E+03;  1.0000000E-01;  2.2162337E+02;0;  0.0000000E+00;  0.0000000E+00;  0.0000000E+00;0; -1.8481617E-03;  4.0000000E+04;  0.0000000E+00;  0.0000000E+00;  4.0000000E+04;  0.0000000E+00;  4.0000000E+04; -5.2774773E-04;  0.0000000E+00; -1.3204139E-03;  1.4011787E+03;
  1.0000000E-01;  9.9999998E-03;  4.1999999E-01;2146;  0.0000000E+00;  0.0000000E+00;  0.0000000E+00;  1.0001340E+03;  1.0000000E-01;  1.1100921E+02;0;  0.0000000E+00;  0.0000000E+00;  0.0000000E+00;0; -9.7535882E-04;  4.0000000E+04;  0.0000000E+00;  0.0000000E+00;  4.0000000E+04;  0.0000000E+00;  4.0000000E+04; -2.1806451E-04;  0.0000000E+00; -7.5729430E-04;  7.7496344E+02;
  1.0000000E-01;  9.9999998E-03;  4.3000001E-01;2147;  0.0000000E+00;  0.0000000E+00;  0.0000000E+00;  1.0000734E+03;  1.0000000E-01;  6.0837784E+01;0;  0.0000000E+00;  0.0000000E+00;  0.0000000E+00;0; -4.3331599E-04;  4.0000000E+04;  0.0000000E+00;  0.0000000E+00;  4.0000000E+04;  0.0000000E+00;  4.0000000E+04; -7.3503397E-05;  0.0000000E+00; -3.5981261E-04;  3.4660828E+02;
  1.0000000E-01;  9.9999998E-03;  4.4000000E-01;2148;  0.0000000E+00;  0.0000000E+00;  0.0000000E+00;  1.0000000E+03;  1.0000000E-01;  0.0000000E+00;0;  0.0000000E+00;  0.0000000E+00;  0.0000000E+00;0; -1.4752235E-04;  4.0000000E+04;  0.0000000E+00;  0.0000000E+00;  4.0000000E+04;  0.0000000E+00;  4.0000000E+04; -1.8082306E-05;  0.0000000E+00; -1.2944004E-04;  1.1280560E+02;
  1.0000000E-01;  9.9999998E-03;  4.4999999E-01;2149;  0.0000000E+00;  0.0000000E+00;  0.0000000E+00;  1.0000000E+03;  1.0000000E-01;  0.0000000E+00;0;  0.0000000E+00;  0.0000000E+00;  0.0000000E+00;0; -3.2102515E-05;  4.0000000E+04;  0.0000000E+00;  0.0000000E+00;  4.0000000E+04;  0.0000000E+00;  4.0000000E+04; -2.4443736E-06;  0.0000000E+00; -2.9658142E-05;  2.1611958E+01;
  1.1000000E-01;  9.9999998E-03;  4.1000000E-01;2175;  0.0000000E+00;  0.0000000E+00;  0.0000000E+00;  1.0002659E+03;  1.0000000E-01;  2.2033945E+02;0;  0.0000000E+00;  0.0000000E+00;  0.0000000E+00;0; -1.9463054E-03;  4.0000000E+04;  0.0000000E+00;  0.0000000E+00;  4.0000000E+04;  0.0000000E+00;  4.0000000E+04; -6.0367474E-04;  0.0000000E+00; -1.3426306E-03;  1.6618215E+03;
  1.1000000E-01;  9.9999998E-03;  4.1999999E-01;2176;  0.0000000E+00;  0.0000000E+00;  0.0000000E+00;  1.0001340E+03;  1.0000000E-01;  1.1100921E+02;0;  0.0000000E+00;  0.0000000E+00;  0.0000000E+00;0; -1.0259998E-03;  4.0000000E+04;  0.0000000E+00;  0.0000000E+00;  4.0000000E+04;  0.0000000E+00;  4.0000000E+04; -2.4917742E-04;  0.0000000E+00; -7.7682239E-04;  9.4811584E+02;
  1.1000000E-01;  9.9999998E-03;  4.3000001E-01;2177;  0.0000000E+00;  0.0000000E+00;  0.0000000E+00;  1.0000712E+03;  1.0000000E-01;  5.9060059E+01;0;  0.0000000E+00;  0.0000000E+00;  0.0000000E+00;0; -4.5674836E-04;  4.0000000E+04;  0.0000000E+00;  0.0000000E+00;  4.0000000E+04;  0.0000000E+00;  4.0000000E+04; -8.3082770E-05;  0.0000000E+00; -3.7366559E-04;  4.4351480E+02;
  1.1000000E-01;  9.9999998E-03;  4.4000000E-01;2178;  0.0000000E+00;  0.0000000E+00;  0.0000000E+00;  1.0000000E+03;  1.0000000E-01;  0.0000000E+00;0;  0.0000000E+00;  0.0000000E+00;  0.0000000E+00;0; -1.5624826E-04;  4.0000000E+04;  0.0000000E+00;  0.0000000E+00;  4.0000000E+04;  0.0000000E+00;  4.0000000E+04; -1.9995505E-05;  0.0000000E+00; -1.3625275E-04;  1.5491638E+02;
  1.1000000E-01;  9.9999998E-03;  4.4999999E-01;2179;  0.0000000E+00;  0.0000000E+00;  0.0000000E+00;  1.0000000E+03;  1.0000000E-01;  0.0000000E+00;0;  0.0000000E+00;  0.0000000E+00;  0.0000000E+00;0; -3.3920354E-05;  4.0000000E+04;  0.0000000E+00;  0.0000000E+00;  4.0000000E+04;  0.0000000E+00;  4.0000000E+04; -2.6561315E-06;  0.0000000E+00; -3.1264222E-05;  3.3403275E+01;
  1.2000000E-01;  9.9999998E-03;  4.1000000E-01;2205;  0.0000000E+00;  0.0000000E+00;  0.0000000E+00;  1.0002738E+03;  1.0000000E-01;  2.2685779E+02;0;  0.0000000E+00;  0.0000000E+00;  0.0000000E+00;0; -2.0842762E-03;  4.0000000E+04;  0.0000000E+00;  0.0000000E+00;  4.0000000E+04;  0.0000000E+00;  4.0000000E+04; -7.3471677E-04;  0.0000000E+00; -1.3495594E-03;  1.9889811E+03;
  1.2000000E-01;  9.9999998E-03;  4.1999999E-01;2206;  0.0000000E+00;  0.0000000E+00;  0.0000000E+00;  1.0001343E+03;  1.0000000E-01;  1.1120673E+02;0;  0.0000000E+00;  0.0000000E+00;  0.0000000E+00;0; -1.0943898E-03;  4.0000000E+04;  0.0000000E+00;  0.0000000E+00;  4.0000000E+04;  0.0000000E+00;  4.0000000E+04; -3.0820616E-04;  0.0000000E+00; -7.8618363E-04;  1.1841552E+03;
  1.2000000E-01;  9.9999998E-03;  4.3000001E-01;2207;  0.0000000E+00;  0.0000000E+00;  0.0000000E+00;  1.0000715E+03;  1.0000000E-01;  5.9257584E+01;0;  0.0000000E+00;  0.0000000E+00;  0.0000000E+00;0; -4.8654014E-04;  4.0000000E+04;  0.0000000E+00;  0.0000000E+00;  4.0000000E+04;  0.0000000E+00;  4.0000000E+04; -1.0374346E-04;  0.0000000E+00; -3.8279669E-04;  5.8171466E+02;
  1.2000000E-01;  9.9999998E-03;  4.4000000E-01;2208;  0.0000000E+00;  0.0000000E+00;  0.0000000E+00;  1.0000000E+03;  1.0000000E-01;  0.0000000E+00;0;  0.0000000E+00;  0.0000000E+00;  0.0000000E+00;0; -1.6704744E-04;  4.0000000E+04;  0.0000000E+00;  0.0000000E+00;  4.0000000E+04;  0.0000000E+00;  4.0000000E+04; -2.4866244E-05;  0.0000000E+00; -1.4218120E-04;  2.1568257E+02;
  1.2000000E-01;  9.9999998E-03;  4.4999999E-01;2209;  0.0000000E+00;  0.0000000E+00;  0.0000000E+00;  1.0000000E+03;  1.0000000E-01;  0.0000000E+00;0;  0.0000000E+00;  0.0000000E+00;  0.0000000E+00;0; -3.6428544E-05;  4.0000000E+04;  0.0000000E+00;  0.0000000E+00;  4.0000000E+04;  0.0000000E+00;  4.0000000E+04; -3.3007632E-06;  0.0000000E+00; -3.3127781E-05;  5.0670242E+01;
  1.3000000E-01;  9.9999998E-03;  4.1000000E-01;2235;  0.0000000E+00;  0.0000000E+00;  0.0000000E+00;  1.0002838E+03;  1.0000000E-01;  2.3515384E+02;0;  0.0000000E+00;  0.0000000E+00;  0.0000000E+00;0; -2.2739365E-03;  4.0000000E+04;  0.0000000E+00;  0.0000000E+00;  4.0000000E+04;  0.0000000E+00;  4.0000000E+04; -9.3187351E-04;  0.0000000E+00; -1.3420630E-03;  2.5130728E+03;
  1.3000000E-01;  9.9999998E-03;  4.1999999E-01;2236;  0.0000000E+00;  0.0000000E+00;  0.0000000E+00;  1.0001357E+03;  1.0000000E-01;  1.1239188E+02;0;  0.0000000E+00;  0.0000000E+00;  0.0000000E+00;0; -1.1876044E-03;  4.0000000E+04;  0.0000000E+00;  0.0000000E+00;  4.0000000E+04;  0.0000000E+00;  4.0000000E+04; -4.0318596E-04;  0.0000000E+00; -7.8441843E-04;  1.5990258E+03;
  1.3000000E-01;  9.9999998E-03;  4.3000001E-01;2237;  0.0000000E+00;  0.0000000E+00;  0.0000000E+00;  1.0000735E+03;  1.0000000E-01;  6.0837784E+01;0;  0.0000000E+00;  0.0000000E+00;  0.0000000E+00;0; -5.2537967E-04;  4.0000000E+04;  0.0000000E+00;  0.0000000E+00;  4.0000000E+04;  0.0000000E+00;  4.0000000E+04; -1.4034781E-04;  0.0000000E+00; -3.8503189E-04;  8.3342181E+02;
  1.3000000E-01;  9.9999998E-03;  4.4000000E-01;2238;  0.0000000E+00;  0.0000000E+00;  0.0000000E+00;  1.0000000E+03;  1.0000000E-01;  0.0000000E+00;0;  0.0000000E+00;  0.0000000E+00;  0.0000000E+00;0; -1.8023167E-04;  4.0000000E+04;  0.0000000E+00;  0.0000000E+00;  4.0000000E+04;  0.0000000E+00;  4.0000000E+04; -3.4626639E-05;  0.0000000E+00; -1.4560502E-04;  3.2515021E+02;
  1.3000000E-01;  9.9999998E-03;  4.4999999E-01;2239;  0.0000000E+00;  0.0000000E+00;  0.0000000E+00;  1.0000000E+03;  1.0000000E-01;  0.0000000E+00;0;  0.0000000E+00;  0.0000000E+00;  0.0000000E+00;0; -3.9641694E-05;  4.0000000E+04;  0.0000000E+00;  0.0000000E+00;  4.0000000E+04;  0.0000000E+00;  4.0000000E+04; -4.6642822E-06;  0.0000000E+00; -3.4977413E-05;  8.0075142E+01;
  1.4000000E-01;  9.9999998E-03;  4.1000000E-01;2265;  0.0000000E+00;  0.0000000E+00;  0.0000000E+00;  1.0002956E+03;  1.0000000E-01;  2.4493135E+02;0;  0.0000000E+00;  0.0000000E+00;  0.0000000E+00;0; -2.5227787E-03;  4.0000000E+04;  0.0000000E+00;  0.0000000E+00;  4.0000000E+04;  0.0000000E+00;  4.0000000E+04; -1.1993846E-03;  0.0000000E+00; -1.3233941E-03;  3.5265620E+03;
  1.4000000E-01;  9.9999998E-03;  4.1999999E-01;2266;  0.0000000E+00;  0.0000000E+00;  0.0000000E+00;  1.0001426E+03;  1.0000000E-01;  1.1821888E+02;0;  0.0000000E+00;  0.0000000E+00;  0.0000000E+00;0; -1.3124642E-03;  4.0000000E+04;  0.0000000E+00;  0.0000000E+00;  4.0000000E+04;  0.0000000E+00;  4.0000000E+04; -5.3967268E-04;  0.0000000E+00; -7.7279157E-04;  2.4318965E+03;
  1.4000000E-01;  9.9999998E-03;  4.3000001E-01;2267;  0.0000000E+00;  0.0000000E+00;  0.0000000E+00;  1.0000728E+03;  1.0000000E-01;  6.0343971E+01;0;  0.0000000E+00;  0.0000000E+00;  0.0000000E+00;0; -5.7735917E-04;  4.0000000E+04;  0.0000000E+00;  0.0000000E+00;  4.0000000E+04;  0.0000000E+00;  4.0000000E+04; -1.9744017E-04;  0.0000000E+00; -3.7991899E-04;  1.3474670E+03;
  1.4000000E-01;  9.9999998E-03;  4.4000000E-01;2268;  0.0000000E+00;  0.0000000E+00;  0.0000000E+00;  1.0000000E+03;  1.0000000E-01;  0.0000000E+00;0;  0.0000000E+00;  0.0000000E+00;  0.0000000E+00;0; -1.9690844E-04;  4.0000000E+04;  0.0000000E+00;  0.0000000E+00;  4.0000000E+04;  0.0000000E+00;  4.0000000E+04; -5.1689280E-05;  0.0000000E+00; -1.4521916E-04;  5.4973639E+02;
  1.4000000E-01;  9.9999998E-03;  4.4999999E-01;2269;  0.0000000E+00;  0.0000000E+00;  0.0000000E+00;  1.0000000E+03;  1.0000000E-01;  0.0000000E+00;0;  0.0000000E+00;  0.0000000E+00;  0.0000000E+00;0; -4.3488526E-05;  4.0000000E+04;  0.0000000E+00;  0.0000000E+00;  4.0000000E+04;  0.0000000E+00;  4.0000000E+04; -7.3641422E-06;  0.0000000E+00; -3.6124384E-05;  1.3850880E+02;
  1.5000001E-01;  9.9999998E-03;  4.1000000E-01;2295;  0.0000000E+00;  0.0000000E+00;  0.0000000E+00;  1.0003087E+03;  1.0000000E-01;  2.5579523E+02;0;  0.0000000E+00;  0.0000000E+00;  0.0000000E+00;0; -2.8267899E-03;  4.0000000E+04;  0.0000000E+00;  0.0000000E+00;  4.0000000E+04;  0.0000000E+00;  4.0000000E+04; -1.5279616E-03;  0.0000000E+00; -1.2988282E-03;  5.4419331E+03;
  1.5000001E-01;  9.9999998E-03;  4.1999999E-01;2296;  0.0000000E+00;  0.0000000E+00;  0.0000000E+00;  1.0001502E+03;  1.0000000E-01;  1.2444093E+02;0;  0.0000000E+00;  0.0000000E+00;  0.0000000E+00;0; -1.4711677E-03;  4.0000000E+04;  0.0000000E+00;  0.0000000E+00;  4.0000000E+04;  0.0000000E+00;  4.0000000E+04; -7.1640447E-04;  0.0000000E+00; -7.5476326E-04;  4.0091367E+03;
  1.5000001E-01;  9.9999998E-03;  4.3000001E-01;2297;  0.0000000E+00;  0.0000000E+00;  0.0000000E+00;  1.0000729E+03;  1.0000000E-01;  6.0343971E+01;0;  0.0000000E+00;  0.0000000E+00;  0.0000000E+00;0; -6.4600928E-04;  4.0000000E+04;  0.0000000E+00;  0.0000000E+00;  4.0000000E+04;  0.0000000E+00;  4.0000000E+04; -2.7708701E-04;  0.0000000E+00; -3.6892228E-04;  2.3364502E+03;
  1.5000001E-01;  9.9999998E-03;  4.4000000E-01;2298;  0.0000000E+00;  0.0000000E+00;  0.0000000E+00;  1.0000000E+03;  1.0000000E-01;  0.0000000E+00;0;  0.0000000E+00;  0.0000000E+00;  0.0000000E+00;0; -2.1891390E-04;  4.0000000E+04;  0.0000000E+00;  0.0000000E+00;  4.0000000E+04;  0.0000000E+00;  4.0000000E+04; -7.8180921E-05;  0.0000000E+00; -1.4073298E-04;  9.9441730E+02;
  1.5000001E-01;  9.9999998E-03;  4.4999999E-01;2299;  0.0000000E+00;  0.0000000E+00;  0.0000000E+00;  1.0000000E+03;  1.0000000E-01;  0.0000000E+00;0;  0.0000000E+00;  0.0000000E+00;  0.0000000E+00;0; -4.8051530E-05;  4.0000000E+04;  0.0000000E+00;  0.0000000E+00;  4.0000000E+04;  0.0000000E+00;  4.0000000E+04; -1.2263741E-05;  0.0000000E+00; -3.5787787E-05;  2.5797733E+02;
  1.6000000E-01;  9.9999998E-03;  4.1000000E-01;2325;  0.0000000E+00;  0.0000000E+00;  0.0000000E+00;  1.0003456E+03;  1.0000000E-01;  2.8631290E+02;0;  0.0000000E+00;  0.0000000E+00;  0.0000000E+00;0; -3.1618061E-03;  4.0000000E+04;  0.0000000E+00;  0.0000000E+00;  4.0000000E+04;  0.0000000E+00;  4.0000000E+04; -1.8862607E-03;  0.0000000E+00; -1.2755455E-03;  8.6578203E+03;
  1.6000000E-01;  9.9999998E-03;  4.1999999E-01;2326;  0.0000000E+00;  0.0000000E+00;  0.0000000E+00;  1.0001646E+03;  1.0000000E-01;  1.3629243E+02;0;  0.0000000E+00;  0.0000000E+00;  0.0000000E+00;0; -1.6552333E-03;  4.0000000E+04;  0.0000000E+00;  0.0000000E+00;  4.0000000E+04;  0.0000000E+00;  4.0000000E+04; -9.1978349E-04;  0.0000000E+00; -7.3544990E-04;  6.6792612E+03;
  1.6000000E-01;  9.9999998E-03;  4.3000001E-01;2327;  0.0000000E+00;  0.0000000E+00;  0.0000000E+00;  1.0000737E+03;  1.0000000E-01;  6.1035313E+01;0;  0.0000000E+00;  0.0000000E+00;  0.0000000E+00;0; -7.3069456E-04;  4.0000000E+04;  0.0000000E+00;  0.0000000E+00;  4.0000000E+04;  0.0000000E+00;  4.0000000E+04; -3.7578813E-04;  0.0000000E+00; -3.5490643E-04;  4.0573391E+03;
  1.6000000E-01;  9.9999998E-03;  4.4000000E-01;2328;  0.0000000E+00;  0.0000000E+00;  0.0000000E+00;  1.0000000E+03;  1.0000000E-01;  0.0000000E+00;0;  0.0000000E+00;  0.0000000E+00;  0.0000000E+00;0; -2.4748198E-04;  4.0000000E+04;  0.0000000E+00;  0.0000000E+00;  4.0000000E+04;  0.0000000E+00;  4.0000000E+04; -1.1456022E-04;  0.0000000E+00; -1.3292175E-04;  1.8024552E+03;
  1.6000000E-01;  9.9999998E-03;  4.4999999E-01;2329;  0.0000000E+00;  0.0000000E+00;  0.0000000E+00;  1.0000000E+03;  1.0000000E-01;  0.0000000E+00;0;  0.0000000E+00;  0.0000000E+00;  0.0000000E+00;0; -5.3568685E-05;  4.0000000E+04;  0.0000000E+00;  0.0000000E+00;  4.0000000E+04;  0.0000000E+00;  4.0000000E+04; -2.0098196E-05;  0.0000000E+00; -3.3470489E-05;  4.8910107E+02;
  1.7000000E-01;  9.9999998E-03;  4.1000000E-01;2355;  0.0000000E+00;  0.0000000E+00;  0.0000000E+00;  1.0003839E+03;  1.0000000E-01;  3.1801569E+02;0;  0.0000000E+00;  0.0000000E+00;  0.0000000E+00;0; -3.4785667E-03;  4.0000000E+04;  0.0000000E+00;  0.0000000E+00;  4.0000000E+04;  0.0000000E+00;  4.0000000E+04; -2.2164190E-03;  0.0000000E+00; -1.2621476E-03;  1.3440689E+04;
  1.7000000E-01;  9.9999998E-03;  4.1999999E-01;2356;  0.0000000E+00;  0.0000000E+00;  0.0000000E+00;  1.0001870E+03;  1.0000000E-01;  1.5495859E+02;0;  0.0000000E+00;  0.0000000E+00;  0.0000000E+00;0; -1.8407074E-03;  4.0000000E+04;  0.0000000E+00;  0.0000000E+00;  4.0000000E+04;  0.0000000E+00;  4.0000000E+04; -1.1197093E-03;  0.0000000E+00; -7.2099798E-04;  1.0743765E+04;
  1.7000000E-01;  9.9999998E-03;  4.3000001E-01;2357;  0.0000000E+00;  0.0000000E+00;  0.0000000E+00;  1.0000748E+03;  1.0000000E-01;  6.2022938E+01;0;  0.0000000E+00;  0.0000000E+00;  0.0000000E+00;0; -8.2274858E-04;  4.0000000E+04;  0.0000000E+00;  0.0000000E+00;  4.0000000E+04;  0.0000000E+00;  4.0000000E+04; -4.8128178E-04;  0.0000000E+00; -3.4146680E-04;  6.7795874E+03;
  1.7000000E-01;  9.9999998E-03;  4.4000000E-01;2358;  0.0000000E+00;  0.0000000E+00;  0.0000000E+00;  1.0000000E+03;  1.0000000E-01;  0.0000000E+00;0;  0.0000000E+00;  0.0000000E+00;  0.0000000E+00;0; -2.8105365E-04;  4.0000000E+04;  0.0000000E+00;  0.0000000E+00;  4.0000000E+04;  0.0000000E+00;  4.0000000E+04; -1.5782301E-04;  0.0000000E+00; -1.2323064E-04;  3.1477971E+03;
  1.7000000E-01;  9.9999998E-03;  4.4999999E-01;2359;  0.0000000E+00;  0.0000000E+00;  0.0000000E+00;  1.0000000E+03;  1.0000000E-01;  0.0000000E+00;0;  0.0000000E+00;  0.0000000E+00;  0.0000000E+00;0; -5.9986145E-05;  4.0000000E+04;  0.0000000E+00;  0.0000000E+00;  4.0000000E+04;  0.0000000E+00;  4.0000000E+04; -3.0857052E-05;  0.0000000E+00; -2.9129093E-05;  9.0175037E+02;
  1.8000001E-01;  9.9999998E-03;  4.1000000E-01;2385;  0.0000000E+00;  0.0000000E+00;  0.0000000E+00;  1.0004348E+03;  1.0000000E-01;  3.6018735E+02;0;  0.0000000E+00;  0.0000000E+00;  0.0000000E+00;0; -3.7111335E-03;  4.0000000E+04;  0.0000000E+00;  0.0000000E+00;  4.0000000E+04;  0.0000000E+00;  4.0000000E+04; -2.4430966E-03;  0.0000000E+00; -1.2680369E-03;  1.9777797E+04;
  1.8000001E-01;  9.9999998E-03;  4.1999999E-01;2386;  0.0000000E+00;  0.0000000E+00;  0.0000000E+00;  1.0002043E+03;  1.0000000E-01;  1.6927916E+02;0;  0.0000000E+00;  0.0000000E+00;  0.0000000E+00;0; -1.9903732E-03;  4.0000000E+04;  0.0000000E+00;  0.0000000E+00;  4.0000000E+04;  0.0000000E+00;  4.0000000E+04; -1.2722940E-03;  0.0000000E+00; -7.1807927E-04;  1.6316880E+04;
  1.8000001E-01;  9.9999998E-03;  4.3000001E-01;2387;  0.0000000E+00;  0.0000000E+00;  0.0000000E+00;  1.0000763E+03;  1.0000000E-01;  6.3208088E+01;0;  0.0000000E+00;  0.0000000E+00;  0.0000000E+00;0; -9.0448058E-04;  4.0000000E+04;  0.0000000E+00;  0.0000000E+00;  4.0000000E+04;  0.0000000E+00;  4.0000000E+04; -5.7192950E-04;  0.0000000E+00; -3.3255111E-04;  1.0689366E+04;
  1.8000001E-01;  9.9999998E-03;  4.4000000E-01;2388;  0.0000000E+00;  0.0000000E+00;  0.0000000E+00;  1.0000000E+03;  1.0000000E-01;  0.0000000E+00;0;  0.0000000E+00;  0.0000000E+00;  0.0000000E+00;0; -3.1359665E-04;  4.0000000E+04;  0.0000000E+00;  0.0000000E+00;  4.0000000E+04;  0.0000000E+00;  4.0000000E+04; -2.0016784E-04;  0.0000000E+00; -1.1342882E-04;  5.1910737E+03;
  1.8000001E-01;  9.9999998E-03;  4.4999999E-01;2389;  0.0000000E+00;  0.0000000E+00;  0.0000000E+00;  1.0000000E+03;  1.0000000E-01;  0.0000000E+00;0;  0.0000000E+00;  0.0000000E+00;  0.0000000E+00;0; -6.6206907E-05;  4.0000000E+04;  0.0000000E+00;  0.0000000E+00;  4.0000000E+04;  0.0000000E+00;  4.0000000E+04; -4.3063799E-05;  0.0000000E+00; -2.3143111E-05;  1.5731011E+03;
  1.9000000E-01;  9.9999998E-03;  4.1000000E-01;2415;  0.0000000E+00;  0.0000000E+00;  0.0000000E+00;  1.0004870E+03;  1.0000000E-01;  4.0344537E+02;0;  0.0000000E+00;  0.0000000E+00;  0.0000000E+00;0; -3.8040478E-03;  4.0000000E+04;  0.0000000E+00;  0.0000000E+00;  4.0000000E+04;  0.0000000E+00;  4.0000000E+04; -2.5011892E-03;  0.0000000E+00; -1.3028586E-03;  2.7262676E+04;
  1.9000000E-01;  9.9999998E-03;  4.1999999E-01;2416;  0.0000000E+00;  0.0000000E+00;  0.0000000E+00;  1.0002411E+03;  1.0000000E-01;  1.9969806E+02;0;  0.0000000E+00;  0.0000000E+00;  0.0000000E+00;0; -2.0681729E-03;  4.0000000E+04;  0.0000000E+00;  0.0000000E+00;  4.0000000E+04;  0.0000000E+00;  4.0000000E+04; -1.3344480E-03;  0.0000000E+00; -7.3372497E-04;  2.3176969E+04;
  1.9000000E-01;  9.9999998E-03;  4.3000001E-01;2417;  0.0000000E+00;  0.0000000E+00;  0.0000000E+00;  1.0000951E+03;  1.0000000E-01;  7.8812584E+01;0;  0.0000000E+00;  0.0000000E+00;  0.0000000E+00;0; -9.5490407E-04;  4.0000000E+04;  0.0000000E+00;  0.0000000E+00;  4.0000000E+04;  0.0000000E+00;  4.0000000E+04; -6.2230119E-04;  0.0000000E+00; -3.3260288E-04;  1.5755455E+04;
  1.9000000E-01;  9.9999998E-03;  4.4000000E-01;2418;  0.0000000E+00;  0.0000000E+00;  0.0000000E+00;  1.0000082E+03;  1.0000000E-01;  6.8146219E+00;0;  0.0000000E+00;  0.0000000E+00;  0.0000000E+00;0; -3.3569668E-04;  4.0000000E+04;  0.0000000E+00;  0.0000000E+00;  4.0000000E+04;  0.0000000E+00;  4.0000000E+04; -2.2989226E-04;  0.0000000E+00; -1.0580441E-04;  7.9963794E+03;
  1.9000000E-01;  9.9999998E-03;  4.4999999E-01;2419;  0.0000000E+00;  0.0000000E+00;  0.0000000E+00;  1.0000000E+03;  1.0000000E-01;  0.0000000E+00;0;  0.0000000E+00;  0.0000000E+00;  0.0000000E+00;0; -6.9896676E-05;  4.0000000E+04;  0.0000000E+00;  0.0000000E+00;  4.0000000E+04;  0.0000000E+00;  4.0000000E+04; -5.3465676E-05;  0.0000000E+00; -1.6430997E-05;  2.5555527E+03;
  2.0000000E-01;  9.9999998E-03;  4.1000000E-01;2444;  0.0000000E+00;  0.0000000E+00;  0.0000000E+00;  1.0005485E+03;  1.0000000E-01;  4.5440689E+02;0;  0.0000000E+00;  0.0000000E+00;  0.0000000E+00;0; -3.7421780E-03;  4.0000000E+04;  0.0000000E+00;  0.0000000E+00;  4.0000000E+04;  0.0000000E+00;  4.0000000E+04; -2.3663898E-03;  0.0000000E+00; -1.3757882E-03;  3.5203059E+04;
  2.0000000E-01;  9.9999998E-03;  4.1999999E-01;2445;  0.0000000E+00;  0.0000000E+00;  0.0000000E+00;  1.0002797E+03;  1.0000000E-01;  2.3169714E+02;0;  0.0000000E+00;  0.0000000E+00;  0.0000000E+00;0; -2.0601563E-03;  4.0000000E+04;  0.0000000E+00;  0.0000000E+00;  4.0000000E+04;  0.0000000E+00;  4.0000000E+04; -1.2845993E-03;  0.0000000E+00; -7.7555707E-04;  3.0790389E+04;
  2.0000000E-01;  9.9999998E-03;  4.3000001E-01;2446;  0.0000000E+00;  0.0000000E+00;  0.0000000E+00;  1.0001170E+03;  1.0000000E-01;  9.6984909E+01;0;  0.0000000E+00;  0.0000000E+00;  0.0000000E+00;0; -9.6202473E-04;  4.0000000E+04;  0.0000000E+00;  0.0000000E+00;  4.0000000E+04;  0.0000000E+00;  4.0000000E+04; -6.1469793E-04;  0.0000000E+00; -3.4732680E-04;  2.1680156E+04;
  2.0000000E-01;  9.9999998E-03;  4.4000000E-01;2447;  0.0000000E+00;  0.0000000E+00;  0.0000000E+00;  1.0000304E+03;  1.0000000E-01;  2.5184473E+01;0;  0.0000000E+00;  0.0000000E+00;  0.0000000E+00;0; -3.3997544E-04;  4.0000000E+04;  0.0000000E+00;  0.0000000E+00;  4.0000000E+04;  0.0000000E+00;  4.0000000E+04; -2.3587422E-04;  0.0000000E+00; -1.0410122E-04;  1.1464476E+04;
 -2.0000000E-01;  9.9999998E-03; -4.4000000E-01;0;  0.0000000E+00;  0.0000000E+00;  0.0000000E+00;  1.0000000E+03;  1.0000000E-01;  0.0000000E+00;0;  0.0000000E+00;  0.0000000E+00;  0.0000000E+00;0;  0.0000000E+00;  4.0000000E+04;  0.0000000E+00;  0.0000000E+00;  4.0000000E+04;  0.0000000E+00;  4.0000000E+04;  0.0000000E+00;  0.0000000E+00;  0.0000000E+00;  0.0000000E+00;
 -2.0000000E-01;  9.9999998E-03; -4.3000001E-01;1;  0.0000000E+00;  0.0000000E+00;  0.0000000E+00;  1.0000000E+03;  1.0000000E-01;  0.0000000E+00;0;  0.0000000E+00;  0.0000000E+00;  0.0000000E+00;0;  0.0000000E+00;  4.0000000E+04;  0.0000000E+00;  0.0000000E+00;  4.0000000E+04;  0.0000000E+00;  4.0000000E+04;  0.0000000E+00;  0.0000000E+00;  0.0000000E+00;  0.0000000E+00;
 -2.0000000E-01;  9.9999998E-03; -4.1999999E-01;2;  0.0000000E+00;  0.0000000E+00;  0.0000000E+00;  1.0000000E+03;  1.0000000E-01;  0.0000000E+00;0;  0.0000000E+00;  0.0000000E+00;  0.0000000E+00;0;  0.0000000E+00;  4.0000000E+04;  0.0000000E+00;  0.0000000E+00;  4.0000000E+04;  0.0000000E+00;  4.0000000E+04;  0.0000000E+00;  0.0000000E+00;  0.0000000E+00;  0.0000000E+00;
 -2.0000000E-01;  9.9999998E-03; -4.1000000E-01;3;  0.0000000E+00;  0.0000000E+00;  0.0000000E+00;  1.0000000E+03;  1.0000000E-01;  0.0000000E+00;0;  0.0000000E+00;  0.0000000E+00;  0.0000000E+00;0;  0.0000000E+00;  4.0000000E+04;  0.0000000E+00;  0.0000000E+00;  4.0000000E+04;  0.0000000E+00;  4.0000000E+04;  0.0000000E+00;  0.0000000E+00;  0.0000000E+00;  0.0000000E+00;
 -2.0000000E-01;  9.9999998E-03; -4.0000001E-01;4;  0.0000000E+00;  0.0000000E+00;  0.0000000E+00;  1.0000000E+03;  1.0000000E-01;  0.0000000E+00;0;  0.0000000E+00;  0.0000000E+00;  0.0000000E+00;0;  0.0000000E+00;  4.0000000E+04;  0.0000000E+00;  0.0000000E+00;  4.0000000E+04;  0.0000000E+00;  4.0000000E+04;  0.0000000E+00;  0.0000000E+00;  0.0000000E+00;  0.0000000E+00;
 -2.0000000E-01;  9.9999998E-03; -3.8999999E-01;5;  0.0000000E+00;  0.0000000E+00;  0.0000000E+00;  1.0000000E+03;  1.0000000E-01;  0.0000000E+00;0;  0.0000000E+00;  0.0000000E+00;  0.0000000E+00;0;  0.0000000E+00;  4.0000000E+04;  0.0000000E+00;  0.0000000E+00;  4.0000000E+04;  0.0000000E+00;  4.0000000E+04;  0.0000000E+00;  0.0000000E+00;  0.0000000E+00;  0.0000000E+00;
 -2.0000000E-01;  9.9999998E-03; -3.8000000E-01;6;  0.0000000E+00;  0.0000000E+00;  0.0000000E+00;  1.0000000E+03;  1.0000000E-01;  0.0000000E+00;0;  0.0000000E+00;  0.0000000E+00;  0.0000000E+00;0;  0.0000000E+00;  4.0000000E+04;  0.0000000E+00;  0.0000000E+00;  4.0000000E+04;  0.0000000E+00;  4.0000000E+04;  0.0000000E+00;  0.0000000E+00;  0.0000000E+00;  0.0000000E+00;
 -2.0000000E-01;  9.9999998E-03; -3.7000000E-01;7;  0.0000000E+00;  0.0000000E+00;  0.0000000E+00;  1.0000000E+03;  1.0000000E-01;  0.0000000E+00;0;  0.0000000E+00;  0.0000000E+00;  0.0000000E+00;0;  0.0000000E+00;  4.0000000E+04;  0.0000000E+00;  0.0000000E+00;  4.0000000E+04;  0.0000000E+00;  4.0000000E+04;  0.0000000E+00;  0.0000000E+00;  0.0000000E+00;  0.0000000E+00;
 -2.0000000E-01;  9.9999998E-03; -3.6000001E-01;8;  0.0000000E+00;  0.0000000E+00;  0.0000000E+00;  1.0000000E+03;  1.0000000E-01;  0.0000000E+00;0;  0.0000000E+00;  0.0000000E+00;  0.0000000E+00;0;  0.0000000E+00;  4.0000000E+04;  0.0000000E+00;  0.0000000E+00;  4.0000000E+04;  0.0000000E+00;  4.0000000E+04;  0.0000000E+00;  0.0000000E+00;  0.0000000E+00;  0.0000000E+00;
 -2.0000000E-01;  9.9999998E-03; -3.4999999E-01;9;  0.0000000E+00;  0.0000000E+00;  0.0000000E+00;  1.0000000E+03;  1.0000000E-01;  0.0000000E+00;0;  0.0000000E+00;  0.0000000E+00;  0.0000000E+00;0;  0.0000000E+00;  4.0000000E+04;  0.0000000E+00;  0.0000000E+00;  4.0000000E+04;  0.0000000E+00;  4.0000000E+04;  0.0000000E+00;  0.0000000E+00;  0.0000000E+00;  0.0000000E+00;
 -2.0000000E-01;  9.9999998E-03; -3.4000000E-01;10;  0.0000000E+00;  0.0000000E+00;  0.0000000E+00;  1.0000000E+03;  1.0000000E-01;  0.0000000E+00;0;  0.0000000E+00;  0.0000000E+00;  0.0000000E+00;0;  0.0000000E+00;  4.0000000E+04;  0.0000000E+00;  0.0000000E+00;  4.0000000E+04;  0.0000000E+00;  4.0000000E+04;  0.0000000E+00;  0.0000000E+00;  0.0000000E+00;  0.0000000E+00;
 -2.0000000E-01;  9.9999998E-03; -3.3000001E-01;11;  0.0000000E+00;  0.0000000E+00;  0.0000000E+00;  1.0000000E+03;  1.0000000E-01;  0.0000000E+00;0;  0.0000000E+00;  0.0000000E+00;  0.0000000E+00;0;  0.0000000E+00;  4.0000000E+04;  0.0000000E+00;  0.0000000E+00;  4.0000000E+04;  0.0000000E+00;  4.0000000E+04;  0.0000000E+00;  0.0000000E+00;  0.0000000E+00;  0.0000000E+00;
 -2.0000000E-01;  9.9999998E-03; -3.1999999E-01;12;  0.0000000E+00;  0.0000000E+00;  0.0000000E+00;  1.0000000E+03;  1.0000000E-01;  0.0000000E+00;0;  0.0000000E+00;  0.0000000E+00;  0.0000000E+00;0;  0.0000000E+00;  4.0000000E+04;  0.0000000E+00;  0.0000000E+00;  4.0000000E+04;  0.0000000E+00;  4.0000000E+04;  0.0000000E+00;  0.0000000E+00;  0.0000000E+00;  0.0000000E+00;
 -2.0000000E-01;  9.9999998E-03; -3.1000000E-01;13;  0.0000000E+00;  0.0000000E+00;  0.0000000E+00;  1.0000000E+03;  1.0000000E-01;  0.0000000E+00;0;  0.0000000E+00;  0.0000000E+00;  0.0000000E+00;0;  0.0000000E+00;  4.0000000E+04;  0.0000000E+00;  0.0000000E+00;  4.0000000E+04;  0.0000000E+00;  4.0000000E+04;  0.0000000E+00;  0.0000000E+00;  0.0000000E+00;  0.0000000E+00;
 -2.0000000E-01;  9.9999998E-03; -3.0000001E-01;14;  0.0000000E+00;  0.0000000E+00;  0.0000000E+00;  1.0000000E+03;  1.0000000E-01;  0.0000000E+00;0;  0.0000000E+00;  0.0000000E+00;  0.0000000E+00;0;  0.0000000E+00;  4.0000000E+04;  0.0000000E+00;  0.0000000E+00;  4.0000000E+04;  0.0000000E+00;  4.0000000E+04;  0.0000000E+00;  0.0000000E+00;  0.0000000E+00;  0.0000000E+00;
 -2.0000000E-01;  9.9999998E-03; -2.8999999E-01;15;  0.0000000E+00;  0.0000000E+00;  0.0000000E+00;  1.0000000E+03;  1.0000000E-01;  0.0000000E+00;0;  0.0000000E+00;  0.0000000E+00;  0.0000000E+00;0;  0.0000000E+00;  4.0000000E+04;  0.0000000E+00;  0.0000000E+00;  4.0000000E+04;  0.0000000E+00;  4.0000000E+04;  0.0000000E+00;  0.0000000E+00;  0.0000000E+00;  0.0000000E+00;
 -2.0000000E-01;  9.9999998E-03; -2.8000000E-01;16;  0.0000000E+00;  0.0000000E+00;  0.0000000E+00;  1.0000000E+03;  1.0000000E-01;  0.0000000E+00;0;  0.0000000E+00;  0.0000000E+00;  0.0000000E+00;0;  0.0000000E+00;  4.0000000E+04;  0.0000000E+00;  0.0000000E+00;  4.0000000E+04;  0.0000000E+00;  4.0000000E+04;  0.0000000E+00;  0.0000000E+00;  0.0000000E+00;  0.0000000E+00;
 -2.0000000E-01;  9.9999998E-03; -2.7000001E-01;17;  0.0000000E+00;  0.0000000E+00;  0.0000000E+00;  1.0000000E+03;  1.0000000E-01;  0.0000000E+00;0;  0.0000000E+00;  0.0000000E+00;  0.0000000E+00;0;  0.0000000E+00;  4.0000000E+04;  0.0000000E+00;  0.0000000E+00;  4.0000000E+04;  0.0000000E+00;  4.0000000E+04;  0.0000000E+00;  0.0000000E+00;  0.0000000E+00;  0.0000000E+00;
 -2.0000000E-01;  9.9999998E-03; -2.5999999E-01;18;  0.0000000E+00;  0.0000000E+00;  0.0000000E+00;  1.0000000E+03;  1.0000000E-01;  0.0000000E+00;0;  0.0000000E+00;  0.0000000E+00;  0.0000000E+00;0;  0.0000000E+00;  4.0000000E+04;  0.0000000E+00;  0.0000000E+00;  4.0000000E+04;  0.0000000E+00;  4.0000000E+04;  0.0000000E+00;  0.0000000E+00;  0.0000000E+00;  0.0000000E+00;
 -2.0000000E-01;  9.9999998E-03; -2.5000000E-01;19;  0.0000000E+00;  0.0000000E+00;  0.0000000E+00;  1.0000000E+03;  1.0000000E-01;  0.0000000E+00;0;  0.0000000E+00;  0.0000000E+00;  0.0000000E+00;0;  0.0000000E+00;  4.0000000E+04;  0.0000000E+00;  0.0000000E+00;  4.0000000E+04;  0.0000000E+00;  4.0000000E+04;  0.0000000E+00;  0.0000000E+00;  0.0000000E+00;  0.0000000E+00;
 -2.0000000E-01;  9.9999998E-03; -2.3999999E-01;20;  0.0000000E+00;  0.0000000E+00;  0.0000000E+00;  1.0000000E+03;  1.0000000E-01;  0.0000000E+00;0;  0.0000000E+00;  0.0000000E+00;  0.0000000E+00;0;  0.0000000E+00;  4.0000000E+04;  0.0000000E+00;  0.0000000E+00;  4.0000000E+04;  0.0000000E+00;  4.0000000E+04;  0.0000000E+00;  0.0000000E+00;  0.0000000E+00;  0.0000000E+00;
 -2.0000000E-01;  9.9999998E-03; -2.3000000E-01;21;  0.0000000E+00;  0.0000000E+00;  0.0000000E+00;  1.0000000E+03;  1.0000000E-01;  0.0000000E+00;0;  0.0000000E+00;  0.0000000E+00;  0.0000000E+00;0;  0.0000000E+00;  4.0000000E+04;  0.0000000E+00;  0.0000000E+00;  4.0000000E+04;  0.0000000E+00;  4.0000000E+04;  0.0000000E+00;  0.0000000E+00;  0.0000000E+00;  0.0000000E+00;
 -2.0000000E-01;  9.9999998E-03; -2.2000000E-01;22;  0.0000000E+00;  0.0000000E+00;  0.0000000E+00;  1.0000000E+03;  1.0000000E-01;  0.0000000E+00;0;  0.0000000E+00;  0.0000000E+00;  0.0000000E+00;0;  0.0000000E+00;  4.0000000E+04;  0.0000000E+00;  0.0000000E+00;  4.0000000E+04;  0.0000000E+00;  4.0000000E+04;  0.0000000E+00;  0.0000000E+00;  0.0000000E+00;  0.0000000E+00;
 -2.0000000E-01;  9.9999998E-03; -2.0999999E-01;23;  0.0000000E+00;  0.0000000E+00;  0.0000000E+00;  1.0000000E+03;  1.0000000E-01;  0.0000000E+00;0;  0.0000000E+00;  0.0000000E+00;  0.0000000E+00;0;  0.0000000E+00;  4.0000000E+04;  0.0000000E+00;  0.0000000E+00;  4.0000000E+04;  0.0000000E+00;  4.0000000E+04;  0.0000000E+00;  0.0000000E+00;  0.0000000E+00;  0.0000000E+00;
 -2.0000000E-01;  9.9999998E-03; -2.0000000E-01;24;  0.0000000E+00;  0.0000000E+00;  0.0000000E+00;  1.0000000E+03;  1.0000000E-01;  0.0000000E+00;0;  0.0000000E+00;  0.0000000E+00;  0.0000000E+00;0;  0.0000000E+00;  4.0000000E+04;  0.0000000E+00;  0.0000000E+00;  4.0000000E+04;  0.0000000E+00;  4.0000000E+04;  0.0000000E+00;  0.0000000E+00;  0.0000000E+00;  0.0000000E+00;
 -2.0000000E-01;  9.9999998E-03; -1.9000000E-01;25;  0.0000000E+00;  0.0000000E+00;  0.0000000E+00;  1.0000000E+03;  1.0000000E-01;  0.0000000E+00;0;  0.0000000E+00;  0.0000000E+00;  0.0000000E+00;0;  0.0000000E+00;  4.0000000E+04;  0.0000000E+00;  0.0000000E+00;  4.0000000E+04;  0.0000000E+00;  4.0000000E+04;  0.0000000E+00;  0.0000000E+00;  0.0000000E+00;  0.0000000E+00;
 -2.0000000E-01;  9.9999998E-03; -1.8000001E-01;26;  0.0000000E+00;  0.0000000E+00;  0.0000000E+00;  1.0000000E+03;  1.0000000E-01;  0.0000000E+00;0;  0.0000000E+00;  0.0000000E+00;  0.0000000E+00;0;  0.0000000E+00;  4.0000000E+04;  0.0000000E+00;  0.0000000E+00;  4.0000000E+04;  0.0000000E+00;  4.0000000E+04;  0.0000000E+00;  0.0000000E+00;  0.0000000E+00;  0.0000000E+00;
 -2.0000000E-01;  9.9999998E-03; -1.7000000E-01;27;  0.0000000E+00;  0.0000000E+00;  0.0000000E+00;  1.0000000E+03;  1.0000000E-01;  0.0000000E+00;0;  0.0000000E+00;  0.0000000E+00;  0.0000000E+00;0;  0.0000000E+00;  4.0000000E+04;  0.0000000E+00;  0.0000000E+00;  4.0000000E+04;  0.0000000E+00;  4.0000000E+04;  0.0000000E+00;  0.0000000E+00;  0.0000000E+00;  0.0000000E+00;
 -2.0000000E-01;  9.9999998E-03; -1.6000000E-01;28;  0.0000000E+00;  0.0000000E+00;  0.0000000E+00;  1.0000000E+03;  1.0000000E-01;  0.0000000E+00;0;  0.0000000E+00;  0.0000000E+00;  0.0000000E+00;0;  0.0000000E+00;  4.0000000E+04;  0.0000000E+00;  0.0000000E+00;  4.0000000E+04;  0.0000000E+00;  4.0000000E+04;  0.0000000E+00;  0.0000000E+00;  0.0000000E+00;  0.0000000E+00;
 -2.0000000E-01;  9.9999998E-03; -1.5000001E-01;29;  0.0000000E+00;  0.0000000E+00;  0.0000000E+00;  1.0000000E+03;  1.0000000E-01;  0.0000000E+00;0;  0.0000000E+00;  0.0000000E+00;  0.0000000E+00;0;  0.0000000E+00;  4.0000000E+04;  0.0000000E+00;  0.0000000E+00;  4.0000000E+04;  0.0000000E+00;  4.0000000E+04;  0.0000000E+00;  0.0000000E+00;  0.0000000E+00;  0.0000000E+00;
 -2.0000000E-01;  9.9999998E-03; -1.4000000E-01;30;  0.0000000E+00;  0.0000000E+00;  0.0000000E+00;  1.0000000E+03;  1.0000000E-01;  0.0000000E+00;0;  0.0000000E+00;  0.0000000E+00;  0.0000000E+00;0;  0.0000000E+00;  4.0000000E+04;  0.0000000E+00;  0.0000000E+00;  4.0000000E+04;  0.0000000E+00;  4.0000000E+04;  0.0000000E+00;  0.0000000E+00;  0.0000000E+00;  0.0000000E+00;
 -2.0000000E-01;  9.9999998E-03; -1.3000000E-01;31;  0.0000000E+00;  0.0000000E+00;  0.0000000E+00;  1.0000000E+03;  1.0000000E-01;  0.0000000E+00;0;  0.0000000E+00;  0.0000000E+00;  0.0000000E+00;0;  0.0000000E+00;  4.0000000E+04;  0.0000000E+00;  0.0000000E+00;  4.0000000E+04;  0.0000000E+00;  4.0000000E+04;  0.0000000E+00;  0.0000000E+00;  0.0000000E+00;  0.0000000E+00;
 -2.0000000E-01;  9.9999998E-03; -1.2000000E-01;32;  0.0000000E+00;  0.0000000E+00;  0.0000000E+00;  1.0000000E+03;  1.0000000E-01;  0.0000000E+00;0;  0.0000000E+00;  0.0000000E+00;  0.0000000E+00;0;  0.0000000E+00;  4.0000000E+04;  0.0000000E+00;  0.0000000E+00;  4.0000000E+04;  0.0000000E+00;  4.0000000E+04;  0.0000000E+00;  0.0000000E+00;  0.0000000E+00;  0.0000000E+00;
 -2.0000000E-01;  9.9999998E-03; -1.1000000E-01;33;  0.0000000E+00;  0.0000000E+00;  0.0000000E+00;  1.0000000E+03;  1.0000000E-01;  0.0000000E+00;0;  0.0000000E+00;  0.0000000E+00;  0.0000000E+00;0;  0.0000000E+00;  4.0000000E+04;  0.0000000E+00;  0.0000000E+00;  4.0000000E+04;  0.0000000E+00;  4.0000000E+04;  0.0000000E+00;  0.0000000E+00;  0.0000000E+00;  0.0000000E+00;
 -2.0000000E-01;  9.9999998E-03; -1.0000000E-01;34;  0.0000000E+00;  0.0000000E+00;  0.0000000E+00;  1.0000000E+03;  1.0000000E-01;  0.0000000E+00;0;  0.0000000E+00;  0.0000000E+00;  0.0000000E+00;0;  0.0000000E+00;  4.0000000E+04;  0.0000000E+00;  0.0000000E+00;  4.0000000E+04;  0.0000000E+00;  4.0000000E+04;  0.0000000E+00;  0.0000000E+00;  0.0000000E+00;  0.0000000E+00;
 -2.0000000E-01;  9.9999998E-03; -9.0000004E-02;35;  0.0000000E+00;  0.0000000E+00;  0.0000000E+00;  1.0000000E+03;  1.0000000E-01;  0.0000000E+00;0;  0.0000000E+00;  0.0000000E+00;  0.0000000E+00;0;  0.0000000E+00;  4.0000000E+04;  0.0000000E+00;  0.0000000E+00;  4.0000000E+04;  0.0000000E+00;  4.0000000E+04;  0.0000000E+00;  0.0000000E+00;  0.0000000E+00;  0.0000000E+00;
 -2.0000000E-01;  9.9999998E-03; -7.9999998E-02;36;  0.0000000E+00;  0.0000000E+00;  0.0000000E+00;  1.0000000E+03;  1.0000000E-01;  0.0000000E+00;0;  0.0000000E+00;  0.0000000E+00;  0.0000000E+00;0;  0.0000000E+00;  4.0000000E+04;  0.0000000E+00;  0.0000000E+00;  4.0000000E+04;  0.0000000E+00;  4.0000000E+04;  0.0000000E+00;  0.0000000E+00;  0.0000000E+00;  0.0000000E+00;
 -2.0000000E-01;  9.9999998E-03; -7.0000000E-02;37;  0.0000000E+00;  0.0000000E+00;  0.0000000E+00;  1.0000000E+03;  1.0000000E-01;  0.0000000E+00;0;  0.0000000E+00;  0.0000000E+00;  0.0000000E+00;0;  0.0000000E+00;  4.0000000E+04;  0.0000000E+00;  0.0000000E+00;  4.0000000E+04;  0.0000000E+00;  4.0000000E+04;  0.0000000E+00;  0.0000000E+00;  0.0000000E+00;  0.0000000E+00;
 -2.0000000E-01;  9.9999998E-03; -5.9999999E-02;38;  0.0000000E+00;  0.0000000E+00;  0.0000000E+00;  1.0000000E+03;  1.0000000E-01;  0.0000000E+00;0;  0.0000000E+00;  0.0000000E+00;  0.0000000E+00;0;  0.0000000E+00;  4.0000000E+04;  0.0000000E+00;  0.0000000E+00;  4.0000000E+04;  0.0000000E+00;  4.0000000E+04;  0.0000000E+00;  0.0000000E+00;  0.0000000E+00;  0.0000000E+00;
 -2.0000000E-01;  9.9999998E-03; -5.0000001E-02;39;  0.0000000E+00;  0.0000000E+00;  0.0000000E+00;  1.0000000E+03;  1.0000000E-01;  0.0000000E+00;0;  0.0000000E+00;  0.0000000E+00;  0.0000000E+00;0;  0.0000000E+00;  4.0000000E+04;  0.0000000E+00;  0.0000000E+00;  4.0000000E+04;  0.0000000E+00;  4.0000000E+04;  0.0000000E+00;  0.0000000E+00;  0.0000000E+00;  0.0000000E+00;
 -2.0000000E-01;  9.9999998E-03; -3.9999999E-02;40;  0.0000000E+00;  0.0000000E+00;  0.0000000E+00;  1.0000000E+03;  1.0000000E-01;  0.0000000E+00;0;  0.0000000E+00;  0.0000000E+00;  0.0000000E+00;0;  0.0000000E+00;  4.0000000E+04;  0.0000000E+00;  0.0000000E+00;  4.0000000E+04;  0.0000000E+00;  4.0000000E+04;  0.0000000E+00;  0.0000000E+00;  0.0000000E+00;  0.0000000E+00;
 -2.0000000E-01;  9.9999998E-03; -2.9999999E-02;41;  0.0000000E+00;  0.0000000E+00;  0.0000000E+00;  1.0000000E+03;  1.0000000E-01;  0.0000000E+00;0;  0.0000000E+00;  0.0000000E+00;  0.0000000E+00;0;  0.0000000E+00;  4.0000000E+04;  0.0000000E+00;  0.0000000E+00;  4.0000000E+04;  0.0000000E+00;  4.0000000E+04;  0.0000000E+00;  0.0000000E+00;  0.0000000E+00;  0.0000000E+00;
 -2.0000000E-01;  9.9999998E-03; -2.0000000E-02;42;  0.0000000E+00;  0.0000000E+00;  0.0000000E+00;  1.0000000E+03;  1.0000000E-01;  0.0000000E+00;0;  0.0000000E+00;  0.0000000E+00;  0.0000000E+00;0;  0.0000000E+00;  4.0000000E+04;  0.0000000E+00;  0.0000000E+00;  4.0000000E+04;  0.0000000E+00;  4.0000000E+04;  0.0000000E+00;  0.0000000E+00;  0.0000000E+00;  0.0000000E+00;
 -2.0000000E-01;  9.9999998E-03; -9.9999998E-03;43;  0.0000000E+00;  0.0000000E+00;  0.0000000E+00;  1.0000000E+03;  1.0000000E-01;  0.0000000E+00;0;  0.0000000E+00;  0.0000000E+00;  0.0000000E+00;0;  0.0000000E+00;  4.0000000E+04;  0.0000000E+00;  0.0000000E+00;  4.0000000E+04;  0.0000000E+00;  4.0000000E+04;  0.0000000E+00;  0.0000000E+00;  0.0000000E+00;  0.0000000E+00;
 -2.0000000E-01;  9.9999998E-03;  0.0000000E+00;44;  0.0000000E+00;  0.0000000E+00;  0.0000000E+00;  1.0000000E+03;  1.0000000E-01;  0.0000000E+00;0;  0.0000000E+00;  0.0000000E+00;  0.0000000E+00;0;  0.0000000E+00;  4.0000000E+04;  0.0000000E+00;  0.0000000E+00;  4.0000000E+04;  0.0000000E+00;  4.0000000E+04;  0.0000000E+00;  0.0000000E+00;  0.0000000E+00;  0.0000000E+00;
 -2.0000000E-01;  9.9999998E-03;  9.9999998E-03;45;  0.0000000E+00;  0.0000000E+00;  0.0000000E+00;  1.0000000E+03;  1.0000000E-01;  0.0000000E+00;0;  0.0000000E+00;  0.0000000E+00;  0.0000000E+00;0;  0.0000000E+00;  4.0000000E+04;  0.0000000E+00;  0.0000000E+00;  4.0000000E+04;  0.0000000E+00;  4.0000000E+04;  0.0000000E+00;  0.0000000E+00;  0.0000000E+00;  0.0000000E+00;
 -2.0000000E-01;  9.9999998E-03;  2.0000000E-02;46;  0.0000000E+00;  0.0000000E+00;  0.0000000E+00;  1.0000000E+03;  1.0000000E-01;  0.0000000E+00;0;  0.0000000E+00;  0.0000000E+00;  0.0000000E+00;0;  0.0000000E+00;  4.0000000E+04;  0.0000000E+00;  0.0000000E+00;  4.0000000E+04;  0.0000000E+00;  4.0000000E+04;  0.0000000E+00;  0.0000000E+00;  0.0000000E+00;  0.0000000E+00;
 -2.0000000E-01;  9.9999998E-03;  2.9999999E-02;47;  0.0000000E+00;  0.0000000E+00;  0.0000000E+00;  1.0000000E+03;  1.0000000E-01;  0.0000000E+00;0;  0.0000000E+00;  0.0000000E+00;  0.0000000E+00;0;  0.0000000E+00;  4.0000000E+04;  0.0000000E+00;  0.0000000E+00;  4.0000000E+04;  0.0000000E+00;  4.0000000E+04;  0.0000000E+00;  0.0000000E+00;  0.0000000E+00;  0.0000000E+00;
 -2.0000000E-01;  9.9999998E-03;  3.9999999E-02;48;  0.0000000E+00;  0.0000000E+00;  0.0000000E+00;  1.0000000E+03;  1.0000000E-01;  0.0000000E+00;0;  0.0000000E+00;  0.0000000E+00;  0.0000000E+00;0;  0.0000000E+00;  4.0000000E+04;  0.0000000E+00;  0.0000000E+00;  4.0000000E+04;  0.0000000E+00;  4.0000000E+04;  0.0000000E+00;  0.0000000E+00;  0.0000000E+00;  0.0000000E+00;
 -2.0000000E-01;  9.9999998E-03;  5.0000001E-02;49;  0.0000000E+00;  0.0000000E+00;  0.0000000E+00;  1.0000000E+03;  1.0000000E-01;  0.0000000E+00;0;  0.0000000E+00;  0.0000000E+00;  0.0000000E+00;0;  0.0000000E+00;  4.0000000E+04;  0.0000000E+00;  0.0000000E+00;  4.0000000E+04;  0.0000000E+00;  4.0000000E+04;  0.0000000E+00;  0.0000000E+00;  0.0000000E+00;  0.0000000E+00;
 -2.0000000E-01;  9.9999998E-03;  5.9999999E-02;50;  0.0000000E+00;  0.0000000E+00;  0.0000000E+00;  1.0000000E+03;  1.0000000E-01;  0.0000000E+00;0;  0.0000000E+00;  0.0000000E+00;  0.0000000E+00;0;  0.0000000E+00;  4.0000000E+04;  0.0000000E+00;  0.0000000E+00;  4.0000000E+04;  0.0000000E+00;  4.0000000E+04;  0.0000000E+00;  0.0000000E+00;  0.0000000E+00;  0.0000000E+00;
 -2.0000000E-01;  9.9999998E-03;  7.0000000E-02;51;  0.0000000E+00;  0.0000000E+00;  0.0000000E+00;  1.0000000E+03;  1.0000000E-01;  0.0000000E+00;0;  0.0000000E+00;  0.0000000E+00;  0.0000000E+00;0;  0.0000000E+00;  4.0000000E+04;  0.0000000E+00;  0.0000000E+00;  4.0000000E+04;  0.0000000E+00;  4.0000000E+04;  0.0000000E+00;  0.0000000E+00;  0.0000000E+00;  0.0000000E+00;
 -2.0000000E-01;  9.9999998E-03;  7.9999998E-02;52;  0.0000000E+00;  0.0000000E+00;  0.0000000E+00;  1.0000000E+03;  1.0000000E-01;  0.0000000E+00;0;  0.0000000E+00;  0.0000000E+00;  0.0000000E+00;0;  0.0000000E+00;  4.0000000E+04;  0.0000000E+00;  0.0000000E+00;  4.0000000E+04;  0.0000000E+00;  4.0000000E+04;  0.0000000E+00;  0.0000000E+00;  0.0000000E+00;  0.0000000E+00;
 -2.0000000E-01;  9.9999998E-03;  9.0000004E-02;53;  0.0000000E+00;  0.0000000E+00;  0.0000000E+00;  1.0000000E+03;  1.0000000E-01;  0.0000000E+00;0;  0.0000000E+00;  0.0000000E+00;  0.0000000E+00;0;  0.0000000E+00;  4.0000000E+04;  0.0000000E+00;  0.0000000E+00;  4.0000000E+04;  0.0000000E+00;  4.0000000E+04;  0.0000000E+00;  0.0000000E+00;  0.0000000E+00;  0.0000000E+00;
 -2.0000000E-01;  9.9999998E-03;  1.0000000E-01;54;  0.0000000E+00;  0.0000000E+00;  0.0000000E+00;  1.0000000E+03;  1.0000000E-01;  0.0000000E+00;0;  0.0000000E+00;  0.0000000E+00;  0.0000000E+00;0;  0.0000000E+00;  4.0000000E+04;  0.0000000E+00;  0.0000000E+00;  4.0000000E+04;  0.0000000E+00;  4.0000000E+04;  0.0000000E+00;  0.0000000E+00;  0.0000000E+00;  0.0000000E+00;
 -2.0000000E-01;  9.9999998E-03;  1.1000000E-01;55;  0.0000000E+00;  0.0000000E+00;  0.0000000E+00;  1.0000000E+03;  1.0000000E-01;  0.0000000E+00;0;  0.0000000E+00;  0.0000000E+00;  0.0000000E+00;0;  0.0000000E+00;  4.0000000E+04;  0.0000000E+00;  0.0000000E+00;  4.0000000E+04;  0.0000000E+00;  4.0000000E+04;  0.0000000E+00;  0.0000000E+00;  0.0000000E+00;  0.0000000E+00;
 -2.0000000E-01;  9.9999998E-03;  1.2000000E-01;56;  0.0000000E+00;  0.0000000E+00;  0.0000000E+00;  1.0000000E+03;  1.0000000E-01;  0.0000000E+00;0;  0.0000000E+00;  0.0000000E+00;  0.0000000E+00;0;  0.0000000E+00;  4.0000000E+04;  0.0000000E+00;  0.0000000E+00;  4.0000000E+04;  0.0000000E+00;  4.0000000E+04;  0.0000000E+00;  0.0000000E+00;  0.0000000E+00;  0.0000000E+00;
 -2.0000000E-01;  9.9999998E-03;  1.3000000E-01;57;  0.0000000E+00;  0.0000000E+00;  0.0000000E+00;  1.0000000E+03;  1.0000000E-01;  0.0000000E+00;0;  0.0000000E+00;  0.0000000E+00;  0.0000000E+00;0;  0.0000000E+00;  4.0000000E+04;  0.0000000E+00;  0.0000000E+00;  4.0000000E+04;  0.0000000E+00;  4.0000000E+04;  0.0000000E+00;  0.0000000E+00;  0.0000000E+00;  0.0000000E+00;
 -2.0000000E-01;  9.9999998E-03;  1.4000000E-01;58;  0.0000000E+00;  0.0000000E+00;  0.0000000E+00;  1.0000000E+03;  1.0000000E-01;  0.0000000E+00;0;  0.0000000E+00;  0.0000000E+00;  0.0000000E+00;0;  0.0000000E+00;  4.0000000E+04;  0.0000000E+00;  0.0000000E+00;  4.0000000E+04;  0.0000000E+00;  4.0000000E+04;  0.0000000E+00;  0.0000000E+00;  0.0000000E+00;  0.0000000E+00;
 -2.0000000E-01;  9.9999998E-03;  1.5000001E-01;59;  0.0000000E+00;  0.0000000E+00;  0.0000000E+00;  1.0000000E+03;  1.0000000E-01;  0.0000000E+00;0;  0.0000000E+00;  0.0000000E+00;  0.0000000E+00;0;  0.0000000E+00;  4.0000000E+04;  0.0000000E+00;  0.0000000E+00;  4.0000000E+04;  0.0000000E+00;  4.0000000E+04;  0.0000000E+00;  0.0000000E+00;  0.0000000E+00;  0.0000000E+00;
 -2.0000000E-01;  9.9999998E-03;  1.6000000E-01;60;  0.0000000E+00;  0.0000000E+00;  0.0000000E+00;  1.0000000E+03;  1.0000000E-01;  0.0000000E+00;0;  0.0000000E+00;  0.0000000E+00;  0.0000000E+00;0;  0.0000000E+00;  4.0000000E+04;  0.0000000E+00;  0.0000000E+00;  4.0000000E+04;  0.0000000E+00;  4.0000000E+04;  0.0000000E+00;  0.0000000E+00;  0.0000000E+00;  0.0000000E+00;
 -2.0000000E-01;  9.9999998E-03;  1.7000000E-01;61;  0.0000000E+00;  0.0000000E+00;  0.0000000E+00;  1.0000000E+03;  1.0000000E-01;  0.0000000E+00;0;  0.0000000E+00;  0.0000000E+00;  0.0000000E+00;0;  0.0000000E+00;  4.0000000E+04;  0.0000000E+00;  0.0000000E+00;  4.0000000E+04;  0.0000000E+00;  4.0000000E+04;  0.0000000E+00;  0.0000000E+00;  0.0000000E+00;  0.0000000E+00;
 -2.0000000E-01;  9.9999998E-03;  1.8000001E-01;62;  0.0000000E+00;  0.0000000E+00;  0.0000000E+00;  1.0000000E+03;  1.0000000E-01;  0.0000000E+00;0;  0.0000000E+00;  0.0000000E+00;  0.0000000E+00;0;  0.0000000E+00;  4.0000000E+04;  0.0000000E+00;  0.0000000E+00;  4.0000000E+04;  0.0000000E+00;  4.0000000E+04;  0.0000000E+00;  0.0000000E+00;  0.0000000E+00;  0.0000000E+00;
 -2.0000000E-01;  9.9999998E-03;  1.9000000E-01;63;  0.0000000E+00;  0.0000000E+00;  0.0000000E+00;  1.0000000E+03;  1.0000000E-01;  0.0000000E+00;0;  0.0000000E+00;  0.0000000E+00;  0.0000000E+00;0;  0.0000000E+00;  4.0000000E+04;  0.0000000E+00;  0.0000000E+00;  4.0000000E+04;  0.0000000E+00;  4.0000000E+04;  0.0000000E+00;  0.0000000E+00;  0.0000000E+00;  0.0000000E+00;
 -2.0000000E-01;  9.9999998E-03;  2.0000000E-01;64;  0.0000000E+00;  0.0000000E+00;  0.0000000E+00;  1.0000000E+03;  1.0000000E-01;  0.0000000E+00;0;  0.0000000E+00;  0.0000000E+00;  0.0000000E+00;0;  0.0000000E+00;  4.0000000E+04;  0.0000000E+00;  0.0000000E+00;  4.0000000E+04;  0.0000000E+00;  4.0000000E+04;  0.0000000E+00;  0.0000000E+00;  0.0000000E+00;  0.0000000E+00;
 -2.0000000E-01;  9.9999998E-03;  2.0999999E-01;65;  0.0000000E+00;  0.0000000E+00;  0.0000000E+00;  1.0000000E+03;  1.0000000E-01;  0.0000000E+00;0;  0.0000000E+00;  0.0000000E+00;  0.0000000E+00;0;  0.0000000E+00;  4.0000000E+04;  0.0000000E+00;  0.0000000E+00;  4.0000000E+04;  0.0000000E+00;  4.0000000E+04;  0.0000000E+00;  0.0000000E+00;  0.0000000E+00;  0.0000000E+00;
 -2.0000000E-01;  9.9999998E-03;  2.2000000E-01;66;  0.0000000E+00;  0.0000000E+00;  0.0000000E+00;  1.0000000E+03;  1.0000000E-01;  0.0000000E+00;0;  0.0000000E+00;  0.0000000E+00;  0.0000000E+00;0;  0.0000000E+00;  4.0000000E+04;  0.0000000E+00;  0.0000000E+00;  4.0000000E+04;  0.0000000E+00;  4.0000000E+04;  0.0000000E+00;  0.0000000E+00;  0.0000000E+00;  0.0000000E+00;
 -2.0000000E-01;  9.9999998E-03;  2.3000000E-01;67;  0.0000000E+00;  0.0000000E+00;  0.0000000E+00;  1.0000000E+03;  1.0000000E-01;  0.0000000E+00;0;  0.0000000E+00;  0.0000000E+00;  0.0000000E+00;0;  0.0000000E+00;  4.0000000E+04;  0.0000000E+00;  0.0000000E+00;  4.0000000E+04;  0.0000000E+00;  4.0000000E+04;  0.0000000E+00;  0.0000000E+00;  0.0000000E+00;  0.0000000E+00;
 -2.0000000E-01;  9.9999998E-03;  2.3999999E-01;68;  0.0000000E+00;  0.0000000E+00;  0.0000000E+00;  1.0000000E+03;  1.0000000E-01;  0.0000000E+00;0;  0.0000000E+00;  0.0000000E+00;  0.0000000E+00;0;  0.0000000E+00;  4.0000000E+04;  0.0000000E+00;  0.0000000E+00;  4.0000000E+04;  0.0000000E+00;  4.0000000E+04;  0.0000000E+00;  0.0000000E+00;  0.0000000E+00;  0.0000000E+00;
 -2.0000000E-01;  9.9999998E-03;  2.5000000E-01;69;  0.0000000E+00;  0.0000000E+00;  0.0000000E+00;  1.0000000E+03;  1.0000000E-01;  0.0000000E+00;0;  0.0000000E+00;  0.0000000E+00;  0.0000000E+00;0;  0.0000000E+00;  4.0000000E+04;  0.0000000E+00;  0.0000000E+00;  4.0000000E+04;  0.0000000E+00;  4.0000000E+04;  0.0000000E+00;  0.0000000E+00;  0.0000000E+00;  0.0000000E+00;
 -2.0000000E-01;  9.9999998E-03;  2.5999999E-01;70;  0.0000000E+00;  0.0000000E+00;  0.0000000E+00;  1.0000000E+03;  1.0000000E-01;  0.0000000E+00;0;  0.0000000E+00;  0.0000000E+00;  0.0000000E+00;0;  0.0000000E+00;  4.0000000E+04;  0.0000000E+00;  0.0000000E+00;  4.0000000E+04;  0.0000000E+00;  4.0000000E+04;  0.0000000E+00;  0.0000000E+00;  0.0000000E+00;  0.0000000E+00;
 -2.0000000E-01;  9.9999998E-03;  2.7000001E-01;71;  0.0000000E+00;  0.0000000E+00;  0.0000000E+00;  1.0000000E+03;  1.0000000E-01;  0.0000000E+00;0;  0.0000000E+00;  0.0000000E+00;  0.0000000E+00;0;  0.0000000E+00;  4.0000000E+04;  0.0000000E+00;  0.0000000E+00;  4.0000000E+04;  0.0000000E+00;  4.0000000E+04;  0.0000000E+00;  0.0000000E+00;  0.0000000E+00;  0.0000000E+00;
 -2.0000000E-01;  9.9999998E-03;  2.8000000E-01;72;  0.0000000E+00;  0.0000000E+00;  0.0000000E+00;  1.0000000E+03;  1.0000000E-01;  0.0000000E+00;0;  0.0000000E+00;  0.0000000E+00;  0.0000000E+00;0;  0.0000000E+00;  4.0000000E+04;  0.0000000E+00;  0.0000000E+00;  4.0000000E+04;  0.0000000E+00;  4.0000000E+04;  0.0000000E+00;  0.0000000E+00;  0.0000000E+00;  0.0000000E+00;
 -2.0000000E-01;  9.9999998E-03;  2.8999999E-01;73;  0.0000000E+00;  0.0000000E+00;  0.0000000E+00;  1.0000000E+03;  1.0000000E-01;  0.0000000E+00;0;  0.0000000E+00;  0.0000000E+00;  0.0000000E+00;0;  0.0000000E+00;  4.0000000E+04;  0.0000000E+00;  0.0000000E+00;  4.0000000E+04;  0.0000000E+00;  4.0000000E+04;  0.0000000E+00;  0.0000000E+00;  0.0000000E+00;  0.0000000E+00;
 -2.0000000E-01;  9.9999998E-03;  3.0000001E-01;74;  0.0000000E+00;  0.0000000E+00;  0.0000000E+00;  1.0000000E+03;  1.0000000E-01;  0.0000000E+00;0;  0.0000000E+00;  0.0000000E+00;  0.0000000E+00;0;  0.0000000E+00;  4.0000000E+04;  0.0000000E+00;  0.0000000E+00;  4.0000000E+04;  0.0000000E+00;  4.0000000E+04;  0.0000000E+00;  0.0000000E+00;  0.0000000E+00;  0.0000000E+00;
 -2.0000000E-01;  9.9999998E-03;  3.1000000E-01;75;  0.0000000E+00;  0.0000000E+00;  0.0000000E+00;  1.0000000E+03;  1.0000000E-01;  0.0000000E+00;0;  0.0000000E+00;  0.0000000E+00;  0.0000000E+00;0;  0.0000000E+00;  4.0000000E+04;  0.0000000E+00;  0.0000000E+00;  4.0000000E+04;  0.0000000E+00;  4.0000000E+04;  0.0000000E+00;  0.0000000E+00;  0.0000000E+00;  0.0000000E+00;
 -2.0000000E-01;  9.9999998E-03;  3.1999999E-01;76;  0.0000000E+00;  0.0000000E+00;  0.0000000E+00;  1.0000000E+03;  1.0000000E-01;  0.0000000E+00;0;  0.0000000E+00;  0.0000000E+00;  0.0000000E+00;0;  0.0000000E+00;  4.0000000E+04;  0.0000000E+00;  0.0000000E+00;  4.0000000E+04;  0.0000000E+00;  4.0000000E+04;  0.0000000E+00;  0.0000000E+00;  0.0000000E+00;  0.0000000E+00;
 -2.0000000E-01;  9.9999998E-03;  3.3000001E-01;77;  0.0000000E+00;  0.0000000E+00;  0.0000000E+00;  1.0000000E+03;  1.0000000E-01;  0.0000000E+00;0;  0.0000000E+00;  0.0000000E+00;  0.0000000E+00;0;  0.0000000E+00;  4.0000000E+04;  0.0000000E+00;  0.0000000E+00;  4.0000000E+04;  0.0000000E+00;  4.0000000E+04;  0.0000000E+00;  0.0000000E+00;  0.0000000E+00;  0.0000000E+00;
 -2.0000000E-01;  9.9999998E-03;  3.4000000E-01;78;  0.0000000E+00;  0.0000000E+00;  0.0000000E+00;  1.0000000E+03;  1.0000000E-01;  0.0000000E+00;0;  0.0000000E+00;  0.0000000E+00;  0.0000000E+00;0;  0.0000000E+00;  4.0000000E+04;  0.0000000E+00;  0.0000000E+00;  4.0000000E+04;  0.0000000E+00;  4.0000000E+04;  0.0000000E+00;  0.0000000E+00;  0.0000000E+00;  0.0000000E+00;
 -2.0000000E-01;  9.9999998E-03;  3.4999999E-01;79;  0.0000000E+00;  0.0000000E+00;  0.0000000E+00;  1.0000000E+03;  1.0000000E-01;  0.0000000E+00;0;  0.0000000E+00;  0.0000000E+00;  0.0000000E+00;0;  0.0000000E+00;  4.0000000E+04;  0.0000000E+00;  0.0000000E+00;  4.0000000E+04;  0.0000000E+00;  4.0000000E+04;  0.0000000E+00;  0.0000000E+00;  0.0000000E+00;  0.0000000E+00;
 -2.0000000E-01;  9.9999998E-03;  3.6000001E-01;80;  0.0000000E+00;  0.0000000E+00;  0.0000000E+00;  1.0000000E+03;  1.0000000E-01;  0.0000000E+00;0;  0.0000000E+00;  0.0000000E+00;  0.0000000E+00;0;  0.0000000E+00;  4.0000000E+04;  0.0000000E+00;  0.0000000E+00;  4.0000000E+04;  0.0000000E+00;  4.0000000E+04;  0.0000000E+00;  0.0000000E+00;  0.0000000E+00;  0.0000000E+00;
 -2.0000000E-01;  9.9999998E-03;  3.7000000E-01;81;  0.0000000E+00;  0.0000000E+00;  0.0000000E+00;  1.0000000E+03;  1.0000000E-01;  0.0000000E+00;0;  0.0000000E+00;  0.0000000E+00;  0.0000000E+00;0;  0.0000000E+00;  4.0000000E+04;  0.0000000E+00;  0.0000000E+00;  4.0000000E+04;  0.0000000E+00;  4.0000000E+04;  0.0000000E+00;  0.0000000E+00;  0.0000000E+00;  0.0000000E+00;
 -2.0000000E-01;  9.9999998E-03;  3.8000000E-01;82;  0.0000000E+00;  0.0000000E+00;  0.0000000E+00;  1.0000000E+03;  1.0000000E-01;  0.0000000E+00;0;  0.0000000E+00;  0.0000000E+00;  0.0000000E+00;0;  0.0000000E+00;  4.0000000E+04;  0.0000000E+00;  0.0000000E+00;  4.0000000E+04;  0.0000000E+00;  4.0000000E+04;  0.0000000E+00;  0.0000000E+00;  0.0000000E+00;  0.0000000E+00;
 -2.0000000E-01;  9.9999998E-03;  3.8999999E-01;83;  0.0000000E+00;  0.0000000E+00;  0.0000000E+00;  1.0000000E+03;  1.0000000E-01;  0.0000000E+00;0;  0.0000000E+00;  0.0000000E+00;  0.0000000E+00;0;  0.0000000E+00;  4.0000000E+04;  0.0000000E+00;  0.0000000E+00;  4.0000000E+04;  0.0000000E+00;  4.0000000E+04;  0.0000000E+00;  0.0000000E+00;  0.0000000E+00;  0.0000000E+00;
 -2.0000000E-01;  9.9999998E-03;  4.0000001E-01;84;  0.0000000E+00;  0.0000000E+00;  0.0000000E+00;  1.0000000E+03;  1.0000000E-01;  0.0000000E+00;0;  0.0000000E+00;  0.0000000E+00;  0.0000000E+00;0;  0.0000000E+00;  4.0000000E+04;  0.0000000E+00;  0.0000000E+00;  4.0000000E+04;  0.0000000E+00;  4.0000000E+04;  0.0000000E+00;  0.0000000E+00;  0.0000000E+00;  0.0000000E+00;
 -2.0000000E-01;  9.9999998E-03;  4.1000000E-01;85;  0.0000000E+00;  0.0000000E+00;  0.0000000E+00;  1.0000000E+03;  1.0000000E-01;  0.0000000E+00;0;  0.0000000E+00;  0.0000000E+00;  0.0000000E+00;0;  0.0000000E+00;  4.0000000E+04;  0.0000000E+00;  0.0000000E+00;  4.0000000E+04;  0.0000000E+00;  4.0000000E+04;  0.0000000E+00;  0.0000000E+00;  0.0000000E+00;  0.0000000E+00;
 -2.0000000E-01;  9.9999998E-03;  4.1999999E-01;86;  0.0000000E+00;  0.0000000E+00;  0.0000000E+00;  1.0000000E+03;  1.0000000E-01;  0.0000000E+00;0;  0.0000000E+00;  0.0000000E+00;  0.0000000E+00;0;  0.0000000E+00;  4.0000000E+04;  0.0000000E+00;  0.0000000E+00;  4.0000000E+04;  0.0000000E+00;  4.0000000E+04;  0.0000000E+00;  0.0000000E+00;  0.0000000E+00;  0.0000000E+00;
 -2.0000000E-01;  9.9999998E-03;  4.3000001E-01;87;  0.0000000E+00;  0.0000000E+00;  0.0000000E+00;  1.0000000E+03;  1.0000000E-01;  0.0000000E+00;0;  0.0000000E+00;  0.0000000E+00;  0.0000000E+00;0;  0.0000000E+00;  4.0000000E+04;  0.0000000E+00;  0.0000000E+00;  4.0000000E+04;  0.0000000E+00;  4.0000000E+04;  0.0000000E+00;  0.0000000E+00;  0.0000000E+00;  0.0000000E+00;
 -2.0000000E-01;  9.9999998E-03;  4.4000000E-01;88;  0.0000000E+00;  0.0000000E+00;  0.0000000E+00;  1.0000000E+03;  1.0000000E-01;  0.0000000E+00;0;  0.0000000E+00;  0.0000000E+00;  0.0000000E+00;0;  0.0000000E+00;  4.0000000E+04;  0.0000000E+00;  0.0000000E+00;  4.0000000E+04;  0.0000000E+00;  4.0000000E+04;  0.0000000E+00;  0.0000000E+00;  0.0000000E+00;  0.0000000E+00;
  1.3011835E-04;  9.9999998E-03; -2.8984371E-01;2448; -1.3632532E-03;  0.0000000E+00; -1.3613174E-03;  9.9468640E+02;  1.0000000E-01; -4.4021963E+03;3;  1.1860663E+01;  0.0000000E+00;  2.3683552E+01;0; -4.3490879E-02;  3.9580785E+04;  0.0000000E+00; -3.4515595E-01;  4.0000000E+04;  0.0000000E+00;  3.9992227E+04; -3.9951574E-02;  0.0000000E+00; -3.5393038E-03;  7.0048480E+02;
  4.0094275E-04;  9.9999998E-03; -2.7982172E-01;2449; -1.3954497E-03;  0.0000000E+00; -1.3619289E-03;  9.9349609E+02;  1.0000000E-01; -5.3883413E+03;3;  2.0933054E+01;  0.0000000E+00;  2.3628155E+01;0; -4.9770985E-02;  3.9478766E+04;  0.0000000E+00; -3.9292163E-01;  4.0000000E+04;  0.0000000E+00;  4.0000926E+04; -4.7069903E-02;  0.0000000E+00; -2.7010802E-03;  8.7936462E+02;
  9.9567678E-03;  9.9999998E-03; -2.9977888E-01;2507; -1.8089372E-03;  0.0000000E+00; -1.2637462E-03;  9.9593451E+02;  1.0000000E-01; -3.3682009E+03;3; -1.5435828E+00;  0.0000000E+00;  2.3428045E+01;0; -4.1565653E-02;  3.9686973E+04;  0.0000000E+00; -3.5756466E-01;  4.0000000E+04;  0.0000000E+00;  3.9985621E+04; -3.6959194E-02;  0.0000000E+00; -4.6064602E-03;  1.5406610E+03;
  1.0153850E-02;  9.9999998E-03; -2.8979081E-01;2508; -1.9363601E-03;  0.0000000E+00; -1.2551628E-03;  9.9497693E+02;  1.0000000E-01; -4.1615117E+03;3;  3.2335148E+00;  0.0000000E+00;  2.3087776E+01;0; -4.8350714E-02;  3.9602285E+04;  0.0000000E+00; -3.9871222E-01;  4.0000000E+04;  0.0000000E+00;  3.9994387E+04; -4.4478949E-02;  0.0000000E+00; -3.8717664E-03;  6.3848083E+02;
  1.0434807E-02;  9.9999998E-03; -2.7980086E-01;2509; -2.0874778E-03;  0.0000000E+00; -1.2581099E-03;  9.9392688E+02;  1.0000000E-01; -5.0314624E+03;3;  1.0514735E+01;  0.0000000E+00;  2.2212234E+01;0; -5.5139836E-02;  3.9509742E+04;  0.0000000E+00; -4.3647298E-01;  4.0000000E+04;  0.0000000E+00;  4.0004055E+04; -5.2259725E-02;  0.0000000E+00; -2.8801127E-03;  1.1919919E+03;
  1.9931881E-02;  9.9999998E-03; -2.9979852E-01;2568; -2.3875108E-03;  0.0000000E+00; -1.1799622E-03;  9.9628601E+02;  1.0000000E-01; -3.0769500E+03;3; -8.5876617E+00;  0.0000000E+00;  2.1131664E+01;0; -4.4923186E-02;  3.9712992E+04;  0.0000000E+00; -4.1436934E-01;  4.0000000E+04;  0.0000000E+00;  3.9987219E+04; -3.9958563E-02;  0.0000000E+00; -4.9646245E-03;  1.3990201E+03;
  2.0132827E-02;  9.9999998E-03; -2.8983516E-01;2569; -2.6428525E-03;  0.0000000E+00; -1.1713789E-03;  9.9548199E+02;  1.0000000E-01; -3.7431040E+03;3; -5.4322553E+00;  0.0000000E+00;  1.9636381E+01;0; -5.2082613E-02;  3.9639324E+04;  0.0000000E+00; -4.4279546E-01;  4.0000000E+04;  0.0000000E+00;  3.9996668E+04; -4.7985390E-02;  0.0000000E+00; -4.0972214E-03;  6.2732935E+02;
  2.0430747E-02;  9.9999998E-03; -2.7985659E-01;2570; -2.9187046E-03;  0.0000000E+00; -1.1729314E-03;  9.9461542E+02;  1.0000000E-01; -4.4610098E+03;3; -3.7522343E-01;  0.0000000E+00;  1.7855843E+01;0; -5.9209663E-02;  3.9560953E+04;  0.0000000E+00; -4.6507210E-01;  4.0000000E+04;  0.0000000E+00;  4.0007637E+04; -5.6251951E-02;  0.0000000E+00; -2.9577133E-03;  1.5383733E+03;
  2.9896813E-02;  9.9999998E-03; -2.9987046E-01;2629; -3.0445177E-03;  0.0000000E+00; -1.1025398E-03;  9.9673315E+02;  1.0000000E-01; -2.7065408E+03;3; -1.4442983E+01;  0.0000000E+00;  1.6454020E+01;0; -4.7259241E-02;  3.9746199E+04;  0.0000000E+00; -4.6809021E-01;  4.0000000E+04;  0.0000000E+00;  3.9989488E+04; -4.2059083E-02;  0.0000000E+00; -5.2001607E-03;  1.2400513E+03;
  3.0105427E-02;  9.9999998E-03; -2.8990841E-01;2630; -3.4330741E-03;  0.0000000E+00; -1.0868207E-03;  9.9610620E+02;  1.0000000E-01; -3.2259333E+03;3; -1.2641336E+01;  0.0000000E+00;  1.3612190E+01;0; -5.4619227E-02;  3.9686012E+04;  0.0000000E+00; -4.7873542E-01;  4.0000000E+04;  0.0000000E+00;  3.9999371E+04; -5.0418183E-02;  0.0000000E+00; -4.2010425E-03;  7.3476434E+02;
  3.0423125E-02;  9.9999998E-03; -2.7992529E-01;2631; -3.8355356E-03;  0.0000000E+00; -1.0900096E-03;  9.9545911E+02;  1.0000000E-01; -3.7620664E+03;3; -9.6298895E+00;  0.0000000E+00;  1.0832629E+01;0; -6.1890867E-02;  3.9624035E+04;  0.0000000E+00; -4.7680989E-01;  4.0000000E+04;  0.0000000E+00;  4.0010438E+04; -5.8972880E-02;  0.0000000E+00; -2.9179875E-03;  1.8394935E+03;
  3.9876133E-02;  9.9999998E-03; -2.9994145E-01;2690; -3.7328496E-03;  0.0000000E+00; -1.0399912E-03;  9.9720148E+02;  1.0000000E-01; -2.3185024E+03;3; -1.8594723E+01;  0.0000000E+00;  1.0238886E+01;0; -4.8618048E-02;  3.9781359E+04;  0.0000000E+00; -5.2440268E-01;  4.0000000E+04;  0.0000000E+00;  3.9991145E+04; -4.3306753E-02;  0.0000000E+00; -5.3112973E-03;  1.1386471E+03;
  4.0103447E-02;  9.9999998E-03; -2.8996086E-01;2691; -4.2533330E-03;  0.0000000E+00; -1.0131299E-03;  9.9676190E+02;  1.0000000E-01; -2.6826895E+03;3; -1.7579212E+01;  0.0000000E+00;  5.8310337E+00;0; -5.6003004E-02;  3.9735680E+04;  0.0000000E+00; -5.0950730E-01;  4.0000000E+04;  0.0000000E+00;  4.0001832E+04; -5.1824939E-02;  0.0000000E+00; -4.1780649E-03;  8.8394159E+02;
  4.0435560E-02;  9.9999998E-03; -2.7996927E-01;2692; -4.7787237E-03;  0.0000000E+00; -1.0173693E-03;  9.9633429E+02;  1.0000000E-01; -3.0369512E+03;3; -1.5913526E+01;  0.0000000E+00;  2.0526197E+00;0; -6.3214682E-02;  3.9691062E+04;  0.0000000E+00; -4.6994352E-01;  4.0000000E+04;  0.0000000E+00;  4.0012898E+04; -6.0459979E-02;  0.0000000E+00; -2.7547036E-03;  2.0650522E+03;
  4.9880147E-02;  9.9999998E-03; -2.9998684E-01;2751; -4.4054207E-03;  0.0000000E+00; -1.0145684E-03;  9.9762683E+02;  1.0000000E-01; -1.9661172E+03;3; -2.1001106E+01;  0.0000000E+00;  3.6177464E+00;0; -4.9124181E-02;  3.9813871E+04;  0.0000000E+00; -5.8849019E-01;  4.0000000E+04;  0.0000000E+00;  3.9992090E+04; -4.3820418E-02;  0.0000000E+00; -5.3037629E-03;  1.1335536E+03;
  5.0127726E-02;  9.9999998E-03; -2.8998542E-01;2752; -5.0511127E-03;  0.0000000E+00; -9.7828277E-04;  9.9736377E+02;  1.0000000E-01; -2.1840864E+03;3; -2.0141747E+01;  0.0000000E+00; -2.4487605E+00;0; -5.6355733E-02;  3.9782047E+04;  0.0000000E+00; -5.3794801E-01;  4.0000000E+04;  0.0000000E+00;  4.0003262E+04; -5.2322414E-02;  0.0000000E+00; -4.0333201E-03;  1.0028107E+03;
  5.0466359E-02;  9.9999998E-03; -2.7998650E-01;2753; -5.6906459E-03;  0.0000000E+00; -9.8530098E-04;  9.9715247E+02;  1.0000000E-01; -2.3591431E+03;3; -1.9058197E+01;  0.0000000E+00; -7.3132648E+00;0; -6.3316785E-02;  3.9754164E+04;  0.0000000E+00; -4.4424862E-01;  4.0000000E+04;  0.0000000E+00;  4.0015164E+04; -6.0844596E-02;  0.0000000E+00; -2.4721916E-03;  2.2113716E+03;
  5.9905253E-02;  9.9999998E-03; -3.0001125E-01;2812; -5.0190873E-03;  0.0000000E+00; -1.0481470E-03;  9.9795142E+02;  1.0000000E-01; -1.6972360E+03;3; -2.2002708E+01;  0.0000000E+00; -2.2710984E+00;0; -4.8994623E-02;  3.9839547E+04;  0.0000000E+00; -6.3179237E-01;  4.0000000E+04;  0.0000000E+00;  3.9992266E+04; -4.3806590E-02;  0.0000000E+00; -5.1880348E-03;  1.1979343E+03;
  6.0168628E-02;  9.9999998E-03; -2.8999045E-01;2813; -5.7854927E-03;  0.0000000E+00; -1.0013813E-03;  9.9785028E+02;  1.0000000E-01; -1.7809867E+03;3; -2.0820421E+01;  0.0000000E+00; -1.0085167E+01;0; -5.5917226E-02;  3.9820039E+04;  0.0000000E+00; -5.3531969E-01;  4.0000000E+04;  0.0000000E+00;  4.0003957E+04; -5.2139349E-02;  0.0000000E+00; -3.7778749E-03;  1.0278359E+03;
  6.0507156E-02;  9.9999998E-03; -2.7998567E-01;2814; -6.5452708E-03;  0.0000000E+00; -9.9611166E-04;  9.9782660E+02;  1.0000000E-01; -1.8006404E+03;3; -1.9674551E+01;  0.0000000E+00; -1.6020914E+01;0; -6.2464528E-02;  3.9807184E+04;  0.0000000E+00; -3.7633127E-01;  4.0000000E+04;  0.0000000E+00;  4.0015965E+04; -6.0382407E-02;  0.0000000E+00; -2.0821192E-03;  2.2791707E+03;
  6.9948725E-02;  9.9999998E-03; -3.0002084E-01;2873; -5.5397674E-03;  0.0000000E+00; -1.1548474E-03;  9.9813751E+02;  1.0000000E-01; -1.5430181E+03;3; -2.2176147E+01;  0.0000000E+00; -6.6300182E+00;0; -4.8556689E-02;  3.9855297E+04;  0.0000000E+00; -5.4137635E-01;  4.0000000E+04;  0.0000000E+00;  3.9990992E+04; -4.3582108E-02;  0.0000000E+00; -4.9745799E-03;  1.2306094E+03;
  7.0222944E-02;  9.9999998E-03; -2.8998262E-01;2874; -6.4368355E-03;  0.0000000E+00; -1.0863546E-03;  9.9816986E+02;  1.0000000E-01; -1.5162534E+03;3; -2.0406313E+01;  0.0000000E+00; -1.6202860E+01;0; -5.5052526E-02;  3.9845914E+04;  0.0000000E+00; -3.8736591E-01;  4.0000000E+04;  0.0000000E+00;  4.0003828E+04; -5.1627636E-02;  0.0000000E+00; -3.4248894E-03;  8.3968152E+02;
  7.0553467E-02;  9.9999998E-03; -2.7997485E-01;2875; -7.3082354E-03;  0.0000000E+00; -1.0652279E-03;  9.9831049E+02;  1.0000000E-01; -1.3997135E+03;3; -1.8716652E+01;  0.0000000E+00; -2.3377241E+01;0; -6.1058003E-02;  3.9845375E+04;  0.0000000E+00; -1.6463202E-01;  4.0000000E+04;  0.0000000E+00;  4.0016996E+04; -5.9458077E-02;  0.0000000E+00; -1.5999274E-03;  2.2731436E+03;
  8.0011018E-02;  9.9999998E-03; -3.0001724E-01;2934; -5.9510409E-03;  0.0000000E+00; -1.3303297E-03;  9.9815900E+02;  1.0000000E-01; -1.5252408E+03;3; -2.2133114E+01;  0.0000000E+00; -9.0203762E+00;0; -4.8208214E-02;  3.9859746E+04;  0.0000000E+00; -9.8944552E-02;  4.0000000E+04;  0.0000000E+00;  3.9988770E+04; -4.3537736E-02;  0.0000000E+00; -4.6704770E-03;  1.2727874E+03;
  8.0290325E-02;  9.9999998E-03; -2.8996402E-01;2935; -6.9906418E-03;  0.0000000E+00; -1.2302947E-03;  9.9829987E+02;  1.0000000E-01; -1.4085527E+03;3; -1.9684019E+01;  0.0000000E+00; -2.0439461E+01;0; -5.4205976E-02;  3.9857621E+04;  0.0000000E+00;  1.2555191E-01;  4.0000000E+04;  0.0000000E+00;  4.0002836E+04; -5.1219903E-02;  0.0000000E+00; -2.9860744E-03;  5.3048193E+02;
  8.0604590E-02;  9.9999998E-03; -2.7995822E-01;2936; -7.9661328E-03;  0.0000000E+00; -1.1942979E-03;  9.9857404E+02;  1.0000000E-01; -1.1813987E+03;3; -1.7203794E+01;  0.0000000E+00; -2.9026022E+01;0; -5.9576660E-02;  3.9866406E+04;  0.0000000E+00;  3.9091972E-01;  4.0000000E+04;  0.0000000E+00;  4.0017156E+04; -5.8535129E-02;  0.0000000E+00; -1.0415311E-03;  2.3485269E+03;
  9.0092428E-02;  9.9999998E-03; -2.9999784E-01;2995; -6.2483042E-03;  0.0000000E+00; -1.5519854E-03;  9.9801538E+02;  1.0000000E-01; -1.6442004E+03;3; -2.2321850E+01;  0.0000000E+00; -9.4665136E+00;0; -4.8357204E-02;  3.9851535E+04;  0.0000000E+00;  1.0060018E+00;  4.0000000E+04;  0.0000000E+00;  3.9985199E+04; -4.4080708E-02;  0.0000000E+00; -4.2764945E-03;  2.2141802E+03;
  9.0365380E-02;  9.9999998E-03; -2.8993434E-01;2996; -7.4522374E-03;  0.0000000E+00; -1.4021514E-03;  9.9823395E+02;  1.0000000E-01; -1.4631191E+03;3; -1.9217941E+01;  0.0000000E+00; -2.2762363E+01;0; -5.3835519E-02;  3.9854332E+04;  0.0000000E+00;  1.3076874E+00;  4.0000000E+04;  0.0000000E+00;  4.0001211E+04; -5.1364742E-02;  0.0000000E+00; -2.4707774E-03;  1.9037133E+03;
  9.0654686E-02;  9.9999998E-03; -2.7993605E-01;2997; -8.5372217E-03;  0.0000000E+00; -1.3456278E-03;  9.9861169E+02;  1.0000000E-01; -1.1501897E+03;3; -1.5904045E+01;  0.0000000E+00; -3.2901295E+01;0; -5.8512669E-02;  3.9869887E+04;  0.0000000E+00;  1.5636986E+00;  4.0000000E+04;  0.0000000E+00;  4.0017316E+04; -5.8089241E-02;  0.0000000E+00; -4.2342860E-04;  3.2155474E+03;
  1.0019144E-01;  9.9999998E-03; -2.9995573E-01;3056; -6.4759189E-03;  0.0000000E+00; -1.7506911E-03;  9.9770599E+02;  1.0000000E-01; -1.9005388E+03;3; -2.2942976E+01;  0.0000000E+00; -8.2592831E+00;0; -4.9377125E-02;  3.9831129E+04;  0.0000000E+00;  3.1401231E+00;  4.0000000E+04;  0.0000000E+00;  3.9981414E+04; -4.5586791E-02;  0.0000000E+00; -3.7903339E-03;  4.9844956E+03;
  1.0044187E-01;  9.9999998E-03; -2.8989005E-01;3057; -7.8579048E-03;  0.0000000E+00; -1.5458665E-03;  9.9798315E+02;  1.0000000E-01; -1.6709156E+03;3; -1.9217794E+01;  0.0000000E+00; -2.3533312E+01;0; -5.4357335E-02;  3.9836582E+04;  0.0000000E+00;  3.5014844E+00;  4.0000000E+04;  0.0000000E+00;  3.9999699E+04; -5.2470062E-02;  0.0000000E+00; -1.8872749E-03;  5.0304355E+03;
  1.0069466E-01;  9.9999998E-03; -2.7990463E-01;3058; -9.0597412E-03;  0.0000000E+00; -1.4657892E-03;  9.9844543E+02;  1.0000000E-01; -1.2879142E+03;3; -1.5131404E+01;  0.0000000E+00; -3.5320271E+01;0; -5.8305293E-02;  3.9856617E+04;  0.0000000E+00;  3.6467497E+00;  4.0000000E+04;  0.0000000E+00;  4.0017766E+04; -5.8543365E-02;  0.0000000E+00;  2.3807120E-04;  5.7515884E+03;
  1.1029623E-01;  9.9999998E-03; -2.9988772E-01;3117; -6.6953334E-03;  0.0000000E+00; -1.8625582E-03;  9.9724377E+02;  1.0000000E-01; -2.2834910E+03;3; -2.3818180E+01;  0.0000000E+00; -6.2035108E+00;0; -5.1583625E-02;  3.9798547E+04;  0.0000000E+00;  6.6896915E+00;  4.0000000E+04;  0.0000000E+00;  3.9978332E+04; -4.8367094E-02;  0.0000000E+00; -3.2165293E-03;  9.9313145E+03;
  1.1050487E-01;  9.9999998E-03; -2.8982905E-01;3118; -8.2835238E-03;  0.0000000E+00; -1.5824236E-03;  9.9757635E+02;  1.0000000E-01; -2.0079432E+03;3; -1.9432936E+01;  0.0000000E+00; -2.3488405E+01;0; -5.6127533E-02;  3.9805742E+04;  0.0000000E+00;  7.0403442E+00;  4.0000000E+04;  0.0000000E+00;  3.9999027E+04; -5.4870766E-02;  0.0000000E+00; -1.2567695E-03;  1.0128235E+04;
  1.1071355E-01;  9.9999998E-03; -2.7985990E-01;3119; -9.6197650E-03;  0.0000000E+00; -1.4685730E-03;  9.9811041E+02;  1.0000000E-01; -1.5654866E+03;3; -1.4690782E+01;  0.0000000E+00; -3.6789310E+01;0; -5.9317134E-02;  3.9829449E+04;  0.0000000E+00;  6.8939824E+00;  4.0000000E+04;  0.0000000E+00;  4.0019094E+04; -6.0230825E-02;  0.0000000E+00;  9.1368984E-04;  1.0250776E+04;
  1.2038650E-01;  9.9999998E-03; -2.9979587E-01;3178; -6.9992272E-03;  0.0000000E+00; -1.8235380E-03;  9.9667151E+02;  1.0000000E-01; -2.7576011E+03;3; -2.4199844E+01;  0.0000000E+00; -4.7904911E+00;0; -5.5275865E-02;  3.9755086E+04;  0.0000000E+00;  1.2056199E+01;  4.0000000E+04;  0.0000000E+00;  3.9977254E+04; -5.2684046E-02;  0.0000000E+00; -2.5918186E-03;  1.7545061E+04;
  1.2054142E-01;  9.9999998E-03; -2.8975025E-01;3179; -8.8173570E-03;  0.0000000E+00; -1.4510241E-03;  9.9707556E+02;  1.0000000E-01; -2.4228450E+03;3; -1.9049648E+01;  0.0000000E+00; -2.4003937E+01;0; -5.9464913E-02;  3.9765160E+04;  0.0000000E+00;  1.2224693E+01;  4.0000000E+04;  0.0000000E+00;  4.0000492E+04; -5.8831841E-02;  0.0000000E+00; -6.3307211E-04;  1.7630561E+04;
  1.2071591E-01;  9.9999998E-03; -2.7979383E-01;3180; -1.0294502E-02;  0.0000000E+00; -1.2975548E-03;  9.9767603E+02;  1.0000000E-01; -1.9253777E+03;3; -1.3862693E+01;  0.0000000E+00; -3.8390541E+01;0; -6.1840385E-02;  3.9791930E+04;  0.0000000E+00;  1.1471997E+01;  4.0000000E+04;  0.0000000E+00;  4.0022754E+04; -6.3388914E-02;  0.0000000E+00;  1.5485305E-03;  1.6831881E+04;
  1.3045199E-01;  9.9999998E-03; -2.9968312E-01;3239; -7.4886433E-03;  0.0000000E+00; -1.6301323E-03;  9.9606891E+02;  1.0000000E-01; -3.2568462E+03;3; -2.2575033E+01;  0.0000000E+00; -6.3950186E+00;0; -6.0803346E-02;  3.9703789E+04;  0.0000000E+00;  1.9685528E+01;  4.0000000E+04;  0.0000000E+00;  3.9982062E+04; -5.8809854E-02;  0.0000000E+00; -1.9934913E-03;  2.8465236E+04;
  1.3056195E-01;  9.9999998E-03; -2.8965119E-01;3240; -9.5494296E-03;  0.0000000E+00; -1.1517231E-03;  9.9656116E+02;  1.0000000E-01; -2.8490059E+03;3; -1.6697189E+01;  0.0000000E+00; -2.7113359E+01;0; -6.4701959E-02;  3.9718492E+04;  0.0000000E+00;  1.9309183E+01;  4.0000000E+04;  0.0000000E+00;  4.0007453E+04; -6.4590447E-02;  0.0000000E+00; -1.1151005E-04;  2.7935834E+04;
  1.3070828E-01;  9.9999998E-03; -2.7971172E-01;3241; -1.1126291E-02;  0.0000000E+00; -9.8368165E-04;  9.9722296E+02;  1.0000000E-01; -2.3007251E+03;3; -1.1599245E+01;  0.0000000E+00; -4.1623287E+01;0; -6.6081911E-02;  3.9749742E+04;  0.0000000E+00;  1.7433161E+01;  4.0000000E+04;  0.0000000E+00;  4.0030066E+04; -6.8142354E-02;  0.0000000E+00;  2.0604464E-03;  2.5542145E+04;
  1.4050312E-01;  9.9999998E-03; -2.9956678E-01;3300; -8.1896307E-03;  0.0000000E+00; -1.4424513E-03;  9.9551550E+02;  1.0000000E-01; -3.7153022E+03;3; -1.6453327E+01;  0.0000000E+00; -1.3535745E+01;0; -6.8408705E-02;  3.9648574E+04;  0.0000000E+00;  3.0028387E+01;  4.0000000E+04;  0.0000000E+00;  3.9995293E+04; -6.6967696E-02;  0.0000000E+00; -1.4410065E-03;  4.3372445E+04;
  1.4057215E-01;  9.9999998E-03; -2.8955242E-01;3301; -1.0494369E-02;  0.0000000E+00; -8.3631976E-04;  9.9612677E+02;  1.0000000E-01; -3.2088970E+03;3; -1.0573711E+01;  0.0000000E+00; -3.4855446E+01;0; -7.2028182E-02;  3.9671422E+04;  0.0000000E+00;  2.8465715E+01;  4.0000000E+04;  0.0000000E+00;  4.0021309E+04; -7.2277494E-02;  0.0000000E+00;  2.4931179E-04;  4.1333312E+04;
  1.4071120E-01;  9.9999998E-03; -2.7962396E-01;3302; -1.2137274E-02;  0.0000000E+00; -6.4899877E-04;  9.9683728E+02;  1.0000000E-01; -2.6202715E+03;3; -6.7475276E+00;  0.0000000E+00; -4.8019131E+01;0; -7.2114058E-02;  3.9707211E+04;  0.0000000E+00;  2.4690260E+01;  4.0000000E+04;  0.0000000E+00;  4.0042461E+04; -7.4502990E-02;  0.0000000E+00;  2.3889323E-03;  3.6273332E+04;
  1.5056249E-01;  9.9999998E-03; -2.9949853E-01;3361; -8.9858836E-03;  0.0000000E+00; -1.6424446E-03;  9.9503821E+02;  1.0000000E-01; -4.1107480E+03;3; -3.2646677E+00;  0.0000000E+00; -2.5744915E+01;0; -7.7558897E-02;  3.9591070E+04;  0.0000000E+00;  4.3036530E+01;  4.0000000E+04;  0.0000000E+00;  4.0016379E+04; -7.7002972E-02;  0.0000000E+00; -5.5592414E-04;  6.2222344E+04;
  1.5059906E-01;  9.9999998E-03; -2.8948292E-01;3362; -1.1558238E-02;  0.0000000E+00; -8.4034103E-04;  9.9582764E+02;  1.0000000E-01; -3.4567417E+03;3;  9.2814213E-01;  0.0000000E+00; -4.7709358E+01;0; -8.1026420E-02;  3.9626922E+04;  0.0000000E+00;  3.9525307E+01;  4.0000000E+04;  0.0000000E+00;  4.0042922E+04; -8.1731319E-02;  0.0000000E+00;  7.0490222E-04;  5.7607934E+04;
  1.5075625E-01;  9.9999998E-03; -2.7955708E-01;3363; -1.3303445E-02;  0.0000000E+00; -5.0699100E-04;  9.9656378E+02;  1.0000000E-01; -2.8468330E+03;3;  1.4624648E+00;  0.0000000E+00; -5.7833397E+01;0; -7.9661332E-02;  3.9667227E+04;  0.0000000E+00;  3.2773865E+01;  4.0000000E+04;  0.0000000E+00;  4.0061090E+04; -8.2293481E-02;  0.0000000E+00;  2.6321507E-03;  4.8371949E+04;
  1.6069961E-01;  9.9999998E-03; -2.9955789E-01;3422; -9.5886961E-03;  0.0000000E+00; -2.6151899E-03;  9.9435962E+02;  1.0000000E-01; -4.6729541E+03;3;  1.6186434E+01;  0.0000000E+00; -3.3058731E+01;0; -8.5960373E-02;  3.9519699E+04;  0.0000000E+00;  5.6156033E+01;  4.0000000E+04;  0.0000000E+00;  4.0034059E+04; -8.7782145E-02;  0.0000000E+00;  1.8217750E-03;  8.1299945E+04;
  1.6071163E-01;  9.9999998E-03; -2.8949293E-01;3423; -1.2606522E-02;  0.0000000E+00; -1.4814911E-03;  9.9550116E+02;  1.0000000E-01; -3.7272031E+03;3;  1.7228197E+01;  0.0000000E+00; -6.0383446E+01;0; -9.0238899E-02;  3.9577648E+04;  0.0000000E+00;  5.0728886E+01;  4.0000000E+04;  0.0000000E+00;  4.0066488E+04; -9.2323892E-02;  0.0000000E+00;  2.0849956E-03;  7.4217922E+04;
  1.6091497E-01;  9.9999998E-03; -2.7953610E-01;3424; -1.4530618E-02;  0.0000000E+00; -8.1706478E-04;  9.9629309E+02;  1.0000000E-01; -3.0711230E+03;3;  1.2432461E+01;  0.0000000E+00; -6.8791100E+01;0; -8.7689467E-02;  3.9623750E+04;  0.0000000E+00;  4.0123676E+01;  4.0000000E+04;  0.0000000E+00;  4.0082891E+04; -9.0972796E-02;  0.0000000E+00;  3.2833265E-03;  5.9622699E+04;
  1.7104296E-01;  9.9999998E-03; -2.9980090E-01;3483; -9.8992065E-03;  0.0000000E+00; -3.7289129E-03;  9.9260120E+02;  1.0000000E-01; -6.1297524E+03;3;  3.0072289E+01;  0.0000000E+00; -1.0422663E+01;0; -9.1742679E-02;  3.9393102E+04;  0.0000000E+00;  6.0639641E+01;  4.0000000E+04;  0.0000000E+00;  4.0019461E+04; -9.7681664E-02;  0.0000000E+00;  5.9389882E-03;  8.8043719E+04;
  1.7101158E-01;  9.9999998E-03; -2.8962743E-01;3484; -1.3498734E-02;  0.0000000E+00; -2.6141761E-03;  9.9461938E+02;  1.0000000E-01; -4.4577505E+03;3;  3.1462715E+01;  0.0000000E+00; -5.8948841E+01;0; -9.7465895E-02;  3.9498812E+04;  0.0000000E+00;  5.6375668E+01;  4.0000000E+04;  0.0000000E+00;  4.0074164E+04; -1.0274043E-01;  0.0000000E+00;  5.2745324E-03;  8.2934023E+04;
  1.7121133E-01;  9.9999998E-03; -2.7961114E-01;3485; -1.5713351E-02;  0.0000000E+00; -1.5603653E-03;  9.9578748E+02;  1.0000000E-01; -3.4899753E+03;3;  2.1667400E+01;  0.0000000E+00; -7.2882401E+01;0; -9.4467416E-02;  3.9569945E+04;  0.0000000E+00;  4.3021793E+01;  4.0000000E+04;  0.0000000E+00;  4.0096395E+04; -9.9446774E-02;  0.0000000E+00;  4.9793562E-03;  6.4591836E+04;
  1.8171917E-01;  9.9999998E-03; -3.0009392E-01;3544; -1.1617069E-02;  0.0000000E+00; -1.8757551E-03;  9.8881805E+02;  1.0000000E-01; -9.2640342E+03;3;  1.6709259E+01;  0.0000000E+00;  5.6172405E+01;0; -1.0930346E-01;  3.9145988E+04;  0.0000000E+00;  4.3386219E+01;  4.0000000E+04;  0.0000000E+00;  3.9963484E+04; -1.1204402E-01;  0.0000000E+00;  2.7405601E-03;  6.3810938E+04;
  1.8151508E-01;  9.9999998E-03; -2.8986791E-01;3545; -1.4634982E-02;  0.0000000E+00; -2.4974230E-03;  9.9269263E+02;  1.0000000E-01; -6.0540015E+03;3;  2.9104734E+01;  0.0000000E+00; -2.6580357E+01;0; -1.0600855E-01;  3.9373168E+04;  0.0000000E+00;  4.7423573E+01;  4.0000000E+04;  0.0000000E+00;  4.0045051E+04; -1.1249807E-01;  0.0000000E+00;  6.4895228E-03;  7.0642320E+04;
  1.8157837E-01;  9.9999998E-03; -2.7980009E-01;3546; -1.6831586E-02;  0.0000000E+00; -1.8681039E-03;  9.9489911E+02;  1.0000000E-01; -4.2260039E+03;3;  2.0630671E+01;  0.0000000E+00; -5.8648643E+01;0; -9.9854290E-02;  3.9514074E+04;  0.0000000E+00;  3.6766872E+01;  4.0000000E+04;  0.0000000E+00;  4.0080633E+04; -1.0620522E-01;  0.0000000E+00;  6.3509345E-03;  5.6157988E+04;
  1.9265066E-01;  9.9999998E-03; -3.0009824E-01;3605; -1.6650952E-02;  0.0000000E+00;  2.5602104E-03;  9.8418976E+02;  1.0000000E-01; -1.3098494E+04;3; -1.1844698E+01;  0.0000000E+00;  7.0286926E+01;0; -1.5563245E-01;  3.8780816E+04;  0.0000000E+00;  4.9173627E+00;  4.0000000E+04;  0.0000000E+00;  3.9963840E+04; -1.3989574E-01;  0.0000000E+00; -1.5736714E-02;  7.7573008E+03;
  1.9208260E-01;  9.9999998E-03; -2.9003906E-01;3606; -1.6735826E-02;  0.0000000E+00; -5.1836243E-05;  9.9044928E+02;  1.0000000E-01; -7.9125664E+03;3;  6.4875684E+00;  0.0000000E+00;  1.0110913E+01;0; -1.2427379E-01;  3.9232074E+04;  0.0000000E+00;  2.2429146E+01;  4.0000000E+04;  0.0000000E+00;  4.0005961E+04; -1.2222216E-01;  0.0000000E+00; -2.0516349E-03;  3.4788246E+04;
  1.9179398E-01;  9.9999998E-03; -2.7999392E-01;3607; -1.7828995E-02;  0.0000000E+00; -1.0549405E-03;  9.9432837E+02;  1.0000000E-01; -4.6988301E+03;3;  7.1739588E+00;  0.0000000E+00; -3.3311031E+01;0; -1.0524606E-01;  3.9506391E+04;  0.0000000E+00;  2.3703499E+01;  4.0000000E+04;  0.0000000E+00;  4.0041488E+04; -1.0926960E-01;  0.0000000E+00;  4.0235431E-03;  3.7380254E+04;
  2.0294775E-01;  9.9999998E-03; -2.9993165E-01;3666; -2.1570938E-02;  0.0000000E+00;  3.1995908E-03;  9.8402789E+02;  1.0000000E-01; -1.3232564E+04;3; -2.5339779E+01;  0.0000000E+00; -5.7108045E+00;0; -1.8627828E-01;  3.8679738E+04;  0.0000000E+00; -2.0190483E+01;  4.0000000E+04;  0.0000000E+00;  4.0055562E+04; -1.6235846E-01;  0.0000000E+00; -2.3919817E-02;  3.2638791E+04;
  2.0233734E-01;  9.9999998E-03; -2.9004568E-01;3667; -1.8896513E-02;  0.0000000E+00;  1.0687291E-03;  9.9019885E+02;  1.0000000E-01; -8.1200664E+03;3; -1.7930279E+01;  0.0000000E+00; -1.4409040E+00;0; -1.3595527E-01;  3.9203758E+04;  0.0000000E+00; -1.1866435E+00;  4.0000000E+04;  0.0000000E+00;  4.0014086E+04; -1.2671775E-01;  0.0000000E+00; -9.2375297E-03;  2.7845710E+03;
  2.0179977E-01;  9.9999998E-03; -2.8007221E-01;3668; -1.8599426E-02;  0.0000000E+00; -4.8315478E-04;  9.9484998E+02;  1.0000000E-01; -4.2666943E+03;3; -9.6339130E+00;  0.0000000E+00; -2.3386574E+01;0; -1.0566689E-01;  3.9570547E+04;  0.0000000E+00;  1.1916753E+01;  4.0000000E+04;  0.0000000E+00;  4.0017836E+04; -1.0685229E-01;  0.0000000E+00;  1.1853988E-03;  2.0122574E+04;
  2.1276173E-01;  9.9999998E-03; -2.9986078E-01;3727; -2.4422443E-02;  0.0000000E+00;  1.3793594E-03;  9.8706488E+02;  1.0000000E-01; -1.0716487E+04;3; -4.6321083E+01;  0.0000000E+00; -7.0846008E+01;0; -1.8261966E-01;  3.8852152E+04;  0.0000000E+00; -3.1346531E+01;  4.0000000E+04;  0.0000000E+00;  4.0121379E+04; -1.6620125E-01;  0.0000000E+00; -1.6418412E-02;  5.1830348E+04;
  2.1225241E-01;  9.9999998E-03; -2.8999820E-01;3728; -2.0342501E-02;  0.0000000E+00;  3.3926999E-04;  9.9213660E+02;  1.0000000E-01; -6.5146802E+03;3; -3.5624245E+01;  0.0000000E+00; -3.3758457E+01;0; -1.2893184E-01;  3.9324812E+04;  0.0000000E+00; -1.3086376E+01;  4.0000000E+04;  0.0000000E+00;  4.0045961E+04; -1.2192511E-01;  0.0000000E+00; -7.0067318E-03;  1.9653814E+04;
  2.1172868E-01;  9.9999998E-03; -2.8006431E-01;3729; -1.9182395E-02;  0.0000000E+00; -9.7572012E-04;  9.9619434E+02;  1.0000000E-01; -3.1528984E+03;3; -2.4643064E+01;  0.0000000E+00; -3.0351210E+01;0; -9.5143743E-02;  3.9676660E+04;  0.0000000E+00;  3.2289240E+00;  4.0000000E+04;  0.0000000E+00;  4.0018887E+04; -9.8465174E-02;  0.0000000E+00;  3.3214325E-03;  7.5110552E+03;
  2.2252744E-01;  9.9999998E-03; -2.9989061E-01;3788; -2.6224442E-02;  0.0000000E+00; -1.0779658E-03;  9.9027594E+02;  1.0000000E-01; -8.0562168E+03;3; -7.5770508E+01;  0.0000000E+00; -8.6954262E+01;0; -1.5427442E-01;  3.9100543E+04;  0.0000000E+00; -3.9784767E+01;  4.0000000E+04;  0.0000000E+00;  4.0124879E+04; -1.5615076E-01;  0.0000000E+00;  1.8763421E-03;  6.3323555E+04;
  2.2211984E-01;  9.9999998E-03; -2.9000336E-01;3789; -2.1274822E-02;  0.0000000E+00; -5.5454992E-04;  9.9427533E+02;  1.0000000E-01; -4.7427793E+03;3; -5.3936768E+01;  0.0000000E+00; -4.2859989E+01;0; -1.1037939E-01;  3.9492383E+04;  0.0000000E+00; -2.1966484E+01;  4.0000000E+04;  0.0000000E+00;  4.0049039E+04; -1.0883017E-01;  0.0000000E+00; -1.5492244E-03;  3.2369744E+04;
  2.2167115E-01;  9.9999998E-03; -2.8006750E-01;3790; -1.9729296E-02;  0.0000000E+00; -1.5111298E-03;  9.9754974E+02;  1.0000000E-01; -2.0299673E+03;3; -3.8622368E+01;  0.0000000E+00; -3.0858120E+01;0; -7.7952728E-02;  3.9792223E+04;  0.0000000E+00; -4.9758320E+00;  4.0000000E+04;  0.0000000E+00;  4.0012688E+04; -8.4826171E-02;  0.0000000E+00;  6.8734423E-03;  5.5727173E+03;
  2.3227830E-01;  9.9999998E-03; -2.9995614E-01;3849; -2.6381729E-02;  0.0000000E+00; -2.1534758E-03;  9.9321216E+02;  1.0000000E-01; -5.6235938E+03;3; -9.1121567E+01;  0.0000000E+00; -6.5714134E+01;0; -1.1794268E-01;  3.9372039E+04;  0.0000000E+00; -4.2105350E+01;  4.0000000E+04;  0.0000000E+00;  4.0085867E+04; -1.3135532E-01;  0.0000000E+00;  1.3412639E-02;  6.4137996E+04;
  2.3195347E-01;  9.9999998E-03; -2.9003021E-01;3850; -2.1744492E-02;  0.0000000E+00; -8.6242333E-04;  9.9635077E+02;  1.0000000E-01; -3.0233218E+03;3; -6.4384155E+01;  0.0000000E+00; -3.4268803E+01;0; -8.8060021E-02;  3.9679523E+04;  0.0000000E+00; -2.5660614E+01;  4.0000000E+04;  0.0000000E+00;  4.0028672E+04; -8.8834867E-02;  0.0000000E+00;  7.7484525E-04;  3.6871922E+04;
  2.3158781E-01;  9.9999998E-03; -2.8007776E-01;3851; -2.0247158E-02;  0.0000000E+00; -1.4406632E-03;  9.9886212E+02;  1.0000000E-01; -9.4268933E+02;3; -4.6577999E+01;  0.0000000E+00; -2.4492603E+01;0; -6.0186323E-02;  3.9914711E+04;  0.0000000E+00; -1.0177650E+01;  4.0000000E+04;  0.0000000E+00;  3.9997586E+04; -6.6748954E-02;  0.0000000E+00;  6.5626330E-03;  1.2937452E+04;
  2.4202169E-01;  9.9999998E-03; -3.0000713E-01;3910; -2.5110509E-02;  0.0000000E+00; -1.9743866E-03;  9.9591656E+02;  1.0000000E-01; -3.3830645E+03;3; -8.8136520E+01;  0.0000000E+00; -3.7177181E+01;0; -8.3294019E-02;  3.9631332E+04;  0.0000000E+00; -3.7069637E+01;  4.0000000E+04;  0.0000000E+00;  4.0042770E+04; -9.6667618E-02;  0.0000000E+00;  1.3373602E-02;  5.4573414E+04;
  2.4175234E-01;  9.9999998E-03; -2.9005194E-01;3911; -2.1581786E-02;  0.0000000E+00; -8.4577315E-04;  9.9831573E+02;  1.0000000E-01; -1.3953678E+03;3; -6.4401810E+01;  0.0000000E+00; -2.1273991E+01;0; -6.2767118E-02;  3.9863555E+04;  0.0000000E+00; -2.3088291E+01;  4.0000000E+04;  0.0000000E+00;  4.0004434E+04; -6.3205115E-02;  0.0000000E+00;  4.3799914E-04;  3.2412307E+04;
  2.4147017E-01;  9.9999998E-03; -2.8008181E-01;3912; -2.0611556E-02;  0.0000000E+00; -1.1212921E-03;  1.0001217E+03;  1.0000000E-01;  1.0083665E+02;3; -4.7507820E+01;  0.0000000E+00; -1.7440754E+01;0; -4.1357130E-02;  4.0032367E+04;  0.0000000E+00; -1.1344349E+01;  4.0000000E+04;  0.0000000E+00;  3.9983148E+04; -4.4956487E-02;  0.0000000E+00;  3.5993564E-03;  1.4822417E+04;
  2.5175896E-01;  9.9999998E-03; -3.0003816E-01;3971; -2.2922367E-02;  0.0000000E+00; -1.2817158E-03;  9.9831311E+02;  1.0000000E-01; -1.3975406E+03;3; -7.5278694E+01;  0.0000000E+00; -1.5826408E+01;0; -5.1796008E-02;  3.9857590E+04;  0.0000000E+00; -2.7064293E+01;  4.0000000E+04;  0.0000000E+00;  4.0010152E+04; -5.7976294E-02;  0.0000000E+00;  6.1802864E-03;  3.8671840E+04;
  2.5153396E-01;  9.9999998E-03; -2.9006448E-01;3972; -2.1032207E-02;  0.0000000E+00; -7.5696001E-04;  1.0000300E+03;  1.0000000E-01;  2.4789421E+01;3; -5.7853470E+01;  0.0000000E+00; -1.1250764E+01;0; -3.5291947E-02;  4.0022762E+04;  0.0000000E+00; -1.6626186E+01;  4.0000000E+04;  0.0000000E+00;  3.9985461E+04; -3.4622617E-02;  0.0000000E+00; -6.6933152E-04;  2.2802643E+04;
  2.5133559E-01;  9.9999998E-03; -2.8008026E-01;3973; -2.0843420E-02;  0.0000000E+00; -8.8667439E-04;  1.0011971E+03;  1.0000000E-01;  9.9177435E+02;3; -4.3542469E+01;  0.0000000E+00; -1.2179671E+01;0; -1.9745203E-02;  4.0131324E+04;  0.0000000E+00; -9.8019552E+00;  4.0000000E+04;  0.0000000E+00;  3.9973445E+04; -2.0604135E-02;  0.0000000E+00;  8.5893192E-04;  1.3010887E+04;
  2.6149714E-01;  9.9999998E-03; -3.0005667E-01;4032; -2.0818999E-02;  0.0000000E+00; -7.5240014E-04;  1.0002478E+03;  1.0000000E-01;  2.0532751E+02;3; -6.1104881E+01;  0.0000000E+00; -4.5451875E+00;0; -2.1048216E-02;  4.0038715E+04;  0.0000000E+00; -1.5987612E+01;  4.0000000E+04;  0.0000000E+00;  3.9987895E+04; -2.0987090E-02;  0.0000000E+00; -6.1126892E-05;  2.2092619E+04;
  2.6133218E-01;  9.9999998E-03; -2.9006946E-01;4033; -2.0652300E-02;  0.0000000E+00; -6.6064257E-04;  1.0013411E+03;  1.0000000E-01;  1.1110796E+03;3; -4.8616749E+01;  0.0000000E+00; -6.2365971E+00;0; -7.5669428E-03;  4.0142656E+04;  0.0000000E+00; -1.0343953E+01;  4.0000000E+04;  0.0000000E+00;  3.9974129E+04; -5.7815127E-03;  0.0000000E+00; -1.7854304E-03;  1.3991325E+04;
  2.6121831E-01;  9.9999998E-03; -2.8007594E-01;4034; -2.1099880E-02;  0.0000000E+00; -7.2328647E-04;  1.0019717E+03;  1.0000000E-01;  1.6335339E+03;3; -3.6851894E+01;  0.0000000E+00; -8.8861685E+00;0;  3.7173184E-03;  4.0201254E+04;  0.0000000E+00; -8.0459108E+00;  4.0000000E+04;  0.0000000E+00;  3.9968625E+04;  5.0430782E-03;  0.0000000E+00; -1.3257598E-03;  1.0992908E+04;
  2.7126944E-01;  9.9999998E-03; -3.0006623E-01;4093; -1.9750753E-02;  0.0000000E+00; -6.0420326E-04;  1.0016153E+03;  1.0000000E-01;  1.3382336E+03;3; -4.8319675E+01;  0.0000000E+00; -1.2893543E+00;0;  1.0359905E-02;  4.0165176E+04;  0.0000000E+00; -8.2528181E+00;  4.0000000E+04;  0.0000000E+00;  3.9975219E+04;  1.1531502E-02;  0.0000000E+00; -1.1715974E-03;  1.1186022E+04;
  2.7117726E-01;  9.9999998E-03; -2.9007044E-01;4094; -2.0676188E-02;  0.0000000E+00; -5.5958214E-04;  1.0021831E+03;  1.0000000E-01;  1.8086400E+03;3; -3.8514587E+01;  0.0000000E+00; -4.3999925E+00;0;  1.9542936E-02;  4.0218750E+04;  0.0000000E+00; -6.7999997E+00;  4.0000000E+04;  0.0000000E+00;  3.9969121E+04;  2.2244681E-02;  0.0000000E+00; -2.7017437E-03;  9.4930527E+03;
  2.7112103E-01;  9.9999998E-03; -2.8007212E-01;4095; -2.1327902E-02;  0.0000000E+00; -6.1104208E-04;  1.0024277E+03;  1.0000000E-01;  2.0113010E+03;3; -2.8903028E+01;  0.0000000E+00; -6.5619211E+00;0;  2.8281454E-02;  4.0241969E+04;  0.0000000E+00; -6.5488734E+00;  4.0000000E+04;  0.0000000E+00;  3.9966984E+04;  3.1045698E-02;  0.0000000E+00; -2.7642441E-03;  9.3780078E+03;
  2.8112367E-01;  9.9999998E-03; -3.0007017E-01;4154; -1.9826822E-02;  0.0000000E+00; -4.4768484E-04;  1.0023876E+03;  1.0000000E-01;  1.9781167E+03;3; -3.6332455E+01;  0.0000000E+00; -1.3086103E+00;0;  3.8112517E-02;  4.0236109E+04;  0.0000000E+00; -6.0286183E+00;  4.0000000E+04;  0.0000000E+00;  3.9970633E+04;  4.0194198E-02;  0.0000000E+00; -2.0816815E-03;  8.5171729E+03;
  2.8107342E-01;  9.9999998E-03; -2.9007068E-01;4155; -2.0890895E-02;  0.0000000E+00; -4.4667791E-04;  1.0025976E+03;  1.0000000E-01;  2.1520378E+03;3; -2.8335505E+01;  0.0000000E+00; -3.4286606E+00;0;  4.5659512E-02;  4.0256031E+04;  0.0000000E+00; -5.5170631E+00;  4.0000000E+04;  0.0000000E+00;  3.9967820E+04;  4.9012743E-02;  0.0000000E+00; -3.3532297E-03;  8.1685859E+03;
  2.8102276E-01;  9.9999998E-03; -2.8007016E-01;4156; -2.1409685E-02;  0.0000000E+00; -4.9552519E-04;  1.0026064E+03;  1.0000000E-01;  2.1593462E+03;3; -2.0854618E+01;  0.0000000E+00; -4.6049161E+00;0;  5.2295346E-02;  4.0257707E+04;  0.0000000E+00; -4.7965727E+00;  4.0000000E+04;  0.0000000E+00;  3.9966887E+04;  5.6140229E-02;  0.0000000E+00; -3.8448817E-03;  7.4988198E+03;
  2.9106101E-01;  9.9999998E-03; -3.0007258E-01;4215; -2.0249028E-02;  0.0000000E+00; -2.6179690E-04;  1.0026738E+03;  1.0000000E-01;  2.2152458E+03;3; -2.5057407E+01;  0.0000000E+00; -1.3351859E+00;0;  6.2987968E-02;  4.0262863E+04;  0.0000000E+00; -6.5380330E+00;  4.0000000E+04;  0.0000000E+00;  3.9969734E+04;  6.5986373E-02;  0.0000000E+00; -2.9984065E-03;  9.4359707E+03;
  2.9099473E-01;  9.9999998E-03; -2.9007155E-01;4216; -2.0902548E-02;  0.0000000E+00; -2.9678212E-04;  1.0026882E+03;  1.0000000E-01;  2.2270974E+03;3; -1.8964624E+01;  0.0000000E+00; -2.3775616E+00;0;  6.9299832E-02;  4.0264348E+04;  0.0000000E+00; -4.6730037E+00;  4.0000000E+04;  0.0000000E+00;  3.9968277E+04;  7.3309153E-02;  0.0000000E+00; -4.0093237E-03;  7.3577607E+03;
  2.9092035E-01;  9.9999998E-03; -2.8006980E-01;4217; -2.1288099E-02;  0.0000000E+00; -3.5046411E-04;  1.0025515E+03;  1.0000000E-01;  2.1139153E+03;3; -1.3648090E+01;  0.0000000E+00; -2.9147415E+00;0;  7.3826596E-02;  4.0252355E+04;  0.0000000E+00; -3.1454439E+00;  4.0000000E+04;  0.0000000E+00;  3.9968160E+04;  7.8591898E-02;  0.0000000E+00; -4.7652982E-03;  5.8011162E+03;
  3.0101618E-01;  9.9999998E-03; -3.0007493E-01;4276; -1.9779436E-02;  0.0000000E+00; -1.4047110E-06;  1.0026683E+03;  1.0000000E-01;  2.2106040E+03;3; -1.5143610E+01;  0.0000000E+00; -7.0626009E-01;0;  8.3190955E-02;  4.0262809E+04;  0.0000000E+00; -6.0255523E+00;  4.0000000E+04;  0.0000000E+00;  3.9970227E+04;  8.7807424E-02;  0.0000000E+00; -4.6164701E-03;  8.9874902E+03;
  3.0092189E-01;  9.9999998E-03; -2.9007295E-01;4277; -2.0384839E-02;  0.0000000E+00; -7.4142947E-05;  1.0025530E+03;  1.0000000E-01;  2.1151006E+03;3; -1.1146693E+01;  0.0000000E+00; -1.2332768E+00;0;  8.7769911E-02;  4.0251676E+04;  0.0000000E+00; -3.6147175E+00;  4.0000000E+04;  0.0000000E+00;  3.9970102E+04;  9.2955746E-02;  0.0000000E+00; -5.1858341E-03;  6.2007065E+03;
  3.0083239E-01;  9.9999998E-03; -2.8007066E-01;4278; -2.0817582E-02;  0.0000000E+00; -1.5411738E-04;  1.0023222E+03;  1.0000000E-01;  1.9238961E+03;3; -7.7941213E+00;  0.0000000E+00; -1.4707466E+00;0;  9.0679303E-02;  4.0230965E+04;  0.0000000E+00; -2.0577254E+00;  4.0000000E+04;  0.0000000E+00;  3.9970641E+04;  9.6420966E-02;  0.0000000E+00; -5.7416651E-03;  4.6907871E+03;
  3.1097254E-01;  9.9999998E-03; -3.0007696E-01;4337; -1.3860905E-02;  0.0000000E+00;  4.3131239E-04;  1.0024662E+03;  1.0000000E-01;  2.0432013E+03;3; -5.6704121E+00;  0.0000000E+00;  4.1040769E-01;0;  9.5855094E-02;  4.0243637E+04;  0.0000000E+00; -4.6117787E+00;  4.0000000E+04;  0.0000000E+00;  3.9972340E+04;  1.0448273E-01;  0.0000000E+00; -8.6276401E-03;  7.2737319E+03;
  3.1087825E-01;  9.9999998E-03; -2.9007447E-01;4338; -1.5641414E-02;  0.0000000E+00;  3.5083413E-04;  1.0022632E+03;  1.0000000E-01;  1.8750085E+03;3; -3.7836194E+00;  0.0000000E+00;  8.2647890E-02;0;  9.7767733E-02;  4.0224395E+04;  0.0000000E+00; -2.7497542E+00;  4.0000000E+04;  0.0000000E+00;  3.9973305E+04;  1.0672674E-01;  0.0000000E+00; -8.9590084E-03;  5.1302949E+03;
  3.1079227E-01;  9.9999998E-03; -2.8007224E-01;4339; -1.7010067E-02;  0.0000000E+00;  2.7095975E-04;  1.0019911E+03;  1.0000000E-01;  1.6496322E+03;3; -2.2275088E+00;  0.0000000E+00; -7.1816787E-02;0;  9.9026911E-02;  4.0199785E+04;  0.0000000E+00; -1.5337751E+00;  4.0000000E+04;  0.0000000E+00;  3.9974230E+04;  1.0825422E-01;  0.0000000E+00; -9.2273029E-03;  3.9716809E+03;
  3.2080966E-01;  9.9999998E-03; -2.8007478E-01;4400; -7.5208531E-03;  0.0000000E+00;  7.4903917E-04;  1.0016398E+03;  1.0000000E-01;  1.3585787E+03;3;  1.9719486E+00;  0.0000000E+00;  9.6094656E-01;0;  9.9075936E-02;  4.0166723E+04;  0.0000000E+00; -1.1382453E+00;  4.0000000E+04;  0.0000000E+00;  3.9977535E+04;  1.1194390E-01;  0.0000000E+00; -1.2867965E-02;  3.3517341E+03;
  3.2087770E-01;  9.9999998E-03; -2.9007661E-01;4399; -7.1880845E-03;  0.0000000E+00;  8.6313114E-04;  1.0019012E+03;  1.0000000E-01;  1.5750664E+03;3;  1.0842646E+00;  0.0000000E+00;  9.5939451E-01;0;  9.7497486E-02;  4.0190691E+04;  0.0000000E+00; -1.9823645E+00;  4.0000000E+04;  0.0000000E+00;  3.9976348E+04;  1.1118227E-01;  0.0000000E+00; -1.3684789E-02;  4.1476099E+03;
  3.2094756E-01;  9.9999998E-03; -3.0007917E-01;4398; -6.8329982E-03;  0.0000000E+00;  9.6879510E-04;  1.0021331E+03;  1.0000000E-01;  1.7672585E+03;3; -4.6844475E-02;  0.0000000E+00;  1.0252997E+00;0;  9.5800534E-02;  4.0212762E+04;  0.0000000E+00; -3.1254380E+00;  4.0000000E+04;  0.0000000E+00;  3.9974883E+04;  1.0993399E-01;  0.0000000E+00; -1.4133457E-02;  5.4546011E+03;
  3.3091778E-01;  9.9999998E-03; -3.0008116E-01;4459; -6.1163837E-03;  0.0000000E+00;  1.2638130E-03;  1.0017590E+03;  1.0000000E-01;  1.4572427E+03;3;  1.7940843E+00;  0.0000000E+00;  1.2797660E+00;0;  8.9150243E-02;  4.0177750E+04;  0.0000000E+00; -1.7915632E+00;  4.0000000E+04;  0.0000000E+00;  3.9977336E+04;  1.0433982E-01;  0.0000000E+00; -1.5189580E-02;  3.8954546E+03;
  3.3087254E-01;  9.9999998E-03; -2.9007882E-01;4460; -6.5113413E-03;  0.0000000E+00;  1.2134061E-03;  1.0015512E+03;  1.0000000E-01;  1.2850994E+03;3;  2.3324063E+00;  0.0000000E+00;  1.2847151E+00;0;  8.9831464E-02;  4.0157445E+04;  0.0000000E+00; -1.1456643E+00;  4.0000000E+04;  0.0000000E+00;  3.9979359E+04;  1.0527351E-01;  0.0000000E+00; -1.5442044E-02;  3.1527188E+03;
  3.3083150E-01;  9.9999998E-03; -2.8007737E-01;4461; -6.8280944E-03;  0.0000000E+00;  1.1669052E-03;  1.0013347E+03;  1.0000000E-01;  1.1057465E+03;3;  2.7555554E+00;  0.0000000E+00;  1.3006836E+00;0;  9.0853073E-02;  4.0137176E+04;  0.0000000E+00; -6.1286467E-01;  4.0000000E+04;  0.0000000E+00;  3.9980637E+04;  1.0610511E-01;  0.0000000E+00; -1.5252040E-02;  2.6721589E+03;
  3.4087178E-01;  9.9999998E-03; -3.0008224E-01;4520; -5.8875289E-03;  0.0000000E+00;  1.4505930E-03;  1.0014038E+03;  1.0000000E-01;  1.1630288E+03;3;  2.6399686E+00;  0.0000000E+00;  1.3582833E+00;0;  7.8150943E-02;  4.0143230E+04;  0.0000000E+00; -8.7703383E-01;  4.0000000E+04;  0.0000000E+00;  3.9980574E+04;  9.2474878E-02;  0.0000000E+00; -1.4323938E-02;  2.8436035E+03;
  3.4085527E-01;  9.9999998E-03; -2.9008028E-01;4521; -6.3730520E-03;  0.0000000E+00;  1.4231345E-03;  1.0012512E+03;  1.0000000E-01;  1.0365138E+03;3;  2.8932035E+00;  0.0000000E+00;  1.3745620E+00;0;  7.8665428E-02;  4.0127395E+04;  0.0000000E+00; -5.1302993E-01;  4.0000000E+04;  0.0000000E+00;  3.9982719E+04;  9.3439668E-02;  0.0000000E+00; -1.4774243E-02;  2.3866079E+03;
  3.4085685E-01;  9.9999998E-03; -2.8007928E-01;4522; -6.7419163E-03;  0.0000000E+00;  1.4251028E-03;  1.0010947E+03;  1.0000000E-01;  9.0693726E+02;3;  3.1051466E+00;  0.0000000E+00;  1.4023420E+00;0;  7.9450637E-02;  4.0112516E+04;  0.0000000E+00; -1.8607144E-01;  4.0000000E+04;  0.0000000E+00;  3.9984238E+04;  9.4549671E-02;  0.0000000E+00; -1.5099034E-02;  2.0936213E+03;
  3.5080698E-01;  9.9999998E-03; -3.0008233E-01;4581; -5.9571126E-03;  0.0000000E+00;  1.5759886E-03;  1.0010807E+03;  1.0000000E-01;  8.9528326E+02;3;  2.9226420E+00;  0.0000000E+00;  1.3245828E+00;0;  6.4191610E-02;  4.0111312E+04;  0.0000000E+00; -4.0780821E-01;  4.0000000E+04;  0.0000000E+00;  3.9983957E+04;  7.6724097E-02;  0.0000000E+00; -1.2532487E-02;  2.1847175E+03;
  3.5082805E-01;  9.9999998E-03; -2.9008088E-01;4582; -6.4770053E-03;  0.0000000E+00;  1.5576334E-03;  1.0009924E+03;  1.0000000E-01;  8.2219891E+02;3;  3.0578277E+00;  0.0000000E+00;  1.3467293E+00;0;  6.4979024E-02;  4.0100965E+04;  0.0000000E+00; -1.7843971E-01;  4.0000000E+04;  0.0000000E+00;  3.9986113E+04;  7.7917956E-02;  0.0000000E+00; -1.2938933E-02;  1.8540215E+03;
  3.5087296E-01;  9.9999998E-03; -2.8008044E-01;4583; -6.8493667E-03;  0.0000000E+00;  1.5695809E-03;  1.0009073E+03;  1.0000000E-01;  7.5168237E+02;3;  3.1836333E+00;  0.0000000E+00;  1.3843546E+00;0;  6.6107281E-02;  4.0092066E+04;  0.0000000E+00;  3.2677848E-02;  4.0000000E+04;  0.0000000E+00;  3.9987574E+04;  7.9391971E-02;  0.0000000E+00; -1.3284693E-02;  1.6616445E+03;
  3.6074087E-01;  9.9999998E-03; -3.0008134E-01;4642; -6.2422142E-03;  0.0000000E+00;  1.6060852E-03;  1.0007914E+03;  1.0000000E-01;  6.5568512E+02;3;  2.9487581E+00;  0.0000000E+00;  1.2444425E+00;0;  4.9936078E-02;  4.0081965E+04;  0.0000000E+00; -2.4007499E-01;  4.0000000E+04;  0.0000000E+00;  3.9987266E+04;  5.9312426E-02;  0.0000000E+00; -9.3763471E-03;  1.6917928E+03;
  3.6079872E-01;  9.9999998E-03; -2.9008043E-01;4643; -6.7254058E-03;  0.0000000E+00;  1.5802477E-03;  1.0007639E+03;  1.0000000E-01;  6.3287097E+02;3;  3.0753639E+00;  0.0000000E+00;  1.2512168E+00;0;  5.1264636E-02;  4.0077336E+04;  0.0000000E+00; -7.6111034E-02;  4.0000000E+04;  0.0000000E+00;  3.9989352E+04;  6.0791999E-02;  0.0000000E+00; -9.5273620E-03;  1.4294822E+03;
  3.6086699E-01;  9.9999998E-03; -2.8008041E-01;4644; -7.0707649E-03;  0.0000000E+00;  1.6078523E-03;  1.0007446E+03;  1.0000000E-01;  6.1687140E+02;3;  3.1867366E+00;  0.0000000E+00;  1.2635829E+00;0;  5.2473381E-02;  4.0073914E+04;  0.0000000E+00;  7.3062696E-02;  4.0000000E+04;  0.0000000E+00;  3.9990219E+04;  6.2631749E-02;  0.0000000E+00; -1.0158367E-02;  1.2815583E+03;
  3.7068802E-01;  9.9999998E-03; -3.0007911E-01;4703; -6.6793687E-03;  0.0000000E+00;  1.5745860E-03;  1.0005220E+03;  1.0000000E-01;  4.3248157E+02;3;  2.9355402E+00;  0.0000000E+00;  1.1295291E+00;0;  3.6520075E-02;  4.0054844E+04;  0.0000000E+00; -2.0649719E-01;  4.0000000E+04;  0.0000000E+00;  3.9990598E+04;  4.2090420E-02;  0.0000000E+00; -5.5703451E-03;  1.2465400E+03;
  3.7076554E-01;  9.9999998E-03; -2.9007873E-01;4704; -7.0830998E-03;  0.0000000E+00;  1.5610249E-03;  1.0005484E+03;  1.0000000E-01;  4.5430811E+02;3;  3.0599535E+00;  0.0000000E+00;  1.1233960E+00;0;  3.7981033E-02;  4.0054891E+04;  0.0000000E+00; -8.1140347E-02;  4.0000000E+04;  0.0000000E+00;  3.9992074E+04;  4.3826673E-02;  0.0000000E+00; -5.8456403E-03;  1.0490282E+03;
  3.7084094E-01;  9.9999998E-03; -2.8007898E-01;4705; -7.3775123E-03;  0.0000000E+00;  1.6145133E-03;  1.0005816E+03;  1.0000000E-01;  4.8186288E+02;3;  3.1634612E+00;  0.0000000E+00;  1.1421090E+00;0;  3.9003480E-02;  4.0056508E+04;  0.0000000E+00;  3.2927755E-02;  4.0000000E+04;  0.0000000E+00;  3.9993039E+04;  4.5944531E-02;  0.0000000E+00; -6.9410494E-03;  9.2642291E+02;
  3.8065028E-01;  9.9999998E-03; -3.0007577E-01;4764; -7.2008371E-03;  0.0000000E+00;  1.5260078E-03;  1.0002668E+03;  1.0000000E-01;  2.2103076E+02;3;  2.9355021E+00;  0.0000000E+00;  1.0064969E+00;0;  2.4525002E-02;  4.0029238E+04;  0.0000000E+00; -2.0139444E-01;  4.0000000E+04;  0.0000000E+00;  3.9993867E+04;  2.6471768E-02;  0.0000000E+00; -1.9467652E-03;  8.4214838E+02;
  3.8073182E-01;  9.9999998E-03; -2.9007575E-01;4765; -7.5090621E-03;  0.0000000E+00;  1.5485376E-03;  1.0003294E+03;  1.0000000E-01;  2.7288116E+02;3;  3.0448785E+00;  0.0000000E+00;  1.0046176E+00;0;  2.5603099E-02;  4.0033133E+04;  0.0000000E+00; -1.0682043E-01;  4.0000000E+04;  0.0000000E+00;  3.9994730E+04;  2.8365502E-02;  0.0000000E+00; -2.7624033E-03;  7.0046375E+02;
  3.8080338E-01;  9.9999998E-03; -2.8007612E-01;4766; -7.7415854E-03;  0.0000000E+00;  1.6366096E-03;  1.0004065E+03;  1.0000000E-01;  3.3678058E+02;3;  3.1457610E+00;  0.0000000E+00;  1.0181303E+00;0;  2.6194356E-02;  4.0038406E+04;  0.0000000E+00; -2.0835863E-02;  4.0000000E+04;  0.0000000E+00;  3.9995535E+04;  3.0618619E-02;  0.0000000E+00; -4.4242637E-03;  6.0425891E+02;
  3.9063111E-01;  9.9999998E-03; -3.0007160E-01;4825; -7.7689583E-03;  0.0000000E+00;  1.5409252E-03;  1.0000280E+03;  1.0000000E-01;  2.3209219E+01;3;  2.9467328E+00;  0.0000000E+00;  8.8318145E-01;0;  1.3530487E-02;  4.0005754E+04;  0.0000000E+00; -1.9816115E-01;  4.0000000E+04;  0.0000000E+00;  3.9996578E+04;  1.3442870E-02;  0.0000000E+00;  8.7616674E-05;  5.1833063E+02;
  3.9070612E-01;  9.9999998E-03; -2.9007170E-01;4826; -7.9792086E-03;  0.0000000E+00;  1.5813879E-03;  1.0001186E+03;  1.0000000E-01;  9.8268822E+01;3;  3.0425684E+00;  0.0000000E+00;  8.8588524E-01;0;  1.4416149E-02;  4.0012199E+04;  0.0000000E+00; -1.3219197E-01;  4.0000000E+04;  0.0000000E+00;  3.9996992E+04;  1.5355593E-02;  0.0000000E+00; -9.3944330E-04;  4.1579898E+02;
  3.9076653E-01;  9.9999998E-03; -2.8007185E-01;4827; -8.1390021E-03;  0.0000000E+00;  1.6593777E-03;  1.0002231E+03;  1.0000000E-01;  1.8478488E+02;3;  3.1379848E+00;  0.0000000E+00;  8.8998270E-01;0;  1.5143903E-02;  4.0019992E+04;  0.0000000E+00; -7.2633035E-02;  4.0000000E+04;  0.0000000E+00;  3.9997836E+04;  1.7581601E-02;  0.0000000E+00; -2.4376975E-03;  3.2185980E+02;
  4.0064070E-01;  9.9999998E-03; -3.0006689E-01;4886; -8.3680190E-03;  0.0000000E+00;  1.6047722E-03;  9.9982977E+02;  1.0000000E-01; -1.4103304E+02;3;  2.9467688E+00;  0.0000000E+00;  7.9142690E-01;0;  4.4676643E-03;  3.9986836E+04;  0.0000000E+00; -1.9296911E-01;  4.0000000E+04;  0.0000000E+00;  3.9998613E+04;  3.6063544E-03;  0.0000000E+00;  8.6130976E-04;  3.1598892E+02;
  4.0070003E-01;  9.9999998E-03; -2.9006681E-01;4887; -8.4758736E-03;  0.0000000E+00;  1.6390989E-03;  9.9993591E+02;  1.0000000E-01; -5.3084915E+01;3;  3.0403183E+00;  0.0000000E+00;  7.8481609E-01;0;  5.3967680E-03;  3.9994711E+04;  0.0000000E+00; -1.5482377E-01;  4.0000000E+04;  0.0000000E+00;  3.9999027E+04;  5.3852405E-03;  0.0000000E+00;  1.1527431E-05;  2.4761447E+02;
  4.0074316E-01;  9.9999998E-03; -2.8006658E-01;4888; -8.5590268E-03;  0.0000000E+00;  1.6930770E-03;  1.0000551E+03;  1.0000000E-01;  4.5628334E+01;3;  3.1339412E+00;  0.0000000E+00;  7.7866042E-01;0;  6.3296659E-03;  4.0003734E+04;  0.0000000E+00; -1.1808407E-01;  4.0000000E+04;  0.0000000E+00;  3.9999547E+04;  7.4221836E-03;  0.0000000E+00; -1.0925175E-03;  1.7579475E+02;
  4.1067693E-01;  9.9999998E-03; -3.0006206E-01;4947; -8.9703603E-03;  0.0000000E+00;  1.6844914E-03;  9.9970947E+02;  1.0000000E-01; -2.4068454E+02;3;  2.9471681E+00;  0.0000000E+00;  7.0586139E-01;0; -1.7533707E-03;  3.9975156E+04;  0.0000000E+00; -1.7572060E-01;  4.0000000E+04;  0.0000000E+00;  3.9999742E+04; -2.7980860E-03;  0.0000000E+00;  1.0447153E-03;  2.4676053E+02;
  4.1072625E-01;  9.9999998E-03; -2.9006165E-01;4948; -8.9742448E-03;  0.0000000E+00;  1.6978418E-03;  9.9981769E+02;  1.0000000E-01; -1.5105745E+02;3;  3.0378942E+00;  0.0000000E+00;  6.9069463E-01;0; -7.2570902E-04;  3.9983383E+04;  0.0000000E+00; -1.7166118E-01;  4.0000000E+04;  0.0000000E+00;  4.0000164E+04; -1.3076612E-03;  0.0000000E+00;  5.8195216E-04;  2.4233167E+02;
  4.1076025E-01;  9.9999998E-03; -2.8006092E-01;4949; -8.9824097E-03;  0.0000000E+00;  1.7281349E-03;  9.9994000E+02;  1.0000000E-01; -4.9726986E+01;3;  3.1275582E+00;  0.0000000E+00;  6.8684947E-01;0;  2.2967282E-04;  3.9992824E+04;  0.0000000E+00; -1.5856270E-01;  4.0000000E+04;  0.0000000E+00;  4.0000543E+04;  3.8613979E-04;  0.0000000E+00; -1.5646697E-04;  2.3551384E+02;
  4.2073303E-01;  9.9999998E-03; -3.0005759E-01;5008; -9.5471889E-03;  0.0000000E+00;  1.7577244E-03;  9.9970172E+02;  1.0000000E-01; -2.4710411E+02;3;  2.9560220E+00;  0.0000000E+00;  6.2148076E-01;0; -4.7173910E-03;  3.9974188E+04;  0.0000000E+00; -1.2021541E-01;  4.0000000E+04;  0.0000000E+00;  3.9999543E+04; -5.9004850E-03;  0.0000000E+00;  1.1830940E-03;  1.6885435E+02;
  4.2078358E-01;  9.9999998E-03; -2.9005677E-01;5009; -9.4507998E-03;  0.0000000E+00;  1.7527469E-03;  9.9980206E+02;  1.0000000E-01; -1.6399535E+02;3;  3.0396862E+00;  0.0000000E+00;  6.0900211E-01;0; -3.8050788E-03;  3.9982066E+04;  0.0000000E+00; -1.6173910E-01;  4.0000000E+04;  0.0000000E+00;  3.9999941E+04; -4.8161387E-03;  0.0000000E+00;  1.0110599E-03;  2.2697203E+02;
  4.2081681E-01;  9.9999998E-03; -2.8005552E-01;5010; -9.3876794E-03;  0.0000000E+00;  1.7477763E-03;  9.9991962E+02;  1.0000000E-01; -6.6615395E+01;3;  3.1286175E+00;  0.0000000E+00;  6.0036916E-01;0; -2.8242308E-03;  3.9990902E+04;  0.0000000E+00; -1.8108110E-01;  4.0000000E+04;  0.0000000E+00;  4.0000176E+04; -3.5772659E-03;  0.0000000E+00;  7.5303507E-04;  2.5916931E+02;
  4.3080920E-01;  9.9999998E-03; -3.0005398E-01;5069; -1.0095268E-02;  0.0000000E+00;  1.8124885E-03;  9.9982806E+02;  1.0000000E-01; -1.4246510E+02;3;  2.9752018E+00;  0.0000000E+00;  5.4447681E-01;0; -4.4836672E-03;  3.9985793E+04;  0.0000000E+00; -2.1467011E-02;  4.0000000E+04;  0.0000000E+00;  3.9997730E+04; -6.1677159E-03;  0.0000000E+00;  1.6840488E-03;  2.4679523E+02;
  4.3085924E-01;  9.9999998E-03; -2.9005274E-01;5070; -9.8918853E-03;  0.0000000E+00;  1.7898808E-03;  9.9991913E+02;  1.0000000E-01; -6.7010445E+01;3;  3.0550165E+00;  0.0000000E+00;  5.2745289E-01;0; -3.8323377E-03;  3.9992871E+04;  0.0000000E+00; -1.1382051E-01;  4.0000000E+04;  0.0000000E+00;  3.9998219E+04; -5.5532819E-03;  0.0000000E+00;  1.7209442E-03;  2.7647253E+02;
  4.3089157E-01;  9.9999998E-03; -2.8005102E-01;5071; -9.7577926E-03;  0.0000000E+00;  1.7575265E-03;  1.0000197E+03;  1.0000000E-01;  1.6295834E+01;3;  3.1389008E+00;  0.0000000E+00;  5.1339722E-01;0; -3.0880554E-03;  4.0000691E+04;  0.0000000E+00; -1.7027669E-01;  4.0000000E+04;  0.0000000E+00;  3.9998496E+04; -4.8300321E-03;  0.0000000E+00;  1.7419767E-03;  3.0451279E+02;
  4.4090658E-01;  9.9999998E-03; -3.0005160E-01;5130; -1.0594316E-02;  0.0000000E+00;  1.8504234E-03;  1.0000904E+03;  1.0000000E-01;  7.4862076E+01;3;  2.9958994E+00;  0.0000000E+00;  4.6296865E-01;0; -1.6065806E-03;  4.0010586E+04;  0.0000000E+00;  9.3162239E-02;  4.0000000E+04;  0.0000000E+00;  3.9994559E+04; -4.3394146E-03;  0.0000000E+00;  2.7328341E-03;  7.1778217E+02;
  4.4095081E-01;  9.9999998E-03; -2.9004988E-01;5131; -1.0279296E-02;  0.0000000E+00;  1.8126860E-03;  1.0001653E+03;  1.0000000E-01;  1.3688501E+02;3;  3.0696926E+00;  0.0000000E+00;  4.3802640E-01;0; -1.3309517E-03;  4.0016332E+04;  0.0000000E+00; -4.2654902E-02;  4.0000000E+04;  0.0000000E+00;  3.9994641E+04; -4.2088488E-03;  0.0000000E+00;  2.8778971E-03;  6.8093488E+02;
  4.4097790E-01;  9.9999998E-03; -2.8004783E-01;5132; -1.0080311E-02;  0.0000000E+00;  1.7545678E-03;  1.0002510E+03;  1.0000000E-01;  2.0799409E+02;3;  3.1491995E+00;  0.0000000E+00;  4.2169213E-01;0; -9.4437902E-04;  4.0022910E+04;  0.0000000E+00; -1.3240945E-01;  4.0000000E+04;  0.0000000E+00;  3.9994914E+04; -4.0139165E-03;  0.0000000E+00;  3.0695375E-03;  6.7929602E+02;
  4.5102334E-01;  9.9999998E-03; -3.0005047E-01;5191; -1.0955713E-02;  0.0000000E+00;  1.9254654E-03;  1.0004650E+03;  1.0000000E-01;  3.8517426E+02;3;  3.0253801E+00;  0.0000000E+00;  4.0195939E-01;0;  2.2642754E-03;  4.0045965E+04;  0.0000000E+00;  1.9790348E-01;  4.0000000E+04;  0.0000000E+00;  3.9989223E+04; -1.3629808E-03;  0.0000000E+00;  3.6272563E-03;  1.3961407E+03;
  4.5105740E-01;  9.9999998E-03; -2.9004833E-01;5192; -1.0571096E-02;  0.0000000E+00;  1.8473567E-03;  1.0005234E+03;  1.0000000E-01;  4.3366672E+02;3;  3.0872080E+00;  0.0000000E+00;  3.6870822E-01;0;  2.6216456E-03;  4.0050301E+04;  0.0000000E+00;  3.3770304E-02;  4.0000000E+04;  0.0000000E+00;  3.9989758E+04; -1.6751577E-03;  0.0000000E+00;  4.2968034E-03;  1.3315057E+03;
  4.5107475E-01;  9.9999998E-03; -2.8004605E-01;5193; -1.0322597E-02;  0.0000000E+00;  1.7487349E-03;  1.0005876E+03;  1.0000000E-01;  4.8689978E+02;3;  3.1631911E+00;  0.0000000E+00;  3.4048137E-01;0;  2.8575310E-03;  4.0055375E+04;  0.0000000E+00; -8.0223761E-02;  4.0000000E+04;  0.0000000E+00;  3.9989930E+04; -1.9709934E-03;  0.0000000E+00;  4.8285243E-03;  1.3137352E+03;
  4.6109000E-01;  9.9999998E-03; -3.0004978E-01;5252; -1.1006419E-02;  0.0000000E+00;  2.0811479E-03;  1.0008955E+03;  1.0000000E-01;  7.4190491E+02;3;  3.0459902E+00;  0.0000000E+00;  3.2885936E-01;0;  5.4519786E-03;  4.0086426E+04;  0.0000000E+00;  2.8466865E-01;  4.0000000E+04;  0.0000000E+00;  3.9984043E+04;  1.6764014E-03;  0.0000000E+00;  3.7755773E-03;  2.1084099E+03;
  4.6111837E-01;  9.9999998E-03; -2.9004753E-01;5253; -1.0647254E-02;  0.0000000E+00;  1.9538805E-03;  1.0009388E+03;  1.0000000E-01;  7.7785449E+02;3;  3.0994501E+00;  0.0000000E+00;  2.9867491E-01;0;  6.2054475E-03;  4.0089742E+04;  0.0000000E+00;  1.0958299E-01;  4.0000000E+04;  0.0000000E+00;  3.9984246E+04;  1.0201541E-03;  0.0000000E+00;  5.1852935E-03;  2.0646284E+03;
  4.6113345E-01;  9.9999998E-03; -2.8004530E-01;5254; -1.0404360E-02;  0.0000000E+00;  1.7999170E-03;  1.0009825E+03;  1.0000000E-01;  8.1400159E+02;3;  3.1688375E+00;  0.0000000E+00;  2.6481482E-01;0;  6.6826320E-03;  4.0093023E+04;  0.0000000E+00; -1.9306350E-02;  4.0000000E+04;  0.0000000E+00;  3.9984156E+04;  3.2838833E-04;  0.0000000E+00;  6.3542435E-03;  2.0568613E+03;
  4.7105438E-01;  9.9999998E-03; -3.0004886E-01;5313; -1.0664976E-02;  0.0000000E+00;  2.3260049E-03;  1.0013053E+03;  1.0000000E-01;  1.0814508E+03;3;  3.0408790E+00;  0.0000000E+00;  2.3608768E-01;0;  6.9011757E-03;  4.0124312E+04;  0.0000000E+00;  3.2253847E-01;  4.0000000E+04;  0.0000000E+00;  3.9979602E+04;  3.7529776E-03;  0.0000000E+00;  3.1481984E-03;  2.6962715E+03;
  4.7107965E-01;  9.9999998E-03; -2.9004669E-01;5314; -1.0398229E-02;  0.0000000E+00;  2.1600169E-03;  1.0013326E+03;  1.0000000E-01;  1.1039688E+03;3;  3.0848086E+00;  0.0000000E+00;  2.1179886E-01;0;  8.0991825E-03;  4.0126727E+04;  0.0000000E+00;  1.5973911E-01;  4.0000000E+04;  0.0000000E+00;  3.9979320E+04;  2.8806126E-03;  0.0000000E+00;  5.2185701E-03;  2.7051343E+03;
  4.7109768E-01;  9.9999998E-03; -2.8004467E-01;5315; -1.0223966E-02;  0.0000000E+00;  1.9499901E-03;  1.0013566E+03;  1.0000000E-01;  1.1239187E+03;3;  3.1447308E+00;  0.0000000E+00;  1.8554056E-01;0;  9.1158692E-03;  4.0128707E+04;  0.0000000E+00;  3.1922296E-02;  4.0000000E+04;  0.0000000E+00;  3.9979109E+04;  1.9267163E-03;  0.0000000E+00;  7.1891528E-03;  2.7332937E+03;
  4.8095208E-01;  9.9999998E-03; -3.0004701E-01;5374; -9.8333517E-03;  0.0000000E+00;  2.6658948E-03;  1.0016309E+03;  1.0000147E-01;  1.3511715E+03;3;  2.8745918E+00;  0.0000000E+00;  1.2700282E-02;0;  5.7551931E-03;  4.0152254E+04;  0.0000000E+00;  2.8786206E-01;  4.0000000E+04;  0.0000000E+00;  3.9977125E+04;  4.0824669E-03;  0.0000000E+00;  1.6727262E-03;  3.0238191E+03;
  4.8097306E-01;  9.9999998E-03; -2.9004499E-01;5375; -9.7065866E-03;  0.0000000E+00;  2.4885326E-03;  1.0016418E+03;  1.0000147E-01;  1.3601589E+03;3;  2.8999546E+00;  0.0000000E+00; -3.0094951E-03;0;  7.1949968E-03;  4.0153973E+04;  0.0000000E+00;  1.5821306E-01;  4.0000000E+04;  0.0000000E+00;  3.9976523E+04;  3.1241255E-03;  0.0000000E+00;  4.0708715E-03;  3.0956562E+03;
  4.8098826E-01;  9.9999998E-03; -2.8004330E-01;5376; -9.6418383E-03;  0.0000000E+00;  2.2516139E-03;  1.0016484E+03;  1.0000148E-01;  1.3656897E+03;3;  2.9505930E+00;  0.0000000E+00; -1.2389123E-02;0;  8.6851781E-03;  4.0155023E+04;  0.0000000E+00;  4.9160160E-02;  4.0000000E+04;  0.0000000E+00;  3.9975742E+04;  2.0574003E-03;  0.0000000E+00;  6.6277781E-03;  3.1792615E+03;
  4.9085271E-01;  9.9999998E-03; -2.8004023E-01;5437; -8.2411310E-03;  0.0000000E+00;  2.7957379E-03;  1.0017824E+03;  1.0000204E-01;  1.4766987E+03;3;  1.2893521E+00;  0.0000000E+00; -6.5005630E-01;0;  3.5124158E-03;  4.0165910E+04;  0.0000000E+00;  2.4068488E-02;  4.0000000E+04;  0.0000000E+00;  3.9975297E+04;  2.3681096E-04;  0.0000000E+00;  3.2756049E-03;  3.2360974E+03;
  4.9084172E-01;  9.9999998E-03; -2.9004169E-01;5436; -7.9898573E-03;  0.0000000E+00;  2.9733293E-03;  1.0017903E+03;  1.0000199E-01;  1.4832170E+03;3;  1.0960834E+00;  0.0000000E+00; -6.7365694E-01;0;  2.3239865E-03;  4.0165391E+04;  0.0000000E+00;  1.0006664E-01;  4.0000000E+04;  0.0000000E+00;  3.9976535E+04;  1.2556228E-03;  0.0000000E+00;  1.0683637E-03;  3.0916746E+03;
  4.9082777E-01;  9.9999998E-03; -3.0004346E-01;5435; -7.7362801E-03;  0.0000000E+00;  3.0914817E-03;  1.0017908E+03;  1.0000207E-01;  1.4836122E+03;3;  9.6914053E-01;  0.0000000E+00; -6.4653176E-01;0;  1.5600813E-03;  4.0164387E+04;  0.0000000E+00;  1.8412243E-01;  4.0000000E+04;  0.0000000E+00;  3.9977695E+04;  2.1723532E-03;  0.0000000E+00; -6.1227189E-04;  2.9466289E+03;
  5.0070459E-01;  9.9999998E-03; -3.0004185E-01;5496; -6.6197342E-03;  0.0000000E+00;  3.6752420E-03;  1.0017072E+03;  1.0000388E-01;  1.4143795E+03;3;  4.6647441E-01;  0.0000000E+00; -8.5358000E-01;0; -6.6406410E-03;  4.0157508E+04;  0.0000000E+00;  5.5873081E-02;  4.0000000E+04;  0.0000000E+00;  3.9976500E+04; -2.0828084E-03;  0.0000000E+00; -4.5578326E-03;  3.0865430E+03;
  5.0070816E-01;  9.9999998E-03; -2.9003975E-01;5497; -7.1047074E-03;  0.0000000E+00;  3.5734810E-03;  1.0017083E+03;  1.0000371E-01;  1.4152684E+03;3;  7.2844607E-01;  0.0000000E+00; -8.6707538E-01;0; -5.5296095E-03;  4.0158199E+04;  0.0000000E+00;  1.3678030E-02;  4.0000000E+04;  0.0000000E+00;  3.9975766E+04; -2.8357361E-03;  0.0000000E+00; -2.6938731E-03;  3.1745444E+03;
  5.0071436E-01;  9.9999998E-03; -2.8003803E-01;5498; -7.4967556E-03;  0.0000000E+00;  3.4176372E-03;  1.0017018E+03;  1.0000388E-01;  1.4099352E+03;3;  9.6372730E-01;  0.0000000E+00; -8.4696662E-01;0; -3.7822274E-03;  4.0158312E+04;  0.0000000E+00; -2.6546674E-02;  4.0000000E+04;  0.0000000E+00;  3.9975219E+04; -3.6539284E-03;  0.0000000E+00; -1.2829900E-04;  3.2586770E+03;
  5.1060408E-01;  9.9999998E-03; -3.0003902E-01;5557; -6.2489603E-03;  0.0000000E+00;  4.0821536E-03;  1.0014413E+03;  1.0000626E-01;  1.1941389E+03;3;  3.7416533E-01;  0.0000000E+00; -1.0276048E+00;0; -1.3158783E-02;  4.0132770E+04;  0.0000000E+00; -4.6591170E-02;  4.0000000E+04;  0.0000000E+00;  3.9977895E+04; -8.5481685E-03;  0.0000000E+00; -4.6106144E-03;  2.8841709E+03;
  5.1059878E-01;  9.9999998E-03; -2.9003650E-01;5558; -6.8586962E-03;  0.0000000E+00;  3.9794212E-03;  1.0014452E+03;  1.0000617E-01;  1.1972993E+03;3;  6.4796382E-01;  0.0000000E+00; -1.0459738E+00;0; -1.1431670E-02;  4.0133020E+04;  0.0000000E+00; -6.2267710E-02;  4.0000000E+04;  0.0000000E+00;  3.9977770E+04; -9.0116514E-03;  0.0000000E+00; -2.4200184E-03;  2.8942139E+03;
  5.1060063E-01;  9.9999998E-03; -2.8003433E-01;5559; -7.3278090E-03;  0.0000000E+00;  3.8414414E-03;  1.0014452E+03;  1.0000617E-01;  1.1972993E+03;3;  9.1869736E-01;  0.0000000E+00; -1.0600817E+00;0; -9.3346350E-03;  4.0133000E+04;  0.0000000E+00; -7.7478990E-02;  4.0000000E+04;  0.0000000E+00;  3.9977781E+04; -9.4880722E-03;  0.0000000E+00;  1.5343710E-04;  2.9041755E+03;
  5.2054381E-01;  9.9999998E-03; -3.0003536E-01;5618; -6.2093846E-03;  0.0000000E+00;  4.4232174E-03;  1.0010458E+03;  1.0001039E-01;  8.6644452E+02;3;  3.3404338E-01;  0.0000000E+00; -1.2541156E+00;0; -1.9710276E-02;  4.0093594E+04;  0.0000000E+00; -8.6087197E-02;  4.0000000E+04;  0.0000000E+00;  3.9981430E+04; -1.6844831E-02;  0.0000000E+00; -2.8654439E-03;  2.3990527E+03;
  5.2052993E-01;  9.9999998E-03; -2.9003245E-01;5619; -6.9030109E-03;  0.0000000E+00;  4.3271347E-03;  1.0010512E+03;  1.0001048E-01;  8.7088879E+02;3;  6.1324382E-01;  0.0000000E+00; -1.2781322E+00;0; -1.7391056E-02;  4.0093441E+04;  0.0000000E+00; -9.2900023E-02;  4.0000000E+04;  0.0000000E+00;  3.9982074E+04; -1.6898967E-02;  0.0000000E+00; -4.9208803E-04;  2.3269351E+03;
  5.2052677E-01;  9.9999998E-03; -2.8002980E-01;5620; -7.4068466E-03;  0.0000000E+00;  4.2092395E-03;  1.0010556E+03;  1.0001054E-01;  8.7454303E+02;3;  8.6860108E-01;  0.0000000E+00; -1.2836975E+00;0; -1.4945909E-02;  4.0093344E+04;  0.0000000E+00; -1.0183769E-01;  4.0000000E+04;  0.0000000E+00;  3.9982570E+04; -1.6912086E-02;  0.0000000E+00;  1.9661770E-03;  2.2631777E+03;
  5.3052723E-01;  9.9999998E-03; -3.0003172E-01;5679; -6.4949882E-03;  0.0000000E+00;  4.7203926E-03;  1.0005934E+03;  1.0001730E-01;  4.9164035E+02;3;  3.1233886E-01;  0.0000000E+00; -1.4986976E+00;0; -2.6259959E-02;  4.0046785E+04;  0.0000000E+00; -5.1400654E-02;  4.0000000E+04;  0.0000000E+00;  3.9986262E+04; -2.6431531E-02;  0.0000000E+00;  1.7157149E-04;  1.7549183E+03;
  5.3050613E-01;  9.9999998E-03; -2.9002845E-01;5680; -7.1844109E-03;  0.0000000E+00;  4.6257363E-03;  1.0005972E+03;  1.0001743E-01;  4.9470200E+02;3;  5.8839548E-01;  0.0000000E+00; -1.5264838E+00;0; -2.3157548E-02;  4.0045762E+04;  0.0000000E+00; -6.0305484E-02;  4.0000000E+04;  0.0000000E+00;  3.9987559E+04; -2.5975036E-02;  0.0000000E+00;  2.8174883E-03;  1.6114104E+03;
  5.3049916E-01;  9.9999998E-03; -2.8002533E-01;5681; -7.6812874E-03;  0.0000000E+00;  4.5441231E-03;  1.0006069E+03;  1.0001760E-01;  5.0280051E+02;3;  8.3924723E-01;  0.0000000E+00; -1.5274998E+00;0; -2.0593580E-02;  4.0045574E+04;  0.0000000E+00; -8.2372569E-02;  4.0000000E+04;  0.0000000E+00;  3.9988438E+04; -2.5427373E-02;  0.0000000E+00;  4.8337928E-03;  1.4815389E+03;
  5.4055446E-01;  9.9999998E-03; -3.0002919E-01;5740; -7.0102802E-03;  0.0000000E+00;  4.9372357E-03;  1.0001804E+03;  1.0002959E-01;  1.4942784E+02;3;  3.1756666E-01;  0.0000000E+00; -1.7394044E+00;0; -3.1696025E-02;  3.9998891E+04;  0.0000000E+00;  3.2242898E-02;  4.0000000E+04;  0.0000000E+00;  3.9990867E+04; -3.6677364E-02;  0.0000000E+00;  4.9813394E-03;  1.1326038E+03;
  5.4053026E-01;  9.9999998E-03; -2.9002565E-01;5741; -7.6548955E-03;  0.0000000E+00;  4.8899143E-03;  1.0001755E+03;  1.0002951E-01;  1.4537857E+02;3;  5.6435758E-01;  0.0000000E+00; -1.7648655E+00;0; -2.8528947E-02;  3.9997039E+04;  0.0000000E+00;  1.8825326E-02;  4.0000000E+04;  0.0000000E+00;  3.9992438E+04; -3.5639539E-02;  0.0000000E+00;  7.1105910E-03;  9.3015314E+02;
  5.4052222E-01;  9.9999998E-03; -2.8002203E-01;5742; -8.1243208E-03;  0.0000000E+00;  4.8642885E-03;  1.0001868E+03;  1.0002955E-01;  1.5476102E+02;3;  8.0764192E-01;  0.0000000E+00; -1.7783480E+00;0; -2.6125815E-02;  3.9996281E+04;  0.0000000E+00; -2.6738144E-02;  4.0000000E+04;  0.0000000E+00;  3.9994164E+04; -3.4458801E-02;  0.0000000E+00;  8.3329873E-03;  7.2290442E+02;
  5.5062532E-01;  9.9999998E-03; -3.0002877E-01;5801; -7.7207228E-03;  0.0000000E+00;  5.1299105E-03;  9.9986621E+02;  1.0004847E-01; -1.1086104E+02;3;  3.2171199E-01;  0.0000000E+00; -1.9435830E+00;0; -3.6531683E-02;  3.9955141E+04;  0.0000000E+00;  9.4111994E-02;  4.0000000E+04;  0.0000000E+00;  3.9994062E+04; -4.6935398E-02;  0.0000000E+00;  1.0403715E-02;  7.0881726E+02;
  5.5060285E-01;  9.9999998E-03; -2.9002491E-01;5802; -8.2971221E-03;  0.0000000E+00;  5.1383539E-03;  9.9985785E+02;  1.0004845E-01; -1.1777442E+02;3;  5.5648655E-01;  0.0000000E+00; -1.9759463E+00;0; -3.3388846E-02;  3.9952074E+04;  0.0000000E+00;  8.2078755E-02;  4.0000000E+04;  0.0000000E+00;  3.9996152E+04; -4.5276698E-02;  0.0000000E+00;  1.1887852E-02;  4.4479504E+02;
  5.5059612E-01;  9.9999998E-03; -2.8002062E-01;5803; -8.7168934E-03;  0.0000000E+00;  5.1817102E-03;  9.9986884E+02;  1.0004848E-01; -1.0868826E+02;3;  7.8010595E-01;  0.0000000E+00; -1.9906214E+00;0; -3.1290404E-02;  3.9950637E+04;  0.0000000E+00;  2.2004910E-02;  4.0000000E+04;  0.0000000E+00;  3.9998566E+04; -4.3414921E-02;  0.0000000E+00;  1.2124516E-02;  1.2889365E+02;
  5.6073350E-01;  9.9999998E-03; -3.0003101E-01;5862; -8.6034620E-03;  0.0000000E+00;  5.3327000E-03;  9.9969562E+02;  1.0007981E-01; -2.5219034E+02;3;  3.3175549E-01;  0.0000000E+00; -2.1139166E+00;0; -4.0991113E-02;  3.9915219E+04;  0.0000000E+00;  3.4704674E-02;  4.0000000E+04;  0.0000000E+00;  3.9995207E+04; -5.6607127E-02;  0.0000000E+00;  1.5616016E-02;  5.0575607E+02;
  5.6071997E-01;  9.9999998E-03; -2.9002658E-01;5863; -9.1012465E-03;  0.0000000E+00;  5.4063322E-03;  9.9968304E+02;  1.0007969E-01; -2.6260980E+02;3;  5.3252149E-01;  0.0000000E+00; -2.1698980E+00;0; -3.7985280E-02;  3.9911062E+04;  0.0000000E+00;  3.0721866E-02;  4.0000000E+04;  0.0000000E+00;  3.9998172E+04; -5.4318935E-02;  0.0000000E+00;  1.6333655E-02;  1.5806247E+02;
  5.6071943E-01;  9.9999998E-03; -2.8002149E-01;5864; -9.4581647E-03;  0.0000000E+00;  5.5282447E-03;  9.9969458E+02;  1.0007984E-01; -2.5302983E+02;3;  7.3572779E-01;  0.0000000E+00; -2.1627688E+00;0; -3.6229171E-02;  3.9908613E+04;  0.0000000E+00; -1.4836332E-02;  4.0000000E+04;  0.0000000E+00;  4.0001352E+04; -5.1754262E-02;  0.0000000E+00;  1.5525093E-02;  2.8089087E+02;
  5.7085294E-01;  9.9999998E-03; -3.0003574E-01;5923; -9.6627409E-03;  0.0000000E+00;  5.5699004E-03;  9.9965985E+02;  1.0013096E-01; -2.8181909E+02;3;  3.4284356E-01;  0.0000000E+00; -2.2284429E+00;0; -4.5252115E-02;  3.9871973E+04;  0.0000000E+00; -1.7913897E-01;  4.0000000E+04;  0.0000000E+00;  3.9994812E+04; -6.5181933E-02;  0.0000000E+00;  1.9929819E-02;  5.3449347E+02;
  5.7085645E-01;  9.9999998E-03; -2.9003066E-01;5924; -1.0067140E-02;  0.0000000E+00;  5.6894976E-03;  9.9964734E+02;  1.0013096E-01; -2.9218915E+02;3;  5.1410824E-01;  0.0000000E+00; -2.3015985E+00;0; -4.2020753E-02;  3.9867137E+04;  0.0000000E+00; -1.7608982E-01;  4.0000000E+04;  0.0000000E+00;  3.9998379E+04; -6.2285207E-02;  0.0000000E+00;  2.0264454E-02;  2.0074927E+02;
  5.7086951E-01;  9.9999998E-03; -2.8002468E-01;5925; -1.0344681E-02;  0.0000000E+00;  5.8986512E-03;  9.9966071E+02;  1.0013135E-01; -2.8107837E+02;3;  6.8916553E-01;  0.0000000E+00; -2.3256540E+00;0; -4.0687434E-02;  3.9863957E+04;  0.0000000E+00; -1.7924209E-01;  4.0000000E+04;  0.0000000E+00;  4.0002637E+04; -5.9024930E-02;  0.0000000E+00;  1.8337494E-02;  5.1874097E+02;
  5.8093536E-01;  9.9999998E-03; -3.0004257E-01;5984; -1.0880031E-02;  0.0000000E+00;  5.8396868E-03;  9.9968469E+02;  1.0021381E-01; -2.6122708E+02;3;  3.5032555E-01;  0.0000000E+00; -2.2911303E+00;0; -4.9238376E-02;  3.9809668E+04;  0.0000000E+00; -3.6309960E-01;  4.0000000E+04;  0.0000000E+00;  3.9993578E+04; -7.2292536E-02;  0.0000000E+00;  2.3054162E-02;  7.3545795E+02;
  5.8096063E-01;  9.9999998E-03; -2.9003665E-01;5985; -1.1172128E-02;  0.0000000E+00;  6.0074194E-03;  9.9967822E+02;  1.0021405E-01; -2.6660965E+02;3;  4.8301324E-01;  0.0000000E+00; -2.3942382E+00;0; -4.5814142E-02;  3.9804520E+04;  0.0000000E+00; -3.7595257E-01;  4.0000000E+04;  0.0000000E+00;  3.9997887E+04; -6.8834238E-02;  0.0000000E+00;  2.3020098E-02;  4.8118738E+02;
  5.8099085E-01;  9.9999998E-03; -2.8002962E-01;5986; -1.1356837E-02;  0.0000000E+00;  6.2896884E-03;  9.9969684E+02;  1.0021434E-01; -2.5115329E+02;3;  6.2834740E-01;  0.0000000E+00; -2.4532356E+00;0; -4.4598218E-02;  3.9801031E+04;  0.0000000E+00; -3.4543791E-01;  4.0000000E+04;  0.0000000E+00;  4.0002859E+04; -6.4912558E-02;  0.0000000E+00;  2.0314340E-02;  7.1531586E+02;
  5.9093958E-01;  9.9999998E-03; -3.0005097E-01;6045; -1.2237251E-02;  0.0000000E+00;  6.1217993E-03;  9.9967462E+02;  1.0034749E-01; -2.6957251E+02;3;  3.3763027E-01;  0.0000000E+00; -2.3451540E+00;0; -5.2779064E-02;  3.9704496E+04;  0.0000000E+00; -1.8271081E-01;  4.0000000E+04;  0.0000000E+00;  3.9992652E+04; -7.7777572E-02;  0.0000000E+00;  2.4998507E-02;  6.2744177E+02;
  5.9098667E-01;  9.9999998E-03; -2.9004407E-01;6046; -1.2393217E-02;  0.0000000E+00;  6.3460083E-03;  9.9967950E+02;  1.0034800E-01; -2.6552322E+02;3;  4.4495222E-01;  0.0000000E+00; -2.4724417E+00;0; -4.9332909E-02;  3.9699695E+04;  0.0000000E+00; -2.8262988E-01;  4.0000000E+04;  0.0000000E+00;  3.9997355E+04; -7.3829114E-02;  0.0000000E+00;  2.4496203E-02;  3.5386932E+02;
  5.9103334E-01;  9.9999998E-03; -2.8003582E-01;6047; -1.2469770E-02;  0.0000000E+00;  6.6808299E-03;  9.9970892E+02;  1.0034849E-01; -2.4112888E+02;3;  5.6599551E-01;  0.0000000E+00; -2.5776525E+00;0; -4.7874235E-02;  3.9696191E+04;  0.0000000E+00; -2.8981015E-01;  4.0000000E+04;  0.0000000E+00;  4.0002758E+04; -6.9309190E-02;  0.0000000E+00;  2.1434957E-02;  7.6126819E+02;
  6.0088480E-01;  9.9999998E-03; -3.0006066E-01;6106; -1.3697721E-02;  0.0000000E+00;  6.3961302E-03;  9.9954626E+02;  1.0056060E-01; -3.7589041E+02;3;  3.4130198E-01;  0.0000000E+00; -2.3998404E+00;0; -5.5896100E-02;  3.9528223E+04;  0.0000000E+00;  3.7066144E-01;  4.0000000E+04;  0.0000000E+00;  3.9992648E+04; -8.1714943E-02;  0.0000000E+00;  2.5818843E-02;  7.0275134E+02;
  6.0094655E-01;  9.9999998E-03; -2.9005271E-01;6107; -1.3699150E-02;  0.0000000E+00;  6.6650058E-03;  9.9957465E+02;  1.0056145E-01; -3.5238492E+02;3;  4.2389637E-01;  0.0000000E+00; -2.5569274E+00;0; -5.2300252E-02;  3.9524402E+04;  0.0000000E+00;  1.2797861E-01;  4.0000000E+04;  0.0000000E+00;  3.9997438E+04; -7.7364013E-02;  0.0000000E+00;  2.5063759E-02;  3.0311365E+02;
  6.0100281E-01;  9.9999998E-03; -2.8004304E-01;6108; -1.3646750E-02;  0.0000000E+00;  7.0503666E-03;  9.9961731E+02;  1.0056195E-01; -3.1702789E+02;3;  5.3163785E-01;  0.0000000E+00; -2.6786153E+00;0; -5.0568886E-02;  3.9521598E+04;  0.0000000E+00;  2.1863164E-02;  4.0000000E+04;  0.0000000E+00;  4.0003102E+04; -7.2336070E-02;  0.0000000E+00;  2.1767186E-02;  8.9317920E+02;
  6.1079741E-01;  9.9999998E-03; -3.0007216E-01;6167; -1.5218888E-02;  0.0000000E+00;  6.6367746E-03;  9.9930554E+02;  1.0089329E-01; -5.7534143E+02;3;  3.6280793E-01;  0.0000000E+00; -2.4473634E+00;0; -5.8684021E-02;  3.9250711E+04;  0.0000000E+00;  1.0089425E+00;  4.0000000E+04;  0.0000000E+00;  3.9993250E+04; -8.4358998E-02;  0.0000000E+00;  2.5674976E-02;  1.4776038E+03;
  6.1086869E-01;  9.9999998E-03; -2.9006305E-01;6168; -1.5048071E-02;  0.0000000E+00;  6.9529666E-03;  9.9935651E+02;  1.0089496E-01; -5.3312042E+02;3;  4.2179006E-01;  0.0000000E+00; -2.6293385E+00;0; -5.5071890E-02;  3.9248293E+04;  0.0000000E+00;  6.2979692E-01;  4.0000000E+04;  0.0000000E+00;  3.9998020E+04; -7.9709671E-02;  0.0000000E+00;  2.4637783E-02;  1.0921687E+03;
  6.1093122E-01;  9.9999998E-03; -2.8005192E-01;6169; -1.4856546E-02;  0.0000000E+00;  7.3745945E-03;  9.9941779E+02;  1.0089624E-01; -4.8235645E+02;3;  4.9984798E-01;  0.0000000E+00; -2.7897758E+00;0; -5.2892037E-02;  3.9246242E+04;  0.0000000E+00;  4.1813609E-01;  4.0000000E+04;  0.0000000E+00;  4.0003293E+04; -7.4286602E-02;  0.0000000E+00;  2.1394564E-02;  1.3808046E+03;
  6.2068135E-01;  9.9999998E-03; -3.0008653E-01;6228; -1.6758442E-02;  0.0000000E+00;  6.8138861E-03;  9.9903485E+02;  1.0139926E-01; -7.9963110E+02;3;  3.9881900E-01;  0.0000000E+00; -2.5098352E+00;0; -6.1345812E-02;  3.8841656E+04;  0.0000000E+00;  1.3736000E+00;  4.0000000E+04;  0.0000000E+00;  3.9993094E+04; -8.6109325E-02;  0.0000000E+00;  2.4763513E-02;  2.0440601E+03;
  6.2076157E-01;  9.9999998E-03; -2.9007638E-01;6229; -1.6411714E-02;  0.0000000E+00;  7.1472856E-03;  9.9911761E+02;  1.0140163E-01; -7.3104053E+02;3;  4.4104561E-01;  0.0000000E+00; -2.7095492E+00;0; -5.7320710E-02;  3.8840816E+04;  0.0000000E+00;  9.3901914E-01;  4.0000000E+04;  0.0000000E+00;  3.9997527E+04; -8.1271313E-02;  0.0000000E+00;  2.3950603E-02;  1.6791306E+03;
  6.2082905E-01;  9.9999998E-03; -2.8006399E-01;6230; -1.6066261E-02;  0.0000000E+00;  7.6268557E-03;  9.9920190E+02;  1.0140407E-01; -6.6121539E+02;3;  4.9896893E-01;  0.0000000E+00; -2.9050820E+00;0; -5.5133201E-02;  3.8840344E+04;  0.0000000E+00;  6.8513912E-01;  4.0000000E+04;  0.0000000E+00;  4.0002430E+04; -7.5584747E-02;  0.0000000E+00;  2.0451548E-02;  1.8464589E+03;
  6.3053578E-01;  9.9999998E-03; -3.0010539E-01;6289; -1.8273072E-02;  0.0000000E+00;  6.8542026E-03;  9.9889575E+02;  1.0213719E-01; -9.1483759E+02;3;  4.5373636E-01;  0.0000000E+00; -2.5381017E+00;0; -6.3414887E-02;  3.8275840E+04;  0.0000000E+00;  9.5633650E-01;  4.0000000E+04;  0.0000000E+00;  3.9990191E+04; -8.7496854E-02;  0.0000000E+00;  2.4081968E-02;  1.5525879E+03;
  6.3062292E-01;  9.9999998E-03; -2.9009435E-01;6290; -1.7741648E-02;  0.0000000E+00;  7.2247852E-03;  9.9900818E+02;  1.0214166E-01; -8.2170447E+02;3;  4.5906544E-01;  0.0000000E+00; -2.8148551E+00;0; -5.9498318E-02;  3.8276312E+04;  0.0000000E+00;  6.6164553E-01;  4.0000000E+04;  0.0000000E+00;  3.9994262E+04; -8.2581483E-02;  0.0000000E+00;  2.3083165E-02;  1.5179445E+03;
  6.3069350E-01;  9.9999998E-03; -2.8008106E-01;6291; -1.7247543E-02;  0.0000000E+00;  7.7421614E-03;  9.9911664E+02;  1.0214505E-01; -7.3183057E+02;3;  4.9237910E-01;  0.0000000E+00; -3.0421185E+00;0; -5.7158500E-02;  3.8277680E+04;  0.0000000E+00;  5.3820050E-01;  4.0000000E+04;  0.0000000E+00;  3.9998129E+04; -7.6766998E-02;  0.0000000E+00;  1.9608496E-02;  1.8237954E+03;
  6.4038557E-01;  9.9999998E-03; -3.0013025E-01;6350; -1.9692028E-02;  0.0000000E+00;  6.7321141E-03;  9.9904486E+02;  1.0316130E-01; -7.9133490E+02;3;  5.0416595E-01;  0.0000000E+00; -2.5855370E+00;0; -6.5363511E-02;  3.7537477E+04;  0.0000000E+00; -8.9430434E-01;  4.0000000E+04;  0.0000000E+00;  3.9982555E+04; -8.9123853E-02;  0.0000000E+00;  2.3760339E-02;  1.4647650E+03;
  6.4047396E-01;  9.9999998E-03; -2.9011855E-01;6351; -1.9009532E-02;  0.0000000E+00;  7.0816725E-03;  9.9918414E+02;  1.0316780E-01; -6.7593091E+02;3;  5.1582468E-01;  0.0000000E+00; -2.8401115E+00;0; -6.0709722E-02;  3.7538688E+04;  0.0000000E+00; -7.3193884E-01;  4.0000000E+04;  0.0000000E+00;  3.9985930E+04; -8.4229171E-02;  0.0000000E+00;  2.3519449E-02;  1.4732567E+03;
  6.4054370E-01;  9.9999998E-03; -2.8010491E-01;6352; -1.8367769E-02;  0.0000000E+00;  7.6633207E-03;  9.9931635E+02;  1.0317304E-01; -5.6640320E+02;3;  5.0963503E-01;  0.0000000E+00; -3.2060380E+00;0; -5.8971211E-02;  3.7541262E+04;  0.0000000E+00; -4.2073324E-01;  4.0000000E+04;  0.0000000E+00;  3.9988961E+04; -7.8421108E-02;  0.0000000E+00;  1.9449895E-02;  1.4729045E+03;
  6.5027690E-01;  9.9999998E-03; -3.0016142E-01;6411; -2.0957425E-02;  0.0000000E+00;  6.3682129E-03;  9.9950153E+02;  1.0450064E-01; -4.1297549E+02;3;  6.0025632E-01;  0.0000000E+00; -2.4641936E+00;0; -6.6628635E-02;  3.6623117E+04;  0.0000000E+00; -4.4965854E+00;  4.0000000E+04;  0.0000000E+00;  3.9969680E+04; -9.1611765E-02;  0.0000000E+00;  2.4983127E-02;  6.9506929E+03;
  6.5035510E-01;  9.9999998E-03; -2.9014915E-01;6412; -2.0157339E-02;  0.0000000E+00;  6.6749924E-03;  9.9965338E+02;  1.0450911E-01; -2.8715204E+02;3;  5.8520758E-01;  0.0000000E+00; -2.7933283E+00;0; -6.1140716E-02;  3.6624082E+04;  0.0000000E+00; -3.5531116E+00;  4.0000000E+04;  0.0000000E+00;  3.9972438E+04; -8.6829603E-02;  0.0000000E+00;  2.5688889E-02;  5.5153345E+03;
  6.5041655E-01;  9.9999998E-03; -2.8013551E-01;6413; -1.9412283E-02;  0.0000000E+00;  7.3155407E-03;  9.9979938E+02;  1.0451498E-01; -1.6621733E+02;3;  5.6510240E-01;  0.0000000E+00; -3.3083456E+00;0; -6.0301941E-02;  3.6627406E+04;  0.0000000E+00; -2.4500830E+00;  4.0000000E+04;  0.0000000E+00;  3.9974676E+04; -8.1148878E-02;  0.0000000E+00;  2.0846937E-02;  3.8607036E+03;
  6.6033804E-01;  9.9999998E-03; -3.0019769E-01;6472; -2.2006921E-02;  0.0000000E+00;  5.8377967E-03;  1.0000886E+03;  1.0615193E-01;  7.3380547E+01;3;  6.8483204E-01;  0.0000000E+00; -2.3481929E+00;0; -6.9651946E-02;  3.5542543E+04;  0.0000000E+00; -9.1878185E+00;  4.0000000E+04;  0.0000000E+00;  3.9952727E+04; -9.5608957E-02;  0.0000000E+00;  2.5957011E-02;  1.4587154E+04;
  6.6039556E-01;  9.9999998E-03; -2.9018462E-01;6473; -2.1174878E-02;  0.0000000E+00;  5.9664734E-03;  1.0002330E+03;  1.0616234E-01;  1.9308072E+02;3;  6.8657488E-01;  0.0000000E+00; -2.6985679E+00;0; -6.1182208E-02;  3.5541742E+04;  0.0000000E+00; -7.3183327E+00;  4.0000000E+04;  0.0000000E+00;  3.9955672E+04; -9.1026284E-02;  0.0000000E+00;  2.9844075E-02;  1.1642906E+04;
  6.6044432E-01;  9.9999998E-03; -2.8017163E-01;6474; -2.0343978E-02;  0.0000000E+00;  6.9701066E-03;  1.0003715E+03;  1.0616936E-01;  3.0784274E+02;3;  5.9498340E-01;  0.0000000E+00; -3.6006279E+00;0; -6.6130280E-02;  3.5544891E+04;  0.0000000E+00; -5.2135339E+00;  4.0000000E+04;  0.0000000E+00;  3.9956676E+04; -8.5580990E-02;  0.0000000E+00;  1.9450711E-02;  8.3332529E+03;
  6.7066908E-01;  9.9999998E-03; -3.0023682E-01;6533; -2.2880493E-02;  0.0000000E+00;  4.9263774E-03;  1.0005473E+03;  1.0809884E-01;  4.5341858E+02;3;  7.9315788E-01;  0.0000000E+00; -2.3172655E+00;0; -7.1896613E-02;  3.4313543E+04;  0.0000000E+00; -1.3040567E+01;  4.0000000E+04;  0.0000000E+00;  3.9935328E+04; -1.0180873E-01;  0.0000000E+00;  2.9912123E-02;  2.1324234E+04;
  6.7066461E-01;  9.9999998E-03; -2.9022375E-01;6534; -2.2036638E-02;  0.0000000E+00;  5.7113916E-03;  1.0006498E+03;  1.0810918E-01;  5.3835431E+02;3;  7.3737293E-01;  0.0000000E+00; -3.2880280E+00;0; -7.4635766E-02;  3.4310746E+04;  0.0000000E+00; -1.0721635E+01;  4.0000000E+04;  0.0000000E+00;  3.9936906E+04; -9.7466171E-02;  0.0000000E+00;  2.2830404E-02;  1.7607699E+04;
  6.7066699E-01;  9.9999998E-03; -2.8021419E-01;6535; -2.1112984E-02;  0.0000000E+00;  7.7283517E-03;  1.0007140E+03;  1.0811486E-01;  5.9148853E+02;3;  6.1915863E-01;  0.0000000E+00; -4.2534094E+00;0; -9.3354367E-02;  3.4312801E+04;  0.0000000E+00; -7.8892646E+00;  4.0000000E+04;  0.0000000E+00;  3.9933262E+04; -9.2304513E-02;  0.0000000E+00; -1.0498533E-03;  1.3108405E+04;
  6.8127239E-01;  9.9999998E-03; -3.0027959E-01;6594; -2.3659356E-02;  0.0000000E+00;  4.3904916E-03;  1.0007567E+03;  1.1036925E-01;  6.2684540E+02;3;  9.3022448E-01;  0.0000000E+00; -2.8280244E+00;0; -8.7862387E-02;  3.2941637E+04;  0.0000000E+00; -1.4922848E+01;  4.0000000E+04;  0.0000000E+00;  3.9916531E+04; -1.1087498E-01;  0.0000000E+00;  2.3012595E-02;  2.5323508E+04;
  6.8116921E-01;  9.9999998E-03; -2.9026619E-01;6595; -2.2876004E-02;  0.0000000E+00;  5.6932094E-03;  1.0007934E+03;  1.1036934E-01;  6.5726422E+02;3;  8.6530656E-01;  0.0000000E+00; -3.7618918E+00;0; -9.8525129E-02;  3.2941680E+04;  0.0000000E+00; -1.2970478E+01;  4.0000000E+04;  0.0000000E+00;  3.9916652E+04; -1.0674684E-01;  0.0000000E+00;  8.2217138E-03;  2.2138760E+04;
  6.8107575E-01;  9.9999998E-03; -2.8025803E-01;6596; -2.1991666E-02;  0.0000000E+00;  7.7615543E-03;  1.0007892E+03;  1.1036328E-01;  6.5390631E+02;3;  7.4453145E-01;  0.0000000E+00; -4.3578882E+00;0; -1.1593144E-01;  3.2947988E+04;  0.0000000E+00; -1.0078204E+01;  4.0000000E+04;  0.0000000E+00;  3.9910762E+04; -1.0185482E-01;  0.0000000E+00; -1.4076617E-02;  1.7456268E+04;
  6.9293153E-01;  9.9999998E-03; -3.0032957E-01;6655; -2.4674134E-02;  0.0000000E+00;  3.5043964E-03;  1.0008454E+03;  1.1312354E-01;  7.0042322E+02;3;  1.1691862E+00;  0.0000000E+00; -2.9137619E+00;0; -1.0798477E-01;  3.1381488E+04;  0.0000000E+00; -1.1606443E+01;  4.0000000E+04;  0.0000000E+00;  3.9894625E+04; -1.2451009E-01;  0.0000000E+00;  1.6525324E-02;  2.1000461E+04;
  6.9274402E-01;  9.9999998E-03; -2.9031408E-01;6656; -2.3958042E-02;  0.0000000E+00;  4.8293713E-03;  1.0007831E+03;  1.1310323E-01;  6.4877045E+02;3;  1.0767988E+00;  0.0000000E+00; -3.6720440E+00;0; -1.1828019E-01;  3.1386449E+04;  0.0000000E+00; -1.0795568E+01;  4.0000000E+04;  0.0000000E+00;  3.9894805E+04; -1.2052882E-01;  0.0000000E+00;  2.2486392E-03;  1.9642684E+04;
  6.9251204E-01;  9.9999998E-03; -2.8030387E-01;6657; -2.3058930E-02;  0.0000000E+00;  6.5033655E-03;  1.0006950E+03;  1.1306655E-01;  5.7578503E+02;3;  9.2461812E-01;  0.0000000E+00; -3.9785395E+00;0; -1.2866744E-01;  3.1402883E+04;  0.0000000E+00; -9.0422764E+00;  4.0000000E+04;  0.0000000E+00;  3.9889695E+04; -1.1576089E-01;  0.0000000E+00; -1.2906562E-02;  1.6725744E+04;
  7.0528406E-01;  9.9999998E-03; -3.0038914E-01;6716; -2.5845300E-02;  0.0000000E+00;  1.9547213E-03;  1.0010951E+03;  1.1638054E-01;  9.0723138E+02;3;  1.4661632E+00;  0.0000000E+00; -2.5818691E+00;0; -1.2734798E-01;  2.9689891E+04;  0.0000000E+00; -9.1013556E+00;  4.0000000E+04;  0.0000000E+00;  3.9867312E+04; -1.4331688E-01;  0.0000000E+00;  1.5968902E-02;  1.8126443E+04;
  7.0515651E-01;  9.9999998E-03; -2.9037076E-01;6717; -2.5223460E-02;  0.0000000E+00;  3.0272780E-03;  1.0009584E+03;  1.1636343E-01;  7.9395093E+02;3;  1.3011281E+00;  0.0000000E+00; -3.1365550E+00;0; -1.3338320E-01;  2.9687438E+04;  0.0000000E+00; -8.4643469E+00;  4.0000000E+04;  0.0000000E+00;  3.9868953E+04; -1.3952442E-01;  0.0000000E+00;  6.1412174E-03;  1.6953340E+04;
  7.0496184E-01;  9.9999998E-03; -2.8035644E-01;6718; -2.4299758E-02;  0.0000000E+00;  4.2864233E-03;  1.0007777E+03;  1.1632180E-01;  6.4432593E+02;3;  1.0727886E+00;  0.0000000E+00; -3.3614614E+00;0; -1.3796853E-01;  2.9697598E+04;  0.0000000E+00; -7.0684576E+00;  4.0000000E+04;  0.0000000E+00;  3.9866949E+04; -1.3494246E-01;  0.0000000E+00; -3.0260689E-03;  1.4465088E+04;
  7.1662891E-01;  9.9999998E-03; -3.0044797E-01;6777; -2.7064277E-02;  0.0000000E+00; -9.5377734E-05;  1.0011094E+03;  1.1970326E-01;  9.1918127E+02;3;  1.7434087E+00;  0.0000000E+00; -1.9737867E+00;0; -1.4128904E-01;  2.8086363E+04;  0.0000000E+00; -1.0671858E+01;  4.0000000E+04;  0.0000000E+00;  3.9843602E+04; -1.6430762E-01;  0.0000000E+00;  2.3018586E-02;  2.2127057E+04;
  7.1670496E-01;  9.9999998E-03; -2.9042721E-01;6778; -2.6554152E-02;  0.0000000E+00;  6.6782709E-04;  1.0009822E+03;  1.1973085E-01;  8.1370306E+02;3;  1.5048984E+00;  0.0000000E+00; -2.4577835E+00;0; -1.4315467E-01;  2.8062711E+04;  0.0000000E+00; -9.5959711E+00;  4.0000000E+04;  0.0000000E+00;  3.9846391E+04; -1.6081376E-01;  0.0000000E+00;  1.7659094E-02;  2.0055756E+04;
  7.1673888E-01;  9.9999998E-03; -2.8040937E-01;6779; -2.5633302E-02;  0.0000000E+00;  1.5721626E-03;  1.0007996E+03;  1.1973947E-01;  6.6239911E+02;3;  1.2033609E+00;  0.0000000E+00; -2.7093387E+00;0; -1.4442468E-01;  2.8046617E+04;  0.0000000E+00; -7.7120667E+00;  4.0000000E+04;  0.0000000E+00;  3.9847102E+04; -1.5660274E-01;  0.0000000E+00;  1.2178056E-02;  1.6459947E+04;
  7.2776592E-01;  9.9999998E-03; -3.0050376E-01;6838; -2.8654281E-02;  0.0000000E+00; -2.5850518E-03;  1.0004150E+03;  1.2316093E-01;  3.4379156E+02;3;  2.0155656E+00;  0.0000000E+00; -1.1443006E+00;0; -1.5198596E-01;  2.6508902E+04;  0.0000000E+00; -9.1737518E+00;  4.0000000E+04;  0.0000000E+00;  3.9828703E+04; -1.8773970E-01;  0.0000000E+00;  3.5753738E-02;  1.9930805E+04;
  7.2792202E-01;  9.9999998E-03; -2.9048002E-01;6839; -2.8196543E-02;  0.0000000E+00; -1.9818549E-03;  1.0003196E+03;  1.2320331E-01;  2.6478171E+02;3;  1.7136332E+00;  0.0000000E+00; -1.6657134E+00;0; -1.5192276E-01;  2.6481498E+04;  0.0000000E+00; -8.4746017E+00;  4.0000000E+04;  0.0000000E+00;  3.9832543E+04; -1.8415545E-01;  0.0000000E+00;  3.2232694E-02;  1.8457291E+04;
  7.2803080E-01;  9.9999998E-03; -2.8045771E-01;6840; -2.7248880E-02;  0.0000000E+00; -1.3235731E-03;  1.0001725E+03;  1.2322966E-01;  1.4290904E+02;3;  1.3240129E+00;  0.0000000E+00; -1.9321671E+00;0; -1.5117618E-01;  2.6459467E+04;  0.0000000E+00; -6.9619741E+00;  4.0000000E+04;  0.0000000E+00;  3.9835711E+04; -1.7986615E-01;  0.0000000E+00;  2.8689964E-02;  1.5371798E+04;
  7.3985219E-01;  9.9999998E-03; -3.0056199E-01;6899; -3.0968329E-02;  0.0000000E+00; -5.4000486E-03;  9.9893823E+02;  1.2707217E-01; -8.7967517E+02;3;  2.3343225E+00;  0.0000000E+00; -2.4340576E-01;0; -1.6582018E-01;  2.4837869E+04;  0.0000000E+00; -1.5850519E+00;  4.0000000E+04;  0.0000000E+00;  3.9821441E+04; -2.1506624E-01;  0.0000000E+00;  4.9246062E-02;  4.6399702E+03;
  7.3998696E-01;  9.9999998E-03; -2.9053485E-01;6900; -3.0487934E-02;  0.0000000E+00; -4.7739688E-03;  9.9887903E+02;  1.2709336E-01; -9.2871063E+02;3;  1.9736741E+00;  0.0000000E+00; -8.1453878E-01;0; -1.6625334E-01;  2.4822488E+04;  0.0000000E+00; -2.5104616E+00;  4.0000000E+04;  0.0000000E+00;  3.9825637E+04; -2.1092765E-01;  0.0000000E+00;  4.4674303E-02;  6.2904897E+03;
  7.4006587E-01;  9.9999998E-03; -2.8050703E-01;6901; -2.9462242E-02;  0.0000000E+00; -4.3472932E-03;  9.9880096E+02;  1.2710109E-01; -9.9335052E+02;3;  1.4732143E+00;  0.0000000E+00; -1.0198799E+00;0; -1.6285950E-01;  2.4811371E+04;  0.0000000E+00; -2.7313685E+00;  4.0000000E+04;  0.0000000E+00;  3.9831066E+04; -2.0609537E-01;  0.0000000E+00;  4.3235872E-02;  6.6374009E+03;
  7.5238127E-01;  9.9999998E-03; -3.0062613E-01;6960; -3.3961903E-02;  0.0000000E+00; -8.0269901E-03;  9.9710596E+02;  1.3126206E-01; -2.3976487E+03;3;  2.7480094E+00;  0.0000000E+00;  3.3795792E-01;0; -1.8767367E-01;  2.3198461E+04;  0.0000000E+00;  7.9898424E+00;  4.0000000E+04;  0.0000000E+00;  3.9816453E+04; -2.4364209E-01;  0.0000000E+00;  5.5968422E-02;  1.8121217E+04;
  7.5258857E-01;  9.9999998E-03; -2.9059616E-01;6961; -3.3424091E-02;  0.0000000E+00; -7.5817341E-03;  9.9709827E+02;  1.3129662E-01; -2.4040188E+03;3;  2.2216198E+00;  0.0000000E+00;  1.0869348E-01;0; -1.8514222E-01;  2.3181926E+04;  0.0000000E+00;  4.8911133E+00;  4.0000000E+04;  0.0000000E+00;  3.9821242E+04; -2.3888953E-01;  0.0000000E+00;  5.3747315E-02;  1.1147567E+04;
  7.5274360E-01;  9.9999998E-03; -2.8056318E-01;6962; -3.2380443E-02;  0.0000000E+00; -7.3879589E-03;  9.9711609E+02;  1.3131988E-01; -2.3892539E+03;3;  1.6315693E+00;  0.0000000E+00;  1.5896123E-02;0; -1.7921807E-01;  2.3169311E+04;  0.0000000E+00;  2.5621381E+00;  4.0000000E+04;  0.0000000E+00;  3.9828914E+04; -2.3347454E-01;  0.0000000E+00;  5.4256473E-02;  6.0659219E+03;
  7.6642436E-01;  9.9999998E-03; -3.0071104E-01;7021; -3.7963148E-02;  0.0000000E+00; -1.0976491E-02;  9.9574390E+02;  1.3612179E-01; -3.5261008E+03;3;  3.0737200E+00;  0.0000000E+00;  1.1567000E+00;0; -2.0617174E-01;  2.1517166E+04;  0.0000000E+00;  1.2195621E+01;  4.0000000E+04;  0.0000000E+00;  3.9803312E+04; -2.6773390E-01;  0.0000000E+00;  6.1562166E-02;  3.1827943E+04;
  7.6653594E-01;  9.9999998E-03; -2.9067740E-01;7022; -3.7385859E-02;  0.0000000E+00; -1.0657910E-02;  9.9580127E+02;  1.3612278E-01; -3.4785469E+03;3;  2.4390645E+00;  0.0000000E+00;  1.1358408E+00;0; -2.0043270E-01;  2.1515113E+04;  0.0000000E+00;  8.2111425E+00;  4.0000000E+04;  0.0000000E+00;  3.9810059E+04; -2.6122513E-01;  0.0000000E+00;  6.0792435E-02;  2.1888889E+04;
  7.6659083E-01;  9.9999998E-03; -2.8063923E-01;7023; -3.6297347E-02;  0.0000000E+00; -1.0466151E-02;  9.9592297E+02;  1.3611251E-01; -3.3777107E+03;3;  1.7842411E+00;  0.0000000E+00;  1.0879543E+00;0; -1.9434911E-01;  2.1517762E+04;  0.0000000E+00;  4.9842582E+00;  4.0000000E+04;  0.0000000E+00;  3.9820375E+04; -2.5430050E-01;  0.0000000E+00;  5.9951387E-02;  1.4001408E+04;
  7.8192168E-01;  9.9999998E-03; -3.0082017E-01;7082; -4.3452065E-02;  0.0000000E+00; -1.4074409E-02;  9.9498352E+02;  1.4179982E-01; -4.1560479E+03;3;  3.3176122E+00;  0.0000000E+00;  2.0651510E+00;0; -1.9595912E-01;  1.9795801E+04;  0.0000000E+00;  9.3949060E+00;  4.0000000E+04;  0.0000000E+00;  3.9782016E+04; -2.5784725E-01;  0.0000000E+00;  6.1888121E-02;  3.0991594E+04;
  7.8181750E-01;  9.9999998E-03; -2.9078314E-01;7083; -4.2677842E-02;  0.0000000E+00; -1.3693370E-02;  9.9516193E+02;  1.4171523E-01; -4.0082014E+03;3;  2.6181457E+00;  0.0000000E+00;  2.2362120E+00;0; -1.9003756E-01;  1.9822348E+04;  0.0000000E+00;  6.1188226E+00;  4.0000000E+04;  0.0000000E+00;  3.9790453E+04; -2.4917832E-01;  0.0000000E+00;  5.9140757E-02;  2.1196232E+04;
  7.8163737E-01;  9.9999998E-03; -2.8074086E-01;7084; -4.1402377E-02;  0.0000000E+00; -1.3388507E-02;  9.9537976E+02;  1.4161302E-01; -3.8277634E+03;3;  1.9123544E+00;  0.0000000E+00;  2.2674148E+00;0; -1.8523988E-01;  1.9853451E+04;  0.0000000E+00;  3.6408584E+00;  4.0000000E+04;  0.0000000E+00;  3.9803262E+04; -2.4083291E-01;  0.0000000E+00;  5.5593029E-02;  1.4017674E+04;
  7.9719919E-01;  9.9999998E-03; -3.0093282E-01;7143; -5.0072558E-02;  0.0000000E+00; -1.6492084E-02;  9.9377875E+02;  1.4773744E-01; -5.1541245E+03;3;  3.4396272E+00;  0.0000000E+00;  2.8650117E+00;0; -1.1528263E-01;  1.8182566E+04;  0.0000000E+00;  8.4727736E+00;  4.0000000E+04;  0.0000000E+00;  3.9767617E+04; -1.6098145E-01;  0.0000000E+00;  4.5698814E-02;  3.2561596E+04;
  7.9730648E-01;  9.9999998E-03; -2.9089755E-01;7144; -4.9035177E-02;  0.0000000E+00; -1.6123410E-02;  9.9419482E+02;  1.4772008E-01; -4.8094463E+03;3;  2.6864233E+00;  0.0000000E+00;  3.1611016E+00;0; -1.0817964E-01;  1.8197457E+04;  0.0000000E+00;  4.6547575E+00;  4.0000000E+04;  0.0000000E+00;  3.9774430E+04; -1.4827190E-01;  0.0000000E+00;  4.0092260E-02;  2.0397752E+04;
  7.9719216E-01;  9.9999998E-03; -2.8085616E-01;7145; -4.7502182E-02;  0.0000000E+00; -1.5638757E-02;  9.9460211E+02;  1.4763008E-01; -4.4720273E+03;3;  1.9699000E+00;  0.0000000E+00;  3.4294801E+00;0; -1.0618369E-01;  1.8229354E+04;  0.0000000E+00;  2.2338364E+00;  4.0000000E+04;  0.0000000E+00;  3.9785949E+04; -1.3851696E-01;  0.0000000E+00;  3.2333270E-02;  1.2884332E+04;
  8.1145078E-01;  9.9999998E-03; -3.0103630E-01;7204; -5.7466093E-02;  0.0000000E+00; -1.7841386E-02;  9.9205341E+02;  1.5339956E-01; -6.5835371E+03;3;  3.3515227E+00;  0.0000000E+00;  3.5532887E+00;0;  6.9157764E-02;  1.6798758E+04;  0.0000000E+00;  6.2940006E+00;  4.0000000E+04;  0.0000000E+00;  3.9760191E+04;  6.2860206E-02;  0.0000000E+00;  6.2975590E-03;  2.4286406E+04;
  8.1152791E-01;  9.9999998E-03; -2.9100159E-01;7205; -5.5738453E-02;  0.0000000E+00; -1.7444368E-02;  9.9259863E+02;  1.5337129E-01; -6.1318022E+03;3;  2.5911474E+00;  0.0000000E+00;  4.0594254E+00;0;  7.5370520E-02;  1.6818912E+04;  0.0000000E+00;  3.8648927E+00;  4.0000000E+04;  0.0000000E+00;  3.9765281E+04;  7.7400923E-02;  0.0000000E+00; -2.0304015E-03;  1.6755123E+04;
  8.1147963E-01;  9.9999998E-03; -2.8096250E-01;7206; -5.3770568E-02;  0.0000000E+00; -1.6924782E-02;  9.9307782E+02;  1.5331338E-01; -5.7348306E+03;3;  1.8823791E+00;  0.0000000E+00;  4.4930429E+00;0;  7.7555180E-02;  1.6843668E+04;  0.0000000E+00;  2.3657866E+00;  4.0000000E+04;  0.0000000E+00;  3.9773734E+04;  8.8328212E-02;  0.0000000E+00; -1.0773029E-02;  1.2783821E+04;
  8.2515293E-01;  9.9999998E-03; -2.8107083E-01;7267; -6.0055938E-02;  0.0000000E+00; -1.7839706E-02;  9.9134045E+02;  1.5888590E-01; -7.1741602E+03;3;  1.6379430E+00;  0.0000000E+00;  5.7757998E+00;0;  3.9582729E-01;  1.5635448E+04;  0.0000000E+00;  2.1370282E+00;  4.0000000E+04;  0.0000000E+00;  3.9756012E+04;  4.6553287E-01;  0.0000000E+00; -6.9705561E-02;  1.0939635E+04;
  8.2521224E-01;  9.9999998E-03; -2.9110667E-01;7266; -6.2645495E-02;  0.0000000E+00; -1.7962513E-02;  9.9075433E+02;  1.5894727E-01; -7.6597690E+03;3;  2.2957406E+00;  0.0000000E+00;  5.2800946E+00;0;  3.8867226E-01;  1.5607979E+04;  0.0000000E+00;  2.6573257E+00;  4.0000000E+04;  0.0000000E+00;  3.9752641E+04;  4.5654535E-01;  0.0000000E+00; -6.7873098E-02;  1.1279204E+04;
  8.2523757E-01;  9.9999998E-03; -3.0114070E-01;7265; -6.5310761E-02;  0.0000000E+00; -1.8181806E-02;  9.9011664E+02;  1.5901026E-01; -8.1880420E+03;3;  2.9966483E+00;  0.0000000E+00;  4.6323180E+00;0;  3.8467601E-01;  1.5579614E+04;  0.0000000E+00;  3.5106874E+00;  4.0000000E+04;  0.0000000E+00;  3.9750254E+04;  4.4547817E-01;  0.0000000E+00; -6.0802151E-02;  1.2623706E+04;
  8.4136587E-01;  9.9999998E-03; -3.0127299E-01;7326; -7.4211270E-02;  0.0000000E+00; -1.9196872E-02;  9.8939569E+02;  1.6527095E-01; -8.7853135E+03;3;  2.0519199E+00;  0.0000000E+00;  5.5833483E+00;0;  9.7645879E-01;  1.4425438E+04;  0.0000000E+00;  2.1135280E-01;  4.0000000E+04;  0.0000000E+00;  3.9718746E+04;  1.1269437E+00;  0.0000000E+00; -1.5048492E-01;  1.2424917E+04;
  8.4136748E-01;  9.9999998E-03; -2.9124293E-01;7327; -7.0377506E-02;  0.0000000E+00; -1.9237606E-02;  9.9008673E+02;  1.6520688E-01; -8.2127979E+03;3;  1.5842628E+00;  0.0000000E+00;  6.3082795E+00;0;  9.7643888E-01;  1.4453264E+04;  0.0000000E+00;  8.4476590E-01;  4.0000000E+04;  0.0000000E+00;  3.9715918E+04;  1.1336010E+00;  0.0000000E+00; -1.5716209E-01;  9.8608867E+03;
  8.4122491E-01;  9.9999998E-03; -2.8121349E-01;7328; -6.6890180E-02;  0.0000000E+00; -1.9527389E-02;  9.9072137E+02;  1.6511266E-01; -7.6870454E+03;3;  1.1120728E+00;  0.0000000E+00;  6.9084253E+00;0;  9.8124707E-01;  1.4486455E+04;  0.0000000E+00;  1.4722368E+00;  4.0000000E+04;  0.0000000E+00;  3.9712414E+04;  1.1327641E+00;  0.0000000E+00; -1.5151705E-01;  7.9896064E+03;
  8.5819238E-01;  9.9999998E-03; -2.8138056E-01;7389; -7.2807848E-02;  0.0000000E+00; -2.2246376E-02;  9.9239062E+02;  1.7163262E-01; -6.3040635E+03;3;  1.9138449E-01;  0.0000000E+00;  7.7440825E+00;0;  1.8231070E+00;  1.3495423E+04;  0.0000000E+00;  6.8975186E-01;  4.0000000E+04;  0.0000000E+00;  3.9642352E+04;  2.0758934E+00;  0.0000000E+00; -2.5278646E-01;  5.2651206E+03;
  8.5813719E-01;  9.9999998E-03; -2.9139811E-01;7388; -7.7260934E-02;  0.0000000E+00; -2.1521382E-02;  9.9176648E+02;  1.7166857E-01; -6.8211724E+03;3;  3.1905732E-01;  0.0000000E+00;  6.8234577E+00;0;  1.8113636E+00;  1.3472532E+04;  0.0000000E+00; -3.1006444E-01;  4.0000000E+04;  0.0000000E+00;  3.9654676E+04;  2.0760193E+00;  0.0000000E+00; -2.6465574E-01;  1.1111999E+04;
  8.5796106E-01;  9.9999998E-03; -3.0142167E-01;7387; -8.2417563E-02;  0.0000000E+00; -2.1369629E-02;  9.9108466E+02;  1.7167854E-01; -7.3860322E+03;3;  3.5220125E-01;  0.0000000E+00;  5.7887554E+00;0;  1.8146898E+00;  1.3454543E+04;  0.0000000E+00; -1.6757048E+00;  4.0000000E+04;  0.0000000E+00;  3.9664223E+04;  2.0685360E+00;  0.0000000E+00; -2.5384629E-01;  1.7776262E+04;
  8.7726128E-01;  9.9999998E-03; -2.8154179E-01;7450; -7.7396668E-02;  0.0000000E+00; -2.7915366E-02;  9.9616461E+02;  1.7795585E-01; -3.1774373E+03;3; -1.3579618E+00;  0.0000000E+00;  8.0013371E+00;0;  2.9419618E+00;  1.2695611E+04;  0.0000000E+00;  7.3515379E-01;  4.0000000E+04;  0.0000000E+00;  3.9565102E+04;  3.3029094E+00;  0.0000000E+00; -3.6094767E-01;  4.8028750E+03;
  8.7705350E-01;  9.9999998E-03; -2.9154748E-01;7449; -8.3222896E-02;  0.0000000E+00; -2.7326807E-02;  9.9564307E+02;  1.7794767E-01; -3.6095100E+03;3; -1.8296244E+00;  0.0000000E+00;  6.8018055E+00;0;  2.9383402E+00;  1.2680314E+04;  0.0000000E+00;  4.9450585E-01;  4.0000000E+04;  0.0000000E+00;  3.9588414E+04;  3.3077545E+00;  0.0000000E+00; -3.6941433E-01;  3.5157122E+03;
  8.7670797E-01;  9.9999998E-03; -3.0156645E-01;7448; -9.0466082E-02;  0.0000000E+00; -2.7568147E-02;  9.9501001E+02;  1.7790322E-01; -4.1339731E+03;3; -2.6181264E+00;  0.0000000E+00;  5.2682018E+00;0;  2.9577999E+00;  1.2670412E+04;  0.0000000E+00; -2.5708210E-01;  4.0000000E+04;  0.0000000E+00;  3.9604055E+04;  3.3016670E+00;  0.0000000E+00; -3.4386715E-01;  6.6645088E+03;
  8.9619344E-01;  9.9999998E-03; -3.0164108E-01;7509; -1.0131808E-01;  0.0000000E+00; -5.0028842E-02;  9.9974670E+02;  1.8260150E-01; -2.0986160E+02;3; -1.0637389E+01;  0.0000000E+00; -5.9951216E-01;0;  4.3161535E+00;  1.2160943E+04;  0.0000000E+00;  2.0965786E-01;  4.0000000E+04;  0.0000000E+00;  3.9594160E+04;  4.5063872E+00;  0.0000000E+00; -1.9023348E-01;  1.5798140E+03;
  8.9652592E-01;  9.9999998E-03; -2.9161796E-01;7510; -9.0076230E-02;  0.0000000E+00; -4.5250222E-02;  1.0002219E+03;  1.8262097E-01;  1.8378935E+02;3; -7.6923919E+00;  0.0000000E+00;  2.8502202E+00;0;  4.1867638E+00;  1.2170702E+04;  0.0000000E+00;  3.7533295E-01;  4.0000000E+04;  0.0000000E+00;  3.9576938E+04;  4.4939489E+00;  0.0000000E+00; -3.0718517E-01;  2.2340767E+03;
  8.9666468E-01;  9.9999998E-03; -2.8161037E-01;7511; -8.1849970E-02;  0.0000000E+00; -4.2186152E-02;  1.0005534E+03;  1.8260607E-01;  4.5843634E+02;3; -6.1740451E+00;  0.0000000E+00;  5.3588648E+00;0;  4.0973148E+00;  1.2185333E+04;  0.0000000E+00;  2.0088373E-01;  4.0000000E+04;  0.0000000E+00;  3.9548160E+04;  4.4639001E+00;  0.0000000E+00; -3.6658537E-01;  5.0533135E+03;
  9.1631126E-01;  9.9999998E-03; -3.0172640E-01;7570;  2.2975722E-01;  0.0000000E+00; -4.9394388E-02;  1.0016786E+03;  1.8530858E-01;  1.3905961E+03;3; -1.0765599E+02;  0.0000000E+00;  7.3636074E+00;0;  4.8023257E+00;  1.1886891E+04;  0.0000000E+00;  5.3435636E-01;  4.0000000E+04;  0.0000000E+00;  3.9508938E+04;  5.2344251E+00;  0.0000000E+00; -4.3209922E-01;  9.6121006E+03;
  9.1649115E-01;  9.9999998E-03; -2.9170623E-01;7571;  2.3968083E-01;  0.0000000E+00; -5.3030308E-02;  1.0018860E+03;  1.8529700E-01;  1.5624329E+03;3; -1.0304048E+02;  0.0000000E+00;  8.1664391E+00;0;  4.7857556E+00;  1.1897335E+04;  0.0000000E+00;  1.7009273E-01;  4.0000000E+04;  0.0000000E+00;  3.9482293E+04;  5.1860046E+00;  0.0000000E+00; -4.0024897E-01;  1.2192735E+04;
  9.1652417E-01;  9.9999998E-03; -2.8169957E-01;7572;  2.4965645E-01;  0.0000000E+00; -5.8034346E-02;  1.0020619E+03;  1.8526223E-01;  1.7080992E+03;3; -9.8028519E+01;  0.0000000E+00;  9.1451311E+00;0;  4.7926154E+00;  1.1910658E+04;  0.0000000E+00; -1.5648818E-01;  4.0000000E+04;  0.0000000E+00;  3.9452648E+04;  5.1254578E+00;  0.0000000E+00; -3.3284253E-01;  1.5662503E+04;
  9.3594319E-01;  9.9999998E-03; -3.0173224E-01;7631;  4.2787373E-01;  0.0000000E+00; -7.2009563E-02;  1.0020519E+03;  1.8641146E-01;  1.6998689E+03;3; -6.9612625E+01;  0.0000000E+00;  5.8427806E+00;0;  4.8369288E+00;  1.1765326E+04;  0.0000000E+00;  3.1438284E+00;  4.0000000E+04;  0.0000000E+00;  3.9469695E+04;  5.0448995E+00;  0.0000000E+00; -2.0797043E-01;  1.7708688E+04;
  9.3588215E-01;  9.9999998E-03; -2.9169953E-01;7632;  4.2849863E-01;  0.0000000E+00; -7.7533998E-02;  1.0022746E+03;  1.8638155E-01;  1.8843434E+03;3; -6.6047836E+01;  0.0000000E+00;  6.0008779E+00;0;  4.8304720E+00;  1.1776315E+04;  0.0000000E+00;  2.0850673E+00;  4.0000000E+04;  0.0000000E+00;  3.9450648E+04;  4.9796600E+00;  0.0000000E+00; -1.4918822E-01;  1.7211332E+04;
  9.3573737E-01;  9.9999998E-03; -2.8167412E-01;7633;  4.3211937E-01;  0.0000000E+00; -8.4957667E-02;  1.0025599E+03;  1.8634059E-01;  2.1206646E+03;3; -6.1573742E+01;  0.0000000E+00;  5.6948662E+00;0;  4.8407645E+00;  1.1789129E+04;  0.0000000E+00;  1.1477430E+00;  4.0000000E+04;  0.0000000E+00;  3.9434613E+04;  4.9065166E+00;  0.0000000E+00; -6.5751873E-02;  1.7691912E+04;
  9.5617133E-01;  9.9999998E-03; -3.0167094E-01;7692;  5.4676831E-01;  0.0000000E+00; -8.9738213E-02;  1.0018965E+03;  1.8643342E-01;  1.5710491E+03;3; -2.7521591E+01;  0.0000000E+00; -3.3448980E+00;0;  4.2300062E+00;  1.1745725E+04;  0.0000000E+00;  5.0541782E+00;  4.0000000E+04;  0.0000000E+00;  3.9471199E+04;  4.1925879E+00;  0.0000000E+00;  3.7418187E-02;  2.1898273E+04;
  9.5587194E-01;  9.9999998E-03; -2.9162574E-01;7693;  5.4044110E-01;  0.0000000E+00; -9.4757982E-02;  1.0021689E+03;  1.8640356E-01;  1.7966987E+03;3; -2.5092188E+01;  0.0000000E+00; -3.5021946E+00;0;  4.2279286E+00;  1.1756233E+04;  0.0000000E+00;  4.0219302E+00;  4.0000000E+04;  0.0000000E+00;  3.9459156E+04;  4.1363659E+00;  0.0000000E+00;  9.1562793E-02;  1.9706734E+04;
  9.5553493E-01;  9.9999998E-03; -2.8158262E-01;7694;  5.3776652E-01;  0.0000000E+00; -1.0196093E-01;  1.0025649E+03;  1.8637054E-01;  2.1247551E+03;3; -2.1911085E+01;  0.0000000E+00; -4.6125979E+00;0;  4.2366729E+00;  1.1768268E+04;  0.0000000E+00;  2.7217388E+00;  4.0000000E+04;  0.0000000E+00;  3.9452812E+04;  4.0722914E+00;  0.0000000E+00;  1.6438128E-01;  1.7158121E+04;
  9.7579402E-01;  9.9999998E-03; -3.0159089E-01;7753;  6.0973555E-01;  0.0000000E+00; -9.3113348E-02;  1.0019370E+03;  1.8575633E-01;  1.6044683E+03;3;  9.0491362E+00;  0.0000000E+00; -1.4328749E+01;0;  3.2666533E+00;  1.1811898E+04;  0.0000000E+00;  3.9695559E+00;  4.0000000E+04;  0.0000000E+00;  3.9483363E+04;  3.0930457E+00;  0.0000000E+00;  1.7360753E-01;  1.8206340E+04;
  9.7535926E-01;  9.9999998E-03; -2.9153824E-01;7754;  5.9974056E-01;  0.0000000E+00; -9.6971564E-02;  1.0022723E+03;  1.8573192E-01;  1.8823489E+03;3;  1.0863050E+01;  0.0000000E+00; -1.4727718E+01;0;  3.2753565E+00;  1.1822528E+04;  0.0000000E+00;  3.5566831E+00;  4.0000000E+04;  0.0000000E+00;  3.9473629E+04;  3.0519168E+00;  0.0000000E+00;  2.2343966E-01;  1.7445932E+04;
  9.7489887E-01;  9.9999998E-03; -2.8148258E-01;7755;  5.9347665E-01;  0.0000000E+00; -1.0394048E-01;  1.0027285E+03;  1.8571296E-01;  2.2601636E+03;3;  1.4276746E+01;  0.0000000E+00; -1.4663033E+01;0;  3.3076632E+00;  1.1833507E+04;  0.0000000E+00;  2.6372263E+00;  4.0000000E+04;  0.0000000E+00;  3.9473133E+04;  3.0028045E+00;  0.0000000E+00;  3.0485871E-01;  1.4996875E+04;
  9.9452388E-01;  9.9999998E-03; -3.0152532E-01;7814;  6.4558506E-01;  0.0000000E+00; -8.5573100E-02;  1.0022500E+03;  1.8461919E-01;  1.8636968E+03;3;  4.2778343E+01;  0.0000000E+00; -2.3573265E+01;0;  2.3069458E+00;  1.1948641E+04;  0.0000000E+00;  9.9268800E-01;  4.0000000E+04;  0.0000000E+00;  3.9491855E+04;  2.0618064E+00;  0.0000000E+00;  2.4513929E-01;  1.0878045E+04;
  9.9407852E-01;  9.9999998E-03; -2.9146945E-01;7815;  6.3370275E-01;  0.0000000E+00; -8.8911295E-02;  1.0026526E+03;  1.8459833E-01;  2.1972571E+03;3;  4.3247368E+01;  0.0000000E+00; -2.3521236E+01;0;  2.3382242E+00;  1.1960090E+04;  0.0000000E+00;  1.1277877E+00;  4.0000000E+04;  0.0000000E+00;  3.9482031E+04;  2.0296931E+00;  0.0000000E+00;  3.0853099E-01;  1.1930188E+04;
  9.9358177E-01;  9.9999998E-03; -2.8140718E-01;7816;  6.2389833E-01;  0.0000000E+00; -9.5755719E-02;  1.0031427E+03;  1.8459094E-01;  2.6031985E+03;3;  4.6671608E+01;  0.0000000E+00; -2.3597441E+01;0;  2.4005280E+00;  1.1969866E+04;  0.0000000E+00;  1.0115792E+00;  4.0000000E+04;  0.0000000E+00;  3.9484844E+04;  1.9927512E+00;  0.0000000E+00;  4.0777680E-01;  1.1221472E+04;
  1.0107015E+00;  9.9999998E-03; -2.8136113E-01;7877;  6.4008385E-01;  0.0000000E+00; -7.9846643E-02;  1.0035533E+03;  1.8313725E-01;  2.9432136E+03;3;  7.3928673E+01;  0.0000000E+00; -3.1070091E+01;0;  1.6828513E+00;  1.2161919E+04;  0.0000000E+00;  9.6632518E-02;  4.0000000E+04;  0.0000000E+00;  3.9491258E+04;  1.2214028E+00;  0.0000000E+00;  4.6144858E-01;  9.8191416E+03;
  1.0110036E+00;  9.9999998E-03; -2.9142502E-01;7876;  6.5293032E-01;  0.0000000E+00; -7.4291758E-02;  1.0030430E+03;  1.8314184E-01;  2.5205090E+03;3;  7.2522194E+01;  0.0000000E+00; -3.0437462E+01;0;  1.6132598E+00;  1.2152254E+04;  0.0000000E+00;  2.9800490E-01;  4.0000000E+04;  0.0000000E+00;  3.9487375E+04;  1.2576656E+00;  0.0000000E+00;  3.5559410E-01;  1.0924849E+04;
  1.0113029E+00;  9.9999998E-03; -3.0148187E-01;7875;  6.6600651E-01;  0.0000000E+00; -7.1606413E-02;  1.0025864E+03;  1.8316132E-01;  2.1422378E+03;3;  7.2729729E+01;  0.0000000E+00; -3.0170870E+01;0;  1.5670507E+00;  1.2139665E+04;  0.0000000E+00;  6.7454576E-01;  4.0000000E+04;  0.0000000E+00;  3.9497086E+04;  1.2889781E+00;  0.0000000E+00;  2.7807257E-01;  1.1151129E+04;
  1.0272354E+00;  9.9999998E-03; -2.8133646E-01;7938;  6.4628708E-01;  0.0000000E+00; -5.8765810E-02;  1.0038304E+03;  1.8135244E-01;  3.1724702E+03;3;  8.6704659E+01;  0.0000000E+00; -3.3476040E+01;0;  1.1585194E+00;  1.2408017E+04;  0.0000000E+00; -6.3081481E-02;  4.0000000E+04;  0.0000000E+00;  3.9496578E+04;  6.7142117E-01;  0.0000000E+00;  4.8709819E-01;  9.7871084E+03;
  1.0274597E+00;  9.9999998E-03; -2.9139829E-01;7937;  6.6064531E-01;  0.0000000E+00; -5.4643437E-02;  1.0033597E+03;  1.8135522E-01;  2.7826716E+03;3;  8.7065254E+01;  0.0000000E+00; -3.3150608E+01;0;  1.0778725E+00;  1.2399540E+04;  0.0000000E+00;  5.4064757E-01;  4.0000000E+04;  0.0000000E+00;  3.9492664E+04;  6.9965714E-01;  0.0000000E+00;  3.7821540E-01;  1.2308638E+04;
  1.0276475E+00;  9.9999998E-03; -3.0145472E-01;7936;  6.7454785E-01;  0.0000000E+00; -5.2705936E-02;  1.0029094E+03;  1.8137160E-01;  2.4096589E+03;3;  8.7475929E+01;  0.0000000E+00; -3.3540150E+01;0;  1.0141438E+00;  1.2387701E+04;  0.0000000E+00;  1.5626358E+00;  4.0000000E+04;  0.0000000E+00;  3.9501008E+04;  7.2600490E-01;  0.0000000E+00;  2.8813896E-01;  1.5475805E+04;
  1.0439550E+00;  9.9999998E-03; -2.8132662E-01;7999;  6.4784020E-01;  0.0000000E+00; -3.4780126E-02;  1.0035758E+03;  1.7912742E-01;  2.9613196E+03;3;  9.0461029E+01;  0.0000000E+00; -3.1995001E+01;0;  8.2339805E-01;  1.2714190E+04;  0.0000000E+00; -5.9618121E-01;  4.0000000E+04;  0.0000000E+00;  3.9508117E+04;  3.1382793E-01;  0.0000000E+00;  5.0957012E-01;  7.9981260E+03;
  1.0441922E+00;  9.9999998E-03; -2.9138488E-01;7998;  6.6250420E-01;  0.0000000E+00; -3.1846866E-02;  1.0031495E+03;  1.7912495E-01;  2.6082795E+03;3;  9.1489799E+01;  0.0000000E+00; -3.2823322E+01;0;  7.2771382E-01;  1.2707723E+04;  0.0000000E+00;  3.0602664E-01;  4.0000000E+04;  0.0000000E+00;  3.9503883E+04;  3.2710510E-01;  0.0000000E+00;  4.0060875E-01;  1.1452504E+04;
  1.0443869E+00;  9.9999998E-03; -3.0144021E-01;7997;  6.7701286E-01;  0.0000000E+00; -3.0935267E-02;  1.0027542E+03;  1.7913160E-01;  2.2809092E+03;3;  9.2905540E+01;  0.0000000E+00; -3.3535793E+01;0;  6.5025675E-01;  1.2698905E+04;  0.0000000E+00;  1.7030270E+00;  4.0000000E+04;  0.0000000E+00;  3.9509516E+04;  3.4083945E-01;  0.0000000E+00;  3.0941734E-01;  1.6541654E+04;
  1.0615726E+00;  9.9999998E-03; -2.8132078E-01;8060;  6.4688551E-01;  0.0000000E+00; -9.8332362E-03;  1.0020771E+03;  1.7623708E-01;  1.7199592E+03;3;  9.1606827E+01;  0.0000000E+00; -2.8463062E+01;0;  6.7752975E-01;  1.3096333E+04;  0.0000000E+00; -1.7969657E+00;  4.0000000E+04;  0.0000000E+00;  3.9537109E+04;  1.2962598E-01;  0.0000000E+00;  5.4790378E-01;  3.8032498E+03;
  1.0618162E+00;  9.9999998E-03; -2.9137769E-01;8059;  6.6134757E-01;  0.0000000E+00; -7.2385073E-03;  1.0016531E+03;  1.7622913E-01;  1.3688378E+03;3;  9.2874374E+01;  0.0000000E+00; -3.0857847E+01;0;  5.5640632E-01;  1.3091428E+04;  0.0000000E+00; -1.0478411E+00;  4.0000000E+04;  0.0000000E+00;  3.9530457E+04;  1.2099461E-01;  0.0000000E+00;  4.3541169E-01;  5.6304995E+03;
  1.0620451E+00;  9.9999998E-03; -3.0143201E-01;8058;  6.7563295E-01;  0.0000000E+00; -7.3095355E-03;  1.0012888E+03;  1.7622641E-01;  1.0671724E+03;3;  9.4828644E+01;  0.0000000E+00; -3.1377638E+01;0;  4.6478650E-01;  1.3085212E+04;  0.0000000E+00;  2.6961428E-01;  4.0000000E+04;  0.0000000E+00;  3.9532469E+04;  1.1483181E-01;  0.0000000E+00;  3.4995469E-01;  1.0253650E+04;
  1.0809652E+00;  9.9999998E-03; -2.8130877E-01;8121;  6.4404052E-01;  0.0000000E+00;  1.3202218E-02;  9.9894623E+02;  1.7243074E-01; -8.7241473E+02;3;  9.2007103E+01;  0.0000000E+00; -2.2151506E+01;0;  7.5963444E-01;  1.3585339E+04;  0.0000000E+00; -2.3446636E+00;  4.0000000E+04;  0.0000000E+00;  3.9594570E+04;  1.3534380E-01;  0.0000000E+00;  6.2429065E-01;  4.3607500E+03;
  1.0812849E+00;  9.9999998E-03; -2.9137126E-01;8120;  6.5782613E-01;  0.0000000E+00;  1.7638605E-02;  9.9842108E+02;  1.7240557E-01; -1.3072113E+03;3;  9.3622673E+01;  0.0000000E+00; -2.3122538E+01;0;  5.8860433E-01;  1.3583487E+04;  0.0000000E+00; -1.7714247E+00;  4.0000000E+04;  0.0000000E+00;  3.9578676E+04;  9.5559731E-02;  0.0000000E+00;  4.9304461E-01;  1.0654471E+03;
  1.0816835E+00;  9.9999998E-03; -3.0142620E-01;8119;  6.7115247E-01;  0.0000000E+00;  1.6898423E-02;  9.9801111E+02;  1.7237027E-01; -1.6466157E+03;3;  9.5429581E+01;  0.0000000E+00; -2.6638147E+01;0;  4.8101354E-01;  1.3582132E+04;  0.0000000E+00; -5.6457955E-01;  4.0000000E+04;  0.0000000E+00;  3.9575152E+04;  6.1021432E-02;  0.0000000E+00;  4.1999212E-01;  5.2276748E+03;
  1.1002665E+00;  9.9999998E-03; -2.8128999E-01;8182;  6.3912100E-01;  0.0000000E+00;  3.3633228E-02;  9.9505786E+02;  1.6799501E-01; -4.0907100E+03;3;  9.2775475E+01;  0.0000000E+00; -2.7808701E+01;0;  1.0319664E+00;  1.4173745E+04;  0.0000000E+00; -2.5219150E+00;  4.0000000E+04;  0.0000000E+00;  3.9672949E+04;  3.8341519E-01;  0.0000000E+00;  6.4855129E-01;  1.2657598E+04;
  1.1007162E+00;  9.9999998E-03; -2.9136232E-01;8181;  6.5245289E-01;  0.0000000E+00;  3.2813836E-02;  9.9433392E+02;  1.6793804E-01; -4.6899180E+03;3;  9.3343102E+01;  0.0000000E+00; -1.2482546E+01;0;  9.4239271E-01;  1.4175685E+04;  0.0000000E+00; -2.2588122E+00;  4.0000000E+04;  0.0000000E+00;  3.9645633E+04;  3.1155276E-01;  0.0000000E+00;  6.3083994E-01;  8.9543789E+03;
  1.1012447E+00;  9.9999998E-03; -3.0142218E-01;8180;  6.6490424E-01;  0.0000000E+00;  3.7245490E-02;  9.9374194E+02;  1.6787197E-01; -5.1798843E+03;3;  9.5486687E+01;  0.0000000E+00; -1.8348566E+01;0;  7.3278022E-01;  1.4177976E+04;  0.0000000E+00; -1.3860605E+00;  4.0000000E+04;  0.0000000E+00;  3.9631766E+04;  2.4937150E-01;  0.0000000E+00;  4.8340875E-01;  8.1392949E+03;
  1.1179792E+00;  9.9999998E-03; -2.8128314E-01;8243;  6.3181239E-01;  0.0000000E+00;  6.4231053E-02;  9.9183789E+02;  1.6346173E-01; -6.7540732E+03;3;  9.3666573E+01;  0.0000000E+00; -4.0035015E+01;0;  1.2538819E+00;  1.4842372E+04;  0.0000000E+00; -3.6667385E+00;  4.0000000E+04;  0.0000000E+00;  3.9738375E+04;  8.7167954E-01;  0.0000000E+00;  3.8220239E-01;  2.0362826E+04;
  1.1184944E+00;  9.9999998E-03; -2.9135224E-01;8242;  6.4495182E-01;  0.0000000E+00;  4.4264227E-02;  9.9110553E+02;  1.6337804E-01; -7.3600308E+03;3;  9.5282387E+01;  0.0000000E+00; -2.2774809E+01;0;  1.4456639E+00;  1.4846859E+04;  0.0000000E+00; -3.9377172E+00;  4.0000000E+04;  0.0000000E+00;  3.9716883E+04;  7.7467412E-01;  0.0000000E+00;  6.7098981E-01;  1.7598441E+04;
  1.1190993E+00;  9.9999998E-03; -3.0142078E-01;8241;  6.5660125E-01;  0.0000000E+00;  4.6780311E-02;  9.9021838E+02;  1.6328558E-01; -8.0940513E+03;3;  9.6877792E+01;  0.0000000E+00; -8.3813124E+00;0;  1.2799053E+00;  1.4851247E+04;  0.0000000E+00; -3.3446040E+00;  4.0000000E+04;  0.0000000E+00;  3.9689160E+04;  6.9323730E-01;  0.0000000E+00;  5.8666807E-01;  1.3811237E+04;
  1.1342620E+00;  9.9999998E-03; -2.8130627E-01;8304;  6.2303889E-01;  0.0000000E+00;  9.8140307E-02;  9.8968250E+02;  1.5903953E-01; -8.5348643E+03;3;  9.3779243E+01;  0.0000000E+00; -3.2650047E+01;0;  1.5006213E+00;  1.5590197E+04;  0.0000000E+00; -5.5598130E+00;  4.0000000E+04;  0.0000000E+00;  3.9765363E+04;  1.5573879E+00;  0.0000000E+00; -5.6766577E-02;  2.4200125E+04;
  1.1345160E+00;  9.9999998E-03; -2.9135567E-01;8303;  6.3538218E-01;  0.0000000E+00;  7.0553474E-02;  9.8916577E+02;  1.5899776E-01; -8.9622480E+03;3;  9.5554893E+01;  0.0000000E+00; -3.7924564E+01;0;  1.7525526E+00;  1.5584971E+04;  0.0000000E+00; -5.8143787E+00;  4.0000000E+04;  0.0000000E+00;  3.9767105E+04;  1.4319899E+00;  0.0000000E+00;  3.2056269E-01;  2.4168207E+04;
  1.1348624E+00;  9.9999998E-03; -3.0142158E-01;8302;  6.4542782E-01;  0.0000000E+00;  5.4405849E-02;  9.8820795E+02;  1.5895674E-01; -9.7545176E+03;3;  9.8360558E+01;  0.0000000E+00; -1.9376245E+01;0;  1.8943870E+00;  1.5578346E+04;  0.0000000E+00; -4.8077044E+00;  4.0000000E+04;  0.0000000E+00;  3.9740414E+04;  1.3281727E+00;  0.0000000E+00;  5.6621426E-01;  2.0081961E+04;
  1.1491506E+00;  9.9999998E-03; -2.8135464E-01;8365;  6.1199820E-01;  0.0000000E+00;  1.1788928E-01;  9.8858221E+02;  1.5486328E-01; -9.4414727E+03;3;  1.0230407E+02;  0.0000000E+00; -1.7188969E+01;0;  1.9526742E+00;  1.6399215E+04;  0.0000000E+00; -6.9002066E+00;  4.0000000E+04;  0.0000000E+00;  3.9756133E+04;  2.3470628E+00;  0.0000000E+00; -3.9438862E-01;  2.4017898E+04;
  1.1493872E+00;  9.9999998E-03; -2.9138717E-01;8364;  6.2407368E-01;  0.0000000E+00;  1.0031629E-01;  9.8820184E+02;  1.5482484E-01; -9.7559111E+03;3;  9.7332817E+01;  0.0000000E+00; -2.3090265E+01;0;  2.0242193E+00;  1.6390016E+04;  0.0000000E+00; -6.6707253E+00;  4.0000000E+04;  0.0000000E+00;  3.9776293E+04;  2.2133436E+00;  0.0000000E+00; -1.8912445E-01;  2.5518820E+04;
  1.1497637E+00;  9.9999998E-03; -3.0143586E-01;8363;  6.3158047E-01;  0.0000000E+00;  7.5465582E-02;  9.8741327E+02;  1.5478159E-01; -1.0407869E+04;3;  1.0092997E+02;  0.0000000E+00; -3.0195648E+01;0;  2.3036201E+00;  1.6380605E+04;  0.0000000E+00; -4.8372951E+00;  4.0000000E+04;  0.0000000E+00;  3.9771582E+04;  2.1078761E+00;  0.0000000E+00;  1.9574396E-01;  2.3440672E+04;
  1.1638482E+00;  9.9999998E-03; -2.8141937E-01;8426;  5.9941864E-01;  0.0000000E+00;  1.2480054E-01;  9.8840009E+02;  1.5076856E-01; -9.5875664E+03;3;  9.7199272E+01;  0.0000000E+00;  1.3475211E+01;0;  2.5663810E+00;  1.7300467E+04;  0.0000000E+00; -8.0144215E+00;  4.0000000E+04;  0.0000000E+00;  3.9724254E+04;  3.1927004E+00;  0.0000000E+00; -6.2631947E-01;  2.1940666E+04;
  1.1642329E+00;  9.9999998E-03; -2.9144254E-01;8425;  6.0879487E-01;  0.0000000E+00;  1.1390459E-01;  9.8803168E+02;  1.5070681E-01; -9.8919355E+03;3;  1.0301264E+02;  0.0000000E+00;  5.4732317E-01;0;  2.5477247E+00;  1.7293354E+04;  0.0000000E+00; -7.0452056E+00;  4.0000000E+04;  0.0000000E+00;  3.9752434E+04;  3.0740931E+00;  0.0000000E+00; -5.2636832E-01;  2.3074562E+04;
  1.1647767E+00;  9.9999998E-03; -3.0147612E-01;8424;  6.1378068E-01;  0.0000000E+00;  9.8044850E-02;  9.8736865E+02;  1.5063231E-01; -1.0439744E+04;3;  1.0631289E+02;  0.0000000E+00; -1.4425752E+01;0;  2.6933186E+00;  1.7286889E+04;  0.0000000E+00; -3.7356737E+00;  4.0000000E+04;  0.0000000E+00;  3.9767250E+04;  2.9837494E+00;  0.0000000E+00; -2.9043078E-01;  2.1797592E+04;
  1.1786475E+00;  9.9999998E-03; -2.8148785E-01;8487;  6.0584867E-01;  0.0000000E+00;  1.0973100E-01;  9.8899274E+02;  1.4674899E-01; -9.0924004E+03;3; -1.4877492E+01;  0.0000000E+00;  3.4194530E+01;0;  3.3790853E+00;  1.8295350E+04;  0.0000000E+00; -1.0041103E+01;  4.0000000E+04;  0.0000000E+00;  3.9683855E+04;  3.9891648E+00;  0.0000000E+00; -6.1007953E-01;  2.2136660E+04;
  1.1791592E+00;  9.9999998E-03; -2.9150826E-01;8486;  6.0252404E-01;  0.0000000E+00;  1.0888979E-01;  9.8851093E+02;  1.4666806E-01; -9.4902061E+03;3;  3.1912975E+01;  0.0000000E+00;  2.3493053E+01;0;  3.2589209E+00;  1.8289131E+04;  0.0000000E+00; -7.9469814E+00;  4.0000000E+04;  0.0000000E+00;  3.9712258E+04;  3.8966999E+00;  0.0000000E+00; -6.3777906E-01;  2.0402881E+04;
  1.1798540E+00;  9.9999998E-03; -3.0153522E-01;8485;  6.0235953E-01;  0.0000000E+00;  1.0495181E-01;  9.8777911E+02;  1.4657004E-01; -1.0094346E+04;3;  4.7776451E+01;  0.0000000E+00;  7.1892138E+00;0;  3.2381525E+00;  1.8283330E+04;  0.0000000E+00; -1.9555533E+00;  4.0000000E+04;  0.0000000E+00;  3.9735508E+04;  3.8260970E+00;  0.0000000E+00; -5.8794439E-01;  1.6637609E+04;
  1.1931000E+00;  9.9999998E-03; -2.8154606E-01;8548;  6.9762015E-01;  0.0000000E+00;  9.0942621E-02;  9.9022485E+02;  1.4296277E-01; -8.0689111E+03;3; -1.1734824E+02;  0.0000000E+00;  3.6078629E+01;0;  4.0296674E+00;  1.9340027E+04;  0.0000000E+00; -1.1861701E+01;  4.0000000E+04;  0.0000000E+00;  3.9647949E+04;  4.6156206E+00;  0.0000000E+00; -5.8595312E-01;  2.4123053E+04;
  1.1937859E+00;  9.9999998E-03; -2.9156846E-01;8547;  6.8273848E-01;  0.0000000E+00;  9.3823947E-02;  9.8953754E+02;  1.4286381E-01; -8.6359180E+03;3; -1.2018842E+02;  0.0000000E+00;  3.2408718E+01;0;  3.9132915E+00;  1.9333414E+04;  0.0000000E+00; -8.2793922E+00;  4.0000000E+04;  0.0000000E+00;  3.9672887E+04;  4.5544815E+00;  0.0000000E+00; -6.4119017E-01;  1.8224221E+04;
  1.1945856E+00;  9.9999998E-03; -3.0159503E-01;8546;  6.7165023E-01;  0.0000000E+00;  9.5845059E-02;  9.8856793E+02;  1.4275558E-01; -9.4358154E+03;3; -1.2351908E+02;  0.0000000E+00;  2.9395847E+01;0;  3.8394070E+00;  1.9321988E+04;  0.0000000E+00;  1.9241161E+00;  4.0000000E+04;  0.0000000E+00;  3.9697078E+04;  4.5034032E+00;  0.0000000E+00; -6.6399616E-01;  1.2241678E+04;
  1.2072356E+00;  9.9999998E-03; -2.8159231E-01;8609;  8.0549258E-01;  0.0000000E+00;  7.0091434E-02;  9.9165417E+02;  1.3937078E-01; -6.8831582E+03;3; -1.3345454E+02;  0.0000000E+00;  4.2715794E+01;0;  4.4933357E+00;  2.0424369E+04;  0.0000000E+00; -1.5336149E+01;  4.0000000E+04;  0.0000000E+00;  3.9619004E+04;  5.0355577E+00;  0.0000000E+00; -5.4222208E-01;  3.0565877E+04;
  1.2080057E+00;  9.9999998E-03; -2.9161799E-01;8608;  7.9421884E-01;  0.0000000E+00;  7.5380765E-02;  9.9069177E+02;  1.3926397E-01; -7.6764688E+03;3; -1.3672928E+02;  0.0000000E+00;  4.0118813E+01;0;  4.3945312E+00;  2.0411342E+04;  0.0000000E+00; -9.7680893E+00;  4.0000000E+04;  0.0000000E+00;  3.9640840E+04;  5.0055380E+00;  0.0000000E+00; -6.1100698E-01;  1.9791977E+04;
  1.2088064E+00;  9.9999998E-03; -3.0164552E-01;8607;  7.8250980E-01;  0.0000000E+00;  7.9394892E-02;  9.8938977E+02;  1.3915914E-01; -8.7497480E+03;3; -1.4112744E+02;  0.0000000E+00;  3.7999947E+01;0;  4.3287930E+00;  2.0386787E+04;  0.0000000E+00;  6.5113931E+00;  4.0000000E+04;  0.0000000E+00;  3.9665527E+04;  4.9750938E+00;  0.0000000E+00; -6.4630079E-01;  1.5452979E+04;
  1.2210701E+00;  9.9999998E-03; -2.8162536E-01;8670;  9.0919775E-01;  0.0000000E+00;  4.8501775E-02;  9.9300940E+02;  1.3596745E-01; -5.7594819E+03;3; -1.3858730E+02;  0.0000000E+00;  4.6883327E+01;0;  4.7456970E+00;  2.1534598E+04;  0.0000000E+00; -2.1195108E+01;  4.0000000E+04;  0.0000000E+00;  3.9598449E+04;  5.2285552E+00;  0.0000000E+00; -4.8285836E-01;  4.1143316E+04;
  1.2219682E+00;  9.9999998E-03; -2.9165456E-01;8669;  9.0290284E-01;  0.0000000E+00;  5.5158067E-02;  9.9163031E+02;  1.3585249E-01; -6.8951675E+03;3; -1.4209230E+02;  0.0000000E+00;  4.5430050E+01;0;  4.6772704E+00;  2.1509656E+04;  0.0000000E+00; -1.3161869E+01;  4.0000000E+04;  0.0000000E+00;  3.9619188E+04;  5.2316704E+00;  0.0000000E+00; -5.5439985E-01;  2.5681822E+04;
  1.2227168E+00;  9.9999998E-03; -3.0168387E-01;8668;  8.9069176E-01;  0.0000000E+00;  6.0555737E-02;  9.8991931E+02;  1.3576193E-01; -8.3042207E+03;3; -1.4758562E+02;  0.0000000E+00;  4.3762695E+01;0;  4.6296978E+00;  2.1464795E+04;  0.0000000E+00;  1.2181347E+01;  4.0000000E+04;  0.0000000E+00;  3.9644125E+04;  5.2249660E+00;  0.0000000E+00; -5.9526831E-01;  2.4152834E+04;
  1.2343665E+00;  9.9999998E-03; -2.8164959E-01;8731;  1.0012923E+00;  0.0000000E+00;  2.7827661E-02;  9.9423785E+02;  1.3281481E-01; -4.7416128E+03;3; -1.3602733E+02;  0.0000000E+00;  4.8969158E+01;0;  4.7937140E+00;  2.2640305E+04;  0.0000000E+00; -2.7264317E+01;  4.0000000E+04;  0.0000000E+00;  3.9584438E+04;  5.2063785E+00;  0.0000000E+00; -4.1266459E-01;  5.0237754E+04;
  1.2353796E+00;  9.9999998E-03; -2.9168168E-01;8730;  9.9966425E-01;  0.0000000E+00;  3.5225768E-02;  9.9233099E+02;  1.3269743E-01; -6.3101074E+03;3; -1.3933255E+02;  0.0000000E+00;  4.8285736E+01;0;  4.7569366E+00;  2.2595340E+04;  0.0000000E+00; -1.6368357E+01;  4.0000000E+04;  0.0000000E+00;  3.9605977E+04;  5.2393408E+00;  0.0000000E+00; -4.8240408E-01;  3.0444742E+04;
  1.2358663E+00;  9.9999998E-03; -3.0171487E-01;8729;  9.8540062E-01;  0.0000000E+00;  4.1491468E-02;  9.9045752E+02;  1.3264647E-01; -7.8511836E+03;3; -1.4632352E+02;  0.0000000E+00;  4.8019180E+01;0;  4.7369885E+00;  2.2530098E+04;  0.0000000E+00;  1.9623901E+01;  4.0000000E+04;  0.0000000E+00;  3.9628707E+04;  5.2575426E+00;  0.0000000E+00; -5.2055395E-01;  3.5803254E+04;
  1.2472091E+00;  9.9999998E-03; -2.8166780E-01;8792;  1.0835309E+00;  0.0000000E+00;  8.9240931E-03;  9.9527570E+02;  1.2992214E-01; -3.8820693E+03;3; -1.2743378E+02;  0.0000000E+00;  4.9364330E+01;0;  4.6730652E+00;  2.3723686E+04;  0.0000000E+00; -3.1175903E+01;  4.0000000E+04;  0.0000000E+00;  3.9575469E+04;  5.0091772E+00;  0.0000000E+00; -3.3611217E-01;  5.3544973E+04;
  1.2482404E+00;  9.9999998E-03; -3.0174428E-01;8790;  1.0671145E+00;  0.0000000E+00;  2.3158174E-02;  9.9146893E+02;  1.2982380E-01; -7.0092817E+03;3; -1.3938477E+02;  0.0000000E+00;  4.9713085E+01;0;  4.6896477E+00;  2.3588125E+04;  0.0000000E+00;  2.9496552E+01;  4.0000000E+04;  0.0000000E+00;  3.9612867E+04;  5.1179204E+00;  0.0000000E+00; -4.2827252E-01;  5.0080566E+04;
  1.2482306E+00;  9.9999998E-03; -2.9170302E-01;8791;  1.0849721E+00;  0.0000000E+00;  1.6270697E-02;  9.9286731E+02;  1.2981936E-01; -5.8603540E+03;3; -1.3029831E+02;  0.0000000E+00;  4.9611530E+01;0;  4.6750183E+00;  2.3652473E+04;  0.0000000E+00; -1.6146893E+01;  4.0000000E+04;  0.0000000E+00;  3.9597805E+04;  5.0695233E+00;  0.0000000E+00; -3.9450517E-01;  2.8242715E+04;
  1.2594815E+00;  9.9999998E-03; -2.8168696E-01;8853;  1.1616135E+00;  0.0000000E+00; -7.1367742E-03;  9.9637463E+02;  1.2732086E-01; -2.9741995E+03;3; -1.1198857E+02;  0.0000000E+00;  4.8536983E+01;0;  4.4351172E+00;  2.4770818E+04;  0.0000000E+00; -2.9542852E+01;  4.0000000E+04;  0.0000000E+00;  3.9565203E+04;  4.6979160E+00;  0.0000000E+00; -2.6279888E-01;  4.6918625E+04;
  1.2598248E+00;  9.9999998E-03; -3.0178165E-01;8851;  1.1446847E+00;  0.0000000E+00;  7.0325853E-03;  9.9363647E+02;  1.2730132E-01; -5.2202354E+03;3; -1.2601807E+02;  0.0000000E+00;  5.0331345E+01;0;  4.5411248E+00;  2.4655725E+04;  0.0000000E+00;  3.7786537E+01;  4.0000000E+04;  0.0000000E+00;  3.9584996E+04;  4.8799796E+00;  0.0000000E+00; -3.3885494E-01;  5.9581059E+04;
  1.2603801E+00;  9.9999998E-03; -2.9172629E-01;8852;  1.1632093E+00;  0.0000000E+00; -3.1368609E-04;  9.9375269E+02;  1.2724060E-01; -5.1245200E+03;3; -1.1524870E+02;  0.0000000E+00;  4.9697304E+01;0;  4.4800758E+00;  2.4680783E+04;  0.0000000E+00; -1.0021770E+01;  4.0000000E+04;  0.0000000E+00;  3.9586742E+04;  4.7863336E+00;  0.0000000E+00; -3.0625781E-01;  1.6548604E+04;
  1.2714899E+00;  9.9999998E-03; -2.8170925E-01;8913;  1.2331747E+00;  0.0000000E+00; -2.1260429E-02;  9.9722681E+02;  1.2497222E-01; -2.2707195E+03;3; -9.1355309E+01;  0.0000000E+00;  4.6859211E+01;0;  4.1283426E+00;  2.5767961E+04;  0.0000000E+00; -2.4453661E+01;  4.0000000E+04;  0.0000000E+00;  3.9553184E+04;  4.3108153E+00;  0.0000000E+00; -1.8247253E-01;  3.5902555E+04;
  1.2721132E+00;  9.9999998E-03; -2.9175404E-01;8912;  1.2329092E+00;  0.0000000E+00; -1.4871612E-02;  9.9486835E+02;  1.2492394E-01; -4.2014453E+03;3; -9.5569145E+01;  0.0000000E+00;  4.8769947E+01;0;  4.2140479E+00;  2.5676820E+04;  0.0000000E+00;  6.2852979E-01;  4.0000000E+04;  0.0000000E+00;  3.9571027E+04;  4.4298763E+00;  0.0000000E+00; -2.1582833E-01;  2.7659478E+03;
  1.2833077E+00;  9.9999998E-03; -2.8173277E-01;8972;  1.2907691E+00;  0.0000000E+00; -3.1926680E-02;  9.9782007E+02;  1.2285691E-01; -1.7809885E+03;3; -6.8960915E+01;  0.0000000E+00;  4.4574112E+01;0;  3.7476263E+00;  2.6705207E+04;  0.0000000E+00; -1.7407951E+01;  4.0000000E+04;  0.0000000E+00;  3.9543562E+04;  3.8692205E+00;  0.0000000E+00; -1.2159408E-01;  2.3753025E+04;
  1.2835295E+00;  9.9999998E-03; -2.9178718E-01;8971;  1.2899774E+00;  0.0000000E+00; -2.6529208E-02;  9.9630994E+02;  1.2284607E-01; -3.0146335E+03;3; -7.4452393E+01;  0.0000000E+00;  4.6657902E+01;0;  3.8834169E+00;  2.6639898E+04;  0.0000000E+00;  1.2510864E+01;  4.0000000E+04;  0.0000000E+00;  3.9551664E+04;  4.0248122E+00;  0.0000000E+00; -1.4139539E-01;  1.7267154E+04;
  1.2949162E+00;  9.9999998E-03; -2.8176180E-01;9031;  1.3333758E+00;  0.0000000E+00; -4.0182073E-02;  9.9829816E+02;  1.2095904E-01; -1.3867970E+03;3; -4.8143486E+01;  0.0000000E+00;  4.0867844E+01;0;  3.3315275E+00;  2.7584598E+04;  0.0000000E+00; -9.0855532E+00;  4.0000000E+04;  0.0000000E+00;  3.9533309E+04;  3.3999064E+00;  0.0000000E+00; -6.8378851E-02;  1.2076629E+04;
  1.2947567E+00;  9.9999998E-03; -2.9182631E-01;9030;  1.3329928E+00;  0.0000000E+00; -3.5871450E-02;  9.9797333E+02;  1.2097707E-01; -1.6515724E+03;3; -5.4581226E+01;  0.0000000E+00;  4.3023510E+01;0;  3.5090032E+00;  2.7566484E+04;  0.0000000E+00;  2.1928186E+01;  4.0000000E+04;  0.0000000E+00;  3.9528996E+04;  3.5870235E+00;  0.0000000E+00; -7.8020409E-02;  2.7899475E+04;
  1.3059474E+00;  9.9999998E-03; -2.9186824E-01;9089;  1.3621222E+00;  0.0000000E+00; -4.3034937E-02;  9.9947791E+02;  1.1928774E-01; -4.2420502E+02;3; -3.7860184E+01;  0.0000000E+00;  3.8703896E+01;0;  3.0969875E+00;  2.8440377E+04;  0.0000000E+00;  2.8102976E+01;  4.0000000E+04;  0.0000000E+00;  3.9508508E+04;  3.1241972E+00;  0.0000000E+00; -2.7209761E-02;  3.3213121E+04;
  1.3063278E+00;  9.9999998E-03; -2.8179833E-01;9090;  1.3623608E+00;  0.0000000E+00; -4.6296667E-02;  9.9883441E+02;  1.1925876E-01; -9.4696124E+02;3; -3.0447517E+01;  0.0000000E+00;  3.6258324E+01;0;  2.9018309E+00;  2.8415322E+04;  0.0000000E+00; -3.0642280E-01;  4.0000000E+04;  0.0000000E+00;  3.9521004E+04;  2.9251244E+00;  0.0000000E+00; -2.3293491E-02;  4.7685806E+03;
  1.3175725E+00;  9.9999998E-03; -2.8184402E-01;9148;  1.3815268E+00;  0.0000000E+00; -5.0455008E-02;  9.9952325E+02;  1.1773872E-01; -3.8596735E+02;3; -1.6062786E+01;  0.0000000E+00;  3.1307888E+01;0;  2.4800415E+00;  2.9202123E+04;  0.0000000E+00;  7.9781609E+00;  4.0000000E+04;  0.0000000E+00;  3.9505250E+04;  2.4682112E+00;  0.0000000E+00;  1.1830327E-02;  9.6847422E+03;
  1.3286494E+00;  9.9999998E-03; -2.8190282E-01;9205;  1.3957795E+00;  0.0000000E+00; -5.3005766E-02;  1.0005317E+03;  1.1638337E-01;  4.2884351E+02;3; -4.7509942E+00;  0.0000000E+00;  2.6939152E+01;0;  2.0971427E+00;  2.9958686E+04;  0.0000000E+00;  1.4385150E+01;  4.0000000E+04;  0.0000000E+00;  3.9480770E+04;  2.0586796E+00;  0.0000000E+00;  3.8463190E-02;  1.4376387E+04;
  1.3396316E+00;  9.9999998E-03; -2.8197485E-01;9262;  1.4084680E+00;  0.0000000E+00; -5.5135973E-02;  1.0016398E+03;  1.1517967E-01;  1.3163132E+03;3;  2.8916504E+00;  0.0000000E+00;  2.4362608E+01;0;  1.7911268E+00;  3.0674102E+04;  0.0000000E+00;  1.7866179E+01;  4.0000000E+04;  0.0000000E+00;  3.9447566E+04;  1.7181983E+00;  0.0000000E+00;  7.2928496E-02;  1.5650812E+04;
  1.3619081E+00;  9.9999998E-03; -2.7207091E-01;9374;  1.4137522E+00;  0.0000000E+00; -5.5719595E-02;  1.0019580E+03;  1.1317162E-01;  1.5534000E+03;3;  1.8438147E+01;  0.0000000E+00;  1.4240287E+01;0;  1.1270690E+00;  3.1826143E+04;  0.0000000E+00;  1.1369884E+01;  4.0000000E+04;  0.0000000E+00;  3.9403066E+04;  1.0040931E+00;  0.0000000E+00;  1.2297595E-01;  7.7915483E+03;
  1.3509560E+00;  9.9999998E-03; -2.7198562E-01;9319;  1.4082094E+00;  0.0000000E+00; -5.5632900E-02;  1.0013926E+03;  1.1410670E-01;  1.1116949E+03;3;  1.3858999E+01;  0.0000000E+00;  1.7510605E+01;0;  1.3271648E+00;  3.1254441E+04;  0.0000000E+00;  6.7607446E+00;  4.0000000E+04;  0.0000000E+00;  3.9432090E+04;  1.2328677E+00;  0.0000000E+00;  9.4297051E-02;  6.6028677E+03;
  7.3015713E-04;  9.9999998E-03; -2.6981282E-01;2450; -1.4606671E-03;  0.0000000E+00; -1.3469278E-03;  9.9221844E+02;  1.0000000E-01; -6.4468794E+03;3;  3.2074066E+01;  0.0000000E+00;  2.3073511E+01;0; -5.6015044E-02;  3.9370359E+04;  0.0000000E+00; -4.4091126E-01;  4.0000000E+04;  0.0000000E+00;  4.0010008E+04; -5.4280218E-02;  0.0000000E+00; -1.7348283E-03;  1.9842723E+03;
  1.0863869E-03;  9.9999998E-03; -2.5982261E-01;2451; -1.5702674E-03;  0.0000000E+00; -1.3061477E-03;  9.9088416E+02;  1.0000000E-01; -7.5522803E+03;3;  4.4141064E+01;  0.0000000E+00;  2.2119736E+01;0; -6.2158193E-02;  3.9259203E+04;  0.0000000E+00; -4.8931643E-01;  4.0000000E+04;  0.0000000E+00;  4.0017285E+04; -6.1406631E-02;  0.0000000E+00; -7.5156335E-04;  3.0493052E+03;
  1.4377381E-03;  9.9999998E-03; -2.4984530E-01;2452; -1.7303636E-03;  0.0000000E+00; -1.2390079E-03;  9.8954102E+02;  1.0000000E-01; -8.6650879E+03;3;  5.5752743E+01;  0.0000000E+00;  2.0724766E+01;0; -6.8144836E-02;  3.9149480E+04;  0.0000000E+00; -5.3526968E-01;  4.0000000E+04;  0.0000000E+00;  4.0023832E+04; -6.8294056E-02;  0.0000000E+00;  1.4922023E-04;  3.8915857E+03;
  1.7707561E-03;  9.9999998E-03; -2.3987064E-01;2453; -1.9411966E-03;  0.0000000E+00; -1.1489454E-03;  9.8822919E+02;  1.0000000E-01; -9.7518721E+03;3;  6.5703117E+01;  0.0000000E+00;  1.8863981E+01;0; -7.3929191E-02;  3.9044941E+04;  0.0000000E+00; -5.7347643E-01;  4.0000000E+04;  0.0000000E+00;  4.0026871E+04; -7.4819177E-02;  0.0000000E+00;  8.8998978E-04;  4.4260708E+03;
  2.0827008E-03;  9.9999998E-03; -2.2989526E-01;2454; -2.1966542E-03;  0.0000000E+00; -1.0451250E-03;  9.8699255E+02;  1.0000000E-01; -1.0776436E+04;3;  7.3171303E+01;  0.0000000E+00;  1.6547640E+01;0; -7.9460353E-02;  3.8949250E+04;  0.0000000E+00; -5.9756124E-01;  4.0000000E+04;  0.0000000E+00;  4.0027863E+04; -8.0882169E-02;  0.0000000E+00;  1.4218143E-03;  4.6388262E+03;
  2.3625959E-03;  9.9999998E-03; -2.1991824E-01;2455; -2.4854776E-03;  0.0000000E+00; -9.3351462E-04;  9.8587103E+02;  1.0000000E-01; -1.1705595E+04;3;  7.7863335E+01;  0.0000000E+00;  1.3863389E+01;0; -8.4665962E-02;  3.8864457E+04;  0.0000000E+00; -6.0205638E-01;  4.0000000E+04;  0.0000000E+00;  4.0026324E+04; -8.6395219E-02;  0.0000000E+00;  1.7292564E-03;  4.5682314E+03;
  2.6003725E-03;  9.9999998E-03; -2.0993997E-01;2456; -2.7897093E-03;  0.0000000E+00; -8.2363747E-04;  9.8488910E+02;  1.0000000E-01; -1.2519103E+04;3;  7.9963623E+01;  0.0000000E+00;  1.1045494E+01;0; -8.9462042E-02;  3.8791922E+04;  0.0000000E+00; -5.8434349E-01;  4.0000000E+04;  0.0000000E+00;  4.0023477E+04; -9.1291122E-02;  0.0000000E+00;  1.8290794E-03;  4.2846011E+03;
  2.7922108E-03;  9.9999998E-03; -1.9996026E-01;2457; -3.0901597E-03;  0.0000000E+00; -7.2073931E-04;  9.8406403E+02;  1.0000000E-01; -1.3202639E+04;3;  7.9932289E+01;  0.0000000E+00;  8.3399153E+00;0; -9.3764208E-02;  3.8732711E+04;  0.0000000E+00; -5.4534447E-01;  4.0000000E+04;  0.0000000E+00;  4.0019688E+04; -9.5529892E-02;  0.0000000E+00;  1.7656832E-03;  3.8690845E+03;
  2.9400545E-03;  9.9999998E-03; -1.8997939E-01;2458; -3.3681700E-03;  0.0000000E+00; -6.2845001E-04;  9.8341040E+02;  1.0000000E-01; -1.3744154E+04;3;  7.8300873E+01;  0.0000000E+00;  5.9471402E+00;0; -9.7495526E-02;  3.8686391E+04;  0.0000000E+00; -4.8908502E-01;  4.0000000E+04;  0.0000000E+00;  4.0015410E+04; -9.9096574E-02;  0.0000000E+00;  1.6010470E-03;  3.3978035E+03;
  3.0470607E-03;  9.9999998E-03; -1.7999759E-01;2459; -3.6078426E-03;  0.0000000E+00; -5.4876797E-04;  9.8292206E+02;  1.0000000E-01; -1.4148735E+04;3;  7.5676369E+01;  0.0000000E+00;  3.9824996E+00;0; -1.0059324E-01;  3.8652453E+04;  0.0000000E+00; -4.2144796E-01;  4.0000000E+04;  0.0000000E+00;  4.0011363E+04; -1.0199621E-01;  0.0000000E+00;  1.4029720E-03;  2.9302732E+03;
  3.1196428E-03;  9.9999998E-03; -1.7001402E-01;2460; -3.7984173E-03;  0.0000000E+00; -4.8108477E-04;  9.8258563E+02;  1.0000000E-01; -1.4427493E+04;3;  7.2556915E+01;  0.0000000E+00;  2.4579659E+00;0; -1.0301936E-01;  3.8629789E+04;  0.0000000E+00; -3.4880105E-01;  4.0000000E+04;  0.0000000E+00;  4.0007852E+04; -1.0425296E-01;  0.0000000E+00;  1.2336014E-03;  2.5040840E+03;
  3.1640802E-03;  9.9999998E-03; -1.6002792E-01;2461; -3.9349580E-03;  0.0000000E+00; -4.2334656E-04;  9.8238623E+02;  1.0000000E-01; -1.4592674E+04;3;  6.9273308E+01;  0.0000000E+00;  1.3157758E+00;0; -1.0476433E-01;  3.8617289E+04;  0.0000000E+00; -2.7681780E-01;  4.0000000E+04;  0.0000000E+00;  4.0004973E+04; -1.0590422E-01;  0.0000000E+00;  1.1398859E-03;  2.1363342E+03;
  3.1871048E-03;  9.9999998E-03; -1.5003899E-01;2462; -4.0177144E-03;  0.0000000E+00; -3.7435014E-04;  9.8230103E+02;  1.0000000E-01; -1.4663289E+04;3;  6.6054047E+01;  0.0000000E+00;  4.5496190E-01;0; -1.0585180E-01;  3.8612680E+04;  0.0000000E+00; -2.0988421E-01;  4.0000000E+04;  0.0000000E+00;  4.0002719E+04; -1.0699919E-01;  0.0000000E+00;  1.1473891E-03;  1.8274377E+03;
  3.1942707E-03;  9.9999998E-03; -1.4004757E-01;2463; -4.0525598E-03;  0.0000000E+00; -3.2963313E-04;  9.8230621E+02;  1.0000000E-01; -1.4658943E+04;3;  6.2996681E+01;  0.0000000E+00; -1.8752575E-01;0; -1.0633715E-01;  3.8614930E+04;  0.0000000E+00; -1.5102483E-01;  4.0000000E+04;  0.0000000E+00;  4.0000449E+04; -1.0759526E-01;  0.0000000E+00;  1.2581152E-03;  1.5665314E+03;
  3.1896052E-03;  9.9999998E-03; -1.3005283E-01;2464; -4.0483279E-03;  0.0000000E+00; -2.8804431E-04;  9.8237781E+02;  1.0000000E-01; -1.4599637E+04;3;  6.0125690E+01;  0.0000000E+00; -6.6297495E-01;0; -1.0630579E-01;  3.8621730E+04;  0.0000000E+00; -1.0210402E-01;  4.0000000E+04;  0.0000000E+00;  3.9998977E+04; -1.0775790E-01;  0.0000000E+00;  1.4521077E-03;  1.3370400E+03;
  3.1765129E-03;  9.9999998E-03; -1.2005291E-01;2465; -4.0162802E-03;  0.0000000E+00; -2.4751684E-04;  9.8249261E+02;  1.0000000E-01; -1.4504528E+04;3;  5.7428757E+01;  0.0000000E+00; -9.7976965E-01;0; -1.0586651E-01;  3.8632059E+04;  0.0000000E+00; -6.4091884E-02;  4.0000000E+04;  0.0000000E+00;  3.9997395E+04; -1.0756035E-01;  0.0000000E+00;  1.6938379E-03;  1.1231261E+03;
  3.1580629E-03;  9.9999998E-03; -1.1004806E-01;2466; -3.9682295E-03;  0.0000000E+00; -2.0797548E-04;  9.8263354E+02;  1.0000000E-01; -1.4387791E+04;3;  5.4878162E+01;  0.0000000E+00; -1.1531630E+00;0; -1.0513929E-01;  3.8644008E+04;  0.0000000E+00; -3.6674373E-02;  4.0000000E+04;  0.0000000E+00;  3.9995258E+04; -1.0708076E-01;  0.0000000E+00;  1.9414654E-03;  9.1648236E+02;
  1.0780739E-02;  9.9999998E-03; -2.6981577E-01;2510; -2.2686380E-03;  0.0000000E+00; -1.2484433E-03;  9.9280695E+02;  1.0000000E-01; -5.9592881E+03;3;  1.9319048E+01;  0.0000000E+00;  2.1120354E+01;0; -6.1853021E-02;  3.9413102E+04;  0.0000000E+00; -4.7834322E-01;  4.0000000E+04;  0.0000000E+00;  4.0013602E+04; -6.0093686E-02;  0.0000000E+00; -1.7593361E-03;  2.4121621E+03;
  1.1143960E-02;  9.9999998E-03; -2.5984448E-01;2511; -2.4920206E-03;  0.0000000E+00; -1.2154959E-03;  9.9166052E+02;  1.0000000E-01; -6.9090884E+03;3;  2.8404259E+01;  0.0000000E+00;  1.9959352E+01;0; -6.8410389E-02;  3.9315688E+04;  0.0000000E+00; -5.2863288E-01;  4.0000000E+04;  0.0000000E+00;  4.0021750E+04; -6.7770325E-02;  0.0000000E+00; -6.4006122E-04;  3.5133091E+03;
  1.1484615E-02;  9.9999998E-03; -2.4988306E-01;2512; -2.7637235E-03;  0.0000000E+00; -1.1567692E-03;  9.9051135E+02;  1.0000000E-01; -7.8611602E+03;3;  3.6583210E+01;  0.0000000E+00;  1.8759666E+01;0; -7.4748904E-02;  3.9221227E+04;  0.0000000E+00; -5.8583456E-01;  4.0000000E+04;  0.0000000E+00;  4.0027309E+04; -7.5111195E-02;  0.0000000E+00;  3.6229054E-04;  4.3249844E+03;
  1.1796226E-02;  9.9999998E-03; -2.3992002E-01;2513; -3.0843930E-03;  0.0000000E+00; -1.0766536E-03;  9.8940234E+02;  1.0000000E-01; -8.7799492E+03;3;  4.2771862E+01;  0.0000000E+00;  1.7337868E+01;0; -8.0825731E-02;  3.9132945E+04;  0.0000000E+00; -6.4282298E-01;  4.0000000E+04;  0.0000000E+00;  4.0030414E+04; -8.1986271E-02;  0.0000000E+00;  1.1605415E-03;  4.7702070E+03;
  1.2081182E-02;  9.9999998E-03; -2.2995080E-01;2514; -3.4479727E-03;  0.0000000E+00; -9.8138733E-04;  9.8837024E+02;  1.0000000E-01; -9.6350361E+03;3;  4.6385651E+01;  0.0000000E+00;  1.5529737E+01;0; -8.6590171E-02;  3.9053332E+04;  0.0000000E+00; -6.8896884E-01;  4.0000000E+04;  0.0000000E+00;  4.0030477E+04; -8.8293701E-02;  0.0000000E+00;  1.7035340E-03;  4.8509517E+03;
  1.2329496E-02;  9.9999998E-03; -2.1997608E-01;2515; -3.8390085E-03;  0.0000000E+00; -8.7875396E-04;  9.8744537E+02;  1.0000000E-01; -1.0401286E+04;3;  4.7395390E+01;  0.0000000E+00;  1.3321497E+01;0; -9.1969669E-02;  3.8984477E+04;  0.0000000E+00; -7.1374750E-01;  4.0000000E+04;  0.0000000E+00;  4.0027957E+04; -9.3949586E-02;  0.0000000E+00;  1.9799150E-03;  4.6290259E+03;
  1.2534212E-02;  9.9999998E-03; -2.0999588E-01;2516; -4.2363829E-03;  0.0000000E+00; -7.7654584E-04;  9.8664728E+02;  1.0000000E-01; -1.1062502E+04;3;  4.6188774E+01;  0.0000000E+00;  1.0862879E+01;0; -9.6882910E-02;  3.8927047E+04;  0.0000000E+00; -7.1022397E-01;  4.0000000E+04;  0.0000000E+00;  4.0023645E+04; -9.8900080E-02;  0.0000000E+00;  2.0171709E-03;  4.1961797E+03;
  1.2695158E-02;  9.9999998E-03; -2.0001110E-01;2517; -4.6168664E-03;  0.0000000E+00; -6.8426452E-04;  9.8599750E+02;  1.0000000E-01; -1.1600808E+04;3;  4.3315472E+01;  0.0000000E+00;  8.3697586E+00;0; -1.0124842E-01;  3.8881598E+04;  0.0000000E+00; -6.7670381E-01;  4.0000000E+04;  0.0000000E+00;  4.0018797E+04; -1.0312235E-01;  0.0000000E+00;  1.8739345E-03;  3.6522871E+03;
  1.2815201E-02;  9.9999998E-03; -1.9002324E-01;2518; -4.9590711E-03;  0.0000000E+00; -6.0708186E-04;  9.8550037E+02;  1.0000000E-01; -1.2012647E+04;3;  3.9432178E+01;  0.0000000E+00;  6.0748873E+00;0; -1.0498995E-01;  3.8847766E+04;  0.0000000E+00; -6.1661655E-01;  4.0000000E+04;  0.0000000E+00;  4.0013840E+04; -1.0661807E-01;  0.0000000E+00;  1.6281179E-03;  3.0857151E+03;
  1.2898089E-02;  9.9999998E-03; -1.8003294E-01;2519; -5.2457750E-03;  0.0000000E+00; -5.4636458E-04;  9.8515002E+02;  1.0000000E-01; -1.2302911E+04;3;  3.5137474E+01;  0.0000000E+00;  4.1316481E+00;0; -1.0804692E-01;  3.8824781E+04;  0.0000000E+00; -5.3709561E-01;  4.0000000E+04;  0.0000000E+00;  4.0009555E+04; -1.0940944E-01;  0.0000000E+00;  1.3625276E-03;  2.5605989E+03;
  1.2949844E-02;  9.9999998E-03; -1.7004034E-01;2520; -5.4658698E-03;  0.0000000E+00; -5.0108711E-04;  9.8493652E+02;  1.0000000E-01; -1.2479795E+04;3;  3.0863953E+01;  0.0000000E+00;  2.5800209E+00;0; -1.1038380E-01;  3.8811434E+04;  0.0000000E+00; -4.4694924E-01;  4.0000000E+04;  0.0000000E+00;  4.0006020E+04; -1.1153495E-01;  0.0000000E+00;  1.1511539E-03;  2.1136235E+03;
  1.2976984E-02;  9.9999998E-03; -1.6004623E-01;2521; -5.6157308E-03;  0.0000000E+00; -4.6563896E-04;  9.8483777E+02;  1.0000000E-01; -1.2561620E+04;3;  2.6914074E+01;  0.0000000E+00;  1.3913937E+00;0; -1.1199564E-01;  3.8806367E+04;  0.0000000E+00; -3.5477355E-01;  4.0000000E+04;  0.0000000E+00;  4.0003355E+04; -1.1304391E-01;  0.0000000E+00;  1.0482664E-03;  1.7564326E+03;
  1.2986291E-02;  9.9999998E-03; -1.5005159E-01;2522; -5.6981584E-03;  0.0000000E+00; -4.3492636E-04;  9.8484131E+02;  1.0000000E-01; -1.2558706E+04;3;  2.3347834E+01;  0.0000000E+00;  4.9176866E-01;0; -1.1291268E-01;  3.8808258E+04;  0.0000000E+00; -2.6769704E-01;  4.0000000E+04;  0.0000000E+00;  4.0000883E+04; -1.1399397E-01;  0.0000000E+00;  1.0812791E-03;  1.4811028E+03;
  1.2982305E-02;  9.9999998E-03; -1.4005540E-01;2523; -5.7208496E-03;  0.0000000E+00; -4.0437508E-04;  9.8491669E+02;  1.0000000E-01; -1.2496239E+04;3;  2.0223936E+01;  0.0000000E+00; -1.8737671E-01;0; -1.1319943E-01;  3.8815477E+04;  0.0000000E+00; -1.9085495E-01;  4.0000000E+04;  0.0000000E+00;  3.9999199E+04; -1.1444806E-01;  0.0000000E+00;  1.2486379E-03;  1.2670624E+03;
  1.2969110E-02;  9.9999998E-03; -1.3005660E-01;2524; -5.6957295E-03;  0.0000000E+00; -3.7074901E-04;  9.8504230E+02;  1.0000000E-01; -1.2392192E+04;3;  1.7469616E+01;  0.0000000E+00; -6.8473136E-01;0; -1.1295284E-01;  3.8825988E+04;  0.0000000E+00; -1.2738764E-01;  4.0000000E+04;  0.0000000E+00;  3.9998297E+04; -1.1447518E-01;  0.0000000E+00;  1.5223291E-03;  1.0879729E+03;
  1.2950309E-02;  9.9999998E-03; -1.2005465E-01;2525; -5.6371433E-03;  0.0000000E+00; -3.3190855E-04;  9.8519922E+02;  1.0000000E-01; -1.2262172E+04;3;  1.4974655E+01;  0.0000000E+00; -1.0107242E+00;0; -1.1229446E-01;  3.8839062E+04;  0.0000000E+00; -7.8688502E-02;  4.0000000E+04;  0.0000000E+00;  3.9997371E+04; -1.1414996E-01;  0.0000000E+00;  1.8554964E-03;  9.1832892E+02;
  1.2928811E-02;  9.9999998E-03; -1.1004931E-01;2526; -5.5597299E-03;  0.0000000E+00; -2.8872592E-04;  9.8536804E+02;  1.0000000E-01; -1.2122324E+04;3;  1.2676448E+01;  0.0000000E+00; -1.1840782E+00;0; -1.1135683E-01;  3.8853156E+04;  0.0000000E+00; -4.4177447E-02;  4.0000000E+04;  0.0000000E+00;  3.9996230E+04; -1.1355094E-01;  0.0000000E+00;  2.1941038E-03;  7.4237341E+02;
  2.0789722E-02;  9.9999998E-03; -2.6987779E-01;2571; -3.2267759E-03;  0.0000000E+00; -1.1642820E-03;  9.9371906E+02;  1.0000000E-01; -5.2036553E+03;3;  5.5000000E+00;  0.0000000E+00;  1.6285160E+01;0; -6.6201478E-02;  3.9480824E+04;  0.0000000E+00; -4.9437666E-01;  4.0000000E+04;  0.0000000E+00;  4.0017621E+04; -6.4509310E-02;  0.0000000E+00; -1.6921689E-03;  2.8059692E+03;
  2.1150479E-02;  9.9999998E-03; -2.5991330E-01;2572; -3.5781658E-03;  0.0000000E+00; -1.1316346E-03;  9.9280811E+02;  1.0000000E-01; -5.9583501E+03;3;  1.1150767E+01;  0.0000000E+00;  1.5207024E+01;0; -7.2969109E-02;  3.9402172E+04;  0.0000000E+00; -5.3932053E-01;  4.0000000E+04;  0.0000000E+00;  4.0025773E+04; -7.2517857E-02;  0.0000000E+00; -4.5125233E-04;  3.8851355E+03;
  2.1477230E-02;  9.9999998E-03; -2.4995677E-01;2573; -3.9784973E-03;  0.0000000E+00; -1.0694012E-03;  9.9191382E+02;  1.0000000E-01; -6.6992671E+03;3;  1.5500403E+01;  0.0000000E+00;  1.4506572E+01;0; -7.9456814E-02;  3.9327582E+04;  0.0000000E+00; -6.0022068E-01;  4.0000000E+04;  0.0000000E+00;  4.0030723E+04; -8.0091059E-02;  0.0000000E+00;  6.3424488E-04;  4.6165371E+03;
  2.1769974E-02;  9.9999998E-03; -2.3999408E-01;2574; -4.4274954E-03;  0.0000000E+00; -9.8221237E-04;  9.9105865E+02;  1.0000000E-01; -7.4077412E+03;3;  1.7769709E+01;  0.0000000E+00;  1.3855600E+01;0; -8.5628115E-02;  3.9259625E+04;  0.0000000E+00; -6.6882187E-01;  4.0000000E+04;  0.0000000E+00;  4.0032371E+04; -8.7096468E-02;  0.0000000E+00;  1.4683499E-03;  4.9321025E+03;
  2.2031929E-02;  9.9999998E-03; -2.3002020E-01;2575; -4.9162051E-03;  0.0000000E+00; -8.7817793E-04;  9.9027777E+02;  1.0000000E-01; -8.0546855E+03;3;  1.7584356E+01;  0.0000000E+00;  1.2889419E+01;0; -9.1433905E-02;  3.9200500E+04;  0.0000000E+00; -7.3114866E-01;  4.0000000E+04;  0.0000000E+00;  4.0031414E+04; -9.3432039E-02;  0.0000000E+00;  1.9981305E-03;  4.8506704E+03;
  2.2253864E-02;  9.9999998E-03; -2.2003642E-01;2576; -5.4247114E-03;  0.0000000E+00; -7.6918601E-04;  9.8959210E+02;  1.0000000E-01; -8.6227686E+03;3;  1.5142498E+01;  0.0000000E+00;  1.1454818E+01;0; -9.6805185E-02;  3.9151340E+04;  0.0000000E+00; -7.7246666E-01;  4.0000000E+04;  0.0000000E+00;  4.0027574E+04; -9.9023104E-02;  0.0000000E+00;  2.2179200E-03;  4.4571094E+03;
  2.2430941E-02;  9.9999998E-03; -2.1004467E-01;2577; -5.9262305E-03;  0.0000000E+00; -6.7134196E-04;  9.8901947E+02;  1.0000000E-01; -9.0971748E+03;3;  1.0979355E+01;  0.0000000E+00;  9.6089344E+00;0; -1.0166550E-01;  3.9112414E+04;  0.0000000E+00; -7.8201330E-01;  4.0000000E+04;  0.0000000E+00;  4.0022324E+04; -1.0383302E-01;  0.0000000E+00;  2.1675199E-03;  3.8680078E+03;
  2.2565279E-02;  9.9999998E-03; -2.0004737E-01;2578; -6.3934135E-03;  0.0000000E+00; -5.9560989E-04;  9.8857367E+02;  1.0000000E-01; -9.4664980E+03;3;  5.7625356E+00;  0.0000000E+00;  7.5672235E+00;0; -1.0593629E-01;  3.9083633E+04;  0.0000000E+00; -7.5552088E-01;  4.0000000E+04;  0.0000000E+00;  4.0016512E+04; -1.0785879E-01;  0.0000000E+00;  1.9225030E-03;  3.2025308E+03;
  2.2659790E-02;  9.9999998E-03; -1.9004688E-01;2579; -6.8028886E-03;  0.0000000E+00; -5.4582866E-04;  9.8825842E+02;  1.0000000E-01; -9.7276758E+03;3;  1.5695101E-01;  0.0000000E+00;  5.5818954E+00;0; -1.0954405E-01;  3.9064414E+04;  0.0000000E+00; -6.9550645E-01;  4.0000000E+04;  0.0000000E+00;  4.0010988E+04; -1.1112271E-01;  0.0000000E+00;  1.5786568E-03;  2.5599871E+03;
  2.2719333E-02;  9.9999998E-03; -1.8004484E-01;2580; -7.1379007E-03;  0.0000000E+00; -5.1730551E-04;  9.8806885E+02;  1.0000000E-01; -9.8847578E+03;3; -5.2992268E+00;  0.0000000E+00;  3.8463688E+00;0; -1.1243162E-01;  3.9053938E+04;  0.0000000E+00; -6.0974491E-01;  4.0000000E+04;  0.0000000E+00;  4.0006270E+04; -1.1366646E-01;  0.0000000E+00;  1.2348345E-03;  2.0060430E+03;
  2.2750989E-02;  9.9999998E-03; -1.7004313E-01;2581; -7.3884218E-03;  0.0000000E+00; -5.0478615E-04;  9.8799341E+02;  1.0000000E-01; -9.9472246E+03;3; -1.0243094E+01;  0.0000000E+00;  2.4326892E+00;0; -1.1456750E-01;  3.9051152E+04;  0.0000000E+00; -5.0875908E-01;  4.0000000E+04;  0.0000000E+00;  4.0003094E+04; -1.1554445E-01;  0.0000000E+00;  9.7694772E-04;  1.5703124E+03;
  2.2761758E-02;  9.9999998E-03; -1.6004260E-01;2582; -7.5523946E-03;  0.0000000E+00; -4.9913611E-04;  9.8801080E+02;  1.0000000E-01; -9.9328057E+03;3; -1.4472626E+01;  0.0000000E+00;  1.3327832E+00;0; -1.1595287E-01;  3.9054660E+04;  0.0000000E+00; -4.0337852E-01;  4.0000000E+04;  0.0000000E+00;  4.0000688E+04; -1.1681877E-01;  0.0000000E+00;  8.6589839E-04;  1.2531376E+03;
  2.2757741E-02;  9.9999998E-03; -1.5004282E-01;2583; -7.6344754E-03;  0.0000000E+00; -4.9318856E-04;  9.8810858E+02;  1.0000000E-01; -9.8518203E+03;3; -1.8012899E+01;  0.0000000E+00;  4.8921409E-01;0; -1.1662485E-01;  3.9063195E+04;  0.0000000E+00; -3.0294478E-01;  4.0000000E+04;  0.0000000E+00;  3.9999473E+04; -1.1755493E-01;  0.0000000E+00;  9.3008595E-04;  1.0374110E+03;
  2.2743518E-02;  9.9999998E-03; -1.4004284E-01;2584; -7.6448955E-03;  0.0000000E+00; -4.8085282E-04;  9.8825989E+02;  1.0000000E-01; -9.7264414E+03;3; -2.0914806E+01;  0.0000000E+00; -1.5204415E-01;0; -1.1665708E-01;  3.9075516E+04;  0.0000000E+00; -2.1432926E-01;  4.0000000E+04;  0.0000000E+00;  3.9998285E+04; -1.1782051E-01;  0.0000000E+00;  1.1634303E-03;  8.9639075E+02;
  2.2722961E-02;  9.9999998E-03; -1.3004206E-01;2585; -7.5982893E-03;  0.0000000E+00; -4.5808748E-04;  9.8844141E+02;  1.0000000E-01; -9.5760752E+03;3; -2.3310356E+01;  0.0000000E+00; -6.2095195E-01;0; -1.1615650E-01;  3.9090121E+04;  0.0000000E+00; -1.4169145E-01;  4.0000000E+04;  0.0000000E+00;  3.9998238E+04; -1.1768503E-01;  0.0000000E+00;  1.5285348E-03;  7.9523248E+02;
  2.2699529E-02;  9.9999998E-03; -1.2004004E-01;2586; -7.5118695E-03;  0.0000000E+00; -4.2292359E-04;  9.8863812E+02;  1.0000000E-01; -9.4131162E+03;3; -2.5386087E+01;  0.0000000E+00; -9.2717433E-01;0; -1.1525575E-01;  3.9105953E+04;  0.0000000E+00; -8.6648628E-02;  4.0000000E+04;  0.0000000E+00;  3.9997941E+04; -1.1722159E-01;  0.0000000E+00;  1.9658424E-03;  6.9619586E+02;
  2.2675971E-02;  9.9999998E-03; -1.1003681E-01;2587; -7.4033774E-03;  0.0000000E+00; -3.7679679E-04;  9.8883575E+02;  1.0000000E-01; -9.2493682E+03;3; -2.7281120E+01;  0.0000000E+00; -1.0874530E+00;0; -1.1409785E-01;  3.9122145E+04;  0.0000000E+00; -4.8268955E-02;  4.0000000E+04;  0.0000000E+00;  3.9997125E+04; -1.1650555E-01;  0.0000000E+00;  2.4076984E-03;  5.7269641E+02;
  3.0792501E-02;  9.9999998E-03; -2.6994088E-01;2632; -4.2726169E-03;  0.0000000E+00; -1.0787927E-03;  9.9480597E+02;  1.0000000E-01; -4.3031377E+03;3; -6.3473935E+00;  0.0000000E+00;  8.8555794E+00;0; -6.8954878E-02;  3.9563363E+04;  0.0000000E+00; -4.8135990E-01;  4.0000000E+04;  0.0000000E+00;  4.0020289E+04; -6.7437723E-02;  0.0000000E+00; -1.5171538E-03;  3.1076582E+03;
  3.1151185E-02;  9.9999998E-03; -2.5997144E-01;2633; -4.7547300E-03;  0.0000000E+00; -1.0391923E-03;  9.9416370E+02;  1.0000000E-01; -4.8352705E+03;3; -3.7464626E+00;  0.0000000E+00;  7.9787531E+00;0; -7.5725526E-02;  3.9505918E+04;  0.0000000E+00; -5.0645989E-01;  4.0000000E+04;  0.0000000E+00;  4.0028605E+04; -7.5555995E-02;  0.0000000E+00; -1.6953191E-04;  4.1278076E+03;
  3.1466372E-02;  9.9999998E-03; -2.5001076E-01;2634; -5.2863909E-03;  0.0000000E+00; -9.6437568E-04;  9.9354541E+02;  1.0000000E-01; -5.3475029E+03;3; -2.6510489E+00;  0.0000000E+00;  8.0227976E+00;0; -8.2156956E-02;  3.9453691E+04;  0.0000000E+00; -5.5573988E-01;  4.0000000E+04;  0.0000000E+00;  4.0032906E+04; -8.3135486E-02;  0.0000000E+00;  9.7852945E-04;  4.7464390E+03;
  3.1739913E-02;  9.9999998E-03; -2.4004273E-01;2635; -5.8670426E-03;  0.0000000E+00; -8.5760141E-04;  9.9297498E+02;  1.0000000E-01; -5.8200825E+03;3; -3.6458817E+00;  0.0000000E+00;  8.4262514E+00;0; -8.8219643E-02;  3.9408887E+04;  0.0000000E+00; -6.2160599E-01;  4.0000000E+04;  0.0000000E+00;  4.0033836E+04; -9.0042911E-02;  0.0000000E+00;  1.8232670E-03;  4.9071860E+03;
  3.1977501E-02;  9.9999998E-03; -2.3006073E-01;2636; -6.4811320E-03;  0.0000000E+00; -7.3692168E-04;  9.9246613E+02;  1.0000000E-01; -6.2416504E+03;3; -6.7882891E+00;  0.0000000E+00;  8.6170454E+00;0; -9.3871891E-02;  3.9372191E+04;  0.0000000E+00; -6.8868750E-01;  4.0000000E+04;  0.0000000E+00;  4.0031008E+04; -9.6183576E-02;  0.0000000E+00;  2.3116828E-03;  4.6475073E+03;
  3.2172635E-02;  9.9999998E-03; -2.2006667E-01;2637; -7.1012364E-03;  0.0000000E+00; -6.2466122E-04;  9.9203589E+02;  1.0000000E-01; -6.5981343E+03;3; -1.1714209E+01;  0.0000000E+00;  8.2493553E+00;0; -9.9053644E-02;  3.9344504E+04;  0.0000000E+00; -7.3962808E-01;  4.0000000E+04;  0.0000000E+00;  4.0025930E+04; -1.0150006E-01;  0.0000000E+00;  2.4464214E-03;  4.0766733E+03;
  3.2322329E-02;  9.9999998E-03; -2.1006434E-01;2638; -7.6970761E-03;  0.0000000E+00; -5.3870759E-04;  9.9170294E+02;  1.0000000E-01; -6.8739785E+03;3; -1.7834352E+01;  0.0000000E+00;  7.2927327E+00;0; -1.0369365E-01;  3.9325086E+04;  0.0000000E+00; -7.6068282E-01;  4.0000000E+04;  0.0000000E+00;  4.0019574E+04; -1.0597648E-01;  0.0000000E+00;  2.2828255E-03;  3.3373872E+03;
  3.2430016E-02;  9.9999998E-03; -2.0005712E-01;2639; -8.2403179E-03;  0.0000000E+00; -4.9054268E-04;  9.9146887E+02;  1.0000000E-01; -7.0678989E+03;3; -2.4427896E+01;  0.0000000E+00;  5.9526687E+00;0; -1.0771781E-01;  3.9313812E+04;  0.0000000E+00; -7.4494547E-01;  4.0000000E+04;  0.0000000E+00;  4.0012996E+04; -1.0963321E-01;  0.0000000E+00;  1.9154057E-03;  2.5707085E+03;
  3.2499779E-02;  9.9999998E-03; -1.9004770E-01;2640; -8.7076779E-03;  0.0000000E+00; -4.7565097E-04;  9.9134399E+02;  1.0000000E-01; -7.1713525E+03;3; -3.0921560E+01;  0.0000000E+00;  4.5058451E+00;0; -1.1105724E-01;  3.9310109E+04;  0.0000000E+00; -6.9318044E-01;  4.0000000E+04;  0.0000000E+00;  4.0007059E+04; -1.1251606E-01;  0.0000000E+00;  1.4588273E-03;  1.8893047E+03;
  3.2538466E-02;  9.9999998E-03; -1.8003899E-01;2641; -9.0836603E-03;  0.0000000E+00; -4.8273368E-04;  9.9131958E+02;  1.0000000E-01; -7.1915498E+03;3; -3.6835865E+01;  0.0000000E+00;  3.1747947E+00;0; -1.1365931E-01;  3.9312699E+04;  0.0000000E+00; -6.1234641E-01;  4.0000000E+04;  0.0000000E+00;  4.0002566E+04; -1.1468700E-01;  0.0000000E+00;  1.0276837E-03;  1.3584761E+03;
  3.2552149E-02;  9.9999998E-03; -1.7003229E-01;2642; -9.3589295E-03;  0.0000000E+00; -5.0335168E-04;  9.9138135E+02;  1.0000000E-01; -7.1403906E+03;3; -4.1877800E+01;  0.0000000E+00;  2.0561273E+00;0; -1.1549792E-01;  3.9320758E+04;  0.0000000E+00; -5.1313502E-01;  4.0000000E+04;  0.0000000E+00;  3.9999410E+04; -1.1621694E-01;  0.0000000E+00;  7.1902660E-04;  9.8727417E+02;
  3.2547779E-02;  9.9999998E-03; -1.6002794E-01;2643; -9.5329713E-03;  0.0000000E+00; -5.2728556E-04;  9.9151648E+02;  1.0000000E-01; -7.0284434E+03;3; -4.5971634E+01;  0.0000000E+00;  1.1597955E+00;0; -1.1657975E-01;  3.9332859E+04;  0.0000000E+00; -4.0722355E-01;  4.0000000E+04;  0.0000000E+00;  3.9997973E+04; -1.1717937E-01;  0.0000000E+00;  5.9962570E-04;  7.4324652E+02;
  3.2531042E-02;  9.9999998E-03; -1.5002555E-01;2644; -9.6120955E-03;  0.0000000E+00; -5.4624112E-04;  9.9170282E+02;  1.0000000E-01; -6.8740771E+03;3; -4.9155590E+01;  0.0000000E+00;  4.5292321E-01;0; -1.1694852E-01;  3.9348035E+04;  0.0000000E+00; -3.0511215E-01;  4.0000000E+04;  0.0000000E+00;  3.9997531E+04; -1.1764678E-01;  0.0000000E+00;  6.9826125E-04;  5.9239178E+02;
  3.2506604E-02;  9.9999998E-03; -1.4002450E-01;2645; -9.6087586E-03;  0.0000000E+00; -5.5373885E-04;  9.9192639E+02;  1.0000000E-01; -6.6888477E+03;3; -5.1611572E+01;  0.0000000E+00; -9.7548112E-02;0; -1.1668546E-01;  3.9364977E+04;  0.0000000E+00; -2.1474691E-01;  4.0000000E+04;  0.0000000E+00;  3.9997883E+04; -1.1768907E-01;  0.0000000E+00;  1.0036144E-03;  5.2141510E+02;
  3.2478731E-02;  9.9999998E-03; -1.3002414E-01;2646; -9.5399385E-03;  0.0000000E+00; -5.4432201E-04;  9.9216248E+02;  1.0000000E-01; -6.4932485E+03;3; -5.3513512E+01;  0.0000000E+00; -5.0468886E-01;0; -1.1590631E-01;  3.9383145E+04;  0.0000000E+00; -1.4102635E-01;  4.0000000E+04;  0.0000000E+00;  3.9998371E+04; -1.1737430E-01;  0.0000000E+00;  1.4679943E-03;  5.0721222E+02;
  3.2450814E-02;  9.9999998E-03; -1.2002419E-01;2647; -9.4253747E-03;  0.0000000E+00; -5.1464618E-04;  9.9239771E+02;  1.0000000E-01; -6.2983403E+03;3; -5.5087280E+01;  0.0000000E+00; -7.7086049E-01;0; -1.1475313E-01;  3.9401242E+04;  0.0000000E+00; -8.5710071E-02;  4.0000000E+04;  0.0000000E+00;  3.9999016E+04; -1.1677124E-01;  0.0000000E+00;  2.0181080E-03;  4.9656372E+02;
  3.2424886E-02;  9.9999998E-03; -1.1002446E-01;2648; -9.2852851E-03;  0.0000000E+00; -4.6572401E-04;  9.9262012E+02;  1.0000000E-01; -6.1140986E+03;3; -5.6506615E+01;  0.0000000E+00; -9.0778053E-01;0; -1.1337781E-01;  3.9419094E+04;  0.0000000E+00; -4.7662456E-02;  4.0000000E+04;  0.0000000E+00;  3.9998891E+04; -1.1594947E-01;  0.0000000E+00;  2.5716585E-03;  4.4252261E+02;
  4.0805563E-02;  9.9999998E-03; -2.6997933E-01;2693; -5.3370101E-03;  0.0000000E+00; -1.0061451E-03;  9.9593335E+02;  1.0000000E-01; -3.3691392E+03;3; -1.4456998E+01;  0.0000000E+00; -2.7096018E-01;0; -7.0138805E-02;  3.9650328E+04;  0.0000000E+00; -4.3117163E-01;  4.0000000E+04;  0.0000000E+00;  4.0023203E+04; -6.8910509E-02;  0.0000000E+00; -1.2282985E-03;  3.3123496E+03;
  4.1155532E-02;  9.9999998E-03; -2.6000470E-01;2694; -5.9446893E-03;  0.0000000E+00; -9.5304922E-04;  9.9556372E+02;  1.0000000E-01; -3.6753528E+03;3; -1.3996152E+01;  0.0000000E+00; -7.7055418E-01;0; -7.6702237E-02;  3.9614664E+04;  0.0000000E+00; -4.1466242E-01;  4.0000000E+04;  0.0000000E+00;  4.0030633E+04; -7.6912597E-02;  0.0000000E+00;  2.1035876E-04;  4.2591333E+03;
  4.1455794E-02;  9.9999998E-03; -2.5003803E-01;2695; -6.6052037E-03;  0.0000000E+00; -8.5063057E-04;  9.9522766E+02;  1.0000000E-01; -3.9538142E+03;3; -1.5133859E+01;  0.0000000E+00;  2.2702588E-01;0; -8.2873851E-02;  3.9585551E+04;  0.0000000E+00; -4.3004751E-01;  4.0000000E+04;  0.0000000E+00;  4.0034223E+04; -8.4274329E-02;  0.0000000E+00;  1.4004817E-03;  4.7546099E+03;
  4.1709162E-02;  9.9999998E-03; -2.4006331E-01;2696; -7.3069665E-03;  0.0000000E+00; -7.1666669E-04;  9.9492975E+02;  1.0000000E-01; -4.2006221E+03;3; -1.8138609E+01;  0.0000000E+00;  1.9026061E+00;0; -8.8635720E-02;  3.9563578E+04;  0.0000000E+00; -4.7338361E-01;  4.0000000E+04;  0.0000000E+00;  4.0034281E+04; -9.0867087E-02;  0.0000000E+00;  2.2313690E-03;  4.7544248E+03;
  4.1922249E-02;  9.9999998E-03; -2.3007441E-01;2697; -8.0286488E-03;  0.0000000E+00; -5.8001251E-04;  9.9469305E+02;  1.0000000E-01; -4.3967153E+03;3; -2.2959137E+01;  0.0000000E+00;  3.4034715E+00;0; -9.3955316E-02;  3.9549570E+04;  0.0000000E+00; -5.3071058E-01;  4.0000000E+04;  0.0000000E+00;  4.0030363E+04; -9.6607618E-02;  0.0000000E+00;  2.6522996E-03;  4.3143750E+03;
  4.2091217E-02;  9.9999998E-03; -2.2007400E-01;2698; -8.7393224E-03;  0.0000000E+00; -4.7112087E-04;  9.9451648E+02;  1.0000000E-01; -4.5429824E+03;3; -2.9101505E+01;  0.0000000E+00;  4.2573323E+00;0; -9.8782718E-02;  3.9542844E+04;  0.0000000E+00; -5.8386087E-01;  4.0000000E+04;  0.0000000E+00;  4.0024090E+04; -1.0145973E-01;  0.0000000E+00;  2.6770118E-03;  3.5674167E+03;
  4.2215612E-02;  9.9999998E-03; -2.1006556E-01;2699; -9.4083175E-03;  0.0000000E+00; -4.0775389E-04;  9.9441309E+02;  1.0000000E-01; -4.6286592E+03;3; -3.5967865E+01;  0.0000000E+00;  4.3588037E+00;0; -1.0305421E-01;  3.9542965E+04;  0.0000000E+00; -6.1677480E-01;  4.0000000E+04;  0.0000000E+00;  4.0016707E+04; -1.0543257E-01;  0.0000000E+00;  2.3783557E-03;  2.6825500E+03;
  4.2299993E-02;  9.9999998E-03; -2.0005257E-01;2700; -1.0008595E-02;  0.0000000E+00; -3.8768223E-04;  9.9438708E+02;  1.0000000E-01; -4.6501895E+03;3; -4.2922848E+01;  0.0000000E+00;  3.8963938E+00;0; -1.0670095E-01;  3.9549062E+04;  0.0000000E+00; -6.1936855E-01;  4.0000000E+04;  0.0000000E+00;  4.0009188E+04; -1.0857189E-01;  0.0000000E+00;  1.8709385E-03;  1.8315690E+03;
  4.2349983E-02;  9.9999998E-03; -1.9003882E-01;2701; -1.0517132E-02;  0.0000000E+00; -4.0507785E-04;  9.9444214E+02;  1.0000000E-01; -4.6045610E+03;3; -4.9436852E+01;  0.0000000E+00;  3.1397107E+00;0; -1.0965911E-01;  3.9560148E+04;  0.0000000E+00; -5.8890563E-01;  4.0000000E+04;  0.0000000E+00;  4.0002703E+04; -1.1094747E-01;  0.0000000E+00;  1.2883684E-03;  1.1673320E+03;
  4.2370692E-02;  9.9999998E-03; -1.8002622E-01;2702; -1.0920041E-02;  0.0000000E+00; -4.4580179E-04;  9.9457025E+02;  1.0000000E-01; -4.4984409E+03;3; -5.5126316E+01;  0.0000000E+00;  2.3235505E+00;0; -1.1188212E-01;  3.9575273E+04;  0.0000000E+00; -5.2942145E-01;  4.0000000E+04;  0.0000000E+00;  3.9998242E+04; -1.1264281E-01;  0.0000000E+00;  7.6068897E-04;  7.9283325E+02;
  4.2368259E-02;  9.9999998E-03; -1.7001599E-01;2703; -1.1209327E-02;  0.0000000E+00; -4.9850688E-04;  9.9476080E+02;  1.0000000E-01; -4.3405684E+03;3; -5.9788704E+01;  0.0000000E+00;  1.5724415E+00;0; -1.1334966E-01;  3.9593051E+04;  0.0000000E+00; -4.4947389E-01;  4.0000000E+04;  0.0000000E+00;  3.9995637E+04; -1.1374533E-01;  0.0000000E+00;  3.9566713E-04;  6.5366840E+02;
  4.2349566E-02;  9.9999998E-03; -1.6000918E-01;2704; -1.1385890E-02;  0.0000000E+00; -5.5107079E-04;  9.9499835E+02;  1.0000000E-01; -4.1437842E+03;3; -6.3389763E+01;  0.0000000E+00;  9.2762619E-01;0; -1.1407338E-01;  3.9612953E+04;  0.0000000E+00; -3.5968745E-01;  4.0000000E+04;  0.0000000E+00;  3.9995168E+04; -1.1433873E-01;  0.0000000E+00;  2.6534955E-04;  5.5735889E+02;
  4.2320739E-02;  9.9999998E-03; -1.5000612E-01;2705; -1.1457501E-02;  0.0000000E+00; -5.9475290E-04;  9.9526935E+02;  1.0000000E-01; -3.9192471E+03;3; -6.6047752E+01;  0.0000000E+00;  3.8825881E-01;0; -1.1410251E-01;  3.9633992E+04;  0.0000000E+00; -2.7042311E-01;  4.0000000E+04;  0.0000000E+00;  3.9995656E+04; -1.1450075E-01;  0.0000000E+00;  3.9823726E-04;  4.1399252E+02;
  4.2286742E-02;  9.9999998E-03; -1.4000557E-01;2706; -1.1438160E-02;  0.0000000E+00; -6.2191521E-04;  9.9555359E+02;  1.0000000E-01; -3.6837476E+03;3; -6.7941643E+01;  0.0000000E+00; -4.7252074E-02;0; -1.1352444E-01;  3.9655086E+04;  0.0000000E+00; -1.9011439E-01;  4.0000000E+04;  0.0000000E+00;  3.9997441E+04; -1.1430167E-01;  0.0000000E+00;  7.7723671E-04;  2.7505026E+02;
  4.2251974E-02;  9.9999998E-03; -1.3000742E-01;2707; -1.1346563E-02;  0.0000000E+00; -6.2563561E-04;  9.9583521E+02;  1.0000000E-01; -3.4504702E+03;3; -6.9306870E+01;  0.0000000E+00; -3.7262633E-01;0; -1.1246186E-01;  3.9675945E+04;  0.0000000E+00; -1.2431132E-01;  4.0000000E+04;  0.0000000E+00;  3.9998379E+04; -1.1380560E-01;  0.0000000E+00;  1.3437426E-03;  2.7013617E+02;
  4.2219479E-02;  9.9999998E-03; -1.2001096E-01;2708; -1.1204158E-02;  0.0000000E+00; -6.0226204E-04;  9.9610059E+02;  1.0000000E-01; -3.2305752E+03;3; -7.0374367E+01;  0.0000000E+00; -5.8752823E-01;0; -1.1106447E-01;  3.9695816E+04;  0.0000000E+00; -7.5118609E-02;  4.0000000E+04;  0.0000000E+00;  4.0000398E+04; -1.1307462E-01;  0.0000000E+00;  2.0101510E-03;  3.4900546E+02;
  4.2190723E-02;  9.9999998E-03; -1.1001500E-01;2709; -1.1033132E-02;  0.0000000E+00; -5.5194937E-04;  9.9634247E+02;  1.0000000E-01; -3.0301858E+03;3; -7.1336815E+01;  0.0000000E+00; -6.9897801E-01;0; -1.0949093E-01;  3.9714488E+04;  0.0000000E+00; -4.1619148E-02;  4.0000000E+04;  0.0000000E+00;  4.0000875E+04; -1.1216984E-01;  0.0000000E+00;  2.6789077E-03;  3.7606357E+02;
  5.0827421E-02;  9.9999998E-03; -2.6999500E-01;2754; -6.3684094E-03;  0.0000000E+00; -9.6132210E-04;  9.9698877E+02;  1.0000000E-01; -2.4947441E+03;3; -1.8521805E+01;  0.0000000E+00; -9.8993063E+00;0; -6.9907188E-02;  3.9732297E+04;  0.0000000E+00; -3.3976710E-01;  4.0000000E+04;  0.0000000E+00;  4.0025074E+04; -6.9077730E-02;  0.0000000E+00; -8.2946150E-04;  3.4433542E+03;
  5.1160425E-02;  9.9999998E-03; -2.6001889E-01;2755; -7.0926463E-03;  0.0000000E+00; -8.8221545E-04;  9.9687366E+02;  1.0000000E-01; -2.5900996E+03;3; -1.9116148E+01;  0.0000000E+00; -9.9268427E+00;0; -7.6074630E-02;  3.9717379E+04;  0.0000000E+00; -2.5557569E-01;  4.0000000E+04;  0.0000000E+00;  4.0032219E+04; -7.6760121E-02;  0.0000000E+00;  6.8549300E-04;  4.3304990E+03;
  5.1442079E-02;  9.9999998E-03; -2.5004718E-01;2756; -7.8623472E-03;  0.0000000E+00; -7.4738223E-04;  9.9679974E+02;  1.0000000E-01; -2.6513325E+03;3; -2.1244732E+01;  0.0000000E+00; -7.9261708E+00;0; -8.1807718E-02;  3.9709785E+04;  0.0000000E+00; -2.1125190E-01;  4.0000000E+04;  0.0000000E+00;  4.0035480E+04; -8.3707049E-02;  0.0000000E+00;  1.8993325E-03;  4.7197837E+03;
  5.1673803E-02;  9.9999998E-03; -2.4006800E-01;2757; -8.6628487E-03;  0.0000000E+00; -5.8350572E-04;  9.9676605E+02;  1.0000000E-01; -2.6792822E+03;3; -2.5027206E+01;  0.0000000E+00; -4.9639106E+00;0; -8.7099999E-02;  3.9709570E+04;  0.0000000E+00; -2.1088296E-01;  4.0000000E+04;  0.0000000E+00;  4.0034348E+04; -8.9796118E-02;  0.0000000E+00;  2.6961169E-03;  4.5754619E+03;
  5.1863242E-02;  9.9999998E-03; -2.3007523E-01;2758; -9.4668316E-03;  0.0000000E+00; -4.3082595E-04;  9.9677374E+02;  1.0000000E-01; -2.6729121E+03;3; -3.0241724E+01;  0.0000000E+00; -2.0733581E+00;0; -9.1931447E-02;  3.9716465E+04;  0.0000000E+00; -2.4477029E-01;  4.0000000E+04;  0.0000000E+00;  4.0029293E+04; -9.4961137E-02;  0.0000000E+00;  3.0296890E-03;  3.9680566E+03;
  5.2009095E-02;  9.9999998E-03; -2.2007115E-01;2759; -1.0242509E-02;  0.0000000E+00; -3.2461138E-04;  9.9682574E+02;  1.0000000E-01; -2.6298022E+03;3; -3.6420647E+01;  0.0000000E+00;  8.7042265E-02;0; -9.6263938E-02;  3.9729324E+04;  0.0000000E+00; -2.9531917E-01;  4.0000000E+04;  0.0000000E+00;  4.0021910E+04; -9.9190295E-02;  0.0000000E+00;  2.9263564E-03;  3.0484832E+03;
  5.2113298E-02;  9.9999998E-03; -2.1005911E-01;2760; -1.0957866E-02;  0.0000000E+00; -2.7982294E-04;  9.9693207E+02;  1.0000000E-01; -2.5417058E+03;3; -4.3004467E+01;  0.0000000E+00;  1.3196501E+00;0; -1.0004332E-01;  3.9747172E+04;  0.0000000E+00; -3.4397465E-01;  4.0000000E+04;  0.0000000E+00;  4.0013746E+04; -1.0252003E-01;  0.0000000E+00;  2.4767176E-03;  2.0077247E+03;
  5.2181009E-02;  9.9999998E-03; -2.0004335E-01;2761; -1.1590318E-02;  0.0000000E+00; -2.8508558E-04;  9.9709003E+02;  1.0000000E-01; -2.4108455E+03;3; -4.9437660E+01;  0.0000000E+00;  1.7852428E+00;0; -1.0320659E-01;  3.9768934E+04;  0.0000000E+00; -3.7601537E-01;  4.0000000E+04;  0.0000000E+00;  4.0005418E+04; -1.0502180E-01;  0.0000000E+00;  1.8152160E-03;  1.0582771E+03;
  5.2216034E-02;  9.9999998E-03; -1.9002646E-01;2762; -1.2119638E-02;  0.0000000E+00; -3.3123067E-04;  9.9730219E+02;  1.0000000E-01; -2.2350972E+03;3; -5.5287540E+01;  0.0000000E+00;  1.7504538E+00;0; -1.0569650E-01;  3.9793227E+04;  0.0000000E+00; -3.8308939E-01;  4.0000000E+04;  0.0000000E+00;  3.9998723E+04; -1.0679102E-01;  0.0000000E+00;  1.0945185E-03;  5.4891705E+02;
  5.2222520E-02;  9.9999998E-03; -1.8001078E-01;2763; -1.2532053E-02;  0.0000000E+00; -4.0403783E-04;  9.9756134E+02;  1.0000000E-01; -2.0203873E+03;3; -6.0251476E+01;  0.0000000E+00;  1.4633574E+00;0; -1.0747297E-01;  3.9819090E+04;  0.0000000E+00; -3.6370584E-01;  4.0000000E+04;  0.0000000E+00;  3.9994152E+04; -1.0793355E-01;  0.0000000E+00;  4.6058279E-04;  7.3650690E+02;
  5.2206952E-02;  9.9999998E-03; -1.6999833E-01;2764; -1.2822247E-02;  0.0000000E+00; -4.8825642E-04;  9.9786102E+02;  1.0000000E-01; -1.7720980E+03;3; -6.4201324E+01;  0.0000000E+00;  1.0821686E+00;0; -1.0852055E-01;  3.9845656E+04;  0.0000000E+00; -3.2185584E-01;  4.0000000E+04;  0.0000000E+00;  3.9992098E+04; -1.0855243E-01;  0.0000000E+00;  3.1878531E-05;  9.2640765E+02;
  5.2176498E-02;  9.9999998E-03; -1.5999110E-01;2765; -1.2992383E-02;  0.0000000E+00; -5.7071098E-04;  9.9818469E+02;  1.0000000E-01; -1.5039575E+03;3; -6.7130493E+01;  0.0000000E+00;  6.8356633E-01;0; -1.0885594E-01;  3.9871875E+04;  0.0000000E+00; -2.6519161E-01;  4.0000000E+04;  0.0000000E+00;  3.9992242E+04; -1.0874116E-01;  0.0000000E+00; -1.1478114E-04;  8.9563226E+02;
  5.2137524E-02;  9.9999998E-03; -1.4998826E-01;2766; -1.3051605E-02;  0.0000000E+00; -6.4075453E-04;  9.9851971E+02;  1.0000000E-01; -1.2263850E+03;3; -6.9168350E+01;  0.0000000E+00;  3.0636430E-01;0; -1.0853266E-01;  3.9897250E+04;  0.0000000E+00; -2.0288123E-01;  4.0000000E+04;  0.0000000E+00;  3.9994586E+04; -1.0858084E-01;  0.0000000E+00;  4.8185084E-05;  6.7926459E+02;
  5.2095231E-02;  9.9999998E-03; -1.3998948E-01;2767; -1.3014584E-02;  0.0000000E+00; -6.8969716E-04;  9.9885107E+02;  1.0000000E-01; -9.5187433E+02;3; -7.0511124E+01;  0.0000000E+00; -1.7064899E-02;0; -1.0764213E-01;  3.9921359E+04;  0.0000000E+00; -1.4354977E-01;  4.0000000E+04;  0.0000000E+00;  3.9996461E+04; -1.0813962E-01;  0.0000000E+00;  4.9748807E-04;  3.6958344E+02;
  5.2054141E-02;  9.9999998E-03; -1.2999441E-01;2768; -1.2900706E-02;  0.0000000E+00; -7.0901960E-04;  9.9916467E+02;  1.0000000E-01; -6.9202979E+02;3; -7.1388596E+01;  0.0000000E+00; -2.6219961E-01;0; -1.0631288E-01;  3.9943785E+04;  0.0000000E+00; -9.3587838E-02;  4.0000000E+04;  0.0000000E+00;  3.9999867E+04; -1.0747618E-01;  0.0000000E+00;  1.1633070E-03;  1.3522070E+02;
  5.2016828E-02;  9.9999998E-03; -1.2000148E-01;2769; -1.2731498E-02;  0.0000000E+00; -6.9066958E-04;  9.9944757E+02;  1.0000000E-01; -4.5766608E+02;3; -7.2015236E+01;  0.0000000E+00; -4.2218781E-01;0; -1.0470016E-01;  3.9964633E+04;  0.0000000E+00; -5.5878595E-02;  4.0000000E+04;  0.0000000E+00;  4.0002023E+04; -1.0664374E-01;  0.0000000E+00;  1.9435779E-03;  2.7108298E+02;
  5.1984504E-02;  9.9999998E-03; -1.1000872E-01;2770; -1.2530993E-02;  0.0000000E+00; -6.3733419E-04;  9.9969769E+02;  1.0000000E-01; -2.5046205E+02;3; -7.2584488E+01;  0.0000000E+00; -5.0445849E-01;0; -1.0296656E-01;  3.9983391E+04;  0.0000000E+00; -3.0328758E-02;  4.0000000E+04;  0.0000000E+00;  4.0003113E+04; -1.0569188E-01;  0.0000000E+00;  2.7253206E-03;  3.8765329E+02;
  6.0852252E-02;  9.9999998E-03; -2.6999748E-01;2815; -7.3293983E-03;  0.0000000E+00; -9.5340161E-04;  9.9788110E+02;  1.0000000E-01; -1.7554565E+03;3; -1.9220245E+01;  0.0000000E+00; -1.8968176E+01;0; -6.8557359E-02;  3.9802141E+04;  0.0000000E+00; -1.9305409E-01;  4.0000000E+04;  0.0000000E+00;  4.0027094E+04; -6.8224952E-02;  0.0000000E+00; -3.3240533E-04;  3.5372275E+03;
  6.1161708E-02;  9.9999998E-03; -2.6002306E-01;2816; -8.1513599E-03;  0.0000000E+00; -8.4155129E-04;  9.9799280E+02;  1.0000000E-01; -1.6629159E+03;3; -1.9904005E+01;  0.0000000E+00; -1.8591103E+01;0; -7.4171469E-02;  3.9805570E+04;  0.0000000E+00; -2.5418118E-02;  4.0000000E+04;  0.0000000E+00;  4.0033926E+04; -7.5417042E-02;  0.0000000E+00;  1.2455755E-03;  4.4102305E+03;
  6.1421532E-02;  9.9999998E-03; -2.5004873E-01;2817; -9.0090660E-03;  0.0000000E+00; -6.6846347E-04;  9.9815088E+02;  1.0000000E-01; -1.5319567E+03;3; -2.2009380E+01;  0.0000000E+00; -1.5648286E+01;0; -7.9316087E-02;  3.9817012E+04;  0.0000000E+00;  9.5937371E-02;  4.0000000E+04;  0.0000000E+00;  4.0036516E+04; -8.1784405E-02;  0.0000000E+00;  2.4683205E-03;  4.7389678E+03;
  6.1631612E-02;  9.9999998E-03; -2.4006714E-01;2818; -9.8804478E-03;  0.0000000E+00; -4.7394715E-04;  9.9834290E+02;  1.0000000E-01; -1.3728994E+03;3; -2.5527872E+01;  0.0000000E+00; -1.1436837E+01;0; -8.4000282E-02;  3.9835859E+04;  0.0000000E+00;  1.5552837E-01;  4.0000000E+04;  0.0000000E+00;  4.0034645E+04; -8.7216958E-02;  0.0000000E+00;  3.2166750E-03;  4.4931089E+03;
  6.1799768E-02;  9.9999998E-03; -2.3007239E-01;2819; -1.0736665E-02;  0.0000000E+00; -3.0505657E-04;  9.9856488E+02;  1.0000000E-01; -1.1889540E+03;3; -3.0197695E+01;  0.0000000E+00; -7.2129312E+00;0; -8.8218533E-02;  3.9860934E+04;  0.0000000E+00;  1.5416938E-01;  4.0000000E+04;  0.0000000E+00;  4.0029090E+04; -9.1668859E-02;  0.0000000E+00;  3.4503294E-03;  3.7536938E+03;
  6.1927788E-02;  9.9999998E-03; -2.2006588E-01;2820; -1.1547227E-02;  0.0000000E+00; -1.9752391E-04;  9.9881567E+02;  1.0000000E-01; -9.8120679E+02;3; -3.5578529E+01;  0.0000000E+00; -3.7972131E+00;0; -9.1944657E-02;  3.9890785E+04;  0.0000000E+00;  1.0638047E-01;  4.0000000E+04;  0.0000000E+00;  4.0020352E+04; -9.5153108E-02;  0.0000000E+00;  3.2084500E-03;  2.6838408E+03;
  6.2018048E-02;  9.9999998E-03; -2.1005133E-01;2821; -1.2283606E-02;  0.0000000E+00; -1.6054041E-04;  9.9909644E+02;  1.0000000E-01; -7.4857141E+02;3; -4.1173008E+01;  0.0000000E+00; -1.4705113E+00;0; -9.5135011E-02;  3.9923855E+04;  0.0000000E+00;  3.4560446E-02;  4.0000000E+04;  0.0000000E+00;  4.0011496E+04; -9.7733632E-02;  0.0000000E+00;  2.5986189E-03;  1.4842778E+03;
  6.2074725E-02;  9.9999998E-03; -2.0003296E-01;2822; -1.2923663E-02;  0.0000000E+00; -1.8487785E-04;  9.9940741E+02;  1.0000000E-01; -4.9094907E+02;3; -4.6527756E+01;  0.0000000E+00; -1.2709121E-01;0; -9.7736210E-02;  3.9958777E+04;  0.0000000E+00; -3.9522577E-02;  4.0000000E+04;  0.0000000E+00;  4.0002543E+04; -9.9510416E-02;  0.0000000E+00;  1.7742034E-03;  3.5622705E+02;
  6.2099624E-02;  9.9999998E-03; -1.9001332E-01;2823; -1.3451543E-02;  0.0000000E+00; -2.5537459E-04;  9.9974670E+02;  1.0000000E-01; -2.0987061E+02;3; -5.1300560E+01;  0.0000000E+00;  5.0646108E-01;0; -9.9699162E-02;  3.9994129E+04;  0.0000000E+00; -9.9659838E-02;  4.0000000E+04;  0.0000000E+00;  3.9995527E+04; -1.0060553E-01;  0.0000000E+00;  9.0636872E-04;  5.7449353E+02;
  6.2096544E-02;  9.9999998E-03; -1.7999543E-01;2824; -1.3855532E-02;  0.0000000E+00; -3.5785206E-04;  1.0001093E+03;  1.0000000E-01;  9.0466576E+01;3; -5.5268295E+01;  0.0000000E+00;  6.9896454E-01;0; -1.0098918E-01;  4.0028746E+04;  0.0000000E+00; -1.3665986E-01;  4.0000000E+04;  0.0000000E+00;  3.9990988E+04; -1.0114634E-01;  0.0000000E+00;  1.5715967E-04;  1.1636007E+03;
  6.2072184E-02;  9.9999998E-03; -1.6998261E-01;2825; -1.4133886E-02;  0.0000000E+00; -4.7252313E-04;  1.0004915E+03;  1.0000000E-01;  4.0719836E+02;3; -5.8353546E+01;  0.0000000E+00;  6.4483345E-01;0; -1.0159494E-01;  4.0061668E+04;  0.0000000E+00; -1.4822626E-01;  4.0000000E+04;  0.0000000E+00;  3.9989332E+04; -1.0125110E-01;  0.0000000E+00; -3.4384226E-04;  1.4019069E+03;
  6.2033888E-02;  9.9999998E-03; -1.5997541E-01;2826; -1.4290364E-02;  0.0000000E+00; -5.8589340E-04;  1.0008741E+03;  1.0000000E-01;  7.2422644E+02;3; -6.0556198E+01;  0.0000000E+00;  4.5947474E-01;0; -1.0153692E-01;  4.0092301E+04;  0.0000000E+00; -1.3782865E-01;  4.0000000E+04;  0.0000000E+00;  3.9990359E+04; -1.0102186E-01;  0.0000000E+00; -5.1505805E-04;  1.3191240E+03;
  6.1987761E-02;  9.9999998E-03; -1.4997345E-01;2827; -1.4334934E-02;  0.0000000E+00; -6.8564457E-04;  1.0012538E+03;  1.0000000E-01;  1.0387854E+03;3; -6.2013340E+01;  0.0000000E+00;  2.2122805E-01;0; -1.0087185E-01;  4.0120594E+04;  0.0000000E+00; -1.1286924E-01;  4.0000000E+04;  0.0000000E+00;  3.9992867E+04; -1.0054173E-01;  0.0000000E+00; -3.3013066E-04;  9.9793958E+02;
  6.1939329E-02;  9.9999998E-03; -1.3997662E-01;2828; -1.4282014E-02;  0.0000000E+00; -7.6148950E-04;  1.0016133E+03;  1.0000000E-01;  1.3365548E+03;3; -6.2888931E+01;  0.0000000E+00; -6.0991924E-03;0; -9.9694617E-02;  4.0146086E+04;  0.0000000E+00; -8.2203895E-02;  4.0000000E+04;  0.0000000E+00;  3.9997160E+04; -9.9875703E-02;  0.0000000E+00;  1.8108972E-04;  5.5279156E+02;
  6.1892875E-02;  9.9999998E-03; -1.2998448E-01;2829; -1.4149675E-02;  0.0000000E+00; -8.0144295E-04;  1.0019424E+03;  1.0000000E-01;  1.6092384E+03;3; -6.3388443E+01;  0.0000000E+00; -1.8132009E-01;0; -9.8136820E-02;  4.0169082E+04;  0.0000000E+00; -5.3403609E-02;  4.0000000E+04;  0.0000000E+00;  4.0000727E+04; -9.9074319E-02;  0.0000000E+00;  9.3750237E-04;  1.1725198E+02;
  6.1850946E-02;  9.9999998E-03; -1.1999492E-01;2830; -1.3959393E-02;  0.0000000E+00; -7.9662347E-04;  1.0022337E+03;  1.0000000E-01;  1.8506144E+03;3; -6.3709869E+01;  0.0000000E+00; -2.9933506E-01;0; -9.6356764E-02;  4.0189531E+04;  0.0000000E+00; -3.0615751E-02;  4.0000000E+04;  0.0000000E+00;  4.0003949E+04; -9.8179705E-02;  0.0000000E+00;  1.8229446E-03;  2.7538763E+02;
  6.1815370E-02;  9.9999998E-03; -1.1000448E-01;2831; -1.3731652E-02;  0.0000000E+00; -7.3949387E-04;  1.0024811E+03;  1.0000000E-01;  2.0555469E+03;3; -6.3987106E+01;  0.0000000E+00; -3.5647467E-01;0; -9.4518483E-02;  4.0207566E+04;  0.0000000E+00; -1.5150555E-02;  4.0000000E+04;  0.0000000E+00;  4.0005621E+04; -9.7227693E-02;  0.0000000E+00;  2.7092064E-03;  4.8282428E+02;
  7.0875615E-02;  9.9999998E-03; -2.6999414E-01;2876; -8.1864996E-03;  0.0000000E+00; -9.9731819E-04;  9.9854718E+02;  1.0000000E-01; -1.2036202E+03;3; -1.7743305E+01;  0.0000000E+00; -2.6799873E+01;0; -6.6521317E-02;  3.9854551E+04;  0.0000000E+00;  8.5123524E-02;  4.0000000E+04;  0.0000000E+00;  4.0028234E+04; -6.6767633E-02;  0.0000000E+00;  2.4631526E-04;  3.6443633E+03;
  7.1158066E-02;  9.9999998E-03; -2.6002350E-01;2877; -9.0900082E-03;  0.0000000E+00; -8.4850786E-04;  9.9885455E+02;  1.0000000E-01; -9.4896082E+02;3; -1.7875021E+01;  0.0000000E+00; -2.6182867E+01;0; -7.1452521E-02;  3.9873227E+04;  0.0000000E+00;  3.1810820E-01;  4.0000000E+04;  0.0000000E+00;  4.0035730E+04; -7.3327675E-02;  0.0000000E+00;  1.8751523E-03;  4.5738545E+03;
  7.1393333E-02;  9.9999998E-03; -2.5004935E-01;2878; -1.0013126E-02;  0.0000000E+00; -6.3288712E-04;  9.9920807E+02;  1.0000000E-01; -6.5608020E+02;3; -1.9291140E+01;  0.0000000E+00; -2.2435713E+01;0; -7.5884089E-02;  3.9900633E+04;  0.0000000E+00;  4.9827042E-01;  4.0000000E+04;  0.0000000E+00;  4.0038141E+04; -7.8979015E-02;  0.0000000E+00;  3.0949228E-03;  4.9054697E+03;
  7.1583524E-02;  9.9999998E-03; -2.4006596E-01;2879; -1.0931264E-02;  0.0000000E+00; -3.9893607E-04;  9.9959021E+02;  1.0000000E-01; -3.3949658E+02;3; -2.1932161E+01;  0.0000000E+00; -1.7099731E+01;0; -7.9846546E-02;  3.9935301E+04;  0.0000000E+00;  6.0309267E-01;  4.0000000E+04;  0.0000000E+00;  4.0035812E+04; -8.3632104E-02;  0.0000000E+00;  3.7855562E-03;  4.6164897E+03;
  7.1734697E-02;  9.9999998E-03; -2.3006946E-01;2880; -1.1814102E-02;  0.0000000E+00; -2.0662569E-04;  9.9998950E+02;  1.0000000E-01; -8.6911125E+00;3; -2.5524733E+01;  0.0000000E+00; -1.1666791E+01;0; -8.3351910E-02;  3.9975602E+04;  0.0000000E+00;  6.2539881E-01;  4.0000000E+04;  0.0000000E+00;  4.0029586E+04; -8.7265119E-02;  0.0000000E+00;  3.9132084E-03;  3.8011814E+03;
  7.1850143E-02;  9.9999998E-03; -2.2006075E-01;2881; -1.2633517E-02;  0.0000000E+00; -9.0175723E-05;  1.0004000E+03;  1.0000000E-01;  3.3134866E+02;3; -2.9669443E+01;  0.0000000E+00; -7.1118045E+00;0; -8.6389005E-02;  4.0019309E+04;  0.0000000E+00;  5.7377279E-01;  4.0000000E+04;  0.0000000E+00;  4.0020480E+04; -8.9918278E-02;  0.0000000E+00;  3.5292709E-03;  2.6414263E+03;
  7.1931891E-02;  9.9999998E-03; -2.1004392E-01;2882; -1.3364036E-02;  0.0000000E+00; -5.5356948E-05;  1.0008205E+03;  1.0000000E-01;  6.7978326E+02;3; -3.3946011E+01;  0.0000000E+00; -3.8132591E+00;0; -8.8925153E-02;  4.0064602E+04;  0.0000000E+00;  4.7008112E-01;  4.0000000E+04;  0.0000000E+00;  4.0010078E+04; -9.1682330E-02;  0.0000000E+00;  2.7571784E-03;  1.3764615E+03;
  7.1981817E-02;  9.9999998E-03; -2.0002265E-01;2883; -1.3989288E-02;  0.0000000E+00; -8.9494060E-05;  1.0012473E+03;  1.0000000E-01;  1.0333535E+03;3; -3.7994236E+01;  0.0000000E+00; -1.7019706E+00;0; -9.0917185E-02;  4.0109977E+04;  0.0000000E+00;  3.4315777E-01;  4.0000000E+04;  0.0000000E+00;  4.0000699E+04; -9.2684850E-02;  0.0000000E+00;  1.7676638E-03;  4.9335153E+02;
  7.2000809E-02;  9.9999998E-03; -1.9000079E-01;2884; -1.4494603E-02;  0.0000000E+00; -1.7981081E-04;  1.0016803E+03;  1.0000000E-01;  1.3920594E+03;3; -4.1555080E+01;  0.0000000E+00; -5.0313407E-01;0; -9.2325069E-02;  4.0153547E+04;  0.0000000E+00;  2.1959959E-01;  4.0000000E+04;  0.0000000E+00;  3.9993281E+04; -9.3074247E-02;  0.0000000E+00;  7.4917480E-04;  1.0437845E+03;
  7.1992464E-02;  9.9999998E-03; -1.7998178E-01;2885; -1.4874902E-02;  0.0000000E+00; -3.0538221E-04;  1.0021173E+03;  1.0000000E-01;  1.7541232E+03;3; -4.4478722E+01;  0.0000000E+00;  8.4206849E-02;0; -9.3119197E-02;  4.0194266E+04;  0.0000000E+00;  1.1720467E-01;  4.0000000E+04;  0.0000000E+00;  3.9988809E+04; -9.2997834E-02;  0.0000000E+00; -1.2136479E-04;  1.6108884E+03;
  7.1964294E-02;  9.9999998E-03; -1.6996895E-01;2886; -1.5130462E-02;  0.0000000E+00; -4.4721749E-04;  1.0025481E+03;  1.0000000E-01;  2.1110515E+03;3; -4.6697094E+01;  0.0000000E+00;  2.9224160E-01;0; -9.3290210E-02;  4.0231477E+04;  0.0000000E+00;  4.4735335E-02;  4.0000000E+04;  0.0000000E+00;  3.9987520E+04; -9.2587054E-02;  0.0000000E+00; -7.0315338E-04;  1.8129048E+03;
  7.1922444E-02;  9.9999998E-03; -1.5996198E-01;2887; -1.5267116E-02;  0.0000000E+00; -5.8967242E-04;  1.0029704E+03;  1.0000000E-01;  2.4609675E+03;3; -4.8246563E+01;  0.0000000E+00;  2.7484664E-01;0; -9.2861064E-02;  4.0264652E+04;  0.0000000E+00;  2.8702763E-03;  4.0000000E+04;  0.0000000E+00;  3.9988836E+04; -9.1951996E-02;  0.0000000E+00; -9.0906688E-04;  1.6582133E+03;
  7.1873195E-02;  9.9999998E-03; -1.4996076E-01;2888; -1.5295752E-02;  0.0000000E+00; -7.1952527E-04;  1.0033707E+03;  1.0000000E-01;  2.7925137E+03;3; -4.9212055E+01;  0.0000000E+00;  1.4706959E-01;0; -9.1890074E-02;  4.0293914E+04;  0.0000000E+00; -1.4087085E-02;  4.0000000E+04;  0.0000000E+00;  3.9992520E+04; -9.1176361E-02;  0.0000000E+00; -7.1371149E-04;  1.2334861E+03;
  7.1821824E-02;  9.9999998E-03; -1.3996591E-01;2889; -1.5229639E-02;  0.0000000E+00; -8.2459027E-04;  1.0037371E+03;  1.0000000E-01;  3.0961099E+03;3; -4.9731079E+01;  0.0000000E+00; -8.9011807E-04;0; -9.0473868E-02;  4.0319258E+04;  0.0000000E+00; -1.5381400E-02;  4.0000000E+04;  0.0000000E+00;  3.9996980E+04; -9.0320170E-02;  0.0000000E+00; -1.5369509E-04;  6.6695178E+02;
  7.1772411E-02;  9.9999998E-03; -1.2997675E-01;2890; -1.5086338E-02;  0.0000000E+00; -8.9118798E-04;  1.0040652E+03;  1.0000000E-01;  3.3679048E+03;3; -4.9977898E+01;  0.0000000E+00; -1.1854333E-01;0; -8.8745467E-02;  4.0341176E+04;  0.0000000E+00; -9.8381797E-03;  4.0000000E+04;  0.0000000E+00;  4.0002113E+04; -8.9424342E-02;  0.0000000E+00;  6.7887147E-04;  9.6414635E+01;
  7.1727671E-02;  9.9999998E-03; -1.1998974E-01;2891; -1.4881832E-02;  0.0000000E+00; -9.0245443E-04;  1.0043449E+03;  1.0000000E-01;  3.5997007E+03;3; -5.0094463E+01;  0.0000000E+00; -1.9996208E-01;0; -8.6863160E-02;  4.0360086E+04;  0.0000000E+00; -3.2667841E-03;  4.0000000E+04;  0.0000000E+00;  4.0005992E+04; -8.8517636E-02;  0.0000000E+00;  1.6544746E-03;  3.6805756E+02;
  7.1689047E-02;  9.9999998E-03; -1.1000133E-01;2892; -1.4637935E-02;  0.0000000E+00; -8.5359119E-04;  1.0045780E+03;  1.0000000E-01;  3.7927817E+03;3; -5.0200386E+01;  0.0000000E+00; -2.4146613E-01;0; -8.4990107E-02;  4.0376379E+04;  0.0000000E+00;  1.3272695E-03;  4.0000000E+04;  0.0000000E+00;  4.0008449E+04; -8.7620690E-02;  0.0000000E+00;  2.6305830E-03;  6.5525690E+02;
  8.0897160E-02;  9.9999998E-03; -2.6998726E-01;2937; -8.9262696E-03;  0.0000000E+00; -1.1016405E-03;  9.9896173E+02;  1.0000000E-01; -8.6017322E+02;3; -1.5408881E+01;  0.0000000E+00; -3.3125954E+01;0; -6.4309530E-02;  3.9886730E+04;  0.0000000E+00;  6.5650636E-01;  4.0000000E+04;  0.0000000E+00;  4.0029598E+04; -6.5197878E-02;  0.0000000E+00;  8.8834949E-04;  3.9022971E+03;
  8.1150688E-02;  9.9999998E-03; -2.6002210E-01;2938; -9.8999171E-03;  0.0000000E+00; -9.0559752E-04;  9.9942828E+02;  1.0000000E-01; -4.7366562E+02;3; -1.4655187E+01;  0.0000000E+00; -3.2426052E+01;0; -6.8452589E-02;  3.9917594E+04;  0.0000000E+00;  8.8531423E-01;  4.0000000E+04;  0.0000000E+00;  4.0037922E+04; -7.1006931E-02;  0.0000000E+00;  2.5543417E-03;  4.9383696E+03;
  8.1359930E-02;  9.9999998E-03; -2.5005037E-01;2939; -1.0867693E-02;  0.0000000E+00; -6.4560771E-04;  9.9994336E+02;  1.0000000E-01; -4.6912254E+01;3; -1.5079820E+01;  0.0000000E+00; -2.8068052E+01;0; -7.2067879E-02;  3.9957738E+04;  0.0000000E+00;  1.0497347E+00;  4.0000000E+04;  0.0000000E+00;  4.0040480E+04; -7.5828589E-02;  0.0000000E+00;  3.7607078E-03;  5.3126650E+03;
  8.1532754E-02;  9.9999998E-03; -2.4006569E-01;2940; -1.1814240E-02;  0.0000000E+00; -3.6532641E-04;  1.0004805E+03;  1.0000000E-01;  3.9811218E+02;3; -1.6598423E+01;  0.0000000E+00; -2.1782084E+01;0; -7.5213842E-02;  4.0005059E+04;  0.0000000E+00;  1.1339675E+00;  4.0000000E+04;  0.0000000E+00;  4.0038141E+04; -7.9601631E-02;  0.0000000E+00;  4.3877903E-03;  5.0141147E+03;
  8.1671171E-02;  9.9999998E-03; -2.3006687E-01;2941; -1.2704934E-02;  0.0000000E+00; -1.3714509E-04;  1.0010189E+03;  1.0000000E-01;  8.4412427E+02;3; -1.8941599E+01;  0.0000000E+00; -1.5292444E+01;0; -7.7927679E-02;  4.0057164E+04;  0.0000000E+00;  1.1318008E+00;  4.0000000E+04;  0.0000000E+00;  4.0031508E+04; -8.2335979E-02;  0.0000000E+00;  4.4082999E-03;  4.1565776E+03;
  8.1778549E-02;  9.9999998E-03; -2.2005619E-01;2942; -1.3509494E-02;  0.0000000E+00; -3.9014840E-06;  1.0015532E+03;  1.0000000E-01;  1.2867784E+03;3; -2.1756029E+01;  0.0000000E+00; -9.7588434E+00;0; -8.0216512E-02;  4.0111754E+04;  0.0000000E+00;  1.0481179E+00;  4.0000000E+04;  0.0000000E+00;  4.0021457E+04; -8.4101602E-02;  0.0000000E+00;  3.8850904E-03;  2.9518525E+03;
  8.1855863E-02;  9.9999998E-03; -2.1003711E-01;2943; -1.4211996E-02;  0.0000000E+00;  3.5808040E-05;  1.0020732E+03;  1.0000000E-01;  1.7175811E+03;3; -2.4691000E+01;  0.0000000E+00; -5.6362944E+00;0; -8.2062267E-02;  4.0166535E+04;  0.0000000E+00;  9.0010500E-01;  4.0000000E+04;  0.0000000E+00;  4.0010488E+04; -8.5017867E-02;  0.0000000E+00;  2.9555981E-03;  1.7084222E+03;
  8.1901915E-02;  9.9999998E-03; -2.0001355E-01;2944; -1.4802833E-02;  0.0000000E+00; -7.0856225E-07;  1.0025861E+03;  1.0000000E-01;  2.1424580E+03;3; -2.7482210E+01;  0.0000000E+00; -2.8992233E+00;0; -8.3431497E-02;  4.0219285E+04;  0.0000000E+00;  7.1566582E-01;  4.0000000E+04;  0.0000000E+00;  4.0000383E+04; -8.5237458E-02;  0.0000000E+00;  1.8059605E-03;  1.0400920E+03;
  8.1918329E-02;  9.9999998E-03; -1.8999007E-01;2945; -1.5269237E-02;  0.0000000E+00; -1.0149040E-04;  1.0030813E+03;  1.0000000E-01;  2.5528167E+03;3; -2.9919189E+01;  0.0000000E+00; -1.2544072E+00;0; -8.4288649E-02;  4.0268484E+04;  0.0000000E+00;  5.2692968E-01;  4.0000000E+04;  0.0000000E+00;  3.9992367E+04; -8.4928446E-02;  0.0000000E+00;  6.3979730E-04;  1.4453470E+03;
  8.1908152E-02;  9.9999998E-03; -1.7997056E-01;2946; -1.5612042E-02;  0.0000000E+00; -2.4292587E-04;  1.0035598E+03;  1.0000000E-01;  2.9491511E+03;3; -3.1899473E+01;  0.0000000E+00; -3.6831099E-01;0; -8.4608935E-02;  4.0312898E+04;  0.0000000E+00;  3.6011243E-01;  4.0000000E+04;  0.0000000E+00;  3.9987414E+04; -8.4255941E-02;  0.0000000E+00; -3.5299413E-04;  1.9417483E+03;
  8.1878871E-02;  9.9999998E-03; -1.6995738E-01;2947; -1.5835386E-02;  0.0000000E+00; -4.0469930E-04;  1.0040148E+03;  1.0000000E-01;  3.3261282E+03;3; -3.3378986E+01;  0.0000000E+00;  3.0664759E-02;0; -8.4383823E-02;  4.0352031E+04;  0.0000000E+00;  2.2901860E-01;  4.0000000E+04;  0.0000000E+00;  3.9986281E+04; -8.3362274E-02;  0.0000000E+00; -1.0215509E-03;  2.0968975E+03;
  8.1837334E-02;  9.9999998E-03; -1.5995018E-01;2948; -1.5947362E-02;  0.0000000E+00; -5.7185092E-04;  1.0044460E+03;  1.0000000E-01;  3.6834514E+03;3; -3.4381802E+01;  0.0000000E+00;  1.3467962E-01;0; -8.3634034E-02;  4.0385648E+04;  0.0000000E+00;  1.3708384E-01;  4.0000000E+04;  0.0000000E+00;  3.9988340E+04; -8.2361460E-02;  0.0000000E+00; -1.2725731E-03;  1.8768285E+03;
  8.1789128E-02;  9.9999998E-03; -1.4994946E-01;2949; -1.5959069E-02;  0.0000000E+00; -7.2870083E-04;  1.0048408E+03;  1.0000000E-01;  4.0104546E+03;3; -3.4966766E+01;  0.0000000E+00;  8.8945337E-02;0; -8.2417540E-02;  4.0413961E+04;  0.0000000E+00;  7.9771675E-02;  4.0000000E+04;  0.0000000E+00;  3.9992512E+04; -8.1336930E-02;  0.0000000E+00; -1.0806093E-03;  1.3633824E+03;
  8.1739806E-02;  9.9999998E-03; -1.3995689E-01;2950; -1.5882365E-02;  0.0000000E+00; -8.6105691E-04;  1.0051953E+03;  1.0000000E-01;  4.3041748E+03;3; -3.5239536E+01;  0.0000000E+00;  2.1595969E-03;0; -8.0830418E-02;  4.0437359E+04;  0.0000000E+00;  4.7591358E-02;  4.0000000E+04;  0.0000000E+00;  3.9998430E+04; -8.0341652E-02;  0.0000000E+00; -4.8876234E-04;  6.9461273E+02;
  8.1691891E-02;  9.9999998E-03; -1.2997030E-01;2951; -1.5729507E-02;  0.0000000E+00; -9.4856118E-04;  1.0054999E+03;  1.0000000E-01;  4.5566118E+03;3; -3.5321316E+01;  0.0000000E+00; -7.1383245E-02;0; -7.9006582E-02;  4.0456789E+04;  0.0000000E+00;  3.0762287E-02;  4.0000000E+04;  0.0000000E+00;  4.0004105E+04; -7.9407156E-02;  0.0000000E+00;  4.0057610E-04;  4.7517563E+01;
  8.1647828E-02;  9.9999998E-03; -1.1998557E-01;2952; -1.5516520E-02;  0.0000000E+00; -9.7546109E-04;  1.0057551E+03;  1.0000000E-01;  4.7679639E+03;3; -3.5322453E+01;  0.0000000E+00; -1.2020797E-01;0; -7.7101186E-02;  4.0472922E+04;  0.0000000E+00;  2.1753691E-02;  4.0000000E+04;  0.0000000E+00;  4.0008285E+04; -7.8546993E-02;  0.0000000E+00;  1.4458046E-03;  5.3419519E+02;
  8.1607871E-02;  9.9999998E-03; -1.0999911E-01;2953; -1.5259825E-02;  0.0000000E+00; -9.3057414E-04;  1.0059578E+03;  1.0000000E-01;  4.9359590E+03;3; -3.5324703E+01;  0.0000000E+00; -1.4646882E-01;0; -7.5274386E-02;  4.0486340E+04;  0.0000000E+00;  1.5906006E-02;  4.0000000E+04;  0.0000000E+00;  4.0011383E+04; -7.7765726E-02;  0.0000000E+00;  2.4913417E-03;  8.8694446E+02;
  9.0912387E-02;  9.9999998E-03; -2.6997623E-01;2998; -9.5779104E-03;  0.0000000E+00; -1.2278054E-03;  9.9912384E+02;  1.0000000E-01; -7.2590540E+02;3; -1.3231889E+01;  0.0000000E+00; -3.7885113E+01;0; -6.2438603E-02;  3.9898348E+04;  0.0000000E+00;  1.7443277E+00;  4.0000000E+04;  0.0000000E+00;  4.0031270E+04; -6.4010628E-02;  0.0000000E+00;  1.5720241E-03;  4.7059531E+03;
  9.1137901E-02;  9.9999998E-03; -2.6001737E-01;2999; -1.0601467E-02;  0.0000000E+00; -9.9915999E-04;  9.9971973E+02;  1.0000000E-01; -2.3219096E+02;3; -1.1533126E+01;  0.0000000E+00; -3.7331772E+01;0; -6.5706462E-02;  3.9938727E+04;  0.0000000E+00;  1.8373425E+00;  4.0000000E+04;  0.0000000E+00;  4.0040477E+04; -6.8966381E-02;  0.0000000E+00;  3.2599224E-03;  5.7348208E+03;
  9.1324851E-02;  9.9999998E-03; -2.5004834E-01;3000; -1.1601118E-02;  0.0000000E+00; -6.8501499E-04;  1.0003637E+03;  1.0000000E-01;  3.0132480E+02;3; -1.0934388E+01;  0.0000000E+00; -3.2517654E+01;0; -6.8419218E-02;  3.9988684E+04;  0.0000000E+00;  1.8463966E+00;  4.0000000E+04;  0.0000000E+00;  4.0043945E+04; -7.2860330E-02;  0.0000000E+00;  4.4411141E-03;  6.0823413E+03;
  9.1483004E-02;  9.9999998E-03; -2.4006283E-01;3001; -1.2558863E-02;  0.0000000E+00; -3.5563315E-04;  1.0010201E+03;  1.0000000E-01;  8.4511188E+02;3; -1.1349193E+01;  0.0000000E+00; -2.5457830E+01;0; -7.0671082E-02;  4.0045785E+04;  0.0000000E+00;  1.7847400E+00;  4.0000000E+04;  0.0000000E+00;  4.0041715E+04; -7.5671554E-02;  0.0000000E+00;  5.0004758E-03;  5.7256470E+03;
  9.1612205E-02;  9.9999998E-03; -2.3006293E-01;3002; -1.3436222E-02;  0.0000000E+00; -9.0300447E-05;  1.0016663E+03;  1.0000000E-01;  1.3805042E+03;3; -1.2522241E+01;  0.0000000E+00; -1.8100281E+01;0; -7.2531641E-02;  4.0106906E+04;  0.0000000E+00;  1.6627926E+00;  4.0000000E+04;  0.0000000E+00;  4.0034664E+04; -7.7448606E-02;  0.0000000E+00;  4.9169683E-03;  4.7867466E+03;
  9.1715612E-02;  9.9999998E-03; -2.2005118E-01;3003; -1.4207962E-02;  0.0000000E+00;  6.8506692E-05;  1.0022936E+03;  1.0000000E-01;  1.9001931E+03;3; -1.4143182E+01;  0.0000000E+00; -1.1758110E+01;0; -7.4033611E-02;  4.0169578E+04;  0.0000000E+00;  1.4882015E+00;  4.0000000E+04;  0.0000000E+00;  4.0023777E+04; -7.8296490E-02;  0.0000000E+00;  4.2628772E-03;  3.4989370E+03;
  9.1789484E-02;  9.9999998E-03; -2.1003120E-01;3004; -1.4867158E-02;  0.0000000E+00;  1.2270091E-04;  1.0028884E+03;  1.0000000E-01;  2.3929199E+03;3; -1.5927258E+01;  0.0000000E+00; -6.9743381E+00;0; -7.5177275E-02;  4.0230840E+04;  0.0000000E+00;  1.2702715E+00;  4.0000000E+04;  0.0000000E+00;  4.0012047E+04; -7.8364603E-02;  0.0000000E+00;  3.1873256E-03;  2.2037468E+03;
  9.1834940E-02;  9.9999998E-03; -2.0000644E-01;3005; -1.5405955E-02;  0.0000000E+00;  8.8165041E-05;  1.0034526E+03;  1.0000000E-01;  2.8604624E+03;3; -1.7655834E+01;  0.0000000E+00; -3.7471523E+00;0; -7.5936206E-02;  4.0288676E+04;  0.0000000E+00;  1.0261164E+00;  4.0000000E+04;  0.0000000E+00;  4.0001176E+04; -7.7825710E-02;  0.0000000E+00;  1.8895031E-03;  1.4709143E+03;
  9.1849484E-02;  9.9999998E-03; -1.8998212E-01;3006; -1.5821934E-02;  0.0000000E+00; -1.3590353E-05;  1.0039780E+03;  1.0000000E-01;  3.2957092E+03;3; -1.9176664E+01;  0.0000000E+00; -1.7697810E+00;0; -7.6279081E-02;  4.0340828E+04;  0.0000000E+00;  7.8074247E-01;  4.0000000E+04;  0.0000000E+00;  3.9992457E+04; -7.6864317E-02;  0.0000000E+00;  5.8523542E-04;  1.7009346E+03;
  9.1838092E-02;  9.9999998E-03; -1.7996207E-01;3007; -1.6116561E-02;  0.0000000E+00; -1.6207217E-04;  1.0044692E+03;  1.0000000E-01;  3.7027102E+03;3; -2.0408222E+01;  0.0000000E+00; -6.7462939E-01;0; -7.6178372E-02;  4.0386879E+04;  0.0000000E+00;  5.6020457E-01;  4.0000000E+04;  0.0000000E+00;  3.9987418E+04; -7.5653531E-02;  0.0000000E+00; -5.2484131E-04;  2.1285984E+03;
  9.1809295E-02;  9.9999998E-03; -1.6994797E-01;3008; -1.6299564E-02;  0.0000000E+00; -3.3505954E-04;  1.0049216E+03;  1.0000000E-01;  4.0775144E+03;3; -2.1316160E+01;  0.0000000E+00; -1.4888790E-01;0; -7.5622894E-02;  4.0425688E+04;  0.0000000E+00;  3.8144439E-01;  4.0000000E+04;  0.0000000E+00;  3.9986000E+04; -7.4341185E-02;  0.0000000E+00; -1.2817049E-03;  2.2469800E+03;
  9.1770008E-02;  9.9999998E-03; -1.5993962E-01;3009; -1.6381852E-02;  0.0000000E+00; -5.1877805E-04;  1.0053334E+03;  1.0000000E-01;  4.4186406E+03;3; -2.1909443E+01;  0.0000000E+00;  3.4691487E-02;0; -7.4629240E-02;  4.0457684E+04;  0.0000000E+00;  2.4866110E-01;  4.0000000E+04;  0.0000000E+00;  3.9988160E+04; -7.3042795E-02;  0.0000000E+00; -1.5864429E-03;  1.9776379E+03;
  9.1726638E-02;  9.9999998E-03; -1.4993937E-01;3010; -1.6373863E-02;  0.0000000E+00; -6.9608266E-04;  1.0057019E+03;  1.0000000E-01;  4.7239160E+03;3; -2.2228357E+01;  0.0000000E+00;  4.5360722E-02;0; -7.3250137E-02;  4.0483129E+04;  0.0000000E+00;  1.5762156E-01;  4.0000000E+04;  0.0000000E+00;  3.9992988E+04; -7.1837731E-02;  0.0000000E+00; -1.4124060E-03;  1.3962113E+03;
  9.1683403E-02;  9.9999998E-03; -1.3994901E-01;3011; -1.6282354E-02;  0.0000000E+00; -8.4529334E-04;  1.0060223E+03;  1.0000000E-01;  4.9893896E+03;3; -2.2340790E+01;  0.0000000E+00;  2.3172370E-03;0; -7.1580149E-02;  4.0503094E+04;  0.0000000E+00;  9.9221103E-02;  4.0000000E+04;  0.0000000E+00;  3.9999082E+04; -7.0772193E-02;  0.0000000E+00; -8.0795703E-04;  6.4903632E+02;
  9.1642566E-02;  9.9999998E-03; -1.2996495E-01;3012; -1.6118439E-02;  0.0000000E+00; -9.4421464E-04;  1.0062871E+03;  1.0000000E-01;  5.2087417E+03;3; -2.2328093E+01;  0.0000000E+00; -3.6315124E-02;0; -6.9749087E-02;  4.0518672E+04;  0.0000000E+00;  6.3202143E-02;  4.0000000E+04;  0.0000000E+00;  4.0005332E+04; -6.9864638E-02;  0.0000000E+00;  1.1555375E-04;  1.5043747E+02;
  9.1604121E-02;  9.9999998E-03; -1.1998264E-01;3013; -1.5894363E-02;  0.0000000E+00; -9.7553851E-04;  1.0064960E+03;  1.0000000E-01;  5.3818726E+03;3; -2.2266342E+01;  0.0000000E+00; -6.2416203E-02;0; -6.7909271E-02;  4.0530711E+04;  0.0000000E+00;  4.0727761E-02;  4.0000000E+04;  0.0000000E+00;  4.0010797E+04; -6.9115132E-02;  0.0000000E+00;  1.2058640E-03;  7.4656732E+02;
  9.1567859E-02;  9.9999998E-03; -1.0999769E-01;3014; -1.5629394E-02;  0.0000000E+00; -9.3126559E-04;  1.0066555E+03;  1.0000000E-01;  5.5140171E+03;3; -2.2219412E+01;  0.0000000E+00; -7.6530918E-02;0; -6.6213176E-02;  4.0540059E+04;  0.0000000E+00;  2.5872441E-02;  4.0000000E+04;  0.0000000E+00;  4.0013770E+04; -6.8509653E-02;  0.0000000E+00;  2.2964752E-03;  1.1522432E+03;
  1.0091858E-01;  9.9999998E-03; -2.6995510E-01;3059; -1.0186995E-02;  0.0000000E+00; -1.3192242E-03;  9.9905231E+02;  1.0000000E-01; -7.8516296E+02;3; -1.1672893E+01;  0.0000000E+00; -4.1240173E+01;0; -6.1362870E-02;  3.9891309E+04;  0.0000000E+00;  3.5782557E+00;  4.0000000E+04;  0.0000000E+00;  4.0033559E+04; -6.3637570E-02;  0.0000000E+00;  2.2747014E-03;  6.6781528E+03;
  1.0111684E-01;  9.9999998E-03; -2.6000479E-01;3060; -1.1248463E-02;  0.0000000E+00; -1.0702774E-03;  9.9975494E+02;  1.0000000E-01; -2.0300661E+02;3; -9.1723413E+00;  0.0000000E+00; -4.1000584E+01;0; -6.3677371E-02;  3.9938832E+04;  0.0000000E+00;  3.3357332E+00;  4.0000000E+04;  0.0000000E+00;  4.0043750E+04; -6.7641824E-02;  0.0000000E+00;  3.9644507E-03;  7.3097632E+03;
  1.0129046E-01;  9.9999998E-03; -2.5003758E-01;3061; -1.2260419E-02;  0.0000000E+00; -7.2225317E-04;  1.0005046E+03;  1.0000000E-01;  4.1806226E+02;3; -7.7213564E+00;  0.0000000E+00; -3.5927032E+01;0; -6.5410413E-02;  3.9996453E+04;  0.0000000E+00;  2.9880197E+00;  4.0000000E+04;  0.0000000E+00;  4.0048293E+04; -7.0518777E-02;  0.0000000E+00;  5.1083667E-03;  7.3667319E+03;
  1.0143829E-01;  9.9999998E-03; -2.4005292E-01;3062; -1.3207449E-02;  0.0000000E+00; -3.5063483E-04;  1.0012594E+03;  1.0000000E-01;  1.0434272E+03;3; -7.2268162E+00;  0.0000000E+00; -2.8271797E+01;0; -6.6703923E-02;  4.0061059E+04;  0.0000000E+00;  2.6036112E+00;  4.0000000E+04;  0.0000000E+00;  4.0046082E+04; -7.2299734E-02;  0.0000000E+00;  5.5958079E-03;  6.7768701E+03;
  1.0156275E-01;  9.9999998E-03; -2.3005405E-01;3063; -1.4055489E-02;  0.0000000E+00; -4.6173918E-05;  1.0019905E+03;  1.0000000E-01;  1.6491385E+03;3; -7.4568567E+00;  0.0000000E+00; -2.0209377E+01;0; -6.7665994E-02;  4.0129195E+04;  0.0000000E+00;  2.2281108E+00;  4.0000000E+04;  0.0000000E+00;  4.0038461E+04; -7.3079750E-02;  0.0000000E+00;  5.4137539E-03;  5.6355693E+03;
  1.0166132E-01;  9.9999998E-03; -2.2004420E-01;3064; -1.4782121E-02;  0.0000000E+00;  1.4395935E-04;  1.0026817E+03;  1.0000000E-01;  2.2217644E+03;3; -8.1372814E+00;  0.0000000E+00; -1.3207541E+01;0; -6.8362571E-02;  4.0197562E+04;  0.0000000E+00;  1.8782538E+00;  4.0000000E+04;  0.0000000E+00;  4.0027305E+04; -7.3004454E-02;  0.0000000E+00;  4.6418803E-03;  4.1664590E+03;
  1.0173620E-01;  9.9999998E-03; -2.1002498E-01;3065; -1.5381352E-02;  0.0000000E+00;  2.1108353E-04;  1.0033254E+03;  1.0000000E-01;  2.7550825E+03;3; -9.0297298E+00;  0.0000000E+00; -7.9075603E+00;0; -6.8809852E-02;  4.0263184E+04;  0.0000000E+00;  1.5515188E+00;  4.0000000E+04;  0.0000000E+00;  4.0015012E+04; -7.2248004E-02;  0.0000000E+00;  3.4381524E-03;  2.7034553E+03;
  1.0177880E-01;  9.9999998E-03; -2.0000148E-01;3066; -1.5856307E-02;  0.0000000E+00;  1.8361599E-04;  1.0039136E+03;  1.0000000E-01;  3.2423774E+03;3; -9.9582968E+00;  0.0000000E+00; -4.3122244E+00;0; -6.8994537E-02;  4.0323598E+04;  0.0000000E+00;  1.2422612E+00;  4.0000000E+04;  0.0000000E+00;  4.0002914E+04; -7.1004935E-02;  0.0000000E+00;  2.0103995E-03;  1.7675892E+03;
  1.0179140E-01;  9.9999998E-03; -1.8997703E-01;3067; -1.6211979E-02;  0.0000000E+00;  8.8125824E-05;  1.0044459E+03;  1.0000000E-01;  3.6833525E+03;3; -1.0806940E+01;  0.0000000E+00; -2.0987945E+00;0; -6.8880975E-02;  4.0376938E+04;  0.0000000E+00;  9.5356667E-01;  4.0000000E+04;  0.0000000E+00;  3.9993555E+04; -6.9464609E-02;  0.0000000E+00;  5.8363308E-04;  1.8063204E+03;
  1.0177912E-01;  9.9999998E-03; -1.7995657E-01;3068; -1.6451208E-02;  0.0000000E+00; -5.6308611E-05;  1.0049220E+03;  1.0000000E-01;  4.0778105E+03;3; -1.1499574E+01;  0.0000000E+00; -8.6378467E-01;0; -6.8434633E-02;  4.0422121E+04;  0.0000000E+00;  6.9780445E-01;  4.0000000E+04;  0.0000000E+00;  3.9988008E+04; -6.7801438E-02;  0.0000000E+00; -6.3319510E-04;  2.1819050E+03;
  1.0175002E-01;  9.9999998E-03; -1.6994070E-01;3069; -1.6586192E-02;  0.0000000E+00; -2.2972017E-04;  1.0053480E+03;  1.0000000E-01;  4.4306895E+03;3; -1.2005946E+01;  0.0000000E+00; -2.6035774E-01;0; -6.7636646E-02;  4.0458793E+04;  0.0000000E+00;  4.8785040E-01;  4.0000000E+04;  0.0000000E+00;  3.9986445E+04; -6.6161700E-02;  0.0000000E+00; -1.4749494E-03;  2.2830815E+03;
  1.0171194E-01;  9.9999998E-03; -1.5992996E-01;3070; -1.6632244E-02;  0.0000000E+00; -4.1965678E-04;  1.0057202E+03;  1.0000000E-01;  4.7391250E+03;3; -1.2323829E+01;  0.0000000E+00; -2.8142784E-02;0; -6.6496268E-02;  4.0487094E+04;  0.0000000E+00;  3.2772505E-01;  4.0000000E+04;  0.0000000E+00;  3.9988578E+04; -6.4657748E-02;  0.0000000E+00; -1.8385210E-03;  1.9841345E+03;
  1.0167212E-01;  9.9999998E-03; -1.4993031E-01;3071; -1.6596461E-02;  0.0000000E+00; -6.0370291E-04;  1.0060362E+03;  1.0000000E-01;  5.0008462E+03;3; -1.2472788E+01;  0.0000000E+00;  1.7640239E-02;0; -6.5058209E-02;  4.0508113E+04;  0.0000000E+00;  2.1286598E-01;  4.0000000E+04;  0.0000000E+00;  3.9993957E+04; -6.3362367E-02;  0.0000000E+00; -1.6958431E-03;  1.3565549E+03;
  1.0163406E-01;  9.9999998E-03; -1.3994205E-01;3072; -1.6482977E-02;  0.0000000E+00; -7.5604883E-04;  1.0062980E+03;  1.0000000E-01;  5.2178276E+03;3; -1.2497678E+01;  0.0000000E+00;  2.2272898E-03;0; -6.3409574E-02;  4.0523012E+04;  0.0000000E+00;  1.3515718E-01;  4.0000000E+04;  0.0000000E+00;  4.0000430E+04; -6.2311441E-02;  0.0000000E+00; -1.0981355E-03;  5.5644495E+02;
  1.0159815E-01;  9.9999998E-03; -1.2996033E-01;3073; -1.6301617E-02;  0.0000000E+00; -8.5403019E-04;  1.0065045E+03;  1.0000000E-01;  5.3888848E+03;3; -1.2448875E+01;  0.0000000E+00; -1.4651652E-02;0; -6.1674755E-02;  4.0532934E+04;  0.0000000E+00;  8.4533907E-02;  4.0000000E+04;  0.0000000E+00;  4.0006691E+04; -6.1510898E-02;  0.0000000E+00; -1.6385657E-04;  3.1709912E+02;
  1.0156310E-01;  9.9999998E-03; -1.1997981E-01;3074; -1.6066840E-02;  0.0000000E+00; -8.8274630E-04;  1.0066566E+03;  1.0000000E-01;  5.5149058E+03;3; -1.2378062E+01;  0.0000000E+00; -2.5207600E-02;0; -5.9998237E-02;  4.0539629E+04;  0.0000000E+00;  5.1674157E-02;  4.0000000E+04;  0.0000000E+00;  4.0012469E+04; -6.0944106E-02;  0.0000000E+00;  9.4586908E-04;  9.7552081E+02;
  1.0152828E-01;  9.9999998E-03; -1.0999551E-01;3075; -1.5795961E-02;  0.0000000E+00; -8.3121547E-04;  1.0067557E+03;  1.0000000E-01;  5.5969775E+03;3; -1.2318723E+01;  0.0000000E+00; -2.8645366E-02;0; -5.8522958E-02;  4.0544078E+04;  0.0000000E+00;  2.9954629E-02;  4.0000000E+04;  0.0000000E+00;  4.0015957E+04; -6.0578782E-02;  0.0000000E+00;  2.0558240E-03;  1.4224042E+03;
  1.1090989E-01;  9.9999998E-03; -2.6991990E-01;3120; -1.0811138E-02;  0.0000000E+00; -1.3219273E-03;  9.9880396E+02;  1.0000000E-01; -9.9088556E+02;3; -1.0665500E+01;  0.0000000E+00; -4.3697926E+01;0; -6.1426457E-02;  3.9868859E+04;  0.0000000E+00;  6.3275042E+00;  4.0000000E+04;  0.0000000E+00;  4.0036402E+04; -6.4394884E-02;  0.0000000E+00;  2.9684259E-03;  1.0231881E+04;
  1.1109205E-01;  9.9999998E-03; -2.5997645E-01;3121; -1.1899780E-02;  0.0000000E+00; -1.0676050E-03;  9.9959534E+02;  1.0000000E-01; -3.3524979E+02;3; -7.6419339E+00;  0.0000000E+00; -4.3775890E+01;0; -6.2703051E-02;  3.9922062E+04;  0.0000000E+00;  5.4805465E+00;  4.0000000E+04;  0.0000000E+00;  4.0048410E+04; -6.7341834E-02;  0.0000000E+00;  4.6387841E-03;  9.9488086E+03;
  1.1125834E-01;  9.9999998E-03; -2.5001332E-01;3122; -1.2914260E-02;  0.0000000E+00; -6.9577334E-04;  1.0004317E+03;  1.0000000E-01;  3.5761951E+02;3; -5.6350875E+00;  0.0000000E+00; -3.8505402E+01;0; -6.3382857E-02;  3.9985941E+04;  0.0000000E+00;  4.5247798E+00;  4.0000000E+04;  0.0000000E+00;  4.0053312E+04; -6.9111980E-02;  0.0000000E+00;  5.7291249E-03;  9.2810088E+03;
  1.1140444E-01;  9.9999998E-03; -2.4003232E-01;3123; -1.3830771E-02;  0.0000000E+00; -2.9749170E-04;  1.0012661E+03;  1.0000000E-01;  1.0488593E+03;3; -4.5298576E+00;  0.0000000E+00; -3.0366093E+01;0; -6.3659959E-02;  4.0056605E+04;  0.0000000E+00;  3.6107678E+00;  4.0000000E+04;  0.0000000E+00;  4.0051695E+04; -6.9800712E-02;  0.0000000E+00;  6.1407541E-03;  8.1626699E+03;
  1.1152384E-01;  9.9999998E-03; -2.3003872E-01;3124; -1.4624473E-02;  0.0000000E+00;  2.6776072E-05;  1.0020652E+03;  1.0000000E-01;  1.7110627E+03;3; -4.1100235E+00;  0.0000000E+00; -2.1746807E+01;0; -6.3691601E-02;  4.0130129E+04;  0.0000000E+00;  2.8318715E+00;  4.0000000E+04;  0.0000000E+00;  4.0043477E+04; -6.9560409E-02;  0.0000000E+00;  5.8688107E-03;  6.6385469E+03;
  1.1162308E-01;  9.9999998E-03; -2.2003317E-01;3125; -1.5284425E-02;  0.0000000E+00;  2.2970754E-04;  1.0028035E+03;  1.0000000E-01;  2.3226011E+03;3; -4.1314678E+00;  0.0000000E+00; -1.4232340E+01;0; -6.3576169E-02;  4.0202668E+04;  0.0000000E+00;  2.2148526E+00;  4.0000000E+04;  0.0000000E+00;  4.0031797E+04; -6.8573855E-02;  0.0000000E+00;  4.9976883E-03;  4.8754697E+03;
  1.1169356E-01;  9.9999998E-03; -2.1001859E-01;3126; -1.5810711E-02;  0.0000000E+00;  3.0656744E-04;  1.0034688E+03;  1.0000000E-01;  2.8737952E+03;3; -4.3996134E+00;  0.0000000E+00; -8.5355501E+00;0; -6.3354038E-02;  4.0271016E+04;  0.0000000E+00;  1.7365288E+00;  4.0000000E+04;  0.0000000E+00;  4.0018105E+04; -6.7042805E-02;  0.0000000E+00;  3.6887673E-03;  3.1587800E+03;
  1.1173221E-01;  9.9999998E-03; -1.9999823E-01;3127; -1.6217526E-02;  0.0000000E+00;  2.9402683E-04;  1.0040607E+03;  1.0000000E-01;  3.3641519E+03;3; -4.7781639E+00;  0.0000000E+00; -4.6680117E+00;0; -6.3015081E-02;  4.0332367E+04;  0.0000000E+00;  1.3549830E+00;  4.0000000E+04;  0.0000000E+00;  4.0005098E+04; -6.5169729E-02;  0.0000000E+00;  2.1546488E-03;  1.9521010E+03;
  1.1174253E-01;  9.9999998E-03; -1.8997489E-01;3128; -1.6505148E-02;  0.0000000E+00;  2.0810592E-04;  1.0045763E+03;  1.0000000E-01;  3.7913989E+03;3; -5.1693950E+00;  0.0000000E+00; -2.2922292E+00;0; -6.2516756E-02;  4.0384820E+04;  0.0000000E+00;  1.0362142E+00;  4.0000000E+04;  0.0000000E+00;  3.9995230E+04; -6.3143119E-02;  0.0000000E+00;  6.2636216E-04;  1.7862992E+03;
  1.1172663E-01;  9.9999998E-03; -1.7995344E-01;3129; -1.6683325E-02;  0.0000000E+00;  7.5224321E-05;  1.0050189E+03;  1.0000000E-01;  4.1581045E+03;3; -5.5081434E+00;  0.0000000E+00; -9.6962661E-01;0; -6.1814681E-02;  4.0427320E+04;  0.0000000E+00;  7.6579714E-01;  4.0000000E+04;  0.0000000E+00;  3.9988801E+04; -6.1132845E-02;  0.0000000E+00; -6.8183511E-04;  2.1333601E+03;
  1.1169453E-01;  9.9999998E-03; -1.6993470E-01;3130; -1.6763672E-02;  0.0000000E+00; -8.8252178E-05;  1.0053918E+03;  1.0000000E-01;  4.4670342E+03;3; -5.7557807E+00;  0.0000000E+00; -3.1936827E-01;0; -6.0875371E-02;  4.0459812E+04;  0.0000000E+00;  5.4348820E-01;  4.0000000E+04;  0.0000000E+00;  3.9987070E+04; -5.9274953E-02;  0.0000000E+00; -1.6004179E-03;  2.2405903E+03;
  1.1165430E-01;  9.9999998E-03; -1.5992071E-01;3131; -1.6764568E-02;  0.0000000E+00; -2.7159200E-04;  1.0056990E+03;  1.0000000E-01;  4.7214468E+03;3; -5.9040437E+00;  0.0000000E+00; -6.0822714E-02;0; -5.9695892E-02;  4.0482734E+04;  0.0000000E+00;  3.7061206E-01;  4.0000000E+04;  0.0000000E+00;  3.9989039E+04; -5.7672121E-02;  0.0000000E+00; -2.0237716E-03;  1.9311998E+03;
  1.1161433E-01;  9.9999998E-03; -1.4992151E-01;3132; -1.6692555E-02;  0.0000000E+00; -4.4955793E-04;  1.0059437E+03;  1.0000000E-01;  4.9243052E+03;3; -5.9615598E+00;  0.0000000E+00;  3.6847831E-03;0; -5.8309801E-02;  4.0497664E+04;  0.0000000E+00;  2.4320219E-01;  4.0000000E+04;  0.0000000E+00;  3.9994047E+04; -5.6386981E-02;  0.0000000E+00; -1.9228191E-03;  1.2761782E+03;
  1.1157747E-01;  9.9999998E-03; -1.3993524E-01;3133; -1.6553983E-02;  0.0000000E+00; -5.9534889E-04;  1.0061326E+03;  1.0000000E-01;  5.0807451E+03;3; -5.9530635E+00;  0.0000000E+00;  3.4594852E-03;0; -5.6791786E-02;  4.0505863E+04;  0.0000000E+00;  1.5399922E-01;  4.0000000E+04;  0.0000000E+00;  4.0001551E+04; -5.5442400E-02;  0.0000000E+00; -1.3493842E-03;  4.4741898E+02;
  1.1154076E-01;  9.9999998E-03; -1.2995496E-01;3134; -1.6359469E-02;  0.0000000E+00; -6.8855670E-04;  1.0062620E+03;  1.0000000E-01;  5.1879028E+03;3; -5.9084568E+00;  0.0000000E+00; -1.1924644E-03;0; -5.5256486E-02;  4.0509246E+04;  0.0000000E+00;  9.4035730E-02;  4.0000000E+04;  0.0000000E+00;  4.0008016E+04; -5.4830208E-02;  0.0000000E+00; -4.2627720E-04;  4.8847580E+02;
  1.1150368E-01;  9.9999998E-03; -1.1997503E-01;3135; -1.6118722E-02;  0.0000000E+00; -7.0856611E-04;  1.0063361E+03;  1.0000000E-01;  5.2493330E+03;3; -5.8539319E+00;  0.0000000E+00; -2.9876793E-03;0; -5.3837176E-02;  4.0509414E+04;  0.0000000E+00;  5.4430801E-02;  4.0000000E+04;  0.0000000E+00;  4.0013793E+04; -5.4515701E-02;  0.0000000E+00;  6.7852496E-04;  1.1923657E+03;
  1.1146583E-01;  9.9999998E-03; -1.0999072E-01;3136; -1.5845610E-02;  0.0000000E+00; -6.4062478E-04;  1.0063660E+03;  1.0000000E-01;  5.2741226E+03;3; -5.8066125E+00;  0.0000000E+00;  1.9513669E-03;0; -5.2663591E-02;  4.0507738E+04;  0.0000000E+00;  2.8466476E-02;  4.0000000E+04;  0.0000000E+00;  4.0017867E+04; -5.4447152E-02;  0.0000000E+00;  1.7835613E-03;  1.6695394E+03;
  1.2089175E-01;  9.9999998E-03; -2.6986441E-01;3181; -1.1528665E-02;  0.0000000E+00; -1.1728532E-03;  9.9843915E+02;  1.0000000E-01; -1.2931486E+03;3; -9.6697006E+00;  0.0000000E+00; -4.5871883E+01;0; -6.2868915E-02;  3.9835879E+04;  0.0000000E+00;  1.0045444E+01;  4.0000000E+04;  0.0000000E+00;  4.0041074E+04; -6.6473059E-02;  0.0000000E+00;  3.6041462E-03;  1.5425396E+04;
  1.2107000E-01;  9.9999998E-03; -2.5992763E-01;3182; -1.2621136E-02;  0.0000000E+00; -9.4327139E-04;  9.9930542E+02;  1.0000000E-01; -5.7544049E+02;3; -6.5638561E+00;  0.0000000E+00; -4.6063293E+01;0; -6.2982418E-02;  3.9894301E+04;  0.0000000E+00;  8.2543802E+00;  4.0000000E+04;  0.0000000E+00;  4.0053621E+04; -6.8223901E-02;  0.0000000E+00;  5.2414867E-03;  1.3692792E+04;
  1.2123620E-01;  9.9999998E-03; -2.4997407E-01;3183; -1.3603670E-02;  0.0000000E+00; -5.8953889E-04;  1.0002210E+03;  1.0000000E-01;  1.8310593E+02;3; -4.4137554E+00;  0.0000000E+00; -4.0546654E+01;0; -6.2510990E-02;  3.9963672E+04;  0.0000000E+00;  6.4087367E+00;  4.0000000E+04;  0.0000000E+00;  4.0058777E+04; -6.8780005E-02;  0.0000000E+00;  6.2690126E-03;  1.1802071E+04;
  1.2138224E-01;  9.9999998E-03; -2.4000253E-01;3184; -1.4464356E-02;  0.0000000E+00; -1.9775919E-04;  1.0011237E+03;  1.0000000E-01;  9.3093665E+02;3; -3.0537539E+00;  0.0000000E+00; -3.1955784E+01;0; -6.1712574E-02;  4.0039617E+04;  0.0000000E+00;  4.7592797E+00;  4.0000000E+04;  0.0000000E+00;  4.0056801E+04; -6.8316765E-02;  0.0000000E+00;  6.6041923E-03;  9.8037432E+03;
  1.2150602E-01;  9.9999998E-03; -2.3001692E-01;3185; -1.5185200E-02;  0.0000000E+00;  1.2807695E-04;  1.0019760E+03;  1.0000000E-01;  1.6369907E+03;3; -2.2833858E+00;  0.0000000E+00; -2.2851597E+01;0; -6.0787994E-02;  4.0117438E+04;  0.0000000E+00;  3.4439273E+00;  4.0000000E+04;  0.0000000E+00;  4.0048598E+04; -6.7041665E-02;  0.0000000E+00;  6.2536709E-03;  7.6975474E+03;
  1.2159825E-01;  9.9999998E-03; -2.2002034E-01;3186; -1.5764719E-02;  0.0000000E+00;  3.3179505E-04;  1.0027463E+03;  1.0000000E-01;  2.2752937E+03;3; -1.9093077E+00;  0.0000000E+00; -1.4938437E+01;0; -5.9872091E-02;  4.0193242E+04;  0.0000000E+00;  2.4864285E+00;  4.0000000E+04;  0.0000000E+00;  4.0036125E+04; -6.5176703E-02;  0.0000000E+00;  5.3046132E-03;  5.5461655E+03;
  1.2165996E-01;  9.9999998E-03; -2.1001297E-01;3187; -1.6212540E-02;  0.0000000E+00;  4.1792885E-04;  1.0034240E+03;  1.0000000E-01;  2.8366604E+03;3; -1.7840909E+00;  0.0000000E+00; -8.9420862E+00;0; -5.9019830E-02;  4.0262789E+04;  0.0000000E+00;  1.8263088E+00;  4.0000000E+04;  0.0000000E+00;  4.0021348E+04; -6.2937185E-02;  0.0000000E+00;  3.9173556E-03;  3.5350110E+03;
  1.2169481E-01;  9.9999998E-03; -1.9999750E-01;3188; -1.6541284E-02;  0.0000000E+00;  4.1313207E-04;  1.0039980E+03;  1.0000000E-01;  3.3123013E+03;3; -1.8079475E+00;  0.0000000E+00; -4.8793960E+00;0; -5.8217749E-02;  4.0323434E+04;  0.0000000E+00;  1.3699381E+00;  4.0000000E+04;  0.0000000E+00;  4.0007676E+04; -6.0523011E-02;  0.0000000E+00;  2.3052630E-03;  2.0441586E+03;
  1.2169810E-01;  9.9999998E-03; -1.8997583E-01;3189; -1.6758602E-02;  0.0000000E+00;  3.4026601E-04;  1.0044738E+03;  1.0000000E-01;  3.7064631E+03;3; -1.9092975E+00;  0.0000000E+00; -2.3958209E+00;0; -5.7416551E-02;  4.0373285E+04;  0.0000000E+00;  1.0339243E+00;  4.0000000E+04;  0.0000000E+00;  3.9996465E+04; -5.8117162E-02;  0.0000000E+00;  7.0061209E-04;  1.6779877E+03;
  1.2167507E-01;  9.9999998E-03; -1.7995232E-01;3190; -1.6873170E-02;  0.0000000E+00;  2.2012091E-04;  1.0048591E+03;  1.0000000E-01;  4.0256638E+03;3; -2.0290315E+00;  0.0000000E+00; -1.0193399E+00;0; -5.6553584E-02;  4.0411508E+04;  0.0000000E+00;  7.6729131E-01;  4.0000000E+04;  0.0000000E+00;  3.9989578E+04; -5.5874124E-02;  0.0000000E+00; -6.7945832E-04;  2.0264995E+03;
  1.2163638E-01;  9.9999998E-03; -1.6992903E-01;3191; -1.6897827E-02;  0.0000000E+00;  7.2289593E-05;  1.0051616E+03;  1.0000000E-01;  4.2762246E+03;3; -2.1247904E+00;  0.0000000E+00; -3.4175122E-01;0; -5.5576928E-02;  4.0438215E+04;  0.0000000E+00;  5.5001366E-01;  4.0000000E+04;  0.0000000E+00;  3.9987312E+04; -5.3914081E-02;  0.0000000E+00; -1.6628471E-03;  2.1613711E+03;
  1.2159138E-01;  9.9999998E-03; -1.5991110E-01;3192; -1.6849957E-02;  0.0000000E+00; -9.4141164E-05;  1.0053874E+03;  1.0000000E-01;  4.4633799E+03;3; -2.1818881E+00;  0.0000000E+00; -7.1551874E-02;0; -5.4465570E-02;  4.0454156E+04;  0.0000000E+00;  3.7814260E-01;  4.0000000E+04;  0.0000000E+00;  3.9989570E+04; -5.2323006E-02;  0.0000000E+00; -2.1425635E-03;  1.8560758E+03;
  1.2154940E-01;  9.9999998E-03; -1.4991251E-01;3193; -1.6743086E-02;  0.0000000E+00; -2.5944161E-04;  1.0055444E+03;  1.0000000E-01;  4.5934502E+03;3; -2.1986439E+00;  0.0000000E+00; -1.6572958E-04;0; -5.3237673E-02;  4.0461543E+04;  0.0000000E+00;  2.4880457E-01;  4.0000000E+04;  0.0000000E+00;  3.9994902E+04; -5.1148478E-02;  0.0000000E+00; -2.0891954E-03;  1.1864600E+03;
  1.2151054E-01;  9.9999998E-03; -1.3992745E-01;3194; -1.6582917E-02;  0.0000000E+00; -3.9467376E-04;  1.0056357E+03;  1.0000000E-01;  4.6691025E+03;3; -2.1841109E+00;  0.0000000E+00;  7.2866376E-03;0; -5.1951651E-02;  4.0461965E+04;  0.0000000E+00;  1.5588459E-01;  4.0000000E+04;  0.0000000E+00;  4.0001391E+04; -5.0397605E-02;  0.0000000E+00; -1.5540451E-03;  3.4787469E+02;
  1.2147137E-01;  9.9999998E-03; -1.2994805E-01;3195; -1.6378760E-02;  0.0000000E+00; -4.7767299E-04;  1.0056746E+03;  1.0000000E-01;  4.7012993E+03;3; -2.1533139E+00;  0.0000000E+00;  1.0206508E-02;0; -5.0706372E-02;  4.0457684E+04;  0.0000000E+00;  9.2106760E-02;  4.0000000E+04;  0.0000000E+00;  4.0008906E+04; -5.0045263E-02;  0.0000000E+00; -6.6110905E-04;  6.3610956E+02;
  1.2142942E-01;  9.9999998E-03; -1.1996780E-01;3196; -1.6139312E-02;  0.0000000E+00; -4.8772033E-04;  1.0056629E+03;  1.0000000E-01;  4.6916206E+03;3; -2.1221766E+00;  0.0000000E+00;  1.2669389E-02;0; -4.9621694E-02;  4.0450379E+04;  0.0000000E+00;  4.9766470E-02;  4.0000000E+04;  0.0000000E+00;  4.0015031E+04; -5.0039437E-02;  0.0000000E+00;  4.1774131E-04;  1.3719506E+03;
  1.2138621E-01;  9.9999998E-03; -1.0998292E-01;3197; -1.5873151E-02;  0.0000000E+00; -4.0769120E-04;  1.0056097E+03;  1.0000000E-01;  4.6474736E+03;3; -2.0906687E+00;  0.0000000E+00;  2.3227014E-02;0; -4.8811935E-02;  4.0441918E+04;  0.0000000E+00;  2.2523584E-02;  4.0000000E+04;  0.0000000E+00;  4.0019004E+04; -5.0309330E-02;  0.0000000E+00;  1.4973963E-03;  1.8692623E+03;
  1.3088080E-01;  9.9999998E-03; -2.6978949E-01;3242; -1.2388025E-02;  0.0000000E+00; -8.8473770E-04;  9.9804486E+02;  1.0000000E-01; -1.6198060E+03;3; -7.9287710E+00;  0.0000000E+00; -4.8803802E+01;0; -6.5817825E-02;  3.9797922E+04;  0.0000000E+00;  1.4639165E+01;  4.0000000E+04;  0.0000000E+00;  4.0047957E+04; -6.9929548E-02;  0.0000000E+00;  4.1117221E-03;  2.2088371E+04;
  1.3106023E-01;  9.9999998E-03; -2.5986502E-01;3243; -1.3460672E-02;  0.0000000E+00; -6.8747584E-04;  9.9897705E+02;  1.0000000E-01; -8.4748218E+02;3; -5.3735967E+00;  0.0000000E+00; -4.8410610E+01;0; -6.4580776E-02;  3.9861316E+04;  0.0000000E+00;  1.1484639E+01;  4.0000000E+04;  0.0000000E+00;  4.0060414E+04; -7.0291422E-02;  0.0000000E+00;  5.7106442E-03;  1.8299295E+04;
  1.3123481E-01;  9.9999998E-03; -2.4992433E-01;3244; -1.4378858E-02;  0.0000000E+00; -3.8336267E-04;  9.9995483E+02;  1.0000000E-01; -3.7431042E+01;3; -3.5929365E+00;  0.0000000E+00; -4.2287975E+01;0; -6.2817909E-02;  3.9936301E+04;  0.0000000E+00;  8.4632120E+00;  4.0000000E+04;  0.0000000E+00;  4.0065395E+04; -6.9497883E-02;  0.0000000E+00;  6.6799726E-03;  1.4705792E+04;
  1.3138439E-01;  9.9999998E-03; -2.3996726E-01;3245; -1.5152407E-02;  0.0000000E+00; -3.7028753E-05;  1.0009156E+03;  1.0000000E-01;  7.5859583E+02;3; -2.3635905E+00;  0.0000000E+00; -3.3154587E+01;0; -6.0864065E-02;  4.0017414E+04;  0.0000000E+00;  5.9118423E+00;  4.0000000E+04;  0.0000000E+00;  4.0062199E+04; -6.7814104E-02;  0.0000000E+00;  6.9500399E-03;  1.1506949E+04;
  1.3150074E-01;  9.9999998E-03; -2.2999547E-01;3246; -1.5779367E-02;  0.0000000E+00;  2.6199885E-04;  1.0018135E+03;  1.0000000E-01;  1.5024761E+03;3; -1.5287958E+00;  0.0000000E+00; -2.3609455E+01;0; -5.8961902E-02;  4.0099461E+04;  0.0000000E+00;  3.9825706E+00;  4.0000000E+04;  0.0000000E+00;  4.0053281E+04; -6.5500841E-02;  0.0000000E+00;  6.5389383E-03;  8.6585215E+03;
  1.3158491E-01;  9.9999998E-03; -2.2000964E-01;3247; -1.6263168E-02;  0.0000000E+00;  4.4848133E-04;  1.0026057E+03;  1.0000000E-01;  2.1587537E+03;3; -9.7496217E-01;  0.0000000E+00; -1.5383432E+01;0; -5.7262417E-02;  4.0177184E+04;  0.0000000E+00;  2.6586511E+00;  4.0000000E+04;  0.0000000E+00;  4.0039621E+04; -6.2800527E-02;  0.0000000E+00;  5.5381111E-03;  6.0692212E+03;
  1.3163815E-01;  9.9999998E-03; -2.1001114E-01;3248; -1.6624259E-02;  0.0000000E+00;  5.3478847E-04;  1.0032769E+03;  1.0000000E-01;  2.7147874E+03;3; -6.2388021E-01;  0.0000000E+00; -9.1660509E+00;0; -5.5826925E-02;  4.0246980E+04;  0.0000000E+00;  1.8165944E+00;  4.0000000E+04;  0.0000000E+00;  4.0024000E+04; -5.9929878E-02;  0.0000000E+00;  4.1029523E-03;  3.7714368E+03;
  1.3166004E-01;  9.9999998E-03; -2.0000130E-01;3249; -1.6872723E-02;  0.0000000E+00;  5.3995627E-04;  1.0038176E+03;  1.0000000E-01;  3.1627747E+03;3; -4.3004727E-01;  0.0000000E+00; -4.9784245E+00;0; -5.4633647E-02;  4.0305492E+04;  0.0000000E+00;  1.2961084E+00;  4.0000000E+04;  0.0000000E+00;  4.0009629E+04; -5.7077531E-02;  0.0000000E+00;  2.4438847E-03;  2.0334558E+03;
  1.3165040E-01;  9.9999998E-03; -1.8998055E-01;3250; -1.7017322E-02;  0.0000000E+00;  4.7610429E-04;  1.0042386E+03;  1.0000000E-01;  3.5116045E+03;3; -3.5201210E-01;  0.0000000E+00; -2.4356635E+00;0; -5.3614110E-02;  4.0351184E+04;  0.0000000E+00;  9.5728534E-01;  4.0000000E+04;  0.0000000E+00;  3.9997578E+04; -5.4405592E-02;  0.0000000E+00;  7.9148368E-04;  1.5135417E+03;
  1.3161795E-01;  9.9999998E-03; -1.7995337E-01;3251; -1.7069753E-02;  0.0000000E+00;  3.6624575E-04;  1.0045487E+03;  1.0000000E-01;  3.7684861E+03;3; -3.4144574E-01;  0.0000000E+00; -1.0344646E+00;0; -5.2683290E-02;  4.0383324E+04;  0.0000000E+00;  7.0938987E-01;  4.0000000E+04;  0.0000000E+00;  3.9990312E+04; -5.2045785E-02;  0.0000000E+00; -6.3750421E-04;  1.9077068E+03;
  1.3157180E-01;  9.9999998E-03; -1.6992350E-01;3252; -1.7043015E-02;  0.0000000E+00;  2.2840554E-04;  1.0047615E+03;  1.0000000E-01;  3.9448760E+03;3; -3.5601789E-01;  0.0000000E+00; -3.4722364E-01;0; -5.1767141E-02;  4.0402762E+04;  0.0000000E+00;  5.1123798E-01;  4.0000000E+04;  0.0000000E+00;  3.9987762E+04; -5.0097108E-02;  0.0000000E+00; -1.6700310E-03;  2.0858599E+03;
  1.3152041E-01;  9.9999998E-03; -1.5990163E-01;3253; -1.6953195E-02;  0.0000000E+00;  7.9173078E-05;  1.0048855E+03;  1.0000000E-01;  4.0475891E+03;3; -3.6850485E-01;  0.0000000E+00; -7.0004351E-02;0; -5.0822645E-02;  4.0410805E+04;  0.0000000E+00;  3.5208938E-01;  4.0000000E+04;  0.0000000E+00;  3.9989922E+04; -4.8624467E-02;  0.0000000E+00; -2.1981783E-03;  1.7912396E+03;
  1.3147664E-01;  9.9999998E-03; -1.4990382E-01;3254; -1.6817691E-02;  0.0000000E+00; -7.0334441E-05;  1.0049404E+03;  1.0000000E-01;  4.0930200E+03;3; -3.6959702E-01;  0.0000000E+00;  3.2593133E-03;0; -4.9846351E-02;  4.0409410E+04;  0.0000000E+00;  2.2996144E-01;  4.0000000E+04;  0.0000000E+00;  3.9994973E+04; -4.7653347E-02;  0.0000000E+00; -2.1930034E-03;  1.1125759E+03;
  1.3143414E-01;  9.9999998E-03; -1.3991933E-01;3255; -1.6644415E-02;  0.0000000E+00; -1.9515266E-04;  1.0049288E+03;  1.0000000E-01;  4.0834402E+03;3; -3.5892856E-01;  0.0000000E+00;  1.3727128E-02;0; -4.8878454E-02;  4.0401051E+04;  0.0000000E+00;  1.4075942E-01;  4.0000000E+04;  0.0000000E+00;  4.0001953E+04; -4.7173299E-02;  0.0000000E+00; -1.7051534E-03;  2.6918927E+02;
  1.3139166E-01;  9.9999998E-03; -1.2993981E-01;3256; -1.6440295E-02;  0.0000000E+00; -2.7062008E-04;  1.0048635E+03;  1.0000000E-01;  4.0293181E+03;3; -3.4201661E-01;  0.0000000E+00;  1.9196235E-02;0; -4.7996160E-02;  4.0388223E+04;  0.0000000E+00;  7.8955911E-02;  4.0000000E+04;  0.0000000E+00;  4.0008977E+04; -4.7139402E-02;  0.0000000E+00; -8.5675652E-04;  7.3922638E+02;
  1.3134627E-01;  9.9999998E-03; -1.1995881E-01;3257; -1.6213221E-02;  0.0000000E+00; -2.7729082E-04;  1.0047557E+03;  1.0000000E-01;  3.9400366E+03;3; -3.2329446E-01;  0.0000000E+00;  2.6413605E-02;0; -4.7302809E-02;  4.0373113E+04;  0.0000000E+00;  3.8305499E-02;  4.0000000E+04;  0.0000000E+00;  4.0014750E+04; -4.7482584E-02;  0.0000000E+00;  1.7977603E-04;  1.4950508E+03;
  1.3129911E-01;  9.9999998E-03; -1.0997291E-01;3258; -1.5969437E-02;  0.0000000E+00; -2.0138817E-04;  1.0046130E+03;  1.0000000E-01;  3.8217190E+03;3; -3.0518630E-01;  0.0000000E+00;  3.6915079E-02;0; -4.6896793E-02;  4.0357312E+04;  0.0000000E+00;  1.3061340E-02;  4.0000000E+04;  0.0000000E+00;  4.0018895E+04; -4.8115466E-02;  0.0000000E+00;  1.2186731E-03;  2.0025725E+03;
  1.4089474E-01;  9.9999998E-03; -2.6971439E-01;3303; -1.3408931E-02;  0.0000000E+00; -5.4479920E-04;  9.9769818E+02;  1.0000000E-01; -1.9070078E+03;3; -4.7433386E+00;  0.0000000E+00; -5.3278011E+01;0; -7.0260465E-02;  3.9760027E+04;  0.0000000E+00;  1.9825659E+01;  4.0000000E+04;  0.0000000E+00;  4.0058840E+04; -7.4680686E-02;  0.0000000E+00;  4.4202199E-03;  2.9798006E+04;
  1.4109716E-01;  9.9999998E-03; -2.5979760E-01;3304; -1.4423210E-02;  0.0000000E+00; -3.8596650E-04;  9.9867682E+02;  1.0000000E-01; -1.0962159E+03;3; -3.6082580E+00;  0.0000000E+00; -5.1295578E+01;0; -6.7399077E-02;  3.9829113E+04;  0.0000000E+00;  1.4821527E+01;  4.0000000E+04;  0.0000000E+00;  4.0069262E+04; -7.3392920E-02;  0.0000000E+00;  5.9938449E-03;  2.3265684E+04;
  1.4127138E-01;  9.9999998E-03; -2.4987562E-01;3305; -1.5243268E-02;  0.0000000E+00; -1.3835475E-04;  9.9971454E+02;  1.0000000E-01; -2.3648714E+02;3; -2.7876308E+00;  0.0000000E+00; -4.3942112E+01;0; -6.4158253E-02;  3.9910547E+04;  0.0000000E+00;  1.0372109E+01;  4.0000000E+04;  0.0000000E+00;  4.0071914E+04; -7.1078002E-02;  0.0000000E+00;  6.9197472E-03;  1.7549000E+04;
  1.4140768E-01;  9.9999998E-03; -2.3993866E-01;3306; -1.5904080E-02;  0.0000000E+00;  1.4668870E-04;  1.0007310E+03;  1.0000000E-01;  6.0561249E+02;3; -2.0597935E+00;  0.0000000E+00; -3.4036171E+01;0; -6.0953412E-02;  3.9997426E+04;  0.0000000E+00;  6.8461170E+00;  4.0000000E+04;  0.0000000E+00;  4.0066754E+04; -6.8099514E-02;  0.0000000E+00;  7.1461005E-03;  1.2952709E+04;
  1.4151023E-01;  9.9999998E-03; -2.2998148E-01;3307; -1.6415382E-02;  0.0000000E+00;  3.9237074E-04;  1.0016592E+03;  1.0000000E-01;  1.3745784E+03;3; -1.3920352E+00;  0.0000000E+00; -2.4059580E+01;0; -5.8047183E-02;  4.0083246E+04;  0.0000000E+00;  4.3191690E+00;  4.0000000E+04;  0.0000000E+00;  4.0056172E+04; -6.4749390E-02;  0.0000000E+00;  6.7022061E-03;  9.3096367E+03;
  1.4158291E-01;  9.9999998E-03; -2.2000572E-01;3308; -1.6800953E-02;  0.0000000E+00;  5.6374283E-04;  1.0024605E+03;  1.0000000E-01;  2.0384608E+03;3; -8.0538726E-01;  0.0000000E+00; -1.5571836E+01;0; -5.5593301E-02;  4.0162406E+04;  0.0000000E+00;  2.6748605E+00;  4.0000000E+04;  0.0000000E+00;  4.0041449E+04; -6.1269928E-02;  0.0000000E+00;  5.6766281E-03;  6.3094272E+03;
  1.4161977E-01;  9.9999998E-03; -2.1001531E-01;3309; -1.7070672E-02;  0.0000000E+00;  6.4589782E-04;  1.0031087E+03;  1.0000000E-01;  2.5755320E+03;3; -3.3400527E-01;  0.0000000E+00; -9.2225676E+00;0; -5.3632617E-02;  4.0230750E+04;  0.0000000E+00;  1.6936558E+00;  4.0000000E+04;  0.0000000E+00;  4.0025395E+04; -5.7858262E-02;  0.0000000E+00;  4.2256434E-03;  3.7854497E+03;
  1.4162102E-01;  9.9999998E-03; -2.0001082E-01;3310; -1.7239265E-02;  0.0000000E+00;  6.5685617E-04;  1.0036018E+03;  1.0000000E-01;  2.9840144E+03;3; -1.0445889E-03;  0.0000000E+00; -4.9825401E+00;0; -5.2123226E-02;  4.0285652E+04;  0.0000000E+00;  1.1385118E+00;  4.0000000E+04;  0.0000000E+00;  4.0010035E+04; -5.4676205E-02;  0.0000000E+00;  2.5529773E-03;  1.8781733E+03;
  1.4159735E-01;  9.9999998E-03; -1.8999007E-01;3311; -1.7313292E-02;  0.0000000E+00;  5.9861463E-04;  1.0039514E+03;  1.0000000E-01;  3.2735864E+03;3;  1.9500653E-01;  0.0000000E+00; -2.4271617E+00;0; -5.0968006E-02;  4.0325668E+04;  0.0000000E+00;  8.1469971E-01;  4.0000000E+04;  0.0000000E+00;  3.9997633E+04; -5.1852088E-02;  0.0000000E+00;  8.8408252E-04;  1.3181134E+03;
  1.4155452E-01;  9.9999998E-03; -1.7995791E-01;3312; -1.7306628E-02;  0.0000000E+00;  4.9310212E-04;  1.0041714E+03;  1.0000000E-01;  3.4560010E+03;3;  2.8568017E-01;  0.0000000E+00; -1.0280091E+00;0; -5.0056491E-02;  4.0350562E+04;  0.0000000E+00;  5.9792680E-01;  4.0000000E+04;  0.0000000E+00;  3.9989914E+04; -4.9488846E-02;  0.0000000E+00; -5.6764600E-04;  1.8229703E+03;
  1.4149739E-01;  9.9999998E-03; -1.6991928E-01;3313; -1.7234767E-02;  0.0000000E+00;  3.6128820E-04;  1.0042800E+03;  1.0000000E-01;  3.5458750E+03;3;  3.1532466E-01;  0.0000000E+00; -3.4432921E-01;0; -4.9288504E-02;  4.0361426E+04;  0.0000000E+00;  4.2946219E-01;  4.0000000E+04;  0.0000000E+00;  3.9987129E+04; -4.7658578E-02;  0.0000000E+00; -1.6299251E-03;  2.0474659E+03;
  1.4144251E-01;  9.9999998E-03; -1.5989414E-01;3314; -1.7114958E-02;  0.0000000E+00;  2.2002916E-04;  1.0042954E+03;  1.0000000E-01;  3.5587141E+03;3;  3.2175085E-01;  0.0000000E+00; -6.7214996E-02;0; -4.8593301E-02;  4.0360367E+04;  0.0000000E+00;  2.9244348E-01;  4.0000000E+04;  0.0000000E+00;  3.9989578E+04; -4.6399094E-02;  0.0000000E+00; -2.1942081E-03;  1.7605149E+03;
  1.4139614E-01;  9.9999998E-03; -1.4989567E-01;3315; -1.6963815E-02;  0.0000000E+00;  8.3124440E-05;  1.0042366E+03;  1.0000000E-01;  3.5099255E+03;3;  3.2483554E-01;  0.0000000E+00;  8.4899636E-03;0; -4.7944061E-02;  4.0349684E+04;  0.0000000E+00;  1.8572138E-01;  4.0000000E+04;  0.0000000E+00;  3.9994605E+04; -4.5711614E-02;  0.0000000E+00; -2.2324491E-03;  1.0714312E+03;
  1.4135300E-01;  9.9999998E-03; -1.3991088E-01;3316; -1.6791558E-02;  0.0000000E+00; -3.4219673E-05;  1.0041122E+03;  1.0000000E-01;  3.4069160E+03;3;  3.3409527E-01;  0.0000000E+00;  1.9821299E-02;0; -4.7357518E-02;  4.0332141E+04;  0.0000000E+00;  1.0765301E-01;  4.0000000E+04;  0.0000000E+00;  4.0001656E+04; -4.5562662E-02;  0.0000000E+00; -1.7948556E-03;  2.0733977E+02;
  1.4130926E-01;  9.9999998E-03; -1.2993024E-01;3317; -1.6602812E-02;  0.0000000E+00; -1.0922640E-04;  1.0039415E+03;  1.0000000E-01;  3.2653892E+03;3;  3.4524763E-01;  0.0000000E+00;  2.6260750E-02;0; -4.6888486E-02;  4.0310547E+04;  0.0000000E+00;  5.4119088E-02;  4.0000000E+04;  0.0000000E+00;  4.0008762E+04; -4.5888711E-02;  0.0000000E+00; -9.9977350E-04;  7.8518646E+02;
  1.4126283E-01;  9.9999998E-03; -1.1994785E-01;3318; -1.6402757E-02;  0.0000000E+00; -1.2337920E-04;  1.0037326E+03;  1.0000000E-01;  3.0923569E+03;3;  3.5577559E-01;  0.0000000E+00;  3.3044256E-02;0; -4.6620030E-02;  4.0287223E+04;  0.0000000E+00;  2.0067284E-02;  4.0000000E+04;  0.0000000E+00;  4.0014859E+04; -4.6603650E-02;  0.0000000E+00; -1.6378568E-05;  1.5493130E+03;
  1.4121430E-01;  9.9999998E-03; -1.0996003E-01;3319; -1.6197927E-02;  0.0000000E+00; -6.9490110E-05;  1.0034973E+03;  1.0000000E-01;  2.8973997E+03;3;  3.6759663E-01;  0.0000000E+00;  4.1797996E-02;0; -4.6634074E-02;  4.0264309E+04;  0.0000000E+00;  3.2204136E-04;  4.0000000E+04;  0.0000000E+00;  4.0018699E+04; -4.7606006E-02;  0.0000000E+00;  9.7193156E-04;  2.0564014E+03;
  1.5115522E-01;  9.9999998E-03; -1.0994028E-01;3380; -1.6577657E-02;  0.0000000E+00; -9.7853217E-06;  1.0023770E+03;  1.0000000E-01;  1.9692283E+03;3;  5.3665799E-01;  0.0000000E+00;  3.8199533E-02;0; -4.7581498E-02;  4.0172168E+04;  0.0000000E+00; -1.5742827E-02;  4.0000000E+04;  0.0000000E+00;  4.0017641E+04; -4.8365287E-02;  0.0000000E+00;  7.8378810E-04;  2.0223569E+03;
  1.5119950E-01;  9.9999998E-03; -1.1993109E-01;3379; -1.6732844E-02;  0.0000000E+00; -3.7804457E-05;  1.0026940E+03;  1.0000000E-01;  2.2319368E+03;3;  5.2618384E-01;  0.0000000E+00;  3.1280030E-02;0; -4.7156714E-02;  4.0201785E+04;  0.0000000E+00; -4.8955814E-03;  4.0000000E+04;  0.0000000E+00;  4.0013969E+04; -4.7007579E-02;  0.0000000E+00; -1.4913487E-04;  1.5277450E+03;
  1.5124115E-01;  9.9999998E-03; -1.2991633E-01;3378; -1.6887588E-02;  0.0000000E+00; -6.0719753E-06;  1.0030012E+03;  1.0000000E-01;  2.4864482E+03;3;  5.1545584E-01;  0.0000000E+00;  2.4094183E-02;0; -4.6992425E-02;  4.0232625E+04;  0.0000000E+00;  1.7352134E-02;  4.0000000E+04;  0.0000000E+00;  4.0008094E+04; -4.5918312E-02;  0.0000000E+00; -1.0741147E-03;  7.6904260E+02;
  1.5128033E-01;  9.9999998E-03; -1.3989978E-01;3377; -1.7042033E-02;  0.0000000E+00;  7.5866898E-05;  1.0032763E+03;  1.0000000E-01;  2.7143923E+03;3;  5.0853938E-01;  0.0000000E+00;  2.0521363E-02;0; -4.7024440E-02;  4.0262570E+04;  0.0000000E+00;  5.5723436E-02;  4.0000000E+04;  0.0000000E+00;  4.0001012E+04; -4.5211118E-02;  0.0000000E+00; -1.8133209E-03;  1.7146840E+02;
  1.5131989E-01;  9.9999998E-03; -1.4988679E-01;3376; -1.7199475E-02;  0.0000000E+00;  1.8913879E-04;  1.0035098E+03;  1.0000000E-01;  2.9077695E+03;3;  5.0492406E-01;  0.0000000E+00;  1.1725963E-02;0; -4.7192149E-02;  4.0289105E+04;  0.0000000E+00;  1.1472313E-01;  4.0000000E+04;  0.0000000E+00;  3.9994082E+04; -4.4988021E-02;  0.0000000E+00; -2.2041276E-03;  1.0745137E+03;
  1.5136577E-01;  9.9999998E-03; -1.5988728E-01;3375; -1.7353861E-02;  0.0000000E+00;  3.2019636E-04;  1.0036865E+03;  1.0000000E-01;  3.0542346E+03;3;  5.0009894E-01;  0.0000000E+00; -6.4150192E-02;0; -4.7463629E-02;  4.0309402E+04;  0.0000000E+00;  1.9771789E-01;  4.0000000E+04;  0.0000000E+00;  3.9988613E+04; -4.5331176E-02;  0.0000000E+00; -2.1324537E-03;  1.7776616E+03;
  1.5142334E-01;  9.9999998E-03; -1.6991659E-01;3374; -1.7493607E-02;  0.0000000E+00;  4.5809892E-04;  1.0037858E+03;  1.0000000E-01;  3.1365039E+03;3;  4.8279518E-01;  0.0000000E+00; -3.3623657E-01;0; -4.7846690E-02;  4.0320180E+04;  0.0000000E+00;  3.0462649E-01;  4.0000000E+04;  0.0000000E+00;  3.9986410E+04; -4.6297923E-02;  0.0000000E+00; -1.5487678E-03;  2.0702566E+03;
  1.5148379E-01;  9.9999998E-03; -1.7996447E-01;3373; -1.7602436E-02;  0.0000000E+00;  5.8794254E-04;  1.0037882E+03;  1.0000000E-01;  3.1384792E+03;3;  4.2268988E-01;  0.0000000E+00; -1.0051188E+00;0; -4.8396047E-02;  4.0318738E+04;  0.0000000E+00;  4.3607855E-01;  4.0000000E+04;  0.0000000E+00;  3.9989004E+04; -4.7915615E-02;  0.0000000E+00; -4.8043323E-04;  1.8178883E+03;
  1.5153801E-01;  9.9999998E-03; -1.9000414E-01;3372; -1.7662158E-02;  0.0000000E+00;  6.9221290E-04;  1.0036700E+03;  1.0000000E-01;  3.0406055E+03;3;  2.7150705E-01;  0.0000000E+00; -2.3769622E+00;0; -4.9210157E-02;  4.0302375E+04;  0.0000000E+00;  6.1172503E-01;  4.0000000E+04;  0.0000000E+00;  3.9996547E+04; -5.0174933E-02;  0.0000000E+00;  9.6477673E-04;  1.1455697E+03;
  1.5158179E-01;  9.9999998E-03; -2.0002608E-01;3371; -1.7654734E-02;  0.0000000E+00;  7.4846833E-04;  1.0034075E+03;  1.0000000E-01;  2.8230312E+03;3; -1.6862012E-02;  0.0000000E+00; -4.8956070E+00;0; -5.0419487E-02;  4.0269574E+04;  0.0000000E+00;  8.9881587E-01;  4.0000000E+04;  0.0000000E+00;  4.0008832E+04; -5.3036261E-02;  0.0000000E+00;  2.6167757E-03;  1.5296208E+03;
  1.5159127E-01;  9.9999998E-03; -2.1002692E-01;3370; -1.7563546E-02;  0.0000000E+00;  7.3789130E-04;  1.0029788E+03;  1.0000000E-01;  2.4678809E+03;3; -4.5632625E-01;  0.0000000E+00; -9.1025066E+00;0; -5.2168861E-02;  4.0219945E+04;  0.0000000E+00;  1.4420153E+00;  4.0000000E+04;  0.0000000E+00;  4.0024414E+04; -5.6436904E-02;  0.0000000E+00;  4.2680441E-03;  3.4973562E+03;
  1.5098730E-01;  9.9999998E-03; -2.6965082E-01;3364; -1.4556518E-02;  0.0000000E+00; -3.3880549E-04;  9.9742297E+02;  1.0000000E-01; -2.1350015E+03;3;  1.9470254E-01;  0.0000000E+00; -5.9570988E+01;0; -7.5886600E-02;  3.9724219E+04;  0.0000000E+00;  2.4968355E+01;  4.0000000E+04;  0.0000000E+00;  4.0073230E+04; -8.0459014E-02;  0.0000000E+00;  4.5724167E-03;  3.7658367E+04;
  1.5119781E-01;  9.9999998E-03; -2.5975278E-01;3365; -1.5474213E-02;  0.0000000E+00; -1.7857434E-04;  9.9845233E+02;  1.0000000E-01; -1.2822354E+03;3; -1.1833212E+00;  0.0000000E+00; -5.4624512E+01;0; -7.1099341E-02;  3.9801535E+04;  0.0000000E+00;  1.7664904E+01;  4.0000000E+04;  0.0000000E+00;  4.0078500E+04; -7.7195577E-02;  0.0000000E+00;  6.0962401E-03;  2.7705572E+04;
  1.5135729E-01;  9.9999998E-03; -2.4984875E-01;3366; -1.6170867E-02;  0.0000000E+00;  3.8580758E-05;  9.9955273E+02;  1.0000000E-01; -3.7055743E+02;3; -1.8884386E+00;  0.0000000E+00; -4.5383167E+01;0; -6.6195078E-02;  3.9891902E+04;  0.0000000E+00;  1.1690616E+01;  4.0000000E+04;  0.0000000E+00;  4.0077023E+04; -7.3176883E-02;  0.0000000E+00;  6.9818040E-03;  1.9668559E+04;
  1.5147179E-01;  9.9999998E-03; -2.3992720E-01;3367; -1.6700519E-02;  0.0000000E+00;  2.7780782E-04;  1.0006177E+03;  1.0000000E-01;  5.1168924E+02;3; -1.9284433E+00;  0.0000000E+00; -3.4489929E+01;0; -6.1655924E-02;  3.9985262E+04;  0.0000000E+00;  7.2790794E+00;  4.0000000E+04;  0.0000000E+00;  4.0069516E+04; -6.8837948E-02;  0.0000000E+00;  7.1820230E-03;  1.3719101E+04;
  1.5154226E-01;  9.9999998E-03; -2.2998224E-01;3368; -1.7098768E-02;  0.0000000E+00;  4.9711287E-04;  1.0015701E+03;  1.0000000E-01;  1.3008027E+03;3; -1.5535978E+00;  0.0000000E+00; -2.4092348E+01;0; -5.7748914E-02;  4.0074559E+04;  0.0000000E+00;  4.3059778E+00;  4.0000000E+04;  0.0000000E+00;  4.0057051E+04; -6.4473115E-02;  0.0000000E+00;  6.7241993E-03;  9.4092412E+03;
  1.5157741E-01;  9.9999998E-03; -2.2001398E-01;3369; -1.7381500E-02;  0.0000000E+00;  6.5530377E-04;  1.0023651E+03;  1.0000000E-01;  1.9594508E+03;3; -1.0047930E+00;  0.0000000E+00; -1.5461206E+01;0; -5.4585729E-02;  4.0154137E+04;  0.0000000E+00;  2.4746218E+00;  4.0000000E+04;  0.0000000E+00;  4.0041406E+04; -6.0288526E-02;  0.0000000E+00;  5.7027964E-03;  6.1312993E+03;
  1.6117467E-01;  9.9999998E-03; -2.6963109E-01;3425; -1.5763059E-02;  0.0000000E+00; -4.4183960E-04;  9.9719373E+02;  1.0000000E-01; -2.3249219E+03;3;  6.1143799E+00;  0.0000000E+00; -6.6128876E+01;0; -8.1880100E-02;  3.9690234E+04;  0.0000000E+00;  2.8741541E+01;  4.0000000E+04;  0.0000000E+00;  4.0088746E+04; -8.6693101E-02;  0.0000000E+00;  4.8129987E-03;  4.3748172E+04;
  1.6138862E-01;  9.9999998E-03; -2.5975087E-01;3426; -1.6570201E-02;  0.0000000E+00; -1.7986646E-04;  9.9828693E+02;  1.0000000E-01; -1.4192686E+03;3;  1.3417659E+00;  0.0000000E+00; -5.7260426E+01;0; -7.5031638E-02;  3.9780320E+04;  0.0000000E+00;  1.9042244E+01;  4.0000000E+04;  0.0000000E+00;  4.0086586E+04; -8.1158444E-02;  0.0000000E+00;  6.1268047E-03;  3.0178418E+04;
  1.6152556E-01;  9.9999998E-03; -2.4986006E-01;3427; -1.7130911E-02;  0.0000000E+00;  6.9986840E-05;  9.9946539E+02;  1.0000000E-01; -4.4290106E+02;3; -1.1598874E+00;  0.0000000E+00; -4.5885349E+01;0; -6.8386197E-02;  3.9882457E+04;  0.0000000E+00;  1.1822734E+01;  4.0000000E+04;  0.0000000E+00;  4.0079594E+04; -7.5295649E-02;  0.0000000E+00;  6.9094561E-03;  2.0151641E+04;
  1.6157587E-01;  9.9999998E-03; -2.3994680E-01;3428; -1.7529696E-02;  0.0000000E+00;  3.2121479E-04;  1.0005977E+03;  1.0000000E-01;  4.9519586E+02;3; -1.9993788E+00;  0.0000000E+00; -3.4132603E+01;0; -6.2519126E-02;  3.9984598E+04;  0.0000000E+00;  6.9233093E+00;  4.0000000E+04;  0.0000000E+00;  4.0068473E+04; -6.9579713E-02;  0.0000000E+00;  7.0605860E-03;  1.3332456E+04;
  1.6158137E-01;  9.9999998E-03; -2.3000595E-01;3429; -1.7812973E-02;  0.0000000E+00;  5.4578891E-04;  1.0015743E+03;  1.0000000E-01;  1.3043582E+03;3; -1.8924150E+00;  0.0000000E+00; -2.3544256E+01;0; -5.7665732E-02;  4.0077105E+04;  0.0000000E+00;  3.8282692E+00;  4.0000000E+04;  0.0000000E+00;  4.0054406E+04; -6.4262711E-02;  0.0000000E+00;  6.5969774E-03;  8.7392275E+03;
  1.6156159E-01;  9.9999998E-03; -2.2003683E-01;3430; -1.7999206E-02;  0.0000000E+00;  7.0904871E-04;  1.0023483E+03;  1.0000000E-01;  1.9455253E+03;3; -1.3564805E+00;  0.0000000E+00; -1.4994973E+01;0; -5.3873502E-02;  4.0155309E+04;  0.0000000E+00;  2.0240459E+00;  4.0000000E+04;  0.0000000E+00;  4.0038180E+04; -5.9476800E-02;  0.0000000E+00;  5.6032967E-03;  5.4410195E+03;
  1.6154040E-01;  9.9999998E-03; -2.1004687E-01;3431; -1.8097742E-02;  0.0000000E+00;  7.9551566E-04;  1.0029084E+03;  1.0000000E-01;  2.4096108E+03;3; -7.1968687E-01;  0.0000000E+00; -8.7869177E+00;0; -5.1088654E-02;  4.0216430E+04;  0.0000000E+00;  1.0603921E+00;  4.0000000E+04;  0.0000000E+00;  4.0021320E+04; -5.5305697E-02;  0.0000000E+00;  4.2170431E-03;  2.8642012E+03;
  1.6152024E-01;  9.9999998E-03; -2.0004246E-01;3432; -1.8115738E-02;  0.0000000E+00;  8.0314209E-04;  1.0032584E+03;  1.0000000E-01;  2.6994792E+03;3; -1.7135887E-01;  0.0000000E+00; -4.7138686E+00;0; -4.9184799E-02;  4.0259188E+04;  0.0000000E+00;  5.8553654E-01;  4.0000000E+04;  0.0000000E+00;  4.0005930E+04; -5.1806897E-02;  0.0000000E+00;  2.6220991E-03;  9.7525220E+02;
  1.6148756E-01;  9.9999998E-03; -1.9002122E-01;3433; -1.8064188E-02;  0.0000000E+00;  7.4386987E-04;  1.0034233E+03;  1.0000000E-01;  2.8361667E+03;3;  2.0716625E-01;  0.0000000E+00; -2.2860053E+00;0; -4.7996566E-02;  4.0283418E+04;  0.0000000E+00;  3.5538530E-01;  4.0000000E+04;  0.0000000E+00;  3.9994336E+04; -4.9019594E-02;  0.0000000E+00;  1.0230272E-03;  1.1351228E+03;
  1.6142264E-01;  9.9999998E-03; -1.7997529E-01;3434; -1.7960083E-02;  0.0000000E+00;  6.3886523E-04;  1.0034349E+03;  1.0000000E-01;  2.8457466E+03;3;  4.1647437E-01;  0.0000000E+00; -9.6653527E-01;0; -4.7347661E-02;  4.0290387E+04;  0.0000000E+00;  2.2771911E-01;  4.0000000E+04;  0.0000000E+00;  3.9987238E+04; -4.6964701E-02;  0.0000000E+00; -3.8295882E-04;  1.9314086E+03;
  1.6136588E-01;  9.9999998E-03; -1.6992030E-01;3435; -1.7824864E-02;  0.0000000E+00;  5.0921430E-04;  1.0033192E+03;  1.0000000E-01;  2.7498481E+03;3;  5.0532985E-01;  0.0000000E+00; -3.2290819E-01;0; -4.7071684E-02;  4.0282188E+04;  0.0000000E+00;  1.3825764E-01;  4.0000000E+04;  0.0000000E+00;  3.9985027E+04; -4.5641992E-02;  0.0000000E+00; -1.4296933E-03;  2.1666121E+03;
  1.6131723E-01;  9.9999998E-03; -1.5988733E-01;3436; -1.7677037E-02;  0.0000000E+00;  3.7293325E-04;  1.0031058E+03;  1.0000000E-01;  2.5730630E+03;3;  5.3247076E-01;  0.0000000E+00; -5.9807297E-02;0; -4.7040395E-02;  4.0261809E+04;  0.0000000E+00;  6.8879902E-02;  4.0000000E+04;  0.0000000E+00;  3.9987309E+04; -4.5028720E-02;  0.0000000E+00; -2.0116735E-03;  1.8483219E+03;
  1.6128045E-01;  9.9999998E-03; -1.4988594E-01;3437; -1.7531648E-02;  0.0000000E+00;  2.4479162E-04;  1.0028217E+03;  1.0000000E-01;  2.3377117E+03;3;  5.3904635E-01;  0.0000000E+00;  1.5147464E-02;0; -4.7171202E-02;  4.0232598E+04;  0.0000000E+00;  1.8635623E-02;  4.0000000E+04;  0.0000000E+00;  3.9992824E+04; -4.5068949E-02;  0.0000000E+00; -2.1022523E-03;  1.1290436E+03;
  1.6125387E-01;  9.9999998E-03; -1.3989983E-01;3438; -1.7398134E-02;  0.0000000E+00;  1.3537121E-04;  1.0024862E+03;  1.0000000E-01;  2.0597937E+03;3;  5.4276156E-01;  0.0000000E+00;  2.4207857E-02;0; -4.7431558E-02;  4.0197832E+04;  0.0000000E+00; -1.2715866E-02;  4.0000000E+04;  0.0000000E+00;  3.9999887E+04; -4.5681808E-02;  0.0000000E+00; -1.7497516E-03;  2.1384341E+02;
  1.6123182E-01;  9.9999998E-03; -1.2991947E-01;3439; -1.7280463E-02;  0.0000000E+00;  5.6100602E-05;  1.0021134E+03;  1.0000000E-01;  1.7509628E+03;3;  5.4712301E-01;  0.0000000E+00;  2.5633493E-02;0; -4.7831096E-02;  4.0160359E+04;  0.0000000E+00; -2.8874056E-02;  4.0000000E+04;  0.0000000E+00;  4.0006867E+04; -4.6767332E-02;  0.0000000E+00; -1.0637648E-03;  6.9765533E+02;
  1.6120623E-01;  9.9999998E-03; -1.1993915E-01;3440; -1.7177535E-02;  0.0000000E+00;  1.5910193E-05;  1.0017272E+03;  1.0000000E-01;  1.4309719E+03;3;  5.5258536E-01;  0.0000000E+00;  2.6446629E-02;0; -4.8407853E-02;  4.0123340E+04;  0.0000000E+00; -3.4453068E-02;  4.0000000E+04;  0.0000000E+00;  4.0012875E+04; -4.8209574E-02;  0.0000000E+00; -1.9827919E-04;  1.4372289E+03;
  1.6117448E-01;  9.9999998E-03; -1.0995448E-01;3441; -1.7085122E-02;  0.0000000E+00;  1.8462013E-05;  1.0013438E+03;  1.0000000E-01;  1.1132524E+03;3;  5.5876929E-01;  0.0000000E+00;  2.6279377E-02;0; -4.9208283E-02;  4.0088555E+04;  0.0000000E+00; -3.3758633E-02;  4.0000000E+04;  0.0000000E+00;  4.0016707E+04; -4.9885798E-02;  0.0000000E+00;  6.7751500E-04;  1.9099849E+03;
  1.7145695E-01;  9.9999998E-03; -2.6969638E-01;3486; -1.6947512E-02;  0.0000000E+00; -8.4305822E-04;  9.9689032E+02;  1.0000000E-01; -2.5763223E+03;3;  1.0208337E+01;  0.0000000E+00; -6.8046967E+01;0; -8.6974062E-02;  3.9658586E+04;  0.0000000E+00;  2.8796293E+01;  4.0000000E+04;  0.0000000E+00;  4.0096059E+04; -9.2431098E-02;  0.0000000E+00;  5.4570376E-03;  4.4543336E+04;
  1.7163038E-01;  9.9999998E-03; -2.5982106E-01;3487; -1.7642928E-02;  0.0000000E+00; -3.9074029E-04;  9.9814227E+02;  1.0000000E-01; -1.5390676E+03;3;  2.4263897E+00;  0.0000000E+00; -5.6531990E+01;0; -7.8218058E-02;  3.9769309E+04;  0.0000000E+00;  1.7704491E+01;  4.0000000E+04;  0.0000000E+00;  4.0086031E+04; -8.4454119E-02;  0.0000000E+00;  6.2360582E-03;  2.8702807E+04;
  1.7169599E-01;  9.9999998E-03; -2.4993396E-01;3488; -1.8069787E-02;  0.0000000E+00; -4.2737553E-05;  9.9945264E+02;  1.0000000E-01; -4.5346866E+02;3; -1.3361323E+00;  0.0000000E+00; -4.4070080E+01;0; -6.9978267E-02;  3.9887020E+04;  0.0000000E+00;  1.0261461E+01;  4.0000000E+04;  0.0000000E+00;  4.0073609E+04; -7.6741911E-02;  0.0000000E+00;  6.7636468E-03;  1.8052957E+04;
  1.7166559E-01;  9.9999998E-03; -2.4001053E-01;3489; -1.8351151E-02;  0.0000000E+00;  2.6285768E-04;  1.0006711E+03;  1.0000000E-01;  5.5593488E+02;3; -2.5421393E+00;  0.0000000E+00; -3.2431129E+01;0; -6.2942930E-02;  3.9997500E+04;  0.0000000E+00;  5.6277866E+00;  4.0000000E+04;  0.0000000E+00;  4.0061082E+04; -6.9750033E-02;  0.0000000E+00;  6.8071024E-03;  1.1414351E+04;
  1.7159487E-01;  9.9999998E-03; -2.3005480E-01;3490; -1.8535012E-02;  0.0000000E+00;  5.2858173E-04;  1.0016651E+03;  1.0000000E-01;  1.3795165E+03;3; -2.4483664E+00;  0.0000000E+00; -2.2259840E+01;0; -5.7304278E-02;  4.0091570E+04;  0.0000000E+00;  2.8760285E+00;  4.0000000E+04;  0.0000000E+00;  4.0046477E+04; -6.3625835E-02;  0.0000000E+00;  6.3215587E-03;  7.1981172E+03;
  1.7152281E-01;  9.9999998E-03; -2.2007322E-01;3491; -1.8631997E-02;  0.0000000E+00;  7.0791703E-04;  1.0024028E+03;  1.0000000E-01;  1.9906598E+03;3; -1.8030276E+00;  0.0000000E+00; -1.4144680E+01;0; -5.3021736E-02;  4.0165793E+04;  0.0000000E+00;  1.3506222E+00;  4.0000000E+04;  0.0000000E+00;  4.0031137E+04; -5.8395725E-02;  0.0000000E+00;  5.3739883E-03;  4.2356592E+03;
  1.7146643E-01;  9.9999998E-03; -2.1007323E-01;3492; -1.8650806E-02;  0.0000000E+00;  7.9685106E-04;  1.0028886E+03;  1.0000000E-01;  2.3931174E+03;3; -1.0232390E+00;  0.0000000E+00; -8.2770081E+00;0; -4.9990125E-02;  4.0219871E+04;  0.0000000E+00;  5.7914245E-01;  4.0000000E+04;  0.0000000E+00;  4.0015633E+04; -5.4057531E-02;  0.0000000E+00;  4.0674065E-03;  1.9119788E+03;
  1.7143081E-01;  9.9999998E-03; -2.0006016E-01;3493; -1.8605057E-02;  0.0000000E+00;  8.0449512E-04;  1.0031487E+03;  1.0000000E-01;  2.6086177E+03;3; -3.4424910E-01;  0.0000000E+00; -4.4406381E+00;0; -4.8036754E-02;  4.0253664E+04;  0.0000000E+00;  2.2241375E-01;  4.0000000E+04;  0.0000000E+00;  4.0001453E+04; -5.0599579E-02;  0.0000000E+00;  2.5628260E-03;  3.5553445E+02;
  1.7141168E-01;  9.9999998E-03; -1.9003150E-01;3494; -1.8504603E-02;  0.0000000E+00;  7.4358139E-04;  1.0032111E+03;  1.0000000E-01;  2.6602705E+03;3;  1.3082990E-01;  0.0000000E+00; -2.1541090E+00;0; -4.6952426E-02;  4.0268508E+04;  0.0000000E+00;  6.3041627E-02;  4.0000000E+04;  0.0000000E+00;  3.9990945E+04; -4.8003584E-02;  0.0000000E+00;  1.0511572E-03;  1.4163372E+03;
  1.7139411E-01;  9.9999998E-03; -1.7998919E-01;3495; -1.8369792E-02;  0.0000000E+00;  6.3748035E-04;  1.0031136E+03;  1.0000000E-01;  2.5795813E+03;3;  3.9883739E-01;  0.0000000E+00; -9.1053408E-01;0; -4.6525862E-02;  4.0265668E+04;  0.0000000E+00; -1.4985292E-02;  4.0000000E+04;  0.0000000E+00;  3.9984945E+04; -4.6246536E-02;  0.0000000E+00; -2.7932468E-04;  2.1727039E+03;
  1.7136206E-01;  9.9999998E-03; -1.6994315E-01;3496; -1.8220991E-02;  0.0000000E+00;  5.0815567E-04;  1.0028920E+03;  1.0000000E-01;  2.3959817E+03;3;  5.1655340E-01;  0.0000000E+00; -3.0256307E-01;0; -4.6562109E-02;  4.0248191E+04;  0.0000000E+00; -5.9480797E-02;  4.0000000E+04;  0.0000000E+00;  3.9983176E+04; -4.5289941E-02;  0.0000000E+00; -1.2721689E-03;  2.3316741E+03;
  1.7133091E-01;  9.9999998E-03; -1.5992431E-01;3497; -1.8077875E-02;  0.0000000E+00;  3.7337627E-04;  1.0025790E+03;  1.0000000E-01;  2.1367297E+03;3;  5.5392849E-01;  0.0000000E+00; -5.2969936E-02;0; -4.6900295E-02;  4.0219199E+04;  0.0000000E+00; -8.4287904E-02;  4.0000000E+04;  0.0000000E+00;  3.9986207E+04; -4.5072984E-02;  0.0000000E+00; -1.8273123E-03;  1.9629323E+03;
  1.7131148E-01;  9.9999998E-03; -1.4993010E-01;3498; -1.7954107E-02;  0.0000000E+00;  2.4760200E-04;  1.0022007E+03;  1.0000000E-01;  1.8232571E+03;3;  5.6252909E-01;  0.0000000E+00;  1.9429101E-02;0; -4.7431242E-02;  4.0182434E+04;  0.0000000E+00; -9.2785515E-02;  4.0000000E+04;  0.0000000E+00;  3.9991859E+04; -4.5511872E-02;  0.0000000E+00; -1.9193706E-03;  1.2246169E+03;
  1.7129967E-01;  9.9999998E-03; -1.3994871E-01;3499; -1.7856350E-02;  0.0000000E+00;  1.4151061E-04;  1.0017788E+03;  1.0000000E-01;  1.4737361E+03;3;  5.6644785E-01;  0.0000000E+00;  2.8646322E-02;0; -4.8099320E-02;  4.0141012E+04;  0.0000000E+00; -8.8447288E-02;  4.0000000E+04;  0.0000000E+00;  3.9998914E+04; -4.6505652E-02;  0.0000000E+00; -1.5936680E-03;  3.3091220E+02;
  1.7128731E-01;  9.9999998E-03; -1.2997134E-01;3500; -1.7784756E-02;  0.0000000E+00;  6.4394022E-05;  1.0013398E+03;  1.0000000E-01;  1.1099933E+03;3;  5.7120210E-01;  0.0000000E+00;  3.0065572E-02;0; -4.8892800E-02;  4.0098484E+04;  0.0000000E+00; -7.6731890E-02;  4.0000000E+04;  0.0000000E+00;  4.0005473E+04; -4.7938604E-02;  0.0000000E+00; -9.5419644E-04;  5.8874878E+02;
  1.7126533E-01;  9.9999998E-03; -1.1999370E-01;3501; -1.7734293E-02;  0.0000000E+00;  2.4809571E-05;  1.0008976E+03;  1.0000000E-01;  7.4358392E+02;3;  5.7696038E-01;  0.0000000E+00;  3.0679585E-02;0; -4.9828831E-02;  4.0057152E+04;  0.0000000E+00; -6.2661283E-02;  4.0000000E+04;  0.0000000E+00;  4.0010633E+04; -4.9684241E-02;  0.0000000E+00; -1.4458911E-04;  1.2879781E+03;
  1.7122877E-01;  9.9999998E-03; -1.1001205E-01;3502; -1.7696738E-02;  0.0000000E+00;  2.5940853E-05;  1.0004716E+03;  1.0000000E-01;  3.9070499E+02;3;  5.8376431E-01;  0.0000000E+00;  3.0171769E-02;0; -5.0936185E-02;  4.0019301E+04;  0.0000000E+00; -4.9762301E-02;  4.0000000E+04;  0.0000000E+00;  4.0014203E+04; -5.1613010E-02;  0.0000000E+00;  6.7682622E-04;  1.7247941E+03;
  1.8169779E-01;  9.9999998E-03; -2.6985681E-01;3547; -1.7998721E-02;  0.0000000E+00; -1.1289201E-03;  9.9656677E+02;  1.0000000E-01; -2.8443640E+03;3;  8.2187614E+00;  0.0000000E+00; -5.9531731E+01;0; -9.0226181E-02;  3.9647430E+04;  0.0000000E+00;  2.3539146E+01;  4.0000000E+04;  0.0000000E+00;  4.0081215E+04; -9.6280545E-02;  0.0000000E+00;  6.0543646E-03;  3.7316918E+04;
  1.8176438E-01;  9.9999998E-03; -2.5996077E-01;3548; -1.8590894E-02;  0.0000000E+00; -5.8751099E-04;  9.9811395E+02;  1.0000000E-01; -1.5625731E+03;3;  2.0825157E-01;  0.0000000E+00; -5.0020477E+01;0; -7.9744861E-02;  3.9784082E+04;  0.0000000E+00;  1.3480515E+01;  4.0000000E+04;  0.0000000E+00;  4.0068621E+04; -8.6003624E-02;  0.0000000E+00;  6.2587662E-03;  2.2622256E+04;
  1.8175015E-01;  9.9999998E-03; -2.5005409E-01;3549; -1.8920714E-02;  0.0000000E+00; -1.8497295E-04;  9.9956549E+02;  1.0000000E-01; -3.5998981E+02;3; -3.1624725E+00;  0.0000000E+00; -3.9188103E+01;0; -7.0200861E-02;  3.9913660E+04;  0.0000000E+00;  7.1951413E+00;  4.0000000E+04;  0.0000000E+00;  4.0055742E+04; -7.6700032E-02;  0.0000000E+00;  6.4991741E-03;  1.3338090E+04;
  1.8167108E-01;  9.9999998E-03; -2.4010476E-01;3550; -1.9123951E-02;  0.0000000E+00;  1.6258292E-04;  1.0008328E+03;  1.0000000E-01;  6.8995581E+02;3; -3.8239648E+00;  0.0000000E+00; -2.9172651E+01;0; -6.2292486E-02;  4.0026031E+04;  0.0000000E+00;  3.5823345E+00;  4.0000000E+04;  0.0000000E+00;  4.0045293E+04; -6.8701610E-02;  0.0000000E+00;  6.4091240E-03;  8.0366460E+03;
  1.8155640E-01;  9.9999998E-03; -2.3012087E-01;3551; -1.9224877E-02;  0.0000000E+00;  4.4479230E-04;  1.0018185E+03;  1.0000000E-01;  1.5066240E+03;3; -3.3003385E+00;  0.0000000E+00; -2.0245829E+01;0; -5.6099344E-02;  4.0116055E+04;  0.0000000E+00;  1.5947261E+00;  4.0000000E+04;  0.0000000E+00;  4.0034410E+04; -6.2012207E-02;  0.0000000E+00;  5.9128618E-03;  4.8935991E+03;
  1.8144602E-01;  9.9999998E-03; -2.2011811E-01;3552; -1.9247884E-02;  0.0000000E+00;  6.4132671E-04;  1.0024921E+03;  1.0000000E-01;  2.0646331E+03;3; -2.3452132E+00;  0.0000000E+00; -1.2945400E+01;0; -5.1537395E-02;  4.0182586E+04;  0.0000000E+00;  5.5806142E-01;  4.0000000E+04;  0.0000000E+00;  4.0021402E+04; -5.6560382E-02;  0.0000000E+00;  5.0229887E-03;  2.6325210E+03;
  1.8136369E-01;  9.9999998E-03; -2.1010239E-01;3553; -1.9201390E-02;  0.0000000E+00;  7.3960645E-04;  1.0028889E+03;  1.0000000E-01;  2.3934138E+03;3; -1.3429474E+00;  0.0000000E+00; -7.6033344E+00;0; -4.8429485E-02;  4.0226926E+04;  0.0000000E+00;  6.4921685E-02;  4.0000000E+04;  0.0000000E+00;  4.0007723E+04; -5.2249134E-02;  0.0000000E+00;  3.8196484E-03;  7.5223108E+02;
  1.8131746E-01;  9.9999998E-03; -2.0007586E-01;3554; -1.9099493E-02;  0.0000000E+00;  7.4658170E-04;  1.0030465E+03;  1.0000000E-01;  2.5239780E+03;3; -5.0977224E-01;  0.0000000E+00; -4.0884480E+00;0; -4.6555471E-02;  4.0250547E+04;  0.0000000E+00; -1.4784244E-01;  4.0000000E+04;  0.0000000E+00;  3.9995785E+04; -4.8993092E-02;  0.0000000E+00;  2.4376209E-03;  7.9952869E+02;
  1.8130949E-01;  9.9999998E-03; -1.9003503E-01;3555; -1.8960794E-02;  0.0000000E+00;  6.8274525E-04;  1.0030089E+03;  1.0000000E-01;  2.4928677E+03;3;  6.2978216E-02;  0.0000000E+00; -1.9849089E+00;0; -4.5668829E-02;  4.0255125E+04;  0.0000000E+00; -2.3379099E-01;  4.0000000E+04;  0.0000000E+00;  3.9986805E+04; -4.6716429E-02;  0.0000000E+00;  1.0476010E-03;  1.9129229E+03;
  1.8132575E-01;  9.9999998E-03; -1.7999154E-01;3556; -1.8806854E-02;  0.0000000E+00;  5.7548092E-04;  1.0028137E+03;  1.0000000E-01;  2.3310945E+03;3;  3.8546667E-01;  0.0000000E+00; -8.3546466E-01;0; -4.5524713E-02;  4.0243012E+04;  0.0000000E+00; -2.6440558E-01;  4.0000000E+04;  0.0000000E+00;  3.9982258E+04; -4.5351207E-02;  0.0000000E+00; -1.7350426E-04;  2.5035056E+03;
  1.8132943E-01;  9.9999998E-03; -1.6996466E-01;3557; -1.8658224E-02;  0.0000000E+00;  4.4830175E-04;  1.0025003E+03;  1.0000000E-01;  2.0714475E+03;3;  5.2850175E-01;  0.0000000E+00; -2.7307108E-01;0; -4.5899563E-02;  4.0217539E+04;  0.0000000E+00; -2.6317626E-01;  4.0000000E+04;  0.0000000E+00;  3.9981746E+04; -4.4820528E-02;  0.0000000E+00; -1.0790329E-03;  2.5448374E+03;
  1.8132377E-01;  9.9999998E-03; -1.5995961E-01;3558; -1.8532727E-02;  0.0000000E+00;  3.1733693E-04;  1.0021071E+03;  1.0000000E-01;  1.7456296E+03;3;  5.7510757E-01;  0.0000000E+00; -4.1601412E-02;0; -4.6605017E-02;  4.0181668E+04;  0.0000000E+00; -2.3837994E-01;  4.0000000E+04;  0.0000000E+00;  3.9984637E+04; -4.5025781E-02;  0.0000000E+00; -1.5792367E-03;  2.1098579E+03;
  1.8131772E-01;  9.9999998E-03; -1.4997257E-01;3559; -1.8441951E-02;  0.0000000E+00;  1.9582792E-04;  1.0016611E+03;  1.0000000E-01;  1.3761586E+03;3;  5.8579147E-01;  0.0000000E+00;  2.5965264E-02;0; -4.7507711E-02;  4.0139406E+04;  0.0000000E+00; -1.9857368E-01;  4.0000000E+04;  0.0000000E+00;  3.9990570E+04; -4.5857292E-02;  0.0000000E+00; -1.6504206E-03;  1.3555642E+03;
  1.8130830E-01;  9.9999998E-03; -1.3999461E-01;3560; -1.8389205E-02;  0.0000000E+00;  9.4024232E-05;  1.0011879E+03;  1.0000000E-01;  9.8416968E+02;3;  5.9002954E-01;  0.0000000E+00;  3.4633584E-02;0; -4.8531707E-02;  4.0094105E+04;  0.0000000E+00; -1.5361318E-01;  4.0000000E+04;  0.0000000E+00;  3.9997352E+04; -4.7196668E-02;  0.0000000E+00; -1.3350386E-03;  4.8768768E+02;
  1.8129230E-01;  9.9999998E-03; -1.3001865E-01;3561; -1.8370947E-02;  0.0000000E+00;  2.0710972E-05;  1.0007122E+03;  1.0000000E-01;  5.9000800E+02;3;  5.9501320E-01;  0.0000000E+00;  3.5897415E-02;0; -4.9647633E-02;  4.0048934E+04;  0.0000000E+00; -1.1196429E-01;  4.0000000E+04;  0.0000000E+00;  4.0003832E+04; -4.8916787E-02;  0.0000000E+00; -7.3084456E-04;  4.3537964E+02;
  1.8126951E-01;  9.9999998E-03; -1.2004071E-01;3562; -1.8378610E-02;  0.0000000E+00; -1.5949698E-05;  1.0002464E+03;  1.0000000E-01;  2.0414238E+02;3;  6.0138267E-01;  0.0000000E+00;  3.6116377E-02;0; -5.0857186E-02;  4.0006305E+04;  0.0000000E+00; -7.8742355E-02;  4.0000000E+04;  0.0000000E+00;  4.0008719E+04; -5.0886646E-02;  0.0000000E+00;  2.9459823E-05;  1.0664547E+03;
  1.8123935E-01;  9.9999998E-03; -1.1005898E-01;3563; -1.8400511E-02;  0.0000000E+00; -1.3258354E-05;  9.9981085E+02;  1.0000000E-01; -1.5668692E+02;3;  6.0879511E-01;  0.0000000E+00;  3.4964487E-02;0; -5.2177306E-02;  3.9968121E+04;  0.0000000E+00; -5.5887293E-02;  4.0000000E+04;  0.0000000E+00;  4.0011582E+04; -5.2976999E-02;  0.0000000E+00;  7.9969392E-04;  1.4534503E+03;
  1.9174206E-01;  9.9999998E-03; -2.7002022E-01;3608; -1.8814145E-02;  0.0000000E+00; -8.8329794E-04;  9.9664447E+02;  1.0000000E-01; -2.7799707E+03;3; -2.2000135E-01;  0.0000000E+00; -4.4297268E+01;0; -9.1520108E-02;  3.9685930E+04;  0.0000000E+00;  1.5501404E+01;  4.0000000E+04;  0.0000000E+00;  4.0047969E+04; -9.6704662E-02;  0.0000000E+00;  5.1845531E-03;  2.5519527E+04;
  1.9173710E-01;  9.9999998E-03; -2.6009458E-01;3609; -1.9356860E-02;  0.0000000E+00; -5.2880606E-04;  9.9836432E+02;  1.0000000E-01; -1.3551222E+03;3; -5.2768059E+00;  0.0000000E+00; -3.9897594E+01;0; -7.9148345E-02;  3.9833977E+04;  0.0000000E+00;  7.9138241E+00;  4.0000000E+04;  0.0000000E+00;  4.0038707E+04; -8.4759049E-02;  0.0000000E+00;  5.6107040E-03;  1.4087622E+04;
  1.9168682E-01;  9.9999998E-03; -2.5016508E-01;3610; -1.9652806E-02;  0.0000000E+00; -2.1006302E-04;  9.9984058E+02;  1.0000000E-01; -1.3209503E+02;3; -6.5757265E+00;  0.0000000E+00; -3.2375282E+01;0; -6.8516679E-02;  3.9962250E+04;  0.0000000E+00;  3.4849224E+00;  4.0000000E+04;  0.0000000E+00;  4.0029285E+04; -7.4397974E-02;  0.0000000E+00;  5.8812960E-03;  7.2051816E+03;
  1.9158910E-01;  9.9999998E-03; -2.4019226E-01;3611; -1.9802667E-02;  0.0000000E+00;  6.8210560E-05;  1.0010767E+03;  1.0000000E-01;  8.9202417E+02;3; -5.8089347E+00;  0.0000000E+00; -2.4961996E+01;0; -5.9962504E-02;  4.0067363E+04;  0.0000000E+00;  1.2926140E+00;  4.0000000E+04;  0.0000000E+00;  4.0023621E+04; -6.5798685E-02;  0.0000000E+00;  5.8361818E-03;  3.8749343E+03;
  1.9145910E-01;  9.9999998E-03; -2.3018207E-01;3612; -1.9853776E-02;  0.0000000E+00;  3.3700536E-04;  1.0020035E+03;  1.0000000E-01;  1.6598049E+03;3; -4.3990359E+00;  0.0000000E+00; -1.7779575E+01;0; -5.3521018E-02;  4.0147227E+04;  0.0000000E+00;  2.7136639E-01;  4.0000000E+04;  0.0000000E+00;  4.0017887E+04; -5.8883674E-02;  0.0000000E+00;  5.3626560E-03;  2.2293367E+03;
  1.9133341E-01;  9.9999998E-03; -2.2015618E-01;3613; -1.9820340E-02;  0.0000000E+00;  5.3109328E-04;  1.0025901E+03;  1.0000000E-01;  2.1459146E+03;3; -2.9377000E+00;  0.0000000E+00; -1.1551721E+01;0; -4.8929915E-02;  4.0202086E+04;  0.0000000E+00; -1.9619854E-01;  4.0000000E+04;  0.0000000E+00;  4.0009543E+04; -5.3483877E-02;  0.0000000E+00;  4.5539620E-03;  9.4666730E+02;
  1.9124225E-01;  9.9999998E-03; -2.1012159E-01;3614; -1.9720776E-02;  0.0000000E+00;  6.2574371E-04;  1.0028807E+03;  1.0000000E-01;  2.3865991E+03;3; -1.6452703E+00;  0.0000000E+00; -6.8421836E+00;0; -4.5943361E-02;  4.0234449E+04;  0.0000000E+00; -3.9531028E-01;  4.0000000E+04;  0.0000000E+00;  3.9999391E+04; -4.9422715E-02;  0.0000000E+00;  3.4793527E-03;  5.6875769E+02;
  1.9119364E-01;  9.9999998E-03; -2.0008308E-01;3615; -1.9577697E-02;  0.0000000E+00;  6.2854204E-04;  1.0029302E+03;  1.0000000E-01;  2.4275857E+03;3; -6.4680934E-01;  0.0000000E+00; -3.6912236E+00;0; -4.4300109E-02;  4.0246473E+04;  0.0000000E+00; -4.7078973E-01;  4.0000000E+04;  0.0000000E+00;  3.9989574E+04; -4.6549037E-02;  0.0000000E+00;  2.2489293E-03;  1.6442135E+03;
  1.9119866E-01;  9.9999998E-03; -1.9003277E-01;3616; -1.9413440E-02;  0.0000000E+00;  5.6193059E-04;  1.0027942E+03;  1.0000000E-01;  2.3148975E+03;3;  1.5770145E-02;  0.0000000E+00; -1.7895151E+00;0; -4.3713301E-02;  4.0241145E+04;  0.0000000E+00; -4.9229681E-01;  4.0000000E+04;  0.0000000E+00;  3.9982957E+04; -4.4726454E-02;  0.0000000E+00;  1.0131507E-03;  2.4610977E+03;
  1.9122681E-01;  9.9999998E-03; -1.7999458E-01;3617; -1.9251773E-02;  0.0000000E+00;  4.5544587E-04;  1.0025154E+03;  1.0000000E-01;  2.0839905E+03;3;  3.8201267E-01;  0.0000000E+00; -7.4530941E-01;0; -4.3911003E-02;  4.0220852E+04;  0.0000000E+00; -4.8052421E-01;  4.0000000E+04;  0.0000000E+00;  3.9979562E+04; -4.3846309E-02;  0.0000000E+00; -6.4694308E-05;  2.8509236E+03;
  1.9124843E-01;  9.9999998E-03; -1.6998149E-01;3618; -1.9114006E-02;  0.0000000E+00;  3.3214010E-04;  1.0021325E+03;  1.0000000E-01;  1.7667649E+03;3;  5.4381484E-01;  0.0000000E+00; -2.3485212E-01;0; -4.4641204E-02;  4.0188824E+04;  0.0000000E+00; -4.3415850E-01;  4.0000000E+04;  0.0000000E+00;  3.9979777E+04; -4.3789517E-02;  0.0000000E+00; -8.5168710E-04;  2.7607983E+03;
  1.9126216E-01;  9.9999998E-03; -1.5998681E-01;3619; -1.9016553E-02;  0.0000000E+00;  2.0721412E-04;  1.0016887E+03;  1.0000000E-01;  1.3990715E+03;3;  5.9665930E-01;  0.0000000E+00; -2.5586328E-02;0; -4.5694165E-02;  4.0148703E+04;  0.0000000E+00; -3.5828680E-01;  4.0000000E+04;  0.0000000E+00;  3.9983754E+04; -4.4426069E-02;  0.0000000E+00; -1.2680973E-03;  2.2591675E+03;
  1.9126958E-01;  9.9999998E-03; -1.5000345E-01;3620; -1.8967927E-02;  0.0000000E+00;  9.2194910E-05;  1.0012088E+03;  1.0000000E-01;  1.0014532E+03;3;  6.0875767E-01;  0.0000000E+00;  3.4835011E-02;0; -4.6918634E-02;  4.0103699E+04;  0.0000000E+00; -2.6912159E-01;  4.0000000E+04;  0.0000000E+00;  3.9989234E+04; -4.5624562E-02;  0.0000000E+00; -1.2940717E-03;  1.4956685E+03;
  1.9127181E-01;  9.9999998E-03; -1.4002532E-01;3621; -1.8967917E-02;  0.0000000E+00; -3.5520588E-06;  1.0007179E+03;  1.0000000E-01;  5.9474860E+02;3;  6.1315626E-01;  0.0000000E+00;  4.2582322E-02;0; -4.8222288E-02;  4.0057285E+04;  0.0000000E+00; -1.8481074E-01;  4.0000000E+04;  0.0000000E+00;  3.9995691E+04; -4.7252148E-02;  0.0000000E+00; -9.7014126E-04;  6.5284967E+02;
  1.9126818E-01;  9.9999998E-03; -1.3004744E-01;3622; -1.9009085E-02;  0.0000000E+00; -7.1038601E-05;  1.0002406E+03;  1.0000000E-01;  1.9930301E+02;3;  6.1872810E-01;  0.0000000E+00;  4.3450668E-02;0; -4.9563255E-02;  4.0012598E+04;  0.0000000E+00; -1.1704890E-01;  4.0000000E+04;  0.0000000E+00;  4.0001816E+04; -4.9175337E-02;  0.0000000E+00; -3.8791660E-04;  2.4622044E+02;
  1.9126159E-01;  9.9999998E-03; -1.2006706E-01;3623; -1.9079104E-02;  0.0000000E+00; -1.0212861E-04;  9.9979016E+02;  1.0000000E-01; -1.7387163E+02;3;  6.2589413E-01;  0.0000000E+00;  4.2857565E-02;0; -5.0932474E-02;  3.9971840E+04;  0.0000000E+00; -6.9978289E-02;  4.0000000E+04;  0.0000000E+00;  4.0005992E+04; -5.1263079E-02;  0.0000000E+00;  3.3060572E-04;  7.7789880E+02;
  1.9125792E-01;  9.9999998E-03; -1.1008276E-01;3624; -1.9163202E-02;  0.0000000E+00; -9.3721741E-05;  9.9938190E+02;  1.0000000E-01; -5.1208429E+02;3;  6.3411653E-01;  0.0000000E+00;  4.1234884E-02;0; -5.2339099E-02;  3.9936609E+04;  0.0000000E+00; -4.2852275E-02;  4.0000000E+04;  0.0000000E+00;  4.0008367E+04; -5.3391792E-02;  0.0000000E+00;  1.0526910E-03;  1.1063824E+03;
  2.0164944E-01;  9.9999998E-03; -2.7008969E-01;3669; -1.9392408E-02;  0.0000000E+00; -6.7640725E-04;  9.9736597E+02;  1.0000000E-01; -2.1822593E+03;3; -1.0571246E+01;  0.0000000E+00; -3.5569820E+01;0; -8.8688448E-02;  3.9768430E+04;  0.0000000E+00;  8.4320078E+00;  4.0000000E+04;  0.0000000E+00;  4.0022719E+04; -9.2626490E-02;  0.0000000E+00;  3.9380444E-03;  1.5079894E+04;
  2.0161527E-01;  9.9999998E-03; -2.6014799E-01;3670; -1.9956490E-02;  0.0000000E+00; -3.6590363E-04;  9.9899957E+02;  1.0000000E-01; -8.2881604E+02;3; -1.1628976E+01;  0.0000000E+00; -3.2757641E+01;0; -7.5600959E-02;  3.9909605E+04;  0.0000000E+00;  3.0120540E+00;  4.0000000E+04;  0.0000000E+00;  4.0013871E+04; -7.9951659E-02;  0.0000000E+00;  4.3507027E-03;  6.5633149E+03;
  2.0155564E-01;  9.9999998E-03; -2.5020650E-01;3671; -2.0244189E-02;  0.0000000E+00; -1.3113959E-04;  1.0003200E+03;  1.0000000E-01;  2.6507892E+02;3; -1.0355665E+01;  0.0000000E+00; -2.6929937E+01;0; -6.4385451E-02;  4.0024711E+04;  0.0000000E+00;  2.6468691E-01;  4.0000000E+04;  0.0000000E+00;  4.0005793E+04; -6.9191858E-02;  0.0000000E+00;  4.8064096E-03;  1.8204541E+03;
  2.0145135E-01;  9.9999998E-03; -2.4022439E-01;3672; -2.0382073E-02;  0.0000000E+00;  5.0307164E-05;  1.0014150E+03;  1.0000000E-01;  1.1723125E+03;3; -7.9283261E+00;  0.0000000E+00; -2.1278723E+01;0; -5.5549946E-02;  4.0114914E+04;  0.0000000E+00; -6.1229134E-01;  4.0000000E+04;  0.0000000E+00;  4.0003750E+04; -6.0519431E-02;  0.0000000E+00;  4.9694865E-03;  3.7133105E+02;
  2.0132166E-01;  9.9999998E-03; -2.3020242E-01;3673; -2.0400930E-02;  0.0000000E+00;  2.3806324E-04;  1.0022110E+03;  1.0000000E-01;  1.8317506E+03;3; -5.5064592E+00;  0.0000000E+00; -1.5513680E+01;0; -4.9118675E-02;  4.0179520E+04;  0.0000000E+00; -7.7577966E-01;  4.0000000E+04;  0.0000000E+00;  4.0002594E+04; -5.3770926E-02;  0.0000000E+00;  4.6522520E-03;  6.7522229E+02;
  2.0119601E-01;  9.9999998E-03; -2.2016366E-01;3674; -2.0330004E-02;  0.0000000E+00;  3.9117160E-04;  1.0026712E+03;  1.0000000E-01;  2.2130732E+03;3; -3.4754298E+00;  0.0000000E+00; -1.0212610E+01;0; -4.4752598E-02;  4.0219574E+04;  0.0000000E+00; -7.5838494E-01;  4.0000000E+04;  0.0000000E+00;  3.9998008E+04; -4.8728149E-02;  0.0000000E+00;  3.9755525E-03;  9.6308167E+02;
  2.0110583E-01;  9.9999998E-03; -2.1011972E-01;3675; -2.0192899E-02;  0.0000000E+00;  4.6888314E-04;  1.0028362E+03;  1.0000000E-01;  2.3497607E+03;3; -1.8795263E+00;  0.0000000E+00; -6.0825148E+00;0; -4.2099521E-02;  4.0238320E+04;  0.0000000E+00; -7.2160220E-01;  4.0000000E+04;  0.0000000E+00;  3.9991484E+04; -4.5153718E-02;  0.0000000E+00;  3.0541962E-03;  1.6161791E+03;
  2.0106456E-01;  9.9999998E-03; -2.0007782E-01;3676; -2.0020971E-02;  0.0000000E+00;  4.6086710E-04;  1.0027752E+03;  1.0000000E-01;  2.2991943E+03;3; -7.3160017E-01;  0.0000000E+00; -3.2817624E+00;0; -4.0837113E-02;  4.0239020E+04;  0.0000000E+00; -6.9449139E-01;  4.0000000E+04;  0.0000000E+00;  3.9984277E+04; -4.2838376E-02;  0.0000000E+00;  2.0012620E-03;  2.3853892E+03;
  2.0108625E-01;  9.9999998E-03; -1.9002646E-01;3677; -1.9843332E-02;  0.0000000E+00;  3.8904455E-04;  1.0025518E+03;  1.0000000E-01;  2.1141130E+03;3; -7.1142422E-04;  0.0000000E+00; -1.5801775E+00;0; -4.0643033E-02;  4.0224262E+04;  0.0000000E+00; -6.6810465E-01;  4.0000000E+04;  0.0000000E+00;  3.9979867E+04; -4.1592401E-02;  0.0000000E+00;  9.4936829E-04;  2.9325566E+03;
  2.0112304E-01;  9.9999998E-03; -1.7999968E-01;3678; -1.9685628E-02;  0.0000000E+00;  2.8485287E-04;  1.0022058E+03;  1.0000000E-01;  1.8275039E+03;3;  3.9254832E-01;  0.0000000E+00; -6.4482093E-01;0; -4.1225225E-02;  4.0197398E+04;  0.0000000E+00; -6.1990905E-01;  4.0000000E+04;  0.0000000E+00;  3.9977582E+04; -4.1271418E-02;  0.0000000E+00;  4.6191864E-05;  3.1352844E+03;
  2.0115872E-01;  9.9999998E-03; -1.6999640E-01;3679; -1.9569127E-02;  0.0000000E+00;  1.6786944E-04;  1.0017832E+03;  1.0000000E-01;  1.4773903E+03;3;  5.6318635E-01;  0.0000000E+00; -1.8922022E-01;0; -4.2307481E-02;  4.0161590E+04;  0.0000000E+00; -5.3095633E-01;  4.0000000E+04;  0.0000000E+00;  3.9978730E+04; -4.1715976E-02;  0.0000000E+00; -5.9150619E-04;  2.9239946E+03;
  2.0119004E-01;  9.9999998E-03; -1.6000654E-01;3680; -1.9508369E-02;  0.0000000E+00;  5.0651433E-05;  1.0013184E+03;  1.0000000E-01;  1.0923148E+03;3;  6.1851460E-01;  0.0000000E+00; -5.0822040E-03;0; -4.3666095E-02;  4.0119688E+04;  0.0000000E+00; -4.0783918E-01;  4.0000000E+04;  0.0000000E+00;  3.9982684E+04; -4.2770945E-02;  0.0000000E+00; -8.9515111E-04;  2.3696487E+03;
  2.0121388E-01;  9.9999998E-03; -1.5002403E-01;3681; -1.9508429E-02;  0.0000000E+00; -5.6654146E-05;  1.0008442E+03;  1.0000000E-01;  6.9943701E+02;3;  6.3098967E-01;  0.0000000E+00;  4.6914060E-02;0; -4.5138825E-02;  4.0075129E+04;  0.0000000E+00; -2.7613592E-01;  4.0000000E+04;  0.0000000E+00;  3.9988008E+04; -4.4287875E-02;  0.0000000E+00; -8.5094996E-04;  1.6125260E+03;
  2.0123348E-01;  9.9999998E-03; -1.4004387E-01;3682; -1.9565666E-02;  0.0000000E+00; -1.4528485E-04;  1.0003754E+03;  1.0000000E-01;  3.1100354E+02;3;  6.3585162E-01;  0.0000000E+00;  5.3269807E-02;0; -4.6622559E-02;  4.0031133E+04;  0.0000000E+00; -1.6198672E-01;  4.0000000E+04;  0.0000000E+00;  3.9993953E+04; -4.6123087E-02;  0.0000000E+00; -4.9947045E-04;  8.0915759E+02;
  2.0125461E-01;  9.9999998E-03; -1.3006239E-01;3683; -1.9669207E-02;  0.0000000E+00; -2.0501766E-04;  9.9993555E+02;  1.0000000E-01; -5.3381207E+01;3;  6.4201105E-01;  0.0000000E+00;  5.3560574E-02;0; -4.8066858E-02;  3.9990469E+04;  0.0000000E+00; -7.8903273E-02;  4.0000000E+04;  0.0000000E+00;  3.9999488E+04; -4.8140492E-02;  0.0000000E+00;  7.3634554E-05;  1.3283080E+02;
  2.0128414E-01;  9.9999998E-03; -1.2007768E-01;3684; -1.9803327E-02;  0.0000000E+00; -2.2738641E-04;  9.9954553E+02;  1.0000000E-01; -3.7653256E+02;3;  6.5007955E-01;  0.0000000E+00;  5.2165713E-02;0; -4.9455974E-02;  3.9954918E+04;  0.0000000E+00; -2.8377477E-02;  4.0000000E+04;  0.0000000E+00;  4.0003305E+04; -5.0213307E-02;  0.0000000E+00;  7.5733429E-04;  4.4291760E+02;
  2.0132340E-01;  9.9999998E-03; -1.1008846E-01;3685; -1.9949760E-02;  0.0000000E+00; -2.0877513E-04;  9.9921136E+02;  1.0000000E-01; -6.5336426E+02;3;  6.5977705E-01;  0.0000000E+00;  4.8256114E-02;0; -5.0796073E-02;  3.9926148E+04;  0.0000000E+00; -5.5939872E-03;  4.0000000E+04;  0.0000000E+00;  4.0005301E+04; -5.2228928E-02;  0.0000000E+00;  1.4328551E-03;  7.1079108E+02;
  2.1151708E-01;  9.9999998E-03; -2.7007863E-01;3730; -1.9780157E-02;  0.0000000E+00; -1.2015180E-03;  9.9858624E+02;  1.0000000E-01; -1.1712755E+03;3; -1.9756935E+01;  0.0000000E+00; -3.6825741E+01;0; -7.7840291E-02;  3.9871262E+04;  0.0000000E+00;  3.5978489E+00;  4.0000000E+04;  0.0000000E+00;  4.0018125E+04; -8.3679602E-02;  0.0000000E+00;  5.8393106E-03;  8.0821270E+03;
  2.1146892E-01;  9.9999998E-03; -2.6011807E-01;3731; -2.0402078E-02;  0.0000000E+00; -6.2370987E-04;  9.9997601E+02;  1.0000000E-01; -1.9851290E+01;3; -1.6774330E+01;  0.0000000E+00; -3.2255882E+01;0; -6.6849947E-02;  3.9994684E+04;  0.0000000E+00; -2.4911055E-01;  4.0000000E+04;  0.0000000E+00;  4.0007992E+04; -7.1198002E-02;  0.0000000E+00;  4.3480527E-03;  1.9055295E+03;
  2.1140805E-01;  9.9999998E-03; -2.5016922E-01;3732; -2.0721799E-02;  0.0000000E+00; -1.8330103E-04;  1.0010040E+03;  1.0000000E-01;  8.3177893E+02;3; -1.3274334E+01;  0.0000000E+00; -2.5077677E+01;0; -5.6916956E-02;  4.0089402E+04;  0.0000000E+00; -1.8321670E+00;  4.0000000E+04;  0.0000000E+00;  3.9996594E+04; -6.0749590E-02;  0.0000000E+00;  3.8326357E-03;  1.4173694E+03;
  2.1130091E-01;  9.9999998E-03; -2.4019012E-01;3733; -2.0854253E-02;  0.0000000E+00;  2.1522954E-05;  1.0018409E+03;  1.0000000E-01;  1.5250927E+03;3; -9.5668859E+00;  0.0000000E+00; -1.9174942E+01;0; -4.8589680E-02;  4.0160336E+04;  0.0000000E+00; -1.7873204E+00;  4.0000000E+04;  0.0000000E+00;  3.9992930E+04; -5.2519515E-02;  0.0000000E+00;  3.9298339E-03;  2.0537288E+03;
  2.1117237E-01;  9.9999998E-03; -2.3017099E-01;3734; -2.0859439E-02;  0.0000000E+00;  1.5428865E-04;  1.0024274E+03;  1.0000000E-01;  2.0110049E+03;3; -6.3353443E+00;  0.0000000E+00; -1.3874145E+01;0; -4.2559382E-02;  4.0206840E+04;  0.0000000E+00; -1.3705682E+00;  4.0000000E+04;  0.0000000E+00;  3.9992328E+04; -4.6336710E-02;  0.0000000E+00;  3.7773289E-03;  1.8836892E+03;
  2.1105267E-01;  9.9999998E-03; -2.2013399E-01;3735; -2.0762239E-02;  0.0000000E+00;  2.5400132E-04;  1.0027122E+03;  1.0000000E-01;  2.2470476E+03;3; -3.8338172E+00;  0.0000000E+00; -9.0965662E+00;0; -3.8664654E-02;  4.0230926E+04;  0.0000000E+00; -1.0488430E+00;  4.0000000E+04;  0.0000000E+00;  3.9990004E+04; -4.1943327E-02;  0.0000000E+00;  3.2786715E-03;  1.9377610E+03;
  2.1097365E-01;  9.9999998E-03; -2.1009551E-01;3736; -2.0600813E-02;  0.0000000E+00;  2.9017663E-04;  1.0027352E+03;  1.0000000E-01;  2.2661086E+03;3; -2.0008152E+00;  0.0000000E+00; -5.3902454E+00;0; -3.6518279E-02;  4.0236059E+04;  0.0000000E+00; -8.7450778E-01;  4.0000000E+04;  0.0000000E+00;  3.9985387E+04; -3.9067056E-02;  0.0000000E+00;  2.5487749E-03;  2.3789011E+03;
  2.1095225E-01;  9.9999998E-03; -2.0005624E-01;3737; -2.0414559E-02;  0.0000000E+00;  2.5726933E-04;  1.0025718E+03;  1.0000000E-01;  2.1307051E+03;3; -7.4799114E-01;  0.0000000E+00; -2.8895454E+00;0; -3.5752915E-02;  4.0226035E+04;  0.0000000E+00; -7.8739500E-01;  4.0000000E+04;  0.0000000E+00;  3.9980098E+04; -3.7452083E-02;  0.0000000E+00;  1.6991665E-03;  2.9004509E+03;
  2.1098551E-01;  9.9999998E-03; -1.9001815E-01;3738; -2.0236250E-02;  0.0000000E+00;  1.7816901E-04;  1.0022698E+03;  1.0000000E-01;  1.8805394E+03;3;  1.7868282E-02;  0.0000000E+00; -1.3696566E+00;0; -3.6019664E-02;  4.0203812E+04;  0.0000000E+00; -7.2823447E-01;  4.0000000E+04;  0.0000000E+00;  3.9976812E+04; -3.6876962E-02;  0.0000000E+00;  8.5729797E-04;  3.2493269E+03;
  2.1102796E-01;  9.9999998E-03; -1.8000633E-01;3739; -2.0093089E-02;  0.0000000E+00;  7.6302655E-05;  1.0018822E+03;  1.0000000E-01;  1.5593633E+03;3;  4.1718760E-01;  0.0000000E+00; -5.3852814E-01;0; -3.7002470E-02;  4.0172648E+04;  0.0000000E+00; -6.4787757E-01;  4.0000000E+04;  0.0000000E+00;  3.9975895E+04; -3.7158947E-02;  0.0000000E+00;  1.5647821E-04;  3.2979104E+03;
  2.1107507E-01;  9.9999998E-03; -1.7001092E-01;3740; -2.0006355E-02;  0.0000000E+00; -3.3834331E-05;  1.0014537E+03;  1.0000000E-01;  1.2044104E+03;3;  5.8654898E-01;  0.0000000E+00; -1.3841343E-01;0; -3.8406827E-02;  4.0135371E+04;  0.0000000E+00; -5.2158785E-01;  4.0000000E+04;  0.0000000E+00;  3.9977820E+04; -3.8103502E-02;  0.0000000E+00; -3.0332332E-04;  2.9916570E+03;
  2.1112061E-01;  9.9999998E-03; -1.6002476E-01;3741; -1.9987950E-02;  0.0000000E+00; -1.4286330E-04;  1.0010077E+03;  1.0000000E-01;  8.3484058E+02;3;  6.3993418E-01;  0.0000000E+00;  1.9647868E-02;0; -4.0003441E-02;  4.0095062E+04;  0.0000000E+00; -3.6205217E-01;  4.0000000E+04;  0.0000000E+00;  3.9981727E+04; -3.9536580E-02;  0.0000000E+00; -4.6686249E-04;  2.4116211E+03;
  2.1116680E-01;  9.9999998E-03; -1.5004130E-01;3742; -2.0040303E-02;  0.0000000E+00; -2.4213121E-04;  1.0005740E+03;  1.0000000E-01;  4.7554211E+02;3;  6.5192938E-01;  0.0000000E+00;  6.1957438E-02;0; -4.1623838E-02;  4.0054473E+04;  0.0000000E+00; -2.0384362E-01;  4.0000000E+04;  0.0000000E+00;  3.9987043E+04; -4.1295160E-02;  0.0000000E+00; -3.2867686E-04;  1.6881488E+03;
  2.1122015E-01;  9.9999998E-03; -1.4005582E-01;3743; -2.0156765E-02;  0.0000000E+00; -3.2247629E-04;  1.0001706E+03;  1.0000000E-01;  1.4132933E+02;3;  6.5716439E-01;  0.0000000E+00;  6.6100560E-02;0; -4.3161027E-02;  4.0016484E+04;  0.0000000E+00; -7.7988632E-02;  4.0000000E+04;  0.0000000E+00;  3.9992496E+04; -4.3229889E-02;  0.0000000E+00;  6.8863723E-05;  9.5619006E+02;
  2.1128675E-01;  9.9999998E-03; -1.3006440E-01;3744; -2.0323340E-02;  0.0000000E+00; -3.7257952E-04;  9.9981909E+02;  1.0000000E-01; -1.4987230E+02;3;  6.6451710E-01;  0.0000000E+00;  6.5120004E-02;0; -4.4562131E-02;  3.9983316E+04;  0.0000000E+00;  3.4059414E-03;  4.0000000E+04;  0.0000000E+00;  3.9996996E+04; -4.5207091E-02;  0.0000000E+00;  6.4496102E-04;  3.3413086E+02;
  2.1137278E-01;  9.9999998E-03; -1.2006532E-01;3745; -2.0521726E-02;  0.0000000E+00; -3.8106338E-04;  9.9952960E+02;  1.0000000E-01; -3.8971738E+02;3;  6.7472702E-01;  0.0000000E+00;  6.0813840E-02;0; -4.5809217E-02;  3.9956555E+04;  0.0000000E+00;  4.3613397E-02;  4.0000000E+04;  0.0000000E+00;  4.0000398E+04; -4.7108691E-02;  0.0000000E+00;  1.2994759E-03;  1.1484408E+02;
  2.1148361E-01;  9.9999998E-03; -1.1005544E-01;3746; -2.0736543E-02;  0.0000000E+00; -3.2985047E-04;  9.9930798E+02;  1.0000000E-01; -5.7331714E+02;3;  6.8906689E-01;  0.0000000E+00;  4.8671748E-02;0; -4.6905328E-02;  3.9937312E+04;  0.0000000E+00;  5.2536853E-02;  4.0000000E+04;  0.0000000E+00;  4.0002125E+04; -4.8834193E-02;  0.0000000E+00;  1.9288671E-03;  3.0487930E+02;
  2.2141325E-01;  9.9999998E-03; -2.7007365E-01;3791; -2.0056350E-02;  0.0000000E+00; -1.9665090E-03;  9.9973212E+02;  1.0000000E-01; -2.2191965E+02;3; -2.8141872E+01;  0.0000000E+00; -3.4714600E+01;0; -6.0128946E-02;  3.9971027E+04;  0.0000000E+00; -5.6989437E-01;  4.0000000E+04;  0.0000000E+00;  4.0011586E+04; -7.0206285E-02;  0.0000000E+00;  1.0077339E-02;  2.0910486E+03;
  2.2134863E-01;  9.9999998E-03; -2.6008102E-01;3792; -2.0711936E-02;  0.0000000E+00; -1.3195153E-03;  1.0009393E+03;  1.0000000E-01;  7.7824957E+02;3; -2.0884727E+01;  0.0000000E+00; -3.1553959E+01;0; -5.1972821E-02;  4.0073133E+04;  0.0000000E+00; -2.5639691E+00;  4.0000000E+04;  0.0000000E+00;  4.0008281E+04; -5.8582779E-02;  0.0000000E+00;  6.6099595E-03;  2.1105686E+03;
  2.2127846E-01;  9.9999998E-03; -2.5011167E-01;3793; -2.1081869E-02;  0.0000000E+00; -5.1207194E-04;  1.0016993E+03;  1.0000000E-01;  1.4078615E+03;3; -1.5182740E+01;  0.0000000E+00; -2.3863688E+01;0; -4.5345873E-02;  4.0146312E+04;  0.0000000E+00; -2.9991336E+00;  4.0000000E+04;  0.0000000E+00;  3.9996934E+04; -4.9032487E-02;  0.0000000E+00;  3.6866143E-03;  3.1392280E+03;
  2.2116520E-01;  9.9999998E-03; -2.4012983E-01;3794; -2.1229496E-02;  0.0000000E+00; -1.0905258E-04;  1.0022498E+03;  1.0000000E-01;  1.8639473E+03;3; -1.0479796E+01;  0.0000000E+00; -1.7431494E+01;0; -3.8726550E-02;  4.0196512E+04;  0.0000000E+00; -2.2896039E+00;  4.0000000E+04;  0.0000000E+00;  3.9989793E+04; -4.1692678E-02;  0.0000000E+00;  2.9661274E-03;  2.9217312E+03;
  2.2103408E-01;  9.9999998E-03; -2.3011640E-01;3795; -2.1220075E-02;  0.0000000E+00;  3.3976772E-05;  1.0025908E+03;  1.0000000E-01;  2.1464084E+03;3; -6.7234120E+00;  0.0000000E+00; -1.2262170E+01;0; -3.3573974E-02;  4.0224680E+04;  0.0000000E+00; -1.5408750E+00;  4.0000000E+04;  0.0000000E+00;  3.9988211E+04; -3.6400631E-02;  0.0000000E+00;  2.8266557E-03;  2.4655120E+03;
  2.2092336E-01;  9.9999998E-03; -2.2008841E-01;3796; -2.1108909E-02;  0.0000000E+00;  9.6493226E-05;  1.0026819E+03;  1.0000000E-01;  2.2219619E+03;3; -3.9350269E+00;  0.0000000E+00; -7.9097648E+00;0; -3.0392895E-02;  4.0233156E+04;  0.0000000E+00; -1.0877807E+00;  4.0000000E+04;  0.0000000E+00;  3.9985289E+04; -3.2891136E-02;  0.0000000E+00;  2.4982418E-03;  2.4479890E+03;
  2.2086407E-01;  9.9999998E-03; -2.1006115E-01;3797; -2.0938555E-02;  0.0000000E+00;  9.3079521E-05;  1.0025632E+03;  1.0000000E-01;  2.1235942E+03;3; -1.9712784E+00;  0.0000000E+00; -4.6300888E+00;0; -2.8890695E-02;  4.0225863E+04;  0.0000000E+00; -8.6126119E-01;  4.0000000E+04;  0.0000000E+00;  3.9981105E+04; -3.0865079E-02;  0.0000000E+00;  1.9743843E-03;  2.8078923E+03;
  2.2086529E-01;  9.9999998E-03; -2.0003118E-01;3798; -2.0751011E-02;  0.0000000E+00;  3.5208886E-05;  1.0023050E+03;  1.0000000E-01;  1.9096744E+03;3; -6.8159574E-01;  0.0000000E+00; -2.4459670E+00;0; -2.8697243E-02;  4.0207184E+04;  0.0000000E+00; -7.4451923E-01;  4.0000000E+04;  0.0000000E+00;  3.9977461E+04; -3.0043488E-02;  0.0000000E+00;  1.3462448E-03;  3.1770464E+03;
  2.2090194E-01;  9.9999998E-03; -1.9001301E-01;3799; -2.0582903E-02;  0.0000000E+00; -5.1923460E-05;  1.0019542E+03;  1.0000000E-01;  1.6190160E+03;3;  7.5723313E-02;  0.0000000E+00; -1.1297289E+00;0; -2.9454406E-02;  4.0180027E+04;  0.0000000E+00; -6.5944046E-01;  4.0000000E+04;  0.0000000E+00;  3.9975293E+04; -3.0190021E-02;  0.0000000E+00;  7.3561457E-04;  3.3899714E+03;
  2.2095348E-01;  9.9999998E-03; -1.8001330E-01;3800; -2.0463292E-02;  0.0000000E+00; -1.5330769E-04;  1.0015613E+03;  1.0000000E-01;  1.2934943E+03;3;  4.5725611E-01;  0.0000000E+00; -4.1771719E-01;0; -3.0814648E-02;  4.0147449E+04;  0.0000000E+00; -5.4985631E-01;  4.0000000E+04;  0.0000000E+00;  3.9975305E+04; -3.1075191E-02;  0.0000000E+00;  2.6054232E-04;  3.3181050E+03;
  2.2101443E-01;  9.9999998E-03; -1.7002386E-01;3801; -2.0412168E-02;  0.0000000E+00; -2.5862647E-04;  1.0011561E+03;  1.0000000E-01;  9.5780005E+02;3;  6.1384368E-01;  0.0000000E+00; -8.0872491E-02;0; -3.2478083E-02;  4.0111824E+04;  0.0000000E+00; -3.9583296E-01;  4.0000000E+04;  0.0000000E+00;  3.9977512E+04; -3.2481931E-02;  0.0000000E+00;  3.8469798E-06;  2.9525078E+03;
  2.2108410E-01;  9.9999998E-03; -1.6003765E-01;3802; -2.0439561E-02;  0.0000000E+00; -3.6115546E-04;  1.0007704E+03;  1.0000000E-01;  6.3820416E+02;3;  6.6143394E-01;  0.0000000E+00;  4.7171421E-02;0; -3.4211691E-02;  4.0076156E+04;  0.0000000E+00; -2.1850707E-01;  4.0000000E+04;  0.0000000E+00;  3.9981711E+04; -3.4216896E-02;  0.0000000E+00;  5.2036244E-06;  2.3835081E+03;
  2.2116949E-01;  9.9999998E-03; -1.5004700E-01;3803; -2.0545427E-02;  0.0000000E+00; -4.5374385E-04;  1.0004188E+03;  1.0000000E-01;  3.4695316E+02;3;  6.7187458E-01;  0.0000000E+00;  7.9258233E-02;0; -3.5847608E-02;  4.0042812E+04;  0.0000000E+00; -5.8018103E-02;  4.0000000E+04;  0.0000000E+00;  3.9986535E+04; -3.6107041E-02;  0.0000000E+00;  2.5943315E-04;  1.7296071E+03;
  2.2128232E-01;  9.9999998E-03; -1.4004341E-01;3804; -2.0721598E-02;  0.0000000E+00; -5.2444980E-04;  1.0001246E+03;  1.0000000E-01;  1.0330572E+02;3;  6.7827213E-01;  0.0000000E+00;  8.0945201E-02;0; -3.7278797E-02;  4.0014133E+04;  0.0000000E+00;  5.5402905E-02;  4.0000000E+04;  0.0000000E+00;  3.9991188E+04; -3.7999179E-02;  0.0000000E+00;  7.2038139E-04;  1.1040959E+03;
  2.2143443E-01;  9.9999998E-03; -1.3002253E-01;3805; -2.0956872E-02;  0.0000000E+00; -5.5230397E-04;  9.9989880E+02;  1.0000000E-01; -8.3849480E+01;3;  6.9159555E-01;  0.0000000E+00;  7.0848569E-02;0; -3.8450193E-02;  3.9991797E+04;  0.0000000E+00;  1.1540168E-01;  4.0000000E+04;  0.0000000E+00;  3.9995410E+04; -3.9761424E-02;  0.0000000E+00;  1.3112298E-03;  6.0532941E+02;
  2.2159064E-01;  9.9999998E-03; -1.2000081E-01;3806; -2.1230387E-02;  0.0000000E+00; -5.1505916E-04;  9.9974152E+02;  1.0000000E-01; -2.1416678E+02;3;  7.0543212E-01;  0.0000000E+00;  5.9598710E-02;0; -3.9373510E-02;  3.9976715E+04;  0.0000000E+00;  1.3149063E-01;  4.0000000E+04;  0.0000000E+00;  3.9997820E+04; -4.1311577E-02;  0.0000000E+00;  1.9380656E-03;  3.0684024E+02;
  2.2170262E-01;  9.9999998E-03; -1.0999023E-01;3807; -2.1500029E-02;  0.0000000E+00; -4.2931945E-04;  9.9965430E+02;  1.0000000E-01; -2.8641165E+02;3;  7.1813047E-01;  0.0000000E+00;  4.8961438E-02;0; -4.0100116E-02;  3.9968723E+04;  0.0000000E+00;  1.1880762E-01;  4.0000000E+04;  0.0000000E+00;  3.9998848E+04; -4.2609252E-02;  0.0000000E+00;  2.5091344E-03;  2.0150659E+02;
  2.3134470E-01;  9.9999998E-03; -2.7008003E-01;3852; -2.0413902E-02;  0.0000000E+00; -2.1685595E-03;  1.0006332E+03;  1.0000000E-01;  5.2452832E+02;3; -3.3434696E+01;  0.0000000E+00; -2.7848047E+01;0; -4.1306160E-02;  4.0058703E+04;  0.0000000E+00; -4.3013759E+00;  4.0000000E+04;  0.0000000E+00;  3.9998332E+04; -5.3085290E-02;  0.0000000E+00;  1.1779131E-02;  4.2420098E+03;
  2.3126236E-01;  9.9999998E-03; -2.6006427E-01;3853; -2.0986337E-02;  0.0000000E+00; -1.9398886E-03;  1.0016738E+03;  1.0000000E-01;  1.3867261E+03;3; -2.3406500E+01;  0.0000000E+00; -2.7533089E+01;0; -3.3256330E-02;  4.0137789E+04;  0.0000000E+00; -4.3155360E+00;  4.0000000E+04;  0.0000000E+00;  4.0004379E+04; -4.2580858E-02;  0.0000000E+00;  9.3245273E-03;  4.6365352E+03;
  2.3117206E-01;  9.9999998E-03; -2.5006661E-01;3854; -2.1343874E-02;  0.0000000E+00; -1.0366923E-03;  1.0022501E+03;  1.0000000E-01;  1.8641447E+03;3; -1.6001030E+01;  0.0000000E+00; -2.1521395E+01;0; -2.9763948E-02;  4.0189625E+04;  0.0000000E+00; -3.4927967E+00;  4.0000000E+04;  0.0000000E+00;  3.9998449E+04; -3.4255553E-02;  0.0000000E+00;  4.4916058E-03;  3.9621772E+03;
  2.3104864E-01;  9.9999998E-03; -2.4007259E-01;3855; -2.1520115E-02;  0.0000000E+00; -3.6855281E-04;  1.0025493E+03;  1.0000000E-01;  2.1120391E+03;3; -1.0601399E+01;  0.0000000E+00; -1.5378564E+01;0; -2.5844041E-02;  4.0220047E+04;  0.0000000E+00; -2.2991087E+00;  4.0000000E+04;  0.0000000E+00;  3.9991051E+04; -2.8122384E-02;  0.0000000E+00;  2.2783424E-03;  2.9493806E+03;
  2.3091738E-01;  9.9999998E-03; -2.3006317E-01;3856; -2.1503629E-02;  0.0000000E+00; -1.5397102E-04;  1.0026525E+03;  1.0000000E-01;  2.1975674E+03;3; -6.6121969E+00;  0.0000000E+00; -1.0483418E+01;0; -2.2044417E-02;  4.0230852E+04;  0.0000000E+00; -1.4207748E+00;  4.0000000E+04;  0.0000000E+00;  3.9986922E+04; -2.3943041E-02;  0.0000000E+00;  1.8986248E-03;  2.4851699E+03;
  2.3082450E-01;  9.9999998E-03; -2.2004487E-01;3857; -2.1382326E-02;  0.0000000E+00; -9.0058827E-05;  1.0025604E+03;  1.0000000E-01;  2.1212239E+03;3; -3.7371459E+00;  0.0000000E+00; -6.6059504E+00;0; -1.9788710E-02;  4.0225359E+04;  0.0000000E+00; -9.5752120E-01;  4.0000000E+04;  0.0000000E+00;  3.9983102E+04; -2.1453258E-02;  0.0000000E+00;  1.6645481E-03;  2.6033743E+03;
  2.3078541E-01;  9.9999998E-03; -2.1002805E-01;3858; -2.1207472E-02;  0.0000000E+00; -1.1542863E-04;  1.0023198E+03;  1.0000000E-01;  1.9219209E+03;3; -1.7762060E+00;  0.0000000E+00; -3.7950315E+00;0; -1.9021042E-02;  4.0208086E+04;  0.0000000E+00; -7.2039068E-01;  4.0000000E+04;  0.0000000E+00;  3.9979059E+04; -2.0359665E-02;  0.0000000E+00;  1.3386233E-03;  2.9667593E+03;
  2.3079954E-01;  9.9999998E-03; -2.0001291E-01;3859; -2.1026740E-02;  0.0000000E+00; -1.9176252E-04;  1.0019943E+03;  1.0000000E-01;  1.6522990E+03;3; -5.3533989E-01;  0.0000000E+00; -1.9569447E+00;0; -1.9429207E-02;  4.0183488E+04;  0.0000000E+00; -5.8412731E-01;  4.0000000E+04;  0.0000000E+00;  3.9976105E+04; -2.0372499E-02;  0.0000000E+00;  9.4329257E-04;  3.2628455E+03;
  2.3084491E-01;  9.9999998E-03; -1.9001068E-01;3860; -2.0878354E-02;  0.0000000E+00; -2.8780769E-04;  1.0016294E+03;  1.0000000E-01;  1.3498877E+03;3;  1.6752732E-01;  0.0000000E+00; -8.6628985E-01;0; -2.0648750E-02;  4.0154352E+04;  0.0000000E+00; -4.7273794E-01;  4.0000000E+04;  0.0000000E+00;  3.9974582E+04; -2.1228479E-02;  0.0000000E+00;  5.7972892E-04;  3.3724026E+03;
  2.3091248E-01;  9.9999998E-03; -1.8001883E-01;3861; -2.0789318E-02;  0.0000000E+00; -3.9111549E-04;  1.0012623E+03;  1.0000000E-01;  1.0457976E+03;3;  5.0936669E-01;  0.0000000E+00; -2.8561532E-01;0; -2.2317614E-02;  4.0123129E+04;  0.0000000E+00; -3.3816981E-01;  4.0000000E+04;  0.0000000E+00;  3.9975449E+04; -2.2666745E-02;  0.0000000E+00;  3.4913109E-04;  3.2159451E+03;
  2.3100004E-01;  9.9999998E-03; -1.7003007E-01;3862; -2.0777795E-02;  0.0000000E+00; -4.9458491E-04;  1.0009216E+03;  1.0000000E-01;  7.6353394E+02;3;  6.4320201E-01;  0.0000000E+00; -1.8115859E-02;0; -2.4133556E-02;  4.0092516E+04;  0.0000000E+00; -1.7180523E-01;  4.0000000E+04;  0.0000000E+00;  3.9978105E+04; -2.4449710E-02;  0.0000000E+00;  3.1615497E-04;  2.8308008E+03;
  2.3111556E-01;  9.9999998E-03; -1.6003452E-01;3863; -2.0852182E-02;  0.0000000E+00; -5.9362157E-04;  1.0006255E+03;  1.0000000E-01;  5.1820752E+02;3;  6.8225855E-01;  0.0000000E+00;  7.7950835E-02;0; -2.5861138E-02;  4.0064574E+04;  0.0000000E+00; -1.7844981E-03;  4.0000000E+04;  0.0000000E+00;  3.9981980E+04; -2.6364582E-02;  0.0000000E+00;  5.0344388E-04;  2.3115127E+03;
  2.3126736E-01;  9.9999998E-03; -1.5002130E-01;3864; -2.1012703E-02;  0.0000000E+00; -6.7675597E-04;  1.0003976E+03;  1.0000000E-01;  3.2937338E+02;3;  6.9277567E-01;  0.0000000E+00;  9.6657604E-02;0; -2.7339393E-02;  4.0041480E+04;  0.0000000E+00;  1.3246033E-01;  4.0000000E+04;  0.0000000E+00;  3.9986305E+04; -2.8232213E-02;  0.0000000E+00;  8.9281978E-04;  1.7571376E+03;
  2.3145330E-01;  9.9999998E-03; -1.3999078E-01;3865; -2.1259014E-02;  0.0000000E+00; -7.1585912E-04;  1.0002431E+03;  1.0000000E-01;  2.0137700E+02;3;  7.0793855E-01;  0.0000000E+00;  8.4491447E-02;0; -2.8481618E-02;  4.0024867E+04;  0.0000000E+00;  2.0833111E-01;  4.0000000E+04;  0.0000000E+00;  3.9990363E+04; -2.9911013E-02;  0.0000000E+00;  1.4293961E-03;  1.2508077E+03;
  2.3161730E-01;  9.9999998E-03; -1.2996870E-01;3866; -2.1564901E-02;  0.0000000E+00; -6.9446384E-04;  1.0001645E+03;  1.0000000E-01;  1.3629243E+02;3;  7.2139156E-01;  0.0000000E+00;  7.2322264E-02;0; -2.9308874E-02;  4.0015402E+04;  0.0000000E+00;  2.2889747E-01;  4.0000000E+04;  0.0000000E+00;  3.9993566E+04; -3.1339452E-02;  0.0000000E+00;  2.0305773E-03;  8.5812982E+02;
  2.3172462E-01;  9.9999998E-03; -1.1996312E-01;3867; -2.1888537E-02;  0.0000000E+00; -6.2209304E-04;  1.0001547E+03;  1.0000000E-01;  1.2809514E+02;3;  7.3389995E-01;  0.0000000E+00;  6.1125379E-02;0; -2.9865216E-02;  4.0012570E+04;  0.0000000E+00;  2.1161923E-01;  4.0000000E+04;  0.0000000E+00;  3.9995602E+04; -3.2479677E-02;  0.0000000E+00;  2.6144609E-03;  6.1647931E+02;
  2.3177806E-01;  9.9999998E-03; -1.0996608E-01;3868; -2.2192467E-02;  0.0000000E+00; -5.1627035E-04;  1.0001993E+03;  1.0000000E-01;  1.6513112E+02;3;  7.4520290E-01;  0.0000000E+00;  5.1050141E-02;0; -3.0181127E-02;  4.0015766E+04;  0.0000000E+00;  1.7566812E-01;  4.0000000E+04;  0.0000000E+00;  3.9996441E+04; -3.3295933E-02;  0.0000000E+00;  3.1148060E-03;  5.2966333E+02;
  2.4128844E-01;  9.9999998E-03; -2.7008319E-01;3913; -2.0851437E-02;  0.0000000E+00; -1.7798474E-03;  1.0013526E+03;  1.0000000E-01;  1.1205608E+03;3; -3.4250591E+01;  0.0000000E+00; -2.0445534E+01;0; -2.3990827E-02;  4.0132320E+04;  0.0000000E+00; -6.7711992E+00;  4.0000000E+04;  0.0000000E+00;  3.9984816E+04; -3.2991719E-02;  0.0000000E+00;  9.0008918E-03;  8.2895078E+03;
  2.4120609E-01;  9.9999998E-03; -2.6006106E-01;3914; -2.1296645E-02;  0.0000000E+00; -2.0607412E-03;  1.0021429E+03;  1.0000000E-01;  1.7753571E+03;3; -2.3589985E+01;  0.0000000E+00; -2.1482611E+01;0; -1.4136739E-02;  4.0185574E+04;  0.0000000E+00; -5.5279059E+00;  4.0000000E+04;  0.0000000E+00;  3.9995781E+04; -2.3778623E-02;  0.0000000E+00;  9.6418839E-03;  6.6420884E+03;
  2.4109887E-01;  9.9999998E-03; -2.5004178E-01;3915; -2.1589877E-02;  0.0000000E+00; -1.4550609E-03;  1.0025656E+03;  1.0000000E-01;  2.1255693E+03;3; -1.5601180E+01;  0.0000000E+00; -1.7754856E+01;0; -1.1673824E-02;  4.0216707E+04;  0.0000000E+00; -3.6527064E+00;  4.0000000E+04;  0.0000000E+00;  3.9997711E+04; -1.6836450E-02;  0.0000000E+00;  5.1626256E-03;  4.3689468E+03;
  2.4096327E-01;  9.9999998E-03; -2.4003194E-01;3916; -2.1747606E-02;  0.0000000E+00; -7.0603460E-04;  1.0026829E+03;  1.0000000E-01;  2.2226531E+03;3; -9.9678307E+00;  0.0000000E+00; -1.2785127E+01;0; -1.0185650E-02;  4.0229184E+04;  0.0000000E+00; -2.0842462E+00;  4.0000000E+04;  0.0000000E+00;  3.9992809E+04; -1.2039974E-02;  0.0000000E+00;  1.8543249E-03;  2.6737959E+03;
  2.4083799E-01;  9.9999998E-03; -2.3002106E-01;3917; -2.1728521E-02;  0.0000000E+00; -3.8834309E-04;  1.0025870E+03;  1.0000000E-01;  2.1432478E+03;3; -6.0136681E+00;  0.0000000E+00; -8.5182695E+00;0; -8.0654230E-03;  4.0225012E+04;  0.0000000E+00; -1.1861949E+00;  4.0000000E+04;  0.0000000E+00;  3.9987289E+04; -9.0751816E-03;  0.0000000E+00;  1.0097584E-03;  2.2453433E+03;
  2.4075925E-01;  9.9999998E-03; -2.2000970E-01;3918; -2.1596570E-02;  0.0000000E+00; -3.1181250E-04;  1.0023471E+03;  1.0000000E-01;  1.9445375E+03;3; -3.2614591E+00;  0.0000000E+00; -5.2375288E+00;0; -6.8500931E-03;  4.0208586E+04;  0.0000000E+00; -7.4268126E-01;  4.0000000E+04;  0.0000000E+00;  3.9982695E+04; -7.6631829E-03;  0.0000000E+00;  8.1308960E-04;  2.5376013E+03;
  2.4073569E-01;  9.9999998E-03; -2.1000199E-01;3919; -2.1420466E-02;  0.0000000E+00; -3.4794031E-04;  1.0020202E+03;  1.0000000E-01;  1.6737303E+03;3; -1.4348594E+00;  0.0000000E+00; -2.9352233E+00;0; -6.8501849E-03;  4.0184672E+04;  0.0000000E+00; -5.0063366E-01;  4.0000000E+04;  0.0000000E+00;  3.9978508E+04; -7.5145448E-03;  0.0000000E+00;  6.6435995E-04;  2.9415103E+03;
  2.4076222E-01;  9.9999998E-03; -2.0000093E-01;3920; -2.1251097E-02;  0.0000000E+00; -4.3411841E-04;  1.0016649E+03;  1.0000000E-01;  1.3793190E+03;3; -3.2047850E-01;  0.0000000E+00; -1.4579599E+00;0; -7.8321453E-03;  4.0157215E+04;  0.0000000E+00; -3.4097061E-01;  4.0000000E+04;  0.0000000E+00;  3.9975949E+04; -8.3297696E-03;  0.0000000E+00;  4.9762410E-04;  3.2060820E+03;
  2.4082972E-01;  9.9999998E-03; -1.9000700E-01;3921; -2.1126561E-02;  0.0000000E+00; -5.3316529E-04;  1.0013183E+03;  1.0000000E-01;  1.0922159E+03;3;  2.8669447E-01;  0.0000000E+00; -5.9738344E-01;0; -9.4293030E-03;  4.0128922E+04;  0.0000000E+00; -2.0158468E-01;  4.0000000E+04;  0.0000000E+00;  3.9975141E+04; -9.8147765E-03;  0.0000000E+00;  3.8547319E-04;  3.2361934E+03;
  2.4092929E-01;  9.9999998E-03; -1.8001580E-01;3922; -2.1070659E-02;  0.0000000E+00; -6.3551677E-04;  1.0010137E+03;  1.0000000E-01;  8.3977863E+02;3;  5.6935251E-01;  0.0000000E+00; -1.4917631E-01;0; -1.1284657E-02;  4.0102352E+04;  0.0000000E+00; -5.1244572E-02;  4.0000000E+04;  0.0000000E+00;  3.9976496E+04; -1.1694741E-02;  0.0000000E+00;  4.1008397E-04;  3.0345195E+03;
  2.4106586E-01;  9.9999998E-03; -1.7001738E-01;3923; -2.1099428E-02;  0.0000000E+00; -7.3697063E-04;  1.0007697E+03;  1.0000000E-01;  6.3761157E+02;3;  6.7386609E-01;  0.0000000E+00;  4.8166476E-02;0; -1.3095789E-02;  4.0079379E+04;  0.0000000E+00;  1.0630301E-01;  4.0000000E+04;  0.0000000E+00;  3.9979203E+04; -1.3710927E-02;  0.0000000E+00;  6.1513879E-04;  2.6699136E+03;
  2.4123886E-01;  9.9999998E-03; -1.6000341E-01;3924; -2.1221211E-02;  0.0000000E+00; -8.2691049E-04;  1.0006000E+03;  1.0000000E-01;  4.9707233E+02;3;  7.0481664E-01;  0.0000000E+00;  1.0798024E-01;0; -1.4646820E-02;  4.0061965E+04;  0.0000000E+00;  2.4091601E-01;  4.0000000E+04;  0.0000000E+00;  3.9982844E+04; -1.5649622E-02;  0.0000000E+00;  1.0028026E-03;  2.2293738E+03;
  2.4143049E-01;  9.9999998E-03; -1.4997663E-01;3925; -2.1448620E-02;  0.0000000E+00; -8.7356387E-04;  1.0005183E+03;  1.0000000E-01;  4.2941992E+02;3;  7.2130245E-01;  0.0000000E+00;  1.0461607E-01;0; -1.5822191E-02;  4.0051391E+04;  0.0000000E+00;  3.2166901E-01;  4.0000000E+04;  0.0000000E+00;  3.9986594E+04; -1.7357303E-02;  0.0000000E+00;  1.5351123E-03;  1.7796106E+03;
  2.4159425E-01;  9.9999998E-03; -1.3995670E-01;3926; -2.1758633E-02;  0.0000000E+00; -8.6591847E-04;  1.0005172E+03;  1.0000000E-01;  4.2843228E+02;3;  7.3463720E-01;  0.0000000E+00;  9.0476774E-02;0; -1.6618503E-02;  4.0048004E+04;  0.0000000E+00;  3.4074861E-01;  4.0000000E+04;  0.0000000E+00;  3.9990168E+04; -1.8759482E-02;  0.0000000E+00;  2.1409786E-03;  1.3734072E+03;
  2.4169901E-01;  9.9999998E-03; -1.2995303E-01;3927; -2.2114901E-02;  0.0000000E+00; -8.0460904E-04;  1.0005846E+03;  1.0000000E-01;  4.8433194E+02;3;  7.4709779E-01;  0.0000000E+00;  7.5781628E-02;0; -1.7074730E-02;  4.0050973E+04;  0.0000000E+00;  3.1412232E-01;  4.0000000E+04;  0.0000000E+00;  3.9992637E+04; -1.9817527E-02;  0.0000000E+00;  2.7427971E-03;  1.0607842E+03;
  2.4174841E-01;  9.9999998E-03; -1.1995956E-01;3928; -2.2476003E-02;  0.0000000E+00; -7.0411427E-04;  1.0007034E+03;  1.0000000E-01;  5.8269952E+02;3;  7.5838000E-01;  0.0000000E+00;  6.3832231E-02;0; -1.7216697E-02;  4.0059371E+04;  0.0000000E+00;  2.6446271E-01;  4.0000000E+04;  0.0000000E+00;  3.9993969E+04; -2.0494048E-02;  0.0000000E+00;  3.2773507E-03;  8.7924945E+02;
  2.4175242E-01;  9.9999998E-03; -1.0997150E-01;3929; -2.2802785E-02;  0.0000000E+00; -5.8592536E-04;  1.0008580E+03;  1.0000000E-01;  7.1089343E+02;3;  7.7041107E-01;  0.0000000E+00;  5.2162915E-02;0; -1.7075377E-02;  4.0071801E+04;  0.0000000E+00;  2.1067218E-01;  4.0000000E+04;  0.0000000E+00;  3.9994250E+04; -2.0775724E-02;  0.0000000E+00;  3.7003469E-03;  8.4756970E+02;
  2.5122985E-01;  9.9999998E-03; -2.7008003E-01;3974; -2.1244984E-02;  0.0000000E+00; -1.3111992E-03;  1.0019171E+03;  1.0000000E-01;  1.5882019E+03;3; -3.1451353E+01;  0.0000000E+00; -1.4757363E+01;0; -5.8402475E-03;  4.0188809E+04;  0.0000000E+00; -7.6716709E+00;  4.0000000E+04;  0.0000000E+00;  3.9975812E+04; -1.0525510E-02;  0.0000000E+00;  4.6852622E-03;  1.0095821E+04;
  2.5115651E-01;  9.9999998E-03; -2.6006007E-01;3975; -2.1595191E-02;  0.0000000E+00; -1.8161861E-03;  1.0024109E+03;  1.0000000E-01;  1.9974742E+03;3; -2.1521378E+01;  0.0000000E+00; -1.5623181E+01;0;  4.6613226E-03;  4.0217305E+04;  0.0000000E+00; -5.8412762E+00;  4.0000000E+04;  0.0000000E+00;  3.9987027E+04; -2.7837995E-03;  0.0000000E+00;  7.4451221E-03;  7.5134761E+03;
  2.5104269E-01;  9.9999998E-03; -2.5002974E-01;3976; -2.1835281E-02;  0.0000000E+00; -1.6449810E-03;  1.0026779E+03;  1.0000000E-01;  2.2185049E+03;3; -1.3993809E+01;  0.0000000E+00; -1.3553147E+01;0;  7.6158852E-03;  4.0228859E+04;  0.0000000E+00; -3.4644876E+00;  4.0000000E+04;  0.0000000E+00;  3.9995320E+04;  2.6879832E-03;  0.0000000E+00;  4.9279020E-03;  4.3182583E+03;
  2.5090405E-01;  9.9999998E-03; -2.4000786E-01;3977; -2.1930614E-02;  0.0000000E+00; -1.0229538E-03;  1.0026419E+03;  1.0000000E-01;  2.1887773E+03;3; -8.6848040E+00;  0.0000000E+00; -9.8634119E+00;0;  7.5996686E-03;  4.0225309E+04;  0.0000000E+00; -1.7829995E+00;  4.0000000E+04;  0.0000000E+00;  3.9993879E+04;  6.1418405E-03;  0.0000000E+00;  1.4578282E-03;  2.3269329E+03;
  2.5078651E-01;  9.9999998E-03; -2.2999321E-01;3978; -2.1901693E-02;  0.0000000E+00; -6.5365824E-04;  1.0024085E+03;  1.0000000E-01;  1.9954001E+03;3; -5.0317230E+00;  0.0000000E+00; -6.5022626E+00;0;  8.0785677E-03;  4.0209324E+04;  0.0000000E+00; -9.2430365E-01;  4.0000000E+04;  0.0000000E+00;  3.9988672E+04;  7.8915060E-03;  0.0000000E+00;  1.8706179E-04;  1.9384263E+03;
  2.5072262E-01;  9.9999998E-03; -2.1998562E-01;3979; -2.1758717E-02;  0.0000000E+00; -5.5896130E-04;  1.0020676E+03;  1.0000000E-01;  1.7129391E+03;3; -2.5763273E+00;  0.0000000E+00; -3.8942566E+00;0;  8.2270047E-03;  4.0185312E+04;  0.0000000E+00; -5.0339454E-01;  4.0000000E+04;  0.0000000E+00;  3.9983062E+04;  8.2589304E-03;  0.0000000E+00; -3.1925862E-05;  2.3635972E+03;
  2.5071687E-01;  9.9999998E-03; -2.0998622E-01;3980; -2.1583738E-02;  0.0000000E+00; -5.9260993E-04;  1.0016938E+03;  1.0000000E-01;  1.4033182E+03;3; -9.9937952E-01;  0.0000000E+00; -2.1007476E+00;0;  7.4947341E-03;  4.0158070E+04;  0.0000000E+00; -2.4726629E-01;  4.0000000E+04;  0.0000000E+00;  3.9978629E+04;  7.5333524E-03;  0.0000000E+00; -3.8618298E-05;  2.8200591E+03;
  2.5077391E-01;  9.9999998E-03; -1.9999088E-01;3981; -2.1430988E-02;  0.0000000E+00; -6.7984150E-04;  1.0013478E+03;  1.0000000E-01;  1.1166104E+03;3; -6.8844490E-02;  0.0000000E+00; -9.7809315E-01;0;  6.0477802E-03;  4.0130965E+04;  0.0000000E+00; -5.8201417E-02;  4.0000000E+04;  0.0000000E+00;  3.9976660E+04;  6.0387440E-03;  0.0000000E+00;  9.0363210E-06;  3.0432517E+03;
  2.5087655E-01;  9.9999998E-03; -1.8999781E-01;3982; -2.1332780E-02;  0.0000000E+00; -7.7821728E-04;  1.0010585E+03;  1.0000000E-01;  8.7691339E+02;3;  4.1741413E-01;  0.0000000E+00; -3.3747935E-01;0;  4.2115585E-03;  4.0106684E+04;  0.0000000E+00;  1.0529903E-01;  4.0000000E+04;  0.0000000E+00;  3.9976574E+04;  4.0657539E-03;  0.0000000E+00;  1.4580472E-04;  3.0268230E+03;
  2.5102028E-01;  9.9999998E-03; -1.7999981E-01;3983; -2.1309281E-02;  0.0000000E+00; -8.7887381E-04;  1.0008474E+03;  1.0000000E-01;  7.0200476E+02;3;  6.3097477E-01;  0.0000000E+00; -1.9037694E-02;0;  2.3330920E-03;  4.0087418E+04;  0.0000000E+00;  2.5464556E-01;  4.0000000E+04;  0.0000000E+00;  3.9978234E+04;  1.9047727E-03;  0.0000000E+00;  4.2831930E-04;  2.8229111E+03;
  2.5119582E-01;  9.9999998E-03; -1.6999140E-01;3984; -2.1377074E-02;  0.0000000E+00; -9.7168650E-04;  1.0007271E+03;  1.0000000E-01;  6.0235327E+02;3;  7.0629162E-01;  0.0000000E+00;  1.0737531E-01;0;  6.8001368E-04;  4.0074719E+04;  0.0000000E+00;  3.7835002E-01;  4.0000000E+04;  0.0000000E+00;  3.9980863E+04; -1.9538260E-04;  0.0000000E+00;  8.7539630E-04;  2.5123601E+03;
  2.5138220E-01;  9.9999998E-03; -1.5997373E-01;3985; -2.1556856E-02;  0.0000000E+00; -1.0280289E-03;  1.0007004E+03;  1.0000000E-01;  5.8023047E+02;3;  7.3489499E-01;  0.0000000E+00;  1.2706855E-01;0; -5.8281340E-04;  4.0069266E+04;  0.0000000E+00;  4.5236111E-01;  4.0000000E+04;  0.0000000E+00;  3.9984105E+04; -2.0465774E-03;  0.0000000E+00;  1.4637640E-03;  2.1544419E+03;
  2.5154245E-01;  9.9999998E-03; -1.4995800E-01;3986; -2.1839529E-02;  0.0000000E+00; -1.0333366E-03;  1.0007680E+03;  1.0000000E-01;  6.3622888E+02;3;  7.4779719E-01;  0.0000000E+00;  1.1519209E-01;0; -1.4072328E-03;  4.0071461E+04;  0.0000000E+00;  4.6320215E-01;  4.0000000E+04;  0.0000000E+00;  3.9987195E+04; -3.5394516E-03;  0.0000000E+00;  2.1322188E-03;  1.7883403E+03;
  2.5164929E-01;  9.9999998E-03; -1.3995424E-01;3987; -2.2199892E-02;  0.0000000E+00; -9.8192366E-04;  1.0009091E+03;  1.0000000E-01;  7.5316382E+02;3;  7.5868225E-01;  0.0000000E+00;  9.6457317E-02;0; -1.8160695E-03;  4.0080289E+04;  0.0000000E+00;  4.2206177E-01;  4.0000000E+04;  0.0000000E+00;  3.9990062E+04; -4.6165981E-03;  0.0000000E+00;  2.8005287E-03;  1.4596642E+03;
  2.5170043E-01;  9.9999998E-03; -1.2996148E-01;3988; -2.2597730E-02;  0.0000000E+00; -8.8210538E-04;  1.0011030E+03;  1.0000000E-01;  9.1385065E+02;3;  7.7064443E-01;  0.0000000E+00;  8.0807798E-02;0; -1.8436958E-03;  4.0094273E+04;  0.0000000E+00;  3.5357213E-01;  4.0000000E+04;  0.0000000E+00;  3.9991926E+04; -5.2425331E-03;  0.0000000E+00;  3.3988373E-03;  1.2215901E+03;
  2.5170574E-01;  9.9999998E-03; -1.1997507E-01;3989; -2.2985738E-02;  0.0000000E+00; -7.5691030E-04;  1.0013246E+03;  1.0000000E-01;  1.0974503E+03;3;  7.8243780E-01;  0.0000000E+00;  6.6237889E-02;0; -1.5224814E-03;  4.0111719E+04;  0.0000000E+00;  2.8062117E-01;  4.0000000E+04;  0.0000000E+00;  3.9992512E+04; -5.4021594E-03;  0.0000000E+00;  3.8796780E-03;  1.1155195E+03;
  2.5167993E-01;  9.9999998E-03; -1.0998878E-01;3990; -2.3322193E-02;  0.0000000E+00; -6.3717185E-04;  1.0015563E+03;  1.0000000E-01;  1.2893462E+03;3;  7.9440957E-01;  0.0000000E+00;  5.3689018E-02;0; -8.8167610E-04;  4.0130883E+04;  0.0000000E+00;  2.1837479E-01;  4.0000000E+04;  0.0000000E+00;  3.9992125E+04; -5.1022181E-03;  0.0000000E+00;  4.2205420E-03;  1.1569202E+03;
  2.6115730E-01;  9.9999998E-03; -2.7007464E-01;4035; -2.1541491E-02;  0.0000000E+00; -9.8246604E-04;  1.0023054E+03;  1.0000000E-01;  1.9099706E+03;3; -2.6457884E+01;  0.0000000E+00; -1.0577215E+01;0;  1.4439105E-02;  4.0226918E+04;  0.0000000E+00; -7.0567083E+00;  4.0000000E+04;  0.0000000E+00;  3.9970922E+04;  1.3423702E-02;  0.0000000E+00;  1.0154037E-03;  9.7513604E+03;
  2.6108989E-01;  9.9999998E-03; -2.6005846E-01;4036; -2.1820983E-02;  0.0000000E+00; -1.4590544E-03;  1.0025255E+03;  1.0000000E-01;  2.0923850E+03;3; -1.7949327E+01;  0.0000000E+00; -1.0873148E+01;0;  2.3679875E-02;  4.0233832E+04;  0.0000000E+00; -5.1202140E+00;  4.0000000E+04;  0.0000000E+00;  3.9980824E+04;  1.9608837E-02;  0.0000000E+00;  4.0710382E-03;  7.0005024E+03;
  2.6097712E-01;  9.9999998E-03; -2.5002521E-01;4037; -2.2028629E-02;  0.0000000E+00; -1.6436140E-03;  1.0026249E+03;  1.0000000E-01;  2.1747532E+03;3; -1.1510302E+01;  0.0000000E+00; -9.6358881E+00;0;  2.7374247E-02;  4.0228109E+04;  0.0000000E+00; -2.8562677E+00;  4.0000000E+04;  0.0000000E+00;  3.9992180E+04;  2.3613345E-02;  0.0000000E+00;  3.7609015E-03;  3.7313748E+03;
  2.6084837E-01;  9.9999998E-03; -2.3999609E-01;4038; -2.2095628E-02;  0.0000000E+00; -1.2078104E-03;  1.0024708E+03;  1.0000000E-01;  2.0469543E+03;3; -6.9408431E+00;  0.0000000E+00; -7.0642219E+00;0;  2.6474252E-02;  4.0211695E+04;  0.0000000E+00; -1.3906654E+00;  4.0000000E+04;  0.0000000E+00;  3.9993875E+04;  2.5776664E-02;  0.0000000E+00;  6.9758872E-04;  1.9032197E+03;
  2.6075250E-01;  9.9999998E-03; -2.2997995E-01;4039; -2.2029262E-02;  0.0000000E+00; -8.8823115E-04;  1.0021389E+03;  1.0000000E-01;  1.7719991E+03;3; -3.8358560E+00;  0.0000000E+00; -4.5639324E+00;0;  2.5780316E-02;  4.0187027E+04;  0.0000000E+00; -6.6850597E-01;  4.0000000E+04;  0.0000000E+00;  3.9989285E+04;  2.6432285E-02;  0.0000000E+00; -6.5196946E-04;  1.6887051E+03;
  2.6071331E-01;  9.9999998E-03; -2.1997532E-01;4040; -2.1874815E-02;  0.0000000E+00; -7.9928205E-04;  1.0017450E+03;  1.0000000E-01;  1.4456874E+03;3; -1.8000109E+00;  0.0000000E+00; -2.6371856E+00;0;  2.5012065E-02;  4.0159074E+04;  0.0000000E+00; -2.7093410E-01;  4.0000000E+04;  0.0000000E+00;  3.9983984E+04;  2.5885226E-02;  0.0000000E+00; -8.7316136E-04;  2.1966182E+03;
  2.6074553E-01;  9.9999998E-03; -2.0997831E-01;4041; -2.1709913E-02;  0.0000000E+00; -8.3386723E-04;  1.0013776E+03;  1.0000000E-01;  1.1413010E+03;3; -5.3317231E-01;  0.0000000E+00; -1.3344464E+00;0;  2.3697419E-02;  4.0131586E+04;  0.0000000E+00;  4.6430212E-03;  4.0000000E+04;  0.0000000E+00;  3.9979844E+04;  2.4457172E-02;  0.0000000E+00; -7.5975212E-04;  2.6381685E+03;
  2.6083714E-01;  9.9999998E-03; -1.9998454E-01;4042; -2.1575371E-02;  0.0000000E+00; -9.1544777E-04;  1.0010807E+03;  1.0000000E-01;  8.9528326E+02;3;  1.8581216E-01;  0.0000000E+00; -5.3911936E-01;0;  2.1931756E-02;  4.0108008E+04;  0.0000000E+00;  2.2247592E-01;  4.0000000E+04;  0.0000000E+00;  3.9978254E+04;  2.2450650E-02;  0.0000000E+00; -5.1889307E-04;  2.8324502E+03;
  2.6097488E-01;  9.9999998E-03; -1.8998787E-01;4043; -2.1499956E-02;  0.0000000E+00; -1.0122015E-03;  1.0008790E+03;  1.0000000E-01;  7.2827563E+02;3;  5.4257637E-01;  0.0000000E+00; -1.0400444E-01;0;  2.0021232E-02;  4.0090492E+04;  0.0000000E+00;  3.9443690E-01;  4.0000000E+04;  0.0000000E+00;  3.9978641E+04;  2.0165958E-02;  0.0000000E+00; -1.4472603E-04;  2.8019668E+03;
  2.6114348E-01;  9.9999998E-03; -1.7998531E-01;4044; -2.1506740E-02;  0.0000000E+00; -1.1071141E-03;  1.0007839E+03;  1.0000000E-01;  6.4946307E+02;3;  6.8817639E-01;  0.0000000E+00;  9.8393321E-02;0;  1.8265851E-02;  4.0080691E+04;  0.0000000E+00;  5.1924312E-01;  4.0000000E+04;  0.0000000E+00;  3.9980344E+04;  1.7879827E-02;  0.0000000E+00;  3.8602331E-04;  2.6301987E+03;
  2.6132002E-01;  9.9999998E-03; -1.6997664E-01;4045; -2.1619469E-02;  0.0000000E+00; -1.1738737E-03;  1.0007972E+03;  1.0000000E-01;  6.6052448E+02;3;  7.3846871E-01;  0.0000000E+00;  1.6112903E-01;0;  1.6881578E-02;  4.0079070E+04;  0.0000000E+00;  5.8652341E-01;  4.0000000E+04;  0.0000000E+00;  3.9982648E+04;  1.5817232E-02;  0.0000000E+00;  1.0643462E-03;  2.3779500E+03;
  2.6147583E-01;  9.9999998E-03; -1.5996696E-01;4046; -2.1845004E-02;  0.0000000E+00; -1.1959550E-03;  1.0009147E+03;  1.0000000E-01;  7.5780566E+02;3;  7.5632292E-01;  0.0000000E+00;  1.5588421E-01;0;  1.5978632E-02;  4.0085742E+04;  0.0000000E+00;  5.8737427E-01;  4.0000000E+04;  0.0000000E+00;  3.9985324E+04;  1.4137147E-02;  0.0000000E+00;  1.8414863E-03;  2.0814963E+03;
  2.6158610E-01;  9.9999998E-03; -1.4996366E-01;4047; -2.2175578E-02;  0.0000000E+00; -1.1580334E-03;  1.0011152E+03;  1.0000000E-01;  9.2392444E+02;3;  7.6689649E-01;  0.0000000E+00;  1.3149498E-01;0;  1.5569282E-02;  4.0099383E+04;  0.0000000E+00;  5.2997440E-01;  4.0000000E+04;  0.0000000E+00;  3.9987684E+04;  1.2933673E-02;  0.0000000E+00;  2.6356084E-03;  1.7783929E+03;
  2.6164323E-01;  9.9999998E-03; -1.3996993E-01;4048; -2.2580869E-02;  0.0000000E+00; -1.0611846E-03;  1.0013706E+03;  1.0000000E-01;  1.1354740E+03;3;  7.7991086E-01;  0.0000000E+00;  1.0593658E-01;0;  1.5615746E-02;  4.0118508E+04;  0.0000000E+00;  4.3982780E-01;  4.0000000E+04;  0.0000000E+00;  3.9989656E+04;  1.2255756E-02;  0.0000000E+00;  3.3599904E-03;  1.5238324E+03;
  2.6165470E-01;  9.9999998E-03; -1.2998284E-01;4049; -2.3010932E-02;  0.0000000E+00; -9.2271355E-04;  1.0016582E+03;  1.0000000E-01;  1.3737882E+03;3;  7.9276091E-01;  0.0000000E+00;  8.6619653E-02;0;  1.6071418E-02;  4.0140863E+04;  0.0000000E+00;  3.4340432E-01;  4.0000000E+04;  0.0000000E+00;  3.9990836E+04;  1.2120992E-02;  0.0000000E+00;  3.9504259E-03;  1.3739299E+03;
  2.6163262E-01;  9.9999998E-03; -1.1999729E-01;4050; -2.3412690E-02;  0.0000000E+00; -7.8289484E-04;  1.0019489E+03;  1.0000000E-01;  1.6146703E+03;3;  8.0490959E-01;  0.0000000E+00;  6.8918325E-02;0;  1.6894715E-02;  4.0164621E+04;  0.0000000E+00;  2.5998747E-01;  4.0000000E+04;  0.0000000E+00;  3.9990891E+04;  1.2520317E-02;  0.0000000E+00;  4.3743975E-03;  1.3622588E+03;
  2.6158908E-01;  9.9999998E-03; -1.1000925E-01;4051; -2.3747716E-02;  0.0000000E+00; -6.6980178E-04;  1.0022257E+03;  1.0000000E-01;  1.8439971E+03;3;  8.1468397E-01;  0.0000000E+00;  5.6104138E-02;0;  1.8046800E-02;  4.0188121E+04;  0.0000000E+00;  1.9901900E-01;  4.0000000E+04;  0.0000000E+00;  3.9990051E+04;  1.3417654E-02;  0.0000000E+00;  4.6291468E-03;  1.4840710E+03;
  2.7106661E-01;  9.9999998E-03; -2.7007017E-01;4096; -2.1714028E-02;  0.0000000E+00; -7.7611679E-04;  1.0024964E+03;  1.0000000E-01;  2.0681882E+03;3; -2.0511532E+01;  0.0000000E+00; -7.4097362E+00;0;  3.6185246E-02;  4.0245777E+04;  0.0000000E+00; -5.4440069E+00;  4.0000000E+04;  0.0000000E+00;  3.9968699E+04;  3.7764661E-02;  0.0000000E+00; -1.5794155E-03;  8.0750806E+03;
  2.7099526E-01;  9.9999998E-03; -2.6005712E-01;4097; -2.1961913E-02;  0.0000000E+00; -1.1463625E-03;  1.0024940E+03;  1.0000000E-01;  2.0662129E+03;3; -1.3752081E+01;  0.0000000E+00; -7.2818451E+00;0;  4.3196812E-02;  4.0235859E+04;  0.0000000E+00; -3.6901085E+00;  4.0000000E+04;  0.0000000E+00;  3.9976801E+04;  4.2365257E-02;  0.0000000E+00;  8.3155511E-04;  5.6078413E+03;
  2.7089942E-01;  9.9999998E-03; -2.5002569E-01;4098; -2.2128165E-02;  0.0000000E+00; -1.5135063E-03;  1.0024376E+03;  1.0000000E-01;  2.0194983E+03;3; -8.6326628E+00;  0.0000000E+00; -6.3575411E+00;0;  4.6972822E-02;  4.0216289E+04;  0.0000000E+00; -2.0542486E+00;  4.0000000E+04;  0.0000000E+00;  3.9989020E+04;  4.5031704E-02;  0.0000000E+00;  1.9411194E-03;  2.9781729E+03;
  2.7080533E-01;  9.9999998E-03; -2.3999387E-01;4099; -2.2188297E-02;  0.0000000E+00; -1.2870483E-03;  1.0021997E+03;  1.0000000E-01;  1.8223680E+03;3; -5.0093699E+00;  0.0000000E+00; -4.6364846E+00;0;  4.5752190E-02;  4.0190363E+04;  0.0000000E+00; -1.0294735E+00;  4.0000000E+04;  0.0000000E+00;  3.9993375E+04;  4.6076041E-02;  0.0000000E+00; -3.2385188E-04;  1.5780778E+03;
  2.7074653E-01;  9.9999998E-03; -2.2997877E-01;4100; -2.2102969E-02;  0.0000000E+00; -1.0438983E-03;  1.0018192E+03;  1.0000000E-01;  1.5071178E+03;3; -2.5803611E+00;  0.0000000E+00; -2.9009514E+00;0;  4.4241536E-02;  4.0161207E+04;  0.0000000E+00; -4.4862193E-01;  4.0000000E+04;  0.0000000E+00;  3.9989629E+04;  4.5822710E-02;  0.0000000E+00; -1.5811719E-03;  1.5449818E+03;
  2.7074721E-01;  9.9999998E-03; -2.1997681E-01;4101; -2.1952799E-02;  0.0000000E+00; -9.8721299E-04;  1.0014266E+03;  1.0000000E-01;  1.1818925E+03;3; -1.0247308E+00;  0.0000000E+00; -1.5717289E+00;0;  4.2836249E-02;  4.0132723E+04;  0.0000000E+00; -6.0796425E-02;  4.0000000E+04;  0.0000000E+00;  3.9984293E+04;  4.4573754E-02;  0.0000000E+00; -1.7375066E-03;  2.0717471E+03;
  2.7081519E-01;  9.9999998E-03; -2.0998104E-01;4102; -2.1796972E-02;  0.0000000E+00; -1.0342111E-03;  1.0011043E+03;  1.0000000E-01;  9.1493701E+02;3; -8.6781345E-02;  0.0000000E+00; -6.9943351E-01;0;  4.1143145E-02;  4.0108625E+04;  0.0000000E+00;  2.3699754E-01;  4.0000000E+04;  0.0000000E+00;  3.9981379E+04;  4.2644482E-02;  0.0000000E+00; -1.5013361E-03;  2.4732925E+03;
  2.7093583E-01;  9.9999998E-03; -1.9998519E-01;4103; -2.1679474E-02;  0.0000000E+00; -1.1266826E-03;  1.0008919E+03;  1.0000000E-01;  7.3894202E+02;3;  4.1755202E-01;  0.0000000E+00; -1.8267970E-01;0;  3.9254107E-02;  4.0091207E+04;  0.0000000E+00;  4.6504807E-01;  4.0000000E+04;  0.0000000E+00;  3.9980328E+04;  4.0330127E-02;  0.0000000E+00; -1.0760197E-03;  2.6315027E+03;
  2.7108923E-01;  9.9999998E-03; -1.8998601E-01;4104; -2.1628087E-02;  0.0000000E+00; -1.2258663E-03;  1.0008002E+03;  1.0000000E-01;  6.6289478E+02;3;  6.4796263E-01;  0.0000000E+00;  8.9773051E-02;0;  3.7429295E-02;  4.0082188E+04;  0.0000000E+00;  6.1899030E-01;  4.0000000E+04;  0.0000000E+00;  3.9980969E+04;  3.7916206E-02;  0.0000000E+00; -4.8691017E-04;  2.6076743E+03;
  2.7125192E-01;  9.9999998E-03; -1.7998347E-01;4105; -2.1668104E-02;  0.0000000E+00; -1.3061294E-03;  1.0008297E+03;  1.0000000E-01;  6.8738794E+02;3;  7.3496294E-01;  0.0000000E+00;  2.0152317E-01;0;  3.5923239E-02;  4.0082625E+04;  0.0000000E+00;  6.9551408E-01;  4.0000000E+04;  0.0000000E+00;  3.9982395E+04;  3.5656992E-02;  0.0000000E+00;  2.6624530E-04;  2.4690928E+03;
  2.7140081E-01;  9.9999998E-03; -1.6997944E-01;4106; -2.1821244E-02;  0.0000000E+00; -1.3444774E-03;  1.0009705E+03;  1.0000000E-01;  8.0402661E+02;3;  7.6420331E-01;  0.0000000E+00;  2.1545021E-01;0;  3.4910478E-02;  4.0091902E+04;  0.0000000E+00;  6.9458961E-01;  4.0000000E+04;  0.0000000E+00;  3.9984402E+04;  3.3758737E-02;  0.0000000E+00;  1.1517401E-03;  2.2558413E+03;
  2.7151266E-01;  9.9999998E-03; -1.5997830E-01;4107; -2.2090573E-02;  0.0000000E+00; -1.3274914E-03;  1.0012096E+03;  1.0000000E-01;  1.0021444E+03;3;  7.7521950E-01;  0.0000000E+00;  1.8942803E-01;0;  3.4455739E-02;  4.0109156E+04;  0.0000000E+00;  6.2674963E-01;  4.0000000E+04;  0.0000000E+00;  3.9986418E+04;  3.2359194E-02;  0.0000000E+00;  2.0965450E-03;  2.0043484E+03;
  2.7157748E-01;  9.9999998E-03; -1.4998354E-01;4108; -2.2463627E-02;  0.0000000E+00; -1.2433586E-03;  1.0015148E+03;  1.0000000E-01;  1.2549768E+03;3;  7.8699082E-01;  0.0000000E+00;  1.5228762E-01;0;  3.4542486E-02;  4.0132195E+04;  0.0000000E+00;  5.1766551E-01;  4.0000000E+04;  0.0000000E+00;  3.9988141E+04;  3.1541150E-02;  0.0000000E+00;  3.0013372E-03;  1.7663906E+03;
  2.7159831E-01;  9.9999998E-03; -1.3999490E-01;4109; -2.2900093E-02;  0.0000000E+00; -1.1009226E-03;  1.0018544E+03;  1.0000000E-01;  1.5363514E+03;3;  8.0085236E-01;  0.0000000E+00;  1.1925796E-01;0;  3.5110161E-02;  4.0158977E+04;  0.0000000E+00;  3.9790246E-01;  4.0000000E+04;  0.0000000E+00;  3.9989191E+04;  3.1337183E-02;  0.0000000E+00;  3.7729791E-03;  1.6037661E+03;
  2.7158454E-01;  9.9999998E-03; -1.3000852E-01;4110; -2.3346277E-02;  0.0000000E+00; -9.3455164E-04;  1.0021984E+03;  1.0000000E-01;  1.8213805E+03;3;  8.1358463E-01;  0.0000000E+00;  9.4821818E-02;0;  3.6090314E-02;  4.0186898E+04;  0.0000000E+00;  2.9049152E-01;  4.0000000E+04;  0.0000000E+00;  3.9989473E+04;  3.1739321E-02;  0.0000000E+00;  4.3509933E-03;  1.5626902E+03;
  2.7154621E-01;  9.9999998E-03; -1.2002058E-01;4111; -2.3752835E-02;  0.0000000E+00; -7.8876183E-04;  1.0025250E+03;  1.0000000E-01;  2.0918914E+03;3;  8.2210124E-01;  0.0000000E+00;  7.7142872E-02;0;  3.7424233E-02;  4.0214078E+04;  0.0000000E+00;  2.0901980E-01;  4.0000000E+04;  0.0000000E+00;  3.9988816E+04;  3.2708693E-02;  0.0000000E+00;  4.7155409E-03;  1.6534193E+03;
  2.7149317E-01;  9.9999998E-03; -1.1002857E-01;4112; -2.4086110E-02;  0.0000000E+00; -6.7692634E-04;  1.0028127E+03;  1.0000000E-01;  2.3302056E+03;3;  8.3532888E-01;  0.0000000E+00;  5.4517809E-02;0;  3.9062776E-02;  4.0238859E+04;  0.0000000E+00;  1.5688129E-01;  4.0000000E+04;  0.0000000E+00;  3.9987316E+04;  3.4181207E-02;  0.0000000E+00;  4.8815673E-03;  1.8483580E+03;
  2.8096119E-01;  9.9999998E-03; -2.7006766E-01;4157; -2.1735750E-02;  0.0000000E+00; -6.3229509E-04;  1.0024888E+03;  1.0000000E-01;  2.0619663E+03;3; -1.4563439E+01;  0.0000000E+00; -4.9193697E+00;0;  5.7912793E-02;  4.0245809E+04;  0.0000000E+00; -3.5787587E+00;  4.0000000E+04;  0.0000000E+00;  3.9968398E+04;  6.1167400E-02;  0.0000000E+00; -3.2546073E-03;  6.1607124E+03;
  2.8089550E-01;  9.9999998E-03; -2.6005718E-01;4158; -2.1973167E-02;  0.0000000E+00; -9.5144124E-04;  1.0023210E+03;  1.0000000E-01;  1.9229084E+03;3; -9.5763559E+00;  0.0000000E+00; -4.6221962E+00;0;  6.2959969E-02;  4.0223777E+04;  0.0000000E+00; -2.3566720E+00;  4.0000000E+04;  0.0000000E+00;  3.9975027E+04;  6.4297408E-02;  0.0000000E+00; -1.3374407E-03;  4.4490923E+03;
  2.8083315E-01;  9.9999998E-03; -2.5002980E-01;4159; -2.2111695E-02;  0.0000000E+00; -1.3300234E-03;  1.0021455E+03;  1.0000000E-01;  1.7775298E+03;3; -5.8187428E+00;  0.0000000E+00; -3.8346958E+00;0;  6.5792240E-02;  4.0195457E+04;  0.0000000E+00; -1.3969202E+00;  4.0000000E+04;  0.0000000E+00;  3.9986695E+04;  6.5815590E-02;  0.0000000E+00; -2.3349363E-05;  2.5210430E+03;
  2.8078553E-01;  9.9999998E-03; -2.3999824E-01;4160; -2.2160597E-02;  0.0000000E+00; -1.3111619E-03;  1.0018746E+03;  1.0000000E-01;  1.5531411E+03;3; -3.1647706E+00;  0.0000000E+00; -2.7267323E+00;0;  6.4635724E-02;  4.0164957E+04;  0.0000000E+00; -7.2538781E-01;  4.0000000E+04;  0.0000000E+00;  3.9992918E+04;  6.5974034E-02;  0.0000000E+00; -1.3383122E-03;  1.3677186E+03;
  2.8077117E-01;  9.9999998E-03; -2.2998495E-01;4161; -2.2090107E-02;  0.0000000E+00; -1.1587623E-03;  1.0014968E+03;  1.0000000E-01;  1.2400636E+03;3; -1.4160467E+00;  0.0000000E+00; -1.6026162E+00;0;  6.2626690E-02;  4.0135375E+04;  0.0000000E+00; -2.3848040E-01;  4.0000000E+04;  0.0000000E+00;  3.9989691E+04;  6.5056451E-02;  0.0000000E+00; -2.4297638E-03;  1.4377234E+03;
  2.8081143E-01;  9.9999998E-03; -2.1998586E-01;4162; -2.1960344E-02;  0.0000000E+00; -1.1387848E-03;  1.0011487E+03;  1.0000000E-01;  9.5167670E+02;3; -3.3718884E-01;  0.0000000E+00; -7.5494283E-01;0;  6.0822826E-02;  4.0109957E+04;  0.0000000E+00;  1.3978036E-01;  4.0000000E+04;  0.0000000E+00;  3.9985223E+04;  6.3359939E-02;  0.0000000E+00; -2.5371131E-03;  1.9714520E+03;
  2.8090936E-01;  9.9999998E-03; -2.0999025E-01;4163; -2.1833109E-02;  0.0000000E+00; -1.2171303E-03;  1.0009079E+03;  1.0000000E-01;  7.5217621E+02;3;  2.8423768E-01;  0.0000000E+00; -2.1136507E-01;0;  5.8986604E-02;  4.0091555E+04;  0.0000000E+00;  4.3500721E-01;  4.0000000E+04;  0.0000000E+00;  3.9982629E+04;  6.1180532E-02;  0.0000000E+00; -2.1939296E-03;  2.3267703E+03;
  2.8104037E-01;  9.9999998E-03; -1.9999394E-01;4164; -2.1740308E-02;  0.0000000E+00; -1.3238224E-03;  1.0007981E+03;  1.0000000E-01;  6.6121582E+02;3;  5.9488785E-01;  0.0000000E+00;  1.0480358E-01;0;  5.7156339E-02;  4.0082133E+04;  0.0000000E+00;  6.4025974E-01;  4.0000000E+04;  0.0000000E+00;  3.9982289E+04;  5.8784820E-02;  0.0000000E+00; -1.6284796E-03;  2.4660144E+03;
  2.8118446E-01;  9.9999998E-03; -1.8999529E-01;4165; -2.1714061E-02;  0.0000000E+00; -1.4228740E-03;  1.0008212E+03;  1.0000000E-01;  6.8037579E+02;3;  7.2401214E-01;  0.0000000E+00;  2.5152069E-01;0;  5.5571474E-02;  4.0082582E+04;  0.0000000E+00;  7.4737126E-01;  4.0000000E+04;  0.0000000E+00;  3.9982953E+04;  5.6442607E-02;  0.0000000E+00; -8.7113422E-04;  2.4471001E+03;
  2.8132254E-01;  9.9999998E-03; -1.7999490E-01;4166; -2.1788890E-02;  0.0000000E+00; -1.4841406E-03;  1.0009662E+03;  1.0000000E-01;  8.0047113E+02;3;  7.6234466E-01;  0.0000000E+00;  2.9925710E-01;0;  5.4453839E-02;  4.0092688E+04;  0.0000000E+00;  7.6048267E-01;  4.0000000E+04;  0.0000000E+00;  3.9984293E+04;  5.4393310E-02;  0.0000000E+00;  6.0526701E-05;  2.3232888E+03;
  2.8143129E-01;  9.9999998E-03; -1.6999607E-01;4167; -2.1976551E-02;  0.0000000E+00; -1.4966233E-03;  1.0012186E+03;  1.0000000E-01;  1.0095516E+03;3;  7.7418292E-01;  0.0000000E+00;  2.8549227E-01;0;  5.3926907E-02;  4.0111594E+04;  0.0000000E+00;  6.9453847E-01;  4.0000000E+04;  0.0000000E+00;  3.9985703E+04;  5.2812003E-02;  0.0000000E+00;  1.1149031E-03;  2.1380852E+03;
  2.8150141E-01;  9.9999998E-03; -1.6000102E-01;4168; -2.2283338E-02;  0.0000000E+00; -1.4424110E-03;  1.0015496E+03;  1.0000000E-01;  1.2838154E+03;3;  7.8316069E-01;  0.0000000E+00;  2.4735825E-01;0;  5.4021083E-02;  4.0137059E+04;  0.0000000E+00;  5.7640475E-01;  4.0000000E+04;  0.0000000E+00;  3.9986973E+04;  5.1824525E-02;  0.0000000E+00;  2.1965588E-03;  1.9409915E+03;
  2.8153250E-01;  9.9999998E-03; -1.5001056E-01;4169; -2.2690870E-02;  0.0000000E+00; -1.3081841E-03;  1.0019266E+03;  1.0000000E-01;  1.5961029E+03;3;  8.0249912E-01;  0.0000000E+00;  1.8656984E-01;0;  5.4684993E-02;  4.0166895E+04;  0.0000000E+00;  4.3954703E-01;  4.0000000E+04;  0.0000000E+00;  3.9987773E+04;  5.1494036E-02;  0.0000000E+00;  3.1909565E-03;  1.7935414E+03;
  2.8152981E-01;  9.9999998E-03; -1.4002235E-01;4170; -2.3154007E-02;  0.0000000E+00; -1.1131011E-03;  1.0023176E+03;  1.0000000E-01;  1.9200443E+03;3;  8.1746936E-01;  0.0000000E+00;  1.4419138E-01;0;  5.5823252E-02;  4.0198359E+04;  0.0000000E+00;  3.1096858E-01;  4.0000000E+04;  0.0000000E+00;  3.9988082E+04;  5.1825710E-02;  0.0000000E+00;  3.9975434E-03;  1.7476392E+03;
  2.8150144E-01;  9.9999998E-03; -1.3003355E-01;4171; -2.3610406E-02;  0.0000000E+00; -9.2037872E-04;  1.0026850E+03;  1.0000000E-01;  2.2244307E+03;3;  8.2935017E-01;  0.0000000E+00;  1.1161004E-01;0;  5.7339542E-02;  4.0228770E+04;  0.0000000E+00;  2.0792583E-01;  4.0000000E+04;  0.0000000E+00;  3.9987434E+04;  5.2782107E-02;  0.0000000E+00;  4.5574345E-03;  1.8240117E+03;
  2.8145543E-01;  9.9999998E-03; -1.2004126E-01;4172; -2.4014311E-02;  0.0000000E+00; -7.5838598E-04;  1.0030101E+03;  1.0000000E-01;  2.4937563E+03;3;  8.4305137E-01;  0.0000000E+00;  7.5141594E-02;0;  5.9156444E-02;  4.0256695E+04;  0.0000000E+00;  1.3778296E-01;  4.0000000E+04;  0.0000000E+00;  3.9986148E+04;  5.4295991E-02;  0.0000000E+00;  4.8604547E-03;  2.0064197E+03;
  2.8139958E-01;  9.9999998E-03; -1.1004461E-01;4173; -2.4326833E-02;  0.0000000E+00; -6.5680855E-04;  1.0032805E+03;  1.0000000E-01;  2.7178489E+03;3;  8.5213709E-01;  0.0000000E+00;  5.4871719E-02;0;  6.1214693E-02;  4.0280371E+04;  0.0000000E+00;  9.8830961E-02;  4.0000000E+04;  0.0000000E+00;  3.9984145E+04;  5.6276895E-02;  0.0000000E+00;  4.9377969E-03;  2.2545940E+03;
  2.9084751E-01;  9.9999998E-03; -2.7006716E-01;4218; -2.1581158E-02;  0.0000000E+00; -4.7506060E-04;  1.0023128E+03;  1.0000000E-01;  1.9160939E+03;3; -9.3140841E+00;  0.0000000E+00; -2.9482596E+00;0;  7.7424265E-02;  4.0230363E+04;  0.0000000E+00; -2.0249112E+00;  4.0000000E+04;  0.0000000E+00;  3.9969555E+04;  8.2006142E-02;  0.0000000E+00; -4.5818742E-03;  4.7476055E+03;
  2.9080591E-01;  9.9999998E-03; -2.6005927E-01;4219; -2.1811709E-02;  0.0000000E+00; -7.8116189E-04;  1.0020375E+03;  1.0000000E-01;  1.6880509E+03;3; -5.9257703E+00;  0.0000000E+00; -2.6017067E+00;0;  8.1016213E-02;  4.0201078E+04;  0.0000000E+00; -1.4075745E+00;  4.0000000E+04;  0.0000000E+00;  3.9974578E+04;  8.3905220E-02;  0.0000000E+00; -2.8890050E-03;  3.7857397E+03;
  2.9079843E-01;  9.9999998E-03; -2.5003710E-01;4220; -2.1924911E-02;  0.0000000E+00; -1.1950637E-03;  1.0017986E+03;  1.0000000E-01;  1.4901306E+03;3; -3.3925462E+00;  0.0000000E+00; -2.0250716E+00;0;  8.3205976E-02;  4.0169352E+04;  0.0000000E+00; -9.4333428E-01;  4.0000000E+04;  0.0000000E+00;  3.9984824E+04;  8.4558584E-02;  0.0000000E+00; -1.3526095E-03;  2.3532175E+03;
  2.9080108E-01;  9.9999998E-03; -2.4000916E-01;4221; -2.1963675E-02;  0.0000000E+00; -1.3196456E-03;  1.0015347E+03;  1.0000000E-01;  1.2714701E+03;3; -1.6357523E+00;  0.0000000E+00; -1.3071301E+00;0;  8.2054898E-02;  4.0138910E+04;  0.0000000E+00; -4.5697483E-01;  4.0000000E+04;  0.0000000E+00;  3.9991566E+04;  8.4124543E-02;  0.0000000E+00; -2.0696430E-03;  1.3073416E+03;
  2.9082680E-01;  9.9999998E-03; -2.2999850E-01;4222; -2.1948699E-02;  0.0000000E+00; -1.2455193E-03;  1.0012083E+03;  1.0000000E-01;  1.0010580E+03;3; -4.6983895E-01;  0.0000000E+00; -6.5040368E-01;0;  7.9776220E-02;  4.0112688E+04;  0.0000000E+00; -2.5468873E-02;  4.0000000E+04;  0.0000000E+00;  3.9989410E+04;  8.2848422E-02;  0.0000000E+00; -3.0721994E-03;  1.4305173E+03;
  2.9089838E-01;  9.9999998E-03; -2.2000077E-01;4223; -2.1875730E-02;  0.0000000E+00; -1.2760211E-03;  1.0009433E+03;  1.0000000E-01;  7.8150873E+02;3;  2.0388435E-01;  0.0000000E+00; -1.5973493E-01;0;  7.7854902E-02;  4.0093176E+04;  0.0000000E+00;  3.2370052E-01;  4.0000000E+04;  0.0000000E+00;  3.9985906E+04;  8.1014201E-02;  0.0000000E+00; -3.1592962E-03;  1.9179000E+03;
  2.9100305E-01;  9.9999998E-03; -2.1000651E-01;4224; -2.1803813E-02;  0.0000000E+00; -1.3817417E-03;  1.0008035E+03;  1.0000000E-01;  6.6566016E+02;3;  5.4808736E-01;  0.0000000E+00;  1.5409340E-01;0;  7.6083273E-02;  4.0082395E+04;  0.0000000E+00;  5.7999307E-01;  4.0000000E+04;  0.0000000E+00;  3.9984148E+04;  7.8865997E-02;  0.0000000E+00; -2.7827239E-03;  2.2312227E+03;
  2.9112378E-01;  9.9999998E-03; -2.0001145E-01;4225; -2.1746311E-02;  0.0000000E+00; -1.5003204E-03;  1.0008022E+03;  1.0000000E-01;  6.6467249E+02;3;  7.0011604E-01;  0.0000000E+00;  3.2647586E-01;0;  7.4513473E-02;  4.0081449E+04;  0.0000000E+00;  7.2802478E-01;  4.0000000E+04;  0.0000000E+00;  3.9983777E+04;  7.6658562E-02;  0.0000000E+00; -2.1450887E-03;  2.3397903E+03;
  2.9124695E-01;  9.9999998E-03; -1.9001375E-01;4226; -2.1754354E-02;  0.0000000E+00; -1.5975350E-03;  1.0009328E+03;  1.0000000E-01;  7.7281757E+02;3;  7.6174450E-01;  0.0000000E+00;  3.8391072E-01;0;  7.3358275E-02;  4.0090742E+04;  0.0000000E+00;  7.6857966E-01;  4.0000000E+04;  0.0000000E+00;  3.9984473E+04;  7.4641801E-02;  0.0000000E+00; -1.2835261E-03;  2.3037976E+03;
  2.9134852E-01;  9.9999998E-03; -1.8001649E-01;4227; -2.1860678E-02;  0.0000000E+00; -1.6500962E-03;  1.0011763E+03;  1.0000000E-01;  9.7449091E+02;3;  7.7277339E-01;  0.0000000E+00;  3.8562927E-01;0;  7.2781749E-02;  4.0109355E+04;  0.0000000E+00;  7.1773136E-01;  4.0000000E+04;  0.0000000E+00;  3.9985371E+04;  7.3012479E-02;  0.0000000E+00; -2.3072709E-04;  2.1891150E+03;
  2.9141876E-01;  9.9999998E-03; -1.7002119E-01;4228; -2.2080839E-02;  0.0000000E+00; -1.6437751E-03;  1.0015117E+03;  1.0000000E-01;  1.2524089E+03;3;  7.7799660E-01;  0.0000000E+00;  3.5517484E-01;0;  7.2870694E-02;  4.0135414E+04;  0.0000000E+00;  6.0327786E-01;  4.0000000E+04;  0.0000000E+00;  3.9986242E+04;  7.1930043E-02;  0.0000000E+00;  9.4065123E-04;  2.0468688E+03;
  2.9145679E-01;  9.9999998E-03; -1.6002890E-01;4229; -2.2414945E-02;  0.0000000E+00; -1.5599199E-03;  1.0019044E+03;  1.0000000E-01;  1.5777330E+03;3;  7.9064572E-01;  0.0000000E+00;  3.1186301E-01;0;  7.3613308E-02;  4.0166617E+04;  0.0000000E+00;  4.5995843E-01;  4.0000000E+04;  0.0000000E+00;  3.9986777E+04;  7.1495116E-02;  0.0000000E+00;  2.1181945E-03;  1.9361388E+03;
  2.9146484E-01;  9.9999998E-03; -1.5003848E-01;4230; -2.2844147E-02;  0.0000000E+00; -1.3805900E-03;  1.0023192E+03;  1.0000000E-01;  1.9213282E+03;3;  8.1043530E-01;  0.0000000E+00;  2.5199983E-01;0;  7.4913956E-02;  4.0200332E+04;  0.0000000E+00;  3.1845048E-01;  4.0000000E+04;  0.0000000E+00;  3.9986727E+04;  7.1739957E-02;  0.0000000E+00;  3.1740011E-03;  1.9083531E+03;
  2.9144749E-01;  9.9999998E-03; -1.4004798E-01;4231; -2.3318145E-02;  0.0000000E+00; -1.1453456E-03;  1.0027194E+03;  1.0000000E-01;  2.2529731E+03;3;  8.2727760E-01;  0.0000000E+00;  1.9668159E-01;0;  7.6638646E-02;  4.0233621E+04;  0.0000000E+00;  1.9841871E-01;  4.0000000E+04;  0.0000000E+00;  3.9986246E+04;  7.2639316E-02;  0.0000000E+00;  3.9993287E-03;  1.9883640E+03;
  2.9141197E-01;  9.9999998E-03; -1.3005471E-01;4232; -2.3785058E-02;  0.0000000E+00; -8.8697672E-04;  1.0030831E+03;  1.0000000E-01;  2.5542979E+03;3;  8.4498411E-01;  0.0000000E+00;  1.2869228E-01;0;  7.8662522E-02;  4.0264121E+04;  0.0000000E+00;  1.1082903E-01;  4.0000000E+04;  0.0000000E+00;  3.9984750E+04;  7.4129567E-02;  0.0000000E+00;  4.5329574E-03;  2.1682739E+03;
  2.9136476E-01;  9.9999998E-03; -1.2005752E-01;4233; -2.4170946E-02;  0.0000000E+00; -7.0562458E-04;  1.0033796E+03;  1.0000000E-01;  2.7999207E+03;3;  8.6078000E-01;  0.0000000E+00;  8.3012685E-02;0;  8.0891013E-02;  4.0290242E+04;  0.0000000E+00;  5.7535302E-02;  4.0000000E+04;  0.0000000E+00;  3.9982957E+04;  7.6117367E-02;  0.0000000E+00;  4.7736433E-03;  2.4167988E+03;
  2.9131103E-01;  9.9999998E-03; -1.1005612E-01;4234; -2.4451979E-02;  0.0000000E+00; -6.3410570E-04;  1.0036053E+03;  1.0000000E-01;  2.9869771E+03;3;  8.7295216E-01;  0.0000000E+00;  5.2694153E-02;0;  8.3254531E-02;  4.0310562E+04;  0.0000000E+00;  3.3291515E-02;  4.0000000E+04;  0.0000000E+00;  3.9980992E+04;  7.8489646E-02;  0.0000000E+00;  4.7648856E-03;  2.6916555E+03;
  3.0076489E-01;  9.9999998E-03; -2.7006835E-01;4279; -2.1125572E-02;  0.0000000E+00; -2.8212572E-04;  1.0020181E+03;  1.0000000E-01;  1.6719526E+03;3; -5.0930896E+00;  0.0000000E+00; -1.3994387E+00;0;  9.2819877E-02;  4.0203586E+04;  0.0000000E+00; -1.2271061E+00;  4.0000000E+04;  0.0000000E+00;  3.9971871E+04;  9.8500326E-02;  0.0000000E+00; -5.6804498E-03;  4.0194717E+03;
  3.0074930E-01;  9.9999998E-03; -2.6006326E-01;4280; -2.1333193E-02;  0.0000000E+00; -5.9932692E-04;  1.0017023E+03;  1.0000000E-01;  1.4103303E+03;3; -3.0249062E+00;  0.0000000E+00; -1.1329218E+00;0;  9.5510058E-02;  4.0172898E+04;  0.0000000E+00; -8.5665971E-01;  4.0000000E+04;  0.0000000E+00;  3.9975242E+04;  9.9485733E-02;  0.0000000E+00; -3.9756717E-03;  3.4252241E+03;
  3.0079135E-01;  9.9999998E-03; -2.5004733E-01;4281; -2.1359028E-02;  0.0000000E+00; -1.1280477E-03;  1.0014521E+03;  1.0000000E-01;  1.2030276E+03;3; -1.5415710E+00;  0.0000000E+00; -7.0252031E-01;0;  9.7873062E-02;  4.0142406E+04;  0.0000000E+00; -5.6221217E-01;  4.0000000E+04;  0.0000000E+00;  3.9983441E+04;  9.9601641E-02;  0.0000000E+00; -1.7285803E-03;  2.3108708E+03;
  3.0084309E-01;  9.9999998E-03; -2.4002536E-01;4282; -2.1402406E-02;  0.0000000E+00; -1.3492928E-03;  1.0012260E+03;  1.0000000E-01;  1.0157737E+03;3; -5.0456655E-01;  0.0000000E+00; -2.9788625E-01;0;  9.6690513E-02;  4.0116016E+04;  0.0000000E+00; -1.7987078E-01;  4.0000000E+04;  0.0000000E+00;  3.9989840E+04;  9.8936915E-02;  0.0000000E+00; -2.2464052E-03;  1.4125125E+03;
  3.0090162E-01;  9.9999998E-03; -2.3001806E-01;4283; -2.1548523E-02;  0.0000000E+00; -1.3104439E-03;  1.0009863E+03;  1.0000000E-01;  8.1716199E+02;3;  1.7739744E-01;  0.0000000E+00;  3.9944209E-02;0;  9.4279252E-02;  4.0095824E+04;  0.0000000E+00;  1.8708628E-01;  4.0000000E+04;  0.0000000E+00;  3.9988461E+04;  9.7682461E-02;  0.0000000E+00; -3.4032066E-03;  1.5558734E+03;
  3.0098087E-01;  9.9999998E-03; -2.2002244E-01;4284; -2.1622868E-02;  0.0000000E+00; -1.3712564E-03;  1.0008217E+03;  1.0000000E-01;  6.8077081E+02;3;  5.4781532E-01;  0.0000000E+00;  2.8256708E-01;0;  9.2489354E-02;  4.0083668E+04;  0.0000000E+00;  4.7243762E-01;  4.0000000E+04;  0.0000000E+00;  3.9986078E+04;  9.6072167E-02;  0.0000000E+00; -3.5828121E-03;  1.9628363E+03;
  3.0107725E-01;  9.9999998E-03; -2.1002944E-01;4285; -2.1658218E-02;  0.0000000E+00; -1.5144568E-03;  1.0007885E+03;  1.0000000E-01;  6.5321606E+02;3;  7.1373278E-01;  0.0000000E+00;  4.2031115E-01;0;  9.1088146E-02;  4.0081047E+04;  0.0000000E+00;  6.5230292E-01;  4.0000000E+04;  0.0000000E+00;  3.9984605E+04;  9.4317503E-02;  0.0000000E+00; -3.2293564E-03;  2.1899695E+03;
  3.0117890E-01;  9.9999998E-03; -2.0003477E-01;4286; -2.1664027E-02;  0.0000000E+00; -1.6677276E-03;  1.0008903E+03;  1.0000000E-01;  7.3765808E+02;3;  7.5359297E-01;  0.0000000E+00;  4.7588193E-01;0;  9.0052299E-02;  4.0088309E+04;  0.0000000E+00;  7.2194380E-01;  4.0000000E+04;  0.0000000E+00;  3.9984770E+04;  9.2634410E-02;  0.0000000E+00; -2.5821091E-03;  2.2361418E+03;
  3.0126971E-01;  9.9999998E-03; -1.9003820E-01;4287; -2.1713259E-02;  0.0000000E+00; -1.7735823E-03;  1.0011116E+03;  1.0000000E-01;  9.2096155E+02;3;  7.7147847E-01;  0.0000000E+00;  4.7180173E-01;0;  8.9531086E-02;  4.0105117E+04;  0.0000000E+00;  6.9331515E-01;  4.0000000E+04;  0.0000000E+00;  3.9985199E+04;  9.1225438E-02;  0.0000000E+00; -1.6943507E-03;  2.1806211E+03;
  3.0133516E-01;  9.9999998E-03; -1.8004286E-01;4288; -2.1854643E-02;  0.0000000E+00; -1.8206845E-03;  1.0014302E+03;  1.0000000E-01;  1.1849541E+03;3;  7.7255023E-01;  0.0000000E+00;  4.5317975E-01;0;  8.9663617E-02;  4.0130031E+04;  0.0000000E+00;  5.9236658E-01;  4.0000000E+04;  0.0000000E+00;  3.9985754E+04;  9.0259418E-02;  0.0000000E+00; -5.9579691E-04;  2.0936484E+03;
  3.0137584E-01;  9.9999998E-03; -1.7004888E-01;4289; -2.2105468E-02;  0.0000000E+00; -1.7939649E-03;  1.0018155E+03;  1.0000000E-01;  1.5040562E+03;3;  7.7779955E-01;  0.0000000E+00;  4.2098230E-01;0;  9.0494789E-02;  4.0161133E+04;  0.0000000E+00;  4.5317075E-01;  4.0000000E+04;  0.0000000E+00;  3.9985820E+04;  8.9867607E-02;  0.0000000E+00;  6.2718359E-04;  2.0293171E+03;
  3.0139154E-01;  9.9999998E-03; -1.6005604E-01;4290; -2.2462729E-02;  0.0000000E+00; -1.6754203E-03;  1.0022357E+03;  1.0000000E-01;  1.8521943E+03;3;  7.9150909E-01;  0.0000000E+00;  3.7515095E-01;0;  9.1959968E-02;  4.0195363E+04;  0.0000000E+00;  3.0829445E-01;  4.0000000E+04;  0.0000000E+00;  3.9985715E+04;  9.0111181E-02;  0.0000000E+00;  1.8487896E-03;  2.0353665E+03;
  3.0138421E-01;  9.9999998E-03; -1.5006344E-01;4291; -2.2903066E-02;  0.0000000E+00; -1.4684675E-03;  1.0026577E+03;  1.0000000E-01;  2.2018142E+03;3;  8.1263953E-01;  0.0000000E+00;  3.1600302E-01;0;  9.3918860E-02;  4.0230086E+04;  0.0000000E+00;  1.7940171E-01;  4.0000000E+04;  0.0000000E+00;  3.9984867E+04;  9.0989113E-02;  0.0000000E+00;  2.9297452E-03;  2.1350732E+03;
  3.0135867E-01;  9.9999998E-03; -1.4006878E-01;4292; -2.3384003E-02;  0.0000000E+00; -1.1891031E-03;  1.0030400E+03;  1.0000000E-01;  2.5186445E+03;3;  8.3796942E-01;  0.0000000E+00;  2.3361753E-01;0;  9.6202545E-02;  4.0262531E+04;  0.0000000E+00;  7.9440825E-02;  4.0000000E+04;  0.0000000E+00;  3.9983434E+04;  9.2450917E-02;  0.0000000E+00;  3.7516288E-03;  2.3240476E+03;
  3.0132076E-01;  9.9999998E-03; -1.3007027E-01;4293; -2.3843018E-02;  0.0000000E+00; -8.6979929E-04;  1.0033661E+03;  1.0000000E-01;  2.7887605E+03;3;  8.5803115E-01;  0.0000000E+00;  1.6977736E-01;0;  9.8658197E-02;  4.0291105E+04;  0.0000000E+00;  1.3483977E-02;  4.0000000E+04;  0.0000000E+00;  3.9981645E+04;  9.4407819E-02;  0.0000000E+00;  4.2503765E-03;  2.5775767E+03;
  3.0127564E-01;  9.9999998E-03; -1.2006790E-01;4294; -2.4202570E-02;  0.0000000E+00; -6.5350829E-04;  1.0036164E+03;  1.0000000E-01;  2.9961619E+03;3;  8.7921840E-01;  0.0000000E+00;  8.4189266E-02;0;  1.0117441E-01;  4.0313461E+04;  0.0000000E+00; -2.0817947E-02;  4.0000000E+04;  0.0000000E+00;  3.9979590E+04;  9.6745923E-02;  0.0000000E+00;  4.4284891E-03;  2.8611157E+03;
  3.0122724E-01;  9.9999998E-03; -1.1006214E-01;4295; -2.4434865E-02;  0.0000000E+00; -5.9920078E-04;  1.0037834E+03;  1.0000000E-01;  3.1344297E+03;3;  8.9125311E-01;  0.0000000E+00;  4.9679849E-02;0;  1.0367623E-01;  4.0328965E+04;  0.0000000E+00; -3.0665174E-02;  4.0000000E+04;  0.0000000E+00;  3.9977480E+04;  9.9338315E-02;  0.0000000E+00;  4.3379166E-03;  3.1358357E+03;
  3.1073618E-01;  9.9999998E-03; -2.7007079E-01;4340; -1.8072918E-02;  0.0000000E+00;  1.2580503E-04;  1.0016786E+03;  1.0000000E-01;  1.3906766E+03;3; -1.0163268E+00;  0.0000000E+00; -2.2346010E-02;0;  1.0058808E-01;  4.0172375E+04;  0.0000000E+00; -8.6489886E-01;  4.0000000E+04;  0.0000000E+00;  3.9974562E+04;  1.0911692E-01;  0.0000000E+00; -8.5288333E-03;  3.4972908E+03;
  3.1074390E-01;  9.9999998E-03; -2.6006880E-01;4341; -1.8878063E-02;  0.0000000E+00; -2.7648950E-04;  1.0013724E+03;  1.0000000E-01;  1.1370542E+03;3; -1.9426407E-01;  0.0000000E+00;  1.0474752E-01;0;  1.0381945E-01;  4.0144293E+04;  0.0000000E+00; -5.1173997E-01;  4.0000000E+04;  0.0000000E+00;  3.9976426E+04;  1.0943121E-01;  0.0000000E+00; -5.6117522E-03;  3.1474250E+03;
  3.1082365E-01;  9.9999998E-03; -2.5005955E-01;4342; -1.8952971E-02;  0.0000000E+00; -1.0531485E-03;  1.0011487E+03;  1.0000000E-01;  9.5167670E+02;3;  3.9705938E-01;  0.0000000E+00;  2.9305318E-01;0;  1.0781194E-01;  4.0118820E+04;  0.0000000E+00; -2.3063704E-01;  4.0000000E+04;  0.0000000E+00;  3.9982102E+04;  1.0933778E-01;  0.0000000E+00; -1.5258394E-03;  2.3645452E+03;
  3.1090978E-01;  9.9999998E-03; -2.4004456E-01;4343; -1.9010197E-02;  0.0000000E+00; -1.5463991E-03;  1.0009896E+03;  1.0000000E-01;  8.1992737E+02;3;  8.3147699E-01;  0.0000000E+00;  4.3812037E-01;0;  1.0769936E-01;  4.0098785E+04;  0.0000000E+00;  8.5916117E-02;  4.0000000E+04;  0.0000000E+00;  3.9987527E+04;  1.0882448E-01;  0.0000000E+00; -1.1251164E-03;  1.6672300E+03;
  3.1097975E-01;  9.9999998E-03; -2.3004173E-01;4344; -1.9771349E-02;  0.0000000E+00; -1.5475505E-03;  1.0008448E+03;  1.0000000E-01;  6.9993079E+02;3;  9.3710017E-01;  0.0000000E+00;  5.4437602E-01;0;  1.0521842E-01;  4.0086062E+04;  0.0000000E+00;  3.6667025E-01;  4.0000000E+04;  0.0000000E+00;  3.9987129E+04;  1.0800100E-01;  0.0000000E+00; -2.7825809E-03;  1.7944019E+03;
  3.1105167E-01;  9.9999998E-03; -2.2004835E-01;4345; -2.0480732E-02;  0.0000000E+00; -1.5872419E-03;  1.0007868E+03;  1.0000000E-01;  6.5183337E+02;3;  9.1478336E-01;  0.0000000E+00;  6.2060970E-01;0;  1.0359782E-01;  4.0081805E+04;  0.0000000E+00;  5.5630952E-01;  4.0000000E+04;  0.0000000E+00;  3.9985406E+04;  1.0704849E-01;  0.0000000E+00; -3.4506731E-03;  2.0714233E+03;
  3.1112880E-01;  9.9999998E-03; -2.1005541E-01;4346; -2.1034559E-02;  0.0000000E+00; -1.7006934E-03;  1.0008547E+03;  1.0000000E-01;  7.0812805E+02;3;  8.4243011E-01;  0.0000000E+00;  6.5179902E-01;0;  1.0271263E-01;  4.0086676E+04;  0.0000000E+00;  6.4336240E-01;  4.0000000E+04;  0.0000000E+00;  3.9984832E+04;  1.0610591E-01;  0.0000000E+00; -3.3932740E-03;  2.1746726E+03;
  3.1120104E-01;  9.9999998E-03; -2.0006017E-01;4347; -2.1389442E-02;  0.0000000E+00; -1.8322583E-03;  1.0010418E+03;  1.0000000E-01;  8.6308661E+02;3;  7.6648062E-01;  0.0000000E+00;  6.4316064E-01;0;  1.0241980E-01;  4.0100875E+04;  0.0000000E+00;  6.3456786E-01;  4.0000000E+04;  0.0000000E+00;  3.9985113E+04;  1.0531796E-01;  0.0000000E+00; -2.8981564E-03;  2.1564705E+03;
  3.1125718E-01;  9.9999998E-03; -1.9006398E-01;4348; -2.1560770E-02;  0.0000000E+00; -1.9245812E-03;  1.0013275E+03;  1.0000000E-01;  1.0998207E+03;3;  7.3108548E-01;  0.0000000E+00;  6.1456198E-01;0;  1.0274618E-01;  4.0123301E+04;  0.0000000E+00;  5.5065340E-01;  4.0000000E+04;  0.0000000E+00;  3.9985285E+04;  1.0482973E-01;  0.0000000E+00; -2.0835493E-03;  2.1049211E+03;
  3.1129491E-01;  9.9999998E-03; -1.8006855E-01;4349; -2.1749504E-02;  0.0000000E+00; -1.9599707E-03;  1.0016889E+03;  1.0000000E-01;  1.3992689E+03;3;  7.3464131E-01;  0.0000000E+00;  5.7916772E-01;0;  1.0375513E-01;  4.0152289E+04;  0.0000000E+00;  4.2222667E-01;  4.0000000E+04;  0.0000000E+00;  3.9985238E+04;  1.0477534E-01;  0.0000000E+00; -1.0202066E-03;  2.0803560E+03;
  3.1131384E-01;  9.9999998E-03; -1.7007345E-01;4350; -2.2020685E-02;  0.0000000E+00; -1.9233488E-03;  1.0020958E+03;  1.0000000E-01;  1.7363458E+03;3;  7.4872369E-01;  0.0000000E+00;  5.3145993E-01;0;  1.0542459E-01;  4.0185539E+04;  0.0000000E+00;  2.8114206E-01;  4.0000000E+04;  0.0000000E+00;  3.9984781E+04;  1.0524007E-01;  0.0000000E+00;  1.8451903E-04;  2.1222493E+03;
  3.1131351E-01;  9.9999998E-03; -1.6007853E-01;4351; -2.2379162E-02;  0.0000000E+00; -1.7969918E-03;  1.0025167E+03;  1.0000000E-01;  2.0849780E+03;3;  7.7019769E-01;  0.0000000E+00;  4.7091693E-01;0;  1.0764091E-01;  4.0220301E+04;  0.0000000E+00;  1.5054093E-01;  4.0000000E+04;  0.0000000E+00;  3.9983762E+04;  1.0624942E-01;  0.0000000E+00;  1.3914945E-03;  2.2492542E+03;
  3.1129640E-01;  9.9999998E-03; -1.5008244E-01;4352; -2.2813026E-02;  0.0000000E+00; -1.5729213E-03;  1.0029103E+03;  1.0000000E-01;  2.4111909E+03;3;  8.0141997E-01;  0.0000000E+00;  3.9143461E-01;0;  1.1022843E-01;  4.0253742E+04;  0.0000000E+00;  4.4499364E-02;  4.0000000E+04;  0.0000000E+00;  3.9982301E+04;  1.0777611E-01;  0.0000000E+00;  2.4523302E-03;  2.4563853E+03;
  3.1126747E-01;  9.9999998E-03; -1.4008290E-01;4353; -2.3284998E-02;  0.0000000E+00; -1.2466112E-03;  1.0032540E+03;  1.0000000E-01;  2.6958247E+03;3;  8.3640736E-01;  0.0000000E+00;  2.9501218E-01;0;  1.1298992E-01;  4.0283566E+04;  0.0000000E+00; -2.9843234E-02;  4.0000000E+04;  0.0000000E+00;  3.9980473E+04;  1.0974767E-01;  0.0000000E+00;  3.2422571E-03;  2.7218452E+03;
  3.1123054E-01;  9.9999998E-03; -1.3007899E-01;4354; -2.3737006E-02;  0.0000000E+00; -8.6320937E-04;  1.0035290E+03;  1.0000000E-01;  2.9236702E+03;3;  8.6813933E-01;  0.0000000E+00;  1.8769167E-01;0;  1.1574879E-01;  4.0307930E+04;  0.0000000E+00; -7.2232261E-02;  4.0000000E+04;  0.0000000E+00;  3.9978352E+04;  1.1205458E-01;  0.0000000E+00;  3.6942137E-03;  3.0156423E+03;
  3.1118968E-01;  9.9999998E-03; -1.2007169E-01;4355; -2.4070047E-02;  0.0000000E+00; -5.9283670E-04;  1.0037197E+03;  1.0000000E-01;  3.0816904E+03;3;  8.9700222E-01;  0.0000000E+00;  7.6363817E-02;0;  1.1837818E-01;  4.0325402E+04;  0.0000000E+00; -8.7796047E-02;  4.0000000E+04;  0.0000000E+00;  3.9976117E+04;  1.1456861E-01;  0.0000000E+00;  3.8095675E-03;  3.3051711E+03;
  3.1114814E-01;  9.9999998E-03; -1.1006235E-01;4356; -2.4251502E-02;  0.0000000E+00; -5.4545281E-04;  1.0038215E+03;  1.0000000E-01;  3.1660337E+03;3;  9.1083992E-01;  0.0000000E+00;  3.9647199E-02;0;  1.2080143E-01;  4.0335594E+04;  0.0000000E+00; -8.4458038E-02;  4.0000000E+04;  0.0000000E+00;  3.9974227E+04;  1.1715802E-01;  0.0000000E+00;  3.6434075E-03;  3.5567480E+03;
  3.2107466E-01;  9.9999998E-03; -1.1005732E-01;4417; -2.3758443E-02;  0.0000000E+00; -4.4125557E-04;  1.0037211E+03;  1.0000000E-01;  3.0828755E+03;3;  9.4007593E-01;  0.0000000E+00;  1.2129050E-02;0;  1.3291460E-01;  4.0330871E+04;  0.0000000E+00; -1.2122519E-01;  4.0000000E+04;  0.0000000E+00;  3.9971273E+04;  1.3023207E-01;  0.0000000E+00;  2.6825357E-03;  3.9234451E+03;
  3.2110846E-01;  9.9999998E-03; -1.2006928E-01;4416; -2.3664888E-02;  0.0000000E+00; -5.4832501E-04;  1.0036854E+03;  1.0000000E-01;  3.0532468E+03;3;  9.2159492E-01;  0.0000000E+00;  5.8858015E-02;0;  1.3082168E-01;  4.0326434E+04;  0.0000000E+00; -1.3612419E-01;  4.0000000E+04;  0.0000000E+00;  3.9972957E+04;  1.2790406E-01;  0.0000000E+00;  2.9176117E-03;  3.7116240E+03;
  3.2114366E-01;  9.9999998E-03; -1.3008082E-01;4415; -2.3344046E-02;  0.0000000E+00; -9.6704735E-04;  1.0035634E+03;  1.0000000E-01;  2.9522126E+03;3;  8.7199175E-01;  0.0000000E+00;  2.3164809E-01;0;  1.2830128E-01;  4.0314453E+04;  0.0000000E+00; -1.3753627E-01;  4.0000000E+04;  0.0000000E+00;  3.9975141E+04;  1.2543309E-01;  0.0000000E+00;  2.8681874E-03;  3.4394124E+03;
  3.2117739E-01;  9.9999998E-03; -1.4008924E-01;4414; -2.2906354E-02;  0.0000000E+00; -1.4113152E-03;  1.0033563E+03;  1.0000000E-01;  2.7806619E+03;3;  8.0842203E-01;  0.0000000E+00;  4.0627477E-01;0;  1.2542604E-01;  4.0295180E+04;  0.0000000E+00; -1.1760709E-01;  4.0000000E+04;  0.0000000E+00;  3.9977324E+04;  1.2294537E-01;  0.0000000E+00;  2.4806671E-03;  3.1345115E+03;
  3.2120648E-01;  9.9999998E-03; -1.5009330E-01;4413; -2.2486448E-02;  0.0000000E+00; -1.7063362E-03;  1.0030674E+03;  1.0000000E-01;  2.5412612E+03;3;  7.4591506E-01;  0.0000000E+00;  5.4633665E-01;0;  1.2233146E-01;  4.0269652E+04;  0.0000000E+00; -6.9618918E-02;  4.0000000E+04;  0.0000000E+00;  3.9979547E+04;  1.2057428E-01;  0.0000000E+00;  1.7571728E-03;  2.8261448E+03;
  3.2122830E-01;  9.9999998E-03; -1.6009341E-01;4412; -2.2120532E-02;  0.0000000E+00; -1.8663212E-03;  1.0027167E+03;  1.0000000E-01;  2.2507017E+03;3;  6.9660103E-01;  0.0000000E+00;  6.5524757E-01;0;  1.1920781E-01;  4.0239332E+04;  0.0000000E+00;  9.6812788E-03;  4.0000000E+04;  0.0000000E+00;  3.9981559E+04;  1.1844101E-01;  0.0000000E+00;  7.6680258E-04;  2.5445139E+03;
  3.2123980E-01;  9.9999998E-03; -1.7009135E-01;4411; -2.1812111E-02;  0.0000000E+00; -1.9347897E-03;  1.0023280E+03;  1.0000000E-01;  1.9287355E+03;3;  6.5476620E-01;  0.0000000E+00;  7.4486053E-01;0;  1.1626825E-01;  4.0206422E+04;  0.0000000E+00;  1.1798537E-01;  4.0000000E+04;  0.0000000E+00;  3.9983133E+04;  1.1663442E-01;  0.0000000E+00; -3.6616548E-04;  2.3181238E+03;
  3.2123864E-01;  9.9999998E-03; -1.8008868E-01;4410; -2.1547126E-02;  0.0000000E+00; -1.9344386E-03;  1.0019305E+03;  1.0000000E-01;  1.5994608E+03;3;  6.3484466E-01;  0.0000000E+00;  8.0792803E-01;0;  1.1370782E-01;  4.0173273E+04;  0.0000000E+00;  2.4633665E-01;  4.0000000E+04;  0.0000000E+00;  3.9984125E+04;  1.1520206E-01;  0.0000000E+00; -1.4942463E-03;  2.1685952E+03;
  3.2122272E-01;  9.9999998E-03; -1.9008607E-01;4409; -2.1220278E-02;  0.0000000E+00; -1.8720350E-03;  1.0015547E+03;  1.0000000E-01;  1.2880623E+03;3;  6.9301373E-01;  0.0000000E+00;  8.8176888E-01;0;  1.1166364E-01;  4.0142527E+04;  0.0000000E+00;  3.7968516E-01;  4.0000000E+04;  0.0000000E+00;  3.9984820E+04;  1.1414254E-01;  0.0000000E+00; -2.4789022E-03;  2.1049524E+03;
  3.2119444E-01;  9.9999998E-03; -2.0008366E-01;4408; -2.0230290E-02;  0.0000000E+00; -1.8034813E-03;  1.0012287E+03;  1.0000000E-01;  1.0179465E+03;3;  1.0135528E+00;  0.0000000E+00;  9.2068595E-01;0;  1.1022065E-01;  4.0116711E+04;  0.0000000E+00;  4.9509788E-01;  4.0000000E+04;  0.0000000E+00;  3.9984961E+04;  1.1340363E-01;  0.0000000E+00; -3.1829767E-03;  2.1181155E+03;
  3.2115796E-01;  9.9999998E-03; -2.1008037E-01;4407; -1.8135363E-02;  0.0000000E+00; -1.7678197E-03;  1.0009817E+03;  1.0000000E-01;  8.1331024E+02;3;  1.7357277E+00;  0.0000000E+00;  9.6437478E-01;0;  1.0947572E-01;  4.0097441E+04;  0.0000000E+00;  5.6417131E-01;  4.0000000E+04;  0.0000000E+00;  3.9984430E+04;  1.1291193E-01;  0.0000000E+00; -3.4362169E-03;  2.1718171E+03;
  3.2111385E-01;  9.9999998E-03; -2.2007385E-01;4406; -1.5382869E-02;  0.0000000E+00; -1.6174734E-03;  1.0008303E+03;  1.0000000E-01;  6.8788171E+02;3;  2.5256190E+00;  0.0000000E+00;  1.0251402E+00;0;  1.0931068E-01;  4.0086281E+04;  0.0000000E+00;  5.6207120E-01;  4.0000000E+04;  0.0000000E+00;  3.9984352E+04;  1.1261389E-01;  0.0000000E+00; -3.3032061E-03;  2.1772356E+03;
  3.2106271E-01;  9.9999998E-03; -2.3006541E-01;4405; -1.2682972E-02;  0.0000000E+00; -1.3917180E-03;  1.0007911E+03;  1.0000000E-01;  6.5548761E+02;3;  3.1533599E+00;  0.0000000E+00;  1.0871148E+00;0;  1.0961726E-01;  4.0083578E+04;  0.0000000E+00;  4.7354347E-01;  4.0000000E+04;  0.0000000E+00;  3.9985344E+04;  1.1247221E-01;  0.0000000E+00; -2.8549423E-03;  2.0356683E+03;
  3.2099989E-01;  9.9999998E-03; -2.4006334E-01;4404; -1.0576992E-02;  0.0000000E+00; -1.1138250E-03;  1.0008434E+03;  1.0000000E-01;  6.9874561E+02;3;  3.4704981E+00;  0.0000000E+00;  1.1551105E+00;0;  1.1018324E-01;  4.0088684E+04;  0.0000000E+00;  2.9633328E-01;  4.0000000E+04;  0.0000000E+00;  3.9985496E+04;  1.1244421E-01;  0.0000000E+00; -2.2609734E-03;  1.9397924E+03;
  3.2090890E-01;  9.9999998E-03; -2.5007135E-01;4403; -9.1389306E-03;  0.0000000E+00; -4.9980375E-04;  1.0009316E+03;  1.0000000E-01;  7.7182996E+02;3;  3.4735966E+00;  0.0000000E+00;  1.1818068E+00;0;  1.0868745E-01;  4.0101312E+04;  0.0000000E+00;  5.1032580E-02;  4.0000000E+04;  0.0000000E+00;  3.9981504E+04;  1.1247349E-01;  0.0000000E+00; -3.7860391E-03;  2.4125278E+03;
  3.2080847E-01;  9.9999998E-03; -2.6007476E-01;4402; -8.3295666E-03;  0.0000000E+00;  2.3174996E-04;  1.0011027E+03;  1.0000000E-01;  9.1355432E+02;3;  3.2126193E+00;  0.0000000E+00;  1.0981567E+00;0;  1.0424752E-01;  4.0120031E+04;  0.0000000E+00; -2.2821464E-01;  4.0000000E+04;  0.0000000E+00;  3.9978211E+04;  1.1247607E-01;  0.0000000E+00; -8.2285572E-03;  2.8582505E+03;
  3.2077217E-01;  9.9999998E-03; -2.7007419E-01;4401; -7.8776367E-03;  0.0000000E+00;  5.9243431E-04;  1.0013615E+03;  1.0000000E-01;  1.1279680E+03;3;  2.6839676E+00;  0.0000000E+00;  9.9988639E-01;0;  1.0093099E-01;  4.0142602E+04;  0.0000000E+00; -5.8325440E-01;  4.0000000E+04;  0.0000000E+00;  3.9977781E+04;  1.1233690E-01;  0.0000000E+00; -1.1405906E-02;  3.0119209E+03;
  3.3082977E-01;  9.9999998E-03; -2.7007744E-01;4462; -7.1156304E-03;  0.0000000E+00;  1.1381756E-03;  1.0011196E+03;  1.0000000E-01;  9.2757861E+02;3;  3.0810902E+00;  0.0000000E+00;  1.3485503E+00;0;  9.2124283E-02;  4.0118215E+04;  0.0000000E+00; -2.1638995E-01;  4.0000000E+04;  0.0000000E+00;  3.9981105E+04;  1.0685978E-01;  0.0000000E+00; -1.4735498E-02;  2.4943398E+03;
  3.3089349E-01;  9.9999998E-03; -2.6007941E-01;4463; -7.3973746E-03;  0.0000000E+00;  1.0380708E-03;  1.0009315E+03;  1.0000000E-01;  7.7173120E+02;3;  3.3174829E+00;  0.0000000E+00;  1.4175322E+00;0;  9.4542846E-02;  4.0102180E+04;  0.0000000E+00;  6.8318650E-02;  4.0000000E+04;  0.0000000E+00;  3.9980770E+04;  1.0759453E-01;  0.0000000E+00; -1.3051688E-02;  2.4962927E+03;
  3.3099937E-01;  9.9999998E-03; -2.5007972E-01;4464; -7.7646477E-03;  0.0000000E+00;  7.1171444E-04;  1.0008234E+03;  1.0000000E-01;  6.8215350E+02;3;  3.4865768E+00;  0.0000000E+00;  1.4693381E+00;0;  9.8506123E-02;  4.0090766E+04;  0.0000000E+00;  2.7818274E-01;  4.0000000E+04;  0.0000000E+00;  3.9982488E+04;  1.0841055E-01;  0.0000000E+00; -9.9044256E-03;  2.3100493E+03;
  3.3108515E-01;  9.9999998E-03; -2.4007793E-01;4465; -8.2589826E-03;  0.0000000E+00;  3.0386742E-04;  1.0008000E+03;  1.0000000E-01;  6.6279602E+02;3;  3.6363795E+00;  0.0000000E+00;  1.4855282E+00;0;  1.0199811E-01;  4.0085305E+04;  0.0000000E+00;  4.2348132E-01;  4.0000000E+04;  0.0000000E+00;  3.9984816E+04;  1.0942008E-01;  0.0000000E+00; -7.4219634E-03;  2.0691538E+03;
  3.3113348E-01;  9.9999998E-03; -2.3008409E-01;4466; -8.8680172E-03;  0.0000000E+00;  1.1934119E-05;  1.0008214E+03;  1.0000000E-01;  6.8047455E+02;3;  3.7594271E+00;  0.0000000E+00;  1.4874872E+00;0;  1.0440471E-01;  4.0086645E+04;  0.0000000E+00;  4.9860471E-01;  4.0000000E+04;  0.0000000E+00;  3.9984445E+04;  1.1066734E-01;  0.0000000E+00; -6.2626298E-03;  2.1598416E+03;
  3.3115917E-01;  9.9999998E-03; -2.2009340E-01;4467; -9.8494440E-03;  0.0000000E+00; -3.6957601E-04;  1.0009341E+03;  1.0000000E-01;  7.7390399E+02;3;  3.8335328E+00;  0.0000000E+00;  1.4428678E+00;0;  1.0691994E-01;  4.0095145E+04;  0.0000000E+00;  5.0204885E-01;  4.0000000E+04;  0.0000000E+00;  3.9983848E+04;  1.1215736E-01;  0.0000000E+00; -5.2374154E-03;  2.2140137E+03;
  3.3117214E-01;  9.9999998E-03; -2.1009840E-01;4468; -1.1885759E-02;  0.0000000E+00; -7.6706900E-04;  1.0011406E+03;  1.0000000E-01;  9.4496088E+02;3;  3.5574024E+00;  0.0000000E+00;  1.3597707E+00;0;  1.0946246E-01;  4.0110758E+04;  0.0000000E+00;  4.4378573E-01;  4.0000000E+04;  0.0000000E+00;  3.9984285E+04;  1.1389644E-01;  0.0000000E+00; -4.4339793E-03;  2.1540588E+03;
  3.3117858E-01;  9.9999998E-03; -2.0009938E-01;4469; -1.5278780E-02;  0.0000000E+00; -1.0195420E-03;  1.0014220E+03;  1.0000000E-01;  1.1781394E+03;3;  2.7524076E+00;  0.0000000E+00;  1.3078022E+00;0;  1.1209913E-01;  4.0132699E+04;  0.0000000E+00;  3.4163371E-01;  4.0000000E+04;  0.0000000E+00;  3.9984547E+04;  1.1587517E-01;  0.0000000E+00; -3.7760353E-03;  2.1160251E+03;
  3.3117884E-01;  9.9999998E-03; -1.9009919E-01;4470; -1.8687626E-02;  0.0000000E+00; -1.1927771E-03;  1.0017525E+03;  1.0000000E-01;  1.4519094E+03;3;  1.7238694E+00;  0.0000000E+00;  1.2421947E+00;0;  1.1505151E-01;  4.0159809E+04;  0.0000000E+00;  2.1820736E-01;  4.0000000E+04;  0.0000000E+00;  3.9983941E+04;  1.1804043E-01;  0.0000000E+00; -2.9889178E-03;  2.1730901E+03;
  3.3117294E-01;  9.9999998E-03; -1.8009938E-01;4471; -2.0714764E-02;  0.0000000E+00; -1.3249496E-03;  1.0021147E+03;  1.0000000E-01;  1.7520491E+03;3;  9.0782088E-01;  0.0000000E+00;  1.1829871E+00;0;  1.1830142E-01;  4.0189895E+04;  0.0000000E+00;  9.4024248E-02;  4.0000000E+04;  0.0000000E+00;  3.9982797E+04;  1.2034423E-01;  0.0000000E+00; -2.0428051E-03;  2.3309036E+03;
  3.3116087E-01;  9.9999998E-03; -1.7009936E-01;4472; -2.1408621E-02;  0.0000000E+00; -1.4703330E-03;  1.0024823E+03;  1.0000000E-01;  2.0565342E+03;3;  6.2807441E-01;  0.0000000E+00;  1.1022904E+00;0;  1.2177631E-01;  4.0220980E+04;  0.0000000E+00; -1.5358839E-02;  4.0000000E+04;  0.0000000E+00;  3.9981090E+04;  1.2278073E-01;  0.0000000E+00; -1.0044212E-03;  2.5702083E+03;
  3.3114240E-01;  9.9999998E-03; -1.6009828E-01;4473; -2.1666098E-02;  0.0000000E+00; -1.5581684E-03;  1.0028220E+03;  1.0000000E-01;  2.3379089E+03;3;  5.6712472E-01;  0.0000000E+00;  1.0030888E+00;0;  1.2534896E-01;  4.0250484E+04;  0.0000000E+00; -9.9051215E-02;  4.0000000E+04;  0.0000000E+00;  3.9979133E+04;  1.2533931E-01;  0.0000000E+00;  9.6433942E-06;  2.8663137E+03;
  3.3111864E-01;  9.9999998E-03; -1.5009494E-01;4474; -2.1832658E-02;  0.0000000E+00; -1.5952983E-03;  1.0031128E+03;  1.0000000E-01;  2.5788899E+03;3;  5.9706551E-01;  0.0000000E+00;  9.2417061E-01;0;  1.2884501E-01;  4.0276352E+04;  0.0000000E+00; -1.5231805E-01;  4.0000000E+04;  0.0000000E+00;  3.9976637E+04;  1.2796442E-01;  0.0000000E+00;  8.8058400E-04;  3.1909270E+03;
  3.3109182E-01;  9.9999998E-03; -1.4008801E-01;4475; -2.1953074E-02;  0.0000000E+00; -1.5802495E-03;  1.0033364E+03;  1.0000000E-01;  2.7641685E+03;3;  6.8652982E-01;  0.0000000E+00;  8.0356055E-01;0;  1.3206370E-01;  4.0296781E+04;  0.0000000E+00; -1.7645489E-01;  4.0000000E+04;  0.0000000E+00;  3.9974230E+04;  1.3056448E-01;  0.0000000E+00;  1.4992190E-03;  3.5141848E+03;
  3.3106324E-01;  9.9999998E-03; -1.3007686E-01;4476; -2.2084754E-02;  0.0000000E+00; -1.4260268E-03;  1.0034778E+03;  1.0000000E-01;  2.8813010E+03;3;  8.8189292E-01;  0.0000000E+00;  5.1717693E-01;0;  1.3482152E-01;  4.0310500E+04;  0.0000000E+00; -1.7696519E-01;  4.0000000E+04;  0.0000000E+00;  3.9971953E+04;  1.3302280E-01;  0.0000000E+00;  1.7987223E-03;  3.8077642E+03;
  3.3103526E-01;  9.9999998E-03; -1.2006218E-01;4477; -2.2228271E-02;  0.0000000E+00; -7.2871841E-04;  1.0035360E+03;  1.0000000E-01;  2.9294971E+03;3;  1.0587482E+00;  0.0000000E+00;  1.1238807E-02;0;  1.3698556E-01;  4.0317074E+04;  0.0000000E+00; -1.6129765E-01;  4.0000000E+04;  0.0000000E+00;  3.9970062E+04;  1.3521205E-01;  0.0000000E+00;  1.7734995E-03;  4.0466919E+03;
  3.3101079E-01;  9.9999998E-03; -1.1004882E-01;4478; -2.1634659E-02;  0.0000000E+00; -3.1180002E-04;  1.0035136E+03;  1.0000000E-01;  2.9109297E+03;3;  1.2918329E+00;  0.0000000E+00; -8.9585423E-02;0;  1.3850690E-01;  4.0316312E+04;  0.0000000E+00; -1.3685460E-01;  4.0000000E+04;  0.0000000E+00;  3.9968789E+04;  1.3703096E-01;  0.0000000E+00;  1.4759438E-03;  4.2096357E+03;
  3.4089306E-01;  9.9999998E-03; -2.7008000E-01;4523; -7.0545301E-03;  0.0000000E+00;  1.4732175E-03;  1.0009534E+03;  1.0000000E-01;  7.8990350E+02;3;  3.2804787E+00;  0.0000000E+00;  1.4497880E+00;0;  8.0547795E-02;  4.0099762E+04;  0.0000000E+00;  7.5263180E-02;  4.0000000E+04;  0.0000000E+00;  3.9984496E+04;  9.5806397E-02;  0.0000000E+00; -1.5258607E-02;  2.0426129E+03;
  3.4097075E-01;  9.9999998E-03; -2.6008314E-01;4524; -7.3077437E-03;  0.0000000E+00;  1.4728338E-03;  1.0008375E+03;  1.0000000E-01;  6.9380750E+02;3;  3.4274786E+00;  0.0000000E+00;  1.4976465E+00;0;  8.3102129E-02;  4.0090312E+04;  0.0000000E+00;  2.6614669E-01;  4.0000000E+04;  0.0000000E+00;  3.9983602E+04;  9.7243808E-02;  0.0000000E+00; -1.4141678E-02;  2.1732444E+03;
  3.4107196E-01;  9.9999998E-03; -2.5008675E-01;4525; -7.5437883E-03;  0.0000000E+00;  1.3151978E-03;  1.0007888E+03;  1.0000000E-01;  6.5351233E+02;3;  3.5513372E+00;  0.0000000E+00;  1.5149921E+00;0;  8.7288409E-02;  4.0085703E+04;  0.0000000E+00;  3.9013037E-01;  4.0000000E+04;  0.0000000E+00;  3.9983691E+04;  9.8934919E-02;  0.0000000E+00; -1.1646507E-02;  2.2056978E+03;
  3.4114692E-01;  9.9999998E-03; -2.4009006E-01;4526; -7.8258030E-03;  0.0000000E+00;  1.1322958E-03;  1.0008151E+03;  1.0000000E-01;  6.7533887E+02;3;  3.6637950E+00;  0.0000000E+00;  1.5215148E+00;0;  9.1431491E-02;  4.0086434E+04;  0.0000000E+00;  4.5141047E-01;  4.0000000E+04;  0.0000000E+00;  3.9984340E+04;  1.0097787E-01;  0.0000000E+00; -9.5463777E-03;  2.1412646E+03;
  3.4117758E-01;  9.9999998E-03; -2.3009872E-01;4527; -8.1479466E-03;  0.0000000E+00;  9.8818017E-04;  1.0008981E+03;  1.0000000E-01;  7.4407764E+02;3;  3.7733197E+00;  0.0000000E+00;  1.5245212E+00;0;  9.5339924E-02;  4.0092926E+04;  0.0000000E+00;  4.5448229E-01;  4.0000000E+04;  0.0000000E+00;  3.9983562E+04;  1.0340174E-01;  0.0000000E+00; -8.0618178E-03;  2.2189023E+03;
  3.4118050E-01;  9.9999998E-03; -2.2010651E-01;4528; -8.5568214E-03;  0.0000000E+00;  7.6320954E-04;  1.0010602E+03;  1.0000000E-01;  8.7839484E+02;3;  3.8813140E+00;  0.0000000E+00;  1.5207922E+00;0;  9.9505283E-02;  4.0105316E+04;  0.0000000E+00;  4.0605146E-01;  4.0000000E+04;  0.0000000E+00;  3.9983785E+04;  1.0617454E-01;  0.0000000E+00; -6.6692624E-03;  2.1987251E+03;
  3.4117162E-01;  9.9999998E-03; -2.1010767E-01;4529; -9.1400193E-03;  0.0000000E+00;  5.0905178E-04;  1.0012988E+03;  1.0000000E-01;  1.0760189E+03;3;  3.9993358E+00;  0.0000000E+00;  1.5142530E+00;0;  1.0373428E-01;  4.0123324E+04;  0.0000000E+00;  3.1847671E-01;  4.0000000E+04;  0.0000000E+00;  3.9984402E+04;  1.0924290E-01;  0.0000000E+00; -5.5086180E-03;  2.1161912E+03;
  3.4115711E-01;  9.9999998E-03; -2.0010489E-01;4530; -1.0093119E-02;  0.0000000E+00;  2.3042577E-04;  1.0015837E+03;  1.0000000E-01;  1.3120615E+03;3;  4.0654988E+00;  0.0000000E+00;  1.4946640E+00;0;  1.0804713E-01;  4.0146234E+04;  0.0000000E+00;  2.0798831E-01;  4.0000000E+04;  0.0000000E+00;  3.9984316E+04;  1.1253361E-01;  0.0000000E+00; -4.4864807E-03;  2.1290168E+03;
  3.4113839E-01;  9.9999998E-03; -1.9010179E-01;4531; -1.1879757E-02;  0.0000000E+00; -2.5354426E-05;  1.0018991E+03;  1.0000000E-01;  1.5733875E+03;3;  3.7646217E+00;  0.0000000E+00;  1.4553357E+00;0;  1.1241752E-01;  4.0172391E+04;  0.0000000E+00;  9.0584576E-02;  4.0000000E+04;  0.0000000E+00;  3.9983242E+04;  1.1595684E-01;  0.0000000E+00; -3.5393271E-03;  2.2724006E+03;
  3.4111583E-01;  9.9999998E-03; -1.8009916E-01;4532; -1.4195617E-02;  0.0000000E+00; -1.8511714E-04;  1.0022237E+03;  1.0000000E-01;  1.8423181E+03;3;  3.2153559E+00;  0.0000000E+00;  1.4416790E+00;0;  1.1678833E-01;  4.0200406E+04;  0.0000000E+00; -1.8695103E-02;  4.0000000E+04;  0.0000000E+00;  3.9981422E+04;  1.1940113E-01;  0.0000000E+00; -2.6127964E-03;  2.5154346E+03;
  3.4109128E-01;  9.9999998E-03; -1.7009629E-01;4533; -1.5975304E-02;  0.0000000E+00; -3.1171562E-04;  1.0025398E+03;  1.0000000E-01;  2.1041379E+03;3;  2.7684970E+00;  0.0000000E+00;  1.4234236E+00;0;  1.2107214E-01;  4.0227672E+04;  0.0000000E+00; -1.0733461E-01;  4.0000000E+04;  0.0000000E+00;  3.9979262E+04;  1.2275948E-01;  0.0000000E+00; -1.6873514E-03;  2.8221050E+03;
  3.4106645E-01;  9.9999998E-03; -1.6009222E-01;4534; -1.6802872E-02;  0.0000000E+00; -4.2948412E-04;  1.0028181E+03;  1.0000000E-01;  2.3347485E+03;3;  2.5690274E+00;  0.0000000E+00;  1.3915781E+00;0;  1.2512897E-01;  4.0252629E+04;  0.0000000E+00; -1.6781208E-01;  4.0000000E+04;  0.0000000E+00;  3.9976812E+04;  1.2595552E-01;  0.0000000E+00; -8.2654925E-04;  3.1612529E+03;
  3.4104210E-01;  9.9999998E-03; -1.5008605E-01;4535; -1.6609734E-02;  0.0000000E+00; -5.0362694E-04;  1.0030421E+03;  1.0000000E-01;  2.5203235E+03;3;  2.6768620E+00;  0.0000000E+00;  1.3392196E+00;0;  1.2880123E-01;  4.0273332E+04;  0.0000000E+00; -1.9855702E-01;  4.0000000E+04;  0.0000000E+00;  3.9974145E+04;  1.2891950E-01;  0.0000000E+00; -1.1826593E-04;  3.5034443E+03;
  3.4102014E-01;  9.9999998E-03; -1.4007698E-01;4536; -1.5410539E-02;  0.0000000E+00; -4.4115164E-04;  1.0031990E+03;  1.0000000E-01;  2.6502952E+03;3;  3.0918634E+00;  0.0000000E+00;  1.2586087E+00;0;  1.3193002E-01;  4.0288211E+04;  0.0000000E+00; -2.0318551E-01;  4.0000000E+04;  0.0000000E+00;  3.9971781E+04;  1.3157503E-01;  0.0000000E+00;  3.5499252E-04;  3.8204768E+03;
  3.4100085E-01;  9.9999998E-03; -1.3006502E-01;4537; -1.3350461E-02;  0.0000000E+00; -6.4026892E-05;  1.0032780E+03;  1.0000000E-01;  2.7157749E+03;3;  3.7906311E+00;  0.0000000E+00;  1.1183085E+00;0;  1.3437676E-01;  4.0296605E+04;  0.0000000E+00; -1.8843004E-01;  4.0000000E+04;  0.0000000E+00;  3.9969621E+04;  1.3383524E-01;  0.0000000E+00;  5.4151606E-04;  4.0876304E+03;
  3.4098354E-01;  9.9999998E-03; -1.2005114E-01;4538; -1.1040926E-02;  0.0000000E+00;  5.7614746E-04;  1.0032802E+03;  1.0000000E-01;  2.7175525E+03;3;  4.7486901E+00;  0.0000000E+00;  8.3648992E-01;0;  1.3603815E-01;  4.0298262E+04;  0.0000000E+00; -1.6193865E-01;  4.0000000E+04;  0.0000000E+00;  3.9968027E+04;  1.3559993E-01;  0.0000000E+00;  4.3822580E-04;  4.2848823E+03;
  3.4096831E-01;  9.9999998E-03; -1.1003941E-01;4539; -9.1223139E-03;  0.0000000E+00;  8.6473685E-04;  1.0032070E+03;  1.0000000E-01;  2.6569124E+03;3;  5.5402780E+00;  0.0000000E+00;  9.5879316E-01;0;  1.3686030E-01;  4.0293250E+04;  0.0000000E+00; -1.3056187E-01;  4.0000000E+04;  0.0000000E+00;  3.9967078E+04;  1.3677429E-01;  0.0000000E+00;  8.6004722E-05;  4.3973164E+03;
  3.5093102E-01;  9.9999998E-03; -2.7008155E-01;4584; -7.1449238E-03;  0.0000000E+00;  1.6360829E-03;  1.0008375E+03;  1.0000000E-01;  6.9390625E+02;3;  3.3108845E+00;  0.0000000E+00;  1.4119592E+00;0;  6.7519121E-02;  4.0085414E+04;  0.0000000E+00;  2.0245653E-01;  4.0000000E+04;  0.0000000E+00;  3.9987566E+04;  8.1175171E-02;  0.0000000E+00; -1.3656048E-02;  1.6607612E+03;
  3.5100952E-01;  9.9999998E-03; -2.6008523E-01;4585; -7.3919566E-03;  0.0000000E+00;  1.7148840E-03;  1.0007891E+03;  1.0000000E-01;  6.5380859E+02;3;  3.4231665E+00;  0.0000000E+00;  1.4421214E+00;0;  6.9949426E-02;  4.0082332E+04;  0.0000000E+00;  3.2185206E-01;  4.0000000E+04;  0.0000000E+00;  3.9986535E+04;  8.3275080E-02;  0.0000000E+00; -1.3325651E-02;  1.8375615E+03;
  3.5110024E-01;  9.9999998E-03; -2.5009108E-01;4586; -7.6040123E-03;  0.0000000E+00;  1.7066731E-03;  1.0007929E+03;  1.0000000E-01;  6.5687024E+02;3;  3.5362661E+00;  0.0000000E+00;  1.4614911E+00;0;  7.3948041E-02;  4.0083289E+04;  0.0000000E+00;  3.8780439E-01;  4.0000000E+04;  0.0000000E+00;  3.9985184E+04;  8.5731857E-02;  0.0000000E+00; -1.1783819E-02;  2.0202347E+03;
  3.5116410E-01;  9.9999998E-03; -2.4009816E-01;4587; -7.8008487E-03;  0.0000000E+00;  1.6180922E-03;  1.0008580E+03;  1.0000000E-01;  7.1079468E+02;3;  3.6377046E+00;  0.0000000E+00;  1.4734347E+00;0;  7.8747913E-02;  4.0088754E+04;  0.0000000E+00;  4.0297312E-01;  4.0000000E+04;  0.0000000E+00;  3.9984488E+04;  8.8622205E-02;  0.0000000E+00; -9.8742926E-03;  2.1138965E+03;
  3.5118398E-01;  9.9999998E-03; -2.3010774E-01;4588; -7.9884380E-03;  0.0000000E+00;  1.5168984E-03;  1.0009807E+03;  1.0000000E-01;  8.1252014E+02;3;  3.7491384E+00;  0.0000000E+00;  1.4685103E+00;0;  8.3694972E-02;  4.0099043E+04;  0.0000000E+00;  3.7327281E-01;  4.0000000E+04;  0.0000000E+00;  3.9983730E+04;  9.1966242E-02;  0.0000000E+00; -8.2712704E-03;  2.1940325E+03;
  3.5117707E-01;  9.9999998E-03; -2.2011296E-01;4589; -8.1896251E-03;  0.0000000E+00;  1.4212545E-03;  1.0011711E+03;  1.0000000E-01;  9.7024408E+02;3;  3.8636408E+00;  0.0000000E+00;  1.4729060E+00;0;  8.8740028E-02;  4.0113664E+04;  0.0000000E+00;  3.0698490E-01;  4.0000000E+04;  0.0000000E+00;  3.9984094E+04;  9.5710263E-02;  0.0000000E+00; -6.9702314E-03;  2.1358494E+03;
  3.5115564E-01;  9.9999998E-03; -2.1011005E-01;4590; -8.3983373E-03;  0.0000000E+00;  1.3319739E-03;  1.0014167E+03;  1.0000000E-01;  1.1736951E+03;3;  3.9833488E+00;  0.0000000E+00;  1.4669236E+00;0;  9.3907692E-02;  4.0132348E+04;  0.0000000E+00;  2.1524861E-01;  4.0000000E+04;  0.0000000E+00;  3.9984719E+04;  9.9773996E-02;  0.0000000E+00; -5.8663008E-03;  2.0667590E+03;
  3.5112682E-01;  9.9999998E-03; -2.0010315E-01;4591; -8.6030168E-03;  0.0000000E+00;  1.2554199E-03;  1.0016860E+03;  1.0000000E-01;  1.3967999E+03;3;  4.1120996E+00;  0.0000000E+00;  1.4619464E+00;0;  9.9158041E-02;  4.0154441E+04;  0.0000000E+00;  1.1031917E-01;  4.0000000E+04;  0.0000000E+00;  3.9984055E+04;  1.0404272E-01;  0.0000000E+00; -4.8846807E-03;  2.1422361E+03;
  3.5109541E-01;  9.9999998E-03; -1.9009623E-01;4592; -8.8047851E-03;  0.0000000E+00;  1.1912560E-03;  1.0019648E+03;  1.0000000E-01;  1.6278057E+03;3;  4.2435303E+00;  0.0000000E+00;  1.4463222E+00;0;  1.0439797E-01;  4.0178332E+04;  0.0000000E+00;  5.6592682E-03;  4.0000000E+04;  0.0000000E+00;  3.9982543E+04;  1.0837217E-01;  0.0000000E+00; -3.9742026E-03;  2.3638652E+03;
  3.5106394E-01;  9.9999998E-03; -1.8009020E-01;4593; -8.9600645E-03;  0.0000000E+00;  1.1513417E-03;  1.0022391E+03;  1.0000000E-01;  1.8550585E+03;3;  4.3713193E+00;  0.0000000E+00;  1.4234743E+00;0;  1.0948288E-01;  4.0202641E+04;  0.0000000E+00; -8.5927896E-02;  4.0000000E+04;  0.0000000E+00;  3.9980160E+04;  1.1260415E-01;  0.0000000E+00; -3.1212629E-03;  2.6749788E+03;
  3.5103402E-01;  9.9999998E-03; -1.7008433E-01;4594; -8.9353165E-03;  0.0000000E+00;  1.1670126E-03;  1.0024948E+03;  1.0000000E-01;  2.0668057E+03;3;  4.5086675E+00;  0.0000000E+00;  1.3850995E+00;0;  1.1424663E-01;  4.0225625E+04;  0.0000000E+00; -1.5455279E-01;  4.0000000E+04;  0.0000000E+00;  3.9977562E+04;  1.1658603E-01;  0.0000000E+00; -2.3394008E-03;  3.0278093E+03;
  3.5100681E-01;  9.9999998E-03; -1.6007759E-01;4595; -8.6182160E-03;  0.0000000E+00;  1.2680822E-03;  1.0027046E+03;  1.0000000E-01;  2.2407266E+03;3;  4.6918144E+00;  0.0000000E+00;  1.3373721E+00;0;  1.1852286E-01;  4.0245262E+04;  0.0000000E+00; -1.9518574E-01;  4.0000000E+04;  0.0000000E+00;  3.9974984E+04;  1.2018771E-01;  0.0000000E+00; -1.6648499E-03;  3.3884827E+03;
  3.5098198E-01;  9.9999998E-03; -1.5006968E-01;4596; -8.1613557E-03;  0.0000000E+00;  1.3753499E-03;  1.0028646E+03;  1.0000000E-01;  2.3732661E+03;3;  4.9590402E+00;  0.0000000E+00;  1.3107070E+00;0;  1.2215015E-01;  4.0260621E+04;  0.0000000E+00; -2.0821682E-01;  4.0000000E+04;  0.0000000E+00;  3.9972203E+04;  1.2330057E-01;  0.0000000E+00; -1.1504218E-03;  3.7292935E+03;
  3.5096028E-01;  9.9999998E-03; -1.4006059E-01;4597; -7.7449498E-03;  0.0000000E+00;  1.4129580E-03;  1.0029558E+03;  1.0000000E-01;  2.4488193E+03;3;  5.2991414E+00;  0.0000000E+00;  1.2964175E+00;0;  1.2498049E-01;  4.0270336E+04;  0.0000000E+00; -1.9845101E-01;  4.0000000E+04;  0.0000000E+00;  3.9969973E+04;  1.2583035E-01;  0.0000000E+00; -8.4985502E-04;  4.0258684E+03;
  3.5094261E-01;  9.9999998E-03; -1.3005075E-01;4598; -7.4090860E-03;  0.0000000E+00;  1.3817803E-03;  1.0029810E+03;  1.0000000E-01;  2.4696584E+03;3;  5.6364117E+00;  0.0000000E+00;  1.2648199E+00;0;  1.2690368E-01;  4.0273992E+04;  0.0000000E+00; -1.7312992E-01;  4.0000000E+04;  0.0000000E+00;  3.9968172E+04;  1.2770170E-01;  0.0000000E+00; -7.9802354E-04;  4.2583052E+03;
  3.5092896E-01;  9.9999998E-03; -1.2004081E-01;4599; -7.1547613E-03;  0.0000000E+00;  1.3058179E-03;  1.0029349E+03;  1.0000000E-01;  2.4315359E+03;3;  5.9255419E+00;  0.0000000E+00;  1.2093021E+00;0;  1.2786433E-01;  4.0271586E+04;  0.0000000E+00; -1.3981347E-01;  4.0000000E+04;  0.0000000E+00;  3.9966703E+04;  1.2886180E-01;  0.0000000E+00; -9.9746417E-04;  4.4120957E+03;
  3.5091889E-01;  9.9999998E-03; -1.1003149E-01;4600; -6.9716657E-03;  0.0000000E+00;  1.1978714E-03;  1.0028271E+03;  1.0000000E-01;  2.3422546E+03;3;  6.1763773E+00;  0.0000000E+00;  1.1350740E+00;0;  1.2787920E-01;  4.0263527E+04;  0.0000000E+00; -1.0483135E-01;  4.0000000E+04;  0.0000000E+00;  3.9966172E+04;  1.2928794E-01;  0.0000000E+00; -1.4087379E-03;  4.4786470E+03;
  3.6093307E-01;  9.9999998E-03; -2.7008167E-01;4645; -7.3432322E-03;  0.0000000E+00;  1.7096857E-03;  1.0007414E+03;  1.0000000E-01;  6.1420483E+02;3;  3.2905166E+00;  0.0000000E+00;  1.2929963E+00;0;  5.3725611E-02;  4.0073023E+04;  0.0000000E+00;  1.9337788E-01;  4.0000000E+04;  0.0000000E+00;  3.9990395E+04;  6.4861074E-02;  0.0000000E+00; -1.1135462E-02;  1.2857766E+03;
  3.6100355E-01;  9.9999998E-03; -2.6008525E-01;4646; -7.5679393E-03;  0.0000000E+00;  1.8501660E-03;  1.0007531E+03;  1.0000000E-01;  6.2398230E+02;3;  3.3953969E+00;  0.0000000E+00;  1.3390343E+00;0;  5.5883713E-02;  4.0075066E+04;  0.0000000E+00;  2.7690309E-01;  4.0000000E+04;  0.0000000E+00;  3.9989367E+04;  6.7476422E-02;  0.0000000E+00; -1.1592710E-02;  1.4616632E+03;
  3.6107939E-01;  9.9999998E-03; -2.5009206E-01;4647; -7.7596549E-03;  0.0000000E+00;  1.9337959E-03;  1.0007991E+03;  1.0000000E-01;  6.6200592E+02;3;  3.5045991E+00;  0.0000000E+00;  1.3763899E+00;0;  5.9669174E-02;  4.0080516E+04;  0.0000000E+00;  3.1903529E-01;  4.0000000E+04;  0.0000000E+00;  3.9987219E+04;  7.0488118E-02;  0.0000000E+00; -1.0818943E-02;  1.7433232E+03;
  3.6113140E-01;  9.9999998E-03; -2.4010134E-01;4648; -7.9099406E-03;  0.0000000E+00;  1.9304004E-03;  1.0008876E+03;  1.0000000E-01;  7.3538654E+02;3;  3.6109788E+00;  0.0000000E+00;  1.3931597E+00;0;  6.4609043E-02;  4.0089395E+04;  0.0000000E+00;  3.2099029E-01;  4.0000000E+04;  0.0000000E+00;  3.9985336E+04;  7.3949374E-02;  0.0000000E+00; -9.3403310E-03;  1.9756368E+03;
  3.6114889E-01;  9.9999998E-03; -2.3011036E-01;4649; -8.0325305E-03;  0.0000000E+00;  1.8708132E-03;  1.0010343E+03;  1.0000000E-01;  8.5686456E+02;3;  3.7296355E+00;  0.0000000E+00;  1.3849807E+00;0;  7.0019364E-02;  4.0101836E+04;  0.0000000E+00;  2.8687650E-01;  4.0000000E+04;  0.0000000E+00;  3.9984453E+04;  7.7864774E-02;  0.0000000E+00; -7.8454055E-03;  2.0706345E+03;
  3.6114329E-01;  9.9999998E-03; -2.2011261E-01;4650; -8.1221499E-03;  0.0000000E+00;  1.7964344E-03;  1.0012346E+03;  1.0000000E-01;  1.0227858E+03;3;  3.8489320E+00;  0.0000000E+00;  1.3762212E+00;0;  7.5572453E-02;  4.0117297E+04;  0.0000000E+00;  2.2351669E-01;  4.0000000E+04;  0.0000000E+00;  3.9985078E+04;  8.2177892E-02;  0.0000000E+00; -6.6054394E-03;  2.0115100E+03;
  3.6112040E-01;  9.9999998E-03; -2.1010670E-01;4651; -8.1682689E-03;  0.0000000E+00;  1.7584511E-03;  1.0014666E+03;  1.0000000E-01;  1.2149779E+03;3;  3.9811492E+00;  0.0000000E+00;  1.3703554E+00;0;  8.1160486E-02;  4.0135555E+04;  0.0000000E+00;  1.4065745E-01;  4.0000000E+04;  0.0000000E+00;  3.9985234E+04;  8.6800516E-02;  0.0000000E+00; -5.6400290E-03;  1.9913834E+03;
  3.6108753E-01;  9.9999998E-03; -2.0009701E-01;4652; -8.1576155E-03;  0.0000000E+00;  1.7589518E-03;  1.0017018E+03;  1.0000000E-01;  1.4099353E+03;3;  4.1330824E+00;  0.0000000E+00;  1.3669473E+00;0;  8.6772032E-02;  4.0155520E+04;  0.0000000E+00;  4.9734775E-02;  4.0000000E+04;  0.0000000E+00;  3.9984191E+04;  9.1596365E-02;  0.0000000E+00; -4.8243343E-03;  2.1368152E+03;
  3.6105055E-01;  9.9999998E-03; -1.9008733E-01;4653; -8.0771977E-03;  0.0000000E+00;  1.7777318E-03;  1.0019349E+03;  1.0000000E-01;  1.6030162E+03;3;  4.3144808E+00;  0.0000000E+00;  1.3704330E+00;0;  9.2303246E-02;  4.0176238E+04;  0.0000000E+00; -3.7397921E-02;  4.0000000E+04;  0.0000000E+00;  3.9981934E+04;  9.6393205E-02;  0.0000000E+00; -4.0899618E-03;  2.4229412E+03;
  3.6101294E-01;  9.9999998E-03; -1.8007877E-01;4654; -7.9241870E-03;  0.0000000E+00;  1.7971098E-03;  1.0021534E+03;  1.0000000E-01;  1.7840482E+03;3;  4.5370073E+00;  0.0000000E+00;  1.3750129E+00;0;  9.7570375E-02;  4.0196387E+04;  0.0000000E+00; -1.1005591E-01;  4.0000000E+04;  0.0000000E+00;  3.9979340E+04;  1.0100053E-01;  0.0000000E+00; -3.4301563E-03;  2.7810696E+03;
  3.6097795E-01;  9.9999998E-03; -1.7007108E-01;4655; -7.7133323E-03;  0.0000000E+00;  1.8022812E-03;  1.0023412E+03;  1.0000000E-01;  1.9395994E+03;3;  4.7992930E+00;  0.0000000E+00;  1.3846066E+00;0;  1.0236690E-01;  4.0214367E+04;  0.0000000E+00; -1.6044007E-01;  4.0000000E+04;  0.0000000E+00;  3.9976477E+04;  1.0523051E-01;  0.0000000E+00; -2.8636106E-03;  3.1590308E+03;
  3.6094791E-01;  9.9999998E-03; -1.6006371E-01;4656; -7.4735191E-03;  0.0000000E+00;  1.7825440E-03;  1.0024922E+03;  1.0000000E-01;  2.0647317E+03;3;  5.0852809E+00;  0.0000000E+00;  1.3786777E+00;0;  1.0650117E-01;  4.0228957E+04;  0.0000000E+00; -1.8510014E-01;  4.0000000E+04;  0.0000000E+00;  3.9973613E+04;  1.0892035E-01;  0.0000000E+00; -2.4191798E-03;  3.5230740E+03;
  3.6092284E-01;  9.9999998E-03; -1.5005626E-01;4657; -7.2306194E-03;  0.0000000E+00;  1.7358334E-03;  1.0025875E+03;  1.0000000E-01;  2.1437417E+03;3;  5.3653049E+00;  0.0000000E+00;  1.3535697E+00;0;  1.0981655E-01;  4.0239270E+04;  0.0000000E+00; -1.8532921E-01;  4.0000000E+04;  0.0000000E+00;  3.9970977E+04;  1.1194570E-01;  0.0000000E+00; -2.1291527E-03;  3.8486174E+03;
  3.6090270E-01;  9.9999998E-03; -1.4004859E-01;4658; -7.0070615E-03;  0.0000000E+00;  1.6591740E-03;  1.0026275E+03;  1.0000000E-01;  2.1768271E+03;3;  5.6352663E+00;  0.0000000E+00;  1.3021053E+00;0;  1.1219638E-01;  4.0244344E+04;  0.0000000E+00; -1.6630875E-01;  4.0000000E+04;  0.0000000E+00;  3.9969035E+04;  1.1422034E-01;  0.0000000E+00; -2.0239567E-03;  4.1161938E+03;
  3.6088866E-01;  9.9999998E-03; -1.3004087E-01;4659; -6.8195490E-03;  0.0000000E+00;  1.5581368E-03;  1.0026057E+03;  1.0000000E-01;  2.1587537E+03;3;  5.8812799E+00;  0.0000000E+00;  1.2426491E+00;0;  1.1356896E-01;  4.0244332E+04;  0.0000000E+00; -1.3529001E-01;  4.0000000E+04;  0.0000000E+00;  3.9967293E+04;  1.1569262E-01;  0.0000000E+00; -2.1236553E-03;  4.3115132E+03;
  3.6088043E-01;  9.9999998E-03; -1.2003337E-01;4660; -6.6780690E-03;  0.0000000E+00;  1.4345467E-03;  1.0025283E+03;  1.0000000E-01;  2.0946567E+03;3;  6.1026850E+00;  0.0000000E+00;  1.1599774E+00;0;  1.1392196E-01;  4.0238863E+04;  0.0000000E+00; -9.9513754E-02;  4.0000000E+04;  0.0000000E+00;  3.9966453E+04;  1.1634675E-01;  0.0000000E+00; -2.4247940E-03;  4.4255493E+03;
  3.6087716E-01;  9.9999998E-03; -1.1002640E-01;4661; -6.5883859E-03;  0.0000000E+00;  1.2942861E-03;  1.0024030E+03;  1.0000000E-01;  1.9907583E+03;3;  6.3118353E+00;  0.0000000E+00;  1.0663251E+00;0;  1.1330769E-01;  4.0228867E+04;  0.0000000E+00; -6.4778276E-02;  4.0000000E+04;  0.0000000E+00;  3.9966047E+04;  1.1620031E-01;  0.0000000E+00; -2.8926157E-03;  4.4552158E+03;
  3.7090519E-01;  9.9999998E-03; -2.7008018E-01;4706; -7.6113031E-03;  0.0000000E+00;  1.7389613E-03;  1.0006348E+03;  1.0000000E-01;  5.2591101E+02;3;  3.2626855E+00;  0.0000000E+00;  1.1719505E+00;0;  4.0071663E-02;  4.0059992E+04;  0.0000000E+00;  1.2746626E-01;  4.0000000E+04;  0.0000000E+00;  3.9993379E+04;  4.8466731E-02;  0.0000000E+00; -8.3950693E-03;  9.2291156E+02;
  3.7096336E-01;  9.9999998E-03; -2.6008302E-01;4707; -7.7992450E-03;  0.0000000E+00;  1.9044600E-03;  1.0006976E+03;  1.0000000E-01;  5.7795892E+02;3;  3.3649611E+00;  0.0000000E+00;  1.2117928E+00;0;  4.2032290E-02;  4.0066062E+04;  0.0000000E+00;  1.9544894E-01;  4.0000000E+04;  0.0000000E+00;  3.9992297E+04;  5.1387593E-02;  0.0000000E+00; -9.3553020E-03;  1.0621029E+03;
  3.7102216E-01;  9.9999998E-03; -2.5008935E-01;4708; -7.9516368E-03;  0.0000000E+00;  2.0557018E-03;  1.0007744E+03;  1.0000000E-01;  6.4156207E+02;3;  3.4760430E+00;  0.0000000E+00;  1.2704028E+00;0;  4.5391031E-02;  4.0074730E+04;  0.0000000E+00;  2.3096642E-01;  4.0000000E+04;  0.0000000E+00;  3.9989898E+04;  5.4699764E-02;  0.0000000E+00; -9.3087321E-03;  1.3751514E+03;
  3.7106529E-01;  9.9999998E-03; -2.4009912E-01;4709; -8.0672344E-03;  0.0000000E+00;  2.1107229E-03;  1.0008793E+03;  1.0000000E-01;  7.2847314E+02;3;  3.5915186E+00;  0.0000000E+00;  1.2938005E+00;0;  5.0148971E-02;  4.0085703E+04;  0.0000000E+00;  2.3336102E-01;  4.0000000E+04;  0.0000000E+00;  3.9987219E+04;  5.8427535E-02;  0.0000000E+00; -8.2785645E-03;  1.7162874E+03;
  3.7108406E-01;  9.9999998E-03; -2.3010711E-01;4710; -8.1460457E-03;  0.0000000E+00;  2.0741394E-03;  1.0010336E+03;  1.0000000E-01;  8.5627203E+02;3;  3.7125559E+00;  0.0000000E+00;  1.2913253E+00;0;  5.5586912E-02;  4.0098996E+04;  0.0000000E+00;  2.0610882E-01;  4.0000000E+04;  0.0000000E+00;  3.9986016E+04;  6.2567711E-02;  0.0000000E+00; -6.9807991E-03;  1.8578287E+03;
  3.7108269E-01;  9.9999998E-03; -2.2010727E-01;4711; -8.1717316E-03;  0.0000000E+00;  2.0146554E-03;  1.0012260E+03;  1.0000000E-01;  1.0157737E+03;3;  3.8380575E+00;  0.0000000E+00;  1.2789412E+00;0;  6.1152112E-02;  4.0114387E+04;  0.0000000E+00;  1.5555613E-01;  4.0000000E+04;  0.0000000E+00;  3.9986230E+04;  6.7068450E-02;  0.0000000E+00; -5.9163393E-03;  1.8426737E+03;
  3.7106532E-01;  9.9999998E-03; -2.1009982E-01;4712; -8.1353076E-03;  0.0000000E+00;  1.9970825E-03;  1.0014317E+03;  1.0000000E-01;  1.1861392E+03;3;  3.9951305E+00;  0.0000000E+00;  1.2837346E+00;0;  6.6690885E-02;  4.0131297E+04;  0.0000000E+00;  9.0143733E-02;  4.0000000E+04;  0.0000000E+00;  3.9986023E+04;  7.1837254E-02;  0.0000000E+00; -5.1463726E-03;  1.8918143E+03;
  3.7103614E-01;  9.9999998E-03; -2.0008890E-01;4713; -8.0254991E-03;  0.0000000E+00;  2.0109694E-03;  1.0016290E+03;  1.0000000E-01;  1.3495913E+03;3;  4.1940274E+00;  0.0000000E+00;  1.3098722E+00;0;  7.2203115E-02;  4.0148641E+04;  0.0000000E+00;  1.9451343E-02;  4.0000000E+04;  0.0000000E+00;  3.9984395E+04;  7.6735288E-02;  0.0000000E+00; -4.5321728E-03;  2.1016987E+03;
  3.7100175E-01;  9.9999998E-03; -1.9007802E-01;4714; -7.8583946E-03;  0.0000000E+00;  2.0200149E-03;  1.0018104E+03;  1.0000000E-01;  1.4999081E+03;3;  4.4231963E+00;  0.0000000E+00;  1.3291308E+00;0;  7.7570476E-02;  4.0165883E+04;  0.0000000E+00; -4.6735603E-02;  4.0000000E+04;  0.0000000E+00;  3.9981871E+04;  8.1581779E-02;  0.0000000E+00; -4.0112999E-03;  2.4339287E+03;
  3.7096593E-01;  9.9999998E-03; -1.8006843E-01;4715; -7.6519768E-03;  0.0000000E+00;  2.0088963E-03;  1.0019713E+03;  1.0000000E-01;  1.6331389E+03;3;  4.6751599E+00;  0.0000000E+00;  1.3386962E+00;0;  8.2592696E-02;  4.0181605E+04;  0.0000000E+00; -9.9834748E-02;  4.0000000E+04;  0.0000000E+00;  3.9978883E+04;  8.6178720E-02;  0.0000000E+00; -3.5860213E-03;  2.8176250E+03;
  3.7093076E-01;  9.9999998E-03; -1.7006017E-01;4716; -7.4217906E-03;  0.0000000E+00;  1.9760705E-03;  1.0020993E+03;  1.0000000E-01;  1.7392100E+03;3;  4.9433470E+00;  0.0000000E+00;  1.3323883E+00;0;  8.7063976E-02;  4.0195113E+04;  0.0000000E+00; -1.3369595E-01;  4.0000000E+04;  0.0000000E+00;  3.9976023E+04;  9.0331756E-02;  0.0000000E+00; -3.2677795E-03;  3.2014392E+03;
  3.7089959E-01;  9.9999998E-03; -1.6005312E-01;4717; -7.1867956E-03;  0.0000000E+00;  1.9196402E-03;  1.0021924E+03;  1.0000000E-01;  1.8163435E+03;3;  5.2116270E+00;  0.0000000E+00;  1.3123794E+00;0;  9.0800598E-02;  4.0205020E+04;  0.0000000E+00; -1.4573690E-01;  4.0000000E+04;  0.0000000E+00;  3.9973203E+04;  9.3869247E-02;  0.0000000E+00; -3.0686457E-03;  3.5540432E+03;
  3.7087560E-01;  9.9999998E-03; -1.5004690E-01;4718; -6.9634067E-03;  0.0000000E+00;  1.8398736E-03;  1.0022396E+03;  1.0000000E-01;  1.8554536E+03;3;  5.4791617E+00;  0.0000000E+00;  1.2700236E+00;0;  9.3656793E-02;  4.0211074E+04;  0.0000000E+00; -1.3741520E-01;  4.0000000E+04;  0.0000000E+00;  3.9970848E+04;  9.6661054E-02;  0.0000000E+00; -3.0042597E-03;  3.8551084E+03;
  3.7085840E-01;  9.9999998E-03; -1.4004113E-01;4719; -6.7679500E-03;  0.0000000E+00;  1.7384571E-03;  1.0022330E+03;  1.0000000E-01;  1.8500216E+03;3;  5.7239695E+00;  0.0000000E+00;  1.2147030E+00;0;  9.5538341E-02;  4.0212480E+04;  0.0000000E+00; -1.1373883E-01;  4.0000000E+04;  0.0000000E+00;  3.9968871E+04;  9.8629303E-02;  0.0000000E+00; -3.0909637E-03;  4.0903599E+03;
  3.7084761E-01;  9.9999998E-03; -1.3003556E-01;4720; -6.6117356E-03;  0.0000000E+00;  1.6176713E-03;  1.0021823E+03;  1.0000000E-01;  1.8080475E+03;3;  5.9586759E+00;  0.0000000E+00;  1.1421878E+00;0;  9.6404143E-02;  4.0209602E+04;  0.0000000E+00; -8.1587337E-02;  4.0000000E+04;  0.0000000E+00;  3.9967523E+04;  9.9742621E-02;  0.0000000E+00; -3.3384815E-03;  4.2505767E+03;
  3.7084404E-01;  9.9999998E-03; -1.2003024E-01;4721; -6.5023834E-03;  0.0000000E+00;  1.4847581E-03;  1.0020864E+03;  1.0000000E-01;  1.7285436E+03;3;  6.1804085E+00;  0.0000000E+00;  1.0661362E+00;0;  9.6267641E-02;  4.0202574E+04;  0.0000000E+00; -4.7636550E-02;  4.0000000E+04;  0.0000000E+00;  3.9966750E+04;  1.0000748E-01;  0.0000000E+00; -3.7398448E-03;  4.3317524E+03;
  3.7084612E-01;  9.9999998E-03; -1.1002522E-01;4722; -6.4437743E-03;  0.0000000E+00;  1.3455051E-03;  1.0019550E+03;  1.0000000E-01;  1.6196084E+03;3;  6.3785701E+00;  0.0000000E+00;  9.8542643E-01;0;  9.5204517E-02;  4.0191938E+04;  0.0000000E+00; -1.7014036E-02;  4.0000000E+04;  0.0000000E+00;  3.9966789E+04;  9.9469423E-02;  0.0000000E+00; -4.2649098E-03;  4.3351685E+03;
  3.8085869E-01;  9.9999998E-03; -2.7007693E-01;4767; -7.9219965E-03;  0.0000000E+00;  1.7571581E-03;  1.0004990E+03;  1.0000000E-01;  4.1342038E+02;3;  3.2446675E+00;  0.0000000E+00;  1.0402408E+00;0;  2.7294705E-02;  4.0045234E+04;  0.0000000E+00;  5.2619714E-02;  4.0000000E+04;  0.0000000E+00;  3.9995938E+04;  3.3249658E-02;  0.0000000E+00; -5.9549524E-03;  5.7634198E+02;
  3.8090262E-01;  9.9999998E-03; -2.6007855E-01;4768; -8.0629839E-03;  0.0000000E+00;  1.9117277E-03;  1.0006011E+03;  1.0000000E-01;  4.9796118E+02;3;  3.3428206E+00;  0.0000000E+00;  1.0823853E+00;0;  2.9209625E-02;  4.0054094E+04;  0.0000000E+00;  1.0827810E-01;  4.0000000E+04;  0.0000000E+00;  3.9995480E+04;  3.6252428E-02;  0.0000000E+00; -7.0428033E-03;  6.5320074E+02;
  3.8094729E-01;  9.9999998E-03; -2.5008321E-01;4769; -8.1703039E-03;  0.0000000E+00;  2.0983722E-03;  1.0007067E+03;  1.0000000E-01;  5.8546490E+02;3;  3.4508004E+00;  0.0000000E+00;  1.1416526E+00;0;  3.2062970E-02;  4.0064625E+04;  0.0000000E+00;  1.3943709E-01;  4.0000000E+04;  0.0000000E+00;  3.9993102E+04;  3.9608486E-02;  0.0000000E+00; -7.5455168E-03;  9.4376593E+02;
  3.8098487E-01;  9.9999998E-03; -2.4009214E-01;4770; -8.2458211E-03;  0.0000000E+00;  2.1936945E-03;  1.0008165E+03;  1.0000000E-01;  6.7652405E+02;3;  3.5696759E+00;  0.0000000E+00;  1.1792724E+00;0;  3.6363613E-02;  4.0076859E+04;  0.0000000E+00;  1.4579383E-01;  4.0000000E+04;  0.0000000E+00;  3.9989852E+04;  4.3321576E-02;  0.0000000E+00; -6.9579622E-03;  1.3611918E+03;
  3.8100508E-01;  9.9999998E-03; -2.3009944E-01;4771; -8.2796710E-03;  0.0000000E+00;  2.1882311E-03;  1.0009623E+03;  1.0000000E-01;  7.9721198E+02;3;  3.6966243E+00;  0.0000000E+00;  1.1944916E+00;0;  4.1424260E-02;  4.0090488E+04;  0.0000000E+00;  1.3051784E-01;  4.0000000E+04;  0.0000000E+00;  3.9987977E+04;  4.7385726E-02;  0.0000000E+00; -5.9614647E-03;  1.5910048E+03;
  3.8100818E-01;  9.9999998E-03; -2.2009911E-01;4772; -8.2663149E-03;  0.0000000E+00;  2.1430440E-03;  1.0011368E+03;  1.0000000E-01;  9.4180048E+02;3;  3.8318210E+00;  0.0000000E+00;  1.1814774E+00;0;  4.6639469E-02;  4.0104883E+04;  0.0000000E+00;  9.8236509E-02;  4.0000000E+04;  0.0000000E+00;  3.9987535E+04;  5.1753160E-02;  0.0000000E+00; -5.1136925E-03;  1.6597568E+03;
  3.8099757E-01;  9.9999998E-03; -2.1009184E-01;4773; -8.1915986E-03;  0.0000000E+00;  2.1131956E-03;  1.0013099E+03;  1.0000000E-01;  1.0852037E+03;3;  3.9941862E+00;  0.0000000E+00;  1.1803807E+00;0;  5.1807012E-02;  4.0119973E+04;  0.0000000E+00;  5.5094700E-02;  4.0000000E+04;  0.0000000E+00;  3.9986652E+04;  5.6332581E-02;  0.0000000E+00; -4.5255679E-03;  1.7831969E+03;
  3.8097656E-01;  9.9999998E-03; -2.0008151E-01;4774; -8.0331638E-03;  0.0000000E+00;  2.1084575E-03;  1.0014680E+03;  1.0000000E-01;  1.2162618E+03;3;  4.2140899E+00;  0.0000000E+00;  1.2133106E+00;0;  5.6874730E-02;  4.0134691E+04;  0.0000000E+00;  8.2111359E-03;  4.0000000E+04;  0.0000000E+00;  3.9984578E+04;  6.0991332E-02;  0.0000000E+00; -4.1166041E-03;  2.0425724E+03;
  3.8094893E-01;  9.9999998E-03; -1.9007111E-01;4775; -7.8228842E-03;  0.0000000E+00;  2.0994069E-03;  1.0016017E+03;  1.0000000E-01;  1.3269747E+03;3;  4.4633532E+00;  0.0000000E+00;  1.2346048E+00;0;  6.1738871E-02;  4.0148258E+04;  0.0000000E+00; -3.5088658E-02;  4.0000000E+04;  0.0000000E+00;  3.9981934E+04;  6.5561205E-02;  0.0000000E+00; -3.8223341E-03;  2.3975710E+03;
  3.8091898E-01;  9.9999998E-03; -1.8006200E-01;4776; -7.5853635E-03;  0.0000000E+00;  2.0709415E-03;  1.0017137E+03;  1.0000000E-01;  1.4197128E+03;3;  4.7280421E+00;  0.0000000E+00;  1.2414160E+00;0;  6.6219203E-02;  4.0160273E+04;  0.0000000E+00; -6.8293095E-02;  4.0000000E+04;  0.0000000E+00;  3.9978926E+04;  6.9853090E-02;  0.0000000E+00; -3.6338887E-03;  2.7841670E+03;
  3.8088962E-01;  9.9999998E-03; -1.7005441E-01;4777; -7.3384242E-03;  0.0000000E+00;  2.0208948E-03;  1.0017950E+03;  1.0000000E-01;  1.4871677E+03;3;  4.9946375E+00;  0.0000000E+00;  1.2309539E+00;0;  7.0127830E-02;  4.0169688E+04;  0.0000000E+00; -8.6696729E-02;  4.0000000E+04;  0.0000000E+00;  3.9976062E+04;  7.3681034E-02;  0.0000000E+00; -3.5532024E-03;  3.1558135E+03;
  3.8086212E-01;  9.9999998E-03; -1.6004828E-01;4778; -7.0977076E-03;  0.0000000E+00;  1.9500108E-03;  1.0018396E+03;  1.0000000E-01;  1.5241050E+03;3;  5.2619281E+00;  0.0000000E+00;  1.2018420E+00;0;  7.3302828E-02;  4.0175801E+04;  0.0000000E+00; -8.8330902E-02;  4.0000000E+04;  0.0000000E+00;  3.9973449E+04;  7.6885268E-02;  0.0000000E+00; -3.5824438E-03;  3.4850493E+03;
  3.8084003E-01;  9.9999998E-03; -1.5004331E-01;4779; -6.8791872E-03;  0.0000000E+00;  1.8607898E-03;  1.0018450E+03;  1.0000000E-01;  1.5285492E+03;3;  5.5203719E+00;  0.0000000E+00;  1.1619813E+00;0;  7.5616606E-02;  4.0178328E+04;  0.0000000E+00; -7.4546710E-02;  4.0000000E+04;  0.0000000E+00;  3.9971227E+04;  7.9342663E-02;  0.0000000E+00; -3.7260542E-03;  3.7557959E+03;
  3.8082638E-01;  9.9999998E-03; -1.4003904E-01;4780; -6.6935425E-03;  0.0000000E+00;  1.7540738E-03;  1.0018123E+03;  1.0000000E-01;  1.5013895E+03;3;  5.7692695E+00;  0.0000000E+00;  1.1044142E+00;0;  7.6990895E-02;  4.0177277E+04;  0.0000000E+00; -4.9813680E-02;  4.0000000E+04;  0.0000000E+00;  3.9969699E+04;  8.0980740E-02;  0.0000000E+00; -3.9898460E-03;  3.9582439E+03;
  3.8081983E-01;  9.9999998E-03; -1.3003509E-01;4781; -6.5512769E-03;  0.0000000E+00;  1.6360693E-03;  1.0017430E+03;  1.0000000E-01;  1.4440084E+03;3;  6.0037856E+00;  0.0000000E+00;  1.0417744E+00;0;  7.7408426E-02;  4.0172684E+04;  0.0000000E+00; -2.0264396E-02;  4.0000000E+04;  0.0000000E+00;  3.9968598E+04;  8.1784002E-02;  0.0000000E+00; -4.3755788E-03;  4.0875557E+03;
  3.8081950E-01;  9.9999998E-03; -1.2003135E-01;4782; -6.4602783E-03;  0.0000000E+00;  1.5064548E-03;  1.0016455E+03;  1.0000000E-01;  1.3633193E+03;3;  6.2230110E+00;  0.0000000E+00;  9.7455341E-01;0;  7.6903798E-02;  4.0165156E+04;  0.0000000E+00;  8.3043305E-03;  4.0000000E+04;  0.0000000E+00;  3.9967996E+04;  8.1777595E-02;  0.0000000E+00; -4.8737945E-03;  4.1437344E+03;
  3.8082561E-01;  9.9999998E-03; -1.1002771E-01;4783; -6.4252284E-03;  0.0000000E+00;  1.3668456E-03;  1.0015198E+03;  1.0000000E-01;  1.2591248E+03;3;  6.4249821E+00;  0.0000000E+00;  8.9702344E-01;0;  7.5559452E-02;  4.0155289E+04;  0.0000000E+00;  3.1679552E-02;  4.0000000E+04;  0.0000000E+00;  3.9968082E+04;  8.1018239E-02;  0.0000000E+00; -5.4587843E-03;  4.1312637E+03;
  3.9080724E-01;  9.9999998E-03; -2.7007204E-01;4828; -8.2615549E-03;  0.0000000E+00;  1.7644005E-03;  1.0003425E+03;  1.0000000E-01;  2.8374503E+02;3;  3.2319345E+00;  0.0000000E+00;  9.1595185E-01;0;  1.6270535E-02;  4.0029129E+04;  0.0000000E+00; -1.9239906E-02;  4.0000000E+04;  0.0000000E+00;  3.9998180E+04;  2.0137042E-02;  0.0000000E+00; -3.8665065E-03;  2.5946390E+02;
  3.9083940E-01;  9.9999998E-03; -2.6007217E-01;4829; -8.3511490E-03;  0.0000000E+00;  1.8979599E-03;  1.0004719E+03;  1.0000000E-01;  3.9100125E+02;3;  3.3301921E+00;  0.0000000E+00;  9.4851071E-01;0;  1.8048473E-02;  4.0039637E+04;  0.0000000E+00;  2.3087567E-02;  4.0000000E+04;  0.0000000E+00;  3.9998391E+04;  2.3008851E-02;  0.0000000E+00; -4.9603786E-03;  2.6137909E+02;
  3.9087525E-01;  9.9999998E-03; -2.5007433E-01;4830; -8.4082009E-03;  0.0000000E+00;  2.0843197E-03;  1.0005961E+03;  1.0000000E-01;  4.9381317E+02;3;  3.4363503E+00;  0.0000000E+00;  1.0037783E+00;0;  2.0431545E-02;  4.0051395E+04;  0.0000000E+00;  4.9402211E-02;  4.0000000E+04;  0.0000000E+00;  3.9996402E+04;  2.6178379E-02;  0.0000000E+00; -5.7468349E-03;  4.8763605E+02;
  3.9090839E-01;  9.9999998E-03; -2.4008171E-01;4831; -8.4382994E-03;  0.0000000E+00;  2.2171042E-03;  1.0007023E+03;  1.0000000E-01;  5.8190942E+02;3;  3.5507030E+00;  0.0000000E+00;  1.0411086E+00;0;  2.4018727E-02;  4.0064027E+04;  0.0000000E+00;  6.0518362E-02;  4.0000000E+04;  0.0000000E+00;  3.9992617E+04;  2.9641822E-02;  0.0000000E+00; -5.6230938E-03;  9.6541681E+02;
  3.9092737E-01;  9.9999998E-03; -2.3008946E-01;4832; -8.4314924E-03;  0.0000000E+00;  2.2356736E-03;  1.0008320E+03;  1.0000000E-01;  6.8936316E+02;3;  3.6777408E+00;  0.0000000E+00;  1.0608112E+00;0;  2.8467357E-02;  4.0077117E+04;  0.0000000E+00;  5.8491278E-02;  4.0000000E+04;  0.0000000E+00;  3.9990105E+04;  3.3390105E-02;  0.0000000E+00; -4.9227467E-03;  1.3312831E+03;
  3.9093333E-01;  9.9999998E-03; -2.2009051E-01;4833; -8.3810976E-03;  0.0000000E+00;  2.2003856E-03;  1.0009802E+03;  1.0000000E-01;  8.1212512E+02;3;  3.8227041E+00;  0.0000000E+00;  1.0720994E+00;0;  3.3087768E-02;  4.0090645E+04;  0.0000000E+00;  4.5766737E-02;  4.0000000E+04;  0.0000000E+00;  3.9988621E+04;  3.7376098E-02;  0.0000000E+00; -4.2883311E-03;  1.5068987E+03;
  3.9092845E-01;  9.9999998E-03; -2.1008523E-01;4834; -8.2810838E-03;  0.0000000E+00;  2.1572371E-03;  1.0011219E+03;  1.0000000E-01;  9.2945514E+02;3;  3.9826465E+00;  0.0000000E+00;  1.0621130E+00;0;  3.7638631E-02;  4.0103508E+04;  0.0000000E+00;  2.5993854E-02;  4.0000000E+04;  0.0000000E+00;  3.9987230E+04;  4.1516323E-02;  0.0000000E+00; -3.8776903E-03;  1.6937250E+03;
  3.9091513E-01;  9.9999998E-03; -2.0007697E-01;4835; -8.1021544E-03;  0.0000000E+00;  2.1235915E-03;  1.0012431E+03;  1.0000000E-01;  1.0298967E+03;3;  4.2017965E+00;  0.0000000E+00;  1.0794927E+00;0;  4.2039160E-02;  4.0115547E+04;  0.0000000E+00;  3.6739807E-03;  4.0000000E+04;  0.0000000E+00;  3.9985156E+04;  4.5692377E-02;  0.0000000E+00; -3.6532166E-03;  1.9760209E+03;
  3.9089632E-01;  9.9999998E-03; -1.9006841E-01;4836; -7.8677190E-03;  0.0000000E+00;  2.0982651E-03;  1.0013412E+03;  1.0000000E-01;  1.1111783E+03;3;  4.4654813E+00;  0.0000000E+00;  1.1096981E+00;0;  4.6189267E-02;  4.0126227E+04;  0.0000000E+00; -1.6377414E-02;  4.0000000E+04;  0.0000000E+00;  3.9982371E+04;  4.9754884E-02;  0.0000000E+00; -3.5656164E-03;  2.3263674E+03;
  3.9087421E-01;  9.9999998E-03; -1.8006065E-01;4837; -7.6122484E-03;  0.0000000E+00;  2.0595940E-03;  1.0014114E+03;  1.0000000E-01;  1.1693496E+03;3;  4.7393961E+00;  0.0000000E+00;  1.1164452E+00;0;  4.9950890E-02;  4.0134848E+04;  0.0000000E+00; -2.9769540E-02;  4.0000000E+04;  0.0000000E+00;  3.9979441E+04;  5.3538539E-02;  0.0000000E+00; -3.5876487E-03;  2.6921528E+03;
  3.9085186E-01;  9.9999998E-03; -1.7005412E-01;4838; -7.3544765E-03;  0.0000000E+00;  2.0026942E-03;  1.0014559E+03;  1.0000000E-01;  1.2061880E+03;3;  5.0146985E+00;  0.0000000E+00;  1.1073308E+00;0;  5.3163204E-02;  4.0140906E+04;  0.0000000E+00; -3.3264223E-02;  4.0000000E+04;  0.0000000E+00;  3.9976887E+04;  5.6877490E-02;  0.0000000E+00; -3.7142846E-03;  3.0346333E+03;
  3.9083233E-01;  9.9999998E-03; -1.6004899E-01;4839; -7.1109436E-03;  0.0000000E+00;  1.9290305E-03;  1.0014695E+03;  1.0000000E-01;  1.2174469E+03;3;  5.2873545E+00;  0.0000000E+00;  1.0815341E+00;0;  5.5684868E-02;  4.0144324E+04;  0.0000000E+00; -2.5615474E-02;  4.0000000E+04;  0.0000000E+00;  3.9974434E+04;  5.9626967E-02;  0.0000000E+00; -3.9420971E-03;  3.3306533E+03;
  3.9081582E-01;  9.9999998E-03; -1.5004495E-01;4840; -6.8951375E-03;  0.0000000E+00;  1.8400477E-03;  1.0014467E+03;  1.0000000E-01;  1.1985833E+03;3;  5.5485702E+00;  0.0000000E+00;  1.0414267E+00;0;  5.7416569E-02;  4.0144453E+04;  0.0000000E+00; -8.1438283E-03;  4.0000000E+04;  0.0000000E+00;  3.9972625E+04;  6.1684575E-02;  0.0000000E+00; -4.2680046E-03;  3.5671230E+03;
  3.9080572E-01;  9.9999998E-03; -1.4004172E-01;4841; -6.7181787E-03;  0.0000000E+00;  1.7382277E-03;  1.0014005E+03;  1.0000000E-01;  1.1602634E+03;3;  5.8035183E+00;  0.0000000E+00;  9.9397826E-01;0;  5.8302164E-02;  4.0142023E+04;  0.0000000E+00;  1.5406682E-02;  4.0000000E+04;  0.0000000E+00;  3.9971117E+04;  6.2991619E-02;  0.0000000E+00; -4.6894541E-03;  3.7374783E+03;
  3.9080343E-01;  9.9999998E-03; -1.3003883E-01;4842; -6.5896520E-03;  0.0000000E+00;  1.6231209E-03;  1.0013254E+03;  1.0000000E-01;  1.0981417E+03;3;  6.0426154E+00;  0.0000000E+00;  9.3911248E-01;0;  5.8337837E-02;  4.0137074E+04;  0.0000000E+00;  4.0008571E-02;  4.0000000E+04;  0.0000000E+00;  3.9970211E+04;  6.3539833E-02;  0.0000000E+00; -5.2019958E-03;  3.8401753E+03;
  3.9080706E-01;  9.9999998E-03; -1.2003590E-01;4843; -6.5129874E-03;  0.0000000E+00;  1.5005094E-03;  1.0012371E+03;  1.0000000E-01;  1.0249586E+03;3;  6.2629666E+00;  0.0000000E+00;  8.7467760E-01;0;  5.7570942E-02;  4.0130152E+04;  0.0000000E+00;  6.1068542E-02;  4.0000000E+04;  0.0000000E+00;  3.9969805E+04;  6.3365109E-02;  0.0000000E+00; -5.7941689E-03;  3.8783318E+03;
  3.9081568E-01;  9.9999998E-03; -1.1003266E-01;4844; -6.4900313E-03;  0.0000000E+00;  1.3717592E-03;  1.0011337E+03;  1.0000000E-01;  9.3923260E+02;3;  6.4665527E+00;  0.0000000E+00;  8.0917889E-01;0;  5.6089345E-02;  4.0121691E+04;  0.0000000E+00;  7.5554043E-02;  4.0000000E+04;  0.0000000E+00;  3.9970082E+04;  6.2532686E-02;  0.0000000E+00; -6.4433399E-03;  3.8585657E+03;
  4.0077201E-01;  9.9999998E-03; -2.7006599E-01;4889; -8.6196540E-03;  0.0000000E+00;  1.7653971E-03;  1.0001890E+03;  1.0000000E-01;  1.5663753E+02;3;  3.2242625E+00;  0.0000000E+00;  7.9674345E-01;0;  7.5484170E-03;  4.0013922E+04;  0.0000000E+00; -8.3975762E-02;  4.0000000E+04;  0.0000000E+00;  4.0000129E+04;  9.7242305E-03;  0.0000000E+00; -2.1758133E-03;  1.1688613E+02;
  4.0079540E-01;  9.9999998E-03; -2.6006454E-01;4890; -8.6542843E-03;  0.0000000E+00;  1.8564832E-03;  1.0003348E+03;  1.0000000E-01;  2.7742422E+02;3;  3.3197498E+00;  0.0000000E+00;  8.1546718E-01;0;  9.2329169E-03;  4.0025254E+04;  0.0000000E+00; -5.5492669E-02;  4.0000000E+04;  0.0000000E+00;  4.0000637E+04;  1.2282271E-02;  0.0000000E+00; -3.0493543E-03;  9.6365089E+01;
  4.0082332E-01;  9.9999998E-03; -2.5006393E-01;4891; -8.6604431E-03;  0.0000000E+00;  2.0291167E-03;  1.0004706E+03;  1.0000000E-01;  3.8991486E+02;3;  3.4235010E+00;  0.0000000E+00;  8.5888749E-01;0;  1.1047538E-02;  4.0037160E+04;  0.0000000E+00; -3.4782864E-02;  4.0000000E+04;  0.0000000E+00;  3.9999605E+04;  1.5081400E-02;  0.0000000E+00; -4.0338612E-03;  9.8626831E+01;
  4.0084934E-01;  9.9999998E-03; -2.4006966E-01;4892; -8.6412616E-03;  0.0000000E+00;  2.1938356E-03;  1.0005686E+03;  1.0000000E-01;  4.7109775E+02;3;  3.5380840E+00;  0.0000000E+00;  8.9267790E-01;0;  1.3756746E-02;  4.0049613E+04;  0.0000000E+00; -2.0253796E-02;  4.0000000E+04;  0.0000000E+00;  3.9995461E+04;  1.8114042E-02;  0.0000000E+00; -4.3572946E-03;  6.1608856E+02;
  4.0086561E-01;  9.9999998E-03; -2.3007897E-01;4893; -8.5934671E-03;  0.0000000E+00;  2.2383125E-03;  1.0006713E+03;  1.0000000E-01;  5.5613239E+02;3;  3.6607003E+00;  0.0000000E+00;  9.1010439E-01;0;  1.7407190E-02;  4.0061750E+04;  0.0000000E+00; -1.0962842E-02;  4.0000000E+04;  0.0000000E+00;  3.9991352E+04;  2.1364311E-02;  0.0000000E+00; -3.9571216E-03;  1.1376622E+03;
  4.0087268E-01;  9.9999998E-03; -2.2008307E-01;4894; -8.5081225E-03;  0.0000000E+00;  2.2023444E-03;  1.0007883E+03;  1.0000000E-01;  6.5311731E+02;3;  3.7983758E+00;  0.0000000E+00;  9.2467964E-01;0;  2.1292714E-02;  4.0073742E+04;  0.0000000E+00; -6.2557263E-03;  4.0000000E+04;  0.0000000E+00;  3.9989148E+04;  2.4790425E-02;  0.0000000E+00; -3.4977107E-03;  1.4224796E+03;
  4.0087125E-01;  9.9999998E-03; -2.1008088E-01;4895; -8.3815539E-03;  0.0000000E+00;  2.1505586E-03;  1.0009016E+03;  1.0000000E-01;  7.4694177E+02;3;  3.9651575E+00;  0.0000000E+00;  9.3483698E-01;0;  2.5073463E-02;  4.0084766E+04;  0.0000000E+00; -4.7491225E-03;  4.0000000E+04;  0.0000000E+00;  3.9987551E+04;  2.8321629E-02;  0.0000000E+00; -3.2481658E-03;  1.6454886E+03;
  4.0086338E-01;  9.9999998E-03; -2.0007542E-01;4896; -8.1968354E-03;  0.0000000E+00;  2.0949135E-03;  1.0009958E+03;  1.0000000E-01;  8.2496423E+02;3;  4.1747813E+00;  0.0000000E+00;  9.3874520E-01;0;  2.8674338E-02;  4.0094543E+04;  0.0000000E+00; -4.3333564E-03;  4.0000000E+04;  0.0000000E+00;  3.9985406E+04;  3.1856582E-02;  0.0000000E+00; -3.1822436E-03;  1.9181907E+03;
  4.0085104E-01;  9.9999998E-03; -1.9006908E-01;4897; -7.9555251E-03;  0.0000000E+00;  2.0505616E-03;  1.0010651E+03;  1.0000000E-01;  8.8234534E+02;3;  4.4416494E+00;  0.0000000E+00;  9.5841974E-01;0;  3.2006387E-02;  4.0102645E+04;  0.0000000E+00; -2.5289564E-03;  4.0000000E+04;  0.0000000E+00;  3.9982875E+04;  3.5270136E-02;  0.0000000E+00; -3.2637496E-03;  2.2352512E+03;
  4.0083620E-01;  9.9999998E-03; -1.8006296E-01;4898; -7.6913661E-03;  0.0000000E+00;  2.0057170E-03;  1.0011075E+03;  1.0000000E-01;  9.1750482E+02;3;  4.7295613E+00;  0.0000000E+00;  9.7902244E-01;0;  3.4964256E-02;  4.0108734E+04;  0.0000000E+00;  2.9751330E-03;  4.0000000E+04;  0.0000000E+00;  3.9980270E+04;  3.8423225E-02;  0.0000000E+00; -3.4589691E-03;  2.5590176E+03;
  4.0082142E-01;  9.9999998E-03; -1.7005773E-01;4899; -7.4305120E-03;  0.0000000E+00;  1.9480810E-03;  1.0011254E+03;  1.0000000E-01;  9.3241803E+02;3;  5.0175319E+00;  0.0000000E+00;  9.7498637E-01;0;  3.7420988E-02;  4.0112504E+04;  0.0000000E+00;  1.3777955E-02;  4.0000000E+04;  0.0000000E+00;  3.9977984E+04;  4.1176967E-02;  0.0000000E+00; -3.7559795E-03;  2.8581658E+03;
  4.0080863E-01;  9.9999998E-03; -1.6005354E-01;4900; -7.1891034E-03;  0.0000000E+00;  1.8766408E-03;  1.0011188E+03;  1.0000000E-01;  9.2688727E+02;3;  5.3002057E+00;  0.0000000E+00;  9.5537448E-01;0;  3.9263610E-02;  4.0113930E+04;  0.0000000E+00;  3.0141056E-02;  4.0000000E+04;  0.0000000E+00;  3.9975895E+04;  4.3412134E-02;  0.0000000E+00; -4.1485247E-03;  3.1125884E+03;
  4.0080047E-01;  9.9999998E-03; -1.5005027E-01;4901; -6.9795675E-03;  0.0000000E+00;  1.7924161E-03;  1.0010884E+03;  1.0000000E-01;  9.0170282E+02;3;  5.5710044E+00;  0.0000000E+00;  9.2511982E-01;0;  4.0413883E-02;  4.0113062E+04;  0.0000000E+00;  5.0635029E-02;  4.0000000E+04;  0.0000000E+00;  3.9974262E+04;  4.5042980E-02;  0.0000000E+00; -4.6290979E-03;  3.3113181E+03;
  4.0079600E-01;  9.9999998E-03; -1.4004748E-01;4902; -6.8122689E-03;  0.0000000E+00;  1.6961731E-03;  1.0010369E+03;  1.0000000E-01;  8.5903735E+02;3;  5.8258080E+00;  0.0000000E+00;  8.8052636E-01;0;  4.0844470E-02;  4.0110297E+04;  0.0000000E+00;  7.2259381E-02;  4.0000000E+04;  0.0000000E+00;  3.9973332E+04;  4.6033252E-02;  0.0000000E+00; -5.1887818E-03;  3.4498857E+03;
  4.0079692E-01;  9.9999998E-03; -1.3004477E-01;4903; -6.6920565E-03;  0.0000000E+00;  1.5918055E-03;  1.0009742E+03;  1.0000000E-01;  8.0708820E+02;3;  6.0698614E+00;  0.0000000E+00;  8.3244115E-01;0;  4.0566891E-02;  4.0105902E+04;  0.0000000E+00;  9.1280937E-02;  4.0000000E+04;  0.0000000E+00;  3.9972480E+04;  4.6384484E-02;  0.0000000E+00; -5.8175931E-03;  3.5290396E+03;
  4.0080380E-01;  9.9999998E-03; -1.2004182E-01;4904; -6.6241506E-03;  0.0000000E+00;  1.4789706E-03;  1.0009021E+03;  1.0000000E-01;  7.4733685E+02;3;  6.2884240E+00;  0.0000000E+00;  7.7130413E-01;0;  3.9630737E-02;  4.0100379E+04;  0.0000000E+00;  1.0455709E-01;  4.0000000E+04;  0.0000000E+00;  3.9972238E+04;  4.6132971E-02;  0.0000000E+00; -6.5022334E-03;  3.5541750E+03;
  4.0081400E-01;  9.9999998E-03; -1.1003843E-01;4905; -6.6073975E-03;  0.0000000E+00;  1.3627905E-03;  1.0008255E+03;  1.0000000E-01;  6.8393121E+02;3;  6.4981756E+00;  0.0000000E+00;  7.1750301E-01;0;  3.8124118E-02;  4.0094371E+04;  0.0000000E+00;  1.1038520E-01;  4.0000000E+04;  0.0000000E+00;  3.9972500E+04;  4.5346044E-02;  0.0000000E+00; -7.2219269E-03;  3.5331743E+03;
  4.1078010E-01;  9.9999998E-03; -2.7005947E-01;4950; -8.9816088E-03;  0.0000000E+00;  1.7578839E-03;  1.0000768E+03;  1.0000000E-01;  6.3701897E+01;3;  3.2198510E+00;  0.0000000E+00;  6.8748677E-01;0;  1.5070930E-03;  4.0003414E+04;  0.0000000E+00; -1.4174032E-01;  4.0000000E+04;  0.0000000E+00;  4.0001109E+04;  2.2880223E-03;  0.0000000E+00; -7.8092940E-04;  2.4992871E+02;
  4.1079429E-01;  9.9999998E-03; -2.6005650E-01;4951; -8.9645768E-03;  0.0000000E+00;  1.8010901E-03;  1.0002259E+03;  1.0000000E-01;  1.8715518E+02;3;  3.3145707E+00;  0.0000000E+00;  6.9135165E-01;0;  3.0068778E-03;  4.0014371E+04;  0.0000000E+00; -1.2541282E-01;  4.0000000E+04;  0.0000000E+00;  4.0002258E+04;  4.3902756E-03;  0.0000000E+00; -1.3833976E-03;  3.1087769E+02;
  4.1081077E-01;  9.9999998E-03; -2.5005326E-01;4952; -8.9201331E-03;  0.0000000E+00;  1.9408108E-03;  1.0003635E+03;  1.0000000E-01;  3.0112726E+02;3;  3.4141665E+00;  0.0000000E+00;  7.1317738E-01;0;  4.2538401E-03;  4.0025715E+04;  0.0000000E+00; -1.0995714E-01;  4.0000000E+04;  0.0000000E+00;  4.0001762E+04;  6.6817971E-03;  0.0000000E+00; -2.4279570E-03;  2.4886646E+02;
  4.1082591E-01;  9.9999998E-03; -2.4005753E-01;4953; -8.8516716E-03;  0.0000000E+00;  2.1314465E-03;  1.0004476E+03;  1.0000000E-01;  3.7085367E+02;3;  3.5289755E+00;  0.0000000E+00;  7.4208361E-01;0;  5.9732134E-03;  4.0037250E+04;  0.0000000E+00; -9.3908049E-02;  4.0000000E+04;  0.0000000E+00;  3.9997246E+04;  9.1515416E-03;  0.0000000E+00; -3.1783280E-03;  3.9712668E+02;
  4.1083485E-01;  9.9999998E-03; -2.3006915E-01;4954; -8.7602157E-03;  0.0000000E+00;  2.1969297E-03;  1.0005193E+03;  1.0000000E-01;  4.3030878E+02;3;  3.6476283E+00;  0.0000000E+00;  7.5634742E-01;0;  8.7213255E-03;  4.0048406E+04;  0.0000000E+00; -7.6836482E-02;  4.0000000E+04;  0.0000000E+00;  3.9992004E+04;  1.1781251E-02;  0.0000000E+00; -3.0599260E-03;  1.0553868E+03;
  4.1083893E-01;  9.9999998E-03; -2.2007717E-01;4955; -8.6404467E-03;  0.0000000E+00;  2.1601433E-03;  1.0006086E+03;  1.0000000E-01;  5.0428198E+02;3;  3.7735310E+00;  0.0000000E+00;  7.7161503E-01;0;  1.1772754E-02;  4.0058637E+04;  0.0000000E+00; -5.9043590E-02;  4.0000000E+04;  0.0000000E+00;  3.9988914E+04;  1.4534970E-02;  0.0000000E+00; -2.7622166E-03;  1.4280005E+03;
  4.1083804E-01;  9.9999998E-03; -2.1007848E-01;4956; -8.4903007E-03;  0.0000000E+00;  2.0991333E-03;  1.0006995E+03;  1.0000000E-01;  5.7953912E+02;3;  3.9325955E+00;  0.0000000E+00;  7.8260010E-01;0;  1.4705289E-02;  4.0067801E+04;  0.0000000E+00; -4.0705394E-02;  4.0000000E+04;  0.0000000E+00;  3.9987426E+04;  1.7355170E-02;  0.0000000E+00; -2.6498805E-03;  1.6530861E+03;
  4.1083252E-01;  9.9999998E-03; -2.0007561E-01;4957; -8.2969889E-03;  0.0000000E+00;  2.0367163E-03;  1.0007705E+03;  1.0000000E-01;  6.3830286E+02;3;  4.1392231E+00;  0.0000000E+00;  7.8906775E-01;0;  1.7439827E-02;  4.0075621E+04;  0.0000000E+00; -2.1551786E-02;  4.0000000E+04;  0.0000000E+00;  3.9985496E+04;  2.0160982E-02;  0.0000000E+00; -2.7211553E-03;  1.8824810E+03;
  4.1082388E-01;  9.9999998E-03; -1.9007128E-01;4958; -8.0634318E-03;  0.0000000E+00;  1.9786016E-03;  1.0008194E+03;  1.0000000E-01;  6.7889435E+02;3;  4.4022651E+00;  0.0000000E+00;  8.0331773E-01;0;  1.9917052E-02;  4.0081664E+04;  0.0000000E+00; -1.0786381E-03;  4.0000000E+04;  0.0000000E+00;  3.9983465E+04;  2.2851881E-02;  0.0000000E+00; -2.9348286E-03;  2.1417473E+03;
  4.1081408E-01;  9.9999998E-03; -1.8006678E-01;4959; -7.8017577E-03;  0.0000000E+00;  1.9269541E-03;  1.0008450E+03;  1.0000000E-01;  7.0012830E+02;3;  4.6997380E+00;  0.0000000E+00;  8.2410330E-01;0;  2.2052566E-02;  4.0085895E+04;  0.0000000E+00;  2.1076305E-02;  4.0000000E+04;  0.0000000E+00;  3.9981344E+04;  2.5317192E-02;  0.0000000E+00; -3.2646272E-03;  2.4063604E+03;
  4.1080445E-01;  9.9999998E-03; -1.7006265E-01;4960; -7.5430307E-03;  0.0000000E+00;  1.8714049E-03;  1.0008471E+03;  1.0000000E-01;  7.0180725E+02;3;  5.0043516E+00;  0.0000000E+00;  8.3196342E-01;0;  2.3752276E-02;  4.0088285E+04;  0.0000000E+00;  4.4814471E-02;  4.0000000E+04;  0.0000000E+00;  3.9979387E+04;  2.7448604E-02;  0.0000000E+00; -3.6963271E-03;  2.6502134E+03;
  4.1079748E-01;  9.9999998E-03; -1.6005908E-01;4961; -7.3066060E-03;  0.0000000E+00;  1.8060331E-03;  1.0008323E+03;  1.0000000E-01;  6.8956067E+02;3;  5.3007083E+00;  0.0000000E+00;  8.2540733E-01;0;  2.4931196E-02;  4.0088762E+04;  0.0000000E+00;  6.9269203E-02;  4.0000000E+04;  0.0000000E+00;  3.9977801E+04;  2.9153535E-02;  0.0000000E+00; -4.2223395E-03;  2.8555642E+03;
  4.1079411E-01;  9.9999998E-03; -1.5005608E-01;4962; -7.1048359E-03;  0.0000000E+00;  1.7295150E-03;  1.0008051E+03;  1.0000000E-01;  6.6704279E+02;3;  5.5794268E+00;  0.0000000E+00;  7.9866666E-01;0;  2.5538504E-02;  4.0087863E+04;  0.0000000E+00;  9.2746504E-02;  4.0000000E+04;  0.0000000E+00;  3.9976398E+04;  3.0371260E-02;  0.0000000E+00; -4.8327567E-03;  3.0127590E+03;
  4.1079539E-01;  9.9999998E-03; -1.4005327E-01;4963; -6.9448310E-03;  0.0000000E+00;  1.6445823E-03;  1.0007667E+03;  1.0000000E-01;  6.3514246E+02;3;  5.8425312E+00;  0.0000000E+00;  7.6576704E-01;0;  2.5563542E-02;  4.0085395E+04;  0.0000000E+00;  1.1292045E-01;  4.0000000E+04;  0.0000000E+00;  3.9975660E+04;  3.1077703E-02;  0.0000000E+00; -5.5141607E-03;  3.1186436E+03;
  4.1080007E-01;  9.9999998E-03; -1.3005032E-01;4964; -6.8313661E-03;  0.0000000E+00;  1.5520833E-03;  1.0007198E+03;  1.0000000E-01;  5.9642755E+02;3;  6.0864434E+00;  0.0000000E+00;  7.2199214E-01;0;  2.5034286E-02;  4.0082449E+04;  0.0000000E+00;  1.2734078E-01;  4.0000000E+04;  0.0000000E+00;  3.9975172E+04;  3.1286072E-02;  0.0000000E+00; -6.2517859E-03;  3.1756516E+03;
  4.1080758E-01;  9.9999998E-03; -1.2004699E-01;4965; -6.7670275E-03;  0.0000000E+00;  1.4532002E-03;  1.0006750E+03;  1.0000000E-01;  5.5929279E+02;3;  6.3143454E+00;  0.0000000E+00;  6.7520690E-01;0;  2.4006033E-02;  4.0079008E+04;  0.0000000E+00;  1.3430180E-01;  4.0000000E+04;  0.0000000E+00;  3.9974945E+04;  3.1035790E-02;  0.0000000E+00; -7.0297564E-03;  3.1904758E+03;
  4.1081846E-01;  9.9999998E-03; -1.1004325E-01;4966; -6.7517692E-03;  0.0000000E+00;  1.3500269E-03;  1.0006321E+03;  1.0000000E-01;  5.2363947E+02;3;  6.5233841E+00;  0.0000000E+00;  6.2577879E-01;0;  2.2555973E-02;  4.0075613E+04;  0.0000000E+00;  1.3339999E-01;  4.0000000E+04;  0.0000000E+00;  3.9975270E+04;  3.0384049E-02;  0.0000000E+00; -7.8280754E-03;  3.1716101E+03;
  4.2083615E-01;  9.9999998E-03; -2.7005333E-01;5011; -9.3317823E-03;  0.0000000E+00;  1.7392454E-03;  1.0000467E+03;  1.0000000E-01;  3.8714951E+01;3;  3.2196100E+00;  0.0000000E+00;  5.9491313E-01;0; -1.7061908E-03;  4.0000637E+04;  0.0000000E+00; -1.8605997E-01;  4.0000000E+04;  0.0000000E+00;  4.0001070E+04; -2.1833733E-03;  0.0000000E+00;  4.7718253E-04;  2.9276712E+02;
  4.2084631E-01;  9.9999998E-03; -2.6004916E-01;5012; -9.2670610E-03;  0.0000000E+00;  1.7344718E-03;  1.0001899E+03;  1.0000000E-01;  1.5732887E+02;3;  3.3173797E+00;  0.0000000E+00;  5.8711112E-01;0; -5.2375189E-04;  4.0010902E+04;  0.0000000E+00; -1.8237254E-01;  4.0000000E+04;  0.0000000E+00;  4.0002195E+04; -6.3942536E-04;  0.0000000E+00;  1.1567349E-04;  3.7005264E+02;
  4.2085093E-01;  9.9999998E-03; -2.5004378E-01;5013; -9.1786329E-03;  0.0000000E+00;  1.8311634E-03;  1.0003199E+03;  1.0000000E-01;  2.6507889E+02;3;  3.4086399E+00;  0.0000000E+00;  5.7876873E-01;0;  1.1721451E-04;  4.0021215E+04;  0.0000000E+00; -1.7233613E-01;  4.0000000E+04;  0.0000000E+00;  4.0002496E+04;  1.0486394E-03;  0.0000000E+00; -9.3142490E-04;  3.7032211E+02;
  4.2085168E-01;  9.9999998E-03; -2.4004656E-01;5014; -9.0617631E-03;  0.0000000E+00;  2.0289952E-03;  1.0003886E+03;  1.0000000E-01;  3.2196619E+02;3;  3.5175996E+00;  0.0000000E+00;  5.9219348E-01;0;  8.3968812E-04;  4.0031320E+04;  0.0000000E+00; -1.5655676E-01;  4.0000000E+04;  0.0000000E+00;  3.9997977E+04;  2.8701052E-03;  0.0000000E+00; -2.0304171E-03;  3.6565125E+02;
  4.2084828E-01;  9.9999998E-03; -2.3005985E-01;5015; -8.9283269E-03;  0.0000000E+00;  2.1122529E-03;  1.0004278E+03;  1.0000000E-01;  3.5445908E+02;3;  3.6384745E+00;  0.0000000E+00;  6.0246873E-01;0;  2.6069419E-03;  4.0040855E+04;  0.0000000E+00; -1.3557145E-01;  4.0000000E+04;  0.0000000E+00;  3.9991852E+04;  4.8074112E-03;  0.0000000E+00; -2.2004694E-03;  1.0824700E+03;
  4.2084387E-01;  9.9999998E-03; -2.2007127E-01;5016; -8.7757390E-03;  0.0000000E+00;  2.0745231E-03;  1.0004896E+03;  1.0000000E-01;  4.0561813E+02;3;  3.7505486E+00;  0.0000000E+00;  6.1867255E-01;0;  4.7663613E-03;  4.0049301E+04;  0.0000000E+00; -1.1000151E-01;  4.0000000E+04;  0.0000000E+00;  3.9988406E+04;  6.8313354E-03;  0.0000000E+00; -2.0649740E-03;  1.5059760E+03;
  4.2083868E-01;  9.9999998E-03; -2.1007569E-01;5017; -8.6059580E-03;  0.0000000E+00;  2.0099783E-03;  1.0005628E+03;  1.0000000E-01;  4.6625839E+02;3;  3.8909876E+00;  0.0000000E+00;  6.3189888E-01;0;  6.8126875E-03;  4.0056711E+04;  0.0000000E+00; -8.0666460E-02;  4.0000000E+04;  0.0000000E+00;  3.9986805E+04;  8.8967700E-03;  0.0000000E+00; -2.0840825E-03;  1.7087467E+03;
  4.2083174E-01;  9.9999998E-03; -2.0007518E-01;5018; -8.4055644E-03;  0.0000000E+00;  1.9479275E-03;  1.0006167E+03;  1.0000000E-01;  5.1089908E+02;3;  4.0985651E+00;  0.0000000E+00;  6.3635111E-01;0;  8.6682532E-03;  4.0062672E+04;  0.0000000E+00; -4.8393607E-02;  4.0000000E+04;  0.0000000E+00;  3.9985422E+04;  1.0942264E-02;  0.0000000E+00; -2.2740108E-03;  1.8761139E+03;
  4.2082343E-01;  9.9999998E-03; -1.9007246E-01;5019; -8.1764152E-03;  0.0000000E+00;  1.8900856E-03;  1.0006558E+03;  1.0000000E-01;  5.4329321E+02;3;  4.3500204E+00;  0.0000000E+00;  6.4077222E-01;0;  1.0296630E-02;  4.0067242E+04;  0.0000000E+00; -1.4124788E-02;  4.0000000E+04;  0.0000000E+00;  3.9983984E+04;  1.2892256E-02;  0.0000000E+00; -2.5956261E-03;  2.0616985E+03;
  4.2081487E-01;  9.9999998E-03; -1.8006903E-01;5020; -7.9268757E-03;  0.0000000E+00;  1.8371906E-03;  1.0006674E+03;  1.0000000E-01;  5.5297198E+02;3;  4.6495051E+00;  0.0000000E+00;  6.5746510E-01;0;  1.1635203E-02;  4.0070207E+04;  0.0000000E+00;  2.0883648E-02;  4.0000000E+04;  0.0000000E+00;  3.9982508E+04;  1.4664752E-02;  0.0000000E+00; -3.0295493E-03;  2.2546924E+03;
  4.2080787E-01;  9.9999998E-03; -1.7006558E-01;5021; -7.6760822E-03;  0.0000000E+00;  1.7862031E-03;  1.0006697E+03;  1.0000000E-01;  5.5484845E+02;3;  4.9648690E+00;  0.0000000E+00;  6.7264509E-01;0;  1.2613617E-02;  4.0071809E+04;  0.0000000E+00;  5.5017192E-02;  4.0000000E+04;  0.0000000E+00;  3.9981035E+04;  1.6180787E-02;  0.0000000E+00; -3.5671701E-03;  2.4340718E+03;
  4.2080361E-01;  9.9999998E-03; -1.6006236E-01;5022; -7.4468460E-03;  0.0000000E+00;  1.7300097E-03;  1.0006590E+03;  1.0000000E-01;  5.4595984E+02;3;  5.2765980E+00;  0.0000000E+00;  6.7703718E-01;0;  1.3175323E-02;  4.0072266E+04;  0.0000000E+00;  8.6346500E-02;  4.0000000E+04;  0.0000000E+00;  3.9979855E+04;  1.7377485E-02;  0.0000000E+00; -4.2021619E-03;  2.5838667E+03;
  4.2080274E-01;  9.9999998E-03; -1.5005939E-01;5023; -7.2518680E-03;  0.0000000E+00;  1.6657315E-03;  1.0006411E+03;  1.0000000E-01;  5.3114545E+02;3;  5.5694513E+00;  0.0000000E+00;  6.6608453E-01;0;  1.3292441E-02;  4.0071605E+04;  0.0000000E+00;  1.1283962E-01;  4.0000000E+04;  0.0000000E+00;  3.9979035E+04;  1.8216340E-02;  0.0000000E+00; -4.9238992E-03;  2.6953679E+03;
  4.2080578E-01;  9.9999998E-03; -1.4005642E-01;5024; -7.0978287E-03;  0.0000000E+00;  1.5940409E-03;  1.0006192E+03;  1.0000000E-01;  5.1297308E+02;3;  5.8435850E+00;  0.0000000E+00;  6.4208478E-01;0;  1.2971548E-02;  4.0070559E+04;  0.0000000E+00;  1.3264555E-01;  4.0000000E+04;  0.0000000E+00;  3.9978422E+04;  1.8687285E-02;  0.0000000E+00; -5.7157371E-03;  2.7665137E+03;
  4.2081279E-01;  9.9999998E-03; -1.3005325E-01;5025; -6.9884965E-03;  0.0000000E+00;  1.5156018E-03;  1.0005972E+03;  1.0000000E-01;  4.9480078E+02;3;  6.0985112E+00;  0.0000000E+00;  6.1076802E-01;0;  1.2248410E-02;  4.0069203E+04;  0.0000000E+00;  1.4441121E-01;  4.0000000E+04;  0.0000000E+00;  3.9978090E+04;  1.8807054E-02;  0.0000000E+00; -6.5586432E-03;  2.8009199E+03;
  4.2082247E-01;  9.9999998E-03; -1.2004977E-01;5026; -6.9259657E-03;  0.0000000E+00;  1.4314950E-03;  1.0005834E+03;  1.0000000E-01;  4.8334433E+02;3;  6.3326879E+00;  0.0000000E+00;  5.7531232E-01;0;  1.1179888E-02;  4.0068188E+04;  0.0000000E+00;  1.4766169E-01;  4.0000000E+04;  0.0000000E+00;  3.9978051E+04;  1.8613508E-02;  0.0000000E+00; -7.4336203E-03;  2.8060383E+03;
  4.2083356E-01;  9.9999998E-03; -1.1004596E-01;5027; -6.9090924E-03;  0.0000000E+00;  1.3421209E-03;  1.0005757E+03;  1.0000000E-01;  4.7702350E+02;3;  6.5484338E+00;  0.0000000E+00;  5.3616315E-01;0;  9.8380325E-03;  4.0067555E+04;  0.0000000E+00;  1.4294977E-01;  4.0000000E+04;  0.0000000E+00;  3.9978039E+04;  1.8157965E-02;  0.0000000E+00; -8.3199320E-03;  2.7901123E+03;
  4.3091002E-01;  9.9999998E-03; -2.7004826E-01;5072; -9.6498597E-03;  0.0000000E+00;  1.7133880E-03;  1.0001321E+03;  1.0000000E-01;  1.0942899E+02;3;  3.2265728E+00;  0.0000000E+00;  5.0213176E-01;0; -2.2864863E-03;  4.0009191E+04;  0.0000000E+00; -2.0065022E-01;  4.0000000E+04;  0.0000000E+00;  3.9999273E+04; -3.9994782E-03;  0.0000000E+00;  1.7129917E-03;  3.0289792E+02;
  4.3091869E-01;  9.9999998E-03; -2.6004341E-01;5073; -9.5458804E-03;  0.0000000E+00;  1.6663672E-03;  1.0002594E+03;  1.0000000E-01;  2.1490749E+02;3;  3.3151476E+00;  0.0000000E+00;  4.8737359E-01;0; -1.5712287E-03;  4.0018031E+04;  0.0000000E+00; -2.1305609E-01;  4.0000000E+04;  0.0000000E+00;  4.0000473E+04; -3.0645500E-03;  0.0000000E+00;  1.4933213E-03;  3.0368384E+02;
  4.3091649E-01;  9.9999998E-03; -2.5003663E-01;5074; -9.4217146E-03;  0.0000000E+00;  1.7049724E-03;  1.0003732E+03;  1.0000000E-01;  3.0912704E+02;3;  3.4123194E+00;  0.0000000E+00;  4.6903414E-01;0; -1.4922759E-03;  4.0026652E+04;  0.0000000E+00; -2.1240117E-01;  4.0000000E+04;  0.0000000E+00;  4.0001219E+04; -2.0269270E-03;  0.0000000E+00;  5.3465116E-04;  3.2253052E+02;
  4.3090835E-01;  9.9999998E-03; -2.4003728E-01;5075; -9.2615932E-03;  0.0000000E+00;  1.8829352E-03;  1.0004285E+03;  1.0000000E-01;  3.5505167E+02;3;  3.5157454E+00;  0.0000000E+00;  4.5446640E-01;0; -1.7103401E-03;  4.0034984E+04;  0.0000000E+00; -2.0129968E-01;  4.0000000E+04;  0.0000000E+00;  3.9997293E+04; -8.9249783E-04;  0.0000000E+00; -8.1784226E-04;  4.7168683E+02;
  4.3089736E-01;  9.9999998E-03; -2.3004997E-01;5076; -9.0896459E-03;  0.0000000E+00;  1.9724905E-03;  1.0004458E+03;  1.0000000E-01;  3.6937225E+02;3;  3.6245084E+00;  0.0000000E+00;  4.5132113E-01;0; -9.6416328E-04;  4.0042578E+04;  0.0000000E+00; -1.8129756E-01;  4.0000000E+04;  0.0000000E+00;  3.9991109E+04;  3.2638066E-04;  0.0000000E+00; -1.2905439E-03;  1.1770233E+03;
  4.3088517E-01;  9.9999998E-03; -2.2006290E-01;5077; -8.9099240E-03;  0.0000000E+00;  1.9418701E-03;  1.0004817E+03;  1.0000000E-01;  3.9909979E+02;3;  3.7201216E+00;  0.0000000E+00;  4.7070330E-01;0;  2.4064002E-04;  4.0049391E+04;  0.0000000E+00; -1.5364757E-01;  4.0000000E+04;  0.0000000E+00;  3.9987645E+04;  1.6093577E-03;  0.0000000E+00; -1.3687176E-03;  1.6126688E+03;
  4.3087348E-01;  9.9999998E-03; -2.1006940E-01;5078; -8.7268902E-03;  0.0000000E+00;  1.8846613E-03;  1.0005336E+03;  1.0000000E-01;  4.4206152E+02;3;  3.8462999E+00;  0.0000000E+00;  4.8760054E-01;0;  1.3827934E-03;  4.0054797E+04;  0.0000000E+00; -1.1962891E-01;  4.0000000E+04;  0.0000000E+00;  3.9986082E+04;  2.9237515E-03;  0.0000000E+00; -1.5409581E-03;  1.7877413E+03;
  4.3086204E-01;  9.9999998E-03; -2.0007074E-01;5079; -8.5232295E-03;  0.0000000E+00;  1.8321062E-03;  1.0005740E+03;  1.0000000E-01;  4.7554208E+02;3;  4.0536876E+00;  0.0000000E+00;  4.8155674E-01;0;  2.3771510E-03;  4.0059289E+04;  0.0000000E+00; -8.0685206E-02;  4.0000000E+04;  0.0000000E+00;  3.9985211E+04;  4.2253756E-03;  0.0000000E+00; -1.8482246E-03;  1.8938584E+03;
  4.3085095E-01;  9.9999998E-03; -1.9006939E-01;5080; -8.2971686E-03;  0.0000000E+00;  1.7846796E-03;  1.0006033E+03;  1.0000000E-01;  4.9983768E+02;3;  4.3028793E+00;  0.0000000E+00;  4.7771370E-01;0;  3.1957733E-03;  4.0062465E+04;  0.0000000E+00; -3.8643189E-02;  4.0000000E+04;  0.0000000E+00;  3.9984508E+04;  5.4615797E-03;  0.0000000E+00; -2.2658063E-03;  2.0039070E+03;
  4.3084091E-01;  9.9999998E-03; -1.8006685E-01;5081; -8.0590406E-03;  0.0000000E+00;  1.7417824E-03;  1.0006179E+03;  1.0000000E-01;  5.1188672E+02;3;  4.5897188E+00;  0.0000000E+00;  4.8269278E-01;0;  3.7899725E-03;  4.0064766E+04;  0.0000000E+00;  4.1382047E-03;  4.0000000E+04;  0.0000000E+00;  3.9983523E+04;  6.5772799E-03;  0.0000000E+00; -2.7873074E-03;  2.1207144E+03;
  4.3083325E-01;  9.9999998E-03; -1.7006384E-01;5082; -7.8203175E-03;  0.0000000E+00;  1.7011189E-03;  1.0006201E+03;  1.0000000E-01;  5.1366443E+02;3;  4.9077692E+00;  0.0000000E+00;  5.0043213E-01;0;  4.1090325E-03;  4.0065914E+04;  0.0000000E+00;  4.4942919E-02;  4.0000000E+04;  0.0000000E+00;  3.9982602E+04;  7.5223767E-03;  0.0000000E+00; -3.4133440E-03;  2.2299641E+03;
  4.3082896E-01;  9.9999998E-03; -1.6006090E-01;5083; -7.5997077E-03;  0.0000000E+00;  1.6585566E-03;  1.0006187E+03;  1.0000000E-01;  5.1257806E+02;3;  5.2342057E+00;  0.0000000E+00;  5.1710665E-01;0;  4.1173906E-03;  4.0066398E+04;  0.0000000E+00;  8.1017844E-02;  4.0000000E+04;  0.0000000E+00;  3.9981941E+04;  8.2599269E-03;  0.0000000E+00; -4.1425363E-03;  2.3188625E+03;
  4.3082875E-01;  9.9999998E-03; -1.5005811E-01;5084; -7.4111433E-03;  0.0000000E+00;  1.6097610E-03;  1.0006148E+03;  1.0000000E-01;  5.0931888E+02;3;  5.5405498E+00;  0.0000000E+00;  5.1939851E-01;0;  3.8058972E-03;  4.0066672E+04;  0.0000000E+00;  1.1001374E-01;  4.0000000E+04;  0.0000000E+00;  3.9981414E+04;  8.7711094E-03;  0.0000000E+00; -4.9652122E-03;  2.3805281E+03;
  4.3083325E-01;  9.9999998E-03; -1.4005527E-01;5085; -7.2616669E-03;  0.0000000E+00;  1.5539466E-03;  1.0006144E+03;  1.0000000E-01;  5.0902261E+02;3;  5.8287735E+00;  0.0000000E+00;  5.0990391E-01;0;  3.1939917E-03;  4.0067133E+04;  0.0000000E+00;  1.3036563E-01;  4.0000000E+04;  0.0000000E+00;  3.9981203E+04;  9.0565290E-03;  0.0000000E+00; -5.8625373E-03;  2.4142573E+03;
  4.3084171E-01;  9.9999998E-03; -1.3005227E-01;5086; -7.1549262E-03;  0.0000000E+00;  1.4913502E-03;  1.0006224E+03;  1.0000000E-01;  5.1563971E+02;3;  6.0976725E+00;  0.0000000E+00;  4.9423140E-01;0;  2.3245485E-03;  4.0067902E+04;  0.0000000E+00;  1.4152797E-01;  4.0000000E+04;  0.0000000E+00;  3.9981062E+04;  9.1359159E-03;  0.0000000E+00; -6.8113673E-03;  2.4246199E+03;
  4.3085313E-01;  9.9999998E-03; -1.2004912E-01;5087; -7.0916438E-03;  0.0000000E+00;  1.4223006E-03;  1.0006411E+03;  1.0000000E-01;  5.3114545E+02;3;  6.3406944E+00;  0.0000000E+00;  4.7062877E-01;0;  1.2532859E-03;  4.0069332E+04;  0.0000000E+00;  1.4383428E-01;  4.0000000E+04;  0.0000000E+00;  3.9981125E+04;  9.0423618E-03;  0.0000000E+00; -7.7890758E-03;  2.4190618E+03;
  4.3086559E-01;  9.9999998E-03; -1.1004581E-01;5088; -7.0708310E-03;  0.0000000E+00;  1.3467417E-03;  1.0006650E+03;  1.0000000E-01;  5.5089795E+02;3;  6.5598936E+00;  0.0000000E+00;  4.4199204E-01;0;  4.4046901E-05;  4.0071438E+04;  0.0000000E+00;  1.3840008E-01;  4.0000000E+04;  0.0000000E+00;  3.9981246E+04;  8.8170683E-03;  0.0000000E+00; -8.7730214E-03;  2.4051245E+03;
  4.4099104E-01;  9.9999998E-03; -2.7004483E-01;5133; -9.9282926E-03;  0.0000000E+00;  1.6778597E-03;  1.0003447E+03;  1.0000000E-01;  2.8562152E+02;3;  3.2380362E+00;  0.0000000E+00;  4.1129544E-01;0; -5.9874658E-04;  4.0029645E+04;  0.0000000E+00; -1.8717338E-01;  4.0000000E+04;  0.0000000E+00;  3.9995512E+04; -3.7551832E-03;  0.0000000E+00;  3.1564366E-03;  6.3903564E+02;
  4.4099593E-01;  9.9999998E-03; -2.6003978E-01;5134; -9.7874533E-03;  0.0000000E+00;  1.5924381E-03;  1.0004459E+03;  1.0000000E-01;  3.6937225E+02;3;  3.3300509E+00;  0.0000000E+00;  3.9453292E-01;0; -4.7135912E-04;  4.0036734E+04;  0.0000000E+00; -2.1654028E-01;  4.0000000E+04;  0.0000000E+00;  3.9996844E+04; -3.4305991E-03;  0.0000000E+00;  2.9592400E-03;  5.2570056E+02;
  4.4098967E-01;  9.9999998E-03; -2.5003257E-01;5135; -9.6303318E-03;  0.0000000E+00;  1.5769701E-03;  1.0005421E+03;  1.0000000E-01;  4.4917245E+02;3;  3.4292068E+00;  0.0000000E+00;  3.6889151E-01;0; -1.0344514E-03;  4.0043449E+04;  0.0000000E+00; -2.2740480E-01;  4.0000000E+04;  0.0000000E+00;  3.9997902E+04; -3.0373551E-03;  0.0000000E+00;  2.0029037E-03;  4.4551331E+02;
  4.4097656E-01;  9.9999998E-03; -2.4003074E-01;5136; -9.4421124E-03;  0.0000000E+00;  1.7008453E-03;  1.0005848E+03;  1.0000000E-01;  4.8443069E+02;3;  3.5087550E+00;  0.0000000E+00;  3.3276069E-01;0; -2.0511304E-03;  4.0049707E+04;  0.0000000E+00; -2.2400160E-01;  4.0000000E+04;  0.0000000E+00;  3.9995023E+04; -2.5744091E-03;  0.0000000E+00;  5.2327872E-04;  7.2474670E+02;
  4.4096166E-01;  9.9999998E-03; -2.3003998E-01;5137; -9.2374701E-03;  0.0000000E+00;  1.7835571E-03;  1.0005897E+03;  1.0000000E-01;  4.8857874E+02;3;  3.6082342E+00;  0.0000000E+00;  3.2238701E-01;0; -2.3273067E-03;  4.0055219E+04;  0.0000000E+00; -2.0888951E-01;  4.0000000E+04;  0.0000000E+00;  3.9989879E+04; -2.0466549E-03;  0.0000000E+00; -2.8065170E-04;  1.3297783E+03;
  4.4094571E-01;  9.9999998E-03; -2.2005117E-01;5138; -9.0393843E-03;  0.0000000E+00;  1.7682650E-03;  1.0006080E+03;  1.0000000E-01;  5.0368942E+02;3;  3.6845419E+00;  0.0000000E+00;  3.4400082E-01;0; -2.1126962E-03;  4.0059914E+04;  0.0000000E+00; -1.8400629E-01;  4.0000000E+04;  0.0000000E+00;  3.9986953E+04; -1.4660066E-03;  0.0000000E+00; -6.4668956E-04;  1.7189830E+03;
  4.4092941E-01;  9.9999998E-03; -2.1005784E-01;5139; -8.8516949E-03;  0.0000000E+00;  1.7324156E-03;  1.0006379E+03;  1.0000000E-01;  5.2847882E+02;3;  3.8012471E+00;  0.0000000E+00;  3.5538819E-01;0; -1.8710771E-03;  4.0063656E+04;  0.0000000E+00; -1.5097843E-01;  4.0000000E+04;  0.0000000E+00;  3.9985652E+04; -8.5286057E-04;  0.0000000E+00; -1.0182165E-03;  1.8658665E+03;
  4.4091332E-01;  9.9999998E-03; -2.0006017E-01;5140; -8.6492905E-03;  0.0000000E+00;  1.6964213E-03;  1.0006673E+03;  1.0000000E-01;  5.5287323E+02;3;  4.0140963E+00;  0.0000000E+00;  3.3523425E-01;0; -1.6918213E-03;  4.0066621E+04;  0.0000000E+00; -1.1154632E-01;  4.0000000E+04;  0.0000000E+00;  3.9985070E+04; -2.3535371E-04;  0.0000000E+00; -1.4564676E-03;  1.9247168E+03;
  4.4089812E-01;  9.9999998E-03; -1.9005986E-01;5141; -8.4305359E-03;  0.0000000E+00;  1.6658168E-03;  1.0006874E+03;  1.0000000E-01;  5.6956409E+02;3;  4.2616816E+00;  0.0000000E+00;  3.2088825E-01;0; -1.6184025E-03;  4.0068754E+04;  0.0000000E+00; -6.7949899E-02;  4.0000000E+04;  0.0000000E+00;  3.9984676E+04;  3.5467770E-04;  0.0000000E+00; -1.9730802E-03;  1.9693312E+03;
  4.4088507E-01;  9.9999998E-03; -1.8005811E-01;5142; -8.2020648E-03;  0.0000000E+00;  1.6406727E-03;  1.0007013E+03;  1.0000000E-01;  5.8102057E+02;3;  4.5415139E+00;  0.0000000E+00;  3.1354928E-01;0; -1.6941689E-03;  4.0070336E+04;  0.0000000E+00; -2.3065310E-02;  4.0000000E+04;  0.0000000E+00;  3.9984215E+04;  8.8619575E-04;  0.0000000E+00; -2.5803647E-03;  2.0134351E+03;
  4.4087559E-01;  9.9999998E-03; -1.7005578E-01;5143; -7.9762442E-03;  0.0000000E+00;  1.6186014E-03;  1.0007091E+03;  1.0000000E-01;  5.8744012E+02;3;  4.8495417E+00;  0.0000000E+00;  3.1880438E-01;0; -1.9569211E-03;  4.0071359E+04;  0.0000000E+00;  1.9834943E-02;  4.0000000E+04;  0.0000000E+00;  3.9984059E+04;  1.3340871E-03;  0.0000000E+00; -3.2910081E-03;  2.0516973E+03;
  4.4087058E-01;  9.9999998E-03; -1.6005343E-01;5144; -7.7649700E-03;  0.0000000E+00;  1.5961728E-03;  1.0007194E+03;  1.0000000E-01;  5.9603247E+02;3;  5.1665292E+00;  0.0000000E+00;  3.3335882E-01;0; -2.4275430E-03;  4.0072426E+04;  0.0000000E+00;  5.7560712E-02;  4.0000000E+04;  0.0000000E+00;  3.9983934E+04;  1.6832909E-03;  0.0000000E+00; -4.1108341E-03;  2.0769373E+03;
  4.4087052E-01;  9.9999998E-03; -1.5005122E-01;5145; -7.5809187E-03;  0.0000000E+00;  1.5682981E-03;  1.0007360E+03;  1.0000000E-01;  6.0976050E+02;3;  5.4892254E+00;  0.0000000E+00;  3.5509104E-01;0; -3.1019715E-03;  4.0073898E+04;  0.0000000E+00;  8.7601922E-02;  4.0000000E+04;  0.0000000E+00;  3.9983844E+04;  1.9308161E-03;  0.0000000E+00; -5.0327876E-03;  2.0858455E+03;
  4.4087514E-01;  9.9999998E-03; -1.4004894E-01;5146; -7.4336263E-03;  0.0000000E+00;  1.5318433E-03;  1.0007570E+03;  1.0000000E-01;  6.2714270E+02;3;  5.7962213E+00;  0.0000000E+00;  3.6633855E-01;0; -3.9509041E-03;  4.0075762E+04;  0.0000000E+00;  1.0861866E-01;  4.0000000E+04;  0.0000000E+00;  3.9983859E+04;  2.0857889E-03;  0.0000000E+00; -6.0366928E-03;  2.0800237E+03;
  4.4088355E-01;  9.9999998E-03; -1.3004658E-01;5147; -7.3262835E-03;  0.0000000E+00;  1.4868944E-03;  1.0007898E+03;  1.0000000E-01;  6.5430243E+02;3;  6.0798564E+00;  0.0000000E+00;  3.6626080E-01;0; -4.9275304E-03;  4.0078500E+04;  0.0000000E+00;  1.2049637E-01;  4.0000000E+04;  0.0000000E+00;  3.9984156E+04;  2.1679099E-03;  0.0000000E+00; -7.0954403E-03;  2.0648604E+03;
  4.4089451E-01;  9.9999998E-03; -1.2004430E-01;5148; -7.2592990E-03;  0.0000000E+00;  1.4334631E-03;  1.0008352E+03;  1.0000000E-01;  6.9193097E+02;3;  6.3344703E+00;  0.0000000E+00;  3.5933593E-01;0; -5.9785079E-03;  4.0082004E+04;  0.0000000E+00;  1.2395611E-01;  4.0000000E+04;  0.0000000E+00;  3.9984379E+04;  2.2038219E-03;  0.0000000E+00; -8.1823301E-03;  2.0471923E+03;
  4.4090542E-01;  9.9999998E-03; -1.1004196E-01;5149; -7.2313128E-03;  0.0000000E+00;  1.3712629E-03;  1.0008926E+03;  1.0000000E-01;  7.3943579E+02;3;  6.5588117E+00;  0.0000000E+00;  3.4398007E-01;0; -7.0490176E-03;  4.0086449E+04;  0.0000000E+00;  1.2026083E-01;  4.0000000E+04;  0.0000000E+00;  3.9984355E+04;  2.2230046E-03;  0.0000000E+00; -9.2720222E-03;  2.0329458E+03;
  4.5107836E-01;  9.9999998E-03; -2.7004308E-01;5194; -1.0135223E-02;  0.0000000E+00;  1.6360085E-03;  1.0006593E+03;  1.0000000E-01;  5.4625610E+02;3;  3.2448297E+00;  0.0000000E+00;  3.1630334E-01;0;  2.7312364E-03;  4.0060488E+04;  0.0000000E+00; -1.5506588E-01;  4.0000000E+04;  0.0000000E+00;  3.9990391E+04; -2.2441957E-03;  0.0000000E+00;  4.9754321E-03;  1.2656968E+03;
  4.5107546E-01;  9.9999998E-03; -2.6003841E-01;5195; -9.9665457E-03;  0.0000000E+00;  1.5221121E-03;  1.0007341E+03;  1.0000000E-01;  6.0818030E+02;3;  3.3359008E+00;  0.0000000E+00;  3.0056715E-01;0;  2.1229580E-03;  4.0065363E+04;  0.0000000E+00; -1.9973360E-01;  4.0000000E+04;  0.0000000E+00;  3.9991648E+04; -2.4831805E-03;  0.0000000E+00;  4.6061384E-03;  1.1371840E+03;
  4.5106620E-01;  9.9999998E-03; -2.5003159E-01;5196; -9.7890701E-03;  0.0000000E+00;  1.4513424E-03;  1.0008056E+03;  1.0000000E-01;  6.6743787E+02;3;  3.4293013E+00;  0.0000000E+00;  2.7018684E-01;0;  9.1175316E-04;  4.0069910E+04;  0.0000000E+00; -2.2160842E-01;  4.0000000E+04;  0.0000000E+00;  3.9992945E+04; -2.6775587E-03;  0.0000000E+00;  3.5893118E-03;  1.0007617E+03;
  4.5105186E-01;  9.9999998E-03; -2.4002731E-01;5197; -9.5828893E-03;  0.0000000E+00;  1.5024118E-03;  1.0008419E+03;  1.0000000E-01;  6.9756049E+02;3;  3.5126696E+00;  0.0000000E+00;  2.4874581E-01;0; -8.0654537E-04;  4.0073953E+04;  0.0000000E+00; -2.2608769E-01;  4.0000000E+04;  0.0000000E+00;  3.9991855E+04; -2.8196007E-03;  0.0000000E+00;  2.0130554E-03;  1.1377935E+03;
  4.5103440E-01;  9.9999998E-03; -2.3003072E-01;5198; -9.3661593E-03;  0.0000000E+00;  1.5636109E-03;  1.0008477E+03;  1.0000000E-01;  7.0230109E+02;3;  3.5712011E+00;  0.0000000E+00;  2.3834687E-01;0; -2.0588131E-03;  4.0077492E+04;  0.0000000E+00; -2.1700388E-01;  4.0000000E+04;  0.0000000E+00;  3.9988652E+04; -2.9061749E-03;  0.0000000E+00;  8.4736175E-04;  1.5284697E+03;
  4.5101455E-01;  9.9999998E-03; -2.2003683E-01;5199; -9.1677522E-03;  0.0000000E+00;  1.5759174E-03;  1.0008514E+03;  1.0000000E-01;  7.0536273E+02;3;  3.6188543E+00;  0.0000000E+00;  2.6782632E-01;0; -2.8418521E-03;  4.0080223E+04;  0.0000000E+00; -1.9724268E-01;  4.0000000E+04;  0.0000000E+00;  3.9986363E+04; -2.9406340E-03;  0.0000000E+00;  9.8781820E-05;  1.8089364E+03;
  4.5099300E-01;  9.9999998E-03; -2.1004120E-01;5200; -8.9801429E-03;  0.0000000E+00;  1.5699260E-03;  1.0008659E+03;  1.0000000E-01;  7.1741174E+02;3;  3.7680004E+00;  0.0000000E+00;  2.4125616E-01;0; -3.4565344E-03;  4.0082582E+04;  0.0000000E+00; -1.6886556E-01;  4.0000000E+04;  0.0000000E+00;  3.9985355E+04; -2.9330386E-03;  0.0000000E+00; -5.2349584E-04;  1.9232722E+03;
  4.5097214E-01;  9.9999998E-03; -2.0004308E-01;5201; -8.7814108E-03;  0.0000000E+00;  1.5608001E-03;  1.0008821E+03;  1.0000000E-01;  7.3074469E+02;3;  3.9872215E+00;  0.0000000E+00;  2.1149829E-01;0; -4.0214220E-03;  4.0084098E+04;  0.0000000E+00; -1.3369195E-01;  4.0000000E+04;  0.0000000E+00;  3.9985113E+04; -2.8976640E-03;  0.0000000E+00; -1.1237580E-03;  1.9522460E+03;
  4.5095316E-01;  9.9999998E-03; -1.9004314E-01;5202; -8.5712103E-03;  0.0000000E+00;  1.5537903E-03;  1.0008958E+03;  1.0000000E-01;  7.4210242E+02;3;  4.2348285E+00;  0.0000000E+00;  1.8519145E-01;0; -4.6050935E-03;  4.0085258E+04;  0.0000000E+00; -9.3912072E-02;  4.0000000E+04;  0.0000000E+00;  3.9985027E+04; -2.8485137E-03;  0.0000000E+00; -1.7565798E-03;  1.9489734E+03;
  4.5093709E-01;  9.9999998E-03; -1.8004218E-01;5203; -8.3559956E-03;  0.0000000E+00;  1.5504211E-03;  1.0009101E+03;  1.0000000E-01;  7.5395392E+02;3;  4.5127664E+00;  0.0000000E+00;  1.6817488E-01;0; -5.2569853E-03;  4.0086316E+04;  0.0000000E+00; -5.2338008E-02;  4.0000000E+04;  0.0000000E+00;  3.9985258E+04; -2.7961656E-03;  0.0000000E+00; -2.4608197E-03;  1.9319089E+03;
  4.5092490E-01;  9.9999998E-03; -1.7004079E-01;5204; -8.1429854E-03;  0.0000000E+00;  1.5500865E-03;  1.0009270E+03;  1.0000000E-01;  7.6797821E+02;3;  4.8076892E+00;  0.0000000E+00;  1.6152804E-01;0; -6.0102670E-03;  4.0087414E+04;  0.0000000E+00; -1.2192285E-02;  4.0000000E+04;  0.0000000E+00;  3.9985324E+04; -2.7455445E-03;  0.0000000E+00; -3.2647222E-03;  1.9044375E+03;
  4.5091718E-01;  9.9999998E-03; -1.6003932E-01;5205; -7.9421205E-03;  0.0000000E+00;  1.5500339E-03;  1.0009467E+03;  1.0000000E-01;  7.8437280E+02;3;  5.1218462E+00;  0.0000000E+00;  1.6869070E-01;0; -6.8770712E-03;  4.0089031E+04;  0.0000000E+00;  2.3411669E-02;  4.0000000E+04;  0.0000000E+00;  3.9985680E+04; -2.6946780E-03;  0.0000000E+00; -4.1823932E-03;  1.8675199E+03;
  4.5091432E-01;  9.9999998E-03; -1.5003796E-01;5206; -7.7637760E-03;  0.0000000E+00;  1.5460886E-03;  1.0009797E+03;  1.0000000E-01;  8.1173004E+02;3;  5.4419646E+00;  0.0000000E+00;  1.8742579E-01;0; -7.8450693E-03;  4.0091328E+04;  0.0000000E+00;  5.2114580E-02;  4.0000000E+04;  0.0000000E+00;  3.9986121E+04; -2.6350592E-03;  0.0000000E+00; -5.2100103E-03;  1.8238341E+03;
  4.5091608E-01;  9.9999998E-03; -1.4003672E-01;5207; -7.6159355E-03;  0.0000000E+00;  1.5332004E-03;  1.0010228E+03;  1.0000000E-01;  8.4738336E+02;3;  5.7451615E+00;  0.0000000E+00;  2.0857294E-01;0; -8.8792965E-03;  4.0094523E+04;  0.0000000E+00;  7.2787158E-02;  4.0000000E+04;  0.0000000E+00;  3.9986477E+04; -2.5529147E-03;  0.0000000E+00; -6.3263820E-03;  1.7783192E+03;
  4.5092109E-01;  9.9999998E-03; -1.3003556E-01;5208; -7.5030834E-03;  0.0000000E+00;  1.5086036E-03;  1.0010767E+03;  1.0000000E-01;  8.9202411E+02;3;  6.0365677E+00;  0.0000000E+00;  2.2562921E-01;0; -9.9314125E-03;  4.0098777E+04;  0.0000000E+00;  8.5497387E-02;  4.0000000E+04;  0.0000000E+00;  3.9986891E+04; -2.4307845E-03;  0.0000000E+00; -7.5006280E-03;  1.7370623E+03;
  4.5092773E-01;  9.9999998E-03; -1.2003432E-01;5209; -7.4273385E-03;  0.0000000E+00;  1.4718818E-03;  1.0011465E+03;  1.0000000E-01;  9.4989899E+02;3;  6.3064857E+00;  0.0000000E+00;  2.3795052E-01;0; -1.0951741E-02;  4.0104070E+04;  0.0000000E+00;  9.0992421E-02;  4.0000000E+04;  0.0000000E+00;  3.9987141E+04; -2.2497934E-03;  0.0000000E+00; -8.7019475E-03;  1.7058612E+03;
  4.5093539E-01;  9.9999998E-03; -1.1003266E-01;5210; -7.3873089E-03;  0.0000000E+00;  1.4225112E-03;  1.0012255E+03;  1.0000000E-01;  1.0152798E+03;3;  6.5493298E+00;  0.0000000E+00;  2.4192418E-01;0; -1.1895774E-02;  4.0110211E+04;  0.0000000E+00;  9.0371668E-02;  4.0000000E+04;  0.0000000E+00;  3.9987414E+04; -1.9933933E-03;  0.0000000E+00; -9.9023804E-03;  1.6885436E+03;
  4.6113816E-01;  9.9999998E-03; -2.7004260E-01;5255; -1.0218158E-02;  0.0000000E+00;  1.6253098E-03;  1.0010281E+03;  1.0000000E-01;  8.5182770E+02;3;  3.2441576E+00;  0.0000000E+00;  2.3858866E-01;0;  6.5475092E-03;  4.0096375E+04;  0.0000000E+00; -1.0989900E-01;  4.0000000E+04;  0.0000000E+00;  3.9984566E+04; -3.7993633E-04;  0.0000000E+00;  6.9274455E-03;  2.0162426E+03;
  4.6113643E-01;  9.9999998E-03; -2.6003879E-01;5256; -1.0038340E-02;  0.0000000E+00;  1.4690541E-03;  1.0010772E+03;  1.0000000E-01;  8.9241913E+02;3;  3.3265595E+00;  0.0000000E+00;  2.0912997E-01;0;  5.3994190E-03;  4.0099426E+04;  0.0000000E+00; -1.6795325E-01;  4.0000000E+04;  0.0000000E+00;  3.9985637E+04; -1.0813379E-03;  0.0000000E+00;  6.4807567E-03;  1.9020760E+03;
  4.6112823E-01;  9.9999998E-03; -2.5003326E-01;5257; -9.8572802E-03;  0.0000000E+00;  1.3571661E-03;  1.0011252E+03;  1.0000000E-01;  9.3222046E+02;3;  3.4012029E+00;  0.0000000E+00;  1.8869008E-01;0;  3.4889765E-03;  4.0101910E+04;  0.0000000E+00; -1.9945087E-01;  4.0000000E+04;  0.0000000E+00;  3.9987020E+04; -1.7546777E-03;  0.0000000E+00;  5.2436544E-03;  1.7450449E+03;
  4.6111596E-01;  9.9999998E-03; -2.4002744E-01;5258; -9.6615041E-03;  0.0000000E+00;  1.3293272E-03;  1.0011584E+03;  1.0000000E-01;  9.5967651E+02;3;  3.4593942E+00;  0.0000000E+00;  1.9308938E-01;0;  1.1787226E-03;  4.0104094E+04;  0.0000000E+00; -2.1045473E-01;  4.0000000E+04;  0.0000000E+00;  3.9987441E+04; -2.3842908E-03;  0.0000000E+00;  3.5630134E-03;  1.6897670E+03;
  4.6109983E-01;  9.9999998E-03; -2.3002432E-01;5259; -9.4675170E-03;  0.0000000E+00;  1.3634412E-03;  1.0011700E+03;  1.0000000E-01;  9.6935522E+02;3;  3.4935119E+00;  0.0000000E+00;  2.1464255E-01;0; -9.5196161E-04;  4.0105852E+04;  0.0000000E+00; -2.0656678E-01;  4.0000000E+04;  0.0000000E+00;  3.9986766E+04; -2.9600034E-03;  0.0000000E+00;  2.0080418E-03;  1.7899307E+03;
  4.6107882E-01;  9.9999998E-03; -2.2002317E-01;5260; -9.2841899E-03;  0.0000000E+00;  1.4055757E-03;  1.0011732E+03;  1.0000000E-01;  9.7192303E+02;3;  3.5894840E+00;  0.0000000E+00;  1.9618833E-01;0; -2.6553746E-03;  4.0106996E+04;  0.0000000E+00; -1.9203214E-01;  4.0000000E+04;  0.0000000E+00;  3.9985836E+04; -3.4780521E-03;  0.0000000E+00;  8.2267757E-04;  1.9002935E+03;
  4.6105438E-01;  9.9999998E-03; -2.1002240E-01;5261; -9.1010584E-03;  0.0000000E+00;  1.4372598E-03;  1.0011776E+03;  1.0000000E-01;  9.7567603E+02;3;  3.7559030E+00;  0.0000000E+00;  1.4783970E-01;0; -4.0348833E-03;  4.0107949E+04;  0.0000000E+00; -1.6966325E-01;  4.0000000E+04;  0.0000000E+00;  3.9985258E+04; -3.9396519E-03;  0.0000000E+00; -9.5231466E-05;  1.9557407E+03;
  4.6102849E-01;  9.9999998E-03; -2.0002154E-01;5262; -8.9101736E-03;  0.0000000E+00;  1.4647049E-03;  1.0011849E+03;  1.0000000E-01;  9.8170056E+02;3;  3.9677978E+00;  0.0000000E+00;  9.1938123E-02;0; -5.2393759E-03;  4.0108527E+04;  0.0000000E+00; -1.4144346E-01;  4.0000000E+04;  0.0000000E+00;  3.9985230E+04; -4.3471917E-03;  0.0000000E+00; -8.9218403E-04;  1.9600936E+03;
  4.6100360E-01;  9.9999998E-03; -1.9002053E-01;5263; -8.7095937E-03;  0.0000000E+00;  1.4921309E-03;  1.0011935E+03;  1.0000000E-01;  9.8881146E+02;3;  4.2178874E+00;  0.0000000E+00;  4.9099758E-02;0; -6.3678720E-03;  4.0109066E+04;  0.0000000E+00; -1.0926639E-01;  4.0000000E+04;  0.0000000E+00;  3.9985441E+04; -4.7007236E-03;  0.0000000E+00; -1.6671483E-03;  1.9261093E+03;
  4.6098116E-01;  9.9999998E-03; -1.8001956E-01;5264; -8.5053965E-03;  0.0000000E+00;  1.5201662E-03;  1.0012059E+03;  1.0000000E-01;  9.9908276E+02;3;  4.4954872E+00;  0.0000000E+00;  2.5120659E-02;0; -7.4843597E-03;  4.0109641E+04;  0.0000000E+00; -7.5395852E-02;  4.0000000E+04;  0.0000000E+00;  3.9985902E+04; -4.9955524E-03;  0.0000000E+00; -2.4888073E-03;  1.8640574E+03;
  4.6096253E-01;  9.9999998E-03; -1.7001894E-01;5265; -8.3045010E-03;  0.0000000E+00;  1.5495735E-03;  1.0012271E+03;  1.0000000E-01;  1.0165638E+03;3;  4.7916718E+00;  0.0000000E+00;  1.7288089E-02;0; -8.6254012E-03;  4.0110906E+04;  0.0000000E+00; -4.2417143E-02;  4.0000000E+04;  0.0000000E+00;  3.9986719E+04; -5.2220165E-03;  0.0000000E+00; -3.4033842E-03;  1.7829277E+03;
  4.6094894E-01;  9.9999998E-03; -1.6001867E-01;5266; -8.1136944E-03;  0.0000000E+00;  1.5755759E-03;  1.0012590E+03;  1.0000000E-01;  1.0430321E+03;3;  5.1037369E+00;  0.0000000E+00;  3.8144656E-02;0; -9.8002460E-03;  4.0112730E+04;  0.0000000E+00; -1.2819347E-02;  4.0000000E+04;  0.0000000E+00;  3.9987195E+04; -5.3664674E-03;  0.0000000E+00; -4.4337790E-03;  1.6917488E+03;
  4.6094060E-01;  9.9999998E-03; -1.5001863E-01;5267; -7.9409322E-03;  0.0000000E+00;  1.5930358E-03;  1.0013028E+03;  1.0000000E-01;  1.0793768E+03;3;  5.4138379E+00;  0.0000000E+00;  6.6246346E-02;0; -1.0992213E-02;  4.0115609E+04;  0.0000000E+00;  1.1549650E-02;  4.0000000E+04;  0.0000000E+00;  3.9988262E+04; -5.4132063E-03;  0.0000000E+00; -5.5790069E-03;  1.6005660E+03;
  4.6093720E-01;  9.9999998E-03; -1.4001879E-01;5268; -7.7935867E-03;  0.0000000E+00;  1.5970945E-03;  1.0013619E+03;  1.0000000E-01;  1.1283630E+03;3;  5.7187090E+00;  0.0000000E+00;  1.0021660E-01;0; -1.2163273E-02;  4.0119574E+04;  0.0000000E+00;  2.9861972E-02;  4.0000000E+04;  0.0000000E+00;  3.9988852E+04; -5.3468747E-03;  0.0000000E+00; -6.8163984E-03;  1.5185107E+03;
  4.6093729E-01;  9.9999998E-03; -1.3001886E-01;5269; -7.6763118E-03;  0.0000000E+00;  1.5846525E-03;  1.0014329E+03;  1.0000000E-01;  1.1871268E+03;3;  6.0081840E+00;  0.0000000E+00;  1.2912522E-01;0; -1.3265459E-02;  4.0124891E+04;  0.0000000E+00;  4.2243768E-02;  4.0000000E+04;  0.0000000E+00;  3.9989387E+04; -5.1540495E-03;  0.0000000E+00; -8.1114098E-03;  1.4528073E+03;
  4.6093982E-01;  9.9999998E-03; -1.2001862E-01;5270; -7.5906599E-03;  0.0000000E+00;  1.5554636E-03;  1.0015165E+03;  1.0000000E-01;  1.2564583E+03;3;  6.2750793E+00;  0.0000000E+00;  1.4632723E-01;0; -1.4254027E-02;  4.0131215E+04;  0.0000000E+00;  4.9302064E-02;  4.0000000E+04;  0.0000000E+00;  3.9989879E+04; -4.8242789E-03;  0.0000000E+00; -9.4297482E-03;  1.4077079E+03;
  4.6094441E-01;  9.9999998E-03; -1.1001794E-01;5271; -7.5359056E-03;  0.0000000E+00;  1.5105025E-03;  1.0016091E+03;  1.0000000E-01;  1.3330980E+03;3;  6.5228338E+00;  0.0000000E+00;  1.5280616E-01;0; -1.5093124E-02;  4.0138457E+04;  0.0000000E+00;  5.1816937E-02;  4.0000000E+04;  0.0000000E+00;  3.9990016E+04; -4.3520178E-03;  0.0000000E+00; -1.0741105E-02;  1.3850480E+03;
  4.7110957E-01;  9.9999998E-03; -2.7004254E-01;5316; -1.0088716E-02;  0.0000000E+00;  1.7072754E-03;  1.0013774E+03;  1.0000000E-01;  1.1412021E+03;3;  3.2087793E+00;  0.0000000E+00;  1.5091531E-01;0;  9.3435068E-03;  4.0130457E+04;  0.0000000E+00; -6.3740030E-02;  4.0000000E+04;  0.0000000E+00;  3.9979184E+04;  9.2487031E-04;  0.0000000E+00;  8.4186364E-03;  2.7206602E+03;
  4.7111210E-01;  9.9999998E-03; -2.6003993E-01;5317; -9.9536525E-03;  0.0000000E+00;  1.4874532E-03;  1.0014023E+03;  1.0000000E-01;  1.1617449E+03;3;  3.2647052E+00;  0.0000000E+00;  1.3582943E-01;0;  8.1360796E-03;  4.0131898E+04;  0.0000000E+00; -1.2827632E-01;  4.0000000E+04;  0.0000000E+00;  3.9979875E+04; -8.8391942E-05;  0.0000000E+00;  8.2244715E-03;  2.6404412E+03;
  4.7110909E-01;  9.9999998E-03; -2.5003618E-01;5318; -9.8089809E-03;  0.0000000E+00;  1.3290601E-03;  1.0014332E+03;  1.0000000E-01;  1.1873243E+03;3;  3.3250082E+00;  0.0000000E+00;  1.3390824E-01;0;  5.7648276E-03;  4.0132945E+04;  0.0000000E+00; -1.6505295E-01;  4.0000000E+04;  0.0000000E+00;  3.9981191E+04; -1.0822519E-03;  0.0000000E+00;  6.8470794E-03;  2.4893191E+03;
  4.7110584E-01;  9.9999998E-03; -2.4003001E-01;5319; -9.6672215E-03;  0.0000000E+00;  1.2524143E-03;  1.0014637E+03;  1.0000000E-01;  1.2126075E+03;3;  3.3363242E+00;  0.0000000E+00;  1.7783339E-01;0;  2.8969327E-03;  4.0133797E+04;  0.0000000E+00; -1.7997202E-01;  4.0000000E+04;  0.0000000E+00;  3.9982934E+04; -2.0341605E-03;  0.0000000E+00;  4.9310932E-03;  2.2707319E+03;
  4.7110006E-01;  9.9999998E-03; -2.3002189E-01;5320; -9.5234290E-03;  0.0000000E+00;  1.2678291E-03;  1.0014875E+03;  1.0000000E-01;  1.2323601E+03;3;  3.4255118E+00;  0.0000000E+00;  1.6248187E-01;0;  6.1804662E-05;  4.0134230E+04;  0.0000000E+00; -1.7959213E-01;  4.0000000E+04;  0.0000000E+00;  3.9984492E+04; -2.9295331E-03;  0.0000000E+00;  2.9913378E-03;  2.0933115E+03;
  4.7108743E-01;  9.9999998E-03; -2.2001378E-01;5321; -9.3648760E-03;  0.0000000E+00;  1.3313651E-03;  1.0014987E+03;  1.0000000E-01;  1.2416438E+03;3;  3.5569210E+00;  0.0000000E+00;  1.0621666E-01;0; -2.3508994E-03;  4.0134461E+04;  0.0000000E+00; -1.6919775E-01;  4.0000000E+04;  0.0000000E+00;  3.9985082E+04; -3.7597700E-03;  0.0000000E+00;  1.4088707E-03;  2.0095637E+03;
  4.7106808E-01;  9.9999998E-03; -2.1000709E-01;5322; -9.1912402E-03;  0.0000000E+00;  1.4074319E-03;  1.0015021E+03;  1.0000000E-01;  1.2444092E+03;3;  3.7317495E+00;  0.0000000E+00;  3.3201568E-02;0; -4.3353946E-03;  4.0134574E+04;  0.0000000E+00; -1.5256824E-01;  4.0000000E+04;  0.0000000E+00;  3.9985242E+04; -4.5190374E-03;  0.0000000E+00;  1.8364289E-04;  1.9801638E+03;
  4.7104406E-01;  9.9999998E-03; -2.0000201E-01;5323; -9.0078712E-03;  0.0000000E+00;  1.4797382E-03;  1.0015052E+03;  1.0000000E-01;  1.2470758E+03;3;  3.9494138E+00;  0.0000000E+00; -3.4210328E-02;0; -6.0276850E-03;  4.0134562E+04;  0.0000000E+00; -1.3210143E-01;  4.0000000E+04;  0.0000000E+00;  3.9985469E+04; -5.2010873E-03;  0.0000000E+00; -8.2659756E-04;  1.9497677E+03;
  4.7101820E-01;  9.9999998E-03; -1.8999840E-01;5324; -8.8169891E-03;  0.0000000E+00;  1.5478575E-03;  1.0015126E+03;  1.0000000E-01;  1.2531002E+03;3;  4.2050095E+00;  0.0000000E+00; -8.0612577E-02;0; -7.5590396E-03;  4.0134609E+04;  0.0000000E+00; -1.0944267E-01;  4.0000000E+04;  0.0000000E+00;  3.9986012E+04; -5.7962113E-03;  0.0000000E+00; -1.7628286E-03;  1.8898549E+03;
  4.7099307E-01;  9.9999998E-03; -1.7999619E-01;5325; -8.6215427E-03;  0.0000000E+00;  1.6125636E-03;  1.0015294E+03;  1.0000000E-01;  1.2670258E+03;3;  4.4854302E+00;  0.0000000E+00; -9.8433748E-02;0; -9.0130325E-03;  4.0135180E+04;  0.0000000E+00; -8.6094737E-02;  4.0000000E+04;  0.0000000E+00;  3.9986688E+04; -6.2895697E-03;  0.0000000E+00; -2.7234629E-03;  1.7958053E+03;
  4.7097132E-01;  9.9999998E-03; -1.6999535E-01;5326; -8.4292283E-03;  0.0000000E+00;  1.6708534E-03;  1.0015529E+03;  1.0000000E-01;  1.2865808E+03;3;  4.7960658E+00;  0.0000000E+00; -8.1984855E-02;0; -1.0432417E-02;  4.0136398E+04;  0.0000000E+00; -6.3595824E-02;  4.0000000E+04;  0.0000000E+00;  3.9987664E+04; -6.6620009E-03;  0.0000000E+00; -3.7704152E-03;  1.6755457E+03;
  4.7095400E-01;  9.9999998E-03; -1.5999562E-01;5327; -8.2479799E-03;  0.0000000E+00;  1.7175105E-03;  1.0015920E+03;  1.0000000E-01;  1.3189750E+03;3;  5.1157136E+00;  0.0000000E+00; -4.5031074E-02;0; -1.1825805E-02;  4.0138441E+04;  0.0000000E+00; -4.3365560E-02;  4.0000000E+04;  0.0000000E+00;  3.9988859E+04; -6.8924865E-03;  0.0000000E+00; -4.9333181E-03;  1.5435682E+03;
  4.7094139E-01;  9.9999998E-03; -1.4999676E-01;5328; -8.0820182E-03;  0.0000000E+00;  1.7486021E-03;  1.0016440E+03;  1.0000000E-01;  1.3620354E+03;3;  5.4371815E+00;  0.0000000E+00;  7.5072111E-03;0; -1.3172996E-02;  4.0141602E+04;  0.0000000E+00; -2.6405860E-02;  4.0000000E+04;  0.0000000E+00;  3.9989785E+04; -6.9617047E-03;  0.0000000E+00; -6.2112915E-03;  1.4158180E+03;
  4.7093308E-01;  9.9999998E-03; -1.3999835E-01;5329; -7.9372479E-03;  0.0000000E+00;  1.7600768E-03;  1.0017103E+03;  1.0000000E-01;  1.4169475E+03;3;  5.7514677E+00;  0.0000000E+00;  6.0782619E-02;0; -1.4433537E-02;  4.0145949E+04;  0.0000000E+00; -1.3061623E-02;  4.0000000E+04;  0.0000000E+00;  3.9990727E+04; -6.8548154E-03;  0.0000000E+00; -7.5787217E-03;  1.3054441E+03;
  4.7092822E-01;  9.9999998E-03; -1.2999992E-01;5330; -7.8179762E-03;  0.0000000E+00;  1.7497590E-03;  1.0017869E+03;  1.0000000E-01;  1.4804519E+03;3;  6.0447073E+00;  0.0000000E+00;  9.9491656E-02;0; -1.5560741E-02;  4.0151473E+04;  0.0000000E+00; -3.0779680E-03;  4.0000000E+04;  0.0000000E+00;  3.9991465E+04; -6.5631052E-03;  0.0000000E+00; -8.9976350E-03;  1.2203784E+03;
  4.7092614E-01;  9.9999998E-03; -1.2000110E-01;5331; -7.7249738E-03;  0.0000000E+00;  1.7184779E-03;  1.0018777E+03;  1.0000000E-01;  1.5556102E+03;3;  6.3129377E+00;  0.0000000E+00;  1.2281234E-01;0; -1.6515069E-02;  4.0158340E+04;  0.0000000E+00;  3.9904551E-03;  4.0000000E+04;  0.0000000E+00;  3.9992062E+04; -6.0837949E-03;  0.0000000E+00; -1.0431274E-02;  1.1635500E+03;
  4.7092617E-01;  9.9999998E-03; -1.1000179E-01;5332; -7.6577119E-03;  0.0000000E+00;  1.6670569E-03;  1.0019756E+03;  1.0000000E-01;  1.6366943E+03;3;  6.5575962E+00;  0.0000000E+00;  1.3659126E-01;0; -1.7268734E-02;  4.0165824E+04;  0.0000000E+00;  8.6061731E-03;  4.0000000E+04;  0.0000000E+00;  3.9992281E+04; -5.4207598E-03;  0.0000000E+00; -1.1847975E-02;  1.1349319E+03;
  4.8087940E-01;  9.9999998E-03; -1.0998850E-01;5393; -7.7287448E-03;  0.0000000E+00;  1.9069161E-03;  1.0022631E+03;  1.0000146E-01;  1.8749098E+03;3;  6.6425891E+00;  0.0000000E+00;  1.6994809E-01;0; -1.8945130E-02;  4.0186277E+04;  0.0000000E+00; -3.4714870E-02;  4.0000000E+04;  0.0000000E+00;  3.9993914E+04; -5.6864889E-03;  0.0000000E+00; -1.3258641E-02;  9.4888525E+02;
  4.8088491E-01;  9.9999998E-03; -1.1998662E-01;5392; -7.8070546E-03;  0.0000000E+00;  1.9749810E-03;  1.0021720E+03;  1.0000150E-01;  1.7994552E+03;3;  6.3932157E+00;  0.0000000E+00;  1.5252654E-01;0; -1.8276552E-02;  4.0179363E+04;  0.0000000E+00; -3.9735842E-02;  4.0000000E+04;  0.0000000E+00;  3.9993559E+04; -6.5285633E-03;  0.0000000E+00; -1.1747989E-02;  9.8153204E+02;
  4.8089206E-01;  9.9999998E-03; -1.2998424E-01;5391; -7.9058055E-03;  0.0000000E+00;  2.0199900E-03;  1.0020870E+03;  1.0000146E-01;  1.7290374E+03;3;  6.1208992E+00;  0.0000000E+00;  1.2428747E-01;0; -1.7374346E-02;  4.0172938E+04;  0.0000000E+00; -4.4740401E-02;  4.0000000E+04;  0.0000000E+00;  3.9993121E+04; -7.1685552E-03;  0.0000000E+00; -1.0205791E-02;  1.0445212E+03;
  4.8090109E-01;  9.9999998E-03; -1.3998157E-01;5390; -8.0257896E-03;  0.0000000E+00;  2.0407632E-03;  1.0020081E+03;  1.0000150E-01;  1.6636565E+03;3;  5.8177724E+00;  0.0000000E+00;  7.4554220E-02;0; -1.6258404E-02;  4.0167711E+04;  0.0000000E+00; -4.9958490E-02;  4.0000000E+04;  0.0000000E+00;  3.9992176E+04; -7.5949728E-03;  0.0000000E+00; -8.6634308E-03;  1.1394202E+03;
  4.8091239E-01;  9.9999998E-03; -1.4997905E-01;5389; -8.1650941E-03;  0.0000000E+00;  2.0371771E-03;  1.0019429E+03;  1.0000141E-01;  1.6096334E+03;3;  5.4989853E+00;  0.0000000E+00;  1.3380532E-02;0; -1.4963055E-02;  4.0163402E+04;  0.0000000E+00; -5.5817496E-02;  4.0000000E+04;  0.0000000E+00;  3.9991223E+04; -7.8043956E-03;  0.0000000E+00; -7.1586599E-03;  1.2646876E+03;
  4.8092613E-01;  9.9999998E-03; -1.5997732E-01;5388; -8.3214324E-03;  0.0000000E+00;  2.0089275E-03;  1.0018878E+03;  1.0000144E-01;  1.5640050E+03;3;  5.1618633E+00;  0.0000000E+00; -6.0015898E-02;0; -1.3533830E-02;  4.0160152E+04;  0.0000000E+00; -6.2869631E-02;  4.0000000E+04;  0.0000000E+00;  3.9989984E+04; -7.8013567E-03;  0.0000000E+00; -5.7324730E-03;  1.4124357E+03;
  4.8094264E-01;  9.9999998E-03; -1.6997688E-01;5387; -8.4931282E-03;  0.0000000E+00;  1.9556824E-03;  1.0018455E+03;  1.0000145E-01;  1.5289443E+03;3;  4.8171482E+00;  0.0000000E+00; -1.3479514E-01;0; -1.2014709E-02;  4.0157910E+04;  0.0000000E+00; -7.1493551E-02;  4.0000000E+04;  0.0000000E+00;  3.9988676E+04; -7.5991373E-03;  0.0000000E+00; -4.4155717E-03;  1.5674318E+03;
  4.8096105E-01;  9.9999998E-03; -1.7997828E-01;5386; -8.6740861E-03;  0.0000000E+00;  1.8809513E-03;  1.0018138E+03;  1.0000140E-01;  1.5026735E+03;3;  4.4927111E+00;  0.0000000E+00; -1.8538216E-01;0; -1.0431817E-02;  4.0156805E+04;  0.0000000E+00; -8.1796333E-02;  4.0000000E+04;  0.0000000E+00;  3.9987566E+04; -7.2183525E-03;  0.0000000E+00; -3.2134643E-03;  1.7103599E+03;
  4.8097980E-01;  9.9999998E-03; -1.8998192E-01;5385; -8.8576432E-03;  0.0000000E+00;  1.7902667E-03;  1.0017958E+03;  1.0000148E-01;  1.4877603E+03;3;  4.1891150E+00;  0.0000000E+00; -2.0668392E-01;0; -8.7807393E-03;  4.0156031E+04;  0.0000000E+00; -9.3640648E-02;  4.0000000E+04;  0.0000000E+00;  3.9986680E+04; -6.6834735E-03;  0.0000000E+00; -2.0972658E-03;  1.8244336E+03;
  4.8099631E-01;  9.9999998E-03; -1.9998814E-01;5384; -9.0367328E-03;  0.0000000E+00;  1.6867823E-03;  1.0017848E+03;  1.0000140E-01;  1.4786741E+03;3;  3.9150782E+00;  0.0000000E+00; -1.9363250E-01;0; -7.0162131E-03;  4.0155691E+04;  0.0000000E+00; -1.0664277E-01;  4.0000000E+04;  0.0000000E+00;  3.9986055E+04; -6.0188719E-03;  0.0000000E+00; -9.9734112E-04;  1.9053828E+03;
  4.8100725E-01;  9.9999998E-03; -2.0999679E-01;5383; -9.2101460E-03;  0.0000000E+00;  1.5694507E-03;  1.0017790E+03;  1.0000147E-01;  1.4738347E+03;3;  3.6786888E+00;  0.0000000E+00; -1.4356586E-01;0; -5.0373273E-03;  4.0155801E+04;  0.0000000E+00; -1.2001158E-01;  4.0000000E+04;  0.0000000E+00;  3.9985555E+04; -5.2452823E-03;  0.0000000E+00;  2.0795509E-04;  1.9706169E+03;
  4.8101258E-01;  9.9999998E-03; -2.2000778E-01;5382; -9.3730148E-03;  0.0000000E+00;  1.4428427E-03;  1.0017682E+03;  1.0000146E-01;  1.4649462E+03;3;  3.4873972E+00;  0.0000000E+00; -6.8681300E-02;0; -2.6799550E-03;  4.0155922E+04;  0.0000000E+00; -1.3224982E-01;  4.0000000E+04;  0.0000000E+00;  3.9984711E+04; -4.3787006E-03;  0.0000000E+00;  1.6987456E-03;  2.0731284E+03;
  4.8101380E-01;  9.9999998E-03; -2.3002064E-01;5381; -9.5058735E-03;  0.0000000E+00;  1.3516329E-03;  1.0017468E+03;  1.0000141E-01;  1.4471688E+03;3;  3.3231375E+00;  0.0000000E+00;  1.5827747E-03;0;  1.6876776E-04;  4.0156043E+04;  0.0000000E+00; -1.4075531E-01;  4.0000000E+04;  0.0000000E+00;  3.9982812E+04; -3.4309337E-03;  0.0000000E+00;  3.5997014E-03;  2.3093970E+03;
  4.8101115E-01;  9.9999998E-03; -2.4003217E-01;5380; -9.5809912E-03;  0.0000000E+00;  1.3626887E-03;  1.0017066E+03;  1.0000148E-01;  1.4138859E+03;3;  3.1850226E+00;  0.0000000E+00;  3.6495756E-02;0;  3.3239413E-03;  4.0156066E+04;  0.0000000E+00; -1.4142790E-01;  4.0000000E+04;  0.0000000E+00;  3.9979602E+04; -2.4121471E-03;  0.0000000E+00;  5.7360884E-03;  2.7033899E+03;
  4.8100671E-01;  9.9999998E-03; -2.5003842E-01;5379; -9.5965434E-03;  0.0000000E+00;  1.4908540E-03;  1.0016743E+03;  1.0000146E-01;  1.3871212E+03;3;  3.0755606E+00;  0.0000000E+00;  1.4822654E-02;0;  6.3064317E-03;  4.0156086E+04;  0.0000000E+00; -1.2850137E-01;  4.0000000E+04;  0.0000000E+00;  3.9976844E+04; -1.3340181E-03;  0.0000000E+00;  7.6404498E-03;  3.0549480E+03;
  4.8100400E-01;  9.9999998E-03; -2.6004046E-01;5378; -9.6125165E-03;  0.0000000E+00;  1.6944053E-03;  1.0016582E+03;  1.0000148E-01;  1.3737882E+03;3;  3.0559969E+00;  0.0000000E+00; -2.8154894E-03;0;  8.6301817E-03;  4.0155961E+04;  0.0000000E+00; -9.5310904E-02;  4.0000000E+04;  0.0000000E+00;  3.9975609E+04; -2.1189632E-04;  0.0000000E+00;  8.8420780E-03;  3.1925962E+03;
  4.8099989E-01;  9.9999998E-03; -2.7004185E-01;5377; -9.6235219E-03;  0.0000000E+00;  1.9658883E-03;  1.0016525E+03;  1.0000148E-01;  1.3690476E+03;3;  3.0025954E+00;  0.0000000E+00; -4.1371235E-03;0;  9.4676251E-03;  4.0155590E+04;  0.0000000E+00; -3.6361307E-02;  4.0000000E+04;  0.0000000E+00;  3.9975234E+04;  9.3003176E-04;  0.0000000E+00;  8.5375933E-03;  3.2230723E+03;
  4.9081129E-01;  9.9999998E-03; -1.0997982E-01;5454; -7.7481503E-03;  0.0000000E+00;  2.2249063E-03;  1.0023890E+03;  1.0000202E-01;  1.9793018E+03;3;  6.7595425E+00;  0.0000000E+00;  2.3492794E-01;0; -2.0349473E-02;  4.0195180E+04;  0.0000000E+00; -7.3562153E-02;  4.0000000E+04;  0.0000000E+00;  3.9995008E+04; -5.3681922E-03;  0.0000000E+00; -1.4981281E-02;  8.3301416E+02;
  4.9082196E-01;  9.9999998E-03; -1.1997735E-01;5453; -7.8358799E-03;  0.0000000E+00;  2.3207131E-03;  1.0023138E+03;  1.0000196E-01;  1.9169825E+03;3;  6.5038376E+00;  0.0000000E+00;  2.1385515E-01;0; -1.9811243E-02;  4.0189395E+04;  0.0000000E+00; -7.7108137E-02;  4.0000000E+04;  0.0000000E+00;  3.9994797E+04; -6.4186631E-03;  0.0000000E+00; -1.3392581E-02;  8.6478784E+02;
  4.9083346E-01;  9.9999998E-03; -1.2997440E-01;5452; -7.9395697E-03;  0.0000000E+00;  2.3908673E-03;  1.0022419E+03;  1.0000198E-01;  1.8574287E+03;3;  6.2125716E+00;  0.0000000E+00;  1.6971686E-01;0; -1.9019959E-02;  4.0184039E+04;  0.0000000E+00; -7.8059480E-02;  4.0000000E+04;  0.0000000E+00;  3.9994301E+04; -7.2670211E-03;  0.0000000E+00; -1.1752939E-02;  9.2495673E+02;
  4.9084544E-01;  9.9999998E-03; -1.3997126E-01;5451; -8.0569489E-03;  0.0000000E+00;  2.4366293E-03;  1.0021740E+03;  1.0000201E-01;  1.8010352E+03;3;  5.9068198E+00;  0.0000000E+00;  1.1688393E-01;0; -1.7987542E-02;  4.0179434E+04;  0.0000000E+00; -7.6567858E-02;  4.0000000E+04;  0.0000000E+00;  3.9993336E+04; -7.8958618E-03;  0.0000000E+00; -1.0091679E-02;  1.0163630E+03;
  4.9085784E-01;  9.9999998E-03; -1.4996843E-01;5450; -8.1870267E-03;  0.0000000E+00;  2.4573889E-03;  1.0021116E+03;  1.0000207E-01;  1.7493823E+03;3;  5.5764942E+00;  0.0000000E+00;  4.9545705E-02;0; -1.6742073E-02;  4.0175680E+04;  0.0000000E+00; -7.3211089E-02;  4.0000000E+04;  0.0000000E+00;  3.9992281E+04; -8.2964757E-03;  0.0000000E+00; -8.4455963E-03;  1.1390657E+03;
  4.9087065E-01;  9.9999998E-03; -1.5996653E-01;5449; -8.3283633E-03;  0.0000000E+00;  2.4514177E-03;  1.0020601E+03;  1.0000201E-01;  1.7068157E+03;3;  5.2301698E+00;  0.0000000E+00; -3.4456134E-02;0; -1.5327480E-02;  4.0172516E+04;  0.0000000E+00; -6.9040805E-02;  4.0000000E+04;  0.0000000E+00;  3.9991055E+04; -8.4694112E-03;  0.0000000E+00; -6.8580690E-03;  1.2863859E+03;
  4.9088329E-01;  9.9999998E-03; -1.6996633E-01;5448; -8.4783612E-03;  0.0000000E+00;  2.4171516E-03;  1.0020164E+03;  1.0000210E-01;  1.6704711E+03;3;  4.8723307E+00;  0.0000000E+00; -1.3130300E-01;0; -1.3792507E-02;  4.0170371E+04;  0.0000000E+00; -6.5358996E-02;  4.0000000E+04;  0.0000000E+00;  3.9989891E+04; -8.4255813E-03;  0.0000000E+00; -5.3669256E-03;  1.4433254E+03;
  4.9089500E-01;  9.9999998E-03; -1.7996833E-01;5447; -8.6347461E-03;  0.0000000E+00;  2.3529865E-03;  1.0019815E+03;  1.0000210E-01;  1.6416323E+03;3;  4.5145097E+00;  0.0000000E+00; -2.2902749E-01;0; -1.2173491E-02;  4.0168637E+04;  0.0000000E+00; -6.3521072E-02;  4.0000000E+04;  0.0000000E+00;  3.9988605E+04; -8.1848074E-03;  0.0000000E+00; -3.9886832E-03;  1.5901777E+03;
  4.9090344E-01;  9.9999998E-03; -1.8997294E-01;5446; -8.7931836E-03;  0.0000000E+00;  2.2602603E-03;  1.0019536E+03;  1.0000215E-01;  1.6185219E+03;3;  4.1685882E+00;  0.0000000E+00; -3.1373888E-01;0; -1.0477912E-02;  4.0167453E+04;  0.0000000E+00; -6.4671040E-02;  4.0000000E+04;  0.0000000E+00;  3.9987648E+04; -7.7723172E-03;  0.0000000E+00; -2.7055941E-03;  1.7102352E+03;
  4.9090651E-01;  9.9999998E-03; -1.9997987E-01;5445; -8.9501403E-03;  0.0000000E+00;  2.1410384E-03;  1.0019341E+03;  1.0000205E-01;  1.6023248E+03;3;  3.8463562E+00;  0.0000000E+00; -3.6722007E-01;0; -8.6690309E-03;  4.0166648E+04;  0.0000000E+00; -6.9433138E-02;  4.0000000E+04;  0.0000000E+00;  3.9986949E+04; -7.2145886E-03;  0.0000000E+00; -1.4544426E-03;  1.7974833E+03;
  4.9090645E-01;  9.9999998E-03; -2.0998949E-01;5444; -9.0969866E-03;  0.0000000E+00;  2.0039387E-03;  1.0019186E+03;  1.0000203E-01;  1.5894857E+03;3;  3.5454895E+00;  0.0000000E+00; -3.9697027E-01;0; -6.6567059E-03;  4.0166086E+04;  0.0000000E+00; -7.7600807E-02;  4.0000000E+04;  0.0000000E+00;  3.9986414E+04; -6.5364484E-03;  0.0000000E+00; -1.2025740E-04;  1.8719805E+03;
  4.9090323E-01;  9.9999998E-03; -2.2000229E-01;5443; -9.2257550E-03;  0.0000000E+00;  1.8607575E-03;  1.0019008E+03;  1.0000205E-01;  1.5747700E+03;3;  3.2746420E+00;  0.0000000E+00; -3.9814433E-01;0; -4.2916457E-03;  4.0165754E+04;  0.0000000E+00; -8.7915070E-02;  4.0000000E+04;  0.0000000E+00;  3.9985219E+04; -5.7576466E-03;  0.0000000E+00;  1.4660008E-03;  2.0034609E+03;
  4.9089691E-01;  9.9999998E-03; -2.3001754E-01;5442; -9.3006250E-03;  0.0000000E+00;  1.7690080E-03;  1.0018657E+03;  1.0000207E-01;  1.5457339E+03;3;  3.0258329E+00;  0.0000000E+00; -4.0170270E-01;0; -1.5141834E-03;  4.0165426E+04;  0.0000000E+00; -9.7775422E-02;  4.0000000E+04;  0.0000000E+00;  3.9982785E+04; -4.8932359E-03;  0.0000000E+00;  3.3790525E-03;  2.3115820E+03;
  4.9088776E-01;  9.9999998E-03; -2.4003129E-01;5441; -9.2528602E-03;  0.0000000E+00;  1.8404687E-03;  1.0018145E+03;  1.0000210E-01;  1.5032659E+03;3;  2.6745059E+00;  0.0000000E+00; -4.7035158E-01;0;  1.2053410E-03;  4.0165359E+04;  0.0000000E+00; -1.0317267E-01;  4.0000000E+04;  0.0000000E+00;  3.9978648E+04; -3.9554816E-03;  0.0000000E+00;  5.1608225E-03;  2.8310989E+03;
  4.9087697E-01;  9.9999998E-03; -2.5003770E-01;5440; -9.0536587E-03;  0.0000000E+00;  2.0686516E-03;  1.0017747E+03;  1.0000207E-01;  1.4702792E+03;3;  2.2444086E+00;  0.0000000E+00; -5.6069672E-01;0;  3.1451057E-03;  4.0165508E+04;  0.0000000E+00; -9.8736465E-02;  4.0000000E+04;  0.0000000E+00;  3.9975219E+04; -2.9559210E-03;  0.0000000E+00;  6.1010267E-03;  3.2568845E+03;
  4.9086782E-01;  9.9999998E-03; -2.6003864E-01;5439; -8.7831365E-03;  0.0000000E+00;  2.3107845E-03;  1.0017654E+03;  1.0000200E-01;  1.4626744E+03;3;  1.8437457E+00;  0.0000000E+00; -6.2771612E-01;0;  4.3600518E-03;  4.0165777E+04;  0.0000000E+00; -7.8424446E-02;  4.0000000E+04;  0.0000000E+00;  3.9974246E+04; -1.9082767E-03;  0.0000000E+00;  6.2683285E-03;  3.3671987E+03;
  4.9086183E-01;  9.9999998E-03; -2.7003926E-01;5438; -8.5045658E-03;  0.0000000E+00;  2.5646747E-03;  1.0017736E+03;  1.0000207E-01;  1.4693903E+03;3;  1.5625443E+00;  0.0000000E+00; -6.4572227E-01;0;  4.4266991E-03;  4.0165996E+04;  0.0000000E+00; -3.7325621E-02;  4.0000000E+04;  0.0000000E+00;  3.9974617E+04; -8.3354255E-04;  0.0000000E+00;  5.2602417E-03;  3.3413376E+03;
  5.0072271E-01;  9.9999998E-03; -2.7003673E-01;5499; -7.8711370E-03;  0.0000000E+00;  3.2088843E-03;  1.0016965E+03;  1.0000364E-01;  1.4054908E+03;3;  1.2197043E+00;  0.0000000E+00; -8.5988498E-01;0; -2.0959398E-03;  4.0158309E+04;  0.0000000E+00; -5.8817886E-02;  4.0000000E+04;  0.0000000E+00;  3.9974832E+04; -4.4967080E-03;  0.0000000E+00;  2.4007682E-03;  3.2981997E+03;
  5.0073534E-01;  9.9999998E-03; -2.6003581E-01;5500; -8.2307784E-03;  0.0000000E+00;  2.9860623E-03;  1.0016966E+03;  1.0000370E-01;  1.4055897E+03;3;  1.5242360E+00;  0.0000000E+00; -8.8446271E-01;0; -1.3930164E-03;  4.0158090E+04;  0.0000000E+00; -7.7151507E-02;  4.0000000E+04;  0.0000000E+00;  3.9975113E+04; -5.3265714E-03;  0.0000000E+00;  3.9335550E-03;  3.2667861E+03;
  5.0075084E-01;  9.9999998E-03; -2.5003451E-01;5501; -8.5453885E-03;  0.0000000E+00;  2.7714870E-03;  1.0017131E+03;  1.0000373E-01;  1.4192189E+03;3;  1.8654486E+00;  0.0000000E+00; -8.9747441E-01;0; -1.8158387E-03;  4.0158262E+04;  0.0000000E+00; -7.9893112E-02;  4.0000000E+04;  0.0000000E+00;  3.9976273E+04; -6.1162114E-03;  0.0000000E+00;  4.3003727E-03;  3.1101343E+03;
  5.0076675E-01;  9.9999998E-03; -2.4002743E-01;5502; -8.8148117E-03;  0.0000000E+00;  2.5475144E-03;  1.0017645E+03;  1.0000383E-01;  1.4618844E+03;3;  2.2517908E+00;  0.0000000E+00; -8.7378675E-01;0; -2.9424655E-03;  4.0158559E+04;  0.0000000E+00; -7.1737468E-02;  4.0000000E+04;  0.0000000E+00;  3.9980160E+04; -6.8486454E-03;  0.0000000E+00;  3.9061799E-03;  2.6367920E+03;
  5.0078189E-01;  9.9999998E-03; -2.3001319E-01;5503; -8.9519499E-03;  0.0000000E+00;  2.4647471E-03;  1.0018265E+03;  1.0000373E-01;  1.5132410E+03;3;  2.6451712E+00;  0.0000000E+00; -8.0542004E-01;0; -4.9943905E-03;  4.0159363E+04;  0.0000000E+00; -5.8217574E-02;  4.0000000E+04;  0.0000000E+00;  3.9984539E+04; -7.5132851E-03;  0.0000000E+00;  2.5188944E-03;  2.0990935E+03;
  5.0079447E-01;  9.9999998E-03; -2.1999824E-01;5504; -8.9469077E-03;  0.0000000E+00;  2.5418890E-03;  1.0018697E+03;  1.0000384E-01;  1.5489930E+03;3;  3.0368948E+00;  0.0000000E+00; -7.1660757E-01;0; -7.3012575E-03;  4.0160527E+04;  0.0000000E+00; -4.3973405E-02;  4.0000000E+04;  0.0000000E+00;  3.9986793E+04; -8.1002451E-03;  0.0000000E+00;  7.9898763E-04;  1.7998245E+03;
  5.0080359E-01;  9.9999998E-03; -2.0998619E-01;5505; -8.8728881E-03;  0.0000000E+00;  2.6750129E-03;  1.0019000E+03;  1.0000365E-01;  1.5741775E+03;3;  3.4035997E+00;  0.0000000E+00; -6.0863382E-01;0; -9.3597975E-03;  4.0161977E+04;  0.0000000E+00; -3.2693926E-02;  4.0000000E+04;  0.0000000E+00;  3.9988012E+04; -8.5971439E-03;  0.0000000E+00; -7.6265400E-04;  1.6796029E+03;
  5.0080949E-01;  9.9999998E-03; -1.9997729E-01;5506; -8.7733166E-03;  0.0000000E+00;  2.8012537E-03;  1.0019283E+03;  1.0000372E-01;  1.5975842E+03;3;  3.7781920E+00;  0.0000000E+00; -4.8754704E-01;0; -1.1166032E-02;  4.0163414E+04;  0.0000000E+00; -2.6913038E-02;  4.0000000E+04;  0.0000000E+00;  3.9988465E+04; -8.9875320E-03;  0.0000000E+00; -2.1785006E-03;  1.6121876E+03;
  5.0081253E-01;  9.9999998E-03; -1.8997084E-01;5507; -8.6629316E-03;  0.0000000E+00;  2.8993997E-03;  1.0019594E+03;  1.0000368E-01;  1.6232625E+03;3;  4.1689868E+00;  0.0000000E+00; -3.4698519E-01;0; -1.2825271E-02;  4.0165328E+04;  0.0000000E+00; -2.7754579E-02;  4.0000000E+04;  0.0000000E+00;  3.9989016E+04; -9.2498912E-03;  0.0000000E+00; -3.5753802E-03;  1.5325261E+03;
  5.0081187E-01;  9.9999998E-03; -1.7996648E-01;5508; -8.5449051E-03;  0.0000000E+00;  2.9646952E-03;  1.0019949E+03;  1.0000376E-01;  1.6526937E+03;3;  4.5601172E+00;  0.0000000E+00; -2.0933831E-01;0; -1.4402224E-02;  4.0167301E+04;  0.0000000E+00; -3.5009906E-02;  4.0000000E+04;  0.0000000E+00;  3.9989980E+04; -9.3585141E-03;  0.0000000E+00; -5.0437097E-03;  1.4241414E+03;
  5.0080663E-01;  9.9999998E-03; -1.6996415E-01;5509; -8.4238946E-03;  0.0000000E+00;  2.9956205E-03;  1.0020333E+03;  1.0000373E-01;  1.6844954E+03;3;  4.9406590E+00;  0.0000000E+00; -8.8061877E-02;0; -1.5907634E-02;  4.0169367E+04;  0.0000000E+00; -4.7269393E-02;  4.0000000E+04;  0.0000000E+00;  3.9991043E+04; -9.2865117E-03;  0.0000000E+00; -6.6211214E-03;  1.2935203E+03;
  5.0079817E-01;  9.9999998E-03; -1.5996395E-01;5510; -8.2998248E-03;  0.0000000E+00;  2.9956594E-03;  1.0020770E+03;  1.0000366E-01;  1.7207412E+03;3;  5.3120680E+00;  0.0000000E+00;  1.6952246E-02;0; -1.7314840E-02;  4.0171723E+04;  0.0000000E+00; -6.2270109E-02;  4.0000000E+04;  0.0000000E+00;  3.9992273E+04; -9.0100681E-03;  0.0000000E+00; -8.3047729E-03;  1.1567887E+03;
  5.0078750E-01;  9.9999998E-03; -1.4996551E-01;5511; -8.1764422E-03;  0.0000000E+00;  2.9669018E-03;  1.0021269E+03;  1.0000379E-01;  1.7621227E+03;3;  5.6619620E+00;  0.0000000E+00;  9.8288640E-02;0; -1.8575201E-02;  4.0174453E+04;  0.0000000E+00; -7.7434309E-02;  4.0000000E+04;  0.0000000E+00;  3.9993109E+04; -8.5118953E-03;  0.0000000E+00; -1.0063305E-02;  1.0314010E+03;
  5.0077540E-01;  9.9999998E-03; -1.3996817E-01;5512; -8.0558304E-03;  0.0000000E+00;  2.9116417E-03;  1.0021766E+03;  1.0000389E-01;  1.8032080E+03;3;  5.9998536E+00;  0.0000000E+00;  1.6948231E-01;0; -1.9635741E-02;  4.0177484E+04;  0.0000000E+00; -9.0447262E-02;  4.0000000E+04;  0.0000000E+00;  3.9994094E+04; -7.7846022E-03;  0.0000000E+00; -1.1851138E-02;  9.2997150E+02;
  5.0076199E-01;  9.9999998E-03; -1.2997121E-01;5513; -7.9405587E-03;  0.0000000E+00;  2.8308162E-03;  1.0022266E+03;  1.0000376E-01;  1.8446882E+03;3;  6.3225589E+00;  0.0000000E+00;  2.2866856E-01;0; -2.0455830E-02;  4.0181043E+04;  0.0000000E+00; -9.9633463E-02;  4.0000000E+04;  0.0000000E+00;  3.9994773E+04; -6.8320865E-03;  0.0000000E+00; -1.3623744E-02;  8.5694763E+02;
  5.0074768E-01;  9.9999998E-03; -1.1997412E-01;5514; -7.8333244E-03;  0.0000000E+00;  2.7239928E-03;  1.0022787E+03;  1.0000389E-01;  1.8878475E+03;3;  6.6208634E+00;  0.0000000E+00;  2.7162629E-01;0; -2.1015434E-02;  4.0184645E+04;  0.0000000E+00; -1.0413100E-01;  4.0000000E+04;  0.0000000E+00;  3.9995164E+04; -5.6680716E-03;  0.0000000E+00; -1.5347362E-02;  8.1043018E+02;
  5.0073314E-01;  9.9999998E-03; -1.0997660E-01;5515; -7.7358847E-03;  0.0000000E+00;  2.5914807E-03;  1.0023320E+03;  1.0000384E-01;  1.9319945E+03;3;  6.8937621E+00;  0.0000000E+00;  3.0063257E-01;0; -2.1312330E-02;  4.0188613E+04;  0.0000000E+00; -1.0369279E-01;  4.0000000E+04;  0.0000000E+00;  3.9995457E+04; -4.3156133E-03;  0.0000000E+00; -1.6996717E-02;  7.8658765E+02;
  5.1060969E-01;  9.9999998E-03; -2.7003244E-01;5560; -7.7193975E-03;  0.0000000E+00;  3.6733714E-03;  1.0014484E+03;  1.0000632E-01;  1.1999658E+03;3;  1.1855983E+00;  0.0000000E+00; -1.0668751E+00;0; -7.5145103E-03;  4.0133035E+04;  0.0000000E+00; -8.7618403E-02;  4.0000000E+04;  0.0000000E+00;  3.9978113E+04; -9.9516818E-03;  0.0000000E+00;  2.4371713E-03;  2.8681074E+03;
  5.1063037E-01;  9.9999998E-03; -2.6003069E-01;5561; -8.0572003E-03;  0.0000000E+00;  3.5111615E-03;  1.0014567E+03;  1.0000619E-01;  1.2068793E+03;3;  1.4669249E+00;  0.0000000E+00; -1.0861658E+00;0; -6.7520491E-03;  4.0133344E+04;  0.0000000E+00; -8.7394215E-02;  4.0000000E+04;  0.0000000E+00;  3.9978895E+04; -1.0378993E-02;  0.0000000E+00;  3.6269440E-03;  2.7755317E+03;
  5.1065052E-01;  9.9999998E-03; -2.5002858E-01;5562; -8.3447648E-03;  0.0000000E+00;  3.3650198E-03;  1.0014854E+03;  1.0000618E-01;  1.2306810E+03;3;  1.7923510E+00;  0.0000000E+00; -1.0913889E+00;0; -6.9947382E-03;  4.0134199E+04;  0.0000000E+00; -7.3554046E-02;  4.0000000E+04;  0.0000000E+00;  3.9980090E+04; -1.0744059E-02;  0.0000000E+00;  3.7493212E-03;  2.5948508E+03;
  5.1066965E-01;  9.9999998E-03; -2.4002142E-01;5563; -8.5846232E-03;  0.0000000E+00;  3.2228348E-03;  1.0015437E+03;  1.0000615E-01;  1.2789760E+03;3;  2.1318910E+00;  0.0000000E+00; -1.0659614E+00;0; -7.8710448E-03;  4.0135348E+04;  0.0000000E+00; -5.2024674E-02;  4.0000000E+04;  0.0000000E+00;  3.9983816E+04; -1.1035831E-02;  0.0000000E+00;  3.1647854E-03;  2.1618528E+03;
  5.1068717E-01;  9.9999998E-03; -2.3000887E-01;5564; -8.7172017E-03;  0.0000000E+00;  3.1982341E-03;  1.0016110E+03;  1.0000625E-01;  1.3346781E+03;3;  2.5240719E+00;  0.0000000E+00; -9.8862070E-01;0; -9.4920592E-03;  4.0137168E+04;  0.0000000E+00; -2.8506247E-02;  4.0000000E+04;  0.0000000E+00;  3.9987320E+04; -1.1246398E-02;  0.0000000E+00;  1.7543390E-03;  1.7140941E+03;
  5.1070201E-01;  9.9999998E-03; -2.1999690E-01;5565; -8.7461062E-03;  0.0000000E+00;  3.2923245E-03;  1.0016639E+03;  1.0000622E-01;  1.3785287E+03;3;  2.9263031E+00;  0.0000000E+00; -8.6469096E-01;0; -1.1298021E-02;  4.0139586E+04;  0.0000000E+00; -7.4734385E-03;  4.0000000E+04;  0.0000000E+00;  3.9989156E+04; -1.1367273E-02;  0.0000000E+00;  6.9250949E-05;  1.4910138E+03;
  5.1071376E-01;  9.9999998E-03; -2.0998777E-01;5566; -8.7125693E-03;  0.0000000E+00;  3.4185906E-03;  1.0017075E+03;  1.0000617E-01;  1.4145770E+03;3;  3.3506060E+00;  0.0000000E+00; -6.8824267E-01;0; -1.2916123E-02;  4.0142223E+04;  0.0000000E+00;  7.5383335E-03;  4.0000000E+04;  0.0000000E+00;  3.9989812E+04; -1.1386223E-02;  0.0000000E+00; -1.5299006E-03;  1.4076271E+03;
  5.1072246E-01;  9.9999998E-03; -1.9998085E-01;5567; -8.6532310E-03;  0.0000000E+00;  3.5267277E-03;  1.0017452E+03;  1.0000618E-01;  1.4458848E+03;3;  3.7663722E+00;  0.0000000E+00; -5.0975728E-01;0; -1.4358462E-02;  4.0145043E+04;  0.0000000E+00;  1.4024117E-02;  4.0000000E+04;  0.0000000E+00;  3.9990289E+04; -1.1286202E-02;  0.0000000E+00; -3.0722597E-03;  1.3565297E+03;
  5.1072794E-01;  9.9999998E-03; -1.8997574E-01;5568; -8.5800234E-03;  0.0000000E+00;  3.5964774E-03;  1.0017896E+03;  1.0000610E-01;  1.4826245E+03;3;  4.1832981E+00;  0.0000000E+00; -3.3012989E-01;0; -1.5701076E-02;  4.0147910E+04;  0.0000000E+00;  1.0891260E-02;  4.0000000E+04;  0.0000000E+00;  3.9990828E+04; -1.1045487E-02;  0.0000000E+00; -4.6555889E-03;  1.2950470E+03;
  5.1073021E-01;  9.9999998E-03; -1.7997213E-01;5569; -8.4945345E-03;  0.0000000E+00;  3.6266863E-03;  1.0018351E+03;  1.0000620E-01;  1.5203518E+03;3;  4.5914145E+00;  0.0000000E+00; -1.7731085E-01;0; -1.6981903E-02;  4.0150750E+04;  0.0000000E+00; -1.4422605E-03;  4.0000000E+04;  0.0000000E+00;  3.9991500E+04; -1.0639788E-02;  0.0000000E+00; -6.3421149E-03;  1.2134611E+03;
  5.1072848E-01;  9.9999998E-03; -1.6997011E-01;5570; -8.3977776E-03;  0.0000000E+00;  3.6206546E-03;  1.0018770E+03;  1.0000616E-01;  1.5550175E+03;3;  4.9867563E+00;  0.0000000E+00; -4.9437590E-02;0; -1.8188084E-02;  4.0153312E+04;  0.0000000E+00; -2.1037884E-02;  4.0000000E+04;  0.0000000E+00;  3.9992352E+04; -1.0045004E-02;  0.0000000E+00; -8.1430795E-03;  1.1182401E+03;
  5.1072258E-01;  9.9999998E-03; -1.5996967E-01;5571; -8.2922373E-03;  0.0000000E+00;  3.5815896E-03;  1.0019169E+03;  1.0000635E-01;  1.5881030E+03;3;  5.3668337E+00;  0.0000000E+00;  4.9689922E-02;0; -1.9275155E-02;  4.0155652E+04;  0.0000000E+00; -4.4779524E-02;  4.0000000E+04;  0.0000000E+00;  3.9993180E+04; -9.2410687E-03;  0.0000000E+00; -1.0034086E-02;  1.0221006E+03;
  5.1071346E-01;  9.9999998E-03; -1.4997067E-01;5572; -8.1795519E-03;  0.0000000E+00;  3.5128263E-03;  1.0019556E+03;  1.0000607E-01;  1.6202008E+03;3;  5.7334394E+00;  0.0000000E+00;  1.3076015E-01;0; -2.0185076E-02;  4.0158012E+04;  0.0000000E+00; -6.9073334E-02;  4.0000000E+04;  0.0000000E+00;  3.9993875E+04; -8.2155596E-03;  0.0000000E+00; -1.1969517E-02;  9.3827057E+02;
  5.1070172E-01;  9.9999998E-03; -1.3997261E-01;5573; -8.0641741E-03;  0.0000000E+00;  3.4158481E-03;  1.0019891E+03;  1.0000619E-01;  1.6479531E+03;3;  6.0823092E+00;  0.0000000E+00;  2.0329322E-01;0; -2.0863254E-02;  4.0160004E+04;  0.0000000E+00; -9.0668499E-02;  4.0000000E+04;  0.0000000E+00;  3.9994484E+04; -6.9662970E-03;  0.0000000E+00; -1.3896957E-02;  8.7505261E+02;
  5.1068783E-01;  9.9999998E-03; -1.2997502E-01;5574; -7.9485821E-03;  0.0000000E+00;  3.2917054E-03;  1.0020177E+03;  1.0000630E-01;  1.6716561E+03;3;  6.4186263E+00;  0.0000000E+00;  2.6269436E-01;0; -2.1275107E-02;  4.0161918E+04;  0.0000000E+00; -1.0727669E-01;  4.0000000E+04;  0.0000000E+00;  3.9994836E+04; -5.5026012E-03;  0.0000000E+00; -1.5772507E-02;  8.3378149E+02;
  5.1067197E-01;  9.9999998E-03; -1.1997736E-01;5575; -7.8357123E-03;  0.0000000E+00;  3.1414968E-03;  1.0020443E+03;  1.0000610E-01;  1.6935814E+03;3;  6.7247839E+00;  0.0000000E+00;  3.0107075E-01;0; -2.1411540E-02;  4.0163879E+04;  0.0000000E+00; -1.1768134E-01;  4.0000000E+04;  0.0000000E+00;  3.9995207E+04; -3.8441108E-03;  0.0000000E+00; -1.7567430E-02;  8.1088013E+02;
  5.1065487E-01;  9.9999998E-03; -1.0997933E-01;5576; -7.7275955E-03;  0.0000000E+00;  2.9664459E-03;  1.0020673E+03;  1.0000629E-01;  1.7127415E+03;3;  7.0146589E+00;  0.0000000E+00;  3.3192453E-01;0; -2.1282559E-02;  4.0165547E+04;  0.0000000E+00; -1.2142760E-01;  4.0000000E+04;  0.0000000E+00;  3.9995133E+04; -2.0203029E-03;  0.0000000E+00; -1.9262256E-02;  8.0221051E+02;
  5.2053905E-01;  9.9999998E-03; -2.7002716E-01;5621; -7.8065298E-03;  0.0000000E+00;  4.0758331E-03;  1.0010690E+03;  1.0001041E-01;  8.8570319E+02;3;  1.1431562E+00;  0.0000000E+00; -1.3087021E+00;0; -1.3008333E-02;  4.0093656E+04;  0.0000000E+00; -1.0797285E-01;  4.0000000E+04;  0.0000000E+00;  3.9983395E+04; -1.6872959E-02;  0.0000000E+00;  3.8646264E-03;  2.1596687E+03;
  5.2056515E-01;  9.9999998E-03; -2.6002434E-01;5622; -8.1326179E-03;  0.0000000E+00;  3.9620134E-03;  1.0010936E+03;  1.0001060E-01;  9.0604834E+02;3;  1.4328150E+00;  0.0000000E+00; -1.3085775E+00;0; -1.2203734E-02;  4.0094430E+04;  0.0000000E+00; -1.0146975E-01;  4.0000000E+04;  0.0000000E+00;  3.9984668E+04; -1.6763361E-02;  0.0000000E+00;  4.5596268E-03;  2.0068431E+03;
  5.2058792E-01;  9.9999998E-03; -2.5002098E-01;5623; -8.3905188E-03;  0.0000000E+00;  3.8946094E-03;  1.0011325E+03;  1.0001060E-01;  9.3824493E+02;3;  1.7446415E+00;  0.0000000E+00; -1.2902070E+00;0; -1.2500435E-02;  4.0095891E+04;  0.0000000E+00; -7.7670008E-02;  4.0000000E+04;  0.0000000E+00;  3.9986340E+04; -1.6558647E-02;  0.0000000E+00;  4.0582116E-03;  1.8068290E+03;
  5.2060670E-01;  9.9999998E-03; -2.4001457E-01;5624; -8.5849361E-03;  0.0000000E+00;  3.8612150E-03;  1.0011910E+03;  1.0001048E-01;  9.8673737E+02;3;  2.0837629E+00;  0.0000000E+00; -1.2323664E+00;0; -1.3355086E-02;  4.0098102E+04;  0.0000000E+00; -4.5508746E-02;  4.0000000E+04;  0.0000000E+00;  3.9988938E+04; -1.6250705E-02;  0.0000000E+00;  2.8956193E-03;  1.4921318E+03;
  5.2062207E-01;  9.9999998E-03; -2.3000591E-01;5625; -8.6898450E-03;  0.0000000E+00;  3.9169625E-03;  1.0012570E+03;  1.0001051E-01;  1.0414519E+03;3;  2.4674945E+00;  0.0000000E+00; -1.1087633E+00;0; -1.4624685E-02;  4.0101121E+04;  0.0000000E+00; -1.2399531E-02;  4.0000000E+04;  0.0000000E+00;  3.9990953E+04; -1.5833905E-02;  0.0000000E+00;  1.2092202E-03;  1.2252180E+03;
  5.2063477E-01;  9.9999998E-03; -2.1999896E-01;5626; -8.7181376E-03;  0.0000000E+00;  4.0440345E-03;  1.0013101E+03;  1.0001040E-01;  1.0854012E+03;3;  2.9006383E+00;  0.0000000E+00; -9.1874498E-01;0; -1.5901491E-02;  4.0104758E+04;  0.0000000E+00;  1.6441528E-02;  4.0000000E+04;  0.0000000E+00;  3.9991789E+04; -1.5300611E-02;  0.0000000E+00; -6.0088007E-04;  1.1186335E+03;
  5.2064538E-01;  9.9999998E-03; -2.0999409E-01;5627; -8.7015666E-03;  0.0000000E+00;  4.1687903E-03;  1.0013621E+03;  1.0001054E-01;  1.1284618E+03;3;  3.3348832E+00;  0.0000000E+00; -6.9190705E-01;0; -1.6973872E-02;  4.0108469E+04;  0.0000000E+00;  3.7171584E-02;  4.0000000E+04;  0.0000000E+00;  3.9992332E+04; -1.4638183E-02;  0.0000000E+00; -2.3356897E-03;  1.0822274E+03;
  5.2065361E-01;  9.9999998E-03; -1.9999027E-01;5628; -8.6629624E-03;  0.0000000E+00;  4.2547770E-03;  1.0014158E+03;  1.0001054E-01;  1.1729049E+03;3;  3.7652597E+00;  0.0000000E+00; -4.8386958E-01;0; -1.7897153E-02;  4.0112496E+04;  0.0000000E+00;  4.7136210E-02;  4.0000000E+04;  0.0000000E+00;  3.9992391E+04; -1.3829001E-02;  0.0000000E+00; -4.0681525E-03;  1.0535001E+03;
  5.2065909E-01;  9.9999998E-03; -1.8998720E-01;5629; -8.6068893E-03;  0.0000000E+00;  4.2936313E-03;  1.0014707E+03;  1.0001057E-01;  1.2184344E+03;3;  4.1908331E+00;  0.0000000E+00; -3.0579332E-01;0; -1.8738670E-02;  4.0116355E+04;  0.0000000E+00;  4.5133159E-02;  4.0000000E+04;  0.0000000E+00;  3.9992797E+04; -1.2852749E-02;  0.0000000E+00; -5.8859214E-03;  1.0177169E+03;
  5.2066153E-01;  9.9999998E-03; -1.7998484E-01;5630; -8.5352771E-03;  0.0000000E+00;  4.2875442E-03;  1.0015193E+03;  1.0001040E-01;  1.2587296E+03;3;  4.6060014E+00;  0.0000000E+00; -1.6125040E-01;0; -1.9511942E-02;  4.0119992E+04;  0.0000000E+00;  3.1601511E-02;  4.0000000E+04;  0.0000000E+00;  3.9993184E+04; -1.1688676E-02;  0.0000000E+00; -7.8232670E-03;  9.7459827E+02;
  5.2066052E-01;  9.9999998E-03; -1.6998348E-01;5631; -8.4480373E-03;  0.0000000E+00;  4.2420775E-03;  1.0015630E+03;  1.0001042E-01;  1.2949756E+03;3;  5.0046644E+00;  0.0000000E+00; -4.7683846E-02;0; -2.0186238E-02;  4.0122984E+04;  0.0000000E+00;  8.7253628E-03;  4.0000000E+04;  0.0000000E+00;  3.9993605E+04; -1.0318518E-02;  0.0000000E+00; -9.8677203E-03;  9.2951562E+02;
  5.2065569E-01;  9.9999998E-03; -1.5998308E-01;5632; -8.3474824E-03;  0.0000000E+00;  4.1611083E-03;  1.0015975E+03;  1.0001034E-01;  1.3235179E+03;3;  5.3929090E+00;  0.0000000E+00;  4.5192052E-02;0; -2.0705784E-02;  4.0125227E+04;  0.0000000E+00; -1.9875934E-02;  4.0000000E+04;  0.0000000E+00;  3.9993910E+04; -8.7293582E-03;  0.0000000E+00; -1.1976426E-02;  8.8996069E+02;
  5.2064705E-01;  9.9999998E-03; -1.4998353E-01;5633; -8.2367212E-03;  0.0000000E+00;  4.0478511E-03;  1.0016206E+03;  1.0001054E-01;  1.3426779E+03;3;  5.7784128E+00;  0.0000000E+00;  1.2870677E-01;0; -2.1008234E-02;  4.0126957E+04;  0.0000000E+00; -4.9921475E-02;  4.0000000E+04;  0.0000000E+00;  3.9994223E+04; -6.9166496E-03;  0.0000000E+00; -1.4091585E-02;  8.6265198E+02;
  5.2063519E-01;  9.9999998E-03; -1.3998453E-01;5634; -8.1198895E-03;  0.0000000E+00;  3.9042251E-03;  1.0016364E+03;  1.0001052E-01;  1.3557146E+03;3;  6.1359043E+00;  0.0000000E+00;  1.8876970E-01;0; -2.1042222E-02;  4.0127848E+04;  0.0000000E+00; -7.7498697E-02;  4.0000000E+04;  0.0000000E+00;  3.9994367E+04; -4.8862137E-03;  0.0000000E+00; -1.6156008E-02;  8.5019238E+02;
  5.2062064E-01;  9.9999998E-03; -1.2998585E-01;5635; -7.9981172E-03;  0.0000000E+00;  3.7338715E-03;  1.0016422E+03;  1.0001041E-01;  1.3604552E+03;3;  6.4849257E+00;  0.0000000E+00;  2.4901156E-01;0; -2.0783385E-02;  4.0128207E+04;  0.0000000E+00; -9.9896513E-02;  4.0000000E+04;  0.0000000E+00;  3.9994453E+04; -2.6551594E-03;  0.0000000E+00; -1.8128226E-02;  8.5030316E+02;
  5.2060384E-01;  9.9999998E-03; -1.1998712E-01;5636; -7.8751929E-03;  0.0000000E+00;  3.5373000E-03;  1.0016392E+03;  1.0001054E-01;  1.3580848E+03;3;  6.7953730E+00;  0.0000000E+00;  2.6713249E-01;0; -2.0237656E-02;  4.0127938E+04;  0.0000000E+00; -1.1558012E-01;  4.0000000E+04;  0.0000000E+00;  3.9994441E+04; -2.5128102E-04;  0.0000000E+00; -1.9986376E-02;  8.5815887E+02;
  5.2058542E-01;  9.9999998E-03; -1.0998815E-01;5637; -7.7509005E-03;  0.0000000E+00;  3.3244051E-03;  1.0016321E+03;  1.0001040E-01;  1.3521591E+03;3;  7.0830078E+00;  0.0000000E+00;  2.7490595E-01;0; -1.9430991E-02;  4.0127121E+04;  0.0000000E+00; -1.2381789E-01;  4.0000000E+04;  0.0000000E+00;  3.9994219E+04;  2.2871876E-03;  0.0000000E+00; -2.1718178E-02;  8.6989948E+02;
  5.3051436E-01;  9.9999998E-03; -2.7002189E-01;5682; -8.0715949E-03;  0.0000000E+00;  4.4563334E-03;  1.0006275E+03;  1.0001741E-01;  5.1988647E+02;3;  1.1019517E+00;  0.0000000E+00; -1.5341425E+00;0; -1.8677237E-02;  4.0045867E+04;  0.0000000E+00; -1.0664896E-01;  4.0000000E+04;  0.0000000E+00;  3.9989938E+04; -2.4783293E-02;  0.0000000E+00;  6.1060567E-03;  1.3082172E+03;
  5.3054392E-01;  9.9999998E-03; -2.6001775E-01;5683; -8.3859060E-03;  0.0000000E+00;  4.3968633E-03;  1.0006644E+03;  1.0001738E-01;  5.5040411E+02;3;  1.3757279E+00;  0.0000000E+00; -1.5211252E+00;0; -1.7919349E-02;  4.0047336E+04;  0.0000000E+00; -1.1027489E-01;  4.0000000E+04;  0.0000000E+00;  3.9991699E+04; -2.4023073E-02;  0.0000000E+00;  6.1037247E-03;  1.0885424E+03;
  5.3056645E-01;  9.9999998E-03; -2.5001293E-01;5684; -8.6269155E-03;  0.0000000E+00;  4.4043069E-03;  1.0007127E+03;  1.0001735E-01;  5.9050171E+02;3;  1.6770370E+00;  0.0000000E+00; -1.4796349E+00;0; -1.8262036E-02;  4.0049328E+04;  0.0000000E+00; -8.6685583E-02;  4.0000000E+04;  0.0000000E+00;  3.9993527E+04; -2.3119932E-02;  0.0000000E+00;  4.8578959E-03;  8.7604376E+02;
  5.3058118E-01;  9.9999998E-03; -2.4000810E-01;5685; -8.7770289E-03;  0.0000000E+00;  4.4946135E-03;  1.0007647E+03;  1.0001748E-01;  6.3356226E+02;3;  2.0288093E+00;  0.0000000E+00; -1.3645114E+00;0; -1.9165782E-02;  4.0052352E+04;  0.0000000E+00; -4.9775708E-02;  4.0000000E+04;  0.0000000E+00;  3.9994582E+04; -2.2066606E-02;  0.0000000E+00;  2.9008237E-03;  7.3457593E+02;
  5.3059018E-01;  9.9999998E-03; -2.3000516E-01;5686; -8.8372007E-03;  0.0000000E+00;  4.6596741E-03;  1.0008153E+03;  1.0001731E-01;  6.7543756E+02;3;  2.4388430E+00;  0.0000000E+00; -1.1560210E+00;0; -2.0114455E-02;  4.0056078E+04;  0.0000000E+00; -1.0124609E-02;  4.0000000E+04;  0.0000000E+00;  3.9994711E+04; -2.0857273E-02;  0.0000000E+00;  7.4281805E-04;  7.1069318E+02;
  5.3059667E-01;  9.9999998E-03; -2.2000474E-01;5687; -8.8476902E-03;  0.0000000E+00;  4.8203510E-03;  1.0008680E+03;  1.0001730E-01;  7.1909064E+02;3;  2.8860054E+00;  0.0000000E+00; -8.7601906E-01;0; -2.0734539E-02;  4.0060504E+04;  0.0000000E+00;  2.5482371E-02;  4.0000000E+04;  0.0000000E+00;  3.9994578E+04; -1.9482484E-02;  0.0000000E+00; -1.2520559E-03;  7.4034180E+02;
  5.3060216E-01;  9.9999998E-03; -2.1000497E-01;5688; -8.8362936E-03;  0.0000000E+00;  4.9273171E-03;  1.0009273E+03;  1.0001735E-01;  7.6827448E+02;3;  3.3165364E+00;  0.0000000E+00; -6.3970006E-01;0; -2.1081101E-02;  4.0065227E+04;  0.0000000E+00;  5.2437559E-02;  4.0000000E+04;  0.0000000E+00;  3.9994473E+04; -1.7927442E-02;  0.0000000E+00; -3.1536601E-03;  7.4998480E+02;
  5.3060681E-01;  9.9999998E-03; -2.0000456E-01;5689; -8.8046938E-03;  0.0000000E+00;  4.9755727E-03;  1.0009889E+03;  1.0001750E-01;  8.1923596E+02;3;  3.7485077E+00;  0.0000000E+00; -4.5219153E-01;0; -2.1285243E-02;  4.0070004E+04;  0.0000000E+00;  6.7674793E-02;  4.0000000E+04;  0.0000000E+00;  3.9994742E+04; -1.6174631E-02;  0.0000000E+00; -5.1106117E-03;  7.4096381E+02;
  5.3061002E-01;  9.9999998E-03; -1.9000380E-01;5690; -8.7514641E-03;  0.0000000E+00;  4.9726740E-03;  1.0010476E+03;  1.0001754E-01;  8.6792596E+02;3;  4.1749067E+00;  0.0000000E+00; -3.0069226E-01;0; -2.1399722E-02;  4.0074453E+04;  0.0000000E+00;  6.9733016E-02;  4.0000000E+04;  0.0000000E+00;  3.9994723E+04; -1.4206796E-02;  0.0000000E+00; -7.1929256E-03;  7.3403638E+02;
  5.3061104E-01;  9.9999998E-03; -1.8000297E-01;5691; -8.6780731E-03;  0.0000000E+00;  4.9241339E-03;  1.0010980E+03;  1.0001744E-01;  9.0970251E+02;3;  4.5915861E+00;  0.0000000E+00; -1.7993863E-01;0; -2.1412060E-02;  4.0078250E+04;  0.0000000E+00;  5.8885388E-02;  4.0000000E+04;  0.0000000E+00;  3.9994723E+04; -1.2009448E-02;  0.0000000E+00; -9.4026122E-03;  7.3642230E+02;
  5.3060919E-01;  9.9999998E-03; -1.7000239E-01;5692; -8.5861394E-03;  0.0000000E+00;  4.8352154E-03;  1.0011360E+03;  1.0001736E-01;  9.4110907E+02;3;  5.0010610E+00;  0.0000000E+00; -8.5834168E-02;0; -2.1276331E-02;  4.0081520E+04;  0.0000000E+00;  3.7272006E-02;  4.0000000E+04;  0.0000000E+00;  3.9994719E+04; -9.5734801E-03;  0.0000000E+00; -1.1702850E-02;  7.5056708E+02;
  5.3060400E-01;  9.9999998E-03; -1.6000214E-01;5693; -8.4820967E-03;  0.0000000E+00;  4.7076941E-03;  1.0011607E+03;  1.0001750E-01;  9.6165167E+02;3;  5.4021745E+00;  0.0000000E+00;  5.0249201E-04;0; -2.0931594E-02;  4.0083551E+04;  0.0000000E+00;  8.6132307E-03;  4.0000000E+04;  0.0000000E+00;  3.9994461E+04; -6.8969866E-03;  0.0000000E+00; -1.4034607E-02;  7.7718433E+02;
  5.3059542E-01;  9.9999998E-03; -1.5000220E-01;5694; -8.3647808E-03;  0.0000000E+00;  4.5471322E-03;  1.0011712E+03;  1.0001726E-01;  9.7034277E+02;3;  5.7908916E+00;  0.0000000E+00;  7.0567928E-02;0; -2.0318300E-02;  4.0084414E+04;  0.0000000E+00; -2.2584895E-02;  4.0000000E+04;  0.0000000E+00;  3.9994168E+04; -3.9873770E-03;  0.0000000E+00; -1.6330922E-02;  8.1495642E+02;
  5.3058344E-01;  9.9999998E-03; -1.4000244E-01;5695; -8.2388045E-03;  0.0000000E+00;  4.3551116E-03;  1.0011646E+03;  1.0001726E-01;  9.6481207E+02;3;  6.1599627E+00;  0.0000000E+00;  1.2828974E-01;0; -1.9394236E-02;  4.0084141E+04;  0.0000000E+00; -5.2224718E-02;  4.0000000E+04;  0.0000000E+00;  3.9993770E+04; -8.6226477E-04;  0.0000000E+00; -1.8531971E-02;  8.5973029E+02;
  5.3056842E-01;  9.9999998E-03; -1.3000266E-01;5696; -8.1032654E-03;  0.0000000E+00;  4.1393829E-03;  1.0011422E+03;  1.0001732E-01;  9.4624469E+02;3;  6.4986897E+00;  0.0000000E+00;  1.4277361E-01;0; -1.8150734E-02;  4.0082668E+04;  0.0000000E+00; -7.7492230E-02;  4.0000000E+04;  0.0000000E+00;  3.9993547E+04;  2.4497951E-03;  0.0000000E+00; -2.0600529E-02;  9.0549994E+02;
  5.3055102E-01;  9.9999998E-03; -1.2000262E-01;5697; -7.9611102E-03;  0.0000000E+00;  3.9058020E-03;  1.0011102E+03;  1.0001743E-01;  9.1977631E+02;3;  6.8232307E+00;  0.0000000E+00;  1.6660263E-01;0; -1.6613349E-02;  4.0080445E+04;  0.0000000E+00; -9.6698865E-02;  4.0000000E+04;  0.0000000E+00;  3.9993215E+04;  5.9092948E-03;  0.0000000E+00; -2.2522643E-02;  9.4687952E+02;
  5.3053218E-01;  9.9999998E-03; -1.1000236E-01;5698; -7.8186728E-03;  0.0000000E+00;  3.6514183E-03;  1.0010697E+03;  1.0001746E-01;  8.8619702E+02;3;  7.1291094E+00;  0.0000000E+00;  1.9253014E-01;0; -1.4828351E-02;  4.0077309E+04;  0.0000000E+00; -1.0884511E-01;  4.0000000E+04;  0.0000000E+00;  3.9992934E+04;  9.4658351E-03;  0.0000000E+00; -2.4294186E-02;  9.8086609E+02;
  5.4053938E-01;  9.9999998E-03; -2.7001771E-01;5743; -8.4892344E-03;  0.0000000E+00;  4.8386590E-03;  1.0002137E+03;  1.0002949E-01;  1.7708138E+02;3;  1.0578634E+00;  0.0000000E+00; -1.7625043E+00;0; -2.4407469E-02;  3.9996703E+04;  0.0000000E+00; -8.2904331E-02;  4.0000000E+04;  0.0000000E+00;  3.9996184E+04; -3.3126939E-02;  0.0000000E+00;  8.7194704E-03;  4.7649194E+02;
  5.4056931E-01;  9.9999998E-03; -2.6001224E-01;5744; -8.7758498E-03;  0.0000000E+00;  4.8529436E-03;  1.0002625E+03;  1.0002950E-01;  2.1747528E+02;3;  1.3214629E+00;  0.0000000E+00; -1.7330734E+00;0; -2.3825720E-02;  3.9998047E+04;  0.0000000E+00; -1.0840487E-01;  4.0000000E+04;  0.0000000E+00;  3.9998570E+04; -3.1618353E-02;  0.0000000E+00;  7.7926321E-03;  2.2215594E+02;
  5.4058957E-01;  9.9999998E-03; -2.5000608E-01;5745; -8.9883646E-03;  0.0000000E+00;  4.9600382E-03;  1.0003152E+03;  1.0002951E-01;  2.6112836E+02;3;  1.6059790E+00;  0.0000000E+00; -1.6378756E+00;0; -2.4278117E-02;  4.0000512E+04;  0.0000000E+00; -9.4224319E-02;  4.0000000E+04;  0.0000000E+00;  4.0000473E+04; -2.9903298E-02;  0.0000000E+00;  5.6251804E-03;  1.3951111E+02;
  5.4059601E-01;  9.9999998E-03; -2.4000347E-01;5746; -9.1061136E-03;  0.0000000E+00;  5.1925038E-03;  1.0003544E+03;  1.0002956E-01;  2.9362125E+02;3;  1.9784616E+00;  0.0000000E+00; -1.4458730E+00;0; -2.5162164E-02;  4.0003867E+04;  0.0000000E+00; -5.9330687E-02;  4.0000000E+04;  0.0000000E+00;  3.9999898E+04; -2.7970472E-02;  0.0000000E+00;  2.8083073E-03;  8.2199242E+01;
  5.4059434E-01;  9.9999998E-03; -2.3000720E-01;5747; -9.1135763E-03;  0.0000000E+00;  5.4764706E-03;  1.0003811E+03;  1.0002951E-01;  3.1574408E+02;3;  2.4226494E+00;  0.0000000E+00; -1.1031922E+00;0; -2.5627414E-02;  4.0007777E+04;  0.0000000E+00; -1.8279588E-02;  4.0000000E+04;  0.0000000E+00;  3.9997984E+04; -2.5813226E-02;  0.0000000E+00;  1.8581135E-04;  2.5810199E+02;
  5.4059052E-01;  9.9999998E-03; -2.2001375E-01;5748; -9.1134245E-03;  0.0000000E+00;  5.6261066E-03;  1.0004243E+03;  1.0002942E-01;  3.5149615E+02;3;  2.8458912E+00;  0.0000000E+00; -8.5358840E-01;0; -2.5299752E-02;  4.0012410E+04;  0.0000000E+00;  2.0747319E-02;  4.0000000E+04;  0.0000000E+00;  3.9996652E+04; -2.3413174E-02;  0.0000000E+00; -1.8865779E-03;  4.1538406E+02;
  5.4058707E-01;  9.9999998E-03; -2.1001911E-01;5749; -9.1014784E-03;  0.0000000E+00;  5.6778654E-03;  1.0004846E+03;  1.0002949E-01;  4.0147003E+02;3;  3.2656028E+00;  0.0000000E+00; -6.5865552E-01;0; -2.4677653E-02;  4.0017383E+04;  0.0000000E+00;  5.2437648E-02;  4.0000000E+04;  0.0000000E+00;  3.9996465E+04; -2.0752650E-02;  0.0000000E+00; -3.9250040E-03;  4.5933069E+02;
  5.4058486E-01;  9.9999998E-03; -2.0002206E-01;5750; -9.0633435E-03;  0.0000000E+00;  5.6731058E-03;  1.0005453E+03;  1.0002949E-01;  4.5174020E+02;3;  3.6984847E+00;  0.0000000E+00; -5.0127703E-01;0; -2.3935888E-02;  4.0022234E+04;  0.0000000E+00;  7.3209323E-02;  4.0000000E+04;  0.0000000E+00;  3.9996562E+04; -1.7814934E-02;  0.0000000E+00; -6.1209546E-03;  4.6536163E+02;
  5.4058331E-01;  9.9999998E-03; -1.9002341E-01;5751; -8.9990897E-03;  0.0000000E+00;  5.6214761E-03;  1.0006027E+03;  1.0002939E-01;  4.9934378E+02;3;  4.1282182E+00;  0.0000000E+00; -3.7459850E-01;0; -2.3070544E-02;  4.0026719E+04;  0.0000000E+00;  8.1183970E-02;  4.0000000E+04;  0.0000000E+00;  3.9996395E+04; -1.4587227E-02;  0.0000000E+00; -8.4833167E-03;  4.8671228E+02;
  5.4058141E-01;  9.9999998E-03; -1.8002385E-01;5752; -8.9147519E-03;  0.0000000E+00;  5.5250451E-03;  1.0006489E+03;  1.0002954E-01;  5.3756494E+02;3;  4.5541997E+00;  0.0000000E+00; -2.5966623E-01;0; -2.2037730E-02;  4.0030516E+04;  0.0000000E+00;  7.6303199E-02;  4.0000000E+04;  0.0000000E+00;  3.9996105E+04; -1.1063753E-02;  0.0000000E+00; -1.0973978E-02;  5.3625507E+02;
  5.4057795E-01;  9.9999998E-03; -1.7002389E-01;5753; -8.8117067E-03;  0.0000000E+00;  5.3875800E-03;  1.0006747E+03;  1.0002955E-01;  5.5899640E+02;3;  4.9728670E+00;  0.0000000E+00; -1.7670649E-01;0; -2.0781893E-02;  4.0033410E+04;  0.0000000E+00;  6.0393777E-02;  4.0000000E+04;  0.0000000E+00;  3.9995328E+04; -7.2482470E-03;  0.0000000E+00; -1.3533645E-02;  6.1227997E+02;
  5.4057205E-01;  9.9999998E-03; -1.6002373E-01;5754; -8.6934408E-03;  0.0000000E+00;  5.2117947E-03;  1.0006856E+03;  1.0002933E-01;  5.6798383E+02;3;  5.3725057E+00;  0.0000000E+00; -1.0771250E-01;0; -1.9244328E-02;  4.0034840E+04;  0.0000000E+00;  3.6841579E-02;  4.0000000E+04;  0.0000000E+00;  3.9994531E+04; -3.1545057E-03;  0.0000000E+00; -1.6089823E-02;  7.0741284E+02;
  5.4056329E-01;  9.9999998E-03; -1.5002349E-01;5755; -8.5604880E-03;  0.0000000E+00;  5.0023338E-03;  1.0006758E+03;  1.0002962E-01;  5.5988525E+02;3;  5.7628994E+00;  0.0000000E+00; -5.3761121E-02;0; -1.7375439E-02;  4.0035039E+04;  0.0000000E+00;  9.7839125E-03;  4.0000000E+04;  0.0000000E+00;  3.9993770E+04;  1.1935247E-03;  0.0000000E+00; -1.8568965E-02;  8.1132709E+02;
  5.4055154E-01;  9.9999998E-03; -1.4002314E-01;5756; -8.4124580E-03;  0.0000000E+00;  4.7690258E-03;  1.0006520E+03;  1.0002943E-01;  5.4013275E+02;3;  6.1284981E+00;  0.0000000E+00; -3.0774737E-02;0; -1.5149526E-02;  4.0033617E+04;  0.0000000E+00; -1.7072253E-02;  4.0000000E+04;  0.0000000E+00;  3.9992883E+04;  5.7617985E-03;  0.0000000E+00; -2.0911325E-02;  9.1273077E+02;
  5.4053718E-01;  9.9999998E-03; -1.3002253E-01;5757; -8.2548419E-03;  0.0000000E+00;  4.5135859E-03;  1.0006080E+03;  1.0002955E-01;  5.0378812E+02;3;  6.4914756E+00;  0.0000000E+00;  7.1450542E-03;0; -1.2578596E-02;  4.0030707E+04;  0.0000000E+00; -4.1251242E-02;  4.0000000E+04;  0.0000000E+00;  3.9992270E+04;  1.0506506E-02;  0.0000000E+00; -2.3085102E-02;  1.0023130E+03;
  5.4052061E-01;  9.9999998E-03; -1.2002154E-01;5758; -8.0919983E-03;  0.0000000E+00;  4.2359540E-03;  1.0005484E+03;  1.0002952E-01;  4.5430804E+02;3;  6.8290749E+00;  0.0000000E+00;  3.6615975E-02;0; -9.7130332E-03;  4.0026539E+04;  0.0000000E+00; -6.1174642E-02;  4.0000000E+04;  0.0000000E+00;  3.9991680E+04;  1.5371829E-02;  0.0000000E+00; -2.5084862E-02;  1.0744922E+03;
  5.4050267E-01;  9.9999998E-03; -1.1002018E-01;5759; -7.9267723E-03;  0.0000000E+00;  3.9423257E-03;  1.0004781E+03;  1.0002936E-01;  3.9603809E+02;3;  7.1351094E+00;  0.0000000E+00;  4.3511856E-02;0; -6.6239107E-03;  4.0021223E+04;  0.0000000E+00; -7.5707100E-02;  4.0000000E+04;  0.0000000E+00;  3.9991293E+04;  2.0290384E-02;  0.0000000E+00; -2.6914295E-02;  1.1276493E+03;
  5.5061686E-01;  9.9999998E-03; -2.7001545E-01;5804; -9.0380497E-03;  0.0000000E+00;  5.2508009E-03;  9.9990271E+02;  1.0004872E-01; -8.0590294E+01;3;  1.0102446E+00;  0.0000000E+00; -1.9680389E+00;0; -3.0114152E-02;  3.9950551E+04;  0.0000000E+00; -6.0184084E-02;  4.0000000E+04;  0.0000000E+00;  4.0001312E+04; -4.1334752E-02;  0.0000000E+00;  1.1220600E-02;  2.4075493E+02;
  5.5064511E-01;  9.9999998E-03; -2.6000860E-01;5805; -9.2881238E-03;  0.0000000E+00;  5.3643710E-03;  9.9995483E+02;  1.0004855E-01; -3.7431030E+01;3;  1.2594410E+00;  0.0000000E+00; -1.9187164E+00;0; -2.9807720E-02;  3.9951758E+04;  0.0000000E+00; -1.0281483E-01;  4.0000000E+04;  0.0000000E+00;  4.0004559E+04; -3.8998079E-02;  0.0000000E+00;  9.1903592E-03;  6.2567950E+02;
  5.5065989E-01;  9.9999998E-03; -2.5000125E-01;5806; -9.4588194E-03;  0.0000000E+00;  5.6053414E-03;  1.0000062E+03;  1.0004877E-01;  5.1356559E+00;3;  1.5358907E+00;  0.0000000E+00; -1.7569903E+00;0; -3.0398022E-02;  3.9954008E+04;  0.0000000E+00; -9.7776867E-02;  4.0000000E+04;  0.0000000E+00;  4.0006332E+04; -3.6372881E-02;  0.0000000E+00;  5.9748595E-03;  8.4925073E+02;
  5.5065447E-01;  9.9999998E-03; -2.4000087E-01;5807; -9.5347818E-03;  0.0000000E+00;  5.9783580E-03;  1.0000231E+03;  1.0004855E-01;  1.9159948E+01;3;  1.8789703E+00;  0.0000000E+00; -1.5253454E+00;0; -3.0994626E-02;  3.9956996E+04;  0.0000000E+00; -6.8025097E-02;  4.0000000E+04;  0.0000000E+00;  4.0004285E+04; -3.3441737E-02;  0.0000000E+00;  2.4471111E-03;  5.8495093E+02;
  5.5063760E-01;  9.9999998E-03; -2.3001093E-01;5808; -9.5264139E-03;  0.0000000E+00;  6.2893187E-03;  1.0000209E+03;  1.0004845E-01;  1.7283459E+01;3;  2.3395815E+00;  0.0000000E+00; -1.1524194E+00;0; -3.0447327E-02;  3.9960680E+04;  0.0000000E+00; -3.0608725E-02;  4.0000000E+04;  0.0000000E+00;  4.0000441E+04; -3.0190812E-02;  0.0000000E+00; -2.5651444E-04;  1.0216332E+02;
  5.5061960E-01;  9.9999998E-03; -2.2002390E-01;5809; -9.5135467E-03;  0.0000000E+00;  6.3903383E-03;  1.0000479E+03;  1.0004871E-01;  3.9603809E+01;3;  2.7631361E+00;  0.0000000E+00; -9.2690092E-01;0; -2.8938351E-02;  3.9964766E+04;  0.0000000E+00;  6.8074721E-03;  4.0000000E+04;  0.0000000E+00;  3.9998332E+04; -2.6592581E-02;  0.0000000E+00; -2.3457711E-03;  1.7710550E+02;
  5.5060375E-01;  9.9999998E-03; -2.1003386E-01;5810; -9.4826920E-03;  0.0000000E+00;  6.3863634E-03;  1.0000991E+03;  1.0004860E-01;  8.2071732E+01;3;  3.1793787E+00;  0.0000000E+00; -7.6135540E-01;0; -2.7175609E-02;  3.9969219E+04;  0.0000000E+00;  3.9693389E-02;  4.0000000E+04;  0.0000000E+00;  3.9997852E+04; -2.2624154E-02;  0.0000000E+00; -4.5514554E-03;  2.4827109E+02;
  5.5059105E-01;  9.9999998E-03; -2.0003965E-01;5811; -9.4243418E-03;  0.0000000E+00;  6.3292603E-03;  1.0001558E+03;  1.0004871E-01;  1.2908273E+02;3;  3.5996933E+00;  0.0000000E+00; -6.3050777E-01;0; -2.5269572E-02;  3.9973480E+04;  0.0000000E+00;  6.4365417E-02;  4.0000000E+04;  0.0000000E+00;  3.9997742E+04; -1.8268308E-02;  0.0000000E+00; -7.0012631E-03;  2.6773703E+02;
  5.5058181E-01;  9.9999998E-03; -1.9004248E-01;5812; -9.3403785E-03;  0.0000000E+00;  6.2272479E-03;  1.0002017E+03;  1.0004846E-01;  1.6710635E+02;3;  4.0347795E+00;  0.0000000E+00; -5.1708370E-01;0; -2.3163635E-02;  3.9977562E+04;  0.0000000E+00;  7.8563876E-02;  4.0000000E+04;  0.0000000E+00;  3.9997398E+04; -1.3517541E-02;  0.0000000E+00; -9.6460953E-03;  3.1603049E+02;
  5.5057472E-01;  9.9999998E-03; -1.8004370E-01;5813; -9.2323879E-03;  0.0000000E+00;  6.0829273E-03;  1.0002331E+03;  1.0004858E-01;  1.9308092E+02;3;  4.4679418E+00;  0.0000000E+00; -4.2041939E-01;0; -2.0792972E-02;  3.9980715E+04;  0.0000000E+00;  8.1748344E-02;  4.0000000E+04;  0.0000000E+00;  3.9996691E+04; -8.3779395E-03;  0.0000000E+00; -1.2415033E-02;  4.1094888E+02;
  5.5056840E-01;  9.9999998E-03; -1.7004396E-01;5814; -9.1059785E-03;  0.0000000E+00;  5.8966330E-03;  1.0002466E+03;  1.0004850E-01;  2.0424109E+02;3;  4.8884473E+00;  0.0000000E+00; -3.4785041E-01;0; -1.8098861E-02;  3.9982859E+04;  0.0000000E+00;  7.5160347E-02;  4.0000000E+04;  0.0000000E+00;  3.9995465E+04; -2.8692752E-03;  0.0000000E+00; -1.5229586E-02;  5.4627289E+02;
  5.5056155E-01;  9.9999998E-03; -1.6004367E-01;5815; -8.9606494E-03;  0.0000000E+00;  5.6739394E-03;  1.0002419E+03;  1.0004857E-01;  2.0048811E+02;3;  5.2887464E+00;  0.0000000E+00; -2.9711372E-01;0; -1.5033709E-02;  3.9983656E+04;  0.0000000E+00;  6.1420947E-02;  4.0000000E+04;  0.0000000E+00;  3.9994270E+04;  2.9744806E-03;  0.0000000E+00; -1.8008189E-02;  7.0572357E+02;
  5.5055302E-01;  9.9999998E-03; -1.5004307E-01;5816; -8.7994523E-03;  0.0000000E+00;  5.4244334E-03;  1.0002166E+03;  1.0004828E-01;  1.7945168E+02;3;  5.6850986E+00;  0.0000000E+00; -2.5821683E-01;0; -1.1565853E-02;  3.9982938E+04;  0.0000000E+00;  4.3708198E-02;  4.0000000E+04;  0.0000000E+00;  3.9992930E+04;  9.1081113E-03;  0.0000000E+00; -2.0673964E-02;  8.6941028E+02;
  5.5054259E-01;  9.9999998E-03; -1.4004217E-01;5817; -8.6246952E-03;  0.0000000E+00;  5.1482739E-03;  1.0001730E+03;  1.0004857E-01;  1.4340332E+02;3;  6.0744762E+00;  0.0000000E+00; -2.0804568E-01;0; -7.6925131E-03;  3.9980305E+04;  0.0000000E+00;  2.4721563E-02;  4.0000000E+04;  0.0000000E+00;  3.9991707E+04;  1.5476876E-02;  0.0000000E+00; -2.3169389E-02;  1.0196397E+03;
  5.5053031E-01;  9.9999998E-03; -1.3004096E-01;5818; -8.4431553E-03;  0.0000000E+00;  4.8472593E-03;  1.0001057E+03;  1.0004845E-01;  8.7602440E+01;3;  6.4380703E+00;  0.0000000E+00; -1.8483709E-01;0; -3.4523141E-03;  3.9976270E+04;  0.0000000E+00;  6.1471402E-03;  4.0000000E+04;  0.0000000E+00;  3.9990617E+04;  2.2016639E-02;  0.0000000E+00; -2.5468953E-02;  1.1443427E+03;
  5.5051637E-01;  9.9999998E-03; -1.2003937E-01;5819; -8.2538957E-03;  0.0000000E+00;  4.5306874E-03;  1.0000287E+03;  1.0004851E-01;  2.3801790E+01;3;  6.7963343E+00;  0.0000000E+00; -1.5284064E-01;0;  1.0747500E-03;  3.9970629E+04;  0.0000000E+00; -1.0917963E-02;  4.0000000E+04;  0.0000000E+00;  3.9989754E+04;  2.8649999E-02;  0.0000000E+00; -2.7575249E-02;  1.2385652E+03;
  5.5050153E-01;  9.9999998E-03; -1.1003730E-01;5820; -8.0656763E-03;  0.0000000E+00;  4.1978303E-03;  9.9994159E+02;  1.0004858E-01; -4.8393681E+01;3;  7.1268740E+00;  0.0000000E+00; -1.1899143E-01;0;  5.7896804E-03;  3.9963902E+04;  0.0000000E+00; -2.5460863E-02;  4.0000000E+04;  0.0000000E+00;  3.9989316E+04;  3.5288431E-02;  0.0000000E+00; -2.9498750E-02;  1.3025807E+03;
  5.6074703E-01;  9.9999998E-03; -2.7001530E-01;5865; -9.7229378E-03;  0.0000000E+00;  5.6972988E-03;  9.9973047E+02;  1.0007987E-01; -2.2330228E+02;3;  9.4709671E-01;  0.0000000E+00; -2.1442137E+00;0; -3.5524752E-02;  3.9908035E+04;  0.0000000E+00; -8.9645289E-02;  4.0000000E+04;  0.0000000E+00;  4.0004961E+04; -4.8887685E-02;  0.0000000E+00;  1.3362933E-02;  7.3585065E+02;
  5.6077445E-01;  9.9999998E-03; -2.6000726E-01;5866; -9.9155521E-03;  0.0000000E+00;  5.9422925E-03;  9.9978418E+02;  1.0007985E-01; -1.7880972E+02;3;  1.1747353E+00;  0.0000000E+00; -2.0664618E+00;0; -3.5620086E-02;  3.9908699E+04;  0.0000000E+00; -1.1931081E-01;  4.0000000E+04;  0.0000000E+00;  4.0008531E+04; -4.5667250E-02;  0.0000000E+00;  1.0047165E-02;  1.1849496E+03;
  5.6077784E-01;  9.9999998E-03; -2.4999905E-01;5867; -1.0032692E-02;  0.0000000E+00;  6.3087358E-03;  9.9983051E+02;  1.0007981E-01; -1.4044044E+02;3;  1.4456915E+00;  0.0000000E+00; -1.8711696E+00;0; -3.6045160E-02;  3.9910398E+04;  0.0000000E+00; -1.0360878E-01;  4.0000000E+04;  0.0000000E+00;  4.0010496E+04; -4.2052779E-02;  0.0000000E+00;  6.0076183E-03;  1.4003290E+03;
  5.6075639E-01;  9.9999998E-03; -2.4000017E-01;5868; -1.0060412E-02;  0.0000000E+00;  6.7783007E-03;  9.9982013E+02;  1.0007977E-01; -1.4903279E+02;3;  1.7809913E+00;  0.0000000E+00; -1.6176437E+00;0; -3.5921026E-02;  3.9912520E+04;  0.0000000E+00; -7.2715774E-02;  4.0000000E+04;  0.0000000E+00;  4.0007164E+04; -3.8024116E-02;  0.0000000E+00;  2.1030896E-03;  9.9276184E+02;
  5.6072372E-01;  9.9999998E-03; -2.3001464E-01;5869; -1.0041043E-02;  0.0000000E+00;  7.0612929E-03;  9.9979041E+02;  1.0007978E-01; -1.7362468E+02;3;  2.2164764E+00;  0.0000000E+00; -1.2828957E+00;0; -3.4028862E-02;  3.9915277E+04;  0.0000000E+00; -4.0708199E-02;  4.0000000E+04;  0.0000000E+00;  4.0001789E+04; -3.3554401E-02;  0.0000000E+00; -4.7446205E-04;  3.2843750E+02;
  5.6069022E-01;  9.9999998E-03; -2.2003224E-01;5870; -1.0000890E-02;  0.0000000E+00;  7.1149040E-03;  9.9979565E+02;  1.0008001E-01; -1.6927913E+02;3;  2.6349590E+00;  0.0000000E+00; -1.0789081E+00;0; -3.1204201E-02;  3.9918477E+04;  0.0000000E+00; -9.5403166E-03;  4.0000000E+04;  0.0000000E+00;  3.9999062E+04; -2.8607454E-02;  0.0000000E+00; -2.5967464E-03;  4.1183388E+01;
  5.6065923E-01;  9.9999998E-03; -2.1004571E-01;5871; -9.9388603E-03;  0.0000000E+00;  7.0582363E-03;  9.9983057E+02;  1.0007975E-01; -1.4039105E+02;3;  3.0653458E+00;  0.0000000E+00; -9.3032485E-01;0; -2.8120477E-02;  3.9921648E+04;  0.0000000E+00;  1.9828964E-02;  4.0000000E+04;  0.0000000E+00;  3.9998316E+04; -2.3151571E-02;  0.0000000E+00; -4.9689068E-03;  1.3818402E+02;
  5.6063354E-01;  9.9999998E-03; -2.0005353E-01;5872; -9.8479353E-03;  0.0000000E+00;  6.9495370E-03;  9.9986847E+02;  1.0007975E-01; -1.0898455E+02;3;  3.4892654E+00;  0.0000000E+00; -8.0736446E-01;0; -2.4827138E-02;  3.9924848E+04;  0.0000000E+00;  4.4998575E-02;  4.0000000E+04;  0.0000000E+00;  3.9998059E+04; -1.7168706E-02;  0.0000000E+00; -7.6584322E-03;  1.7389621E+02;
  5.6061357E-01;  9.9999998E-03; -1.9005719E-01;5873; -9.7295241E-03;  0.0000000E+00;  6.7979097E-03;  9.9989587E+02;  1.0007992E-01; -8.6269142E+01;3;  3.9207172E+00;  0.0000000E+00; -7.1121252E-01;0; -2.1225324E-02;  3.9927531E+04;  0.0000000E+00;  6.3900843E-02;  4.0000000E+04;  0.0000000E+00;  3.9997523E+04; -1.0657493E-02;  0.0000000E+00; -1.0567831E-02;  2.5035954E+02;
  5.6059837E-01;  9.9999998E-03; -1.8005848E-01;5874; -9.5887976E-03;  0.0000000E+00;  6.6039059E-03;  9.9991107E+02;  1.0007997E-01; -7.3676910E+01;3;  4.3651538E+00;  0.0000000E+00; -6.2606806E-01;0; -1.7234191E-02;  3.9929742E+04;  0.0000000E+00;  7.5519033E-02;  4.0000000E+04;  0.0000000E+00;  3.9996414E+04; -3.6371220E-03;  0.0000000E+00; -1.3597069E-02;  3.8951334E+02;
  5.6058705E-01;  9.9999998E-03; -1.7005835E-01;5875; -9.4277523E-03;  0.0000000E+00;  6.3698408E-03;  9.9990668E+02;  1.0007987E-01; -7.7331131E+01;3;  4.7860479E+00;  0.0000000E+00; -5.6731385E-01;0; -1.2801062E-02;  3.9930766E+04;  0.0000000E+00;  8.0282301E-02;  4.0000000E+04;  0.0000000E+00;  3.9994820E+04;  3.8526447E-03;  0.0000000E+00; -1.6653707E-02;  5.7897638E+02;
  5.6057835E-01;  9.9999998E-03; -1.6005732E-01;5876; -9.2487363E-03;  0.0000000E+00;  6.1050556E-03;  9.9988446E+02;  1.0007964E-01; -9.5700974E+01;3;  5.2167220E+00;  0.0000000E+00; -5.1329416E-01;0; -7.8952974E-03;  3.9930648E+04;  0.0000000E+00;  7.9640463E-02;  4.0000000E+04;  0.0000000E+00;  3.9993121E+04;  1.1754972E-02;  0.0000000E+00; -1.9650269E-02;  7.9262866E+02;
  5.6057137E-01;  9.9999998E-03; -1.5005578E-01;5877; -9.0563055E-03;  0.0000000E+00;  5.8095511E-03;  9.9984302E+02;  1.0007985E-01; -1.3007037E+02;3;  5.6264944E+00;  0.0000000E+00; -4.5764491E-01;0; -2.5097709E-03;  3.9929223E+04;  0.0000000E+00;  7.5319558E-02;  4.0000000E+04;  0.0000000E+00;  3.9991375E+04;  2.0000122E-02;  0.0000000E+00; -2.2509893E-02;  1.0028430E+03;
  5.6056476E-01;  9.9999998E-03; -1.4005400E-01;5878; -8.8544674E-03;  0.0000000E+00;  5.4876804E-03;  9.9978638E+02;  1.0007970E-01; -1.7698260E+02;3;  6.0208921E+00;  0.0000000E+00; -4.2694604E-01;0;  3.3287220E-03;  3.9925852E+04;  0.0000000E+00;  6.8559960E-02;  4.0000000E+04;  0.0000000E+00;  3.9989762E+04;  2.8507460E-02;  0.0000000E+00; -2.5178738E-02;  1.1871781E+03;
  5.6055707E-01;  9.9999998E-03; -1.3005209E-01;5879; -8.6422218E-03;  0.0000000E+00;  5.1468853E-03;  9.9971393E+02;  1.0007964E-01; -2.3698090E+02;3;  6.4021873E+00;  0.0000000E+00; -3.8421178E-01;0;  9.5480196E-03;  3.9921090E+04;  0.0000000E+00;  5.9863813E-02;  4.0000000E+04;  0.0000000E+00;  3.9988730E+04;  3.7185527E-02;  0.0000000E+00; -2.7637508E-02;  1.3322928E+03;
  5.6054837E-01;  9.9999998E-03; -1.2004992E-01;5880; -8.4281126E-03;  0.0000000E+00;  4.7878739E-03;  9.9962610E+02;  1.0007966E-01; -3.0976895E+02;3;  6.7665725E+00;  0.0000000E+00; -3.5882056E-01;0;  1.6035633E-02;  3.9914797E+04;  0.0000000E+00;  4.9426798E-02;  4.0000000E+04;  0.0000000E+00;  3.9987809E+04;  4.5931399E-02;  0.0000000E+00; -2.9895766E-02;  1.4342839E+03;
  5.6053919E-01;  9.9999998E-03; -1.1004726E-01;5881; -8.2153194E-03;  0.0000000E+00;  4.4186423E-03;  9.9952777E+02;  1.0007960E-01; -3.9124811E+02;3;  7.0886221E+00;  0.0000000E+00; -3.1930611E-01;0;  2.2660945E-02;  3.9907703E+04;  0.0000000E+00;  3.7793510E-02;  4.0000000E+04;  0.0000000E+00;  3.9987137E+04;  5.4629553E-02;  0.0000000E+00; -3.1968608E-02;  1.4960542E+03;
  5.7090443E-01;  9.9999998E-03; -2.7001742E-01;5926; -1.0538865E-02;  0.0000000E+00;  6.1741667E-03;  9.9970044E+02;  1.0013127E-01; -2.4819041E+02;3;  8.6970532E-01;  0.0000000E+00; -2.2943692E+00;0; -4.0392436E-02;  3.9862688E+04;  0.0000000E+00; -1.9713311E-01;  4.0000000E+04;  0.0000000E+00;  4.0006949E+04; -5.5358898E-02;  0.0000000E+00;  1.4966461E-02;  1.0398522E+03;
  5.7092965E-01;  9.9999998E-03; -2.6000831E-01;5927; -1.0659921E-02;  0.0000000E+00;  6.5525593E-03;  9.9974945E+02;  1.0013119E-01; -2.0759898E+02;3;  1.0799088E+00;  0.0000000E+00; -2.2165539E+00;0; -4.0738285E-02;  3.9862531E+04;  0.0000000E+00; -1.7038658E-01;  4.0000000E+04;  0.0000000E+00;  4.0010973E+04; -5.1226325E-02;  0.0000000E+00;  1.0488043E-02;  1.5131050E+03;
  5.7092059E-01;  9.9999998E-03; -2.4999939E-01;5928; -1.0701455E-02;  0.0000000E+00;  7.0356671E-03;  9.9978107E+02;  1.0013124E-01; -1.8137752E+02;3;  1.3368759E+00;  0.0000000E+00; -2.0120986E+00;0; -4.0750060E-02;  3.9863195E+04;  0.0000000E+00; -1.1656936E-01;  4.0000000E+04;  0.0000000E+00;  4.0012340E+04; -4.6579909E-02;  0.0000000E+00;  5.8298497E-03;  1.6963132E+03;
  5.7088685E-01;  9.9999998E-03; -2.4000047E-01;5929; -1.0674287E-02;  0.0000000E+00;  7.5381040E-03;  9.9975085E+02;  1.0013139E-01; -2.0641383E+02;3;  1.6598692E+00;  0.0000000E+00; -1.7618446E+00;0; -3.9424799E-02;  3.9864305E+04;  0.0000000E+00; -7.3401198E-02;  4.0000000E+04;  0.0000000E+00;  4.0008617E+04; -4.1388948E-02;  0.0000000E+00;  1.9641488E-03;  1.2182880E+03;
  5.7084334E-01;  9.9999998E-03; -2.3001584E-01;5930; -1.0624534E-02;  0.0000000E+00;  7.7811349E-03;  9.9969690E+02;  1.0013141E-01; -2.5110391E+02;3;  2.0615497E+00;  0.0000000E+00; -1.4879668E+00;0; -3.6047336E-02;  3.9865750E+04;  0.0000000E+00; -4.4371121E-02;  4.0000000E+04;  0.0000000E+00;  4.0002555E+04; -3.5609785E-02;  0.0000000E+00; -4.3755095E-04;  4.6625436E+02;
  5.7079774E-01;  9.9999998E-03; -2.2003527E-01;5931; -1.0550706E-02;  0.0000000E+00;  7.7843848E-03;  9.9967816E+02;  1.0013144E-01; -2.6665903E+02;3;  2.5038307E+00;  0.0000000E+00; -1.2844981E+00;0; -3.1765975E-02;  3.9867508E+04;  0.0000000E+00; -2.1670585E-02;  4.0000000E+04;  0.0000000E+00;  3.9999016E+04; -2.9196938E-02;  0.0000000E+00; -2.5690356E-03;  3.4640369E+01;
  5.7075429E-01;  9.9999998E-03; -2.1005042E-01;5932; -1.0446912E-02;  0.0000000E+00;  7.6793237E-03;  9.9968872E+02;  1.0013153E-01; -2.5786914E+02;3;  2.9184096E+00;  0.0000000E+00; -1.1534648E+00;0; -2.7200196E-02;  3.9869469E+04;  0.0000000E+00; -1.0620465E-04;  4.0000000E+04;  0.0000000E+00;  3.9997785E+04; -2.2111993E-02;  0.0000000E+00; -5.0882022E-03;  1.3070737E+02;
  5.7071662E-01;  9.9999998E-03; -2.0005906E-01;5933; -1.0312555E-02;  0.0000000E+00;  7.5207953E-03;  9.9970648E+02;  1.0013146E-01; -2.4315352E+02;3;  3.3621125E+00;  0.0000000E+00; -1.0449488E+00;0; -2.2320222E-02;  3.9871262E+04;  0.0000000E+00;  2.1229444E-02;  4.0000000E+04;  0.0000000E+00;  3.9997418E+04; -1.4334007E-02;  0.0000000E+00; -7.9862149E-03;  1.9865231E+02;
  5.7068598E-01;  9.9999998E-03; -1.9006276E-01;5934; -1.0151527E-02;  0.0000000E+00;  7.3202257E-03;  9.9971552E+02;  1.0013139E-01; -2.3569695E+02;3;  3.8029230E+00;  0.0000000E+00; -9.4603795E-01;0; -1.6996171E-02;  3.9872727E+04;  0.0000000E+00;  4.1544642E-02;  4.0000000E+04;  0.0000000E+00;  3.9996438E+04; -5.8686654E-03;  0.0000000E+00; -1.1127505E-02;  3.1223621E+02;
  5.7066232E-01;  9.9999998E-03; -1.8006359E-01;5935; -9.9696154E-03;  0.0000000E+00;  7.0771598E-03;  9.9970636E+02;  1.0013138E-01; -2.4325229E+02;3;  4.2311068E+00;  0.0000000E+00; -8.8457298E-01;0; -1.1139557E-02;  3.9873367E+04;  0.0000000E+00;  5.9796710E-02;  4.0000000E+04;  0.0000000E+00;  3.9994941E+04;  3.2499267E-03;  0.0000000E+00; -1.4389483E-02;  4.9626440E+02;
  5.7064509E-01;  9.9999998E-03; -1.7006263E-01;5936; -9.7687198E-03;  0.0000000E+00;  6.8002227E-03;  9.9968567E+02;  1.0013123E-01; -2.6043698E+02;3;  4.6779013E+00;  0.0000000E+00; -8.1325620E-01;0; -4.7100121E-03;  3.9873332E+04;  0.0000000E+00;  7.5567886E-02;  4.0000000E+04;  0.0000000E+00;  3.9993117E+04;  1.2959997E-02;  0.0000000E+00; -1.7670009E-02;  7.3017456E+02;
  5.7063383E-01;  9.9999998E-03; -1.6006051E-01;5937; -9.5525216E-03;  0.0000000E+00;  6.4886287E-03;  9.9964532E+02;  1.0013103E-01; -2.9381873E+02;3;  5.1237764E+00;  0.0000000E+00; -7.5267690E-01;0;  2.2990573E-03;  3.9872270E+04;  0.0000000E+00;  8.8891909E-02;  4.0000000E+04;  0.0000000E+00;  3.9991180E+04;  2.3178222E-02;  0.0000000E+00; -2.0879164E-02;  9.8136841E+02;
  5.7062721E-01;  9.9999998E-03; -1.5005788E-01;5938; -9.3250815E-03;  0.0000000E+00;  6.1493111E-03;  9.9959546E+02;  1.0013118E-01; -3.3515088E+02;3;  5.5383301E+00;  0.0000000E+00; -7.1193343E-01;0;  9.8617170E-03;  3.9869941E+04;  0.0000000E+00;  9.9741369E-02;  4.0000000E+04;  0.0000000E+00;  3.9989195E+04;  3.3804946E-02;  0.0000000E+00; -2.3943229E-02;  1.2178739E+03;
  5.7062405E-01;  9.9999998E-03; -1.4005508E-01;5939; -9.0887137E-03;  0.0000000E+00;  5.7860217E-03;  9.9953223E+02;  1.0013114E-01; -3.8754443E+02;3;  5.9503841E+00;  0.0000000E+00; -6.5563464E-01;0;  1.7916869E-02;  3.9866430E+04;  0.0000000E+00;  1.0767334E-01;  4.0000000E+04;  0.0000000E+00;  3.9987586E+04;  4.4730730E-02;  0.0000000E+00; -2.6813861E-02;  1.4153353E+03;
  5.7062352E-01;  9.9999998E-03; -1.3005215E-01;5940; -8.8456804E-03;  0.0000000E+00;  5.4039038E-03;  9.9945508E+02;  1.0013101E-01; -4.5144385E+02;3;  6.3523459E+00;  0.0000000E+00; -6.2276089E-01;0;  2.6358733E-02;  3.9861836E+04;  0.0000000E+00;  1.1177052E-01;  4.0000000E+04;  0.0000000E+00;  3.9986434E+04;  5.5836473E-02;  0.0000000E+00; -2.9477740E-02;  1.5607058E+03;
  5.7062399E-01;  9.9999998E-03; -1.2004912E-01;5941; -8.6034304E-03;  0.0000000E+00;  5.0072414E-03;  9.9937262E+02;  1.0013115E-01; -5.1978760E+02;3;  6.7251081E+00;  0.0000000E+00; -5.7404983E-01;0;  3.5038091E-02;  3.9855852E+04;  0.0000000E+00;  1.1105888E-01;  4.0000000E+04;  0.0000000E+00;  3.9985598E+04;  6.6987179E-02;  0.0000000E+00; -3.1949088E-02;  1.6519933E+03;
  5.7062501E-01;  9.9999998E-03; -1.1004564E-01;5942; -8.3647473E-03;  0.0000000E+00;  4.6022255E-03;  9.9928412E+02;  1.0013121E-01; -5.9306940E+02;3;  7.0523090E+00;  0.0000000E+00; -5.3171831E-01;0;  4.3790333E-02;  3.9849098E+04;  0.0000000E+00;  1.0522801E-01;  4.0000000E+04;  0.0000000E+00;  3.9985195E+04;  7.8035064E-02;  0.0000000E+00; -3.4244731E-02;  1.6953236E+03;
  5.8103287E-01;  9.9999998E-03; -2.7002114E-01;5987; -1.1464802E-02;  0.0000000E+00;  6.6678273E-03;  9.9973895E+02;  1.0021430E-01; -2.1629010E+02;3;  7.9278713E-01;  0.0000000E+00; -2.4346998E+00;0; -4.4544052E-02;  3.9799121E+04;  0.0000000E+00; -2.9878938E-01;  4.0000000E+04;  0.0000000E+00;  4.0007523E+04; -6.0469050E-02;  0.0000000E+00;  1.5924998E-02;  1.2265983E+03;
  5.8105600E-01;  9.9999998E-03; -2.6001102E-01;5988; -1.1496313E-02;  0.0000000E+00;  7.1766325E-03;  9.9978003E+02;  1.0021447E-01; -1.8221700E+02;3;  9.8262131E-01;  0.0000000E+00; -2.3615146E+00;0; -4.4953741E-02;  3.9798238E+04;  0.0000000E+00; -2.0989747E-01;  4.0000000E+04;  0.0000000E+00;  4.0011516E+04; -5.5437658E-02;  0.0000000E+00;  1.0483915E-02;  1.6654465E+03;
  5.8104593E-01;  9.9999998E-03; -2.5000161E-01;5989; -1.1450865E-02;  0.0000000E+00;  7.7531082E-03;  9.9979059E+02;  1.0021477E-01; -1.7347652E+02;3;  1.2305840E+00;  0.0000000E+00; -2.1657879E+00;0; -4.4224903E-02;  3.9797883E+04;  0.0000000E+00; -1.2130330E-01;  4.0000000E+04;  0.0000000E+00;  4.0012492E+04; -4.9762540E-02;  0.0000000E+00;  5.5376370E-03;  1.7709028E+03;
  5.8101213E-01;  9.9999998E-03; -2.4000131E-01;5990; -1.1353058E-02;  0.0000000E+00;  8.2477536E-03;  9.9974823E+02;  1.0021478E-01; -2.0858661E+02;3;  1.5330743E+00;  0.0000000E+00; -1.9378005E+00;0; -4.1376606E-02;  3.9798203E+04;  0.0000000E+00; -6.5861113E-02;  4.0000000E+04;  0.0000000E+00;  4.0008598E+04; -4.3391388E-02;  0.0000000E+00;  2.0147841E-03;  1.2694821E+03;
  5.8096713E-01;  9.9999998E-03; -2.3001458E-01;5991; -1.1247535E-02;  0.0000000E+00;  8.4466804E-03;  9.9968097E+02;  1.0021497E-01; -2.6428873E+02;3;  1.9014628E+00;  0.0000000E+00; -1.7306834E+00;0; -3.6407288E-02;  3.9798770E+04;  0.0000000E+00; -3.9084859E-02;  4.0000000E+04;  0.0000000E+00;  4.0002184E+04; -3.6262117E-02;  0.0000000E+00; -1.4516956E-04;  4.9537881E+02;
  5.8091801E-01;  9.9999998E-03; -2.2003344E-01;5992; -1.1129853E-02;  0.0000000E+00;  8.3984938E-03;  9.9964069E+02;  1.0021490E-01; -2.9767047E+02;3;  2.3186238E+00;  0.0000000E+00; -1.5622308E+00;0; -3.0547820E-02;  3.9799508E+04;  0.0000000E+00; -2.5775695E-02;  4.0000000E+04;  0.0000000E+00;  3.9998059E+04; -2.8318183E-02;  0.0000000E+00; -2.2296365E-03;  4.3447044E+01;
  5.8086872E-01;  9.9999998E-03; -2.1004908E-01;5993; -1.0974879E-02;  0.0000000E+00;  8.2454877E-03;  9.9962903E+02;  1.0021475E-01; -3.0734921E+02;3;  2.7703979E+00;  0.0000000E+00; -1.4228625E+00;0; -2.4355456E-02;  3.9800340E+04;  0.0000000E+00; -1.4736287E-02;  4.0000000E+04;  0.0000000E+00;  3.9996184E+04; -1.9518331E-02;  0.0000000E+00; -4.8371265E-03;  2.5851007E+02;
  5.8082336E-01;  9.9999998E-03; -2.0005816E-01;5994; -1.0787130E-02;  0.0000000E+00;  8.0398526E-03;  9.9962354E+02;  1.0021470E-01; -3.1189230E+02;3;  3.2098684E+00;  0.0000000E+00; -1.3120296E+00;0; -1.7730176E-02;  3.9800668E+04;  0.0000000E+00; -1.0579652E-03;  4.0000000E+04;  0.0000000E+00;  3.9995309E+04; -9.8405788E-03;  0.0000000E+00; -7.8895986E-03;  3.8257901E+02;
  5.8078462E-01;  9.9999998E-03; -1.9006190E-01;5995; -1.0577040E-02;  0.0000000E+00;  7.7884342E-03;  9.9961072E+02;  1.0021468E-01; -3.2250928E+02;3;  3.6721880E+00;  0.0000000E+00; -1.2302271E+00;0; -1.0508880E-02;  3.9800695E+04;  0.0000000E+00;  1.6572408E-02;  4.0000000E+04;  0.0000000E+00;  3.9993969E+04;  7.0361211E-04;  0.0000000E+00; -1.1212492E-02;  5.3711249E+02;
  5.8075333E-01;  9.9999998E-03; -1.8006237E-01;5996; -1.0345163E-02;  0.0000000E+00;  7.5024571E-03;  9.9958545E+02;  1.0021465E-01; -3.4344696E+02;3;  4.1292458E+00;  0.0000000E+00; -1.1465814E+00;0; -2.6078355E-03;  3.9800301E+04;  0.0000000E+00;  3.7729576E-02;  4.0000000E+04;  0.0000000E+00;  3.9992262E+04;  1.2061390E-02;  0.0000000E+00; -1.4669226E-02;  7.5363397E+02;
  5.8073008E-01;  9.9999998E-03; -1.7006089E-01;5997; -1.0100638E-02;  0.0000000E+00;  7.1787219E-03;  9.9954736E+02;  1.0021455E-01; -3.7500159E+02;3;  4.5746150E+00;  0.0000000E+00; -1.0815734E+00;0;  5.9989020E-03;  3.9799250E+04;  0.0000000E+00;  6.1436199E-02;  4.0000000E+04;  0.0000000E+00;  3.9990246E+04;  2.4148002E-02;  0.0000000E+00; -1.8149100E-02;  1.0112090E+03;
  5.8071470E-01;  9.9999998E-03; -1.6005817E-01;5998; -9.8426575E-03;  0.0000000E+00;  6.8260259E-03;  9.9949896E+02;  1.0021445E-01; -4.1509921E+02;3;  5.0256081E+00;  0.0000000E+00; -1.0214198E+00;0;  1.5283817E-02;  3.9797496E+04;  0.0000000E+00;  8.6448506E-02;  4.0000000E+04;  0.0000000E+00;  3.9988176E+04;  3.6848620E-02;  0.0000000E+00; -2.1564802E-02;  1.2749255E+03;
  5.8070642E-01;  9.9999998E-03; -1.5005481E-01;5999; -9.5772333E-03;  0.0000000E+00;  6.4443573E-03;  9.9944104E+02;  1.0021443E-01; -4.6309784E+02;3;  5.4463282E+00;  0.0000000E+00; -9.7301745E-01;0;  2.5183562E-02;  3.9794934E+04;  0.0000000E+00;  1.1108131E-01;  4.0000000E+04;  0.0000000E+00;  3.9986301E+04;  5.0031345E-02;  0.0000000E+00; -2.4847783E-02;  1.5112843E+03;
  5.8070433E-01;  9.9999998E-03; -1.4005119E-01;6000; -9.3040913E-03;  0.0000000E+00;  6.0422150E-03;  9.9937933E+02;  1.0021447E-01; -5.1420746E+02;3;  5.8715525E+00;  0.0000000E+00; -9.1060096E-01;0;  3.5596956E-02;  3.9791594E+04;  0.0000000E+00;  1.3323584E-01;  4.0000000E+04;  0.0000000E+00;  3.9984684E+04;  6.3552625E-02;  0.0000000E+00; -2.7955670E-02;  1.6959388E+03;
  5.8070785E-01;  9.9999998E-03; -1.3004729E-01;6001; -9.0303123E-03;  0.0000000E+00;  5.6215883E-03;  9.9931567E+02;  1.0021418E-01; -5.6694672E+02;3;  6.2872319E+00;  0.0000000E+00; -8.7289858E-01;0;  4.6382066E-02;  3.9787543E+04;  0.0000000E+00;  1.5058686E-01;  4.0000000E+04;  0.0000000E+00;  3.9983766E+04;  7.7262081E-02;  0.0000000E+00; -3.0880015E-02;  1.8172849E+03;
  5.8071661E-01;  9.9999998E-03; -1.2004298E-01;6002; -8.7559903E-03;  0.0000000E+00;  5.1900828E-03;  9.9924933E+02;  1.0021426E-01; -6.2190808E+02;3;  6.6612196E+00;  0.0000000E+00; -8.0807537E-01;0;  5.7356946E-02;  3.9782680E+04;  0.0000000E+00;  1.6094826E-01;  4.0000000E+04;  0.0000000E+00;  3.9983168E+04;  9.0993918E-02;  0.0000000E+00; -3.3636972E-02;  1.8763787E+03;
  5.8072942E-01;  9.9999998E-03; -1.1003834E-01;6003; -8.4917294E-03;  0.0000000E+00;  4.7527673E-03;  9.9918433E+02;  1.0021417E-01; -6.7578308E+02;3;  7.0089202E+00;  0.0000000E+00; -7.5633866E-01;0;  6.8327919E-02;  3.9777812E+04;  0.0000000E+00;  1.6295879E-01;  4.0000000E+04;  0.0000000E+00;  3.9983148E+04;  1.0456891E-01;  0.0000000E+00; -3.6240991E-02;  1.8831455E+03;
  5.9108269E-01;  9.9999998E-03; -2.7002579E-01;6048; -1.2474131E-02;  0.0000000E+00;  7.1460223E-03;  9.9974896E+02;  1.0034879E-01; -2.0799402E+02;3;  7.1089292E-01;  0.0000000E+00; -2.5882962E+00;0; -4.7790427E-02;  3.9694254E+04;  0.0000000E+00; -2.4649756E-01;  4.0000000E+04;  0.0000000E+00;  4.0007898E+04; -6.4149253E-02;  0.0000000E+00;  1.6358826E-02;  1.3416589E+03;
  5.9111309E-01;  9.9999998E-03; -2.6001462E-01;6049; -1.2398697E-02;  0.0000000E+00;  7.7916547E-03;  9.9978247E+02;  1.0034929E-01; -1.8024173E+02;3;  8.8010365E-01;  0.0000000E+00; -2.5338624E+00;0; -4.8232723E-02;  3.9693207E+04;  0.0000000E+00; -1.6177267E-01;  4.0000000E+04;  0.0000000E+00;  4.0011199E+04; -5.8278508E-02;  0.0000000E+00;  1.0045786E-02;  1.7251031E+03;
  5.9111226E-01;  9.9999998E-03; -2.5000533E-01;6050; -1.2251050E-02;  0.0000000E+00;  8.4532816E-03;  9.9977454E+02;  1.0034923E-01; -1.8680945E+02;3;  1.0994103E+00;  0.0000000E+00; -2.3689935E+00;0; -4.6579335E-02;  3.9692625E+04;  0.0000000E+00; -8.0121271E-02;  4.0000000E+04;  0.0000000E+00;  4.0010703E+04; -5.1624052E-02;  0.0000000E+00;  5.0447178E-03;  1.6725902E+03;
  5.9108758E-01;  9.9999998E-03; -2.4000429E-01;6051; -1.2068651E-02;  0.0000000E+00;  8.9170802E-03;  9.9972058E+02;  1.0034949E-01; -2.3149953E+02;3;  1.4063196E+00;  0.0000000E+00; -2.1632218E+00;0; -4.1970637E-02;  3.9692406E+04;  0.0000000E+00; -3.4081239E-02;  4.0000000E+04;  0.0000000E+00;  4.0006191E+04; -4.4107970E-02;  0.0000000E+00;  2.1373339E-03;  1.0933864E+03;
  5.9104925E-01;  9.9999998E-03; -2.3001602E-01;6052; -1.1888001E-02;  0.0000000E+00;  9.0623023E-03;  9.9964148E+02;  1.0034961E-01; -2.9702850E+02;3;  1.7557293E+00;  0.0000000E+00; -1.9786507E+00;0; -3.5281442E-02;  3.9692625E+04;  0.0000000E+00; -1.9546039E-02;  4.0000000E+04;  0.0000000E+00;  3.9999668E+04; -3.5652757E-02;  0.0000000E+00;  3.7131534E-04;  2.7601047E+02;
  5.9100384E-01;  9.9999998E-03; -2.2003525E-01;6053; -1.1700804E-02;  0.0000000E+00;  8.9654401E-03;  9.9959070E+02;  1.0034963E-01; -3.3910138E+02;3;  2.1494608E+00;  0.0000000E+00; -1.8369148E+00;0; -2.7763506E-02;  3.9692996E+04;  0.0000000E+00; -2.0236256E-02;  4.0000000E+04;  0.0000000E+00;  3.9994648E+04; -2.6192069E-02;  0.0000000E+00; -1.5714365E-03;  3.3015170E+02;
  5.9095514E-01;  9.9999998E-03; -2.1005228E-01;6054; -1.1488997E-02;  0.0000000E+00;  8.7565994E-03;  9.9956622E+02;  1.0034940E-01; -3.5939709E+02;3;  2.5851161E+00;  0.0000000E+00; -1.7243174E+00;0; -1.9840758E-02;  3.9693051E+04;  0.0000000E+00; -2.2747641E-02;  4.0000000E+04;  0.0000000E+00;  3.9992285E+04; -1.5675575E-02;  0.0000000E+00; -4.1651842E-03;  6.2315350E+02;
  5.9090805E-01;  9.9999998E-03; -2.0006227E-01;6055; -1.1245215E-02;  0.0000000E+00;  8.4962063E-03;  9.9954791E+02;  1.0034940E-01; -3.7455713E+02;3;  3.0633368E+00;  0.0000000E+00; -1.6069787E+00;0; -1.1371784E-02;  3.9692973E+04;  0.0000000E+00; -1.9882835E-02;  4.0000000E+04;  0.0000000E+00;  3.9991262E+04; -4.0834686E-03;  0.0000000E+00; -7.2883158E-03;  7.7803125E+02;
  5.9086567E-01;  9.9999998E-03; -1.9006598E-01;6056; -1.0976115E-02;  0.0000000E+00;  8.2008420E-03;  9.9952563E+02;  1.0034945E-01; -3.9302576E+02;3;  3.5214176E+00;  0.0000000E+00; -1.5222310E+00;0; -2.1709520E-03;  3.9692332E+04;  0.0000000E+00; -8.8213729E-03;  4.0000000E+04;  0.0000000E+00;  3.9989836E+04;  8.5615916E-03;  0.0000000E+00; -1.0732544E-02;  9.4354022E+02;
  5.9083003E-01;  9.9999998E-03; -1.8006596E-01;6057; -1.0694697E-02;  0.0000000E+00;  7.8685349E-03;  9.9948804E+02;  1.0034906E-01; -4.2413596E+02;3;  3.9997356E+00;  0.0000000E+00; -1.4379765E+00;0;  7.8554153E-03;  3.9690977E+04;  0.0000000E+00;  1.0581075E-02;  4.0000000E+04;  0.0000000E+00;  3.9987992E+04;  2.2191167E-02;  0.0000000E+00; -1.4335752E-02;  1.1615647E+03;
  5.9080255E-01;  9.9999998E-03; -1.7006357E-01;6058; -1.0398598E-02;  0.0000000E+00;  7.5055351E-03;  9.9943829E+02;  1.0034908E-01; -4.6536935E+02;3;  4.4624081E+00;  0.0000000E+00; -1.3750160E+00;0;  1.8703030E-02;  3.9689359E+04;  0.0000000E+00;  3.7115362E-02;  4.0000000E+04;  0.0000000E+00;  3.9986121E+04;  3.6690276E-02;  0.0000000E+00; -1.7987246E-02;  1.4120676E+03;
  5.9078407E-01;  9.9999998E-03; -1.6005953E-01;6059; -1.0098956E-02;  0.0000000E+00;  7.1133333E-03;  9.9938611E+02;  1.0034893E-01; -5.0857797E+02;3;  4.9107594E+00;  0.0000000E+00; -1.3115193E+00;0;  3.0311009E-02;  3.9687219E+04;  0.0000000E+00;  6.8706542E-02;  4.0000000E+04;  0.0000000E+00;  3.9984090E+04;  5.1914383E-02;  0.0000000E+00; -2.1603374E-02;  1.6585768E+03;
  5.9077448E-01;  9.9999998E-03; -1.5005451E-01;6060; -9.7883940E-03;  0.0000000E+00;  6.6963141E-03;  9.9933289E+02;  1.0034863E-01; -5.5267548E+02;3;  5.3537745E+00;  0.0000000E+00; -1.2441323E+00;0;  4.2569034E-02;  3.9684863E+04;  0.0000000E+00;  1.0251541E-01;  4.0000000E+04;  0.0000000E+00;  3.9982391E+04;  6.7692079E-02;  0.0000000E+00; -2.5123043E-02;  1.8662704E+03;
  5.9077400E-01;  9.9999998E-03; -1.4004876E-01;6061; -9.4785886E-03;  0.0000000E+00;  6.2588104E-03;  9.9928479E+02;  1.0034855E-01; -5.9252618E+02;3;  5.7768612E+00;  0.0000000E+00; -1.1819937E+00;0;  5.5337101E-02;  3.9682195E+04;  0.0000000E+00;  1.3523440E-01;  4.0000000E+04;  0.0000000E+00;  3.9981199E+04;  8.3846807E-02;  0.0000000E+00; -2.8509706E-02;  2.0110848E+03;
  5.9078240E-01;  9.9999998E-03; -1.3004237E-01;6062; -9.1691418E-03;  0.0000000E+00;  5.8051310E-03;  9.9924091E+02;  1.0034847E-01; -6.2887079E+02;3;  6.2157836E+00;  0.0000000E+00; -1.1276262E+00;0;  6.8434604E-02;  3.9679477E+04;  0.0000000E+00;  1.6345549E-01;  4.0000000E+04;  0.0000000E+00;  3.9980555E+04;  1.0019162E-01;  0.0000000E+00; -3.1757019E-02;  2.0837427E+03;
  5.9079957E-01;  9.9999998E-03; -1.2003559E-01;6063; -8.8651935E-03;  0.0000000E+00;  5.3425618E-03;  9.9920270E+02;  1.0034828E-01; -6.6057361E+02;3;  6.5804815E+00;  0.0000000E+00; -1.0490056E+00;0;  8.1649072E-02;  3.9676711E+04;  0.0000000E+00;  1.8395844E-01;  4.0000000E+04;  0.0000000E+00;  3.9980691E+04;  1.1652764E-01;  0.0000000E+00; -3.4878567E-02;  2.0890771E+03;
  5.9082347E-01;  9.9999998E-03; -1.1002907E-01;6064; -8.5726818E-03;  0.0000000E+00;  4.8768502E-03;  9.9917291E+02;  1.0034831E-01; -6.8521490E+02;3;  6.9570251E+00;  0.0000000E+00; -9.9305528E-01;0;  9.4757564E-02;  3.9673949E+04;  0.0000000E+00;  1.9440110E-01;  4.0000000E+04;  0.0000000E+00;  3.9981020E+04;  1.3263963E-01;  0.0000000E+00; -3.7882067E-02;  2.0414620E+03;
  6.0105550E-01;  9.9999998E-03; -2.7003136E-01;6109; -1.3534078E-02;  0.0000000E+00;  7.5944606E-03;  9.9966309E+02;  1.0056274E-01; -2.7910306E+02;3;  6.3198733E-01;  0.0000000E+00; -2.7529266E+00;0; -5.0329201E-02;  3.9519797E+04;  0.0000000E+00; -6.9403891E-03;  4.0000000E+04;  0.0000000E+00;  4.0007945E+04; -6.6553332E-02;  0.0000000E+00;  1.6224133E-02;  1.5057892E+03;
  6.0109204E-01;  9.9999998E-03; -2.6001897E-01;6110; -1.3336044E-02;  0.0000000E+00;  8.3659310E-03;  9.9968781E+02;  1.0056362E-01; -2.5865921E+02;3;  7.8487331E-01;  0.0000000E+00; -2.7159946E+00;0; -5.0639428E-02;  3.9518992E+04;  0.0000000E+00;  9.3777785E-03;  4.0000000E+04;  0.0000000E+00;  4.0010199E+04; -5.9938736E-02;  0.0000000E+00;  9.2993099E-03;  1.7878030E+03;
  6.0110193E-01;  9.9999998E-03; -2.5000969E-01;6111; -1.3074223E-02;  0.0000000E+00;  9.0927137E-03;  9.9966559E+02;  1.0056366E-01; -2.7702905E+02;3;  9.9155307E-01;  0.0000000E+00; -2.5787852E+00;0; -4.7870498E-02;  3.9518613E+04;  0.0000000E+00;  3.2648865E-02;  4.0000000E+04;  0.0000000E+00;  4.0008059E+04; -5.2399032E-02;  0.0000000E+00;  4.5285351E-03;  1.5213730E+03;
  6.0108900E-01;  9.9999998E-03; -2.4000843E-01;6112; -1.2798386E-02;  0.0000000E+00;  9.5139667E-03;  9.9960229E+02;  1.0056426E-01; -3.2947198E+02;3;  1.2535185E+00;  0.0000000E+00; -2.4235029E+00;0; -4.1426700E-02;  3.9519066E+04;  0.0000000E+00;  3.5737325E-02;  4.0000000E+04;  0.0000000E+00;  4.0002289E+04; -4.3832276E-02;  0.0000000E+00;  2.4055776E-03;  7.9201727E+02;
  6.0106212E-01;  9.9999998E-03; -2.3001999E-01;6113; -1.2524209E-02;  0.0000000E+00;  9.6065104E-03;  9.9952014E+02;  1.0056435E-01; -3.9756879E+02;3;  1.6106567E+00;  0.0000000E+00; -2.2537403E+00;0; -3.3010937E-02;  3.9519625E+04;  0.0000000E+00;  1.9077148E-02;  4.0000000E+04;  0.0000000E+00;  3.9994855E+04; -3.4149010E-02;  0.0000000E+00;  1.1380709E-03;  1.3892052E+02;
  6.0102582E-01;  9.9999998E-03; -2.2004043E-01;6114; -1.2250626E-02;  0.0000000E+00;  9.4564548E-03;  9.9946057E+02;  1.0056438E-01; -4.4690070E+02;3;  2.0063200E+00;  0.0000000E+00; -2.1258254E+00;0; -2.3816237E-02;  3.9520469E+04;  0.0000000E+00; -4.7622807E-03;  4.0000000E+04;  0.0000000E+00;  3.9989156E+04; -2.3270538E-02;  0.0000000E+00; -5.4569880E-04;  8.3048108E+02;
  6.0098332E-01;  9.9999998E-03; -2.1005908E-01;6115; -1.1964438E-02;  0.0000000E+00;  9.1932034E-03;  9.9943591E+02;  1.0056417E-01; -4.6734457E+02;3;  2.4104309E+00;  0.0000000E+00; -2.0149610E+00;0; -1.4168710E-02;  3.9520961E+04;  0.0000000E+00; -2.5308840E-02;  4.0000000E+04;  0.0000000E+00;  3.9986480E+04; -1.1138118E-02;  0.0000000E+00; -3.0305921E-03;  1.1690396E+03;
  6.0093933E-01;  9.9999998E-03; -2.0006970E-01;6116; -1.1656175E-02;  0.0000000E+00;  8.8853128E-03;  9.9941968E+02;  1.0056413E-01; -4.8077628E+02;3;  2.8839033E+00;  0.0000000E+00; -1.9102671E+00;0; -3.8767112E-03;  3.9520984E+04;  0.0000000E+00; -3.6345389E-02;  4.0000000E+04;  0.0000000E+00;  3.9985273E+04;  2.2684108E-03;  0.0000000E+00; -6.1451220E-03;  1.3274646E+03;
  6.0089839E-01;  9.9999998E-03; -1.9007291E-01;6117; -1.1324405E-02;  0.0000000E+00;  8.5483966E-03;  9.9939868E+02;  1.0056392E-01; -4.9815848E+02;3;  3.3693440E+00;  0.0000000E+00; -1.8181374E+00;0;  7.2733741E-03;  3.9520422E+04;  0.0000000E+00; -3.5460055E-02;  4.0000000E+04;  0.0000000E+00;  3.9984020E+04;  1.6913349E-02;  0.0000000E+00; -9.6399747E-03;  1.4778712E+03;
  6.0086340E-01;  9.9999998E-03; -1.8007137E-01;6118; -1.0984122E-02;  0.0000000E+00;  8.1796227E-03;  9.9936194E+02;  1.0056404E-01; -5.2862677E+02;3;  3.8484371E+00;  0.0000000E+00; -1.7476428E+00;0;  1.9369202E-02;  3.9519223E+04;  0.0000000E+00; -2.2681622E-02;  4.0000000E+04;  0.0000000E+00;  3.9982477E+04;  3.2708108E-02;  0.0000000E+00; -1.3338907E-02;  1.6718337E+03;
  6.0083693E-01;  9.9999998E-03; -1.7006664E-01;6119; -1.0633683E-02;  0.0000000E+00;  7.7819345E-03;  9.9931671E+02;  1.0056351E-01; -5.6610712E+02;3;  4.3411479E+00;  0.0000000E+00; -1.6734749E+00;0;  3.2379009E-02;  3.9517520E+04;  0.0000000E+00;  4.8071760E-04;  4.0000000E+04;  0.0000000E+00;  3.9980621E+04;  4.9510129E-02;  0.0000000E+00; -1.7131120E-02;  1.8905957E+03;
  6.0082072E-01;  9.9999998E-03; -1.6005957E-01;6120; -1.0285459E-02;  0.0000000E+00;  7.3590069E-03;  9.9927087E+02;  1.0056325E-01; -6.0408136E+02;3;  4.7993846E+00;  0.0000000E+00; -1.6057634E+00;0;  4.6199489E-02;  3.9515730E+04;  0.0000000E+00;  3.1635396E-02;  4.0000000E+04;  0.0000000E+00;  3.9979082E+04;  6.7140728E-02;  0.0000000E+00; -2.0941239E-02;  2.0957273E+03;
  6.0081595E-01;  9.9999998E-03; -1.5005080E-01;6121; -9.9307494E-03;  0.0000000E+00;  6.9116075E-03;  9.9922931E+02;  1.0056295E-01; -6.3850012E+02;3;  5.2476525E+00;  0.0000000E+00; -1.5365466E+00;0;  6.0673103E-02;  3.9513961E+04;  0.0000000E+00;  6.7557625E-02;  4.0000000E+04;  0.0000000E+00;  3.9977684E+04;  8.5389562E-02;  0.0000000E+00; -2.4716459E-02;  2.2512393E+03;
  6.0082221E-01;  9.9999998E-03; -1.4004134E-01;6122; -9.5822085E-03;  0.0000000E+00;  6.4457129E-03;  9.9919781E+02;  1.0056274E-01; -6.6457343E+02;3;  5.6816087E+00;  0.0000000E+00; -1.4628069E+00;0;  7.5613774E-02;  3.9512473E+04;  0.0000000E+00;  1.0452861E-01;  4.0000000E+04;  0.0000000E+00;  3.9977102E+04;  1.0403842E-01;  0.0000000E+00; -2.8424645E-02;  2.3338901E+03;
  6.0083765E-01;  9.9999998E-03; -1.3003235E-01;6123; -9.2346305E-03;  0.0000000E+00;  5.9638172E-03;  9.9918225E+02;  1.0056226E-01; -6.7751135E+02;3;  6.1269898E+00;  0.0000000E+00; -1.3957213E+00;0;  9.0796851E-02;  3.9511465E+04;  0.0000000E+00;  1.3875604E-01;  4.0000000E+04;  0.0000000E+00;  3.9977074E+04;  1.2285421E-01;  0.0000000E+00; -3.2057360E-02;  2.3376069E+03;
  6.0085958E-01;  9.9999998E-03; -1.2002490E-01;6124; -8.9023774E-03;  0.0000000E+00;  5.4778359E-03;  9.9917847E+02;  1.0056242E-01; -6.8062238E+02;3;  6.4953094E+00;  0.0000000E+00; -1.3070768E+00;0;  1.0597694E-01;  3.9511059E+04;  0.0000000E+00;  1.6649021E-01;  4.0000000E+04;  0.0000000E+00;  3.9977613E+04;  1.4159696E-01;  0.0000000E+00; -3.5620019E-02;  2.2715789E+03;
  6.0088527E-01;  9.9999998E-03; -1.1001951E-01;6125; -8.5774856E-03;  0.0000000E+00;  4.9877311E-03;  9.9919122E+02;  1.0056213E-01; -6.7005475E+02;3;  6.8818073E+00;  0.0000000E+00; -1.2330656E+00;0;  1.2090489E-01;  3.9511355E+04;  0.0000000E+00;  1.8466666E-01;  4.0000000E+04;  0.0000000E+00;  3.9978711E+04;  1.6001268E-01;  0.0000000E+00; -3.9107788E-02;  2.1554265E+03;
  6.1098742E-01;  9.9999998E-03; -2.7003860E-01;6170; -1.4614493E-02;  0.0000000E+00;  7.9962276E-03;  9.9947534E+02;  1.0089727E-01; -4.3465411E+02;3;  5.8607984E-01;  0.0000000E+00; -2.9158301E+00;0; -5.2474432E-02;  3.9245379E+04;  0.0000000E+00;  2.9762554E-01;  4.0000000E+04;  0.0000000E+00;  4.0007656E+04; -6.8004869E-02;  0.0000000E+00;  1.5530439E-02;  1.8212511E+03;
  6.1102682E-01;  9.9999998E-03; -2.6002494E-01;6171; -1.4281821E-02;  0.0000000E+00;  8.8739581E-03;  9.9949799E+02;  1.0089819E-01; -4.1588922E+02;3;  6.9722885E-01;  0.0000000E+00; -2.9349504E+00;0; -5.2463356E-02;  3.9245391E+04;  0.0000000E+00;  2.3091148E-01;  4.0000000E+04;  0.0000000E+00;  4.0008629E+04; -6.0778264E-02;  0.0000000E+00;  8.3149066E-03;  1.9016560E+03;
  6.1104292E-01;  9.9999998E-03; -2.5001431E-01;6172; -1.3902173E-02;  0.0000000E+00;  9.6040461E-03;  9.9946997E+02;  1.0089882E-01; -4.3909842E+02;3;  8.6780876E-01;  0.0000000E+00; -2.8355975E+00;0; -4.8177637E-02;  3.9246051E+04;  0.0000000E+00;  1.8151167E-01;  4.0000000E+04;  0.0000000E+00;  4.0004961E+04; -5.2491806E-02;  0.0000000E+00;  4.3141712E-03;  1.4483154E+03;
  6.1104214E-01;  9.9999998E-03; -2.4000980E-01;6173; -1.3518674E-02;  0.0000000E+00;  9.9704871E-03;  9.9941589E+02;  1.0089970E-01; -4.8393665E+02;3;  1.1265404E+00;  0.0000000E+00; -2.7035522E+00;0; -3.9971385E-02;  3.9247570E+04;  0.0000000E+00;  1.2663959E-01;  4.0000000E+04;  0.0000000E+00;  3.9998461E+04; -4.3026499E-02;  0.0000000E+00;  3.0551129E-03;  6.4354425E+02;
  6.1102927E-01;  9.9999998E-03; -2.3001769E-01;6174; -1.3137875E-02;  0.0000000E+00;  1.0020453E-02;  9.9934326E+02;  1.0089993E-01; -5.4408307E+02;3;  1.4313619E+00;  0.0000000E+00; -2.5807385E+00;0; -2.9998450E-02;  3.9249570E+04;  0.0000000E+00;  6.8920650E-02;  4.0000000E+04;  0.0000000E+00;  3.9990340E+04; -3.2281619E-02;  0.0000000E+00;  2.2831687E-03;  4.1232260E+02;
  6.1100602E-01;  9.9999998E-03; -2.2003694E-01;6175; -1.2760836E-02;  0.0000000E+00;  9.8386696E-03;  9.9928467E+02;  1.0089993E-01; -5.9262488E+02;3;  1.8453034E+00;  0.0000000E+00; -2.4419303E+00;0; -1.9286919E-02;  3.9251641E+04;  0.0000000E+00;  1.6202152E-02;  4.0000000E+04;  0.0000000E+00;  3.9983457E+04; -2.0169273E-02;  0.0000000E+00;  8.8235387E-04;  1.2345438E+03;
  6.1097425E-01;  9.9999998E-03; -2.1005563E-01;6176; -1.2384519E-02;  0.0000000E+00;  9.5319999E-03;  9.9926697E+02;  1.0090019E-01; -6.0729108E+02;3;  2.2752500E+00;  0.0000000E+00; -2.3247142E+00;0; -8.0437530E-03;  3.9253477E+04;  0.0000000E+00; -2.5624445E-02;  4.0000000E+04;  0.0000000E+00;  3.9980059E+04; -6.6225566E-03;  0.0000000E+00; -1.4211967E-03;  1.6734178E+03;
  6.1093843E-01;  9.9999998E-03; -2.0006628E-01;6177; -1.1996961E-02;  0.0000000E+00;  9.1872783E-03;  9.9926117E+02;  1.0089987E-01; -6.1213049E+02;3;  2.6935906E+00;  0.0000000E+00; -2.2193716E+00;0;  3.9238790E-03;  3.9254695E+04;  0.0000000E+00; -5.3074177E-02;  4.0000000E+04;  0.0000000E+00;  3.9978500E+04;  8.3756950E-03;  0.0000000E+00; -4.4518160E-03;  1.8780277E+03;
  6.1090344E-01;  9.9999998E-03; -1.9006860E-01;6178; -1.1592544E-02;  0.0000000E+00;  8.8238856E-03;  9.9924841E+02;  1.0089956E-01; -6.2269806E+02;3;  3.2132304E+00;  0.0000000E+00; -2.1392307E+00;0;  1.6846135E-02;  3.9255055E+04;  0.0000000E+00; -6.5479435E-02;  4.0000000E+04;  0.0000000E+00;  3.9977238E+04;  2.4778798E-02;  0.0000000E+00; -7.9326630E-03;  2.0330979E+03;
  6.1087275E-01;  9.9999998E-03; -1.8006538E-01;6179; -1.1180235E-02;  0.0000000E+00;  8.4408429E-03;  9.9922479E+02;  1.0089894E-01; -6.4225305E+02;3;  3.7087147E+00;  0.0000000E+00; -2.0543232E+00;0;  3.0794770E-02;  3.9254773E+04;  0.0000000E+00; -6.3931726E-02;  4.0000000E+04;  0.0000000E+00;  3.9975898E+04;  4.2472217E-02;  0.0000000E+00; -1.1677447E-02;  2.2062917E+03;
  6.1084962E-01;  9.9999998E-03; -1.7005855E-01;6180; -1.0767201E-02;  0.0000000E+00;  8.0243275E-03;  9.9918927E+02;  1.0089874E-01; -6.7168433E+02;3;  4.2153563E+00;  0.0000000E+00; -1.9881670E+00;0;  4.5705505E-02;  3.9253852E+04;  0.0000000E+00; -5.0445557E-02;  4.0000000E+04;  0.0000000E+00;  3.9974414E+04;  6.1284650E-02;  0.0000000E+00; -1.5579145E-02;  2.3857578E+03;
  6.1083609E-01;  9.9999998E-03; -1.6004971E-01;6181; -1.0367657E-02;  0.0000000E+00;  7.5794398E-03;  9.9915424E+02;  1.0089814E-01; -7.0072052E+02;3;  4.6790905E+00;  0.0000000E+00; -1.9054849E+00;0;  6.1423004E-02;  3.9252816E+04;  0.0000000E+00; -2.7375037E-02;  4.0000000E+04;  0.0000000E+00;  3.9973148E+04;  8.0998510E-02;  0.0000000E+00; -1.9575505E-02;  2.5362241E+03;
  6.1083251E-01;  9.9999998E-03; -1.5004037E-01;6182; -9.9634612E-03;  0.0000000E+00;  7.1104765E-03;  9.9912836E+02;  1.0089783E-01; -7.2215198E+02;3;  5.1411281E+00;  0.0000000E+00; -1.8332318E+00;0;  7.7733174E-02;  3.9251961E+04;  0.0000000E+00;  2.5604549E-03;  4.0000000E+04;  0.0000000E+00;  3.9972297E+04;  1.0135598E-01;  0.0000000E+00; -2.3622813E-02;  2.6244424E+03;
  6.1083788E-01;  9.9999998E-03; -1.4003190E-01;6183; -9.5687183E-03;  0.0000000E+00;  6.6269692E-03;  9.9912219E+02;  1.0089713E-01; -7.2723828E+02;3;  5.5872149E+00;  0.0000000E+00; -1.7496403E+00;0;  9.4402567E-02;  3.9251859E+04;  0.0000000E+00;  3.6235321E-02;  4.0000000E+04;  0.0000000E+00;  3.9972480E+04;  1.2209276E-01;  0.0000000E+00; -2.7690191E-02;  2.6310891E+03;
  6.1084992E-01;  9.9999998E-03; -1.3002539E-01;6184; -9.1757206E-03;  0.0000000E+00;  6.1289943E-03;  9.9913293E+02;  1.0089687E-01; -7.1834961E+02;3;  5.9711013E+00;  0.0000000E+00; -1.6372882E+00;0;  1.1117195E-01;  3.9252426E+04;  0.0000000E+00;  7.0353583E-02;  4.0000000E+04;  0.0000000E+00;  3.9973117E+04;  1.4293414E-01;  0.0000000E+00; -3.1762190E-02;  2.5544651E+03;
  6.1086667E-01;  9.9999998E-03; -1.2002128E-01;6185; -8.7989653E-03;  0.0000000E+00;  5.6291097E-03;  9.9916162E+02;  1.0089651E-01; -6.9459723E+02;3;  6.4146242E+00;  0.0000000E+00; -1.5726751E+00;0;  1.2778206E-01;  3.9254039E+04;  0.0000000E+00;  1.0130214E-01;  4.0000000E+04;  0.0000000E+00;  3.9974293E+04;  1.6361216E-01;  0.0000000E+00; -3.5830095E-02;  2.4080994E+03;
  6.1088634E-01;  9.9999998E-03; -1.1001936E-01;6186; -8.4363539E-03;  0.0000000E+00;  5.1328186E-03;  9.9920758E+02;  1.0089607E-01; -6.5652423E+02;3;  6.7297535E+00;  0.0000000E+00; -1.4484951E+00;0;  1.4397724E-01;  3.9256734E+04;  0.0000000E+00;  1.2568533E-01;  4.0000000E+04;  0.0000000E+00;  3.9975918E+04;  1.8384889E-01;  0.0000000E+00; -3.9871644E-02;  2.2164209E+03;
  6.2088913E-01;  9.9999998E-03; -2.7004936E-01;6231; -1.5680606E-02;  0.0000000E+00;  8.3429348E-03;  9.9926990E+02;  1.0140579E-01; -6.0487134E+02;3;  5.4945344E-01;  0.0000000E+00; -3.0784810E+00;0; -5.4799769E-02;  3.8840793E+04;  0.0000000E+00;  5.2292025E-01;  4.0000000E+04;  0.0000000E+00;  4.0005621E+04; -6.8954691E-02;  0.0000000E+00;  1.4154922E-02;  2.0951929E+03;
  6.2093139E-01;  9.9999998E-03; -2.6003465E-01;6232; -1.5213102E-02;  0.0000000E+00;  9.2780134E-03;  9.9929639E+02;  1.0140748E-01; -5.8294604E+02;3;  6.2235206E-01;  0.0000000E+00; -3.1568556E+00;0; -5.4006416E-02;  3.8842090E+04;  0.0000000E+00;  4.0909442E-01;  4.0000000E+04;  0.0000000E+00;  4.0004824E+04; -6.1280895E-02;  0.0000000E+00;  7.2744787E-03;  1.9510509E+03;
  6.2095445E-01;  9.9999998E-03; -2.5002235E-01;6233; -1.4710107E-02;  0.0000000E+00;  9.9810176E-03;  9.9928082E+02;  1.0140868E-01; -5.9583453E+02;3;  7.5799346E-01;  0.0000000E+00; -3.1352179E+00;0; -4.8120890E-02;  3.8844473E+04;  0.0000000E+00;  3.0812842E-01;  4.0000000E+04;  0.0000000E+00;  4.0000172E+04; -5.2435268E-02;  0.0000000E+00;  4.3143765E-03;  1.3390807E+03;
  6.2096548E-01;  9.9999998E-03; -2.4001211E-01;6234; -1.4210610E-02;  0.0000000E+00;  1.0277900E-02;  9.9925580E+02;  1.0140960E-01; -6.1657471E+02;3;  9.6016562E-01;  0.0000000E+00; -3.0586975E+00;0; -3.8262635E-02;  3.8847887E+04;  0.0000000E+00;  2.0874758E-01;  4.0000000E+04;  0.0000000E+00;  3.9993965E+04; -4.2284150E-02;  0.0000000E+00;  4.0215142E-03;  5.7893652E+02;
  6.2096727E-01;  9.9999998E-03; -2.3001219E-01;6235; -1.3697199E-02;  0.0000000E+00;  1.0306321E-02;  9.9921191E+02;  1.0141005E-01; -6.5291931E+02;3;  1.2636863E+00;  0.0000000E+00; -2.9250987E+00;0; -2.6992554E-02;  3.8851957E+04;  0.0000000E+00;  1.1589690E-01;  4.0000000E+04;  0.0000000E+00;  3.9985824E+04; -3.0721657E-02;  0.0000000E+00;  3.7291038E-03;  5.4733093E+02;
  6.2095797E-01;  9.9999998E-03; -2.2002611E-01;6236; -1.3202559E-02;  0.0000000E+00;  1.0110400E-02;  9.9917200E+02;  1.0141039E-01; -6.8600476E+02;3;  1.6204826E+00;  0.0000000E+00; -2.8011179E+00;0; -1.4993507E-02;  3.8856012E+04;  0.0000000E+00;  3.5723541E-02;  4.0000000E+04;  0.0000000E+00;  3.9978086E+04; -1.7651886E-02;  0.0000000E+00;  2.6583779E-03;  1.4803362E+03;
  6.2093872E-01;  9.9999998E-03; -2.1004242E-01;6237; -1.2715561E-02;  0.0000000E+00;  9.7840698E-03;  9.9916583E+02;  1.0141014E-01; -6.9109106E+02;3;  2.0947571E+00;  0.0000000E+00; -2.6625905E+00;0; -2.4047953E-03;  3.8859805E+04;  0.0000000E+00; -2.7557829E-02;  4.0000000E+04;  0.0000000E+00;  3.9973633E+04; -3.0081165E-03;  0.0000000E+00;  6.0332124E-04;  2.0585439E+03;
  6.2091261E-01;  9.9999998E-03; -2.0005283E-01;6238; -1.2231099E-02;  0.0000000E+00;  9.4142072E-03;  9.9917340E+02;  1.0140969E-01; -6.8481964E+02;3;  2.5461519E+00;  0.0000000E+00; -2.5446961E+00;0;  1.0961976E-02;  3.8863035E+04;  0.0000000E+00; -7.2671242E-02;  4.0000000E+04;  0.0000000E+00;  3.9971230E+04;  1.3221510E-02;  0.0000000E+00; -2.2595334E-03;  2.3549236E+03;
  6.2088448E-01;  9.9999998E-03; -1.9005571E-01;6239; -1.1746279E-02;  0.0000000E+00;  9.0325121E-03;  9.9917657E+02;  1.0140939E-01; -6.8220239E+02;3;  3.0210164E+00;  0.0000000E+00; -2.4466169E+00;0;  2.5319017E-02;  3.8865078E+04;  0.0000000E+00; -1.0060491E-01;  4.0000000E+04;  0.0000000E+00;  3.9969754E+04;  3.0975051E-02;  0.0000000E+00; -5.6560328E-03;  2.5411550E+03;
  6.2085736E-01;  9.9999998E-03; -1.8005328E-01;6240; -1.1257499E-02;  0.0000000E+00;  8.6395852E-03;  9.9916949E+02;  1.0140860E-01; -6.8807880E+02;3;  3.5283613E+00;  0.0000000E+00; -2.3412454E+00;0;  4.0713571E-02;  3.8866246E+04;  0.0000000E+00; -1.1393596E-01;  4.0000000E+04;  0.0000000E+00;  3.9968551E+04;  5.0110057E-02;  0.0000000E+00; -9.3964860E-03;  2.6997742E+03;
  6.2083459E-01;  9.9999998E-03; -1.7004766E-01;6241; -1.0760122E-02;  0.0000000E+00;  8.2343007E-03;  9.9915021E+02;  1.0140774E-01; -7.0402893E+02;3;  4.0250225E+00;  0.0000000E+00; -2.2441983E+00;0;  5.7037354E-02;  3.8866617E+04;  0.0000000E+00; -1.1546180E-01;  4.0000000E+04;  0.0000000E+00;  3.9967305E+04;  7.0417799E-02;  0.0000000E+00; -1.3380446E-02;  2.8351064E+03;
  6.2081844E-01;  9.9999998E-03; -1.6004068E-01;6242; -1.0268053E-02;  0.0000000E+00;  7.8167859E-03;  9.9913416E+02;  1.0140680E-01; -7.1731250E+02;3;  4.5259008E+00;  0.0000000E+00; -2.1825104E+00;0;  7.4086308E-02;  3.8866590E+04;  0.0000000E+00; -1.0732251E-01;  4.0000000E+04;  0.0000000E+00;  3.9966762E+04;  9.1641948E-02;  0.0000000E+00; -1.7555643E-02;  2.9231421E+03;
  6.2080985E-01;  9.9999998E-03; -1.5003389E-01;6243; -9.7808884E-03;  0.0000000E+00;  7.3671807E-03;  9.9912573E+02;  1.0140602E-01; -7.2432465E+02;3;  4.9593406E+00;  0.0000000E+00; -2.1113434E+00;0;  9.1600947E-02;  3.8866730E+04;  0.0000000E+00; -9.0966180E-02;  4.0000000E+04;  0.0000000E+00;  3.9966539E+04;  1.1348854E-01;  0.0000000E+00; -2.1887593E-02;  2.9386824E+03;
  6.2080848E-01;  9.9999998E-03; -1.4002842E-01;6244; -9.2969686E-03;  0.0000000E+00;  6.8813832E-03;  9.9913452E+02;  1.0140539E-01; -7.1701624E+02;3;  5.4133897E+00;  0.0000000E+00; -2.0440664E+00;0;  1.0930831E-01;  3.8867668E+04;  0.0000000E+00; -6.7817330E-02;  4.0000000E+04;  0.0000000E+00;  3.9967180E+04;  1.3565193E-01;  0.0000000E+00; -2.6343621E-02;  2.8678245E+03;
  6.2081307E-01;  9.9999998E-03; -1.3002458E-01;6245; -8.8351620E-03;  0.0000000E+00;  6.3954862E-03;  9.9916455E+02;  1.0140461E-01; -6.9217743E+02;3;  5.7823772E+00;  0.0000000E+00; -1.9387747E+00;0;  1.2694038E-01;  3.8869543E+04;  0.0000000E+00; -3.9795961E-02;  4.0000000E+04;  0.0000000E+00;  3.9968367E+04;  1.5783525E-01;  0.0000000E+00; -3.0894862E-02;  2.7121218E+03;
  6.2082183E-01;  9.9999998E-03; -1.2002262E-01;6246; -8.3734980E-03;  0.0000000E+00;  5.9039975E-03;  9.9921661E+02;  1.0140344E-01; -6.4901819E+02;3;  6.0985575E+00;  0.0000000E+00; -1.7985563E+00;0;  1.4422327E-01;  3.8872566E+04;  0.0000000E+00; -9.7528491E-03;  4.0000000E+04;  0.0000000E+00;  3.9970312E+04;  1.7973611E-01;  0.0000000E+00; -3.5512839E-02;  2.4879675E+03;
  6.2083268E-01;  9.9999998E-03; -1.1002254E-01;6247; -7.9109650E-03;  0.0000000E+00;  5.4093688E-03;  9.9928845E+02;  1.0140334E-01; -5.8951373E+02;3;  6.4510407E+00;  0.0000000E+00; -1.7206253E+00;0;  1.6091031E-01;  3.8877004E+04;  0.0000000E+00;  1.8972093E-02;  4.0000000E+04;  0.0000000E+00;  3.9972469E+04;  2.0106320E-01;  0.0000000E+00; -4.0152896E-02;  2.2230825E+03;
  6.3075513E-01;  9.9999998E-03; -2.7006596E-01;6292; -1.6712811E-02;  0.0000000E+00;  8.5738469E-03;  9.9919867E+02;  1.0214782E-01; -6.6388190E+02;3;  5.1144874E-01;  0.0000000E+00; -3.2937596E+00;0; -5.7365656E-02;  3.8279590E+04;  0.0000000E+00;  4.7924048E-01;  4.0000000E+04;  0.0000000E+00;  4.0000008E+04; -6.9952495E-02;  0.0000000E+00;  1.2586839E-02;  1.9913856E+03;
  6.3080156E-01;  9.9999998E-03; -2.6005161E-01;6293; -1.6102483E-02;  0.0000000E+00;  9.5953913E-03;  9.9923499E+02;  1.0215039E-01; -6.3380872E+02;3;  5.4535538E-01;  0.0000000E+00; -3.4436698E+00;0; -5.6201331E-02;  3.8282910E+04;  0.0000000E+00;  4.2288646E-01;  4.0000000E+04;  0.0000000E+00;  3.9997211E+04; -6.2024355E-02;  0.0000000E+00;  5.8230236E-03;  1.6440247E+03;
  6.3083446E-01;  9.9999998E-03; -2.5003931E-01;6294; -1.5466222E-02;  0.0000000E+00;  1.0299665E-02;  9.9923615E+02;  1.0215224E-01; -6.3282111E+02;3;  6.4690918E-01;  0.0000000E+00; -3.4729824E+00;0; -4.8972949E-02;  3.8287254E+04;  0.0000000E+00;  3.4398001E-01;  4.0000000E+04;  0.0000000E+00;  3.9991238E+04; -5.2847665E-02;  0.0000000E+00;  3.8747150E-03;  9.1801184E+02;
  6.3085926E-01;  9.9999998E-03; -2.4002515E-01;6295; -1.4838118E-02;  0.0000000E+00;  1.0508008E-02;  9.9925690E+02;  1.0215345E-01; -6.1563641E+02;3;  7.9710728E-01;  0.0000000E+00; -3.4333484E+00;0; -3.7420645E-02;  3.8292953E+04;  0.0000000E+00;  2.4589096E-01;  4.0000000E+04;  0.0000000E+00;  3.9985551E+04; -4.2281393E-02;  0.0000000E+00;  4.8607481E-03;  3.6794107E+02;
  6.3087410E-01;  9.9999998E-03; -2.3001739E-01;6296; -1.4179706E-02;  0.0000000E+00;  1.0504357E-02;  9.9926099E+02;  1.0215431E-01; -6.1227844E+02;3;  1.0459440E+00;  0.0000000E+00; -3.3386297E+00;0; -2.4968069E-02;  3.8299457E+04;  0.0000000E+00;  1.4276052E-01;  4.0000000E+04;  0.0000000E+00;  3.9978531E+04; -3.0216219E-02;  0.0000000E+00;  5.2481489E-03;  8.4286060E+02;
  6.3087767E-01;  9.9999998E-03; -2.2002369E-01;6297; -1.3520623E-02;  0.0000000E+00;  1.0330300E-02;  9.9925665E+02;  1.0215443E-01; -6.1583392E+02;3;  1.3452913E+00;  0.0000000E+00; -3.2211471E+00;0; -1.1983201E-02;  3.8306242E+04;  0.0000000E+00;  4.7086246E-02;  4.0000000E+04;  0.0000000E+00;  3.9970930E+04; -1.6561899E-02;  0.0000000E+00;  4.5786984E-03;  1.7694939E+03;
  6.3087088E-01;  9.9999998E-03; -2.1003525E-01;6298; -1.2905559E-02;  0.0000000E+00;  9.9994102E-03;  9.9927588E+02;  1.0215411E-01; -5.9993317E+02;3;  1.8205411E+00;  0.0000000E+00; -3.0506194E+00;0;  1.6492007E-03;  3.8312578E+04;  0.0000000E+00; -3.3087645E-02;  4.0000000E+04;  0.0000000E+00;  3.9965828E+04; -1.2488046E-03;  0.0000000E+00;  2.8980053E-03;  2.4099097E+03;
  6.3085532E-01;  9.9999998E-03; -2.0004466E-01;6299; -1.2303950E-02;  0.0000000E+00;  9.6170092E-03;  9.9930499E+02;  1.0215338E-01; -5.7578571E+02;3;  2.2799809E+00;  0.0000000E+00; -2.9169667E+00;0;  1.6025741E-02;  3.8318047E+04;  0.0000000E+00; -9.5109567E-02;  4.0000000E+04;  0.0000000E+00;  3.9963160E+04;  1.5716568E-02;  0.0000000E+00;  3.0917331E-04;  2.7648533E+03;
  6.3083476E-01;  9.9999998E-03; -1.9004862E-01;6300; -1.1707912E-02;  0.0000000E+00;  9.2325769E-03;  9.9933405E+02;  1.0215213E-01; -5.5173700E+02;3;  2.7272148E+00;  0.0000000E+00; -2.7797346E+00;0;  3.1325281E-02;  3.8322184E+04;  0.0000000E+00; -1.3971198E-01;  4.0000000E+04;  0.0000000E+00;  3.9961664E+04;  3.4250844E-02;  0.0000000E+00; -2.9255636E-03;  2.9629812E+03;
  6.3081217E-01;  9.9999998E-03; -1.8004800E-01;6301; -1.1109483E-02;  0.0000000E+00;  8.8481801E-03;  9.9934589E+02;  1.0215112E-01; -5.4191016E+02;3;  3.2519157E+00;  0.0000000E+00; -2.6693985E+00;0;  4.7572020E-02;  3.8325035E+04;  0.0000000E+00; -1.7031750E-01;  4.0000000E+04;  0.0000000E+00;  3.9960621E+04;  5.4183178E-02;  0.0000000E+00; -6.6111586E-03;  3.0922271E+03;
  6.3079065E-01;  9.9999998E-03; -1.7004456E-01;6302; -1.0496385E-02;  0.0000000E+00;  8.4662456E-03;  9.9934918E+02;  1.0214944E-01; -5.3919415E+02;3;  3.7544081E+00;  0.0000000E+00; -2.5752611E+00;0;  6.4621776E-02;  3.8326617E+04;  0.0000000E+00; -1.9036615E-01;  4.0000000E+04;  0.0000000E+00;  3.9959777E+04;  7.5269990E-02;  0.0000000E+00; -1.0648213E-02;  3.1742244E+03;
  6.3077307E-01;  9.9999998E-03; -1.6003986E-01;6303; -9.8594930E-03;  0.0000000E+00;  8.0809370E-03;  9.9934674E+02;  1.0214797E-01; -5.4121881E+02;3;  4.2062187E+00;  0.0000000E+00; -2.4615288E+00;0;  8.2226314E-02;  3.8327691E+04;  0.0000000E+00; -2.0169723E-01;  4.0000000E+04;  0.0000000E+00;  3.9959762E+04;  9.7217888E-02;  0.0000000E+00; -1.4991575E-02;  3.1982974E+03;
  6.3076097E-01;  9.9999998E-03; -1.5003514E-01;6304; -9.2046829E-03;  0.0000000E+00;  7.6973056E-03;  9.9935260E+02;  1.0214671E-01; -5.3637946E+02;3;  4.6456685E+00;  0.0000000E+00; -2.4104335E+00;0;  1.0009394E-01;  3.8328816E+04;  0.0000000E+00; -2.0412163E-01;  4.0000000E+04;  0.0000000E+00;  3.9960227E+04;  1.1970559E-01;  0.0000000E+00; -1.9611651E-02;  3.1470361E+03;
  6.3075531E-01;  9.9999998E-03; -1.4003113E-01;6305; -8.5032191E-03;  0.0000000E+00;  7.3305019E-03;  9.9937024E+02;  1.0214566E-01; -5.2176257E+02;3;  4.9137311E+00;  0.0000000E+00; -2.3100059E+00;0;  1.1793091E-01;  3.8330621E+04;  0.0000000E+00; -1.9663028E-01;  4.0000000E+04;  0.0000000E+00;  3.9961363E+04;  1.4239882E-01;  0.0000000E+00; -2.4467906E-02;  3.0100813E+03;
  6.3075656E-01;  9.9999998E-03; -1.3002814E-01;6306; -7.7316039E-03;  0.0000000E+00;  6.9779782E-03;  9.9941028E+02;  1.0214410E-01; -4.8857837E+02;3;  5.1011858E+00;  0.0000000E+00; -2.1899414E+00;0;  1.3546361E-01;  3.8333012E+04;  0.0000000E+00; -1.7910357E-01;  4.0000000E+04;  0.0000000E+00;  3.9963168E+04;  1.6497608E-01;  0.0000000E+00; -2.9512463E-02;  2.7899373E+03;
  6.3076496E-01;  9.9999998E-03; -1.2002624E-01;6307; -6.8030655E-03;  0.0000000E+00;  6.6623343E-03;  9.9947247E+02;  1.0214268E-01; -4.3702432E+02;3;  5.2020388E+00;  0.0000000E+00; -2.0830600E+00;0;  1.5242063E-01;  3.8336863E+04;  0.0000000E+00; -1.5317439E-01;  4.0000000E+04;  0.0000000E+00;  3.9965527E+04;  1.8711428E-01;  0.0000000E+00; -3.4693655E-02;  2.5032251E+03;
  6.3077998E-01;  9.9999998E-03; -1.1002525E-01;6308; -5.4800995E-03;  0.0000000E+00;  6.4505809E-03;  9.9956110E+02;  1.0214174E-01; -3.6364374E+02;3;  4.8602285E+00;  0.0000000E+00; -2.0145371E+00;0;  1.6853027E-01;  3.8342285E+04;  0.0000000E+00; -1.2186698E-01;  4.0000000E+04;  0.0000000E+00;  3.9968137E+04;  2.0847327E-01;  0.0000000E+00; -3.9942998E-02;  2.1787375E+03;
  6.4060467E-01;  9.9999998E-03; -2.7009049E-01;6353; -1.7690156E-02;  0.0000000E+00;  8.6611947E-03;  9.9941284E+02;  1.0317664E-01; -4.8645493E+02;3;  4.9844494E-01;  0.0000000E+00; -3.5668905E+00;0; -6.0647242E-02;  3.7544887E+04;  0.0000000E+00; -1.1065400E-01;  4.0000000E+04;  0.0000000E+00;  3.9988922E+04; -7.1586639E-02;  0.0000000E+00;  1.0939398E-02;  1.3340365E+03;
  6.4065641E-01;  9.9999998E-03; -2.6007906E-01;6354; -1.6927468E-02;  0.0000000E+00;  9.8930290E-03;  9.9945166E+02;  1.0317994E-01; -4.5430774E+02;3;  4.8146376E-01;  0.0000000E+00; -3.7993879E+00;0; -6.0436975E-02;  3.7550039E+04;  0.0000000E+00;  1.0173372E-01;  4.0000000E+04;  0.0000000E+00;  3.9983520E+04; -6.3606858E-02;  0.0000000E+00;  3.1698833E-03;  6.5508276E+02;
  6.4069986E-01;  9.9999998E-03; -2.5007039E-01;6355; -1.6144447E-02;  0.0000000E+00;  1.0596224E-02;  9.9947113E+02;  1.0318225E-01; -4.3816006E+02;3;  4.9695480E-01;  0.0000000E+00; -3.8919494E+00;0; -5.1750563E-02;  3.7556910E+04;  0.0000000E+00;  1.9281635E-01;  4.0000000E+04;  0.0000000E+00;  3.9975918E+04; -5.4348510E-02;  0.0000000E+00;  2.5979476E-03;  4.1984961E+02;
  6.4073741E-01;  9.9999998E-03; -2.4005671E-01;6356; -1.5368547E-02;  0.0000000E+00;  1.0685628E-02;  9.9953870E+02;  1.0318413E-01; -3.8216168E+02;3;  5.7312196E-01;  0.0000000E+00; -3.8848560E+00;0; -3.8352162E-02;  3.7564941E+04;  0.0000000E+00;  1.8804236E-01;  4.0000000E+04;  0.0000000E+00;  3.9971305E+04; -4.3672502E-02;  0.0000000E+00;  5.3203385E-03;  9.5038293E+02;
  6.4076543E-01;  9.9999998E-03; -2.3004362E-01;6357; -1.4554203E-02;  0.0000000E+00;  1.0611151E-02;  9.9961224E+02;  1.0318504E-01; -3.2122519E+02;3;  7.3546273E-01;  0.0000000E+00; -3.8235142E+00;0; -2.4736738E-02;  3.7574051E+04;  0.0000000E+00;  1.2649144E-01;  4.0000000E+04;  0.0000000E+00;  3.9966414E+04; -3.1465966E-02;  0.0000000E+00;  6.7292289E-03;  1.5179326E+03;
  6.4078206E-01;  9.9999998E-03; -2.2004117E-01;6358; -1.3716728E-02;  0.0000000E+00;  1.0456797E-02;  9.9966840E+02;  1.0318518E-01; -2.7470804E+02;3;  9.9829203E-01;  0.0000000E+00; -3.7002103E+00;0; -1.1046583E-02;  3.7583469E+04;  0.0000000E+00;  4.2255275E-02;  4.0000000E+04;  0.0000000E+00;  3.9960766E+04; -1.7650479E-02;  0.0000000E+00;  6.6038966E-03;  2.2250017E+03;
  6.4078844E-01;  9.9999998E-03; -2.1004573E-01;6359; -1.2912236E-02;  0.0000000E+00;  1.0196865E-02;  9.9972638E+02;  1.0318411E-01; -2.2670943E+02;3;  1.3717597E+00;  0.0000000E+00; -3.5538661E+00;0;  3.1366048E-03;  3.7592004E+04;  0.0000000E+00; -4.2220742E-02;  4.0000000E+04;  0.0000000E+00;  3.9956469E+04; -2.1796275E-03;  0.0000000E+00;  5.3162323E-03;  2.7668401E+03;
  6.4078563E-01;  9.9999998E-03; -2.0005129E-01;6360; -1.2102812E-02;  0.0000000E+00;  9.9001732E-03;  9.9978851E+02;  1.0318274E-01; -1.7520476E+02;3;  1.7469809E+00;  0.0000000E+00; -3.4235425E+00;0;  1.7976880E-02;  3.7599793E+04;  0.0000000E+00; -1.1569937E-01;  4.0000000E+04;  0.0000000E+00;  3.9954098E+04;  1.4922711E-02;  0.0000000E+00;  3.0541683E-03;  3.0800408E+03;
  6.4077795E-01;  9.9999998E-03; -1.9005495E-01;6361; -1.1257927E-02;  0.0000000E+00;  9.6303774E-03;  9.9984351E+02;  1.0318115E-01; -1.2967523E+02;3;  2.0805974E+00;  0.0000000E+00; -3.3152761E+00;0;  3.3590905E-02;  3.7605785E+04;  0.0000000E+00; -1.7561524E-01;  4.0000000E+04;  0.0000000E+00;  3.9952781E+04;  3.3542763E-02;  0.0000000E+00;  4.8142876E-05;  3.2412654E+03;
  6.4077169E-01;  9.9999998E-03; -1.8005477E-01;6362; -1.0319456E-02;  0.0000000E+00;  9.4096642E-03;  9.9987988E+02;  1.0317864E-01; -9.9503265E+01;3;  2.3318489E+00;  0.0000000E+00; -3.2565949E+00;0;  4.9953505E-02;  3.7610449E+04;  0.0000000E+00; -2.2367305E-01;  4.0000000E+04;  0.0000000E+00;  3.9952270E+04;  5.3475268E-02;  0.0000000E+00; -3.5217616E-03;  3.3169163E+03;
  6.4077520E-01;  9.9999998E-03; -1.7004895E-01;6363; -8.9734783E-03;  0.0000000E+00;  9.3961470E-03;  9.9989880E+02;  1.0317668E-01; -8.3849403E+01;3;  1.8752344E+00;  0.0000000E+00; -3.5639091E+00;0;  6.6853620E-02;  3.7613512E+04;  0.0000000E+00; -2.6314083E-01;  4.0000000E+04;  0.0000000E+00;  3.9952270E+04;  7.4423164E-02;  0.0000000E+00; -7.5695417E-03;  3.3377766E+03;
  6.4078641E-01;  9.9999998E-03; -1.6003905E-01;6364; -5.7241977E-03;  0.0000000E+00;  1.0405773E-02;  9.9990918E+02;  1.0317381E-01; -7.5257065E+01;3; -8.3897322E-01;  0.0000000E+00; -4.3967967E+00;0;  8.3901457E-02;  3.7615629E+04;  0.0000000E+00; -2.9532555E-01;  4.0000000E+04;  0.0000000E+00;  3.9952707E+04;  9.5953509E-02;  0.0000000E+00; -1.2052051E-02;  3.3048943E+03;
  6.4079767E-01;  9.9999998E-03; -1.5002915E-01;6365; -1.6192038E-03;  0.0000000E+00;  1.1606797E-02;  9.9992004E+02;  1.0317156E-01; -6.6220291E+01;3; -2.8304064E+00;  0.0000000E+00; -4.5975218E+00;0;  1.0088747E-01;  3.7617320E+04;  0.0000000E+00; -3.1850946E-01;  4.0000000E+04;  0.0000000E+00;  3.9953641E+04;  1.1781719E-01;  0.0000000E+00; -1.6929716E-02;  3.2036213E+03;
  6.4080763E-01;  9.9999998E-03; -1.4002061E-01;6366;  2.1163153E-03;  0.0000000E+00;  1.2293685E-02;  9.9993921E+02;  1.0316910E-01; -5.0368900E+01;3; -4.1542053E+00;  0.0000000E+00; -4.4432678E+00;0;  1.1761495E-01;  3.7619070E+04;  0.0000000E+00; -3.2913488E-01;  4.0000000E+04;  0.0000000E+00;  3.9955074E+04;  1.3978659E-01;  0.0000000E+00; -2.2171628E-02;  3.0230234E+03;
  6.4081746E-01;  9.9999998E-03; -1.3001378E-01;6367;  5.6031249E-03;  0.0000000E+00;  1.2565147E-02;  9.9997302E+02;  1.0316669E-01; -2.2369717E+01;3; -5.1473517E+00;  0.0000000E+00; -4.2538395E+00;0;  1.3384980E-01;  3.7621543E+04;  0.0000000E+00; -3.2468241E-01;  4.0000000E+04;  0.0000000E+00;  3.9957148E+04;  1.6154560E-01;  0.0000000E+00; -2.7695801E-02;  2.7641069E+03;
  6.4082748E-01;  9.9999998E-03; -1.2000893E-01;6368;  8.9495992E-03;  0.0000000E+00;  1.2558977E-02;  1.0000294E+03;  1.0316452E-01;  2.4295588E+01;3; -6.0746522E+00;  0.0000000E+00; -3.9550490E+00;0;  1.4936483E-01;  3.7624801E+04;  0.0000000E+00; -3.0520409E-01;  4.0000000E+04;  0.0000000E+00;  3.9960004E+04;  1.8278566E-01;  0.0000000E+00; -3.3420827E-02;  2.4412246E+03;
  6.4083695E-01;  9.9999998E-03; -1.1000640E-01;6369;  1.2185850E-02;  0.0000000E+00;  1.2325844E-02;  1.0001033E+03;  1.0316254E-01;  8.5528366E+01;3; -6.9195890E+00;  0.0000000E+00; -3.6819961E+00;0;  1.6396832E-01;  3.7629770E+04;  0.0000000E+00; -2.7313060E-01;  4.0000000E+04;  0.0000000E+00;  3.9962781E+04;  2.0321622E-01;  0.0000000E+00; -3.9247900E-02;  2.0812324E+03;
  6.5077823E-01;  9.9999998E-03; -1.0999464E-01;6430;  1.5330793E-02;  0.0000000E+00;  1.2469410E-02;  1.0007806E+03;  1.0449031E-01;  6.4669702E+02;3; -1.0170021E+01;  0.0000000E+00; -4.2991114E+00;0;  1.5123600E-01;  3.6726629E+04;  0.0000000E+00; -4.0442207E-01;  4.0000000E+04;  0.0000000E+00;  3.9956207E+04;  1.8914820E-01;  0.0000000E+00; -3.7912205E-02;  1.9231898E+03;
  6.5078408E-01;  9.9999998E-03; -1.1999780E-01;6429;  1.2301165E-02;  0.0000000E+00;  1.2939777E-02;  1.0007404E+03;  1.0449348E-01;  6.1341406E+02;3; -9.4347534E+00;  0.0000000E+00; -4.5955386E+00;0;  1.3851784E-01;  3.6723746E+04;  0.0000000E+00; -4.3460062E-01;  4.0000000E+04;  0.0000000E+00;  3.9953316E+04;  1.7015223E-01;  0.0000000E+00; -3.1634387E-02;  2.2838162E+03;
  6.5078992E-01;  9.9999998E-03; -1.3000350E-01;6428;  9.1877226E-03;  0.0000000E+00;  1.3267254E-02;  1.0007180E+03;  1.0449724E-01;  5.9484668E+02;3; -8.6768265E+00;  0.0000000E+00; -4.8674355E+00;0;  1.2481270E-01;  3.6722164E+04;  0.0000000E+00; -4.4550624E-01;  4.0000000E+04;  0.0000000E+00;  3.9950750E+04;  1.5029524E-01;  0.0000000E+00; -2.5482543E-02;  2.6064858E+03;
  6.5079653E-01;  9.9999998E-03; -1.4001131E-01;6427;  6.0210116E-03;  0.0000000E+00;  1.3431414E-02;  1.0007136E+03;  1.0450092E-01;  5.9119250E+02;3; -7.8316145E+00;  0.0000000E+00; -5.1657333E+00;0;  1.1025558E-01;  3.6720992E+04;  0.0000000E+00; -4.3560776E-01;  4.0000000E+04;  0.0000000E+00;  3.9948422E+04;  1.2983355E-01;  0.0000000E+00; -1.9577967E-02;  2.8691294E+03;
  6.5080434E-01;  9.9999998E-03; -1.5002061E-01;6426;  2.8550923E-03;  0.0000000E+00;  1.3423188E-02;  1.0007183E+03;  1.0450477E-01;  5.9514301E+02;3; -6.9974070E+00;  0.0000000E+00; -5.4638243E+00;0;  9.5016159E-02;  3.6720090E+04;  0.0000000E+00; -4.0663856E-01;  4.0000000E+04;  0.0000000E+00;  3.9946801E+04;  1.0903805E-01;  0.0000000E+00; -1.4021893E-02;  3.0625864E+03;
  6.5081328E-01;  9.9999998E-03; -1.6003048E-01;6425; -2.7441070E-04;  0.0000000E+00;  1.3199499E-02;  1.0007208E+03;  1.0450931E-01;  5.9721698E+02;3; -6.0780993E+00;  0.0000000E+00; -5.8673997E+00;0;  7.9252757E-02;  3.6718793E+04;  0.0000000E+00; -3.6355683E-01;  4.0000000E+04;  0.0000000E+00;  3.9945422E+04;  8.8184811E-02;  0.0000000E+00; -8.9320550E-03;  3.1887725E+03;
  6.5047216E-01;  9.9999998E-03; -2.7012312E-01;6414; -1.8592320E-02;  0.0000000E+00;  8.6682122E-03;  9.9990222E+02;  1.0452000E-01; -8.0985275E+01;3;  4.7738868E-01;  0.0000000E+00; -3.8937492E+00;0; -6.6196151E-02;  3.6632688E+04;  0.0000000E+00; -1.4369974E+00;  4.0000000E+04;  0.0000000E+00;  3.9972387E+04; -7.4447311E-02;  0.0000000E+00;  8.2511632E-03;  2.2835662E+03;
  6.5082204E-01;  9.9999998E-03; -1.7004032E-01;6424; -3.3606414E-03;  0.0000000E+00;  1.2744165E-02;  1.0007145E+03;  1.0451332E-01;  5.9188385E+02;3; -5.2189336E+00;  0.0000000E+00; -6.1801882E+00;0;  6.3136220E-02;  3.6716555E+04;  0.0000000E+00; -3.1202054E-01;  4.0000000E+04;  0.0000000E+00;  3.9944844E+04;  6.7561917E-02;  0.0000000E+00; -4.4256984E-03;  3.2565166E+03;
  6.5052730E-01;  9.9999998E-03; -2.6011688E-01;6415; -1.7669290E-02;  0.0000000E+00;  1.0135056E-02;  9.9993378E+02;  1.0452384E-01; -5.4862583E+01;3;  3.8634175E-01;  0.0000000E+00; -4.2127666E+00;0; -6.7140758E-02;  3.6639570E+04;  0.0000000E+00; -6.7861211E-01;  4.0000000E+04;  0.0000000E+00;  3.9964109E+04; -6.6606484E-02;  0.0000000E+00; -5.3427159E-04;  1.3179504E+03;
  6.5082848E-01;  9.9999998E-03; -1.8004943E-01;6423; -6.3294177E-03;  0.0000000E+00;  1.2076912E-02;  1.0006908E+03;  1.0451690E-01;  5.7232886E+02;3; -4.1423769E+00;  0.0000000E+00; -6.4311166E+00;0;  4.6926934E-02;  3.6712840E+04;  0.0000000E+00; -2.5500974E-01;  4.0000000E+04;  0.0000000E+00;  3.9944566E+04;  4.7479838E-02;  0.0000000E+00; -5.5290322E-04;  3.2758132E+03;
  6.5058357E-01;  9.9999998E-03; -2.5011626E-01;6416; -1.6711453E-02;  0.0000000E+00;  1.0869432E-02;  9.9996069E+02;  1.0452656E-01; -3.2542252E+01;3;  2.7735531E-01;  0.0000000E+00; -4.4328208E+00;0; -5.7175197E-02;  3.6648023E+04;  0.0000000E+00; -2.1794443E-01;  4.0000000E+04;  0.0000000E+00;  3.9954090E+04; -5.7508249E-02;  0.0000000E+00;  3.3305387E-04;  2.0235271E+03;
  6.5082920E-01;  9.9999998E-03; -1.9005741E-01;6422; -9.0202456E-03;  0.0000000E+00;  1.1302206E-02;  1.0006441E+03;  1.0452082E-01;  5.3361395E+02;3; -2.6928346E+00;  0.0000000E+00; -6.3025436E+00;0;  3.1009644E-02;  3.6707387E+04;  0.0000000E+00; -1.9208549E-01;  4.0000000E+04;  0.0000000E+00;  3.9944664E+04;  2.8263606E-02;  0.0000000E+00;  2.7460374E-03;  3.2504089E+03;
  6.5081769E-01;  9.9999998E-03; -2.0006530E-01;6421; -1.1209677E-02;  0.0000000E+00;  1.0616970E-02;  1.0005691E+03;  1.0452387E-01;  4.7149231E+02;3; -8.3803260E-01;  0.0000000E+00; -5.4529305E+00;0;  1.5796544E-02;  3.6699727E+04;  0.0000000E+00; -1.2220535E-01;  4.0000000E+04;  0.0000000E+00;  3.9945090E+04;  1.0215161E-02;  0.0000000E+00;  5.5813822E-03;  3.1770608E+03;
  6.5063995E-01;  9.9999998E-03; -2.4011101E-01;6417; -1.5762301E-02;  0.0000000E+00;  1.0875635E-02;  1.0000599E+03;  1.0452791E-01;  4.9677551E+01;3;  2.6486307E-01;  0.0000000E+00; -4.4701195E+00;0; -4.2060770E-02;  3.6657938E+04;  0.0000000E+00; -2.8247912E-03;  4.0000000E+04;  0.0000000E+00;  3.9949355E+04; -4.7027577E-02;  0.0000000E+00;  4.9668057E-03;  2.5822925E+03;
  6.5078539E-01;  9.9999998E-03; -2.1007594E-01;6420; -1.2665622E-02;  0.0000000E+00;  1.0407318E-02;  1.0004661E+03;  1.0452623E-01;  3.8616147E+02;3;  4.0155241E-01;  0.0000000E+00; -4.4286962E+00;0;  1.2534983E-03;  3.6690598E+04;  0.0000000E+00; -4.7727548E-02;  4.0000000E+04;  0.0000000E+00;  3.9945688E+04; -6.4241760E-03;  0.0000000E+00;  7.6776743E-03;  3.0718264E+03;
  6.5069073E-01;  9.9999998E-03; -2.3009910E-01;6418; -1.4779251E-02;  0.0000000E+00;  1.0696163E-02;  1.0002052E+03;  1.0452833E-01;  1.6997031E+02;3;  3.2482103E-01;  0.0000000E+00; -4.4302187E+00;0; -2.7219012E-02;  3.6669039E+04;  0.0000000E+00;  5.1183380E-02;  4.0000000E+04;  0.0000000E+00;  3.9947938E+04; -3.5054069E-02;  0.0000000E+00;  7.8350566E-03;  2.7645225E+03;
  6.5073580E-01;  9.9999998E-03; -2.2008832E-01;6419; -1.3751687E-02;  0.0000000E+00;  1.0534160E-02;  1.0003415E+03;  1.0452799E-01;  2.8295465E+02;3;  4.2297816E-01;  0.0000000E+00; -4.3638754E+00;0; -1.3009135E-02;  3.6679984E+04;  0.0000000E+00;  1.9281784E-02;  4.0000000E+04;  0.0000000E+00;  3.9946613E+04; -2.1525215E-02;  0.0000000E+00;  8.5160807E-03;  2.9514651E+03;
  6.6070193E-01;  9.9999998E-03; -1.0998295E-01;6491;  1.6728718E-02;  0.0000000E+00;  1.1614389E-02;  1.0013137E+03;  1.0611613E-01;  1.0883629E+03;3; -1.1387103E+01;  0.0000000E+00; -4.1243749E+00;0;  1.2929313E-01;  3.5641230E+04;  0.0000000E+00; -4.8447007E-01;  4.0000000E+04;  0.0000000E+00;  3.9948609E+04;  1.6520710E-01;  0.0000000E+00; -3.5913970E-02;  1.6897747E+03;
  6.6071755E-01;  9.9999998E-03; -1.1998737E-01;6490;  1.3750791E-02;  0.0000000E+00;  1.2136231E-02;  1.0013350E+03;  1.0612210E-01;  1.1060414E+03;3; -1.0631159E+01;  0.0000000E+00; -4.3917685E+00;0;  1.1891796E-01;  3.5641336E+04;  0.0000000E+00; -5.0852960E-01;  4.0000000E+04;  0.0000000E+00;  3.9945875E+04;  1.4826205E-01;  0.0000000E+00; -2.9344101E-02;  2.0116147E+03;
  6.6073203E-01;  9.9999998E-03; -1.2999457E-01;6489;  1.0646340E-02;  0.0000000E+00;  1.2515518E-02;  1.0013716E+03;  1.0612801E-01;  1.1363615E+03;3; -9.8587904E+00;  0.0000000E+00; -4.6316414E+00;0;  1.0753994E-01;  3.5642102E+04;  0.0000000E+00; -5.0805706E-01;  4.0000000E+04;  0.0000000E+00;  3.9943320E+04;  1.3045265E-01;  0.0000000E+00; -2.2912709E-02;  2.2938906E+03;
  6.6074556E-01;  9.9999998E-03; -1.4000410E-01;6488;  7.4786074E-03;  0.0000000E+00;  1.2764689E-02;  1.0014174E+03;  1.0613424E-01;  1.1742863E+03;3; -9.0344162E+00;  0.0000000E+00; -4.8869395E+00;0;  9.5237412E-02;  3.5643152E+04;  0.0000000E+00; -4.8280373E-01;  4.0000000E+04;  0.0000000E+00;  3.9941348E+04;  1.1199658E-01;  0.0000000E+00; -1.6759170E-02;  2.5215103E+03;
  6.6075838E-01;  9.9999998E-03; -1.5001525E-01;6487;  4.2858236E-03;  0.0000000E+00;  1.2872300E-02;  1.0014620E+03;  1.0614074E-01;  1.2112234E+03;3; -8.1604691E+00;  0.0000000E+00; -5.1574588E+00;0;  8.2124308E-02;  3.5643816E+04;  0.0000000E+00; -4.3648925E-01;  4.0000000E+04;  0.0000000E+00;  3.9939676E+04;  9.3122542E-02;  0.0000000E+00; -1.0998234E-02;  2.6926782E+03;
  6.6077036E-01;  9.9999998E-03; -1.6002744E-01;6486;  1.1088409E-03;  0.0000000E+00;  1.2820859E-02;  1.0014937E+03;  1.0614753E-01;  1.2374943E+03;3; -7.2749543E+00;  0.0000000E+00; -5.4396667E+00;0;  6.8313427E-02;  3.5643656E+04;  0.0000000E+00; -3.7606153E-01;  4.0000000E+04;  0.0000000E+00;  3.9938461E+04;  7.4069001E-02;  0.0000000E+00; -5.7555758E-03;  2.8143623E+03;
  6.6078115E-01;  9.9999998E-03; -1.7004029E-01;6485; -2.0119927E-03;  0.0000000E+00;  1.2577609E-02;  1.0015094E+03;  1.0615339E-01;  1.2505309E+03;3; -6.3338943E+00;  0.0000000E+00; -5.8199129E+00;0;  5.3927671E-02;  3.5641867E+04;  0.0000000E+00; -3.0839941E-01;  4.0000000E+04;  0.0000000E+00;  3.9937535E+04;  5.5092432E-02;  0.0000000E+00; -1.1647603E-03;  2.8960403E+03;
  6.6079009E-01;  9.9999998E-03; -1.8005350E-01;6484; -5.0405967E-03;  0.0000000E+00;  1.2137300E-02;  1.0014991E+03;  1.0615946E-01;  1.2420374E+03;3; -5.3184476E+00;  0.0000000E+00; -6.1801643E+00;0;  3.9157987E-02;  3.5638344E+04;  0.0000000E+00; -2.3739839E-01;  4.0000000E+04;  0.0000000E+00;  3.9937016E+04;  3.6475573E-02;  0.0000000E+00;  2.6824132E-03;  2.9452058E+03;
  6.6079575E-01;  9.9999998E-03; -1.9006805E-01;6483; -7.8794779E-03;  0.0000000E+00;  1.1525593E-02;  1.0014526E+03;  1.0616510E-01;  1.2035200E+03;3; -4.1243415E+00;  0.0000000E+00; -6.4382792E+00;0;  2.4316551E-02;  3.5632598E+04;  0.0000000E+00; -1.6484551E-01;  4.0000000E+04;  0.0000000E+00;  3.9936641E+04;  1.8525979E-02;  0.0000000E+00;  5.7905721E-03;  2.9687744E+03;
  6.6079623E-01;  9.9999998E-03; -2.0008565E-01;6482; -1.0381817E-02;  0.0000000E+00;  1.0864332E-02;  1.0013688E+03;  1.0617015E-01;  1.1340900E+03;3; -2.6573052E+00;  0.0000000E+00; -6.3050451E+00;0;  9.8022772E-03;  3.5624621E+04;  0.0000000E+00; -9.3908101E-02;  4.0000000E+04;  0.0000000E+00;  3.9936473E+04;  1.5449973E-03;  0.0000000E+00;  8.2572801E-03;  2.9864070E+03;
  6.6079021E-01;  9.9999998E-03; -2.1010792E-01;6481; -1.2336322E-02;  0.0000000E+00;  1.0377419E-02;  1.0012415E+03;  1.0617392E-01;  1.0285128E+03;3; -1.0280323E+00;  0.0000000E+00; -5.6325722E+00;0; -4.1179108E-03;  3.5614383E+04;  0.0000000E+00; -3.4392886E-02;  4.0000000E+04;  0.0000000E+00;  3.9935629E+04; -1.4198512E-02;  0.0000000E+00;  1.0080601E-02;  3.0603657E+03;
  6.6077721E-01;  9.9999998E-03; -2.2013547E-01;6480; -1.3769040E-02;  0.0000000E+00;  1.0274454E-02;  1.0010646E+03;  1.0617704E-01;  8.8194922E+02;3; -2.7221182E-01;  0.0000000E+00; -5.1128359E+00;0; -1.7803084E-02;  3.5602836E+04;  0.0000000E+00; -9.8352823E-03;  4.0000000E+04;  0.0000000E+00;  3.9933156E+04; -2.8538972E-02;  0.0000000E+00;  1.0735888E-02;  3.3332612E+03;
  6.6075575E-01;  9.9999998E-03; -2.3016401E-01;6479; -1.4974648E-02;  0.0000000E+00;  1.0464495E-02;  1.0008309E+03;  1.0617916E-01;  6.8837469E+02;3; -9.4227515E-02;  0.0000000E+00; -5.0322948E+00;0; -3.2063782E-02;  3.5590543E+04;  0.0000000E+00; -6.6516295E-02;  4.0000000E+04;  0.0000000E+00;  3.9928332E+04; -4.1432042E-02;  0.0000000E+00;  9.3682604E-03;  3.9496699E+03;
  6.6072011E-01;  9.9999998E-03; -2.4018127E-01;6478; -1.6112208E-02;  0.0000000E+00;  1.0843468E-02;  1.0005831E+03;  1.0617968E-01;  4.8314621E+02;3; -1.9221526E-02;  0.0000000E+00; -5.0589457E+00;0; -4.8092276E-02;  3.5578539E+04;  0.0000000E+00; -2.8623843E-01;  4.0000000E+04;  0.0000000E+00;  3.9922902E+04; -5.2875832E-02;  0.0000000E+00;  4.7835545E-03;  4.6343975E+03;
  6.6065681E-01;  9.9999998E-03; -2.5017959E-01;6477; -1.7222863E-02;  0.0000000E+00;  1.1099007E-02;  1.0004243E+03;  1.0617909E-01;  3.5149579E+02;3;  1.0660744E-01;  0.0000000E+00; -5.0129957E+00;0; -6.5826535E-02;  3.5567551E+04;  0.0000000E+00; -8.0185509E-01;  4.0000000E+04;  0.0000000E+00;  3.9924418E+04; -6.2906548E-02;  0.0000000E+00; -2.9199843E-03;  4.6082812E+03;
  6.6049153E-01;  9.9999998E-03; -2.7016395E-01;6475; -1.9366005E-02;  0.0000000E+00;  8.9573972E-03;  1.0004398E+03;  1.0617355E-01;  3.6433490E+02;3;  4.5349368E-01;  0.0000000E+00; -4.2767959E+00;0; -7.9180568E-02;  3.5551121E+04;  0.0000000E+00; -3.2915144E+00;  4.0000000E+04;  0.0000000E+00;  3.9950395E+04; -7.9138741E-02;  0.0000000E+00; -4.1829710E-05;  5.4183169E+03;
  6.6056657E-01;  9.9999998E-03; -2.6016724E-01;6476; -1.8308312E-02;  0.0000000E+00;  1.0578207E-02;  1.0004265E+03;  1.0617708E-01;  3.5327350E+02;3;  2.6650921E-01;  0.0000000E+00; -4.7585831E+00;0; -7.9480462E-02;  3.5558805E+04;  0.0000000E+00; -1.7804112E+00;  4.0000000E+04;  0.0000000E+00;  3.9937191E+04; -7.1614884E-02;  0.0000000E+00; -7.8655807E-03;  4.0444529E+03;
  6.7066079E-01;  9.9999998E-03; -2.7021420E-01;6536; -2.0083314E-02;  0.0000000E+00;  9.7846985E-03;  1.0006970E+03;  1.0811607E-01;  5.7746429E+02;3;  4.5310923E-01;  0.0000000E+00; -4.7685089E+00;0; -1.0341255E-01;  3.4319926E+04;  0.0000000E+00; -5.2355070E+00;  4.0000000E+04;  0.0000000E+00;  3.9921293E+04; -8.6194761E-02;  0.0000000E+00; -1.7217789E-02;  9.2865674E+03;
  6.7066365E-01;  9.9999998E-03; -2.6022509E-01;6537; -1.8966511E-02;  0.0000000E+00;  1.0659912E-02;  1.0006610E+03;  1.0811608E-01;  5.4763800E+02;3;  2.8746393E-01;  0.0000000E+00; -4.9239941E+00;0; -9.2690438E-02;  3.4329527E+04;  0.0000000E+00; -3.0992506E+00;  4.0000000E+04;  0.0000000E+00;  3.9906129E+04; -7.9053573E-02;  0.0000000E+00; -1.3636867E-02;  7.3444233E+03;
  6.7069203E-01;  9.9999998E-03; -2.5023633E-01;6538; -1.7769128E-02;  0.0000000E+00;  1.0552643E-02;  1.0007411E+03;  1.0811627E-01;  6.1400641E+02;3;  8.7995775E-02;  0.0000000E+00; -5.0099812E+00;0; -7.2997414E-02;  3.4339266E+04;  0.0000000E+00; -1.6043240E+00;  4.0000000E+04;  0.0000000E+00;  3.9899445E+04; -7.0803590E-02;  0.0000000E+00; -2.1938237E-03;  6.6306196E+03;
  6.7072403E-01;  9.9999998E-03; -2.4023300E-01;6539; -1.6533811E-02;  0.0000000E+00;  1.0009459E-02;  1.0009745E+03;  1.0811513E-01;  8.0738336E+02;3; -9.2993721E-02;  0.0000000E+00; -5.0363393E+00;0; -5.3867705E-02;  3.4349676E+04;  0.0000000E+00; -7.1144867E-01;  4.0000000E+04;  0.0000000E+00;  3.9904285E+04; -6.1358120E-02;  0.0000000E+00;  7.4904147E-03;  5.5740508E+03;
  6.7074555E-01;  9.9999998E-03; -2.3020987E-01;6540; -1.5266364E-02;  0.0000000E+00;  9.5734568E-03;  1.0012712E+03;  1.0811218E-01;  1.0532032E+03;3; -2.7096835E-01;  0.0000000E+00; -5.0162292E+00;0; -3.8311526E-02;  3.4361633E+04;  0.0000000E+00; -2.4902496E-01;  4.0000000E+04;  0.0000000E+00;  3.9914238E+04; -5.0655928E-02;  0.0000000E+00;  1.2344403E-02;  4.2221230E+03;
  6.7075831E-01;  9.9999998E-03; -2.2016993E-01;6541; -1.3932352E-02;  0.0000000E+00;  9.3789464E-03;  1.0015465E+03;  1.0810775E-01;  1.2812457E+03;3; -5.8472693E-01;  0.0000000E+00; -5.0579128E+00;0; -2.4921045E-02;  3.4373828E+04;  0.0000000E+00; -4.9358979E-02;  4.0000000E+04;  0.0000000E+00;  3.9923184E+04; -3.8682450E-02;  0.0000000E+00;  1.3761405E-02;  3.1118330E+03;
  6.7076552E-01;  9.9999998E-03; -2.1012881E-01;6542; -1.2345381E-02;  0.0000000E+00;  9.5058847E-03;  1.0017417E+03;  1.0810217E-01;  1.4429199E+03;3; -1.6903656E+00;  0.0000000E+00; -5.5561790E+00;0; -1.2327082E-02;  3.4385426E+04;  0.0000000E+00;  4.3871803E-03;  4.0000000E+04;  0.0000000E+00;  3.9927547E+04; -2.5449499E-02;  0.0000000E+00;  1.3122417E-02;  2.5638472E+03;
  6.7076850E-01;  9.9999998E-03; -2.0009571E-01;6543; -1.0175225E-02;  0.0000000E+00;  9.9985041E-03;  1.0018684E+03;  1.0809516E-01;  1.5479045E+03;3; -3.4199898E+00;  0.0000000E+00; -5.9557619E+00;0;  3.6154035E-04;  3.4395617E+04;  0.0000000E+00; -1.6878914E-02;  4.0000000E+04;  0.0000000E+00;  3.9929219E+04; -1.0992194E-02;  0.0000000E+00;  1.1353734E-02;  2.3830762E+03;
  6.7076778E-01;  9.9999998E-03; -1.9007036E-01;6544; -7.4910694E-03;  0.0000000E+00;  1.0596819E-02;  1.0019406E+03;  1.0808740E-01;  1.6077545E+03;3; -4.8561306E+00;  0.0000000E+00; -5.8119431E+00;0;  1.3439129E-02;  3.4403547E+04;  0.0000000E+00; -7.4248925E-02;  4.0000000E+04;  0.0000000E+00;  3.9929875E+04;  4.4898074E-03;  0.0000000E+00;  8.9493217E-03;  2.3273037E+03;
  6.7076343E-01;  9.9999998E-03; -1.8005085E-01;6545; -4.5253504E-03;  0.0000000E+00;  1.1126747E-02;  1.0019659E+03;  1.0807878E-01;  1.6286923E+03;3; -5.9490471E+00;  0.0000000E+00; -5.4620943E+00;0;  2.6571304E-02;  3.4409008E+04;  0.0000000E+00; -1.4740643E-01;  4.0000000E+04;  0.0000000E+00;  3.9930246E+04;  2.0709788E-02;  0.0000000E+00;  5.8615156E-03;  2.2892695E+03;
  6.7075568E-01;  9.9999998E-03; -1.7003530E-01;6546; -1.4125837E-03;  0.0000000E+00;  1.1492642E-02;  1.0019539E+03;  1.0807087E-01;  1.6188159E+03;3; -6.9155645E+00;  0.0000000E+00; -5.1243434E+00;0;  3.9386857E-02;  3.4412098E+04;  0.0000000E+00; -2.2656216E-01;  4.0000000E+04;  0.0000000E+00;  3.9930863E+04;  3.7383739E-02;  0.0000000E+00;  2.0031168E-03;  2.2382141E+03;
  6.7074531E-01;  9.9999998E-03; -1.6002171E-01;6547;  1.7776729E-03;  0.0000000E+00;  1.1675923E-02;  1.0019045E+03;  1.0806111E-01;  1.5778296E+03;3; -7.8407297E+00;  0.0000000E+00; -4.7972217E+00;0;  5.1620428E-02;  3.4412668E+04;  0.0000000E+00; -3.0611029E-01;  4.0000000E+04;  0.0000000E+00;  3.9931680E+04;  5.4240700E-02;  0.0000000E+00; -2.6202707E-03;  2.1700161E+03;
  6.7073262E-01;  9.9999998E-03; -1.5000889E-01;6548;  5.0028902E-03;  0.0000000E+00;  1.1700085E-02;  1.0018221E+03;  1.0805163E-01;  1.5095847E+03;3; -8.7302160E+00;  0.0000000E+00; -4.5589428E+00;0;  6.3119769E-02;  3.4411410E+04;  0.0000000E+00; -3.8052908E-01;  4.0000000E+04;  0.0000000E+00;  3.9932676E+04;  7.1034886E-02;  0.0000000E+00; -7.9151196E-03;  2.0825444E+03;
  6.7071730E-01;  9.9999998E-03; -1.3999666E-01;6549;  8.2265502E-03;  0.0000000E+00;  1.1587036E-02;  1.0017212E+03;  1.0804205E-01;  1.4259329E+03;3; -9.6103506E+00;  0.0000000E+00; -4.3605990E+00;0;  7.3801361E-02;  3.4408387E+04;  0.0000000E+00; -4.4230142E-01;  4.0000000E+04;  0.0000000E+00;  3.9933840E+04;  8.7551050E-02;  0.0000000E+00; -1.3749687E-02;  1.9668612E+03;
  6.7069900E-01;  9.9999998E-03; -1.2998556E-01;6550;  1.1405839E-02;  0.0000000E+00;  1.1347299E-02;  1.0016039E+03;  1.0803253E-01;  1.3288492E+03;3; -1.0442318E+01;  0.0000000E+00; -4.1548119E+00;0;  8.3596408E-02;  3.4404723E+04;  0.0000000E+00; -4.8323223E-01;  4.0000000E+04;  0.0000000E+00;  3.9935543E+04;  1.0359315E-01;  0.0000000E+00; -1.9996744E-02;  1.8103247E+03;
  6.7067790E-01;  9.9999998E-03; -1.1997660E-01;6551;  1.4498106E-02;  0.0000000E+00;  1.0985340E-02;  1.0014917E+03;  1.0802379E-01;  1.2358151E+03;3; -1.1233521E+01;  0.0000000E+00; -3.9546015E+00;0;  9.2446074E-02;  3.4400676E+04;  0.0000000E+00; -4.9801278E-01;  4.0000000E+04;  0.0000000E+00;  3.9937496E+04;  1.1897825E-01;  0.0000000E+00; -2.6532177E-02;  1.6060199E+03;
  6.7065388E-01;  9.9999998E-03; -1.0997061E-01;6552;  1.7447090E-02;  0.0000000E+00;  1.0492776E-02;  1.0013885E+03;  1.0801467E-01;  1.1503855E+03;3; -1.2039587E+01;  0.0000000E+00; -3.7398369E+00;0;  1.0033005E-01;  3.4396969E+04;  0.0000000E+00; -4.8550013E-01;  4.0000000E+04;  0.0000000E+00;  3.9939812E+04;  1.3353419E-01;  0.0000000E+00; -3.3204146E-02;  1.3610697E+03;
  6.8099403E-01;  9.9999998E-03; -2.7025902E-01;6597; -2.0919451E-02;  0.0000000E+00;  9.0965312E-03;  1.0007299E+03;  1.1035354E-01;  6.0462384E+02;3;  5.6793809E-01;  0.0000000E+00; -4.5820646E+00;0; -1.1482695E-01;  3.2958496E+04;  0.0000000E+00; -7.0051498E+00;  4.0000000E+04;  0.0000000E+00;  3.9898742E+04; -9.6072316E-02;  0.0000000E+00; -1.8754635E-02;  1.2838656E+04;
  6.8091804E-01;  9.9999998E-03; -2.6026714E-01;6598; -1.9689362E-02;  0.0000000E+00;  9.4948942E-03;  1.0007123E+03;  1.1034176E-01;  5.9010577E+02;3;  3.5632548E-01;  0.0000000E+00; -4.6020560E+00;0; -9.9085294E-02;  3.2972043E+04;  0.0000000E+00; -4.3931236E+00;  4.0000000E+04;  0.0000000E+00;  3.9887504E+04; -8.9309320E-02;  0.0000000E+00; -9.7759729E-03;  9.5923613E+03;
  6.8086863E-01;  9.9999998E-03; -2.5027084E-01;6599; -1.8363295E-02;  0.0000000E+00;  9.0917656E-03;  1.0008362E+03;  1.1033082E-01;  6.9281879E+02;3;  1.0915786E-01;  0.0000000E+00; -4.6354036E+00;0; -7.8150764E-02;  3.2985551E+04;  0.0000000E+00; -2.4606717E+00;  4.0000000E+04;  0.0000000E+00;  3.9886891E+04; -8.1533566E-02;  0.0000000E+00;  3.3828008E-03;  7.3254507E+03;
  6.8085968E-01;  9.9999998E-03; -2.4025962E-01;6600; -1.7002502E-02;  0.0000000E+00;  8.5335784E-03;  1.0010858E+03;  1.1032353E-01;  8.9952863E+02;3; -1.3113937E-01;  0.0000000E+00; -4.6340880E+00;0; -6.0424123E-02;  3.2996711E+04;  0.0000000E+00; -1.1930648E+00;  4.0000000E+04;  0.0000000E+00;  3.9895781E+04; -7.2736345E-02;  0.0000000E+00;  1.2312221E-02;  5.2646221E+03;
  6.8086004E-01;  9.9999998E-03; -2.3023269E-01;6601; -1.5610160E-02;  0.0000000E+00;  8.2015414E-03;  1.0013636E+03;  1.1031590E-01;  1.1297439E+03;3; -4.0490952E-01;  0.0000000E+00; -4.5942135E+00;0; -4.6689652E-02;  3.3007965E+04;  0.0000000E+00; -4.6145564E-01;  4.0000000E+04;  0.0000000E+00;  3.9906852E+04; -6.2876269E-02;  0.0000000E+00;  1.6186617E-02;  3.5357695E+03;
  6.8085653E-01;  9.9999998E-03; -2.2018711E-01;6602; -1.4175861E-02;  0.0000000E+00;  8.0541447E-03;  1.0016179E+03;  1.1030684E-01;  1.3404043E+03;3; -7.2194511E-01;  0.0000000E+00; -4.4898043E+00;0; -3.4815904E-02;  3.3019977E+04;  0.0000000E+00; -8.7313563E-02;  4.0000000E+04;  0.0000000E+00;  3.9916637E+04; -5.1963419E-02;  0.0000000E+00;  1.7147515E-02;  2.2298479E+03;
  6.8085289E-01;  9.9999998E-03; -2.1013702E-01;6603; -1.2543142E-02;  0.0000000E+00;  8.1089837E-03;  1.0017942E+03;  1.1029662E-01;  1.4864740E+03;3; -1.9623345E+00;  0.0000000E+00; -4.8508830E+00;0; -2.3666104E-02;  3.3031164E+04;  0.0000000E+00;  7.3198080E-02;  4.0000000E+04;  0.0000000E+00;  3.9921609E+04; -4.0034037E-02;  0.0000000E+00;  1.6367933E-02;  1.5860176E+03;
  6.8084967E-01;  9.9999998E-03; -2.0009702E-01;6604; -1.0285647E-02;  0.0000000E+00;  8.5151102E-03;  1.0018932E+03;  1.1028607E-01;  1.5684469E+03;3; -3.8879440E+00;  0.0000000E+00; -5.1638517E+00;0; -1.2609934E-02;  3.3041027E+04;  0.0000000E+00;  1.1294223E-01;  4.0000000E+04;  0.0000000E+00;  3.9923395E+04; -2.7086196E-02;  0.0000000E+00;  1.4476263E-02;  1.4092648E+03;
  6.8084389E-01;  9.9999998E-03; -1.9006866E-01;6605; -7.5092618E-03;  0.0000000E+00;  9.0576317E-03;  1.0019359E+03;  1.1027415E-01;  1.6038038E+03;3; -5.2338243E+00;  0.0000000E+00; -4.9779396E+00;0; -1.3704617E-03;  3.3048863E+04;  0.0000000E+00;  8.6377911E-02;  4.0000000E+04;  0.0000000E+00;  3.9923617E+04; -1.3341939E-02;  0.0000000E+00;  1.1971477E-02;  1.3785289E+03;
  6.8083543E-01;  9.9999998E-03; -1.8004835E-01;6606; -4.4667278E-03;  0.0000000E+00;  9.5743928E-03;  1.0019332E+03;  1.1026178E-01;  1.6016311E+03;3; -6.3026052E+00;  0.0000000E+00; -4.6657567E+00;0;  9.7482903E-03;  3.3054211E+04;  0.0000000E+00;  2.4395127E-02;  4.0000000E+04;  0.0000000E+00;  3.9924074E+04;  9.1225130E-04;  0.0000000E+00;  8.8360393E-03;  1.3550118E+03;
  6.8082410E-01;  9.9999998E-03; -1.7003337E-01;6607; -1.2859069E-03;  0.0000000E+00;  9.9622039E-03;  1.0018885E+03;  1.1024835E-01;  1.5645951E+03;3; -7.2678823E+00;  0.0000000E+00; -4.3680530E+00;0;  2.0404855E-02;  3.3056910E+04;  0.0000000E+00; -5.5064555E-02;  4.0000000E+04;  0.0000000E+00;  3.9924352E+04;  1.5418991E-02;  0.0000000E+00;  4.9858638E-03;  1.3182690E+03;
  6.8081033E-01;  9.9999998E-03; -1.6002104E-01;6608;  1.9602156E-03;  0.0000000E+00;  1.0184457E-02;  1.0017962E+03;  1.1023516E-01;  1.4881530E+03;3; -8.1839666E+00;  0.0000000E+00; -4.1331639E+00;0;  3.0354895E-02;  3.3057012E+04;  0.0000000E+00; -1.4086820E-01;  4.0000000E+04;  0.0000000E+00;  3.9924711E+04;  2.9945133E-02;  0.0000000E+00;  4.0976054E-04;  1.2797534E+03;
  6.8079388E-01;  9.9999998E-03; -1.5000878E-01;6609;  5.2261134E-03;  0.0000000E+00;  1.0256009E-02;  1.0016622E+03;  1.1022166E-01;  1.3770452E+03;3; -9.0756617E+00;  0.0000000E+00; -3.9470479E+00;0;  3.9472319E-02;  3.3054477E+04;  0.0000000E+00; -2.2479030E-01;  4.0000000E+04;  0.0000000E+00;  3.9925332E+04;  4.4289976E-02;  0.0000000E+00; -4.8176581E-03;  1.2469723E+03;
  6.8077379E-01;  9.9999998E-03; -1.3999620E-01;6610;  8.4717488E-03;  0.0000000E+00;  1.0193069E-02;  1.0014929E+03;  1.1020774E-01;  1.2369012E+03;3; -9.9510336E+00;  0.0000000E+00; -3.7836897E+00;0;  4.7705650E-02;  3.3049922E+04;  0.0000000E+00; -2.9877722E-01;  4.0000000E+04;  0.0000000E+00;  3.9926102E+04;  5.8281586E-02;  0.0000000E+00; -1.0575936E-02;  1.2114143E+03;
  6.8074965E-01;  9.9999998E-03; -1.2998411E-01;6611;  1.1658810E-02;  0.0000000E+00;  1.0008750E-02;  1.0013022E+03;  1.1019445E-01;  1.0788812E+03;3; -1.0808926E+01;  0.0000000E+00; -3.6229498E+00;0;  5.5030506E-02;  3.3043789E+04;  0.0000000E+00; -3.5447803E-01;  4.0000000E+04;  0.0000000E+00;  3.9927137E+04;  7.1769975E-02;  0.0000000E+00; -1.6739469E-02;  1.1534575E+03;
  6.8072110E-01;  9.9999998E-03; -1.1997364E-01;6612;  1.4737491E-02;  0.0000000E+00;  9.7023658E-03;  1.0011016E+03;  1.1018089E-01;  9.1266400E+02;3; -1.1655431E+01;  0.0000000E+00; -3.4540737E+00;0;  6.1435863E-02;  3.3036926E+04;  0.0000000E+00; -3.8580713E-01;  4.0000000E+04;  0.0000000E+00;  3.9928336E+04;  8.4615663E-02;  0.0000000E+00; -2.3179797E-02;  1.0570742E+03;
  6.8068808E-01;  9.9999998E-03; -1.0996580E-01;6613;  1.7655628E-02;  0.0000000E+00;  9.2644934E-03;  1.0009048E+03;  1.1016810E-01;  7.4960718E+02;3; -1.2452136E+01;  0.0000000E+00; -3.2569087E+00;0;  6.6952243E-02;  3.3030082E+04;  0.0000000E+00; -3.9055955E-01;  4.0000000E+04;  0.0000000E+00;  3.9929965E+04;  9.6691467E-02;  0.0000000E+00; -2.9739222E-02;  9.2218719E+02;
  6.9226426E-01;  9.9999998E-03; -2.7030072E-01;6658; -2.1878447E-02;  0.0000000E+00;  7.3832138E-03;  1.0005890E+03;  1.1302149E-01;  4.8798520E+02;3;  6.7983830E-01;  0.0000000E+00; -4.0647292E+00;0; -1.2168828E-01;  3.1426633E+04;  0.0000000E+00; -6.7657933E+00;  4.0000000E+04;  0.0000000E+00;  3.9881066E+04; -1.1011432E-01;  0.0000000E+00; -1.1573965E-02;  1.3152358E+04;
  6.9204909E-01;  9.9999998E-03; -2.6030031E-01;6659; -2.0521116E-02;  0.0000000E+00;  7.4494635E-03;  1.0005576E+03;  1.1297819E-01;  4.6201068E+02;3;  3.9840662E-01;  0.0000000E+00; -4.0436168E+00;0; -1.0395405E-01;  3.1450752E+04;  0.0000000E+00; -4.4981227E+00;  4.0000000E+04;  0.0000000E+00;  3.9876402E+04; -1.0360363E-01;  0.0000000E+00; -3.5041713E-04;  9.7825898E+03;
  6.9189179E-01;  9.9999998E-03; -2.5029132E-01;6660; -1.9074483E-02;  0.0000000E+00;  6.9622067E-03;  1.0006736E+03;  1.1294331E-01;  5.5810651E+02;3;  8.8766761E-02;  0.0000000E+00; -4.0352254E+00;0; -8.4521495E-02;  3.1471398E+04;  0.0000000E+00; -2.6403072E+00;  4.0000000E+04;  0.0000000E+00;  3.9882133E+04; -9.6240185E-02;  0.0000000E+00;  1.1718689E-02;  6.7060752E+03;
  6.9177932E-01;  9.9999998E-03; -2.4027216E-01;6661; -1.7586159E-02;  0.0000000E+00;  6.5796906E-03;  1.0008723E+03;  1.1291521E-01;  7.2264478E+02;3; -2.4263510E-01;  0.0000000E+00; -4.0266285E+00;0; -6.9790326E-02;  3.1489254E+04;  0.0000000E+00; -1.3351284E+00;  4.0000000E+04;  0.0000000E+00;  3.9892508E+04; -8.8012509E-02;  0.0000000E+00;  1.8222183E-02;  4.1659902E+03;
  6.9168979E-01;  9.9999998E-03; -2.3025201E-01;6662; -1.6067347E-02;  0.0000000E+00;  6.4749788E-03;  1.0010511E+03;  1.1288901E-01;  8.7088715E+02;3; -6.1705947E-01;  0.0000000E+00; -3.9683352E+00;0; -5.8570422E-02;  3.1506453E+04;  0.0000000E+00; -5.1373786E-01;  4.0000000E+04;  0.0000000E+00;  3.9900363E+04; -7.8930371E-02;  0.0000000E+00;  2.0359948E-02;  2.5254033E+03;
  6.9161487E-01;  9.9999998E-03; -2.2021814E-01;6663; -1.4512850E-02;  0.0000000E+00;  6.4412165E-03;  1.0012319E+03;  1.1286337E-01;  1.0206110E+03;3; -1.0334450E+00;  0.0000000E+00; -3.8207986E+00;0; -4.8503228E-02;  3.1522918E+04;  0.0000000E+00; -4.1353531E-02;  4.0000000E+04;  0.0000000E+00;  3.9908078E+04; -6.9037959E-02;  0.0000000E+00;  2.0534731E-02;  1.3280232E+03;
  6.9156033E-01;  9.9999998E-03; -2.1017052E-01;6664; -1.2853446E-02;  0.0000000E+00;  6.4424053E-03;  1.0013700E+03;  1.1284046E-01;  1.1349779E+03;3; -2.0400691E+00;  0.0000000E+00; -3.8349891E+00;0; -3.8938187E-02;  3.1537443E+04;  0.0000000E+00;  2.0135713E-01;  4.0000000E+04;  0.0000000E+00;  3.9913629E+04; -5.8423031E-02;  0.0000000E+00;  1.9484842E-02;  6.3173706E+02;
  6.9152534E-01;  9.9999998E-03; -2.0012923E-01;6665; -1.0636880E-02;  0.0000000E+00;  6.6853324E-03;  1.0014445E+03;  1.1282057E-01;  1.1967045E+03;3; -4.1328654E+00;  0.0000000E+00; -4.1151333E+00;0; -2.9627541E-02;  3.1549396E+04;  0.0000000E+00;  3.0051211E-01;  4.0000000E+04;  0.0000000E+00;  3.9915934E+04; -4.7068432E-02;  0.0000000E+00;  1.7440891E-02;  5.0605331E+02;
  6.9150281E-01;  9.9999998E-03; -1.9010118E-01;6666; -7.8581022E-03;  0.0000000E+00;  7.1636485E-03;  1.0014618E+03;  1.1280186E-01;  1.2110250E+03;3; -5.4461145E+00;  0.0000000E+00; -4.0168571E+00;0; -2.0383121E-02;  3.1558496E+04;  0.0000000E+00;  3.1225783E-01;  4.0000000E+04;  0.0000000E+00;  3.9916516E+04; -3.5164136E-02;  0.0000000E+00;  1.4781015E-02;  5.0139465E+02;
  6.9148606E-01;  9.9999998E-03; -1.8008384E-01;6667; -4.7850325E-03;  0.0000000E+00;  7.7060438E-03;  1.0014352E+03;  1.1278380E-01;  1.1890010E+03;3; -6.4519496E+00;  0.0000000E+00; -3.8384173E+00;0; -1.1384391E-02;  3.1564592E+04;  0.0000000E+00;  2.7153379E-01;  4.0000000E+04;  0.0000000E+00;  3.9916727E+04; -2.2979172E-02;  0.0000000E+00;  1.1594781E-02;  4.4368350E+02;
  6.9147182E-01;  9.9999998E-03; -1.7007251E-01;6668; -1.5700914E-03;  0.0000000E+00;  8.1632817E-03;  1.0013546E+03;  1.1276562E-01;  1.1222375E+03;3; -7.4220152E+00;  0.0000000E+00; -3.6251435E+00;0; -2.9279487E-03;  3.1567469E+04;  0.0000000E+00;  2.0125817E-01;  4.0000000E+04;  0.0000000E+00;  3.9917078E+04; -1.0739788E-02;  0.0000000E+00;  7.8118397E-03;  3.4115604E+02;
  6.9145811E-01;  9.9999998E-03; -1.6006358E-01;6669;  1.7104219E-03;  0.0000000E+00;  8.4766932E-03;  1.0012230E+03;  1.1274809E-01;  1.0132039E+03;3; -8.3344221E+00;  0.0000000E+00; -3.4472749E+00;0;  4.7576530E-03;  3.1567197E+04;  0.0000000E+00;  1.1741687E-01;  4.0000000E+04;  0.0000000E+00;  3.9917211E+04;  1.3655027E-03;  0.0000000E+00;  3.3921504E-03;  2.3939717E+02;
  6.9144380E-01;  9.9999998E-03; -1.5005438E-01;6670;  5.0041149E-03;  0.0000000E+00;  8.6371871E-03;  1.0010421E+03;  1.1273090E-01;  8.6338123E+02;3; -9.2438784E+00;  0.0000000E+00; -3.2955549E+00;0;  1.1564011E-02;  3.1563732E+04;  0.0000000E+00;  3.1162860E-02;  4.0000000E+04;  0.0000000E+00;  3.9917297E+04;  1.3180628E-02;  0.0000000E+00; -1.6166174E-03;  2.0570016E+02;
  6.9142681E-01;  9.9999998E-03; -1.4004351E-01;6671;  8.2681021E-03;  0.0000000E+00;  8.6572589E-03;  1.0008129E+03;  1.1271386E-01;  6.7346106E+02;3; -1.0132349E+01;  0.0000000E+00; -3.1575525E+00;0;  1.7470928E-02;  3.1557461E+04;  0.0000000E+00; -4.9265366E-02;  4.0000000E+04;  0.0000000E+00;  3.9917395E+04;  2.4581378E-02;  0.0000000E+00; -7.1104504E-03;  2.5881973E+02;
  6.9140446E-01;  9.9999998E-03; -1.3003139E-01;6672;  1.1463848E-02;  0.0000000E+00;  8.5521489E-03;  1.0005490E+03;  1.1269723E-01;  4.5480103E+02;3; -1.0993267E+01;  0.0000000E+00; -3.0187201E+00;0;  2.2499109E-02;  3.1549326E+04;  0.0000000E+00; -1.1654843E-01;  4.0000000E+04;  0.0000000E+00;  3.9917465E+04;  3.5469625E-02;  0.0000000E+00; -1.2970516E-02;  3.3032376E+02;
  6.9137383E-01;  9.9999998E-03; -1.2001921E-01;6673;  1.4542005E-02;  0.0000000E+00;  8.3249053E-03;  1.0002653E+03;  1.1267979E-01;  2.1984518E+02;3; -1.1858361E+01;  0.0000000E+00; -2.8861248E+00;0;  2.6689656E-02;  3.1540000E+04;  0.0000000E+00; -1.6495642E-01;  4.0000000E+04;  0.0000000E+00;  3.9917840E+04;  4.5760449E-02;  0.0000000E+00; -1.9070793E-02;  3.7985602E+02;
  6.9133359E-01;  9.9999998E-03; -1.1000825E-01;6674;  1.7454352E-02;  0.0000000E+00;  7.9708192E-03;  9.9998267E+02;  1.1266281E-01; -1.4369935E+01;3; -1.2686555E+01;  0.0000000E+00; -2.7235014E+00;0;  3.0121110E-02;  3.1530713E+04;  0.0000000E+00; -1.9174731E-01;  4.0000000E+04;  0.0000000E+00;  3.9918703E+04;  5.5377774E-02;  0.0000000E+00; -2.5256664E-02;  4.0582220E+02;
  7.0471030E-01;  9.9999998E-03; -2.7034640E-01;6719; -2.3025809E-02;  0.0000000E+00;  4.8007159E-03;  1.0005950E+03;  1.1626185E-01;  4.9292313E+02;3;  7.6607889E-01;  0.0000000E+00; -3.3166215E+00;0; -1.2786630E-01;  2.9718145E+04;  0.0000000E+00; -5.2965674E+00;  4.0000000E+04;  0.0000000E+00;  3.9863805E+04; -1.2948772E-01;  0.0000000E+00;  1.6214295E-03;  1.1412014E+04;
  7.0442182E-01;  9.9999998E-03; -2.6033404E-01;6720; -2.1568608E-02;  0.0000000E+00;  4.6641515E-03;  1.0005130E+03;  1.1619013E-01;  4.2497461E+02;3;  4.0105802E-01;  0.0000000E+00; -3.2770629E+00;0; -1.1058435E-01;  2.9746488E+04;  0.0000000E+00; -3.5573726E+00;  4.0000000E+04;  0.0000000E+00;  3.9866918E+04; -1.2316900E-01;  0.0000000E+00;  1.2584653E-02;  8.2602158E+03;
  7.0417714E-01;  9.9999998E-03; -2.5030980E-01;6721; -2.0016234E-02;  0.0000000E+00;  4.2097904E-03;  1.0005704E+03;  1.1612611E-01;  4.7257809E+02;3;  3.5392446E-03;  0.0000000E+00; -3.3569055E+00;0; -9.4250262E-02;  2.9772775E+04;  0.0000000E+00; -2.0796177E+00;  4.0000000E+04;  0.0000000E+00;  3.9878824E+04; -1.1611513E-01;  0.0000000E+00;  2.1864871E-02;  5.0883701E+03;
  7.0399582E-01;  9.9999998E-03; -2.4028601E-01;6722; -1.8419201E-02;  0.0000000E+00;  4.1644252E-03;  1.0006305E+03;  1.1607354E-01;  5.2235431E+02;3; -4.1926906E-01;  0.0000000E+00; -3.3166673E+00;0; -8.3745681E-02;  2.9794641E+04;  0.0000000E+00; -9.8508680E-01;  4.0000000E+04;  0.0000000E+00;  3.9888047E+04; -1.0839914E-01;  0.0000000E+00;  2.4653457E-02;  2.7176318E+03;
  7.0383996E-01;  9.9999998E-03; -2.3028815E-01;6723; -1.6791023E-02;  0.0000000E+00;  4.4375551E-03;  1.0006133E+03;  1.1602541E-01;  5.0813254E+02;3; -8.9362592E-01;  0.0000000E+00; -3.1607170E+00;0; -7.5654991E-02;  2.9815848E+04;  0.0000000E+00; -2.6467216E-01;  4.0000000E+04;  0.0000000E+00;  3.9888730E+04; -1.0003798E-01;  0.0000000E+00;  2.4382992E-02;  1.6307727E+03;
  7.0370591E-01;  9.9999998E-03; -2.2029914E-01;6724; -1.5119070E-02;  0.0000000E+00;  4.5957388E-03;  1.0006310E+03;  1.1598013E-01;  5.2274939E+02;3; -1.4375775E+00;  0.0000000E+00; -2.9191501E+00;0; -6.7521758E-02;  2.9836354E+04;  0.0000000E+00;  1.7561941E-01;  4.0000000E+04;  0.0000000E+00;  3.9890676E+04; -9.1106586E-02;  0.0000000E+00;  2.3584830E-02;  1.1198646E+03;
  7.0358765E-01;  9.9999998E-03; -2.1028714E-01;6725; -1.3347096E-02;  0.0000000E+00;  4.6262755E-03;  1.0007172E+03;  1.1593700E-01;  5.9425336E+02;3; -2.1668262E+00;  0.0000000E+00; -2.6861889E+00;0; -5.9505995E-02;  2.9856359E+04;  0.0000000E+00;  4.2266729E-01;  4.0000000E+04;  0.0000000E+00;  3.9896668E+04; -8.1678659E-02;  0.0000000E+00;  2.2172663E-02;  5.8884882E+02;
  7.0350784E-01;  9.9999998E-03; -2.0026165E-01;6726; -1.1274601E-02;  0.0000000E+00;  4.6637976E-03;  1.0007891E+03;  1.1590143E-01;  6.5370831E+02;3; -4.0502729E+00;  0.0000000E+00; -2.7897019E+00;0; -5.1831551E-02;  2.9872639E+04;  0.0000000E+00;  5.4287773E-01;  4.0000000E+04;  0.0000000E+00;  3.9901738E+04; -7.1878545E-02;  0.0000000E+00;  2.0046992E-02;  7.3317517E+02;
  7.0346045E-01;  9.9999998E-03; -1.9024076E-01;6727; -8.5792672E-03;  0.0000000E+00;  5.0252774E-03;  1.0008088E+03;  1.1587207E-01;  6.7010291E+02;3; -5.5152011E+00;  0.0000000E+00; -3.0043678E+00;0; -4.4508122E-02;  2.9884699E+04;  0.0000000E+00;  5.7938671E-01;  4.0000000E+04;  0.0000000E+00;  3.9904754E+04; -6.1780915E-02;  0.0000000E+00;  1.7272793E-02;  9.9848956E+02;
  7.0342916E-01;  9.9999998E-03; -1.8022943E-01;6728; -5.5127242E-03;  0.0000000E+00;  5.5930372E-03;  1.0007834E+03;  1.1584578E-01;  6.4906647E+02;3; -6.5306888E+00;  0.0000000E+00; -2.9523673E+00;0; -3.7531428E-02;  2.9893445E+04;  0.0000000E+00;  5.6095392E-01;  4.0000000E+04;  0.0000000E+00;  3.9906543E+04; -5.1617302E-02;  0.0000000E+00;  1.4085876E-02;  1.1286874E+03;
  7.0341432E-01;  9.9999998E-03; -1.7022480E-01;6729; -2.2801470E-03;  0.0000000E+00;  6.1318739E-03;  1.0007049E+03;  1.1582267E-01;  5.8398206E+02;3; -7.5018458E+00;  0.0000000E+00; -2.8410261E+00;0; -3.1138133E-02;  2.9897893E+04;  0.0000000E+00;  5.0847912E-01;  4.0000000E+04;  0.0000000E+00;  3.9907523E+04; -4.1607708E-02;  0.0000000E+00;  1.0469575E-02;  1.1547328E+03;
  7.0341194E-01;  9.9999998E-03; -1.6022302E-01;6730;  1.0180757E-03;  0.0000000E+00;  6.5409909E-03;  1.0005590E+03;  1.1580241E-01;  4.6309689E+02;3; -8.4501085E+00;  0.0000000E+00; -2.7143297E+00;0; -2.5540227E-02;  2.9897805E+04;  0.0000000E+00;  4.3815422E-01;  4.0000000E+04;  0.0000000E+00;  3.9907715E+04; -3.1903937E-02;  0.0000000E+00;  6.3637109E-03;  1.1059100E+03;
  7.0341969E-01;  9.9999998E-03; -1.5022042E-01;6731;  4.3306230E-03;  0.0000000E+00;  6.8042511E-03;  1.0003511E+03;  1.1578504E-01;  2.9085526E+02;3; -9.3633118E+00;  0.0000000E+00; -2.5732117E+00;0; -2.0825552E-02;  2.9893066E+04;  0.0000000E+00;  3.6202368E-01;  4.0000000E+04;  0.0000000E+00;  3.9907332E+04; -2.2615170E-02;  0.0000000E+00;  1.7896181E-03;  1.0078266E+03;
  7.0343542E-01;  9.9999998E-03; -1.4021435E-01;6732;  7.6100160E-03;  0.0000000E+00;  6.9216862E-03;  1.0000832E+03;  1.1577030E-01;  6.8936157E+01;3; -1.0255379E+01;  0.0000000E+00; -2.4404998E+00;0; -1.6990237E-02;  2.9883971E+04;  0.0000000E+00;  2.8744948E-01;  4.0000000E+04;  0.0000000E+00;  3.9906715E+04; -1.3824157E-02;  0.0000000E+00; -3.1660798E-03;  8.9017670E+02;
  7.0345312E-01;  9.9999998E-03; -1.3020441E-01;6733;  1.0813265E-02;  0.0000000E+00;  6.9056549E-03;  9.9977081E+02;  1.1575778E-01; -1.8987071E+02;3; -1.1141707E+01;  0.0000000E+00; -2.3262460E+00;0; -1.3975609E-02;  2.9871463E+04;  0.0000000E+00;  2.1894710E-01;  4.0000000E+04;  0.0000000E+00;  3.9905930E+04; -5.5800057E-03;  0.0000000E+00; -8.3956029E-03;  7.8372064E+02;
  7.0346767E-01;  9.9999998E-03; -1.2019110E-01;6734;  1.3899740E-02;  0.0000000E+00;  6.7676539E-03;  9.9942932E+02;  1.1574624E-01; -4.7277560E+02;3; -1.1997245E+01;  0.0000000E+00; -2.2034199E+00;0; -1.1700048E-02;  2.9856639E+04;  0.0000000E+00;  1.5997423E-01;  4.0000000E+04;  0.0000000E+00;  3.9905484E+04;  2.0827577E-03;  0.0000000E+00; -1.3782806E-02;  7.1404407E+02;
  7.0347369E-01;  9.9999998E-03; -1.1017580E-01;6735;  1.6824460E-02;  0.0000000E+00;  6.5100365E-03;  9.9907037E+02;  1.1573510E-01; -7.7019861E+02;3; -1.2834770E+01;  0.0000000E+00; -2.0852070E+00;0; -1.0044519E-02;  2.9841057E+04;  0.0000000E+00;  1.1237473E-01;  4.0000000E+04;  0.0000000E+00;  3.9905273E+04;  9.1425665E-03;  0.0000000E+00; -1.9187085E-02;  6.9509039E+02;
  7.1672952E-01;  9.9999998E-03; -2.7039292E-01;6780; -2.4338352E-02;  0.0000000E+00;  1.8419257E-03;  1.0006136E+03;  1.1973143E-01;  5.0842862E+02;3;  7.9939717E-01;  0.0000000E+00; -2.6984074E+00;0; -1.3442470E-01;  2.8037859E+04;  0.0000000E+00; -5.5023775E+00;  4.0000000E+04;  0.0000000E+00;  3.9848957E+04; -1.5161094E-01;  0.0000000E+00;  1.7186237E-02;  1.2215812E+04;
  7.1666300E-01;  9.9999998E-03; -2.6036996E-01;6781; -2.2848131E-02;  0.0000000E+00;  1.5272514E-03;  1.0005246E+03;  1.1970379E-01;  4.3465314E+02;3;  3.6920655E-01;  0.0000000E+00; -2.6717737E+00;0; -1.1917336E-01;  2.8038670E+04;  0.0000000E+00; -3.4717293E+00;  4.0000000E+04;  0.0000000E+00;  3.9858270E+04; -1.4580524E-01;  0.0000000E+00;  2.6631882E-02;  8.0324116E+03;
  7.1649033E-01;  9.9999998E-03; -2.5033191E-01;6782; -2.1245930E-02;  0.0000000E+00;  1.1718433E-03;  1.0005428E+03;  1.1964629E-01;  4.4966501E+02;3; -9.8457627E-02;  0.0000000E+00; -2.6666453E+00;0; -1.0695647E-01;  2.8054783E+04;  0.0000000E+00; -1.9110879E+00;  4.0000000E+04;  0.0000000E+00;  3.9874875E+04; -1.3909914E-01;  0.0000000E+00;  3.2142662E-02;  4.5361104E+03;
  7.1634442E-01;  9.9999998E-03; -2.4029984E-01;6783; -1.9597305E-02;  0.0000000E+00;  1.5433618E-03;  1.0005035E+03;  1.1959324E-01;  4.1707343E+02;3; -6.0911220E-01;  0.0000000E+00; -2.5352607E+00;0; -1.0122862E-01;  2.8070592E+04;  0.0000000E+00; -8.0496252E-01;  4.0000000E+04;  0.0000000E+00;  3.9883695E+04; -1.3180965E-01;  0.0000000E+00;  3.0581033E-02;  2.3654019E+03;
  7.1623915E-01;  9.9999998E-03; -2.3030874E-01;6784; -1.7897593E-02;  0.0000000E+00;  2.2340075E-03;  1.0003535E+03;  1.1954854E-01;  2.9283038E+02;3; -1.1878999E+00;  0.0000000E+00; -2.2607076E+00;0; -9.6383184E-02;  2.8084334E+04;  0.0000000E+00; -8.5096925E-02;  4.0000000E+04;  0.0000000E+00;  3.9879562E+04; -1.2406652E-01;  0.0000000E+00;  2.7683342E-02;  8.1911993E+02;
  7.1614957E-01;  9.9999998E-03; -2.2034498E-01;6785; -1.6120944E-02;  0.0000000E+00;  2.6207257E-03;  1.0002549E+03;  1.1950738E-01;  2.1125269E+02;3; -1.8360754E+00;  0.0000000E+00; -2.0205309E+00;0; -9.0125903E-02;  2.8098705E+04;  0.0000000E+00;  3.4955648E-01;  4.0000000E+04;  0.0000000E+00;  3.9876645E+04; -1.1592664E-01;  0.0000000E+00;  2.5800738E-02;  3.0933603E+02;
  7.1607304E-01;  9.9999998E-03; -2.1037075E-01;6786; -1.4225626E-02;  0.0000000E+00;  2.7696316E-03;  1.0002672E+03;  1.1946734E-01;  2.2142520E+02;3; -2.5718369E+00;  0.0000000E+00; -1.7262719E+00;0; -8.3570294E-02;  2.8113689E+04;  0.0000000E+00;  5.9522903E-01;  4.0000000E+04;  0.0000000E+00;  3.9880086E+04; -1.0749463E-01;  0.0000000E+00;  2.3924338E-02;  6.5232709E+02;
  7.1600872E-01;  9.9999998E-03; -2.0037138E-01;6787; -1.2128836E-02;  0.0000000E+00;  2.8276765E-03;  1.0003312E+03;  1.1942913E-01;  2.7436182E+02;3; -3.8046410E+00;  0.0000000E+00; -1.4819403E+00;0; -7.7259950E-02;  2.8128930E+04;  0.0000000E+00;  7.2075915E-01;  4.0000000E+04;  0.0000000E+00;  3.9886359E+04; -9.8893926E-02;  0.0000000E+00;  2.1633977E-02;  1.2725869E+03;
  7.1596378E-01;  9.9999998E-03; -1.9036286E-01;6788; -9.6155014E-03;  0.0000000E+00;  2.9906507E-03;  1.0003759E+03;  1.1939438E-01;  3.1139771E+02;3; -5.4208550E+00;  0.0000000E+00; -1.9143918E+00;0; -7.1359023E-02;  2.8142471E+04;  0.0000000E+00;  7.6984900E-01;  4.0000000E+04;  0.0000000E+00;  3.9891027E+04; -9.0254664E-02;  0.0000000E+00;  1.8895643E-02;  1.7945087E+03;
  7.1594596E-01;  9.9999998E-03; -1.8035462E-01;6789; -6.6123498E-03;  0.0000000E+00;  3.4879236E-03;  1.0003783E+03;  1.1936587E-01;  3.1337296E+02;3; -6.5429573E+00;  0.0000000E+00; -2.0031857E+00;0; -6.5926656E-02;  2.8152404E+04;  0.0000000E+00;  7.7023798E-01;  4.0000000E+04;  0.0000000E+00;  3.9893891E+04; -8.1741422E-02;  0.0000000E+00;  1.5814766E-02;  2.1050049E+03;
  7.1595401E-01;  9.9999998E-03; -1.7034987E-01;6790; -3.3912263E-03;  0.0000000E+00;  4.0417886E-03;  1.0003306E+03;  1.1934365E-01;  2.7396677E+02;3; -7.5458407E+00;  0.0000000E+00; -1.9507679E+00;0; -6.1081629E-02;  2.8157416E+04;  0.0000000E+00;  7.4037230E-01;  4.0000000E+04;  0.0000000E+00;  3.9895184E+04; -7.3558249E-02;  0.0000000E+00;  1.2476619E-02;  2.2336790E+03;
  7.1598476E-01;  9.9999998E-03; -1.6034767E-01;6791; -8.7945191E-05;  0.0000000E+00;  4.4932640E-03;  1.0002193E+03;  1.1932728E-01;  1.8172273E+02;3; -8.4998512E+00;  0.0000000E+00; -1.8574102E+00;0; -5.6991823E-02;  2.8157188E+04;  0.0000000E+00;  6.9442105E-01;  4.0000000E+04;  0.0000000E+00;  3.9895316E+04; -6.5832041E-02;  0.0000000E+00;  8.8402173E-03;  2.2274619E+03;
  7.1603394E-01;  9.9999998E-03; -1.5034641E-01;6792;  3.2377474E-03;  0.0000000E+00;  4.8222477E-03;  1.0000404E+03;  1.1931574E-01;  3.3480438E+01;3; -9.4316130E+00;  0.0000000E+00; -1.7704093E+00;0; -5.3712878E-02;  2.8151410E+04;  0.0000000E+00;  6.4283979E-01;  4.0000000E+04;  0.0000000E+00;  3.9894652E+04; -5.8631197E-02;  0.0000000E+00;  4.9183168E-03;  2.1327827E+03;
  7.1609825E-01;  9.9999998E-03; -1.4034244E-01;6793;  6.5308395E-03;  0.0000000E+00;  5.0148000E-03;  9.9979559E+02;  1.1930969E-01; -1.6932806E+02;3; -1.0337597E+01;  0.0000000E+00; -1.6628382E+00;0; -5.1211052E-02;  2.8140387E+04;  0.0000000E+00;  5.9078139E-01;  4.0000000E+04;  0.0000000E+00;  3.9893516E+04; -5.1995046E-02;  0.0000000E+00;  7.8399433E-04;  1.9935658E+03;
  7.1617138E-01;  9.9999998E-03; -1.3033366E-01;6794;  9.7488025E-03;  0.0000000E+00;  5.0784652E-03;  9.9949994E+02;  1.1930732E-01; -4.1430807E+02;3; -1.1224591E+01;  0.0000000E+00; -1.5531857E+00;0; -4.9403176E-02;  2.8124725E+04;  0.0000000E+00;  5.3866845E-01;  4.0000000E+04;  0.0000000E+00;  3.9892332E+04; -4.5933623E-02;  0.0000000E+00; -3.4695531E-03;  1.8443765E+03;
  7.1624506E-01;  9.9999998E-03; -1.2032022E-01;6795;  1.2854125E-02;  0.0000000E+00;  5.0303238E-03;  9.9916400E+02;  1.1930776E-01; -6.9262042E+02;3; -1.2098502E+01;  0.0000000E+00; -1.4543053E+00;0; -4.8179999E-02;  2.8106227E+04;  0.0000000E+00;  4.8552957E-01;  4.0000000E+04;  0.0000000E+00;  3.9891012E+04; -4.0435318E-02;  0.0000000E+00; -7.7446820E-03;  1.7083474E+03;
  7.1631175E-01;  9.9999998E-03; -1.1030283E-01;6796;  1.5805013E-02;  0.0000000E+00;  4.8766253E-03;  9.9880530E+02;  1.1930846E-01; -9.8979633E+02;3; -1.2933691E+01;  0.0000000E+00; -1.3529723E+00;0; -4.7407325E-02;  2.8086139E+04;  0.0000000E+00;  4.3035024E-01;  4.0000000E+04;  0.0000000E+00;  3.9890188E+04; -3.5480868E-02;  0.0000000E+00; -1.1926458E-02;  1.5997848E+03;
  7.2811234E-01;  9.9999998E-03; -2.7043411E-01;6841; -2.5944196E-02;  0.0000000E+00; -1.2148148E-03;  1.0000372E+03;  1.2324448E-01;  3.0813837E+01;3;  8.5663480E-01;  0.0000000E+00; -1.9681313E+00;0; -1.4200424E-01;  2.6441170E+04;  0.0000000E+00; -5.0779047E+00;  4.0000000E+04;  0.0000000E+00;  3.9841594E+04; -1.7488314E-01;  0.0000000E+00;  3.2878902E-02;  1.1466368E+04;
  7.2818393E-01;  9.9999998E-03; -2.6040068E-01;6842; -2.4448380E-02;  0.0000000E+00; -1.5409497E-03;  9.9999493E+02;  1.2325378E-01; -4.1973977E+00;3;  3.4789047E-01;  0.0000000E+00; -1.9470172E+00;0; -1.3015129E-01;  2.6425967E+04;  0.0000000E+00; -3.2747426E+00;  4.0000000E+04;  0.0000000E+00;  3.9855074E+04; -1.6923900E-01;  0.0000000E+00;  3.9087716E-02;  7.5943530E+03;
  7.2823972E-01;  9.9999998E-03; -2.5034967E-01;6843; -2.2854149E-02;  0.0000000E+00; -1.6643811E-03;  1.0000388E+03;  1.2325585E-01;  3.2097748E+01;3; -1.9363296E-01;  0.0000000E+00; -1.8836409E+00;0; -1.2303160E-01;  2.6415281E+04;  0.0000000E+00; -1.8052616E+00;  4.0000000E+04;  0.0000000E+00;  3.9874152E+04; -1.6294268E-01;  0.0000000E+00;  3.9911076E-02;  4.9870117E+03;
  7.2829062E-01;  9.9999998E-03; -2.4030794E-01;6844; -2.1190003E-02;  0.0000000E+00; -8.3785574E-04;  9.9997351E+02;  1.2325457E-01; -2.1925230E+01;3; -7.8742796E-01;  0.0000000E+00; -1.6931132E+00;0; -1.2194727E-01;  2.6407973E+04;  0.0000000E+00; -7.4891657E-01;  4.0000000E+04;  0.0000000E+00;  3.9881055E+04; -1.5609066E-01;  0.0000000E+00;  3.4143385E-02;  3.7382188E+03;
  7.2833312E-01;  9.9999998E-03; -2.3031165E-01;6845; -1.9442379E-02;  0.0000000E+00;  1.8138799E-04;  9.9977338E+02;  1.2324779E-01; -1.8774713E+02;3; -1.4437066E+00;  0.0000000E+00; -1.3948299E+00;0; -1.1954076E-01;  2.6405041E+04;  0.0000000E+00; -6.0074549E-02;  4.0000000E+04;  0.0000000E+00;  3.9873527E+04; -1.4879525E-01;  0.0000000E+00;  2.9254487E-02;  2.1688052E+03;
  7.2834623E-01;  9.9999998E-03; -2.2034948E-01;6846; -1.7562589E-02;  0.0000000E+00;  7.9124665E-04;  9.9963159E+02;  1.2323033E-01; -3.0522488E+02;3; -2.1499457E+00;  0.0000000E+00; -1.0910988E+00;0; -1.1462417E-01;  2.6408693E+04;  0.0000000E+00;  3.5698268E-01;  4.0000000E+04;  0.0000000E+00;  3.9866594E+04; -1.4113405E-01;  0.0000000E+00;  2.6509883E-02;  1.1151813E+03;
  7.2833413E-01;  9.9999998E-03; -2.1038853E-01;6847; -1.5540356E-02;  0.0000000E+00;  1.0639342E-03;  9.9962085E+02;  1.2320403E-01; -3.1411349E+02;3; -2.9294302E+00;  0.0000000E+00; -8.5924244E-01;0; -1.0893450E-01;  2.6417998E+04;  0.0000000E+00;  5.9354824E-01;  4.0000000E+04;  0.0000000E+00;  3.9866805E+04; -1.3324973E-01;  0.0000000E+00;  2.4315231E-02;  1.2493285E+03;
  7.2829294E-01;  9.9999998E-03; -2.0041044E-01;6848; -1.3333065E-02;  0.0000000E+00;  1.1867491E-03;  9.9968842E+02;  1.2316709E-01; -2.5816464E+02;3; -3.8230662E+00;  0.0000000E+00; -6.5268290E-01;0; -1.0333336E-01;  2.6433006E+04;  0.0000000E+00;  7.1720612E-01;  4.0000000E+04;  0.0000000E+00;  3.9870953E+04; -1.2528534E-01;  0.0000000E+00;  2.1951981E-02;  1.8406794E+03;
  7.2822267E-01;  9.9999998E-03; -1.9041295E-01;6849; -1.0860168E-02;  0.0000000E+00;  1.2873204E-03;  9.9977374E+02;  1.2312035E-01; -1.8745084E+02;3; -5.1463876E+00;  0.0000000E+00; -6.3185018E-01;0; -9.8055750E-02;  2.6452904E+04;  0.0000000E+00;  7.7226764E-01;  4.0000000E+04;  0.0000000E+00;  3.9875508E+04; -1.1738770E-01;  0.0000000E+00;  1.9331947E-02;  2.4033413E+03;
  7.2815591E-01;  9.9999998E-03; -1.8040918E-01;6850; -7.9826154E-03;  0.0000000E+00;  1.5800833E-03;  9.9983392E+02;  1.2307444E-01; -1.3757588E+02;3; -6.5145073E+00;  0.0000000E+00; -1.0176506E+00;0; -9.3254849E-02;  2.6472600E+04;  0.0000000E+00;  7.8698486E-01;  4.0000000E+04;  0.0000000E+00;  3.9878793E+04; -1.0975225E-01;  0.0000000E+00;  1.6497400E-02;  2.7685476E+03;
  7.2811240E-01;  9.9999998E-03; -1.7040101E-01;6851; -4.7787218E-03;  0.0000000E+00;  2.0612595E-03;  9.9984906E+02;  1.2303347E-01; -1.2503307E+02;3; -7.5410056E+00;  0.0000000E+00; -1.0410579E+00;0; -8.9007795E-02;  2.6488336E+04;  0.0000000E+00;  7.7940655E-01;  4.0000000E+04;  0.0000000E+00;  3.9880270E+04; -1.0255006E-01;  0.0000000E+00;  1.3542265E-02;  2.9437122E+03;
  7.2810483E-01;  9.9999998E-03; -1.6039051E-01;6852; -1.4700344E-03;  0.0000000E+00;  2.4913931E-03;  9.9980402E+02;  1.2300275E-01; -1.6236522E+02;3; -8.5162191E+00;  0.0000000E+00; -9.9777675E-01;0; -8.5434079E-02;  2.6497551E+04;  0.0000000E+00;  7.6199514E-01;  4.0000000E+04;  0.0000000E+00;  3.9880488E+04; -9.5924765E-02;  0.0000000E+00;  1.0490687E-02;  2.9701021E+03;
  7.2813195E-01;  9.9999998E-03; -1.5037988E-01;6853;  1.8660962E-03;  0.0000000E+00;  2.8245465E-03;  9.9969849E+02;  1.2298305E-01; -2.4981923E+02;3; -9.4583626E+00;  0.0000000E+00; -9.2908317E-01;0; -8.2559772E-02;  2.6499668E+04;  0.0000000E+00;  7.4286157E-01;  4.0000000E+04;  0.0000000E+00;  3.9879777E+04; -8.9926578E-02;  0.0000000E+00;  7.3668091E-03;  2.9004661E+03;
  7.2818577E-01;  9.9999998E-03; -1.4036752E-01;6854;  5.1766736E-03;  0.0000000E+00;  3.0529611E-03;  9.9952753E+02;  1.2297184E-01; -3.9144437E+02;3; -1.0385551E+01;  0.0000000E+00; -8.5079634E-01;0; -8.0317013E-02;  2.6495125E+04;  0.0000000E+00;  7.2439414E-01;  4.0000000E+04;  0.0000000E+00;  3.9878492E+04; -8.4552929E-02;  0.0000000E+00;  4.2359182E-03;  2.7829802E+03;
  7.2825581E-01;  9.9999998E-03; -1.3035230E-01;6855;  8.4189791E-03;  0.0000000E+00;  3.1782715E-03;  9.9930231E+02;  1.2296689E-01; -5.7800635E+02;3; -1.1288440E+01;  0.0000000E+00; -7.6738316E-01;0; -7.8601383E-02;  2.6485223E+04;  0.0000000E+00;  7.0297396E-01;  4.0000000E+04;  0.0000000E+00;  3.9877160E+04; -7.9774268E-02;  0.0000000E+00;  1.1728876E-03;  2.6502744E+03;
  7.2833037E-01;  9.9999998E-03; -1.2033306E-01;6856;  1.1554399E-02;  0.0000000E+00;  3.2099984E-03;  9.9903363E+02;  1.2296565E-01; -8.0061658E+02;3; -1.2165772E+01;  0.0000000E+00; -6.8316585E-01;0; -7.7296600E-02;  2.6471695E+04;  0.0000000E+00;  6.7252934E-01;  4.0000000E+04;  0.0000000E+00;  3.9875684E+04; -7.5545423E-02;  0.0000000E+00; -1.7511749E-03;  2.5183552E+03;
  7.2839999E-01;  9.9999998E-03; -1.1031056E-01;6857;  1.4545609E-02;  0.0000000E+00;  3.1600934E-03;  9.9874054E+02;  1.2296598E-01; -1.0434237E+03;3; -1.3019069E+01;  0.0000000E+00; -6.0807461E-01;0; -7.6275565E-02;  2.6456094E+04;  0.0000000E+00;  6.2802678E-01;  4.0000000E+04;  0.0000000E+00;  3.9874707E+04; -7.1819067E-02;  0.0000000E+00; -4.4564987E-03;  2.3938860E+03;
  7.4009454E-01;  9.9999998E-03; -2.7047473E-01;6902; -2.8121531E-02;  0.0000000E+00; -4.3350570E-03;  9.9875592E+02;  1.2709570E-01; -1.0306826E+03;3;  9.2607230E-01;  0.0000000E+00; -1.0598942E+00;0; -1.5429914E-01;  2.4804854E+04;  0.0000000E+00; -2.4030094E+00;  4.0000000E+04;  0.0000000E+00;  3.9840559E+04; -2.0056139E-01;  0.0000000E+00;  4.6262242E-02;  5.9501826E+03;
  7.4015015E-01;  9.9999998E-03; -2.6042864E-01;6903; -2.6615227E-02;  0.0000000E+00; -4.5621311E-03;  9.9881012E+02;  1.2709549E-01; -9.8579517E+02;3;  3.4707117E-01;  0.0000000E+00; -1.0690416E+00;0; -1.4583366E-01;  2.4796664E+04;  0.0000000E+00; -1.8019357E+00;  4.0000000E+04;  0.0000000E+00;  3.9857574E+04; -1.9449107E-01;  0.0000000E+00;  4.8657417E-02;  5.3827422E+03;
  7.4021322E-01;  9.9999998E-03; -2.5036407E-01;6904; -2.5009818E-02;  0.0000000E+00; -4.2789057E-03;  9.9890192E+02;  1.2709613E-01; -9.0974829E+02;3; -2.6288879E-01;  0.0000000E+00; -1.0028886E+00;0; -1.4362498E-01;  2.4789918E+04;  0.0000000E+00; -1.1322564E+00;  4.0000000E+04;  0.0000000E+00;  3.9876797E+04; -1.8786690E-01;  0.0000000E+00;  4.4241920E-02;  6.0353149E+03;
  7.4027026E-01;  9.9999998E-03; -2.4031249E-01;6905; -2.3312831E-02;  0.0000000E+00; -2.9149833E-03;  9.9882922E+02;  1.2709279E-01; -9.6994385E+02;3; -9.2738116E-01;  0.0000000E+00; -8.0498511E-01;0; -1.4612149E-01;  2.4786680E+04;  0.0000000E+00; -5.3852153E-01;  4.0000000E+04;  0.0000000E+00;  3.9879680E+04; -1.8074565E-01;  0.0000000E+00;  3.4624159E-02;  5.8193008E+03;
  7.4033743E-01;  9.9999998E-03; -2.3030105E-01;6906; -2.1470955E-02;  0.0000000E+00; -1.6111904E-03;  9.9863477E+02;  1.2709036E-01; -1.1310745E+03;3; -1.6369818E+00;  0.0000000E+00; -4.5989117E-01;0; -1.4478348E-01;  2.4784990E+04;  0.0000000E+00; -8.4871300E-02;  4.0000000E+04;  0.0000000E+00;  3.9869555E+04; -1.7328088E-01;  0.0000000E+00;  2.8497400E-02;  4.2923584E+03;
  7.4039316E-01;  9.9999998E-03; -2.2031990E-01;6907; -1.9478366E-02;  0.0000000E+00; -8.9030777E-04;  9.9850201E+02;  1.2708312E-01; -1.2410461E+03;3; -2.3996732E+00;  0.0000000E+00; -2.4575278E-01;0; -1.4008120E-01;  2.4787299E+04;  0.0000000E+00;  2.2460216E-01;  4.0000000E+04;  0.0000000E+00;  3.9859590E+04; -1.6556644E-01;  0.0000000E+00;  2.5485251E-02;  2.9592808E+03;
  7.4041754E-01;  9.9999998E-03; -2.1035010E-01;6908; -1.7316535E-02;  0.0000000E+00; -5.5215461E-04;  9.9848608E+02;  1.2706575E-01; -1.2542310E+03;3; -3.2098525E+00;  0.0000000E+00;  2.0584170E-02;0; -1.3446724E-01;  2.4795369E+04;  0.0000000E+00;  4.1816965E-01;  4.0000000E+04;  0.0000000E+00;  3.9855398E+04; -1.5772235E-01;  0.0000000E+00;  2.3255115E-02;  2.4256990E+03;
  7.4042273E-01;  9.9999998E-03; -2.0038077E-01;6909; -1.4967781E-02;  0.0000000E+00; -3.9022052E-04;  9.9856274E+02;  1.2704270E-01; -1.1907268E+03;3; -4.0895519E+00;  0.0000000E+00;  1.6896325E-01;0; -1.2897381E-01;  2.4807574E+04;  0.0000000E+00;  5.2793550E-01;  4.0000000E+04;  0.0000000E+00;  3.9855758E+04; -1.4994897E-01;  0.0000000E+00;  2.0975154E-02;  2.4737952E+03;
  7.4039680E-01;  9.9999998E-03; -1.9040042E-01;6910; -1.2415471E-02;  0.0000000E+00; -3.2030963E-04;  9.9868170E+02;  1.2700799E-01; -1.0921621E+03;3; -5.1123567E+00;  0.0000000E+00;  2.6075217E-01;0; -1.2381014E-01;  2.4824891E+04;  0.0000000E+00;  5.8243978E-01;  4.0000000E+04;  0.0000000E+00;  3.9857926E+04; -1.4238921E-01;  0.0000000E+00;  1.8579066E-02;  2.7663965E+03;
  7.4034899E-01;  9.9999998E-03; -1.8040641E-01;6911; -9.6073942E-03;  0.0000000E+00; -2.3709972E-04;  9.9880658E+02;  1.2696445E-01; -9.8870868E+02;3; -6.3104568E+00;  0.0000000E+00;  1.6940093E-01;0; -1.1907619E-01;  2.4845572E+04;  0.0000000E+00;  6.0511452E-01;  4.0000000E+04;  0.0000000E+00;  3.9860215E+04; -1.3520308E-01;  0.0000000E+00;  1.6126884E-02;  3.0479128E+03;
  7.4031800E-01;  9.9999998E-03; -1.7040910E-01;6912; -6.4927242E-03;  0.0000000E+00;  1.5786421E-05;  9.9890771E+02;  1.2692480E-01; -9.0495831E+02;3; -7.5301232E+00;  0.0000000E+00; -8.0802560E-02;0; -1.1486600E-01;  2.4863939E+04;  0.0000000E+00;  6.1402053E-01;  4.0000000E+04;  0.0000000E+00;  3.9861648E+04; -1.2857307E-01;  0.0000000E+00;  1.3707082E-02;  3.2145015E+03;
  7.4030399E-01;  9.9999998E-03; -1.6040722E-01;6913; -3.1888159E-03;  0.0000000E+00;  3.5671284E-04;  9.9895911E+02;  1.2689000E-01; -8.6234241E+02;3; -8.5215597E+00;  0.0000000E+00; -7.8540690E-02;0; -1.1116348E-01;  2.4878783E+04;  0.0000000E+00;  6.2239516E-01;  4.0000000E+04;  0.0000000E+00;  3.9862000E+04; -1.2256982E-01;  0.0000000E+00;  1.1406341E-02;  3.2716189E+03;
  7.4030924E-01;  9.9999998E-03; -1.5039998E-01;6914;  1.6165210E-04;  0.0000000E+00;  6.5597444E-04;  9.9895563E+02;  1.2686001E-01; -8.6525586E+02;3; -9.4756546E+00;  0.0000000E+00; -3.4594920E-02;0; -1.0794908E-01;  2.4889092E+04;  0.0000000E+00;  6.3710666E-01;  4.0000000E+04;  0.0000000E+00;  3.9861625E+04; -1.1722834E-01;  0.0000000E+00;  9.2792595E-03;  3.2515857E+03;
  7.4033749E-01;  9.9999998E-03; -1.4038584E-01;6915;  3.4985510E-03;  0.0000000E+00;  8.9458842E-04;  9.9889435E+02;  1.2683792E-01; -9.1601965E+02;3; -1.0413651E+01;  0.0000000E+00;  1.6132370E-02;0; -1.0515893E-01;  2.4893814E+04;  0.0000000E+00;  6.5761846E-01;  4.0000000E+04;  0.0000000E+00;  3.9860734E+04; -1.1254403E-01;  0.0000000E+00;  7.3851072E-03;  3.1945305E+03;
  7.4038649E-01;  9.9999998E-03; -1.3036382E-01;6916;  6.7769769E-03;  0.0000000E+00;  1.0690291E-03;  9.9877673E+02;  1.2682277E-01; -1.0134486E+03;3; -1.1326610E+01;  0.0000000E+00;  7.5330354E-02;0; -1.0270361E-01;  2.4892949E+04;  0.0000000E+00;  6.7645818E-01;  4.0000000E+04;  0.0000000E+00;  3.9859656E+04; -1.0848180E-01;  0.0000000E+00;  5.7781902E-03;  3.1276118E+03;
  7.4044907E-01;  9.9999998E-03; -1.2033690E-01;6917;  9.9575436E-03;  0.0000000E+00;  1.1837685E-03;  9.9861951E+02;  1.2681498E-01; -1.1437159E+03;3; -1.2214908E+01;  0.0000000E+00;  1.3565311E-01;0; -1.0048836E-01;  2.4887523E+04;  0.0000000E+00;  6.8248039E-01;  4.0000000E+04;  0.0000000E+00;  3.9858633E+04; -1.0498956E-01;  0.0000000E+00;  4.5011900E-03;  3.0575708E+03;
  7.4051750E-01;  9.9999998E-03; -1.1030757E-01;6918;  1.2998383E-02;  0.0000000E+00;  1.2366795E-03;  9.9843652E+02;  1.2681264E-01; -1.2953159E+03;3; -1.3074247E+01;  0.0000000E+00;  1.8883976E-01;0; -9.8415598E-02;  2.4878645E+04;  0.0000000E+00;  6.6607165E-01;  4.0000000E+04;  0.0000000E+00;  3.9857711E+04; -1.0201026E-01;  0.0000000E+00;  3.5946690E-03;  2.9794131E+03;
  7.5287879E-01;  9.9999998E-03; -2.7052265E-01;6963; -3.1058267E-02;  0.0000000E+00; -7.4304091E-03;  9.9719781E+02;  1.3133930E-01; -2.3215522E+03;3;  1.0201036E+00;  0.0000000E+00; -2.5914367E-02;0; -1.7194811E-01;  2.3158717E+04;  0.0000000E+00;  9.9678254E-01;  4.0000000E+04;  0.0000000E+00;  3.9841250E+04; -2.2743331E-01;  0.0000000E+00;  5.5485211E-02;  4.1131846E+03;
  7.5310373E-01;  9.9999998E-03; -2.6046547E-01;6964; -2.9582370E-02;  0.0000000E+00; -7.4767116E-03;  9.9737653E+02;  1.3138318E-01; -2.1735078E+03;3;  3.7146136E-01;  0.0000000E+00; -4.3924954E-02;0; -1.6752695E-01;  2.3140598E+04;  0.0000000E+00;  7.9127744E-02;  4.0000000E+04;  0.0000000E+00;  3.9860395E+04; -2.2097197E-01;  0.0000000E+00;  5.3445026E-02;  6.0054458E+03;
  7.5335699E-01;  9.9999998E-03; -2.5039440E-01;6965; -2.7993456E-02;  0.0000000E+00; -6.5419436E-03;  9.9752509E+02;  1.3143672E-01; -2.0504009E+03;3; -3.0322137E-01;  0.0000000E+00;  3.8760662E-02;0; -1.7135970E-01;  2.3120842E+04;  0.0000000E+00; -2.8247777E-01;  4.0000000E+04;  0.0000000E+00;  3.9875359E+04; -2.1399866E-01;  0.0000000E+00;  4.2638954E-02;  7.9928101E+03;
  7.5350738E-01;  9.9999998E-03; -2.4034344E-01;6966; -2.6240896E-02;  0.0000000E+00; -4.7150543E-03;  9.9744293E+02;  1.3146029E-01; -2.1184480E+03;3; -1.0194352E+00;  0.0000000E+00;  3.0272400E-01;0; -1.7578922E-01;  2.3113100E+04;  0.0000000E+00; -2.8296664E-01;  4.0000000E+04;  0.0000000E+00;  3.9870676E+04; -2.0638409E-01;  0.0000000E+00;  3.0594865E-02;  7.4574819E+03;
  7.5354433E-01;  9.9999998E-03; -2.3032178E-01;6967; -2.4261303E-02;  0.0000000E+00; -3.3468672E-03;  9.9727667E+02;  1.3144855E-01; -2.2562212E+03;3; -1.7785343E+00;  0.0000000E+00;  5.7544875E-01;0; -1.7348666E-01;  2.3118504E+04;  0.0000000E+00; -1.4058223E-01;  4.0000000E+04;  0.0000000E+00;  3.9857102E+04; -1.9825816E-01;  0.0000000E+00;  2.4771500E-02;  5.7317686E+03;
  7.5353116E-01;  9.9999998E-03; -2.2031756E-01;6968; -2.2100573E-02;  0.0000000E+00; -2.6553983E-03;  9.9718347E+02;  1.3141979E-01; -2.3334531E+03;3; -2.5728765E+00;  0.0000000E+00;  7.8402370E-01;0; -1.6762185E-01;  2.3131703E+04;  0.0000000E+00;  2.1716837E-02;  4.0000000E+04;  0.0000000E+00;  3.9845797E+04; -1.8988954E-01;  0.0000000E+00;  2.2267692E-02;  4.2701455E+03;
  7.5348288E-01;  9.9999998E-03; -2.1032189E-01;6969; -1.9742304E-02;  0.0000000E+00; -2.3316569E-03;  9.9719159E+02;  1.3137913E-01; -2.3266880E+03;3; -3.4189129E+00;  0.0000000E+00;  9.2325294E-01;0; -1.6108651E-01;  2.3150574E+04;  0.0000000E+00;  1.5152854E-01;  4.0000000E+04;  0.0000000E+00;  3.9839535E+04; -1.8148284E-01;  0.0000000E+00;  2.0396316E-02;  3.4129480E+03;
  7.5340754E-01;  9.9999998E-03; -2.0033441E-01;6970; -1.7203590E-02;  0.0000000E+00; -2.2139326E-03;  9.9727875E+02;  1.3133124E-01; -2.2544927E+03;3; -4.3114309E+00;  0.0000000E+00;  1.0542933E+00;0; -1.5475723E-01;  2.3173670E+04;  0.0000000E+00;  2.3434588E-01;  4.0000000E+04;  0.0000000E+00;  3.9836953E+04; -1.7324522E-01;  0.0000000E+00;  1.8487988E-02;  3.0254446E+03;
  7.5330520E-01;  9.9999998E-03; -1.9035102E-01;6971; -1.4484569E-02;  0.0000000E+00; -2.1824066E-03;  9.9741858E+02;  1.3127424E-01; -2.1386448E+03;3; -5.2536926E+00;  0.0000000E+00;  1.1468533E+00;0; -1.4885364E-01;  2.3200244E+04;  0.0000000E+00;  2.7623358E-01;  4.0000000E+04;  0.0000000E+00;  3.9836746E+04; -1.6536203E-01;  0.0000000E+00;  1.6508386E-02;  2.9524314E+03;
  7.5319058E-01;  9.9999998E-03; -1.8036427E-01;6972; -1.1590125E-02;  0.0000000E+00; -2.1804033E-03;  9.9757483E+02;  1.3121341E-01; -2.0092169E+03;3; -6.2873349E+00;  0.0000000E+00;  1.1785614E+00;0; -1.4340042E-01;  2.3228197E+04;  0.0000000E+00;  2.9321691E-01;  4.0000000E+04;  0.0000000E+00;  3.9837766E+04; -1.5800789E-01;  0.0000000E+00;  1.4607480E-02;  3.0296936E+03;
  7.5308883E-01;  9.9999998E-03; -1.7037587E-01;6973; -8.5133743E-03;  0.0000000E+00; -2.1540469E-03;  9.9772217E+02;  1.3115567E-01; -1.8871470E+03;3; -7.3831034E+00;  0.0000000E+00;  1.1166849E+00;0; -1.3839829E-01;  2.3254074E+04;  0.0000000E+00;  3.0387133E-01;  4.0000000E+04;  0.0000000E+00;  3.9838820E+04; -1.5133162E-01;  0.0000000E+00;  1.2933327E-02;  3.1234529E+03;
  7.5302029E-01;  9.9999998E-03; -1.6038278E-01;6974; -5.2525508E-03;  0.0000000E+00; -2.0099164E-03;  9.9784351E+02;  1.3110648E-01; -1.7866071E+03;3; -8.5131702E+00;  0.0000000E+00;  9.4470388E-01;0; -1.3380824E-01;  2.3275477E+04;  0.0000000E+00;  3.2331625E-01;  4.0000000E+04;  0.0000000E+00;  3.9839473E+04; -1.4541472E-01;  0.0000000E+00;  1.1606484E-02;  3.1820610E+03;
  7.5302678E-01;  9.9999998E-03; -1.5038140E-01;6975; -1.8898487E-03;  0.0000000E+00; -1.7915844E-03;  9.9793396E+02;  1.3107762E-01; -1.7116466E+03;3; -9.4968081E+00;  0.0000000E+00;  9.4782937E-01;0; -1.2959699E-01;  2.3287936E+04;  0.0000000E+00;  3.5851616E-01;  4.0000000E+04;  0.0000000E+00;  3.9839574E+04; -1.4032497E-01;  0.0000000E+00;  1.0727976E-02;  3.2039976E+03;
  7.5309455E-01;  9.9999998E-03; -1.4037366E-01;6976;  1.4675845E-03;  0.0000000E+00; -1.5870164E-03;  9.9798804E+02;  1.3106808E-01; -1.6668580E+03;3; -1.0442451E+01;  0.0000000E+00;  9.8128033E-01;0; -1.2563376E-01;  2.3292320E+04;  0.0000000E+00;  4.0814012E-01;  4.0000000E+04;  0.0000000E+00;  3.9839227E+04; -1.3601144E-01;  0.0000000E+00;  1.0377678E-02;  3.2155442E+03;
  7.5318521E-01;  9.9999998E-03; -1.3036127E-01;6977;  4.7757071E-03;  0.0000000E+00; -1.3993507E-03;  9.9800232E+02;  1.3106416E-01; -1.6550559E+03;3; -1.1374077E+01;  0.0000000E+00;  1.0133690E+00;0; -1.2176759E-01;  2.3292234E+04;  0.0000000E+00;  4.6284616E-01;  4.0000000E+04;  0.0000000E+00;  3.9838828E+04; -1.3236079E-01;  0.0000000E+00;  1.0593200E-02;  3.2359424E+03;
  7.5328940E-01;  9.9999998E-03; -1.2034566E-01;6978;  7.9935500E-03;  0.0000000E+00; -1.2282243E-03;  9.9798120E+02;  1.3106608E-01; -1.6725369E+03;3; -1.2272561E+01;  0.0000000E+00;  1.0511152E+00;0; -1.1791597E-01;  2.3288393E+04;  0.0000000E+00;  5.0750768E-01;  4.0000000E+04;  0.0000000E+00;  3.9838340E+04; -1.2929757E-01;  0.0000000E+00;  1.1381605E-02;  3.2621072E+03;
  7.5339597E-01;  9.9999998E-03; -1.1032573E-01;6979;  1.1083994E-02;  0.0000000E+00; -1.0738468E-03;  9.9793555E+02;  1.3107073E-01; -1.7103628E+03;3; -1.3138211E+01;  0.0000000E+00;  1.0821041E+00;0; -1.1401286E-01;  2.3282092E+04;  0.0000000E+00;  5.2816057E-01;  4.0000000E+04;  0.0000000E+00;  3.9838004E+04; -1.2674275E-01;  0.0000000E+00;  1.2729888E-02;  3.2751936E+03;
  7.6665652E-01;  9.9999998E-03; -2.7059194E-01;7024; -3.4922697E-02;  0.0000000E+00; -1.0378990E-02;  9.9611609E+02;  1.3610871E-01; -3.2177163E+03;3;  1.1187006E+00;  0.0000000E+00;  1.1016860E+00;0; -1.8915747E-01;  2.1519059E+04;  0.0000000E+00;  2.5276511E+00;  4.0000000E+04;  0.0000000E+00;  3.9835672E+04; -2.4694957E-01;  0.0000000E+00;  5.7792097E-02;  9.1706729E+03;
  7.6689357E-01;  9.9999998E-03; -2.6052985E-01;7025; -3.3417784E-02;  0.0000000E+00; -9.9454932E-03;  9.9639764E+02;  1.3615987E-01; -2.9844897E+03;3;  4.1912159E-01;  0.0000000E+00;  1.1073896E+00;0; -1.8965569E-01;  2.1505578E+04;  0.0000000E+00;  8.1324422E-01;  4.0000000E+04;  0.0000000E+00;  3.9854035E+04; -2.3923162E-01;  0.0000000E+00;  4.9575932E-02;  8.6521357E+03;
  7.6720178E-01;  9.9999998E-03; -2.5046656E-01;7026; -3.1777166E-02;  0.0000000E+00; -8.2624396E-03;  9.9655011E+02;  1.3623409E-01; -2.8581731E+03;3; -3.1628200E-01;  0.0000000E+00;  1.2372528E+00;0; -1.9776988E-01;  2.1486516E+04;  0.0000000E+00; -5.8507178E-02;  4.0000000E+04;  0.0000000E+00;  3.9859641E+04; -2.3108758E-01;  0.0000000E+00;  3.3317704E-02;  9.1105010E+03;
  7.6739568E-01;  9.9999998E-03; -2.4042657E-01;7027; -2.9895725E-02;  0.0000000E+00; -6.2780967E-03;  9.9645886E+02;  1.3627349E-01; -2.9337261E+03;3; -1.0703458E+00;  0.0000000E+00;  1.5370086E+00;0; -2.0082347E-01;  2.1478494E+04;  0.0000000E+00; -3.1863990E-01;  4.0000000E+04;  0.0000000E+00;  3.9847633E+04; -2.2252972E-01;  0.0000000E+00;  2.1706251E-02;  7.7073940E+03;
  7.6743692E-01;  9.9999998E-03; -2.3039600E-01;7028; -2.7755532E-02;  0.0000000E+00; -5.1897937E-03;  9.9634943E+02;  1.3626312E-01; -3.0243896E+03;3; -1.8584502E+00;  0.0000000E+00;  1.7117347E+00;0; -1.9568011E-01;  2.1486033E+04;  0.0000000E+00; -2.9387742E-01;  4.0000000E+04;  0.0000000E+00;  3.9834148E+04; -2.1366316E-01;  0.0000000E+00;  1.7983057E-02;  6.0784810E+03;
  7.6739728E-01;  9.9999998E-03; -2.2036149E-01;7029; -2.5378944E-02;  0.0000000E+00; -4.6966476E-03;  9.9631219E+02;  1.3622621E-01; -3.0552527E+03;3; -2.6814137E+00;  0.0000000E+00;  1.8718406E+00;0; -1.8802077E-01;  2.1502982E+04;  0.0000000E+00; -1.8416417E-01;  4.0000000E+04;  0.0000000E+00;  3.9824973E+04; -2.0466180E-01;  0.0000000E+00;  1.6641034E-02;  4.9052900E+03;
  7.6729548E-01;  9.9999998E-03; -2.1033093E-01;7030; -2.2794314E-02;  0.0000000E+00; -4.4973255E-03;  9.9633032E+02;  1.3617042E-01; -3.0402410E+03;3; -3.5530117E+00;  0.0000000E+00;  1.9911051E+00;0; -1.8023406E-01;  2.1527193E+04;  0.0000000E+00; -8.2815006E-02;  4.0000000E+04;  0.0000000E+00;  3.9818254E+04; -1.9574367E-01;  0.0000000E+00;  1.5509602E-02;  3.9969712E+03;
  7.6718342E-01;  9.9999998E-03; -2.0031154E-01;7031; -2.0040996E-02;  0.0000000E+00; -4.4565904E-03;  9.9639752E+02;  1.3611181E-01; -2.9845884E+03;3; -4.4601903E+00;  0.0000000E+00;  2.0737543E+00;0; -1.7292546E-01;  2.1553117E+04;  0.0000000E+00; -2.3538306E-02;  4.0000000E+04;  0.0000000E+00;  3.9813613E+04; -1.8714361E-01;  0.0000000E+00;  1.4218146E-02;  3.3475183E+03;
  7.6706499E-01;  9.9999998E-03; -1.9030523E-01;7032; -1.7134657E-02;  0.0000000E+00; -4.4906158E-03;  9.9651349E+02;  1.3605054E-01; -2.8884929E+03;3; -5.4031677E+00;  0.0000000E+00;  2.1384597E+00;0; -1.6614440E-01;  2.1580016E+04;  0.0000000E+00; -7.0965504E-03;  4.0000000E+04;  0.0000000E+00;  3.9811207E+04; -1.7905700E-01;  0.0000000E+00;  1.2912608E-02;  2.9728464E+03;
  7.6694924E-01;  9.9999998E-03; -1.8030030E-01;7033; -1.4091975E-02;  0.0000000E+00; -4.5580231E-03;  9.9665729E+02;  1.3599007E-01; -2.7693367E+03;3; -6.3794184E+00;  0.0000000E+00;  2.1812322E+00;0; -1.5979336E-01;  2.1606312E+04;  0.0000000E+00; -1.7361779E-02;  4.0000000E+04;  0.0000000E+00;  3.9810699E+04; -1.7162606E-01;  0.0000000E+00;  1.1832695E-02;  2.8356526E+03;
  7.6686364E-01;  9.9999998E-03; -1.7029396E-01;7034; -1.0933085E-02;  0.0000000E+00; -4.6301992E-03;  9.9680701E+02;  1.3593863E-01; -2.6453408E+03;3; -7.4022698E+00;  0.0000000E+00;  2.1889231E+00;0; -1.5376057E-01;  2.1628904E+04;  0.0000000E+00; -3.1941690E-02;  4.0000000E+04;  0.0000000E+00;  3.9810984E+04; -1.6495650E-01;  0.0000000E+00;  1.1195922E-02;  2.8184998E+03;
  7.6683861E-01;  9.9999998E-03; -1.6027923E-01;7035; -7.6712156E-03;  0.0000000E+00; -4.6709450E-03;  9.9695648E+02;  1.3590501E-01; -2.5214934E+03;3; -8.4483366E+00;  0.0000000E+00;  2.1652181E+00;0; -1.4791045E-01;  2.1644682E+04;  0.0000000E+00; -3.1470440E-02;  4.0000000E+04;  0.0000000E+00;  3.9811918E+04; -1.5909356E-01;  0.0000000E+00;  1.1183107E-02;  2.8448809E+03;
  7.6681787E-01;  9.9999998E-03; -1.5026246E-01;7036; -4.3196105E-03;  0.0000000E+00; -4.6273060E-03;  9.9707727E+02;  1.3587187E-01; -2.4213979E+03;3; -9.5127850E+00;  0.0000000E+00;  2.0682192E+00;0; -1.4207759E-01;  2.1658484E+04;  0.0000000E+00; -4.4141267E-03;  4.0000000E+04;  0.0000000E+00;  3.9812422E+04; -1.5400964E-01;  0.0000000E+00;  1.1932042E-02;  2.8882993E+03;
  7.6680136E-01;  9.9999998E-03; -1.4024159E-01;7037; -9.2028547E-04;  0.0000000E+00; -4.4840472E-03;  9.9716931E+02;  1.3583866E-01; -2.3451538E+03;3; -1.0510773E+01;  0.0000000E+00;  2.0341678E+00;0; -1.3613592E-01;  2.1670334E+04;  0.0000000E+00;  4.9287848E-02;  4.0000000E+04;  0.0000000E+00;  3.9813164E+04; -1.4964300E-01;  0.0000000E+00;  1.3507086E-02;  2.9532646E+03;
  7.6681191E-01;  9.9999998E-03; -1.3021705E-01;7038;  2.4427385E-03;  0.0000000E+00; -4.2925607E-03;  9.9723877E+02;  1.3581215E-01; -2.2876248E+03;3; -1.1455482E+01;  0.0000000E+00;  2.0476785E+00;0; -1.2999587E-01;  2.1678146E+04;  0.0000000E+00;  1.1872585E-01;  4.0000000E+04;  0.0000000E+00;  3.9813770E+04; -1.4591928E-01;  0.0000000E+00;  1.5923413E-02;  3.0484907E+03;
  7.6693672E-01;  9.9999998E-03; -1.2018795E-01;7039;  5.7046721E-03;  0.0000000E+00; -4.0910393E-03;  9.9731494E+02;  1.3582304E-01; -2.2245159E+03;3; -1.2373492E+01;  0.0000000E+00;  2.0663910E+00;0; -1.2357680E-01;  2.1673871E+04;  0.0000000E+00;  1.8504265E-01;  4.0000000E+04;  0.0000000E+00;  3.9814340E+04; -1.4278308E-01;  0.0000000E+00;  1.9206280E-02;  3.1663555E+03;
  7.6711917E-01;  9.9999998E-03; -1.1015497E-01;7040;  8.8379551E-03;  0.0000000E+00; -3.8784039E-03;  9.9737860E+02;  1.3585414E-01; -2.1717771E+03;3; -1.3255619E+01;  0.0000000E+00;  2.0804899E+00;0; -1.1682955E-01;  2.1662707E+04;  0.0000000E+00;  2.3278323E-01;  4.0000000E+04;  0.0000000E+00;  3.9814762E+04; -1.4013806E-01;  0.0000000E+00;  2.3308508E-02;  3.2798213E+03;
  7.8145182E-01;  9.9999998E-03; -2.7068931E-01;7085; -3.9830212E-02;  0.0000000E+00; -1.2986660E-02;  9.9563776E+02;  1.4151452E-01; -3.6139934E+03;3;  1.1955546E+00;  0.0000000E+00;  2.2638237E+00;0; -1.8363193E-01;  1.9883598E+04;  0.0000000E+00;  1.7911173E+00;  4.0000000E+04;  0.0000000E+00;  3.9820277E+04; -2.3248613E-01;  0.0000000E+00;  4.8854195E-02;  1.0144862E+04;
  7.8161240E-01;  9.9999998E-03; -2.6063147E-01;7086; -3.8176864E-02;  0.0000000E+00; -1.1822858E-02;  9.9594666E+02;  1.4153557E-01; -3.3581013E+03;3;  4.6129510E-01;  0.0000000E+00;  2.3523653E+00;0; -1.8933502E-01;  1.9884246E+04;  0.0000000E+00;  3.1373888E-01;  4.0000000E+04;  0.0000000E+00;  3.9833500E+04; -2.2296384E-01;  0.0000000E+00;  3.3628821E-02;  9.3696895E+03;
  7.8188640E-01;  9.9999998E-03; -2.5059074E-01;7087; -3.6353342E-02;  0.0000000E+00; -9.5358063E-03;  9.9602173E+02;  1.4159963E-01; -3.2958813E+03;3; -2.9317829E-01;  0.0000000E+00;  2.5816259E+00;0; -1.9800177E-01;  1.9873859E+04;  0.0000000E+00; -3.6264712E-01;  4.0000000E+04;  0.0000000E+00;  3.9826051E+04; -2.1298245E-01;  0.0000000E+00;  1.4980678E-02;  8.2873438E+03;
  7.8208536E-01;  9.9999998E-03; -2.4057414E-01;7088; -3.4270748E-02;  0.0000000E+00; -7.9459669E-03;  9.9592511E+02;  1.4164199E-01; -3.3759277E+03;3; -1.0771124E+00;  0.0000000E+00;  2.8153749E+00;0; -1.9531642E-01;  1.9869318E+04;  0.0000000E+00; -4.8717609E-01;  4.0000000E+04;  0.0000000E+00;  3.9807203E+04; -2.0321831E-01;  0.0000000E+00;  7.9018958E-03;  6.1202842E+03;
  7.8209698E-01;  9.9999998E-03; -2.3054440E-01;7089; -3.1899828E-02;  0.0000000E+00; -7.4218493E-03;  9.9589740E+02;  1.4162160E-01; -3.3988899E+03;3; -1.8835632E+00;  0.0000000E+00;  2.9746873E+00;0; -1.8630432E-01;  1.9881709E+04;  0.0000000E+00; -3.8199493E-01;  4.0000000E+04;  0.0000000E+00;  3.9796938E+04; -1.9410829E-01;  0.0000000E+00;  7.8039779E-03;  4.8994517E+03;
  7.8198653E-01;  9.9999998E-03; -2.2048523E-01;7090; -2.9258372E-02;  0.0000000E+00; -7.2600534E-03;  9.9594214E+02;  1.4156087E-01; -3.3618540E+03;3; -2.7378118E+00;  0.0000000E+00;  3.0774593E+00;0; -1.7721027E-01;  1.9905531E+04;  0.0000000E+00; -2.4334826E-01;  4.0000000E+04;  0.0000000E+00;  3.9793391E+04; -1.8550208E-01;  0.0000000E+00;  8.2918135E-03;  4.3867134E+03;
  7.8180718E-01;  9.9999998E-03; -2.1042123E-01;7091; -2.6404308E-02;  0.0000000E+00; -7.2157201E-03;  9.9598022E+02;  1.4147800E-01; -3.3303000E+03;3; -3.6230133E+00;  0.0000000E+00;  3.1344082E+00;0; -1.6901691E-01;  1.9936082E+04;  0.0000000E+00; -1.4634608E-01;  4.0000000E+04;  0.0000000E+00;  3.9789199E+04; -1.7733409E-01;  0.0000000E+00;  8.3171772E-03;  3.7729353E+03;
  7.8161854E-01;  9.9999998E-03; -2.0037188E-01;7092; -2.3401158E-02;  0.0000000E+00; -7.2608036E-03;  9.9601984E+02;  1.4139463E-01; -3.2974617E+03;3; -4.5471768E+00;  0.0000000E+00;  3.1758780E+00;0; -1.6147535E-01;  1.9967377E+04;  0.0000000E+00; -1.1223972E-01;  4.0000000E+04;  0.0000000E+00;  3.9784355E+04; -1.6955657E-01;  0.0000000E+00;  8.0812229E-03;  3.1080847E+03;
  7.8146112E-01;  9.9999998E-03; -1.9033673E-01;7093; -2.0279575E-02;  0.0000000E+00; -7.3552616E-03;  9.9608667E+02;  1.4132178E-01; -3.2421055E+03;3; -5.4972062E+00;  0.0000000E+00;  3.2230759E+00;0; -1.5434428E-01;  1.9995162E+04;  0.0000000E+00; -1.3292725E-01;  4.0000000E+04;  0.0000000E+00;  3.9780852E+04; -1.6223370E-01;  0.0000000E+00;  7.8894217E-03;  2.6363044E+03;
  7.8135103E-01;  9.9999998E-03; -1.8030080E-01;7094; -1.7065609E-02;  0.0000000E+00; -7.4857161E-03;  9.9618567E+02;  1.4126737E-01; -3.1600837E+03;3; -6.4832420E+00;  0.0000000E+00;  3.2577515E+00;0; -1.4740525E-01;  2.0017469E+04;  0.0000000E+00; -1.8639225E-01;  4.0000000E+04;  0.0000000E+00;  3.9779156E+04; -1.5548053E-01;  0.0000000E+00;  8.0752876E-03;  2.4124771E+03;
  7.8129941E-01;  9.9999998E-03; -1.7026491E-01;7095; -1.3778704E-02;  0.0000000E+00; -7.6271789E-03;  9.9630066E+02;  1.4123215E-01; -3.0648281E+03;3; -7.4852071E+00;  0.0000000E+00;  3.2942383E+00;0; -1.4044140E-01;  2.0033094E+04;  0.0000000E+00; -2.4615674E-01;  4.0000000E+04;  0.0000000E+00;  3.9778785E+04; -1.4936598E-01;  0.0000000E+00;  8.9245727E-03;  2.3452190E+03;
  7.8128546E-01;  9.9999998E-03; -1.6023372E-01;7096; -1.0435782E-02;  0.0000000E+00; -7.7514988E-03;  9.9641388E+02;  1.4120954E-01; -2.9710042E+03;3; -8.5021954E+00;  0.0000000E+00;  3.3120105E+00;0; -1.3329543E-01;  2.0043789E+04;  0.0000000E+00; -2.8916159E-01;  4.0000000E+04;  0.0000000E+00;  3.9779531E+04; -1.4396821E-01;  0.0000000E+00;  1.0672773E-02;  2.3680784E+03;
  7.8129441E-01;  9.9999998E-03; -1.5020543E-01;7097; -7.0560263E-03;  0.0000000E+00; -7.8306766E-03;  9.9651794E+02;  1.4119366E-01; -2.8847852E+03;3; -9.5237446E+00;  0.0000000E+00;  3.3064678E+00;0; -1.2578632E-01;  2.0050777E+04;  0.0000000E+00; -3.0151114E-01;  4.0000000E+04;  0.0000000E+00;  3.9780867E+04; -1.3926569E-01;  0.0000000E+00;  1.3479372E-02;  2.4445237E+03;
  7.8131479E-01;  9.9999998E-03; -1.4017099E-01;7098; -3.6627857E-03;  0.0000000E+00; -7.8385295E-03;  9.9660901E+02;  1.4117996E-01; -2.8093311E+03;3; -1.0541049E+01;  0.0000000E+00;  3.2795177E+00;0; -1.1775029E-01;  2.0055082E+04;  0.0000000E+00; -2.8075963E-01;  4.0000000E+04;  0.0000000E+00;  3.9782375E+04; -1.3517371E-01;  0.0000000E+00;  1.7423425E-02;  2.5616013E+03;
  7.8134298E-01;  9.9999998E-03; -1.3013083E-01;7099; -2.8197994E-04;  0.0000000E+00; -7.7362559E-03;  9.9668372E+02;  1.4116782E-01; -2.7474568E+03;3; -1.1549023E+01;  0.0000000E+00;  3.2152126E+00;0; -1.0907665E-01;  2.0057529E+04;  0.0000000E+00; -2.3444751E-01;  4.0000000E+04;  0.0000000E+00;  3.9784418E+04; -1.3157694E-01;  0.0000000E+00;  2.2500295E-02;  2.7207192E+03;
  7.8137589E-01;  9.9999998E-03; -1.2008958E-01;7100;  3.0408159E-03;  0.0000000E+00; -7.5237704E-03;  9.9675256E+02;  1.4115492E-01; -2.6904216E+03;3; -1.2488143E+01;  0.0000000E+00;  3.2064602E+00;0; -9.9736236E-02;  2.0058760E+04;  0.0000000E+00; -1.7609537E-01;  4.0000000E+04;  0.0000000E+00;  3.9786148E+04; -1.2837356E-01;  0.0000000E+00;  2.8637329E-02;  2.9105193E+03;
  7.8139758E-01;  9.9999998E-03; -1.1005088E-01;7101;  6.2533091E-03;  0.0000000E+00; -7.2332402E-03;  9.9680939E+02;  1.4113772E-01; -2.6433616E+03;3; -1.3378274E+01;  0.0000000E+00;  3.2014098E+00;0; -8.9822620E-02;  2.0060389E+04;  0.0000000E+00; -1.1984467E-01;  4.0000000E+04;  0.0000000E+00;  3.9787676E+04; -1.2552057E-01;  0.0000000E+00;  3.5697956E-02;  3.0923499E+03;
  7.9699314E-01;  9.9999998E-03; -2.7080747E-01;7146; -4.5674045E-02;  0.0000000E+00; -1.4924537E-02;  9.9498529E+02;  1.4751562E-01; -4.1545586E+03;3;  1.2276640E+00;  0.0000000E+00;  3.5842655E+00;0; -1.0814643E-01;  1.8266203E+04;  0.0000000E+00;  7.7039331E-01;  4.0000000E+04;  0.0000000E+00;  3.9799695E+04; -1.3021146E-01;  0.0000000E+00;  2.2065030E-02;  9.9397031E+03;
  7.9702181E-01;  9.9999998E-03; -2.6076284E-01;7147; -4.3707792E-02;  0.0000000E+00; -1.3179525E-02;  9.9525812E+02;  1.4748754E-01; -3.9285422E+03;3;  4.8865142E-01;  0.0000000E+00;  3.7274301E+00;0; -1.1632701E-01;  1.8282504E+04;  0.0000000E+00; -1.5885350E-01;  4.0000000E+04;  0.0000000E+00;  3.9802320E+04; -1.2002224E-01;  0.0000000E+00;  3.6952258E-03;  8.9665137E+03;
  7.9714268E-01;  9.9999998E-03; -2.5075525E-01;7148; -4.1528877E-02;  0.0000000E+00; -1.0965960E-02;  9.9520270E+02;  1.4749806E-01; -3.9744165E+03;3; -2.8317156E-01;  0.0000000E+00;  4.0788503E+00;0; -1.1983211E-01;  1.8289945E+04;  0.0000000E+00; -4.7102273E-01;  4.0000000E+04;  0.0000000E+00;  3.9778602E+04; -1.0946837E-01;  0.0000000E+00; -1.0363746E-02;  6.0189829E+03;
  7.9717904E-01;  9.9999998E-03; -2.4077801E-01;7149; -3.9114557E-02;  0.0000000E+00; -1.0037585E-02;  9.9506537E+02;  1.4748178E-01; -4.0881899E+03;3; -1.0777005E+00;  0.0000000E+00;  4.2123051E+00;0; -1.1100179E-01;  1.8303646E+04;  0.0000000E+00; -4.2253855E-01;  4.0000000E+04;  0.0000000E+00;  3.9751355E+04; -1.0046743E-01;  0.0000000E+00; -1.0534361E-02;  2.8885842E+03;
  7.9712915E-01;  9.9999998E-03; -2.3078319E-01;7150; -3.6437627E-02;  0.0000000E+00; -1.0069369E-02;  9.9510876E+02;  1.4743786E-01; -4.0522407E+03;3; -1.9015485E+00;  0.0000000E+00;  4.2831397E+00;0; -9.9413201E-02;  1.8323641E+04;  0.0000000E+00; -2.7211991E-01;  4.0000000E+04;  0.0000000E+00;  3.9741445E+04; -9.2984743E-02;  0.0000000E+00; -6.4284578E-03;  1.8614795E+03;
  7.9695553E-01;  9.9999998E-03; -2.2074875E-01;7151; -3.3502586E-02;  0.0000000E+00; -1.0299314E-02;  9.9525836E+02;  1.4735374E-01; -3.9282954E+03;3; -2.7604604E+00;  0.0000000E+00;  4.3270550E+00;0; -9.0590969E-02;  1.8353383E+04;  0.0000000E+00; -1.4175528E-01;  4.0000000E+04;  0.0000000E+00;  3.9743234E+04; -8.7321237E-02;  0.0000000E+00; -3.2697301E-03;  1.8308516E+03;
  7.9667693E-01;  9.9999998E-03; -2.1068229E-01;7152; -3.0363837E-02;  0.0000000E+00; -1.0486566E-02;  9.9540063E+02;  1.4723600E-01; -3.8104727E+03;3; -3.6609645E+00;  0.0000000E+00;  4.3483644E+00;0; -8.4388316E-02;  1.8391186E+04;  0.0000000E+00; -7.6705821E-02;  4.0000000E+04;  0.0000000E+00;  3.9746098E+04; -8.3158307E-02;  0.0000000E+00; -1.2300118E-03;  1.9892778E+03;
  7.9635060E-01;  9.9999998E-03; -2.0060976E-01;7153; -2.7090138E-02;  0.0000000E+00; -1.0646212E-02;  9.9548413E+02;  1.4710435E-01; -3.7412905E+03;3; -4.5960927E+00;  0.0000000E+00;  4.3650255E+00;0; -7.9509921E-02;  1.8431965E+04;  0.0000000E+00; -7.9216272E-02;  4.0000000E+04;  0.0000000E+00;  3.9746551E+04; -7.9873867E-02;  0.0000000E+00;  3.6394590E-04;  1.9409526E+03;
  7.9604536E-01;  9.9999998E-03; -1.9054301E-01;7154; -2.3726499E-02;  0.0000000E+00; -1.0795030E-02;  9.9554138E+02;  1.4698197E-01; -3.6938354E+03;3; -5.5599327E+00;  0.0000000E+00;  4.3805180E+00;0; -7.4850529E-02;  1.8469680E+04;  0.0000000E+00; -1.3483129E-01;  4.0000000E+04;  0.0000000E+00;  3.9745625E+04; -7.6863460E-02;  0.0000000E+00;  2.0129331E-03;  1.8062812E+03;
  7.9579937E-01;  9.9999998E-03; -1.8047445E-01;7155; -2.0305999E-02;  0.0000000E+00; -1.0949298E-02;  9.9558832E+02;  1.4688206E-01; -3.6549729E+03;3; -6.5576034E+00;  0.0000000E+00;  4.3964777E+00;0; -6.9765627E-02;  1.8500758E+04;  0.0000000E+00; -2.2314277E-01;  4.0000000E+04;  0.0000000E+00;  3.9744758E+04; -7.3899120E-02;  0.0000000E+00;  4.1334941E-03;  1.7517009E+03;
  7.9563808E-01;  9.9999998E-03; -1.7041159E-01;7156; -1.6854713E-02;  0.0000000E+00; -1.1104443E-02;  9.9563196E+02;  1.4681256E-01; -3.6188262E+03;3; -7.5742846E+00;  0.0000000E+00;  4.4169645E+00;0; -6.3839495E-02;  1.8522490E+04;  0.0000000E+00; -3.2037151E-01;  4.0000000E+04;  0.0000000E+00;  3.9744668E+04; -7.0900865E-02;  0.0000000E+00;  7.0613674E-03;  1.7868933E+03;
  7.9556245E-01;  9.9999998E-03; -1.6035548E-01;7157; -1.3392710E-02;  0.0000000E+00; -1.1252379E-02;  9.9566888E+02;  1.4677547E-01; -3.5882102E+03;3; -8.5965900E+00;  0.0000000E+00;  4.4406462E+00;0; -5.6832720E-02;  1.8534715E+04;  0.0000000E+00; -4.0488639E-01;  4.0000000E+04;  0.0000000E+00;  3.9745352E+04; -6.7899898E-02;  0.0000000E+00;  1.1067179E-02;  1.8857942E+03;
  7.9555506E-01;  9.9999998E-03; -1.5030706E-01;7158; -9.9366959E-03;  0.0000000E+00; -1.1373780E-02;  9.9570227E+02;  1.4676145E-01; -3.5605569E+03;3; -9.6161070E+00;  0.0000000E+00;  4.4633617E+00;0; -4.8630536E-02;  1.8538641E+04;  0.0000000E+00; -4.6244970E-01;  4.0000000E+04;  0.0000000E+00;  3.9747074E+04; -6.4963371E-02;  0.0000000E+00;  1.6332833E-02;  2.0252316E+03;
  7.9558629E-01;  9.9999998E-03; -1.4026605E-01;7159; -6.5056100E-03;  0.0000000E+00; -1.1448623E-02;  9.9572668E+02;  1.4676045E-01; -3.5403105E+03;3; -1.0622633E+01;  0.0000000E+00;  4.4798427E+00;0; -3.9238285E-02;  1.8537527E+04;  0.0000000E+00; -4.8802254E-01;  4.0000000E+04;  0.0000000E+00;  3.9749254E+04; -6.2177029E-02;  0.0000000E+00;  2.2938743E-02;  2.2011602E+03;
  7.9562181E-01;  9.9999998E-03; -1.3022478E-01;7160; -3.1151341E-03;  0.0000000E+00; -1.1447044E-02;  9.9573608E+02;  1.4675979E-01; -3.5325579E+03;3; -1.1608130E+01;  0.0000000E+00;  4.4804459E+00;0; -2.8757308E-02;  1.8534447E+04;  0.0000000E+00; -4.8398021E-01;  4.0000000E+04;  0.0000000E+00;  3.9751879E+04; -5.9623960E-02;  0.0000000E+00;  3.0866653E-02;  2.4102925E+03;
  7.9563075E-01;  9.9999998E-03; -1.2017440E-01;7161;  2.2157255E-04;  0.0000000E+00; -1.1317152E-02;  9.9573541E+02;  1.4674851E-01; -3.5331011E+03;3; -1.2565282E+01;  0.0000000E+00;  4.4546313E+00;0; -1.7360587E-02;  1.8532832E+04;  0.0000000E+00; -4.5710784E-01;  4.0000000E+04;  0.0000000E+00;  3.9754469E+04; -5.7373896E-02;  0.0000000E+00;  4.0013310E-02;  2.6351006E+03;
  7.9560202E-01;  9.9999998E-03; -1.1013137E-01;7162;  3.4686115E-03;  0.0000000E+00; -1.1044639E-02;  9.9571869E+02;  1.4672042E-01; -3.5469277E+03;3; -1.3522331E+01;  0.0000000E+00;  4.3843408E+00;0; -5.2064694E-03;  1.8534271E+04;  0.0000000E+00; -4.1612551E-01;  4.0000000E+04;  0.0000000E+00;  3.9756539E+04; -5.5391438E-02;  0.0000000E+00;  5.0184969E-02;  2.8244739E+03;
  8.1143790E-01;  9.9999998E-03; -2.7092028E-01;7207; -5.1613115E-02;  0.0000000E+00; -1.6129356E-02;  9.9349670E+02;  1.5326785E-01; -5.3877832E+03;3;  1.1621312E+00;  0.0000000E+00;  4.8177953E+00;0;  7.7919111E-02;  1.6864943E+04;  0.0000000E+00;  1.3052098E+00;  4.0000000E+04;  0.0000000E+00;  3.9780949E+04;  9.8375671E-02;  0.0000000E+00; -2.0456560E-02;  1.0970543E+04;
  8.1167877E-01;  9.9999998E-03; -2.6089060E-01;7208; -4.9331624E-02;  0.0000000E+00; -1.4771947E-02;  9.9375336E+02;  1.5332805E-01; -5.1751489E+03;3;  4.4294766E-01;  0.0000000E+00;  5.1960011E+00;0;  8.1234857E-02;  1.6863764E+04;  0.0000000E+00;  5.0990599E-01;  4.0000000E+04;  0.0000000E+00;  3.9772918E+04;  1.1323263E-01;  0.0000000E+00; -3.1997766E-02;  8.9547383E+03;
  8.1191564E-01;  9.9999998E-03; -2.5089976E-01;7209; -4.6792932E-02;  0.0000000E+00; -1.3408499E-02;  9.9372137E+02;  1.5338874E-01; -5.2016660E+03;3; -3.1277174E-01;  0.0000000E+00;  5.3639951E+00;0;  8.9825749E-02;  1.6863143E+04;  0.0000000E+00;  1.8302438E-01;  4.0000000E+04;  0.0000000E+00;  3.9742035E+04;  1.2655909E-01;  0.0000000E+00; -3.6733340E-02;  4.9242271E+03;
  8.1193674E-01;  9.9999998E-03; -2.4093793E-01;7210; -4.3976218E-02;  0.0000000E+00; -1.3067782E-02;  9.9364813E+02;  1.5337206E-01; -5.2623550E+03;3; -1.1100497E+00;  0.0000000E+00;  5.4790292E+00;0;  1.0251003E-01;  1.6879039E+04;  0.0000000E+00;  1.0740479E-01;  4.0000000E+04;  0.0000000E+00;  3.9712199E+04;  1.3369456E-01;  0.0000000E+00; -3.1184532E-02;  1.1365476E+03;
  8.1182975E-01;  9.9999998E-03; -2.3095703E-01;7211; -4.0928252E-02;  0.0000000E+00; -1.3477558E-02;  9.9378320E+02;  1.5331152E-01; -5.1504585E+03;3; -1.9281461E+00;  0.0000000E+00;  5.5256963E+00;0;  1.1334032E-01;  1.6903771E+04;  0.0000000E+00;  8.7887093E-02;  4.0000000E+04;  0.0000000E+00;  3.9702398E+04;  1.3665149E-01;  0.0000000E+00; -2.3311168E-02;  3.5236749E+02;
  8.1161600E-01;  9.9999998E-03; -2.2093955E-01;7212; -3.7685487E-02;  0.0000000E+00; -1.3950752E-02;  9.9402313E+02;  1.5321711E-01; -4.9516523E+03;3; -2.7993574E+00;  0.0000000E+00;  5.5510406E+00;0;  1.1893626E-01;  1.6935576E+04;  0.0000000E+00;  6.1674308E-02;  4.0000000E+04;  0.0000000E+00;  3.9704996E+04;  1.3613370E-01;  0.0000000E+00; -1.7197436E-02;  4.2535980E+02;
  8.1131178E-01;  9.9999998E-03; -2.1090318E-01;7213; -3.4290161E-02;  0.0000000E+00; -1.4304801E-02;  9.9422192E+02;  1.5309472E-01; -4.7869678E+03;3; -3.7134380E+00;  0.0000000E+00;  5.5568290E+00;0;  1.2032738E-01;  1.6972857E+04;  0.0000000E+00;  1.2056716E-02;  4.0000000E+04;  0.0000000E+00;  3.9708273E+04;  1.3278474E-01;  0.0000000E+00; -1.2457364E-02;  6.6693622E+02;
  8.1094635E-01;  9.9999998E-03; -2.0085847E-01;7214; -3.0789118E-02;  0.0000000E+00; -1.4568838E-02;  9.9435504E+02;  1.5295397E-01; -4.6767007E+03;3; -4.6599650E+00;  0.0000000E+00;  5.5600715E+00;0;  1.1928008E-01;  1.7012996E+04;  0.0000000E+00; -6.0002897E-02;  4.0000000E+04;  0.0000000E+00;  3.9710074E+04;  1.2749508E-01;  0.0000000E+00; -8.2150046E-03;  8.5762183E+02;
  8.1055570E-01;  9.9999998E-03; -1.9080432E-01;7215; -2.7221562E-02;  0.0000000E+00; -1.4776821E-02;  9.9442596E+02;  1.5280829E-01; -4.6179380E+03;3; -5.6395144E+00;  0.0000000E+00;  5.5663314E+00;0;  1.1735236E-01;  1.7052873E+04;  0.0000000E+00; -1.4932244E-01;  4.0000000E+04;  0.0000000E+00;  3.9710762E+04;  1.2122854E-01;  0.0000000E+00; -3.8761764E-03;  9.9347772E+02;
  8.1019211E-01;  9.9999998E-03; -1.8072686E-01;7216; -2.3613868E-02;  0.0000000E+00; -1.4950077E-02;  9.9445081E+02;  1.5267459E-01; -4.5973462E+03;3; -6.6470280E+00;  0.0000000E+00;  5.5737982E+00;0;  1.1605216E-01;  1.7088291E+04;  0.0000000E+00; -2.4962607E-01;  4.0000000E+04;  0.0000000E+00;  3.9711145E+04;  1.1506242E-01;  0.0000000E+00;  9.8973163E-04;  1.1398458E+03;
  8.0988538E-01;  9.9999998E-03; -1.7064101E-01;7217; -1.9996952E-02;  0.0000000E+00; -1.5098204E-02;  9.9444061E+02;  1.5256178E-01; -4.6057910E+03;3; -7.6711550E+00;  0.0000000E+00;  5.5851693E+00;0;  1.1624108E-01;  1.7117150E+04;  0.0000000E+00; -3.5315949E-01;  4.0000000E+04;  0.0000000E+00;  3.9711270E+04;  1.0951384E-01;  0.0000000E+00;  6.7272307E-03;  1.3081663E+03;
  8.0968279E-01;  9.9999998E-03; -1.6055402E-01;7218; -1.6399803E-02;  0.0000000E+00; -1.5230278E-02;  9.9440790E+02;  1.5248704E-01; -4.6329009E+03;3; -8.7006197E+00;  0.0000000E+00;  5.6021361E+00;0;  1.1895961E-01;  1.7135613E+04;  0.0000000E+00; -4.5029324E-01;  4.0000000E+04;  0.0000000E+00;  3.9711984E+04;  1.0535011E-01;  0.0000000E+00;  1.3609509E-02;  1.5000786E+03;
  8.0960333E-01;  9.9999998E-03; -1.5047541E-01;7219; -1.2845519E-02;  0.0000000E+00; -1.5346677E-02;  9.9436578E+02;  1.5245542E-01; -4.6677637E+03;3; -9.7234497E+00;  0.0000000E+00;  5.6306977E+00;0;  1.2472749E-01;  1.7142322E+04;  0.0000000E+00; -5.3175777E-01;  4.0000000E+04;  0.0000000E+00;  3.9713379E+04;  1.0289919E-01;  0.0000000E+00;  2.1828290E-02;  1.7086132E+03;
  8.0962807E-01;  9.9999998E-03; -1.4040740E-01;7220; -9.3518989E-03;  0.0000000E+00; -1.5435733E-02;  9.9432251E+02;  1.5246008E-01; -4.7036143E+03;3; -1.0766849E+01;  0.0000000E+00;  5.6406875E+00;0;  1.3345686E-01;  1.7139275E+04;  0.0000000E+00; -5.9123522E-01;  4.0000000E+04;  0.0000000E+00;  3.9715699E+04;  1.0198468E-01;  0.0000000E+00;  3.1472176E-02;  1.9402402E+03;
  8.0969179E-01;  9.9999998E-03; -1.3034934E-01;7221; -5.9251729E-03;  0.0000000E+00; -1.5464632E-02;  9.9427509E+02;  1.5247364E-01; -4.7429214E+03;3; -1.1770004E+01;  0.0000000E+00;  5.6579037E+00;0;  1.4429377E-01;  1.7132555E+04;  0.0000000E+00; -6.2533528E-01;  4.0000000E+04;  0.0000000E+00;  3.9718488E+04;  1.0178886E-01;  0.0000000E+00;  4.2504918E-02;  2.1906816E+03;
  8.0974913E-01;  9.9999998E-03; -1.2030194E-01;7222; -2.5804255E-03;  0.0000000E+00; -1.5402095E-02;  9.9421808E+02;  1.5247990E-01; -4.7901787E+03;3; -1.2714789E+01;  0.0000000E+00;  5.6841464E+00;0;  1.5664813E-01;  1.7126523E+04;  0.0000000E+00; -6.3282520E-01;  4.0000000E+04;  0.0000000E+00;  3.9721078E+04;  1.0183880E-01;  0.0000000E+00;  5.4809336E-02;  2.4207039E+03;
  8.0981374E-01;  9.9999998E-03; -1.1027525E-01;7223;  6.5176189E-04;  0.0000000E+00; -1.5230333E-02;  9.9415753E+02;  1.5248424E-01; -4.8402998E+03;3; -1.3626737E+01;  0.0000000E+00;  5.6784511E+00;0;  1.7075187E-01;  1.7120236E+04;  0.0000000E+00; -6.1517328E-01;  4.0000000E+04;  0.0000000E+00;  3.9722984E+04;  1.0251307E-01;  0.0000000E+00;  6.8238810E-02;  2.5607019E+03;
  8.2461005E-01;  9.9999998E-03; -1.3039401E-01;7282; -8.7330779E-03;  0.0000000E+00; -2.0264378E-02;  9.9323633E+02;  1.5857872E-01; -5.6035127E+03;3; -1.1941615E+01;  0.0000000E+00;  6.9459729E+00;0;  4.6281484E-01;  1.5820433E+04;  0.0000000E+00; -7.0241797E-01;  4.0000000E+04;  0.0000000E+00;  3.9682578E+04;  4.0208918E-01;  0.0000000E+00;  6.0725663E-02;  1.9646520E+03;
  8.2463998E-01;  9.9999998E-03; -1.2034430E-01;7283; -5.3510005E-03;  0.0000000E+00; -2.0211482E-02;  9.9314441E+02;  1.5857899E-01; -5.6796577E+03;3; -1.2860643E+01;  0.0000000E+00;  6.9844050E+00;0;  4.7162035E-01;  1.5817222E+04;  0.0000000E+00; -7.2804743E-01;  4.0000000E+04;  0.0000000E+00;  3.9684984E+04;  3.9519778E-01;  0.0000000E+00;  7.6422580E-02;  2.1814050E+03;
  8.2467330E-01;  9.9999998E-03; -1.4047505E-01;7281; -1.2236739E-02;  0.0000000E+00; -2.0268569E-02;  9.9333398E+02;  1.5860902E-01; -5.5225776E+03;3; -1.0956548E+01;  0.0000000E+00;  6.9185696E+00;0;  4.5866331E-01;  1.5817410E+04;  0.0000000E+00; -6.5723759E-01;  4.0000000E+04;  0.0000000E+00;  3.9679922E+04;  4.1244641E-01;  0.0000000E+00;  4.6216909E-02;  1.7243867E+03;
  8.2475847E-01;  9.9999998E-03; -1.5057094E-01;7280; -1.5823485E-02;  0.0000000E+00; -2.0207932E-02;  9.9342474E+02;  1.5864000E-01; -5.4473711E+03;3; -9.9439850E+00;  0.0000000E+00;  6.8891444E+00;0;  4.5708740E-01;  1.5812577E+04;  0.0000000E+00; -6.0176170E-01;  4.0000000E+04;  0.0000000E+00;  3.9677930E+04;  4.2423123E-01;  0.0000000E+00;  3.2856155E-02;  1.5032866E+03;
  8.2478321E-01;  9.9999998E-03; -1.1032918E-01;7284; -2.1084736E-03;  0.0000000E+00; -2.0092091E-02;  9.9306573E+02;  1.5861735E-01; -5.7448398E+03;3; -1.3741859E+01;  0.0000000E+00;  7.0327849E+00;0;  4.8559606E-01;  1.5806537E+04;  0.0000000E+00; -7.2689617E-01;  4.0000000E+04;  0.0000000E+00;  3.9686074E+04;  3.9231655E-01;  0.0000000E+00;  9.3279496E-02;  2.2935671E+03;
  8.2483053E-01;  9.9999998E-03; -1.6066325E-01;7279; -1.9463796E-02;  0.0000000E+00; -2.0078488E-02;  9.9349182E+02;  1.5866327E-01; -5.3918174E+03;3; -8.9054041E+00;  0.0000000E+00;  6.8557305E+00;0;  4.5679367E-01;  1.5807373E+04;  0.0000000E+00; -5.4196054E-01;  4.0000000E+04;  0.0000000E+00;  3.9677223E+04;  4.3609279E-01;  0.0000000E+00;  2.0700866E-02;  1.2835967E+03;
  8.2493567E-01;  9.9999998E-03; -1.7074275E-01;7278; -2.3145013E-02;  0.0000000E+00; -1.9900847E-02;  9.9354187E+02;  1.5869389E-01; -5.3503374E+03;3; -7.8603249E+00;  0.0000000E+00;  6.8256655E+00;0;  4.5869023E-01;  1.5798369E+04;  0.0000000E+00; -4.7930202E-01;  4.0000000E+04;  0.0000000E+00;  3.9677875E+04;  4.4886023E-01;  0.0000000E+00;  9.8300055E-03;  1.0397968E+03;
  8.2508439E-01;  9.9999998E-03; -1.8081281E-01;7277; -2.6855210E-02;  0.0000000E+00; -1.9680832E-02;  9.9355371E+02;  1.5874028E-01; -5.3405601E+03;3; -6.8212976E+00;  0.0000000E+00;  6.7981210E+00;0;  4.6271259E-01;  1.5784460E+04;  0.0000000E+00; -4.0790051E-01;  4.0000000E+04;  0.0000000E+00;  3.9679375E+04;  4.6256220E-01;  0.0000000E+00;  1.5037321E-04;  7.8384375E+02;
  8.2528543E-01;  9.9999998E-03; -1.9087492E-01;7276; -3.0580811E-02;  0.0000000E+00; -1.9420110E-02;  9.9352216E+02;  1.5880670E-01; -5.3666821E+03;3; -5.7974987E+00;  0.0000000E+00;  6.7752357E+00;0;  4.6868786E-01;  1.5764624E+04;  0.0000000E+00; -3.1515864E-01;  4.0000000E+04;  0.0000000E+00;  3.9681148E+04;  4.7725090E-01;  0.0000000E+00; -8.5630501E-03;  5.8362848E+02;
  8.2516861E-01;  9.9999998E-03; -2.7103540E-01;7268; -5.7418834E-02;  0.0000000E+00; -1.7667284E-02;  9.9185815E+02;  1.5885937E-01; -6.7452896E+03;3;  9.8077631E-01;  0.0000000E+00;  6.1455603E+00;0;  4.0699002E-01;  1.5655715E+04;  0.0000000E+00;  1.7457714E+00;  4.0000000E+04;  0.0000000E+00;  3.9756133E+04;  4.7577810E-01;  0.0000000E+00; -6.8788081E-02;  1.0588178E+04;
  8.2537395E-01;  9.9999998E-03; -2.6101264E-01;7269; -5.4655474E-02;  0.0000000E+00; -1.7075125E-02;  9.9218915E+02;  1.5890622E-01; -6.4710293E+03;3;  2.9541942E-01;  0.0000000E+00;  6.4178057E+00;0;  4.2141631E-01;  1.5660856E+04;  0.0000000E+00;  1.4076822E+00;  4.0000000E+04;  0.0000000E+00;  3.9743402E+04;  4.9058181E-01;  0.0000000E+00; -6.9165505E-02;  8.8406191E+03;
  8.2555038E-01;  9.9999998E-03; -2.0091313E-01;7275; -3.4305222E-02;  0.0000000E+00; -1.9126464E-02;  9.9343854E+02;  1.5890029E-01; -5.4359629E+03;3; -4.8005099E+00;  0.0000000E+00;  6.7629843E+00;0;  4.7638834E-01;  1.5737491E+04;  0.0000000E+00; -1.8652351E-01;  4.0000000E+04;  0.0000000E+00;  3.9683414E+04;  4.9304798E-01;  0.0000000E+00; -1.6659645E-02;  6.4357855E+02;
  8.2564843E-01;  9.9999998E-03; -2.5101981E-01;7270; -5.1683053E-02;  0.0000000E+00; -1.6590247E-02;  9.9231128E+02;  1.5898301E-01; -6.3698486E+03;3; -4.3628696E-01;  0.0000000E+00;  6.5798912E+00;0;  4.4086584E-01;  1.5660207E+04;  0.0000000E+00;  1.1046637E+00;  4.0000000E+04;  0.0000000E+00;  3.9715062E+04;  5.0540298E-01;  0.0000000E+00; -6.4537145E-02;  5.3715918E+03;
  8.2578576E-01;  9.9999998E-03; -2.1094632E-01;7274; -3.7999116E-02;  0.0000000E+00; -1.8768879E-02;  9.9329285E+02;  1.5898775E-01; -5.5566489E+03;3; -3.8395314E+00;  0.0000000E+00;  6.7452531E+00;0;  4.8221746E-01;  1.5710021E+04;  0.0000000E+00; -6.6811969E-03;  4.0000000E+04;  0.0000000E+00;  3.9686203E+04;  5.0677657E-01;  0.0000000E+00; -2.4559110E-02;  1.0583937E+03;
  8.2582814E-01;  9.9999998E-03; -2.4104477E-01;7271; -4.8494693E-02;  0.0000000E+00; -1.6872030E-02;  9.9242065E+02;  1.5902665E-01; -6.2792349E+03;3; -1.2068589E+00;  0.0000000E+00;  6.6905546E+00;0;  4.6085036E-01;  1.5664996E+04;  0.0000000E+00;  8.1521696E-01;  4.0000000E+04;  0.0000000E+00;  3.9690277E+04;  5.1442593E-01;  0.0000000E+00; -5.3575583E-02;  2.5872932E+03;
  8.2594436E-01;  9.9999998E-03; -2.2098917E-01;7273; -4.1632149E-02;  0.0000000E+00; -1.8316612E-02;  9.9306500E+02;  1.5904835E-01; -5.7454307E+03;3; -2.9155393E+00;  0.0000000E+00;  6.7278233E+00;0;  4.8362690E-01;  1.5686188E+04;  0.0000000E+00;  2.3066545E-01;  4.0000000E+04;  0.0000000E+00;  3.9687684E+04;  5.1639867E-01;  0.0000000E+00; -3.2771774E-02;  1.4911401E+03;
  8.2594663E-01;  9.9999998E-03; -2.3103702E-01;7272; -4.5143925E-02;  0.0000000E+00; -1.7655881E-02;  9.9272479E+02;  1.5905537E-01; -6.0272949E+03;3; -2.0352023E+00;  0.0000000E+00;  6.7390504E+00;0;  4.7658271E-01;  1.5672151E+04;  0.0000000E+00;  5.1534694E-01;  4.0000000E+04;  0.0000000E+00;  3.9685062E+04;  5.1870757E-01;  0.0000000E+00; -4.2124856E-02;  1.7199497E+03;
  8.4108937E-01;  9.9999998E-03; -2.7118549E-01;7329; -6.3519202E-02;  0.0000000E+00; -2.0111160E-02;  9.9131390E+02;  1.6503589E-01; -7.1961553E+03;3;  5.7856721E-01;  0.0000000E+00;  7.3246942E+00;0;  9.9517345E-01;  1.4516893E+04;  0.0000000E+00;  1.9002262E+00;  4.0000000E+04;  0.0000000E+00;  3.9708176E+04;  1.1311449E+00;  0.0000000E+00; -1.3597143E-01;  7.4606997E+03;
  8.4139055E-01;  9.9999998E-03; -1.1059096E-01;7345; -4.8853680E-03;  0.0000000E+00; -2.6098764E-02;  9.9392072E+02;  1.6523436E-01; -5.0364536E+03;3; -1.3946509E+01;  0.0000000E+00;  8.4825926E+00;0;  1.0035986E+00;  1.4614241E+04;  0.0000000E+00; -7.4628729E-01;  4.0000000E+04;  0.0000000E+00;  3.9645484E+04;  8.7341881E-01;  0.0000000E+00;  1.3017975E-01;  2.3283489E+03;
  8.4123498E-01;  9.9999998E-03; -2.6116577E-01;7330; -6.0172368E-02;  0.0000000E+00; -2.0722147E-02;  9.9183759E+02;  1.6506213E-01; -6.7622988E+03;3; -3.4761962E-02;  0.0000000E+00;  7.5889974E+00;0;  1.0217786E+00;  1.4529221E+04;  0.0000000E+00;  1.9795148E+00;  4.0000000E+04;  0.0000000E+00;  3.9697770E+04;  1.1408421E+00;  0.0000000E+00; -1.1906353E-01;  7.0138706E+03;
  8.4135348E-01;  9.9999998E-03; -1.2059781E-01;7344; -8.1014559E-03;  0.0000000E+00; -2.6282411E-02;  9.9393732E+02;  1.6523898E-01; -5.0227256E+03;3; -1.3071762E+01;  0.0000000E+00;  8.3829756E+00;0;  1.0007293E+00;  1.4611943E+04;  0.0000000E+00; -7.5340074E-01;  4.0000000E+04;  0.0000000E+00;  3.9644641E+04;  8.9057410E-01;  0.0000000E+00;  1.1015521E-01;  2.2382900E+03;
  8.4141868E-01;  9.9999998E-03; -2.5116321E-01;7331; -5.6678843E-02;  0.0000000E+00; -2.1265984E-02;  9.9222528E+02;  1.6510656E-01; -6.4410786E+03;3; -7.1711946E-01;  0.0000000E+00;  7.7475724E+00;0;  1.0471164E+00;  1.4537710E+04;  0.0000000E+00;  1.6870377E+00;  4.0000000E+04;  0.0000000E+00;  3.9678809E+04;  1.1490511E+00;  0.0000000E+00; -1.0193471E-01;  5.5443667E+03;
  8.4145027E-01;  9.9999998E-03; -2.4117807E-01;7332; -5.3010076E-02;  0.0000000E+00; -2.1942060E-02;  9.9253229E+02;  1.6510627E-01; -6.1867202E+03;3; -1.4615960E+00;  0.0000000E+00;  7.8378582E+00;0;  1.0622362E+00;  1.4552463E+04;  0.0000000E+00;  1.1944295E+00;  4.0000000E+04;  0.0000000E+00;  3.9659387E+04;  1.1461250E+00;  0.0000000E+00; -8.3888806E-02;  3.9691541E+03;
  8.4120083E-01;  9.9999998E-03; -1.3061824E-01;7343; -1.1475733E-02;  0.0000000E+00; -2.6278699E-02;  9.9394366E+02;  1.6520168E-01; -5.0174429E+03;3; -1.2219149E+01;  0.0000000E+00;  8.3750505E+00;0;  9.9641633E-01;  1.4616769E+04;  0.0000000E+00; -7.4127656E-01;  4.0000000E+04;  0.0000000E+00;  3.9643242E+04;  9.0599602E-01;  0.0000000E+00;  9.0420291E-02;  2.1125200E+03;
  8.4044361E-01;  9.9999998E-03; -1.7074592E-01;7339; -2.6001401E-02;  0.0000000E+00; -2.5462026E-02;  9.9395844E+02;  1.6492532E-01; -5.0052466E+03;3; -8.1044483E+00;  0.0000000E+00;  8.1490164E+00;0;  9.9351805E-01;  1.4651892E+04;  0.0000000E+00; -7.1835136E-01;  4.0000000E+04;  0.0000000E+00;  3.9644676E+04;  9.7432101E-01;  0.0000000E+00;  1.9197021E-02;  1.3548834E+03;
  8.4044808E-01;  9.9999998E-03; -1.6071968E-01;7340; -2.2246787E-02;  0.0000000E+00; -2.5685141E-02;  9.9393939E+02;  1.6494191E-01; -5.0209990E+03;3; -9.1405821E+00;  0.0000000E+00;  8.2120171E+00;0;  9.8490447E-01;  1.4653184E+04;  0.0000000E+00; -7.0773816E-01;  4.0000000E+04;  0.0000000E+00;  3.9642789E+04;  9.4962245E-01;  0.0000000E+00;  3.5282012E-02;  1.6420269E+03;
  8.4062093E-01;  9.9999998E-03; -1.5068844E-01;7341; -1.8570181E-02;  0.0000000E+00; -2.5909716E-02;  9.9393066E+02;  1.6501100E-01; -5.0282578E+03;3; -1.0161738E+01;  0.0000000E+00;  8.2888584E+00;0;  9.8411065E-01;  1.4644614E+04;  0.0000000E+00; -7.0709056E-01;  4.0000000E+04;  0.0000000E+00;  3.9641992E+04;  9.3150246E-01;  0.0000000E+00;  5.2608192E-02;  1.8326154E+03;
  8.4090239E-01;  9.9999998E-03; -1.4064930E-01;7342; -1.4975967E-02;  0.0000000E+00; -2.6117664E-02;  9.9392944E+02;  1.6510896E-01; -5.0292451E+03;3; -1.1187741E+01;  0.0000000E+00;  8.3487587E+00;0;  9.8899925E-01;  1.4630564E+04;  0.0000000E+00; -7.2116309E-01;  4.0000000E+04;  0.0000000E+00;  3.9642434E+04;  9.1791719E-01;  0.0000000E+00;  7.1082048E-02;  1.9768342E+03;
  8.4141445E-01;  9.9999998E-03; -2.3115161E-01;7333; -4.9246900E-02;  0.0000000E+00; -2.2884414E-02;  9.9299841E+02;  1.6509785E-01; -5.8005654E+03;3; -2.2725408E+00;  0.0000000E+00;  7.8962541E+00;0;  1.0694771E+00;  1.4567225E+04;  0.0000000E+00;  6.4327633E-01;  4.0000000E+04;  0.0000000E+00;  3.9658781E+04;  1.1358739E+00;  0.0000000E+00; -6.6396818E-02;  3.0085100E+03;
  8.4057558E-01;  9.9999998E-03; -1.8077488E-01;7338; -2.9821644E-02;  0.0000000E+00; -2.5225416E-02;  9.9396899E+02;  1.6495138E-01; -4.9964570E+03;3; -7.0673890E+00;  0.0000000E+00;  8.1018648E+00;0;  1.0084394E+00;  1.4642034E+04;  0.0000000E+00; -7.1604139E-01;  4.0000000E+04;  0.0000000E+00;  3.9647996E+04;  1.0042409E+00;  0.0000000E+00;  4.1985940E-03;  9.1173761E+02;
  8.4130937E-01;  9.9999998E-03; -2.2103682E-01;7334; -4.5395754E-02;  0.0000000E+00; -2.3682822E-02;  9.9351691E+02;  1.6508467E-01; -5.3710063E+03;3; -3.1481907E+00;  0.0000000E+00;  7.9417930E+00;0;  1.0671880E+00;  1.4581861E+04;  0.0000000E+00;  1.4039902E-01;  4.0000000E+04;  0.0000000E+00;  3.9669379E+04;  1.1182263E+00;  0.0000000E+00; -5.1038221E-02;  2.8281345E+03;
  8.4077698E-01;  9.9999998E-03; -1.9081582E-01;7337; -3.3690650E-02;  0.0000000E+00; -2.4949726E-02;  9.9395148E+02;  1.6499597E-01; -5.0109746E+03;3; -6.0426583E+00;  0.0000000E+00;  8.0610476E+00;0;  1.0263865E+00;  1.4627369E+04;  0.0000000E+00; -6.6362995E-01;  4.0000000E+04;  0.0000000E+00;  3.9653082E+04;  1.0363661E+00;  0.0000000E+00; -9.9795740E-03;  3.9021912E+02;
  8.4098548E-01;  9.9999998E-03; -2.0086001E-01;7336; -3.7585258E-02;  0.0000000E+00; -2.4612332E-02;  9.9390222E+02;  1.6503894E-01; -5.0518120E+03;3; -5.0418577E+00;  0.0000000E+00;  8.0235367E+00;0;  1.0438105E+00;  1.4611521E+04;  0.0000000E+00; -5.2023470E-01;  4.0000000E+04;  0.0000000E+00;  3.9660434E+04;  1.0674406E+00;  0.0000000E+00; -2.3630157E-02;  9.9779022E+02;
  8.4115946E-01;  9.9999998E-03; -2.1092744E-01;7335; -4.1492168E-02;  0.0000000E+00; -2.4202740E-02;  9.9378821E+02;  1.6506581E-01; -5.1462764E+03;3; -4.0741086E+00;  0.0000000E+00;  7.9844704E+00;0;  1.0577145E+00;  1.4596727E+04;  0.0000000E+00; -2.5437567E-01;  4.0000000E+04;  0.0000000E+00;  3.9668230E+04;  1.0948482E+00;  0.0000000E+00; -3.7133735E-02;  2.1594478E+03;
  8.5984796E-01;  9.9999998E-03; -1.1080571E-01;7406; -7.4888244E-03;  0.0000000E+00; -3.3075850E-02;  9.9790735E+02;  1.7221521E-01; -1.7336857E+03;3; -1.4108053E+01;  0.0000000E+00;  1.0098817E+01;0;  1.7569993E+00;  1.3582741E+04;  0.0000000E+00; -6.6125292E-01;  4.0000000E+04;  0.0000000E+00;  3.9604215E+04;  1.5721471E+00;  0.0000000E+00;  1.8485214E-01;  3.2301724E+03;
  8.5982794E-01;  9.9999998E-03; -1.2085491E-01;7405; -1.0631881E-02;  0.0000000E+00; -3.3502128E-02;  9.9784625E+02;  1.7220151E-01; -1.7843003E+03;3; -1.3322530E+01;  0.0000000E+00;  1.0149353E+01;0;  1.7718530E+00;  1.3579245E+04;  0.0000000E+00; -6.8246675E-01;  4.0000000E+04;  0.0000000E+00;  3.9603504E+04;  1.6100254E+00;  0.0000000E+00;  1.6182755E-01;  3.2019275E+03;
  8.5964811E-01;  9.9999998E-03; -1.3090007E-01;7404; -1.3965897E-02;  0.0000000E+00; -3.3620868E-02;  9.9776050E+02;  1.7213894E-01; -1.8553583E+03;3; -1.2448550E+01;  0.0000000E+00;  9.9797621E+00;0;  1.7827548E+00;  1.3583111E+04;  0.0000000E+00; -6.9479758E-01;  4.0000000E+04;  0.0000000E+00;  3.9602473E+04;  1.6447316E+00;  0.0000000E+00;  1.3802311E-01;  3.2102078E+03;
  8.5947937E-01;  9.9999998E-03; -1.4095926E-01;7403; -1.7485632E-02;  0.0000000E+00; -3.3576630E-02;  9.9769061E+02;  1.7207678E-01; -1.9132319E+03;3; -1.1505900E+01;  0.0000000E+00;  9.8251600E+00;0;  1.7968271E+00;  1.3587496E+04;  0.0000000E+00; -7.1595234E-01;  4.0000000E+04;  0.0000000E+00;  3.9601867E+04;  1.6828799E+00;  0.0000000E+00;  1.1394716E-01;  3.2166404E+03;
  8.5935962E-01;  9.9999998E-03; -1.5101026E-01;7402; -2.1155486E-02;  0.0000000E+00; -3.3465508E-02;  9.9764526E+02;  1.7202514E-01; -1.9508102E+03;3; -1.0574409E+01;  0.0000000E+00;  9.7303343E+00;0;  1.8152384E+00;  1.3590570E+04;  0.0000000E+00; -7.6425415E-01;  4.0000000E+04;  0.0000000E+00;  3.9601879E+04;  1.7254719E+00;  0.0000000E+00;  8.9766525E-02;  3.1542629E+03;
  8.5930097E-01;  9.9999998E-03; -1.6104744E-01;7401; -2.4939008E-02;  0.0000000E+00; -3.3312161E-02;  9.9761060E+02;  1.7198753E-01; -1.9795494E+03;3; -9.5852985E+00;  0.0000000E+00;  9.6821995E+00;0;  1.8381021E+00;  1.3591371E+04;  0.0000000E+00; -8.4902555E-01;  4.0000000E+04;  0.0000000E+00;  3.9603270E+04;  1.7724167E+00;  0.0000000E+00;  6.5685362E-02;  2.9708328E+03;
  8.5929233E-01;  9.9999998E-03; -1.7107105E-01;7400; -2.8803896E-02;  0.0000000E+00; -3.3113599E-02;  9.9756366E+02;  1.7196144E-01; -2.0184116E+03;3; -8.5411053E+00;  0.0000000E+00;  9.6351080E+00;0;  1.8643905E+00;  1.3589885E+04;  0.0000000E+00; -9.6094429E-01;  4.0000000E+04;  0.0000000E+00;  3.9605750E+04;  1.8224502E+00;  0.0000000E+00;  4.1940283E-02;  2.6608611E+03;
  8.5928214E-01;  9.9999998E-03; -1.8108951E-01;7399; -3.2729819E-02;  0.0000000E+00; -3.2841463E-02;  9.9747449E+02;  1.7193083E-01; -2.0922842E+03;3; -7.4813752E+00;  0.0000000E+00;  9.5823116E+00;0;  1.8906988E+00;  1.3587983E+04;  0.0000000E+00; -1.0693122E+00;  4.0000000E+04;  0.0000000E+00;  3.9609402E+04;  1.8720504E+00;  0.0000000E+00;  1.8648388E-02;  2.2344229E+03;
  8.5922289E-01;  9.9999998E-03; -1.9111460E-01;7398; -3.6698401E-02;  0.0000000E+00; -3.2478701E-02;  9.9731891E+02;  1.7187867E-01; -2.2211663E+03;3; -6.4424515E+00;  0.0000000E+00;  9.5210028E+00;0;  1.9132903E+00;  1.3587408E+04;  0.0000000E+00; -1.1272501E+00;  4.0000000E+04;  0.0000000E+00;  3.9613832E+04;  1.9174490E+00;  0.0000000E+00; -4.1587530E-03;  1.6960400E+03;
  8.5904205E-01;  9.9999998E-03; -2.0113915E-01;7397; -4.0689074E-02;  0.0000000E+00; -3.1990409E-02;  9.9707330E+02;  1.7179495E-01; -2.4246619E+03;3; -5.4308686E+00;  0.0000000E+00;  9.4452009E+00;0;  1.9266332E+00;  1.3590014E+04;  0.0000000E+00; -1.0749644E+00;  4.0000000E+04;  0.0000000E+00;  3.9619504E+04;  1.9531482E+00;  0.0000000E+00; -2.6515014E-02;  9.8750165E+02;
  8.5880214E-01;  9.9999998E-03; -2.1117179E-01;7396; -4.4707682E-02;  0.0000000E+00; -3.1398691E-02;  9.9675494E+02;  1.7169876E-01; -2.6884014E+03;3; -4.4577193E+00;  0.0000000E+00;  9.3632698E+00;0;  1.9323407E+00;  1.3593056E+04;  0.0000000E+00; -8.6548555E-01;  4.0000000E+04;  0.0000000E+00;  3.9625078E+04;  1.9809070E+00;  0.0000000E+00; -4.8566200E-02;  2.9291916E+02;
  8.5855204E-01;  9.9999998E-03; -2.2123790E-01;7395; -4.8754793E-02;  0.0000000E+00; -3.0679850E-02;  9.9629633E+02;  1.7160401E-01; -3.0683323E+03;3; -3.5310075E+00;  0.0000000E+00;  9.2780342E+00;0;  1.9316188E+00;  1.3594373E+04;  0.0000000E+00; -4.8074704E-01;  4.0000000E+04;  0.0000000E+00;  3.9626176E+04;  2.0024140E+00;  0.0000000E+00; -7.0795134E-02;  1.1100956E+03;
  8.5831791E-01;  9.9999998E-03; -2.3129968E-01;7394; -5.2802172E-02;  0.0000000E+00; -2.9753225E-02;  9.9569855E+02;  1.7152521E-01; -3.5635657E+03;3; -2.6627936E+00;  0.0000000E+00;  9.1930304E+00;0;  1.9244581E+00;  1.3592518E+04;  0.0000000E+00;  5.4615803E-02;  4.0000000E+04;  0.0000000E+00;  3.9622004E+04;  2.0184150E+00;  0.0000000E+00; -9.3956828E-02;  2.2841482E+03;
  8.5810244E-01;  9.9999998E-03; -2.4133395E-01;7393; -5.6822740E-02;  0.0000000E+00; -2.8542096E-02;  9.9502405E+02;  1.7146729E-01; -4.1224004E+03;3; -1.8656192E+00;  0.0000000E+00;  9.0999050E+00;0;  1.9096341E+00;  1.3587164E+04;  0.0000000E+00;  6.6577256E-01;  4.0000000E+04;  0.0000000E+00;  3.9617961E+04;  2.0289414E+00;  0.0000000E+00; -1.1930727E-01;  3.3510024E+03;
  8.5795546E-01;  9.9999998E-03; -2.5133795E-01;7392; -6.0814451E-02;  0.0000000E+00; -2.7242471E-02;  9.9441272E+02;  1.7144278E-01; -4.6288433E+03;3; -1.1559942E+00;  0.0000000E+00;  8.9818735E+00;0;  1.8900243E+00;  1.3575753E+04;  0.0000000E+00;  1.1923368E+00;  4.0000000E+04;  0.0000000E+00;  3.9623785E+04;  2.0372908E+00;  0.0000000E+00; -1.4726651E-01;  3.4454136E+03;
  8.5788101E-01;  9.9999998E-03; -2.6134619E-01;7391; -6.4756475E-02;  0.0000000E+00; -2.5728762E-02;  9.9375317E+02;  1.7144874E-01; -5.1752344E+03;3; -5.5195123E-01;  0.0000000E+00;  8.7852907E+00;0;  1.8654377E+00;  1.3558506E+04;  0.0000000E+00;  1.4153609E+00;  4.0000000E+04;  0.0000000E+00;  3.9630734E+04;  2.0446081E+00;  0.0000000E+00; -1.7917034E-01;  2.3382747E+03;
  8.5802072E-01;  9.9999998E-03; -2.7136368E-01;7390; -6.8706125E-02;  0.0000000E+00; -2.3853010E-02;  9.9304419E+02;  1.7153130E-01; -5.7626108E+03;3; -9.2761159E-02;  0.0000000E+00;  8.4081097E+00;0;  1.8426697E+00;  1.3528554E+04;  0.0000000E+00;  1.2167857E+00;  4.0000000E+04;  0.0000000E+00;  3.9634316E+04;  2.0606065E+00;  0.0000000E+00; -2.1793669E-01;  1.2767592E+03;
  8.7755847E-01;  9.9999998E-03; -1.1082647E-01;7467; -8.4762312E-03;  0.0000000E+00; -4.1191261E-02;  1.0025604E+03;  1.7811097E-01;  2.1211550E+03;3; -1.4865583E+01;  0.0000000E+00;  1.1783921E+01;0;  2.5542123E+00;  1.2831079E+04;  0.0000000E+00; -4.6072000E-01;  4.0000000E+04;  0.0000000E+00;  3.9572254E+04;  2.3045747E+00;  0.0000000E+00;  2.4963763E-01;  4.1849619E+03;
  8.7766171E-01;  9.9999998E-03; -1.2088855E-01;7466; -1.1821850E-02;  0.0000000E+00; -4.1513305E-02;  1.0024606E+03;  1.7812227E-01;  2.0384935E+03;3; -1.3955031E+01;  0.0000000E+00;  1.1794396E+01;0;  2.5984206E+00;  1.2822247E+04;  0.0000000E+00; -4.7137085E-01;  4.0000000E+04;  0.0000000E+00;  3.9571027E+04;  2.3728364E+00;  0.0000000E+00;  2.2558430E-01;  4.2823286E+03;
  8.7768131E-01;  9.9999998E-03; -1.3095477E-01;7465; -1.5353213E-02;  0.0000000E+00; -4.1601572E-02;  1.0023704E+03;  1.7810975E-01;  1.9638314E+03;3; -1.2988823E+01;  0.0000000E+00;  1.1726531E+01;0;  2.6426928E+00;  1.2817815E+04;  0.0000000E+00; -4.7174513E-01;  4.0000000E+04;  0.0000000E+00;  3.9569090E+04;  2.4429526E+00;  0.0000000E+00;  1.9974028E-01;  4.4672646E+03;
  8.7762809E-01;  9.9999998E-03; -1.4102253E-01;7464; -1.9032601E-02;  0.0000000E+00; -4.1618180E-02;  1.0022972E+03;  1.7807528E-01;  1.9030944E+03;3; -1.2116619E+01;  0.0000000E+00;  1.1489569E+01;0;  2.6862452E+00;  1.2817218E+04;  0.0000000E+00; -4.8002192E-01;  4.0000000E+04;  0.0000000E+00;  3.9567641E+04;  2.5142987E+00;  0.0000000E+00;  1.7194644E-01;  4.6467466E+03;
  8.7753093E-01;  9.9999998E-03; -1.5108535E-01;7463; -2.2845481E-02;  0.0000000E+00; -4.1565537E-02;  1.0022341E+03;  1.7802601E-01;  1.8508506E+03;3; -1.1142297E+01;  0.0000000E+00;  1.1292431E+01;0;  2.7291868E+00;  1.2819206E+04;  0.0000000E+00; -5.1568991E-01;  4.0000000E+04;  0.0000000E+00;  3.9567332E+04;  2.5869234E+00;  0.0000000E+00;  1.4226344E-01;  4.7099663E+03;
  8.7743109E-01;  9.9999998E-03; -1.6113606E-01;7462; -2.6731161E-02;  0.0000000E+00; -4.1462105E-02;  1.0021743E+03;  1.7797485E-01;  1.8012734E+03;3; -1.0104572E+01;  0.0000000E+00;  1.1155822E+01;0;  2.7725706E+00;  1.2821564E+04;  0.0000000E+00; -5.9073734E-01;  4.0000000E+04;  0.0000000E+00;  3.9568602E+04;  2.6614490E+00;  0.0000000E+00;  1.1112156E-01;  4.5880127E+03;
  8.7738782E-01;  9.9999998E-03; -1.7117423E-01;7461; -3.0680545E-02;  0.0000000E+00; -4.1322727E-02;  1.0021026E+03;  1.7793904E-01;  1.7419191E+03;3; -9.0604029E+00;  0.0000000E+00;  1.1049678E+01;0;  2.8186452E+00;  1.2821891E+04;  0.0000000E+00; -7.0172083E-01;  4.0000000E+04;  0.0000000E+00;  3.9570977E+04;  2.7394366E+00;  0.0000000E+00;  7.9208605E-02;  4.2875889E+03;
  8.7738943E-01;  9.9999998E-03; -1.8120463E-01;7460; -3.4689184E-02;  0.0000000E+00; -4.1144531E-02;  1.0019999E+03;  1.7791565E-01;  1.6568872E+03;3; -8.0761328E+00;  0.0000000E+00;  1.0968366E+01;0;  2.8659122E+00;  1.2819935E+04;  0.0000000E+00; -8.2800072E-01;  4.0000000E+04;  0.0000000E+00;  3.9574379E+04;  2.8189602E+00;  0.0000000E+00;  4.6951909E-02;  3.8580786E+03;
  8.7738991E-01;  9.9999998E-03; -1.9123617E-01;7459; -3.8748622E-02;  0.0000000E+00; -4.0909566E-02;  1.0018315E+03;  1.7789136E-01;  1.5173401E+03;3; -7.0667930E+00;  0.0000000E+00;  1.0873314E+01;0;  2.9105468E+00;  1.2817126E+04;  0.0000000E+00; -9.3634260E-01;  4.0000000E+04;  0.0000000E+00;  3.9578512E+04;  2.8960230E+00;  0.0000000E+00;  1.4523802E-02;  3.3583914E+03;
  8.7736744E-01;  9.9999998E-03; -2.0127419E-01;7458; -4.2851377E-02;  0.0000000E+00; -4.0606353E-02;  1.0015791E+03;  1.7785980E-01;  1.3081676E+03;3; -6.0753136E+00;  0.0000000E+00;  1.0763319E+01;0;  2.9495876E+00;  1.2813785E+04;  0.0000000E+00; -9.8972720E-01;  4.0000000E+04;  0.0000000E+00;  3.9582492E+04;  2.9676433E+00;  0.0000000E+00; -1.8055568E-02;  2.8555286E+03;
  8.7731034E-01;  9.9999998E-03; -2.1131529E-01;7457; -4.6998579E-02;  0.0000000E+00; -4.0218644E-02;  1.0012271E+03;  1.7781983E-01;  1.0166297E+03;3; -5.1255584E+00;  0.0000000E+00;  1.0648040E+01;0;  2.9805336E+00;  1.2809910E+04;  0.0000000E+00; -9.5712918E-01;  4.0000000E+04;  0.0000000E+00;  3.9586172E+04;  3.0314581E+00;  0.0000000E+00; -5.0924558E-02;  2.4028723E+03;
  8.7722141E-01;  9.9999998E-03; -2.2138570E-01;7456; -5.1209193E-02;  0.0000000E+00; -3.9677143E-02;  1.0007145E+03;  1.7777409E-01;  5.9186536E+02;3; -4.2668991E+00;  0.0000000E+00;  1.0529628E+01;0;  3.0020370E+00;  1.2805023E+04;  0.0000000E+00; -8.1984389E-01;  4.0000000E+04;  0.0000000E+00;  3.9584289E+04;  3.0865314E+00;  0.0000000E+00; -8.4494308E-02;  2.6090408E+03;
  8.7705743E-01;  9.9999998E-03; -2.3147704E-01;7455; -5.5457167E-02;  0.0000000E+00; -3.8742013E-02;  9.9994641E+02;  1.7771703E-01; -4.4392376E+01;3; -3.4305830E+00;  0.0000000E+00;  1.0373885E+01;0;  3.0099080E+00;  1.2800255E+04;  0.0000000E+00; -5.7023340E-01;  4.0000000E+04;  0.0000000E+00;  3.9570363E+04;  3.1294971E+00;  0.0000000E+00; -1.1958908E-01;  4.3653462E+03;
  8.7680292E-01;  9.9999998E-03; -2.4153844E-01;7454; -5.9681073E-02;  0.0000000E+00; -3.7127510E-02;  9.9899756E+02;  1.7765333E-01; -8.3046838E+02;3; -2.6563904E+00;  0.0000000E+00;  1.0184908E+01;0;  3.0007567E+00;  1.2795578E+04;  0.0000000E+00; -2.1757397E-01;  4.0000000E+04;  0.0000000E+00;  3.9549895E+04;  3.1588471E+00;  0.0000000E+00; -1.5809046E-01;  6.9521606E+03;
  8.7659442E-01;  9.9999998E-03; -2.5154522E-01;7453; -6.3893750E-02;  0.0000000E+00; -3.5056941E-02;  9.9814044E+02;  1.7762166E-01; -1.5405491E+03;3; -2.0035620E+00;  0.0000000E+00;  9.9915934E+00;0;  2.9814389E+00;  1.2786073E+04;  0.0000000E+00;  1.3319214E-01;  4.0000000E+04;  0.0000000E+00;  3.9541527E+04;  3.1830537E+00;  0.0000000E+00; -2.0161496E-01;  7.9609116E+03;
  8.7681574E-01;  9.9999998E-03; -2.6154670E-01;7452; -6.8151854E-02;  0.0000000E+00; -3.2498404E-02;  9.9734674E+02;  1.7772619E-01; -2.1980896E+03;3; -1.5559715E+00;  0.0000000E+00;  9.7222090E+00;0;  2.9720647E+00;  1.2757742E+04;  0.0000000E+00;  3.3944893E-01;  4.0000000E+04;  0.0000000E+00;  3.9538488E+04;  3.2274981E+00;  0.0000000E+00; -2.5543332E-01;  8.2343809E+03;
  8.7721026E-01;  9.9999998E-03; -2.7154583E-01;7451; -7.2552517E-02;  0.0000000E+00; -2.9709058E-02;  9.9668011E+02;  1.7789070E-01; -2.7503518E+03;3; -1.3240340E+00;  0.0000000E+00;  9.0728703E+00;0;  2.9608438E+00;  1.2720631E+04;  0.0000000E+00;  5.7629514E-01;  4.0000000E+04;  0.0000000E+00;  3.9544266E+04;  3.2781332E+00;  0.0000000E+00; -3.1728932E-01;  7.3909390E+03;
  8.9645118E-01;  9.9999998E-03; -2.7162403E-01;7512; -7.5570680E-02;  0.0000000E+00; -4.1073676E-02;  1.0007750E+03;  1.8253279E-01;  6.4202826E+02;3; -4.4170074E+00;  0.0000000E+00;  8.2891283E+00;0;  4.0473490E+00;  1.2207216E+04;  0.0000000E+00; -1.2699163E-01;  4.0000000E+04;  0.0000000E+00;  3.9511344E+04;  4.4092107E+00;  0.0000000E+00; -3.6186159E-01;  9.5558594E+03;
  8.9598572E-01;  9.9999998E-03; -2.6165110E-01;7513; -7.0341602E-02;  0.0000000E+00; -4.2229056E-02;  1.0010994E+03;  1.8241890E-01;  9.1075018E+02;3; -3.7832992E+00;  0.0000000E+00;  9.7054977E+00;0;  4.0269704E+00;  1.2233735E+04;  0.0000000E+00; -2.8734046E-01;  4.0000000E+04;  0.0000000E+00;  3.9483863E+04;  4.3362179E+00;  0.0000000E+00; -3.0924746E-01;  1.3091829E+04;
  8.9546418E-01;  9.9999998E-03; -2.5166601E-01;7514; -6.5637022E-02;  0.0000000E+00; -4.4801127E-02;  1.0017302E+03;  1.8228278E-01;  1.4333800E+03;3; -3.8916059E+00;  0.0000000E+00;  1.0494376E+01;0;  4.0137835E+00;  1.2261067E+04;  0.0000000E+00; -2.7510539E-01;  4.0000000E+04;  0.0000000E+00;  3.9481434E+04;  4.2548790E+00;  0.0000000E+00; -2.4109544E-01;  1.3466007E+04;
  8.9552611E-01;  9.9999998E-03; -2.4164847E-01;7515; -6.1150905E-02;  0.0000000E+00; -4.7408551E-02;  1.0025775E+03;  1.8225123E-01;  2.1353550E+03;3; -4.3970447E+00;  0.0000000E+00;  1.0963444E+01;0;  4.0144482E+00;  1.2273420E+04;  0.0000000E+00; -2.8701752E-01;  4.0000000E+04;  0.0000000E+00;  3.9499305E+04;  4.1950893E+00;  0.0000000E+00; -1.8064129E-01;  1.1260656E+04;
  8.9577395E-01;  9.9999998E-03; -2.3156360E-01;7516; -5.6723557E-02;  0.0000000E+00; -4.9304172E-02;  1.0035159E+03;  1.8226883E-01;  2.9126824E+03;3; -5.0240006E+00;  0.0000000E+00;  1.1153088E+01;0;  4.0074401E+00;  1.2279071E+04;  0.0000000E+00; -3.5360190E-01;  4.0000000E+04;  0.0000000E+00;  3.9529816E+04;  4.1355577E+00;  0.0000000E+00; -1.2811758E-01;  7.4346797E+03;
  8.9594418E-01;  9.9999998E-03; -2.2145109E-01;7517; -5.2266721E-02;  0.0000000E+00; -5.0291754E-02;  1.0042387E+03;  1.8229017E-01;  3.5115532E+03;3; -5.7208848E+00;  0.0000000E+00;  1.1363693E+01;0;  3.9831092E+00;  1.2284261E+04;  0.0000000E+00; -4.0597588E-01;  4.0000000E+04;  0.0000000E+00;  3.9549656E+04;  4.0637097E+00;  0.0000000E+00; -8.0600485E-02;  4.9603345E+03;
  8.9601278E-01;  9.9999998E-03; -2.1137150E-01;7518; -4.7900140E-02;  0.0000000E+00; -5.0685875E-02;  1.0046700E+03;  1.8229911E-01;  3.8688606E+03;3; -6.5087528E+00;  0.0000000E+00;  1.1661698E+01;0;  3.9434645E+00;  1.2289576E+04;  0.0000000E+00; -4.2219636E-01;  4.0000000E+04;  0.0000000E+00;  3.9553754E+04;  3.9792292E+00;  0.0000000E+00; -3.5764810E-02;  4.4514087E+03;
  8.9605415E-01;  9.9999998E-03; -2.0132498E-01;7519; -4.3583300E-02;  0.0000000E+00; -5.0948422E-02;  1.0049473E+03;  1.8230766E-01;  4.0985728E+03;3; -7.3650327E+00;  0.0000000E+00;  1.1923107E+01;0;  3.8937325E+00;  1.2293697E+04;  0.0000000E+00; -4.0199611E-01;  4.0000000E+04;  0.0000000E+00;  3.9551609E+04;  3.8860066E+00;  0.0000000E+00;  7.7258721E-03;  4.7183223E+03;
  8.9608067E-01;  9.9999998E-03; -1.9128846E-01;7520; -3.9274570E-02;  0.0000000E+00; -5.1198527E-02;  1.0051335E+03;  1.8231337E-01;  4.2528335E+03;3; -8.2823820E+00;  0.0000000E+00;  1.2160254E+01;0;  3.8357916E+00;  1.2296547E+04;  0.0000000E+00; -3.5103250E-01;  4.0000000E+04;  0.0000000E+00;  3.9548391E+04;  3.7854788E+00;  0.0000000E+00;  5.0312825E-02;  5.1101777E+03;
  8.9611197E-01;  9.9999998E-03; -1.8126252E-01;7521; -3.4970831E-02;  0.0000000E+00; -5.1455759E-02;  1.0052490E+03;  1.8232231E-01;  4.3485303E+03;3; -9.2784986E+00;  0.0000000E+00;  1.2388613E+01;0;  3.7722294E+00;  1.2297945E+04;  0.0000000E+00; -2.8299114E-01;  4.0000000E+04;  0.0000000E+00;  3.9545473E+04;  3.6801167E+00;  0.0000000E+00;  9.2112824E-02;  5.5007129E+03;
  8.9615917E-01;  9.9999998E-03; -1.7122895E-01;7522; -3.0641204E-02;  0.0000000E+00; -5.1736645E-02;  1.0053162E+03;  1.8233827E-01;  4.4042295E+03;3; -1.0356818E+01;  0.0000000E+00;  1.2600589E+01;0;  3.7050927E+00;  1.2298007E+04;  0.0000000E+00; -2.1679769E-01;  4.0000000E+04;  0.0000000E+00;  3.9543254E+04;  3.5721133E+00;  0.0000000E+00;  1.3297935E-01;  5.7862129E+03;
  8.9617819E-01;  9.9999998E-03; -1.6116305E-01;7523; -2.6286248E-02;  0.0000000E+00; -5.2010182E-02;  1.0053447E+03;  1.8235713E-01;  4.4277339E+03;3; -1.1486915E+01;  0.0000000E+00;  1.2838888E+01;0;  3.6338694E+00;  1.2297391E+04;  0.0000000E+00; -1.6957618E-01;  4.0000000E+04;  0.0000000E+00;  3.9542449E+04;  3.4616799E+00;  0.0000000E+00;  1.7218940E-01;  5.9053569E+03;
  8.9627051E-01;  9.9999998E-03; -1.5108518E-01;7524; -2.1892676E-02;  0.0000000E+00; -5.2347921E-02;  1.0053823E+03;  1.8239258E-01;  4.4589419E+03;3; -1.2591386E+01;  0.0000000E+00;  1.3139898E+01;0;  3.5635066E+00;  1.2295474E+04;  0.0000000E+00; -1.4696205E-01;  4.0000000E+04;  0.0000000E+00;  3.9542914E+04;  3.3543818E+00;  0.0000000E+00;  2.0912482E-01;  5.8313657E+03;
  8.9642012E-01;  9.9999998E-03; -1.4099677E-01;7525; -1.7478628E-02;  0.0000000E+00; -5.2747462E-02;  1.0054529E+03;  1.8243721E-01;  4.5175049E+03;3; -1.3718327E+01;  0.0000000E+00;  1.3286437E+01;0;  3.4939849E+00;  1.2293498E+04;  0.0000000E+00; -1.4624730E-01;  4.0000000E+04;  0.0000000E+00;  3.9544727E+04;  3.2509472E+00;  0.0000000E+00;  2.4303769E-01;  5.5662285E+03;
  8.9657503E-01;  9.9999998E-03; -1.3090645E-01;7526; -1.3185804E-02;  0.0000000E+00; -5.3054728E-02;  1.0055671E+03;  1.8248147E-01;  4.6121152E+03;3; -1.4049561E+01;  0.0000000E+00;  1.2714129E+01;0;  3.4243994E+00;  1.2293030E+04;  0.0000000E+00; -1.5846522E-01;  4.0000000E+04;  0.0000000E+00;  3.9547438E+04;  3.1508942E+00;  0.0000000E+00;  2.7350512E-01;  5.1909541E+03;
  8.9668989E-01;  9.9999998E-03; -1.2082811E-01;7527; -9.5209423E-03;  0.0000000E+00; -5.2611552E-02;  1.0057174E+03;  1.8251997E-01;  4.7365503E+03;3; -1.2833728E+01;  0.0000000E+00;  8.8234806E+00;0;  3.3547864E+00;  1.2295197E+04;  0.0000000E+00; -1.7161776E-01;  4.0000000E+04;  0.0000000E+00;  3.9550176E+04;  3.0541394E+00;  0.0000000E+00;  3.0064696E-01;  4.8245615E+03;
  8.9672065E-01;  9.9999998E-03; -1.1077111E-01;7528; -6.6643977E-03;  0.0000000E+00; -4.9776804E-02;  1.0059067E+03;  1.8254595E-01;  4.8933784E+03;3; -1.4634329E+01;  0.0000000E+00; -1.3547071E+00;0;  3.2855766E+00;  1.2300709E+04;  0.0000000E+00; -1.7549182E-01;  4.0000000E+04;  0.0000000E+00;  3.9552227E+04;  2.9607136E+00;  0.0000000E+00;  3.2486296E-01;  4.5706465E+03;
  9.1630083E-01;  9.9999998E-03; -2.7170467E-01;7573;  2.5777385E-01;  0.0000000E+00; -6.5667920E-02;  1.0023177E+03;  1.8519802E-01;  1.9200319E+03;3; -9.3444382E+01;  0.0000000E+00;  9.9092045E+00;0;  4.8238697E+00;  1.1927486E+04;  0.0000000E+00; -3.5779580E-01;  4.0000000E+04;  0.0000000E+00;  3.9429559E+04;  5.0531998E+00;  0.0000000E+00; -2.2932993E-01;  1.8512346E+04;
  9.1594207E-01;  9.9999998E-03; -2.6170540E-01;7574;  2.6348907E-01;  0.0000000E+00; -7.5944349E-02;  1.0028392E+03;  1.8511754E-01;  2.3520940E+03;3; -8.9020012E+01;  0.0000000E+00;  1.0138359E+01;0;  4.8523993E+00;  1.1945551E+04;  0.0000000E+00; -3.9331722E-01;  4.0000000E+04;  0.0000000E+00;  3.9428793E+04;  4.9718361E+00;  0.0000000E+00; -1.1943687E-01;  1.8658271E+04;
  9.1559291E-01;  9.9999998E-03; -2.5169584E-01;7575;  2.6412883E-01;  0.0000000E+00; -8.5424773E-02;  1.0035328E+03;  1.8502851E-01;  2.9267615E+03;3; -8.4263939E+01;  0.0000000E+00;  9.5190020E+00;0;  4.8347974E+00;  1.1962598E+04;  0.0000000E+00; -3.3466870E-01;  4.0000000E+04;  0.0000000E+00;  3.9443180E+04;  4.8835058E+00;  0.0000000E+00; -4.8708457E-02;  1.6877410E+04;
  9.1556263E-01;  9.9999998E-03; -2.4166022E-01;7576;  2.6764092E-01;  0.0000000E+00; -9.3060799E-02;  1.0043119E+03;  1.8496859E-01;  3.5721387E+03;3; -7.7627052E+01;  0.0000000E+00;  8.8385057E+00;0;  4.7797937E+00;  1.1973808E+04;  0.0000000E+00; -2.5089726E-01;  4.0000000E+04;  0.0000000E+00;  3.9468434E+04;  4.7900138E+00;  0.0000000E+00; -1.0219886E-02;  1.3762310E+04;
  9.1569442E-01;  9.9999998E-03; -2.3155402E-01;7577;  2.7300325E-01;  0.0000000E+00; -9.9010386E-02;  1.0051446E+03;  1.8493633E-01;  4.2619556E+03;3; -7.0434380E+01;  0.0000000E+00;  8.2132874E+00;0;  4.7035236E+00;  1.1980599E+04;  0.0000000E+00; -1.9812120E-01;  4.0000000E+04;  0.0000000E+00;  3.9504207E+04;  4.6888070E+00;  0.0000000E+00;  1.4716698E-02;  9.2767881E+03;
  9.1569692E-01;  9.9999998E-03; -2.2142230E-01;7578;  2.7596927E-01;  0.0000000E+00; -1.0243281E-01;  1.0057355E+03;  1.8491119E-01;  4.7514937E+03;3; -6.3827660E+01;  0.0000000E+00;  7.4430318E+00;0;  4.6133213E+00;  1.1986762E+04;  0.0000000E+00; -1.7315882E-01;  4.0000000E+04;  0.0000000E+00;  3.9527008E+04;  4.5783701E+00;  0.0000000E+00;  3.4951001E-02;  6.4197861E+03;
  9.1556937E-01;  9.9999998E-03; -2.1134366E-01;7579;  2.7656546E-01;  0.0000000E+00; -1.0447920E-01;  1.0060167E+03;  1.8488434E-01;  4.9844619E+03;3; -5.7674839E+01;  0.0000000E+00;  7.0278044E+00;0;  4.5192575E+00;  1.1992246E+04;  0.0000000E+00; -1.6066298E-01;  4.0000000E+04;  0.0000000E+00;  3.9531293E+04;  4.4601769E+00;  0.0000000E+00;  5.9080705E-02;  5.8955913E+03;
  9.1533464E-01;  9.9999998E-03; -2.0130147E-01;7580;  2.6337683E-01;  0.0000000E+00; -1.0642891E-01;  1.0061443E+03;  1.8485704E-01;  5.0901333E+03;3; -5.1706276E+01;  0.0000000E+00;  7.1006393E+00;0;  4.4255080E+00;  1.1995937E+04;  0.0000000E+00; -1.5097970E-01;  4.0000000E+04;  0.0000000E+00;  3.9530453E+04;  4.3363996E+00;  0.0000000E+00;  8.9108564E-02;  6.0338643E+03;
  9.1505086E-01;  9.9999998E-03; -1.9125454E-01;7581;  2.3671503E-01;  0.0000000E+00; -1.0860118E-01;  1.0061987E+03;  1.8483289E-01;  5.1351670E+03;3; -4.5590401E+01;  0.0000000E+00;  6.4053783E+00;0;  4.3322239E+00;  1.1997747E+04;  0.0000000E+00; -1.4082059E-01;  4.0000000E+04;  0.0000000E+00;  3.9529562E+04;  4.2083640E+00;  0.0000000E+00;  1.2385989E-01;  6.1341714E+03;
  9.1485643E-01;  9.9999998E-03; -1.8120097E-01;7582;  2.1533610E-01;  0.0000000E+00; -1.0981328E-01;  1.0062101E+03;  1.8482159E-01;  5.1446489E+03;3; -3.8771244E+01;  0.0000000E+00;  4.5333977E+00;0;  4.2380471E+00;  1.1997639E+04;  0.0000000E+00; -1.2536648E-01;  4.0000000E+04;  0.0000000E+00;  3.9529141E+04;  4.0762038E+00;  0.0000000E+00;  1.6184337E-01;  6.1860942E+03;
  9.1477150E-01;  9.9999998E-03; -1.7113735E-01;7583;  2.0032202E-01;  0.0000000E+00; -1.0788529E-01;  1.0061955E+03;  1.8482369E-01;  5.1326011E+03;3; -3.1877228E+01;  0.0000000E+00; -5.5489545E+00;0;  4.1428885E+00;  1.1995854E+04;  0.0000000E+00; -1.0086792E-01;  4.0000000E+04;  0.0000000E+00;  3.9529535E+04;  3.9414833E+00;  0.0000000E+00;  2.0140523E-01;  6.1468735E+03;
  9.1478455E-01;  9.9999998E-03; -1.6106546E-01;7584;  1.9158380E-01;  0.0000000E+00; -9.7845167E-02;  1.0061780E+03;  1.8483926E-01;  5.1180840E+03;3; -2.5372849E+01;  0.0000000E+00; -1.6949305E+01;0;  4.0461364E+00;  1.1992902E+04;  0.0000000E+00; -6.6546708E-02;  4.0000000E+04;  0.0000000E+00;  3.9531129E+04;  3.8057628E+00;  0.0000000E+00;  2.4037348E-01;  5.9710205E+03;
  9.1487902E-01;  9.9999998E-03; -1.5099220E-01;7585;  1.8856379E-01;  0.0000000E+00; -8.3830096E-02;  1.0061737E+03;  1.8486543E-01;  5.1145283E+03;3; -1.8865772E+01;  0.0000000E+00; -1.9862206E+01;0;  3.9478467E+00;  1.1989391E+04;  0.0000000E+00; -2.3064850E-02;  4.0000000E+04;  0.0000000E+00;  3.9534016E+04;  3.6705391E+00;  0.0000000E+00;  2.7730751E-01;  5.6343550E+03;
  9.1503251E-01;  9.9999998E-03; -1.4092109E-01;7586;  1.9021864E-01;  0.0000000E+00; -7.1068190E-02;  1.0062047E+03;  1.8490264E-01;  5.1402041E+03;3; -1.2304941E+01;  0.0000000E+00; -1.8621958E+01;0;  3.8478606E+00;  1.1986075E+04;  0.0000000E+00;  2.6651274E-02;  4.0000000E+04;  0.0000000E+00;  3.9538051E+04;  3.5370314E+00;  0.0000000E+00;  3.1082907E-01;  5.1679570E+03;
  9.1520101E-01;  9.9999998E-03; -1.3085322E-01;7587;  1.9497520E-01;  0.0000000E+00; -6.0758572E-02;  1.0062804E+03;  1.8494511E-01;  5.2029141E+03;3; -5.9541492E+00;  0.0000000E+00; -1.6887358E+01;0;  3.7466724E+00;  1.1983917E+04;  0.0000000E+00;  7.6381966E-02;  4.0000000E+04;  0.0000000E+00;  3.9542422E+04;  3.4063590E+00;  0.0000000E+00;  3.4031343E-01;  4.6578735E+03;
  9.1533947E-01;  9.9999998E-03; -1.2079211E-01;7588;  2.0147066E-01;  0.0000000E+00; -5.2313186E-02;  1.0063990E+03;  1.8498690E-01;  5.3011768E+03;3;  4.1396543E-02;  0.0000000E+00; -1.5373330E+01;0;  3.6456783E+00;  1.1983785E+04;  0.0000000E+00;  1.1833803E-01;  4.0000000E+04;  0.0000000E+00;  3.9546363E+04;  3.2797782E+00;  0.0000000E+00;  3.6590007E-01;  4.2031030E+03;
  9.1541207E-01;  9.9999998E-03; -1.1074182E-01;7589;  2.0858040E-01;  0.0000000E+00; -4.5439545E-02;  1.0065630E+03;  1.8502472E-01;  5.4370659E+03;3;  5.5528998E+00;  0.0000000E+00; -1.4122402E+01;0;  3.5467651E+00;  1.1986302E+04;  0.0000000E+00;  1.4574437E-01;  4.0000000E+04;  0.0000000E+00;  3.9549250E+04;  3.1587200E+00;  0.0000000E+00;  3.8804507E-01;  3.8734136E+03;
  9.3542790E-01;  9.9999998E-03; -2.7164757E-01;7634;  4.3633321E-01;  0.0000000E+00; -9.4962873E-02;  1.0030280E+03;  1.8628953E-01;  2.5083770E+03;3; -5.6842171E+01;  0.0000000E+00;  4.6739764E+00;0;  4.8601108E+00;  1.1803017E+04;  0.0000000E+00;  4.8596770E-01;  4.0000000E+04;  0.0000000E+00;  3.9433613E+04;  4.8288074E+00;  0.0000000E+00;  3.1303350E-02;  1.7326320E+04;
  9.3502539E-01;  9.9999998E-03; -2.6160610E-01;7635;  4.3854269E-01;  0.0000000E+00; -1.0533892E-01;  1.0037164E+03;  1.8623482E-01;  3.0787876E+03;3; -5.1591572E+01;  0.0000000E+00;  3.1686699E+00;0;  4.8442063E+00;  1.1816656E+04;  0.0000000E+00;  5.3787973E-02;  4.0000000E+04;  0.0000000E+00;  3.9452383E+04;  4.7461429E+00;  0.0000000E+00;  9.8063327E-02;  1.4855520E+04;
  9.3475229E-01;  9.9999998E-03; -2.5155336E-01;7636;  4.3852150E-01;  0.0000000E+00; -1.1294743E-01;  1.0044215E+03;  1.8617684E-01;  3.6628264E+03;3; -4.5552197E+01;  0.0000000E+00;  1.6899163E+00;0;  4.7691894E+00;  1.1828773E+04;  0.0000000E+00; -2.2659059E-01;  4.0000000E+04;  0.0000000E+00;  3.9474816E+04;  4.6530728E+00;  0.0000000E+00;  1.1611667E-01;  1.2049677E+04;
  9.3486679E-01;  9.9999998E-03; -2.4148029E-01;7637;  4.3904620E-01;  0.0000000E+00; -1.1807857E-01;  1.0050750E+03;  1.8612875E-01;  4.2042007E+03;3; -3.8264378E+01;  0.0000000E+00; -2.3448882E-01;0;  4.6565270E+00;  1.1837170E+04;  0.0000000E+00; -3.7710789E-01;  4.0000000E+04;  0.0000000E+00;  3.9496852E+04;  4.5416026E+00;  0.0000000E+00;  1.1492439E-01;  9.3199590E+03;
  9.3486476E-01;  9.9999998E-03; -2.3136063E-01;7638;  4.3685922E-01;  0.0000000E+00; -1.2093439E-01;  1.0056628E+03;  1.8608071E-01;  4.6911621E+03;3; -3.0554113E+01;  0.0000000E+00; -9.6030736E-01;0;  4.5388427E+00;  1.1843856E+04;  0.0000000E+00; -4.9815300E-01;  4.0000000E+04;  0.0000000E+00;  3.9521043E+04;  4.4264297E+00;  0.0000000E+00;  1.1241287E-01;  6.3116069E+03;
  9.3466759E-01;  9.9999998E-03; -2.2121692E-01;7639;  4.3123451E-01;  0.0000000E+00; -1.2216242E-01;  1.0060352E+03;  1.8604042E-01;  4.9996743E+03;3; -2.3333237E+01;  0.0000000E+00; -1.3211925E+00;0;  4.4284253E+00;  1.1849229E+04;  0.0000000E+00; -6.0292912E-01;  4.0000000E+04;  0.0000000E+00;  3.9535664E+04;  4.3107038E+00;  0.0000000E+00;  1.1772171E-01;  4.5096763E+03;
  9.3436867E-01;  9.9999998E-03; -2.1111667E-01;7640;  4.2332432E-01;  0.0000000E+00; -1.2246118E-01;  1.0061436E+03;  1.8600772E-01;  5.0894443E+03;3; -1.6568361E+01;  0.0000000E+00; -2.8405902E+00;0;  4.3258901E+00;  1.1853065E+04;  0.0000000E+00; -6.7924565E-01;  4.0000000E+04;  0.0000000E+00;  3.9535766E+04;  4.1928062E+00;  0.0000000E+00;  1.3308372E-01;  4.5087466E+03;
  9.3407083E-01;  9.9999998E-03; -2.0106520E-01;7641;  4.1524902E-01;  0.0000000E+00; -1.2266240E-01;  1.0061274E+03;  1.8597889E-01;  5.0760156E+03;3; -1.0031048E+01;  0.0000000E+00; -5.1894221E+00;0;  4.2276158E+00;  1.1854903E+04;  0.0000000E+00; -7.2595847E-01;  4.0000000E+04;  0.0000000E+00;  3.9531539E+04;  4.0700245E+00;  0.0000000E+00;  1.5759130E-01;  5.0324209E+03;
  9.3381906E-01;  9.9999998E-03; -1.9102629E-01;7642;  4.0779814E-01;  0.0000000E+00; -1.2283308E-01;  1.0060759E+03;  1.8595533E-01;  5.0333545E+03;3; -3.1537921E+00;  0.0000000E+00; -7.5285592E+00;0;  4.1299543E+00;  1.1854814E+04;  0.0000000E+00; -7.4396956E-01;  4.0000000E+04;  0.0000000E+00;  3.9529211E+04;  3.9413443E+00;  0.0000000E+00;  1.8860994E-01;  5.3060781E+03;
  9.3364918E-01;  9.9999998E-03; -1.8099117E-01;7643;  4.0126997E-01;  0.0000000E+00; -1.2275606E-01;  1.0060029E+03;  1.8594266E-01;  4.9729175E+03;3;  3.9033456E+00;  0.0000000E+00; -1.0688617E+01;0;  4.0304008E+00;  1.1852765E+04;  0.0000000E+00; -7.2543013E-01;  4.0000000E+04;  0.0000000E+00;  3.9529258E+04;  3.8066907E+00;  0.0000000E+00;  2.2371015E-01;  5.2793950E+03;
  9.3356574E-01;  9.9999998E-03; -1.7095326E-01;7644;  3.9529893E-01;  0.0000000E+00; -1.2209668E-01;  1.0059137E+03;  1.8593906E-01;  4.8990488E+03;3;  1.1266029E+01;  0.0000000E+00; -1.3719227E+01;0;  3.9278085E+00;  1.1849211E+04;  0.0000000E+00; -6.5797877E-01;  4.0000000E+04;  0.0000000E+00;  3.9531461E+04;  3.6672697E+00;  0.0000000E+00;  2.6053891E-01;  4.9919316E+03;
  9.3355525E-01;  9.9999998E-03; -1.6091132E-01;7645;  3.8944548E-01;  0.0000000E+00; -1.2051715E-01;  1.0058347E+03;  1.8594427E-01;  4.8335742E+03;3;  1.8759922E+01;  0.0000000E+00; -1.6247902E+01;0;  3.8216853E+00;  1.1844655E+04;  0.0000000E+00; -5.3152353E-01;  4.0000000E+04;  0.0000000E+00;  3.9535281E+04;  3.5250161E+00;  0.0000000E+00;  2.9666919E-01;  4.4996187E+03;
  9.3361497E-01;  9.9999998E-03; -1.5086372E-01;7646;  3.8330501E-01;  0.0000000E+00; -1.1726594E-01;  1.0057733E+03;  1.8596035E-01;  4.7827148E+03;3;  2.6395437E+01;  0.0000000E+00; -1.7711948E+01;0;  3.7114258E+00;  1.1839711E+04;  0.0000000E+00; -3.4810930E-01;  4.0000000E+04;  0.0000000E+00;  3.9540586E+04;  3.3815026E+00;  0.0000000E+00;  3.2992306E-01;  3.8835393E+03;
  9.3375760E-01;  9.9999998E-03; -1.4081211E-01;7647;  3.7631652E-01;  0.0000000E+00; -1.1127324E-01;  1.0057377E+03;  1.8598415E-01;  4.7531865E+03;3;  3.4118603E+01;  0.0000000E+00; -1.8007355E+01;0;  3.5967689E+00;  1.1834660E+04;  0.0000000E+00; -1.2585665E-01;  4.0000000E+04;  0.0000000E+00;  3.9546836E+04;  3.2378249E+00;  0.0000000E+00;  3.5894388E-01;  3.2942390E+03;
  9.3397683E-01;  9.9999998E-03; -1.3076445E-01;7648;  3.6861324E-01;  0.0000000E+00; -1.0358881E-01;  1.0057334E+03;  1.8601622E-01;  4.7496299E+03;3;  4.1640804E+01;  0.0000000E+00; -1.7067303E+01;0;  3.4788928E+00;  1.1830144E+04;  0.0000000E+00;  1.0441733E-01;  4.0000000E+04;  0.0000000E+00;  3.9553086E+04;  3.0952935E+00;  0.0000000E+00;  3.8359931E-01;  2.9209795E+03;
  9.3421799E-01;  9.9999998E-03; -1.2072590E-01;7649;  3.6046505E-01;  0.0000000E+00; -9.6047416E-02;  1.0057672E+03;  1.8605168E-01;  4.7775762E+03;3;  4.8030380E+01;  0.0000000E+00; -1.5809433E+01;0;  3.3609366E+00;  1.1826867E+04;  0.0000000E+00;  3.0630052E-01;  4.0000000E+04;  0.0000000E+00;  3.9558191E+04;  2.9564536E+00;  0.0000000E+00;  4.0448308E-01;  2.8230054E+03;
  9.3442237E-01;  9.9999998E-03; -1.1069749E-01;7650;  3.5208446E-01;  0.0000000E+00; -8.9112498E-02;  1.0058408E+03;  1.8608661E-01;  4.8386064E+03;3;  5.2913563E+01;  0.0000000E+00; -1.4729451E+01;0;  3.2463639E+00;  1.1825438E+04;  0.0000000E+00;  4.4759193E-01;  4.0000000E+04;  0.0000000E+00;  3.9561707E+04;  2.8240206E+00;  0.0000000E+00;  4.2234328E-01;  2.8384314E+03;
  9.5514572E-01;  9.9999998E-03; -2.7153060E-01;7695;  5.3704542E-01;  0.0000000E+00; -1.1126859E-01;  1.0031547E+03;  1.8633915E-01;  2.6132842E+03;3; -1.7044651E+01;  0.0000000E+00; -5.1793342E+00;0;  4.2384024E+00;  1.1780409E+04;  0.0000000E+00;  1.5182588E+00;  4.0000000E+04;  0.0000000E+00;  3.9463152E+04;  4.0018001E+00;  0.0000000E+00;  2.3660246E-01;  1.4111029E+04;
  9.5468092E-01;  9.9999998E-03; -2.6146203E-01;7696;  5.3446740E-01;  0.0000000E+00; -1.2029981E-01;  1.0038839E+03;  1.8630691E-01;  3.2174536E+03;3; -1.1759970E+01;  0.0000000E+00; -6.4729075E+00;0;  4.1984482E+00;  1.1791880E+04;  0.0000000E+00;  5.2126479E-01;  4.0000000E+04;  0.0000000E+00;  3.9487078E+04;  3.9282608E+00;  0.0000000E+00;  2.7018726E-01;  1.0383999E+04;
  9.5442700E-01;  9.9999998E-03; -2.5138858E-01;7697;  5.2939987E-01;  0.0000000E+00; -1.2543617E-01;  1.0045461E+03;  1.8627462E-01;  3.7659263E+03;3; -4.8402777E+00;  0.0000000E+00; -8.8209696E+00;0;  4.0916848E+00;  1.1802908E+04;  0.0000000E+00; -2.2503017E-01;  4.0000000E+04;  0.0000000E+00;  3.9505203E+04;  3.8383100E+00;  0.0000000E+00;  2.5337479E-01;  7.8597773E+03;
  9.5453757E-01;  9.9999998E-03; -2.4130760E-01;7698;  5.2197957E-01;  0.0000000E+00; -1.2753108E-01;  1.0050978E+03;  1.8623510E-01;  4.2229521E+03;3;  2.8824258E+00;  0.0000000E+00; -1.0953547E+01;0;  3.9508736E+00;  1.1812399E+04;  0.0000000E+00; -6.8763483E-01;  4.0000000E+04;  0.0000000E+00;  3.9517602E+04;  3.7247255E+00;  0.0000000E+00;  2.2614819E-01;  6.3461348E+03;
  9.5451343E-01;  9.9999998E-03; -2.3120408E-01;7699;  5.1152658E-01;  0.0000000E+00; -1.2832712E-01;  1.0055384E+03;  1.8619932E-01;  4.5879414E+03;3;  1.0257002E+01;  0.0000000E+00; -1.2703591E+01;0;  3.8213654E+00;  1.1819505E+04;  0.0000000E+00; -1.0271392E+00;  4.0000000E+04;  0.0000000E+00;  3.9529961E+04;  3.6123557E+00;  0.0000000E+00;  2.0900956E-01;  4.9281597E+03;
  9.5425045E-01;  9.9999998E-03; -2.2107174E-01;7700;  4.9875072E-01;  0.0000000E+00; -1.2788852E-01;  1.0058248E+03;  1.8617278E-01;  4.8252456E+03;3;  1.7064001E+01;  0.0000000E+00; -1.5322242E+01;0;  3.7096491E+00;  1.1823849E+04;  0.0000000E+00; -1.2988243E+00;  4.0000000E+04;  0.0000000E+00;  3.9540074E+04;  3.5062683E+00;  0.0000000E+00;  2.0338076E-01;  3.7894111E+03;
  9.5376951E-01;  9.9999998E-03; -2.1096334E-01;7701;  4.8477626E-01;  0.0000000E+00; -1.2572072E-01;  1.0058580E+03;  1.8615350E-01;  4.8528013E+03;3;  2.2742296E+01;  0.0000000E+00; -1.9135939E+01;0;  3.6139984E+00;  1.1825499E+04;  0.0000000E+00; -1.5081717E+00;  4.0000000E+04;  0.0000000E+00;  3.9541078E+04;  3.4060810E+00;  0.0000000E+00;  2.0791747E-01;  3.6035188E+03;
  9.5323223E-01;  9.9999998E-03; -2.0088245E-01;7702;  4.7108582E-01;  0.0000000E+00; -1.2273135E-01;  1.0057847E+03;  1.8614019E-01;  4.7920723E+03;3;  2.8348755E+01;  0.0000000E+00; -2.1963959E+01;0;  3.5268404E+00;  1.1825094E+04;  0.0000000E+00; -1.6337302E+00;  4.0000000E+04;  0.0000000E+00;  3.9539367E+04;  3.3042362E+00;  0.0000000E+00;  2.2260424E-01;  3.6864854E+03;
  9.5276546E-01;  9.9999998E-03; -1.9080807E-01;7703;  4.5819983E-01;  0.0000000E+00; -1.1928671E-01;  1.0056714E+03;  1.8613090E-01;  4.6982607E+03;3;  3.4500366E+01;  0.0000000E+00; -2.3622717E+01;0;  3.4401352E+00;  1.1822732E+04;  0.0000000E+00; -1.6802517E+00;  4.0000000E+04;  0.0000000E+00;  3.9539012E+04;  3.1953864E+00;  0.0000000E+00;  2.4474876E-01;  3.5849387E+03;
  9.5241094E-01;  9.9999998E-03; -1.8074206E-01;7704;  4.4579339E-01;  0.0000000E+00; -1.1542704E-01;  1.0055280E+03;  1.8612702E-01;  4.5793652E+03;3;  4.1159618E+01;  0.0000000E+00; -2.4474957E+01;0;  3.3503544E+00;  1.1818444E+04;  0.0000000E+00; -1.6482199E+00;  4.0000000E+04;  0.0000000E+00;  3.9541066E+04;  3.0790858E+00;  0.0000000E+00;  2.7126855E-01;  3.2487754E+03;
  9.5219958E-01;  9.9999998E-03; -1.7067848E-01;7705;  4.3343261E-01;  0.0000000E+00; -1.1122021E-01;  1.0053771E+03;  1.8613011E-01;  4.4543452E+03;3;  4.7371601E+01;  0.0000000E+00; -2.4365593E+01;0;  3.2548735E+00;  1.1812653E+04;  0.0000000E+00; -1.5226896E+00;  4.0000000E+04;  0.0000000E+00;  3.9545438E+04;  2.9553938E+00;  0.0000000E+00;  2.9947966E-01;  2.6669175E+03;
  9.5212644E-01;  9.9999998E-03; -1.6062070E-01;7706;  4.2091545E-01;  0.0000000E+00; -1.0669333E-01;  1.0052237E+03;  1.8613708E-01;  4.3273496E+03;3;  5.2154713E+01;  0.0000000E+00; -2.3798588E+01;0;  3.1530490E+00;  1.1805736E+04;  0.0000000E+00; -1.2870221E+00;  4.0000000E+04;  0.0000000E+00;  3.9551449E+04;  2.8260577E+00;  0.0000000E+00;  3.2699126E-01;  1.8669279E+03;
  9.5217031E-01;  9.9999998E-03; -1.5057293E-01;7707;  4.0834406E-01;  0.0000000E+00; -1.0177313E-01;  1.0050840E+03;  1.8614855E-01;  4.2116104E+03;3;  5.5464561E+01;  0.0000000E+00; -2.2801626E+01;0;  3.0453427E+00;  1.1798283E+04;  0.0000000E+00; -9.4406760E-01;  4.0000000E+04;  0.0000000E+00;  3.9558906E+04;  2.6933589E+00;  0.0000000E+00;  3.5198379E-01;  1.0090538E+03;
  9.5230979E-01;  9.9999998E-03; -1.4054458E-01;7708;  3.9596111E-01;  0.0000000E+00; -9.6457005E-02;  1.0049635E+03;  1.8616381E-01;  4.1117710E+03;3;  5.7920948E+01;  0.0000000E+00; -2.1490055E+01;0;  2.9328685E+00;  1.1791010E+04;  0.0000000E+00; -5.2643347E-01;  4.0000000E+04;  0.0000000E+00;  3.9566703E+04;  2.5593877E+00;  0.0000000E+00;  3.7348068E-01;  1.0859312E+03;
  9.5252693E-01;  9.9999998E-03; -1.3053477E-01;7709;  3.8392109E-01;  0.0000000E+00; -9.0802088E-02;  1.0048713E+03;  1.8618117E-01;  4.0354336E+03;3;  5.9379650E+01;  0.0000000E+00; -2.0027597E+01;0;  2.8172801E+00;  1.1784419E+04;  0.0000000E+00; -9.0347007E-02;  4.0000000E+04;  0.0000000E+00;  3.9573930E+04;  2.4258025E+00;  0.0000000E+00;  3.9147758E-01;  2.1344026E+03;
  9.5276755E-01;  9.9999998E-03; -1.2053701E-01;7710;  3.7238619E-01;  0.0000000E+00; -8.4856242E-02;  1.0048088E+03;  1.8619977E-01;  3.9835869E+03;3;  6.1010948E+01;  0.0000000E+00; -1.8546625E+01;0;  2.7022996E+00;  1.1778936E+04;  0.0000000E+00;  2.9929489E-01;  4.0000000E+04;  0.0000000E+00;  3.9579676E+04;  2.2957075E+00;  0.0000000E+00;  4.0659201E-01;  3.1627195E+03;
  9.5297724E-01;  9.9999998E-03; -1.1053911E-01;7711;  3.6135635E-01;  0.0000000E+00; -7.8660607E-02;  1.0047592E+03;  1.8621601E-01;  3.9425044E+03;3;  6.2381950E+01;  0.0000000E+00; -1.7061718E+01;0;  2.5916834E+00;  1.1774818E+04;  0.0000000E+00;  5.8607996E-01;  4.0000000E+04;  0.0000000E+00;  3.9583617E+04;  2.1721063E+00;  0.0000000E+00;  4.1957721E-01;  3.8685969E+03;
  9.7445756E-01;  9.9999998E-03; -2.7141425E-01;7756;  5.8857316E-01;  0.0000000E+00; -1.1337889E-01;  1.0033743E+03;  1.8569762E-01;  2.7950889E+03;3;  1.8595049E+01;  0.0000000E+00; -1.5244377E+01;0;  3.3286004E+00;  1.1844211E+04;  0.0000000E+00;  1.5483056E+00;  4.0000000E+04;  0.0000000E+00;  3.9488988E+04;  2.9444230E+00;  0.0000000E+00;  3.8417754E-01;  1.1308421E+04;
  9.7390056E-01;  9.9999998E-03; -2.6133475E-01;7757;  5.8074546E-01;  0.0000000E+00; -1.2024064E-01;  1.0040434E+03;  1.8568765E-01;  3.3493704E+03;3;  2.4917828E+01;  0.0000000E+00; -1.8035162E+01;0;  3.2816024E+00;  1.1853684E+04;  0.0000000E+00;  5.5911005E-01;  4.0000000E+04;  0.0000000E+00;  3.9510375E+04;  2.8867629E+00;  0.0000000E+00;  3.9483953E-01;  7.7494321E+03;
  9.7357124E-01;  9.9999998E-03; -2.5125867E-01;7758;  5.6998116E-01;  0.0000000E+00; -1.2263505E-01;  1.0046005E+03;  1.8567491E-01;  3.8109258E+03;3;  3.0642479E+01;  0.0000000E+00; -2.0847389E+01;0;  3.1690283E+00;  1.1863578E+04;  0.0000000E+00; -2.3582476E-01;  4.0000000E+04;  0.0000000E+00;  3.9521359E+04;  2.8112605E+00;  0.0000000E+00;  3.5776773E-01;  5.9585708E+03;
  9.7342783E-01;  9.9999998E-03; -2.4117780E-01;7759;  5.5655158E-01;  0.0000000E+00; -1.2296563E-01;  1.0050664E+03;  1.8565618E-01;  4.1968389E+03;3;  3.6881275E+01;  0.0000000E+00; -2.3417957E+01;0;  3.0407999E+00;  1.1872479E+04;  0.0000000E+00; -7.9093057E-01;  4.0000000E+04;  0.0000000E+00;  3.9528969E+04;  2.7205141E+00;  0.0000000E+00;  3.2028580E-01;  4.9785801E+03;
  9.7315556E-01;  9.9999998E-03; -2.3109852E-01;7760;  5.3998607E-01;  0.0000000E+00; -1.2117367E-01;  1.0053611E+03;  1.8564343E-01;  4.4409487E+03;3;  4.2685642E+01;  0.0000000E+00; -2.7172522E+01;0;  2.9225974E+00;  1.1878282E+04;  0.0000000E+00; -1.2234904E+00;  4.0000000E+04;  0.0000000E+00;  3.9533852E+04;  2.6322727E+00;  0.0000000E+00;  2.9032463E-01;  4.4479062E+03;
  9.7276115E-01;  9.9999998E-03; -2.2101824E-01;7761;  5.2220505E-01;  0.0000000E+00; -1.1698645E-01;  1.0055204E+03;  1.8563877E-01;  4.5728818E+03;3;  4.6902122E+01;  0.0000000E+00; -3.1553513E+01;0;  2.8174620E+00;  1.1880919E+04;  0.0000000E+00; -1.5498344E+00;  4.0000000E+04;  0.0000000E+00;  3.9537828E+04;  2.5456712E+00;  0.0000000E+00;  2.7179086E-01;  4.0344492E+03;
  9.7225720E-01;  9.9999998E-03; -2.1096681E-01;7762;  5.0456750E-01;  0.0000000E+00; -1.1096814E-01;  1.0055106E+03;  1.8564692E-01;  4.5647891E+03;3;  5.0394375E+01;  0.0000000E+00; -3.4545982E+01;0;  2.7266567E+00;  1.1880161E+04;  0.0000000E+00; -1.7869201E+00;  4.0000000E+04;  0.0000000E+00;  3.9539012E+04;  2.4606411E+00;  0.0000000E+00;  2.6601556E-01;  3.8701990E+03;
  9.7175944E-01;  9.9999998E-03; -2.0093755E-01;7763;  4.8764503E-01;  0.0000000E+00; -1.0427635E-01;  1.0054119E+03;  1.8565926E-01;  4.4831279E+03;3;  5.3815777E+01;  0.0000000E+00; -3.5248005E+01;0;  2.6432753E+00;  1.1876511E+04;  0.0000000E+00; -1.9428096E+00;  4.0000000E+04;  0.0000000E+00;  3.9541375E+04;  2.3720653E+00;  0.0000000E+00;  2.7120996E-01;  3.4675852E+03;
  9.7119296E-01;  9.9999998E-03; -1.9088024E-01;7764;  4.7116846E-01;  0.0000000E+00; -9.8199815E-02;  1.0052492E+03;  1.8567427E-01;  4.3483394E+03;3;  5.6249756E+01;  0.0000000E+00; -3.3886917E+01;0;  2.5677304E+00;  1.1870081E+04;  0.0000000E+00; -2.0341790E+00;  4.0000000E+04;  0.0000000E+00;  3.9547137E+04;  2.2845120E+00;  0.0000000E+00;  2.8321829E-01;  2.5971104E+03;
  9.7064596E-01;  9.9999998E-03; -1.8080102E-01;7765;  4.5519945E-01;  0.0000000E+00; -9.2939384E-02;  1.0050256E+03;  1.8569106E-01;  4.1630898E+03;3;  5.7874157E+01;  0.0000000E+00; -3.1564871E+01;0;  2.4932840E+00;  1.1861628E+04;  0.0000000E+00; -2.0411193E+00;  4.0000000E+04;  0.0000000E+00;  3.9553762E+04;  2.1947813E+00;  0.0000000E+00;  2.9850259E-01;  1.5601808E+03;
  9.7021419E-01;  9.9999998E-03; -1.7071204E-01;7766;  4.3984014E-01;  0.0000000E+00; -8.8277213E-02;  1.0047683E+03;  1.8570955E-01;  3.9498928E+03;3;  5.8862755E+01;  0.0000000E+00; -2.9434834E+01;0;  2.4142647E+00;  1.1851797E+04;  0.0000000E+00; -1.9371392E+00;  4.0000000E+04;  0.0000000E+00;  3.9561102E+04;  2.0995913E+00;  0.0000000E+00;  3.1467330E-01;  5.0028998E+02;
  9.6993208E-01;  9.9999998E-03; -1.6062510E-01;7767;  4.2510688E-01;  0.0000000E+00; -8.3921738E-02;  1.0044973E+03;  1.8572494E-01;  3.7254368E+03;3;  5.9784107E+01;  0.0000000E+00; -2.7298973E+01;0;  2.3288879E+00;  1.1841147E+04;  0.0000000E+00; -1.6993873E+00;  4.0000000E+04;  0.0000000E+00;  3.9569363E+04;  1.9987751E+00;  0.0000000E+00;  3.3011284E-01;  7.2958350E+02;
  9.6981514E-01;  9.9999998E-03; -1.5055031E-01;7768;  4.1099042E-01;  0.0000000E+00; -7.9650618E-02;  1.0042330E+03;  1.8573925E-01;  3.5065088E+03;3;  6.0621601E+01;  0.0000000E+00; -2.5394342E+01;0;  2.2367115E+00;  1.1830124E+04;  0.0000000E+00; -1.3275999E+00;  4.0000000E+04;  0.0000000E+00;  3.9578242E+04;  1.8929154E+00;  0.0000000E+00;  3.4379619E-01;  1.8983014E+03;
  9.6987605E-01;  9.9999998E-03; -1.4049086E-01;7769;  3.9750615E-01;  0.0000000E+00; -7.5262636E-02;  1.0039866E+03;  1.8575135E-01;  3.3023926E+03;3;  6.1411674E+01;  0.0000000E+00; -2.3604319E+01;0;  2.1377606E+00;  1.1819282E+04;  0.0000000E+00; -8.5759902E-01;  4.0000000E+04;  0.0000000E+00;  3.9587258E+04;  1.7825190E+00;  0.0000000E+00;  3.5524154E-01;  3.1559360E+03;
  9.7010708E-01;  9.9999998E-03; -1.3044089E-01;7770;  3.8463506E-01;  0.0000000E+00; -7.0648983E-02;  1.0037567E+03;  1.8575908E-01;  3.1120015E+03;3;  6.2232998E+01;  0.0000000E+00; -2.1861980E+01;0;  2.0334291E+00;  1.1808996E+04;  0.0000000E+00; -3.5499987E-01;  4.0000000E+04;  0.0000000E+00;  3.9595699E+04;  1.6689082E+00;  0.0000000E+00;  3.6452082E-01;  4.4197949E+03;
  9.7042036E-01;  9.9999998E-03; -1.2040844E-01;7771;  3.7240273E-01;  0.0000000E+00; -6.5816604E-02;  1.0035387E+03;  1.8576431E-01;  2.9313860E+03;3;  6.3059826E+01;  0.0000000E+00; -2.0181547E+01;0;  1.9291018E+00;  1.1799596E+04;  0.0000000E+00;  1.0322335E-01;  4.0000000E+04;  0.0000000E+00;  3.9602578E+04;  1.5569237E+00;  0.0000000E+00;  3.7217805E-01;  5.5329663E+03;
  9.7076356E-01;  9.9999998E-03; -1.1039778E-01;7772;  3.6087912E-01;  0.0000000E+00; -6.0738903E-02;  1.0033280E+03;  1.8576412E-01;  2.7567947E+03;3;  6.3941589E+01;  0.0000000E+00; -1.8541294E+01;0;  1.8282628E+00;  1.1791119E+04;  0.0000000E+00;  4.5085013E-01;  4.0000000E+04;  0.0000000E+00;  3.9607199E+04;  1.4495367E+00;  0.0000000E+00;  3.7872609E-01;  6.3329531E+03;
  9.9318743E-01;  9.9999998E-03; -2.7133113E-01;7817;  6.1455572E-01;  0.0000000E+00; -1.0430444E-01;  1.0038030E+03;  1.8459068E-01;  3.1501470E+03;3;  5.1657600E+01;  0.0000000E+00; -2.6579699E+01;0;  2.4344528E+00;  1.1979062E+04;  0.0000000E+00;  6.3996041E-01;  4.0000000E+04;  0.0000000E+00;  3.9503547E+04;  1.9437786E+00;  0.0000000E+00;  4.9067420E-01;  8.5744463E+03;
  9.9274600E-01;  9.9999998E-03; -2.6124969E-01;7818;  6.0221732E-01;  0.0000000E+00; -1.0884289E-01;  1.0044090E+03;  1.8459579E-01;  3.6520696E+03;3;  5.5646442E+01;  0.0000000E+00; -2.9107204E+01;0;  2.3818145E+00;  1.1986787E+04;  0.0000000E+00;  2.6530111E-01;  4.0000000E+04;  0.0000000E+00;  3.9521676E+04;  1.8918397E+00;  0.0000000E+00;  4.8997486E-01;  6.2529160E+03;
  9.9241096E-01;  9.9999998E-03; -2.5117430E-01;7819;  5.8771044E-01;  0.0000000E+00; -1.0959467E-01;  1.0048613E+03;  1.8459755E-01;  4.0268093E+03;3;  5.9745426E+01;  0.0000000E+00; -3.1316006E+01;0;  2.2778277E+00;  1.1993943E+04;  0.0000000E+00; -8.7380759E-02;  4.0000000E+04;  0.0000000E+00;  3.9529973E+04;  1.8294684E+00;  0.0000000E+00;  4.4835931E-01;  5.2205669E+03;
  9.9210668E-01;  9.9999998E-03; -2.4108782E-01;7820;  5.7042640E-01;  0.0000000E+00; -1.0818703E-01;  1.0052451E+03;  1.8459834E-01;  4.3446724E+03;3;  6.3456646E+01;  0.0000000E+00; -3.5150524E+01;0;  2.1639733E+00;  1.1999484E+04;  0.0000000E+00; -4.1245660E-01;  4.0000000E+04;  0.0000000E+00;  3.9539891E+04;  1.7610964E+00;  0.0000000E+00;  4.0287685E-01;  4.2199453E+03;
  9.9172193E-01;  9.9999998E-03; -2.3101206E-01;7821;  5.5004537E-01;  0.0000000E+00; -1.0200596E-01;  1.0054188E+03;  1.8460678E-01;  4.4885483E+03;3;  6.5703888E+01;  0.0000000E+00; -4.2335011E+01;0;  2.0490019E+00;  1.2001901E+04;  0.0000000E+00; -7.2585142E-01;  4.0000000E+04;  0.0000000E+00;  3.9544152E+04;  1.6930102E+00;  0.0000000E+00;  3.5599169E-01;  3.7572207E+03;
  9.9125409E-01;  9.9999998E-03; -2.2095135E-01;7822;  5.2955598E-01;  0.0000000E+00; -9.1556527E-02;  1.0054271E+03;  1.8462422E-01;  4.4954658E+03;3;  6.5571182E+01;  0.0000000E+00; -4.7247238E+01;0;  1.9471705E+00;  1.2000607E+04;  0.0000000E+00; -1.0035237E+00;  4.0000000E+04;  0.0000000E+00;  3.9546809E+04;  1.6250628E+00;  0.0000000E+00;  3.2210773E-01;  3.4378337E+03;
  9.9080002E-01;  9.9999998E-03; -2.1090709E-01;7823;  5.0985432E-01;  0.0000000E+00; -8.1615910E-02;  1.0053120E+03;  1.8465124E-01;  4.4000835E+03;3;  6.4840889E+01;  0.0000000E+00; -4.4413712E+01;0;  1.8622000E+00;  1.1995866E+04;  0.0000000E+00; -1.2228985E+00;  4.0000000E+04;  0.0000000E+00;  3.9549992E+04;  1.5537207E+00;  0.0000000E+00;  3.0847931E-01;  3.0594963E+03;
  9.9034095E-01;  9.9999998E-03; -2.0087497E-01;7824;  4.9105677E-01;  0.0000000E+00; -7.4155673E-02;  1.0050894E+03;  1.8468656E-01;  4.2157314E+03;3;  6.3872959E+01;  0.0000000E+00; -3.9940983E+01;0;  1.7870159E+00;  1.1987470E+04;  0.0000000E+00; -1.3911024E+00;  4.0000000E+04;  0.0000000E+00;  3.9555242E+04;  1.4811475E+00;  0.0000000E+00;  3.0586842E-01;  2.5186953E+03;
  9.8988944E-01;  9.9999998E-03; -1.9083452E-01;7825;  4.7316909E-01;  0.0000000E+00; -6.8657249E-02;  1.0047751E+03;  1.8472689E-01;  3.9553445E+03;3;  6.2953548E+01;  0.0000000E+00; -3.6013088E+01;0;  1.7145760E+00;  1.1975684E+04;  0.0000000E+00; -1.5108083E+00;  4.0000000E+04;  0.0000000E+00;  3.9562668E+04;  1.4079187E+00;  0.0000000E+00;  3.0665737E-01;  1.9552913E+03;
  9.8945117E-01;  9.9999998E-03; -1.8078393E-01;7826;  4.5620254E-01;  0.0000000E+00; -6.4437956E-02;  1.0043739E+03;  1.8476933E-01;  3.6230708E+03;3;  6.2249268E+01;  0.0000000E+00; -3.3006718E+01;0;  1.6426764E+00;  1.1961236E+04;  0.0000000E+00; -1.5719978E+00;  4.0000000E+04;  0.0000000E+00;  3.9570969E+04;  1.3349434E+00;  0.0000000E+00;  3.0773288E-01;  1.8419611E+03;
  9.8903114E-01;  9.9999998E-03; -1.7071104E-01;7827;  4.4007862E-01;  0.0000000E+00; -6.1023813E-02;  1.0039130E+03;  1.8480897E-01;  3.2413240E+03;3;  6.2064289E+01;  0.0000000E+00; -3.0612560E+01;0;  1.5710685E+00;  1.1944977E+04;  0.0000000E+00; -1.5534135E+00;  4.0000000E+04;  0.0000000E+00;  3.9579660E+04;  1.2628497E+00;  0.0000000E+00;  3.0821887E-01;  2.4422373E+03;
  9.8878485E-01;  9.9999998E-03; -1.6063458E-01;7828;  4.2469844E-01;  0.0000000E+00; -5.7896815E-02;  1.0034289E+03;  1.8484560E-01;  2.8403201E+03;3;  6.2326843E+01;  0.0000000E+00; -2.8539034E+01;0;  1.4942957E+00;  1.1927818E+04;  0.0000000E+00; -1.4285281E+00;  4.0000000E+04;  0.0000000E+00;  3.9588520E+04;  1.1864635E+00;  0.0000000E+00;  3.0783221E-01;  3.4823809E+03;
  9.8866099E-01;  9.9999998E-03; -1.5053938E-01;7829;  4.0996844E-01;  0.0000000E+00; -5.4898579E-02;  1.0029456E+03;  1.8487291E-01;  2.4399072E+03;3;  6.2617924E+01;  0.0000000E+00; -2.6720839E+01;0;  1.4151810E+00;  1.1910496E+04;  0.0000000E+00; -1.1942737E+00;  4.0000000E+04;  0.0000000E+00;  3.9598133E+04;  1.1085162E+00;  0.0000000E+00;  3.0666482E-01;  4.6925938E+03;
  9.8860806E-01;  9.9999998E-03; -1.4043850E-01;7830;  3.9591673E-01;  0.0000000E+00; -5.1915362E-02;  1.0024855E+03;  1.8489048E-01;  2.0588479E+03;3;  6.2870747E+01;  0.0000000E+00; -2.5046877E+01;0;  1.3366969E+00;  1.1893776E+04;  0.0000000E+00; -8.7493581E-01;  4.0000000E+04;  0.0000000E+00;  3.9607473E+04;  1.0315140E+00;  0.0000000E+00;  3.0518287E-01;  5.9331699E+03;
  9.8863143E-01;  9.9999998E-03; -1.3035168E-01;7831;  3.8257751E-01;  0.0000000E+00; -4.8803352E-02;  1.0020515E+03;  1.8489623E-01;  1.6993147E+03;3;  6.3322723E+01;  0.0000000E+00; -2.3373476E+01;0;  1.2595731E+00;  1.1878190E+04;  0.0000000E+00; -5.1841104E-01;  4.0000000E+04;  0.0000000E+00;  3.9616121E+04;  9.5574832E-01;  0.0000000E+00;  3.0382481E-01;  7.1067104E+03;
  9.8882210E-01;  9.9999998E-03; -1.2029680E-01;7832;  3.6994457E-01;  0.0000000E+00; -4.5383185E-02;  1.0016423E+03;  1.8488987E-01;  1.3604188E+03;3;  6.4080803E+01;  0.0000000E+00; -2.1704731E+01;0;  1.1813600E+00;  1.1863826E+04;  0.0000000E+00; -1.8433374E-01;  4.0000000E+04;  0.0000000E+00;  3.9623324E+04;  8.7891579E-01;  0.0000000E+00;  3.0244425E-01;  8.1179683E+03;
  9.8923594E-01;  9.9999998E-03; -1.1028679E-01;7833;  3.5800609E-01;  0.0000000E+00; -4.1590519E-02;  1.0012283E+03;  1.8487604E-01;  1.0173753E+03;3;  6.4912155E+01;  0.0000000E+00; -1.9971046E+01;0;  1.1010994E+00;  1.1850571E+04;  0.0000000E+00;  7.2332323E-02;  4.0000000E+04;  0.0000000E+00;  3.9628727E+04;  8.0046231E-01;  0.0000000E+00;  3.0063707E-01;  8.8680234E+03;
  1.0082853E+00;  9.9999998E-03; -1.1028695E-01;7894;  3.5457295E-01;  0.0000000E+00; -2.2430677E-02;  9.9862445E+02;  1.8352801E-01; -1.1393596E+03;3;  6.5129417E+01;  0.0000000E+00; -2.1782280E+01;0;  5.7613188E-01;  1.1961676E+04;  0.0000000E+00; -3.2322249E-01;  4.0000000E+04;  0.0000000E+00;  3.9643488E+04;  3.8481203E-01;  0.0000000E+00;  1.9131987E-01;  1.0781264E+04;
  1.0083184E+00;  9.9999998E-03; -1.6056515E-01;7889;  4.2298496E-01;  0.0000000E+00; -3.1463008E-02;  1.0020259E+03;  1.8347493E-01;  1.6780842E+03;3;  6.3659779E+01;  0.0000000E+00; -2.9436825E+01;0;  8.4294629E-01;  1.2070425E+04;  0.0000000E+00; -6.2606394E-01;  4.0000000E+04;  0.0000000E+00;  3.9605660E+04;  5.8390963E-01;  0.0000000E+00;  2.5903666E-01;  5.9589150E+03;
  1.0083333E+00;  9.9999998E-03; -1.5051575E-01;7890;  4.0793839E-01;  0.0000000E+00; -2.9630279E-02;  1.0012518E+03;  1.8350771E-01;  1.0368674E+03;3;  6.3558765E+01;  0.0000000E+00; -2.7961412E+01;0;  7.7857447E-01;  1.2046053E+04;  0.0000000E+00; -5.9446788E-01;  4.0000000E+04;  0.0000000E+00;  3.9614570E+04;  5.3744489E-01;  0.0000000E+00;  2.4112961E-01;  7.0452432E+03;
  1.0084107E+00;  9.9999998E-03; -1.7063463E-01;7888;  4.3878075E-01;  0.0000000E+00; -3.3430159E-02;  1.0028028E+03;  1.8342859E-01;  2.3215713E+03;3;  6.3719643E+01;  0.0000000E+00; -3.1169188E+01;0;  9.0888965E-01;  1.2094996E+04;  0.0000000E+00; -6.2059450E-01;  4.0000000E+04;  0.0000000E+00;  3.9597090E+04;  6.3167208E-01;  0.0000000E+00;  2.7721760E-01;  4.9747598E+03;
  1.0084572E+00;  9.9999998E-03; -1.4047039E-01;7891;  3.9359176E-01;  0.0000000E+00; -2.7773798E-02;  1.0005024E+03;  1.8352793E-01;  4.1608963E+02;3;  6.3820797E+01;  0.0000000E+00; -2.6624975E+01;0;  7.1673000E-01;  1.2022683E+04;  0.0000000E+00; -5.3486985E-01;  4.0000000E+04;  0.0000000E+00;  3.9623312E+04;  4.9243429E-01;  0.0000000E+00;  2.2429572E-01;  8.1552529E+03;
  1.0084865E+00;  9.9999998E-03; -1.2034935E-01;7893;  3.6686158E-01;  0.0000000E+00; -2.4183050E-02;  9.9918835E+02;  1.8353295E-01; -6.7227002E+02;3;  6.4595497E+01;  0.0000000E+00; -2.3699289E+01;0;  6.1477566E-01;  1.1980387E+04;  0.0000000E+00; -3.9219901E-01;  4.0000000E+04;  0.0000000E+00;  3.9638293E+04;  4.1597819E-01;  0.0000000E+00;  1.9879749E-01;  1.0089758E+04;
  1.0084964E+00;  9.9999998E-03; -1.8071224E-01;7887;  4.5537323E-01;  0.0000000E+00; -3.5898693E-02;  1.0035410E+03;  1.8337652E-01;  2.9329675E+03;3;  6.4364952E+01;  0.0000000E+00; -3.3345688E+01;0;  9.7821313E-01;  1.2118219E+04;  0.0000000E+00; -5.8519262E-01;  4.0000000E+04;  0.0000000E+00;  3.9588441E+04;  6.8336916E-01;  0.0000000E+00;  2.9484397E-01;  4.1115273E+03;
  1.0085464E+00;  9.9999998E-03; -1.9079348E-01;7886;  4.7293103E-01;  0.0000000E+00; -3.9190494E-02;  1.0041832E+03;  1.8332614E-01;  3.4648784E+03;3;  6.5903564E+01;  0.0000000E+00; -3.6146694E+01;0;  1.0506568E+00;  1.2138689E+04;  0.0000000E+00; -5.2880776E-01;  4.0000000E+04;  0.0000000E+00;  3.9579605E+04;  7.3991477E-01;  0.0000000E+00;  3.1074205E-01;  3.3697910E+03;
  1.0085433E+00;  9.9999998E-03; -1.3041347E-01;7892;  3.7988719E-01;  0.0000000E+00; -2.5947271E-02;  9.9981049E+02;  1.8353383E-01; -1.5699629E+02;3;  6.4123108E+01;  0.0000000E+00; -2.5231382E+01;0;  6.6141814E-01;  1.2000763E+04;  0.0000000E+00; -4.6427003E-01;  4.0000000E+04;  0.0000000E+00;  3.9631391E+04;  4.5157653E-01;  0.0000000E+00;  2.0984161E-01;  9.1939346E+03;
  1.0086763E+00;  9.9999998E-03; -2.0086557E-01;7885;  4.9149501E-01;  0.0000000E+00; -4.3457825E-02;  1.0046895E+03;  1.8327993E-01;  3.8842244E+03;3;  6.8086868E+01;  0.0000000E+00; -3.9647972E+01;0;  1.1217740E+00;  1.2155723E+04;  0.0000000E+00; -4.5107257E-01;  4.0000000E+04;  0.0000000E+00;  3.9570172E+04;  7.9757756E-01;  0.0000000E+00;  3.2419637E-01;  2.8638015E+03;
  1.0088400E+00;  9.9999998E-03; -2.1090645E-01;7884;  5.1100796E-01;  0.0000000E+00; -4.9164444E-02;  1.0050623E+03;  1.8324083E-01;  4.1930801E+03;3;  7.0692177E+01;  0.0000000E+00; -4.4078548E+01;0;  1.1925495E+00;  1.2168568E+04;  0.0000000E+00; -3.5747781E-01;  4.0000000E+04;  0.0000000E+00;  3.9561793E+04;  8.5655665E-01;  0.0000000E+00;  3.3599275E-01;  2.8118223E+03;
  1.0090961E+00;  9.9999998E-03; -2.2092631E-01;7883;  5.3141457E-01;  0.0000000E+00; -5.7474092E-02;  1.0053320E+03;  1.8320720E-01;  4.4164258E+03;3;  7.3663628E+01;  0.0000000E+00; -4.9744633E+01;0;  1.2649523E+00;  1.2177245E+04;  0.0000000E+00; -2.4943852E-01;  4.0000000E+04;  0.0000000E+00;  3.9558027E+04;  9.1376138E-01;  0.0000000E+00;  3.5119092E-01;  2.9712224E+03;
  1.0094230E+00;  9.9999998E-03; -2.3095913E-01;7882;  5.5271327E-01;  0.0000000E+00; -7.1538761E-02;  1.0054989E+03;  1.8317968E-01;  4.5546558E+03;3;  7.6355850E+01;  0.0000000E+00; -5.6357182E+01;0;  1.3576797E+00;  1.2181862E+04;  0.0000000E+00; -1.3845426E-01;  4.0000000E+04;  0.0000000E+00;  3.9558691E+04;  9.6861452E-01;  0.0000000E+00;  3.8906518E-01;  3.0467517E+03;
  1.0097498E+00;  9.9999998E-03; -2.4103457E-01;7881;  5.7476574E-01;  0.0000000E+00; -8.6052582E-02;  1.0054377E+03;  1.8316011E-01;  4.5039971E+03;3;  7.7845551E+01;  0.0000000E+00; -4.5097145E+01;0;  1.4843750E+00;  1.2182718E+04;  0.0000000E+00; -5.1624823E-02;  4.0000000E+04;  0.0000000E+00;  3.9553605E+04;  1.0224171E+00;  0.0000000E+00;  4.6195799E-01;  3.2571582E+03;
  1.0100471E+00;  9.9999998E-03; -2.5112844E-01;7880;  5.9466028E-01;  0.0000000E+00; -8.9415215E-02;  1.0051163E+03;  1.8315212E-01;  4.2377910E+03;3;  7.6182487E+01;  0.0000000E+00; -3.8115536E+01;0;  1.5895782E+00;  1.2180507E+04;  0.0000000E+00; -1.6150348E-02;  4.0000000E+04;  0.0000000E+00;  3.9539020E+04;  1.0752646E+00;  0.0000000E+00;  5.1431364E-01;  4.2164722E+03;
  1.0102794E+00;  9.9999998E-03; -2.6120764E-01;7879;  6.1137891E-01;  0.0000000E+00; -8.9226864E-02;  1.0047036E+03;  1.8314746E-01;  3.8959526E+03;3;  7.6758766E+01;  0.0000000E+00; -3.5862286E+01;0;  1.6751395E+00;  1.2176030E+04;  0.0000000E+00; -2.5293892E-02;  4.0000000E+04;  0.0000000E+00;  3.9526152E+04;  1.1274902E+00;  0.0000000E+00;  5.4764938E-01;  5.4265308E+03;
  1.0104709E+00;  9.9999998E-03; -2.7128562E-01;7878;  6.2667304E-01;  0.0000000E+00; -8.6370893E-02;  1.0041684E+03;  1.8314111E-01;  3.4526113E+03;3;  7.6156799E+01;  0.0000000E+00; -3.3262821E+01;0;  1.7207464E+00;  1.2169751E+04;  0.0000000E+00; -7.5886906E-03;  4.0000000E+04;  0.0000000E+00;  3.9509387E+04;  1.1773993E+00;  0.0000000E+00;  5.4334712E-01;  7.3901880E+03;
  1.0264882E+00;  9.9999998E-03; -2.5111589E-01;7941;  5.9690791E-01;  0.0000000E+00; -6.5653801E-02;  1.0051655E+03;  1.8137318E-01;  4.2781890E+03;3;  8.3417870E+01;  0.0000000E+00; -3.9628597E+01;0;  1.1301491E+00;  1.2418979E+04;  0.0000000E+00; -1.7508064E-01;  4.0000000E+04;  0.0000000E+00;  3.9546582E+04;  5.7387120E-01;  0.0000000E+00;  5.5627793E-01;  2.9052634E+03;
  1.0263277E+00;  9.9999998E-03; -2.4101953E-01;7942;  5.7517624E-01;  0.0000000E+00; -5.5758718E-02;  1.0054417E+03;  1.8137808E-01;  4.5069561E+03;3;  8.3615067E+01;  0.0000000E+00; -5.9269722E+01;0;  1.0109340E+00;  1.2419077E+04;  0.0000000E+00; -2.4927936E-02;  4.0000000E+04;  0.0000000E+00;  3.9565734E+04;  5.3602958E-01;  0.0000000E+00;  4.7490439E-01;  2.2272395E+03;
  1.0261829E+00;  9.9999998E-03; -2.3095265E-01;7943;  5.5337054E-01;  0.0000000E+00; -3.6887489E-02;  1.0053895E+03;  1.8139459E-01;  4.4637144E+03;3;  8.0957382E+01;  0.0000000E+00; -5.4677544E+01;0;  8.9466965E-01;  1.2415928E+04;  0.0000000E+00;  9.8583639E-02;  4.0000000E+04;  0.0000000E+00;  3.9571148E+04;  4.9883947E-01;  0.0000000E+00;  3.9583021E-01;  2.7069417E+03;
  1.0267117E+00;  9.9999998E-03; -2.6119557E-01;7940;  6.1487740E-01;  0.0000000E+00; -6.5648422E-02;  1.0047898E+03;  1.8136929E-01;  3.9670779E+03;3;  8.4235794E+01;  0.0000000E+00; -3.6291115E+01;0;  1.1909796E+00;  1.2417188E+04;  0.0000000E+00; -3.0289406E-01;  4.0000000E+04;  0.0000000E+00;  3.9528562E+04;  6.0904479E-01;  0.0000000E+00;  5.8193481E-01;  4.8301035E+03;
  1.0260842E+00;  9.9999998E-03; -2.2094700E-01;7944;  5.3192407E-01;  0.0000000E+00; -2.6091019E-02;  1.0050600E+03;  1.8141614E-01;  4.1908179E+03;3;  7.7864548E+01;  0.0000000E+00; -4.8018177E+01;0;  8.2788992E-01;  1.2408577E+04;  0.0000000E+00;  1.8610780E-01;  4.0000000E+04;  0.0000000E+00;  3.9568863E+04;  4.6293619E-01;  0.0000000E+00;  3.6495373E-01;  2.9611208E+03;
  1.0260810E+00;  9.9999998E-03; -2.1096593E-01;7945;  5.1138389E-01;  0.0000000E+00; -1.9758150E-02;  1.0046097E+03;  1.8144086E-01;  3.8179041E+03;3;  7.3958351E+01;  0.0000000E+00; -4.3612194E+01;0;  7.7228749E-01;  1.2396521E+04;  0.0000000E+00;  2.4778014E-01;  4.0000000E+04;  0.0000000E+00;  3.9572090E+04;  4.2853126E-01;  0.0000000E+00;  3.4375620E-01;  3.3990669E+03;
  1.0269749E+00;  9.9999998E-03; -2.7126691E-01;7939;  6.3103181E-01;  0.0000000E+00; -6.3513152E-02;  1.0043445E+03;  1.8136008E-01;  3.5983071E+03;3;  8.6066872E+01;  0.0000000E+00; -3.4067013E+01;0;  1.2097101E+00;  1.2413725E+04;  0.0000000E+00; -3.0878156E-01;  4.0000000E+04;  0.0000000E+00;  3.9512121E+04;  6.4136916E-01;  0.0000000E+00;  5.6834090E-01;  7.0568740E+03;
  1.0261296E+00;  9.9999998E-03; -2.0096482E-01;7946;  4.9169704E-01;  0.0000000E+00; -1.5548211E-02;  1.0040490E+03;  1.8146656E-01;  3.3535620E+03;3;  7.0651840E+01;  0.0000000E+00; -3.9027184E+01;0;  7.1756995E-01;  1.2379871E+04;  0.0000000E+00;  2.9479378E-01;  4.0000000E+04;  0.0000000E+00;  3.9581465E+04;  3.9748502E-01;  0.0000000E+00;  3.2008490E-01;  4.2109209E+03;
  1.0261899E+00;  9.9999998E-03; -1.9093628E-01;7947;  4.7284850E-01;  0.0000000E+00; -1.2507297E-02;  1.0033259E+03;  1.8150027E-01;  2.7545486E+03;3;  6.8082207E+01;  0.0000000E+00; -3.6457047E+01;0;  6.6317338E-01;  1.2358546E+04;  0.0000000E+00;  3.2139534E-01;  4.0000000E+04;  0.0000000E+00;  3.9591938E+04;  3.7117639E-01;  0.0000000E+00;  2.9199699E-01;  5.2532803E+03;
  1.0262665E+00;  9.9999998E-03; -1.8088754E-01;7948;  4.5496246E-01;  0.0000000E+00; -1.0239005E-02;  1.0024478E+03;  1.8153767E-01;  2.0272817E+03;3;  6.6106384E+01;  0.0000000E+00; -3.4211407E+01;0;  6.1024940E-01;  1.2333347E+04;  0.0000000E+00;  3.1607661E-01;  4.0000000E+04;  0.0000000E+00;  3.9601219E+04;  3.4982425E-01;  0.0000000E+00;  2.6042518E-01;  6.2285483E+03;
  1.0264632E+00;  9.9999998E-03; -1.7082749E-01;7949;  4.3800968E-01;  0.0000000E+00; -8.4535675E-03;  1.0014523E+03;  1.8157089E-01;  1.2028612E+03;3;  6.5041611E+01;  0.0000000E+00; -3.2340157E+01;0;  5.5908215E-01;  1.2305852E+04;  0.0000000E+00;  2.7207953E-01;  4.0000000E+04;  0.0000000E+00;  3.9609258E+04;  3.3250022E-01;  0.0000000E+00;  2.2658192E-01;  7.0589727E+03;
  1.0268059E+00;  9.9999998E-03; -1.6075766E-01;7950;  4.2183825E-01;  0.0000000E+00; -6.9851247E-03;  1.0003932E+03;  1.8159257E-01;  3.2571890E+02;3;  6.4607399E+01;  0.0000000E+00; -3.0737417E+01;0;  5.1128387E-01;  1.2277562E+04;  0.0000000E+00;  1.8428025E-01;  4.0000000E+04;  0.0000000E+00;  3.9616910E+04;  3.1945094E-01;  0.0000000E+00;  1.9183290E-01;  7.7992148E+03;
  1.0275543E+00;  9.9999998E-03; -1.1035249E-01;7955;  3.5122162E-01;  0.0000000E+00; -3.2446866E-03;  9.9593488E+02;  1.8163815E-01; -3.3668198E+03;3;  6.5476059E+01;  0.0000000E+00; -2.4682283E+01;0;  3.7415457E-01;  1.2146271E+04;  0.0000000E+00; -5.1000196E-01;  4.0000000E+04;  0.0000000E+00;  3.9650188E+04;  3.1103712E-01;  0.0000000E+00;  6.3117452E-02;  1.1672264E+04;
  1.0271271E+00;  9.9999998E-03; -1.5066865E-01;7951;  4.0638262E-01;  0.0000000E+00; -5.8769286E-03;  9.9934015E+02;  1.8161018E-01; -5.4648419E+02;3;  6.4643898E+01;  0.0000000E+00; -2.9655624E+01;0;  4.7000712E-01;  1.2248923E+04;  0.0000000E+00;  5.1042188E-02;  4.0000000E+04;  0.0000000E+00;  3.9624277E+04;  3.1163672E-01;  0.0000000E+00;  1.5837042E-01;  8.5205479E+03;
  1.0273875E+00;  9.9999998E-03; -1.4057754E-01;7952;  3.9157179E-01;  0.0000000E+00; -4.9943156E-03;  9.9834973E+02;  1.8162121E-01; -1.3668013E+03;3;  6.4796661E+01;  0.0000000E+00; -2.8504591E+01;0;  4.3609005E-01;  1.2220928E+04;  0.0000000E+00; -1.1087742E-01;  4.0000000E+04;  0.0000000E+00;  3.9631566E+04;  3.0815640E-01;  0.0000000E+00;  1.2793367E-01;  9.2961885E+03;
  1.0276188E+00;  9.9999998E-03; -1.2041634E-01;7954;  3.6393237E-01;  0.0000000E+00; -3.7074490E-03;  9.9664410E+02;  1.8163365E-01; -2.7794607E+03;3;  6.5389107E+01;  0.0000000E+00; -2.6140263E+01;0;  3.8922203E-01;  1.2169416E+04;  0.0000000E+00; -4.1581100E-01;  4.0000000E+04;  0.0000000E+00;  3.9645070E+04;  3.0917230E-01;  0.0000000E+00;  8.0049723E-02;  1.0955165E+04;
  1.0275533E+00;  9.9999998E-03; -1.3049345E-01;7953;  3.7741390E-01;  0.0000000E+00; -4.3104906E-03;  9.9744623E+02;  1.8162984E-01; -2.1150920E+03;3;  6.4970032E+01;  0.0000000E+00; -2.7402142E+01;0;  4.0946722E-01;  1.2194292E+04;  0.0000000E+00; -2.7568185E-01;  4.0000000E+04;  0.0000000E+00;  3.9638613E+04;  3.0777130E-01;  0.0000000E+00;  1.0169593E-01;  1.0128828E+04;
  1.0433701E+00;  9.9999998E-03; -2.5111929E-01;8002;  5.9597790E-01;  0.0000000E+00; -3.5202131E-02;  1.0047787E+03;  1.7913923E-01;  3.9575547E+03;3;  8.9454231E+01;  0.0000000E+00; -5.1523014E+01;0;  8.2554817E-01;  1.2720761E+04;  0.0000000E+00; -7.0162255E-01;  4.0000000E+04;  0.0000000E+00;  3.9560754E+04;  2.7305701E-01;  0.0000000E+00;  5.5249113E-01;  5.5477753E+02;
  1.0435133E+00;  9.9999998E-03; -2.6119649E-01;8001;  6.1592305E-01;  0.0000000E+00; -4.0067349E-02;  1.0044402E+03;  1.7914292E-01;  3.6771750E+03;3;  8.8071945E+01;  0.0000000E+00; -3.4410278E+01;0;  8.9781213E-01;  1.2720374E+04;  0.0000000E+00; -9.5142227E-01;  4.0000000E+04;  0.0000000E+00;  3.9539938E+04;  2.8698644E-01;  0.0000000E+00;  6.1082572E-01;  3.0837273E+03;
  1.0432839E+00;  9.9999998E-03; -2.4103352E-01;8003;  5.7454693E-01;  0.0000000E+00; -1.6162300E-02;  1.0049543E+03;  1.7913029E-01;  4.1029780E+03;3;  8.5864738E+01;  0.0000000E+00; -5.6125893E+01;0;  6.9723427E-01;  1.2719543E+04;  0.0000000E+00; -3.6406571E-01;  4.0000000E+04;  0.0000000E+00;  3.9578953E+04;  2.6108795E-01;  0.0000000E+00;  4.3614635E-01;  1.8378127E+03;
  1.0436857E+00;  9.9999998E-03; -2.7126354E-01;8000;  6.3248646E-01;  0.0000000E+00; -3.8549624E-02;  1.0040353E+03;  1.7913722E-01;  3.3418064E+03;3;  8.8904785E+01;  0.0000000E+00; -3.2543617E+01;0;  8.9393210E-01;  1.2718308E+04;  0.0000000E+00; -9.7608477E-01;  4.0000000E+04;  0.0000000E+00;  3.9522047E+04;  3.0094308E-01;  0.0000000E+00;  5.9298903E-01;  5.3813477E+03;
  1.0432258E+00;  9.9999998E-03; -2.3096313E-01;8004;  5.5300856E-01;  0.0000000E+00; -3.4342026E-03;  1.0048329E+03;  1.7912835E-01;  4.0024778E+03;3;  8.3515572E+01;  0.0000000E+00; -5.0753963E+01;0;  6.3792080E-01;  1.2714968E+04;  0.0000000E+00; -1.6307687E-02;  4.0000000E+04;  0.0000000E+00;  3.9587844E+04;  2.5303477E-01;  0.0000000E+00;  3.8488603E-01;  3.3433279E+03;
  1.0432138E+00;  9.9999998E-03; -2.2094749E-01;8005;  5.3185648E-01;  0.0000000E+00;  4.1694813E-03;  1.0043845E+03;  1.7912917E-01;  3.6310774E+03;3;  8.0048302E+01;  0.0000000E+00; -4.6076420E+01;0;  6.0460711E-01;  1.2705791E+04;  0.0000000E+00;  2.9081523E-01;  4.0000000E+04;  0.0000000E+00;  3.9587664E+04;  2.4987994E-01;  0.0000000E+00;  3.5472715E-01;  4.0463835E+03;
  1.0432765E+00;  9.9999998E-03; -2.1097466E-01;8006;  5.1141572E-01;  0.0000000E+00;  8.5487626E-03;  1.0037364E+03;  1.7913133E-01;  3.0943127E+03;3;  7.6182541E+01;  0.0000000E+00; -4.2952492E+01;0;  5.7740963E-01;  1.2691324E+04;  0.0000000E+00;  5.4133952E-01;  4.0000000E+04;  0.0000000E+00;  3.9589086E+04;  2.5240558E-01;  0.0000000E+00;  3.2500401E-01;  4.9302163E+03;
  1.0434328E+00;  9.9999998E-03; -2.0100379E-01;8007;  4.9163869E-01;  0.0000000E+00;  1.1770300E-02;  1.0029419E+03;  1.7913428E-01;  2.4363135E+03;3;  7.2521118E+01;  0.0000000E+00; -3.9666374E+01;0;  5.5071986E-01;  1.2671637E+04;  0.0000000E+00;  7.3847640E-01;  4.0000000E+04;  0.0000000E+00;  3.9595793E+04;  2.6143602E-01;  0.0000000E+00;  2.8928384E-01;  6.1131978E+03;
  1.0437281E+00;  9.9999998E-03; -1.9100897E-01;8008;  4.7270113E-01;  0.0000000E+00;  1.4075431E-02;  1.0019805E+03;  1.7913379E-01;  1.6401996E+03;3;  6.9235031E+01;  0.0000000E+00; -3.6248512E+01;0;  5.2589810E-01;  1.2647951E+04;  0.0000000E+00;  8.7485331E-01;  4.0000000E+04;  0.0000000E+00;  3.9604371E+04;  2.7795067E-01;  0.0000000E+00;  2.4794745E-01;  7.3055947E+03;
  1.0440724E+00;  9.9999998E-03; -1.8099055E-01;8009;  4.5471206E-01;  0.0000000E+00;  1.5513761E-02;  1.0008732E+03;  1.7913480E-01;  7.2315137E+02;3;  6.6904221E+01;  0.0000000E+00; -3.3871342E+01;0;  5.0510675E-01;  1.2620708E+04;  0.0000000E+00;  9.2842585E-01;  4.0000000E+04;  0.0000000E+00;  3.9611977E+04;  3.0238926E-01;  0.0000000E+00;  2.0271750E-01;  8.2080547E+03;
  1.0444701E+00;  9.9999998E-03; -1.7094350E-01;8010;  4.3752617E-01;  0.0000000E+00;  1.6434154E-02;  9.9966162E+02;  1.7913486E-01; -2.8022668E+02;3;  6.5953865E+01;  0.0000000E+00; -3.2393131E+01;0;  4.9010018E-01;  1.2591274E+04;  0.0000000E+00;  8.7716490E-01;  4.0000000E+04;  0.0000000E+00;  3.9618121E+04;  3.3457792E-01;  0.0000000E+00;  1.5552226E-01;  8.7322646E+03;
  1.0449086E+00;  9.9999998E-03; -1.6086404E-01;8011;  4.2102215E-01;  0.0000000E+00;  1.7032150E-02;  9.9841608E+02;  1.7913115E-01; -1.3117358E+03;3;  6.5559319E+01;  0.0000000E+00; -3.1132660E+01;0;  4.8239604E-01;  1.2561271E+04;  0.0000000E+00;  7.1534389E-01;  4.0000000E+04;  0.0000000E+00;  3.9623324E+04;  3.7394986E-01;  0.0000000E+00;  1.0844619E-01;  8.9651758E+03;
  1.0453055E+00;  9.9999998E-03; -1.5076560E-01;8012;  4.0516213E-01;  0.0000000E+00;  1.7326470E-02;  9.9720758E+02;  1.7912830E-01; -2.3125371E+03;3;  6.5540154E+01;  0.0000000E+00; -3.0433010E+01;0;  4.8237109E-01;  1.2531021E+04;  0.0000000E+00;  4.6169463E-01;  4.0000000E+04;  0.0000000E+00;  3.9628336E+04;  4.1849822E-01;  0.0000000E+00;  6.3872859E-02;  9.1337041E+03;
  1.0457968E+00;  9.9999998E-03; -1.1046594E-01;8016;  3.4818658E-01;  0.0000000E+00;  1.6123435E-02;  9.9358649E+02;  1.7919117E-01; -5.3113320E+03;3;  6.5407776E+01;  0.0000000E+00; -2.6314178E+01;0;  5.3490376E-01;  1.2420562E+04;  0.0000000E+00; -5.2589047E-01;  4.0000000E+04;  0.0000000E+00;  3.9648766E+04;  5.9878325E-01;  0.0000000E+00; -6.3879475E-02;  1.1415086E+04;
  1.0455978E+00;  9.9999998E-03; -1.4066543E-01;8013;  3.8989842E-01;  0.0000000E+00;  1.7331332E-02;  9.9611023E+02;  1.7913525E-01; -3.2213264E+03;3;  6.5647385E+01;  0.0000000E+00; -2.9531191E+01;0;  4.8919621E-01;  1.2501056E+04;  0.0000000E+00;  1.6104090E-01;  4.0000000E+04;  0.0000000E+00;  3.9633668E+04;  4.6543148E-01;  0.0000000E+00;  2.3764739E-02;  9.4742979E+03;
  1.0458419E+00;  9.9999998E-03; -1.2050845E-01;8015;  3.6129668E-01;  0.0000000E+00;  1.6708000E-02;  9.9430487E+02;  1.7916897E-01; -4.7163779E+03;3;  6.5827133E+01;  0.0000000E+00; -2.7881628E+01;0;  5.1739794E-01;  1.2445280E+04;  0.0000000E+00; -3.6995906E-01;  4.0000000E+04;  0.0000000E+00;  3.9644633E+04;  5.5744505E-01;  0.0000000E+00; -4.0047094E-02;  1.0763992E+04;
  1.0457696E+00;  9.9999998E-03; -1.3057478E-01;8014;  3.7527385E-01;  0.0000000E+00;  1.7076012E-02;  9.9514008E+02;  1.7914948E-01; -4.0247288E+03;3;  6.5805466E+01;  0.0000000E+00; -2.8717955E+01;0;  5.0139946E-01;  1.2472192E+04;  0.0000000E+00; -1.3175124E-01;  4.0000000E+04;  0.0000000E+00;  3.9639258E+04;  5.1228940E-01;  0.0000000E+00; -1.0889954E-02;  1.0057262E+04;
  1.0611080E+00;  9.9999998E-03; -2.4105173E-01;8064;  5.7272249E-01;  0.0000000E+00;  2.3414142E-02;  1.0031509E+03;  1.7621444E-01;  2.6091670E+03;3;  8.7147987E+01;  0.0000000E+00; -4.8535885E+01;0;  5.7089353E-01;  1.3096461E+04;  0.0000000E+00; -8.5336030E-01;  4.0000000E+04;  0.0000000E+00;  3.9600062E+04;  1.9878620E-01;  0.0000000E+00;  3.7210736E-01;  4.1450151E+03;
  1.0611935E+00;  9.9999998E-03; -2.5112277E-01;8063;  5.9351534E-01;  0.0000000E+00;  1.0114929E-02;  1.0031203E+03;  1.7623453E-01;  2.5837961E+03;3;  8.9011055E+01;  0.0000000E+00; -5.1408791E+01;0;  6.1184275E-01;  1.3099028E+04;  0.0000000E+00; -1.3934278E+00;  4.0000000E+04;  0.0000000E+00;  3.9588172E+04;  1.7363578E-01;  0.0000000E+00;  4.3820694E-01;  3.6348345E+03;
  1.0610632E+00;  9.9999998E-03; -2.3098364E-01;8065;  5.5175602E-01;  0.0000000E+00;  3.1075081E-02;  1.0029344E+03;  1.7619058E-01;  2.4299060E+03;3;  8.4524063E+01;  0.0000000E+00; -4.5728592E+01;0;  5.7152438E-01;  1.3091126E+04;  0.0000000E+00; -3.0410326E-01;  4.0000000E+04;  0.0000000E+00;  3.9608125E+04;  2.3152369E-01;  0.0000000E+00;  3.4000066E-01;  5.0846421E+03;
  1.0610603E+00;  9.9999998E-03; -2.2096539E-01;8066;  5.3107488E-01;  0.0000000E+00;  3.5574161E-02;  1.0023768E+03;  1.7617014E-01;  1.9681290E+03;3;  8.1329727E+01;  0.0000000E+00; -4.3627178E+01;0;  5.8247602E-01;  1.3080975E+04;  0.0000000E+00;  1.7853360E-01;  4.0000000E+04;  0.0000000E+00;  3.9606926E+04;  2.7262112E-01;  0.0000000E+00;  3.0985489E-01;  5.4741357E+03;
  1.0613263E+00;  9.9999998E-03; -2.6119113E-01;8062;  6.1404783E-01;  0.0000000E+00; -9.9761095E-03;  1.0028948E+03;  1.7624228E-01;  2.3970300E+03;3;  9.2262154E+01;  0.0000000E+00; -4.2605671E+01;0;  7.5165623E-01;  1.3100340E+04;  0.0000000E+00; -1.8168808E+00;  4.0000000E+04;  0.0000000E+00;  3.9573254E+04;  1.5499376E-01;  0.0000000E+00;  5.9666246E-01;  3.4485667E+03;
  1.0611084E+00;  9.9999998E-03; -2.1099317E-01;8067;  5.1099968E-01;  0.0000000E+00;  3.8314626E-02;  1.0015969E+03;  1.7615077E-01;  1.3222531E+03;3;  7.7636467E+01;  0.0000000E+00; -4.1125328E+01;0;  5.9562385E-01;  1.3064830E+04;  0.0000000E+00;  5.6870067E-01;  4.0000000E+04;  0.0000000E+00;  3.9605734E+04;  3.2275370E-01;  0.0000000E+00;  2.7287015E-01;  6.1667339E+03;
  1.0614008E+00;  9.9999998E-03; -2.7125847E-01;8061;  6.3174117E-01;  0.0000000E+00; -1.2947942E-02;  1.0025225E+03;  1.7624255E-01;  2.0887505E+03;3;  9.0665291E+01;  0.0000000E+00; -2.9274944E+01;0;  7.6759315E-01;  1.3099402E+04;  0.0000000E+00; -1.9952099E+00;  4.0000000E+04;  0.0000000E+00;  3.9553645E+04;  1.4086513E-01;  0.0000000E+00;  6.2672800E-01;  3.3290969E+03;
  1.0612384E+00;  9.9999998E-03; -2.0102404E-01;8068;  4.9142578E-01;  0.0000000E+00;  3.9962538E-02;  1.0006672E+03;  1.7613205E-01;  5.5249292E+02;3;  7.4242485E+01;  0.0000000E+00; -3.8848488E+01;0;  6.1118627E-01;  1.3043342E+04;  0.0000000E+00;  8.6742145E-01;  4.0000000E+04;  0.0000000E+00;  3.9609406E+04;  3.8282675E-01;  0.0000000E+00;  2.2835951E-01;  7.2845078E+03;
  1.0638050E+00;  9.9999998E-03; -1.1052575E-01;8077;  3.4584144E-01;  0.0000000E+00;  3.6052145E-02;  9.9149536E+02;  1.7610070E-01; -7.0421938E+03;3;  6.4819786E+01;  0.0000000E+00; -2.6460161E+01;0;  1.0437559E+00;  1.2803654E+04;  0.0000000E+00; -5.1001692E-01;  4.0000000E+04;  0.0000000E+00;  3.9642156E+04;  1.2290324E+00;  0.0000000E+00; -1.8527651E-01;  1.0307421E+04;
  1.0615267E+00;  9.9999998E-03; -1.9102727E-01;8069;  4.7243127E-01;  0.0000000E+00;  4.1059870E-02;  9.9958453E+02;  1.7610380E-01; -3.4401169E+02;3;  7.0341011E+01;  0.0000000E+00; -3.6860062E+01;0;  6.3229227E-01;  1.3018933E+04;  0.0000000E+00;  1.0650909E+00;  4.0000000E+04;  0.0000000E+00;  3.9615023E+04;  4.5468923E-01;  0.0000000E+00;  1.7760305E-01;  8.3534492E+03;
  1.0619048E+00;  9.9999998E-03; -1.8099727E-01;8070;  4.5428988E-01;  0.0000000E+00;  4.1715045E-02;  9.9837091E+02;  1.7607532E-01; -1.3489957E+03;3;  6.7500145E+01;  0.0000000E+00; -3.4947796E+01;0;  6.6091877E-01;  1.2991745E+04;  0.0000000E+00;  1.1413034E+00;  4.0000000E+04;  0.0000000E+00;  3.9619969E+04;  5.3777820E-01;  0.0000000E+00;  1.2314056E-01;  9.0149365E+03;
  1.0639757E+00;  9.9999998E-03; -1.2055475E-01;8076;  3.5910171E-01;  0.0000000E+00;  3.8137183E-02;  9.9208118E+02;  1.7604378E-01; -6.5571226E+03;3;  6.5233788E+01;  0.0000000E+00; -2.7700348E+01;0;  9.8990303E-01;  1.2828882E+04;  0.0000000E+00; -3.5450998E-01;  4.0000000E+04;  0.0000000E+00;  3.9639176E+04;  1.1477633E+00;  0.0000000E+00; -1.5786020E-01;  9.7888857E+03;
  1.0623484E+00;  9.9999998E-03; -1.7093131E-01;8071;  4.3689814E-01;  0.0000000E+00;  4.1981827E-02;  9.9709796E+02;  1.7604832E-01; -2.4030325E+03;3;  6.6417511E+01;  0.0000000E+00; -3.3002731E+01;0;  6.9858718E-01;  1.2963133E+04;  0.0000000E+00;  1.0770807E+00;  4.0000000E+04;  0.0000000E+00;  3.9623188E+04;  6.3120228E-01;  0.0000000E+00;  6.7384891E-02;  9.1846621E+03;
  1.0628266E+00;  9.9999998E-03; -1.6084112E-01;8072;  4.2013523E-01;  0.0000000E+00;  4.1872293E-02;  9.9584198E+02;  1.7602402E-01; -3.4430437E+03;3;  6.6170609E+01;  0.0000000E+00; -3.1592466E+01;0;  7.4587530E-01;  1.2934458E+04;  0.0000000E+00;  8.7490380E-01;  4.0000000E+04;  0.0000000E+00;  3.9625703E+04;  7.3313451E-01;  0.0000000E+00;  1.2740794E-02;  9.0067764E+03;
  1.0639344E+00;  9.9999998E-03; -1.3059734E-01;8075;  3.7325236E-01;  0.0000000E+00;  3.9722390E-02;  9.9279321E+02;  1.7601010E-01; -5.9675283E+03;3;  6.5613945E+01;  0.0000000E+00; -2.8869196E+01;0;  9.2890441E-01;  1.2854333E+04;  0.0000000E+00; -1.0247546E-01;  4.0000000E+04;  0.0000000E+00;  3.9635691E+04;  1.0533329E+00;  0.0000000E+00; -1.2442848E-01;  9.2250068E+03;
  1.0632972E+00;  9.9999998E-03; -1.5074447E-01;8073;  4.0392491E-01;  0.0000000E+00;  4.1446839E-02;  9.9467462E+02;  1.7600472E-01; -4.4096562E+03;3;  6.6513206E+01;  0.0000000E+00; -3.1101740E+01;0;  8.0212015E-01;  1.2906779E+04;  0.0000000E+00;  5.6967813E-01;  4.0000000E+04;  0.0000000E+00;  3.9628547E+04;  8.4066027E-01;  0.0000000E+00; -3.8540132E-02;  8.7918730E+03;
  1.0636719E+00;  9.9999998E-03; -1.4066063E-01;8074;  3.8823470E-01;  0.0000000E+00;  4.0763047E-02;  9.9365521E+02;  1.7599989E-01; -5.2537656E+03;3;  6.6186768E+01;  0.0000000E+00; -3.0197584E+01;0;  8.6405993E-01;  1.2879919E+04;  0.0000000E+00;  2.2222213E-01;  4.0000000E+04;  0.0000000E+00;  3.9631711E+04;  9.4854438E-01;  0.0000000E+00; -8.4484458E-02;  8.8400742E+03;
  1.0795196E+00;  9.9999998E-03; -2.4107717E-01;8125;  5.6992871E-01;  0.0000000E+00;  6.1963350E-02;  9.9981421E+02;  1.7253885E-01; -1.5381847E+02;3;  8.7373871E+01;  0.0000000E+00; -4.1107525E+01;0;  6.3014078E-01;  1.3567670E+04;  0.0000000E+00; -9.2378998E-01;  4.0000000E+04;  0.0000000E+00;  3.9623441E+04;  3.6010623E-01;  0.0000000E+00;  2.7003458E-01;  6.7901567E+03;
  1.0794053E+00;  9.9999998E-03; -2.3101395E-01;8126;  5.4980642E-01;  0.0000000E+00;  6.5598391E-02;  9.9955121E+02;  1.7252491E-01; -3.7154333E+02;3;  8.5018311E+01;  0.0000000E+00; -4.0470642E+01;0;  6.9703257E-01;  1.3558688E+04;  0.0000000E+00; -3.7789702E-01;  4.0000000E+04;  0.0000000E+00;  3.9628125E+04;  4.4260308E-01;  0.0000000E+00;  2.5442952E-01;  7.1014082E+03;
  1.0798769E+00;  9.9999998E-03; -2.5113016E-01;8124;  5.8993518E-01;  0.0000000E+00;  5.4419044E-02;  9.9987103E+02;  1.7252059E-01; -1.0678921E+02;3;  8.9472931E+01;  0.0000000E+00; -4.2690048E+01;0;  5.8387339E-01;  1.3576348E+04;  0.0000000E+00; -1.5271386E+00;  4.0000000E+04;  0.0000000E+00;  3.9622434E+04;  2.9162762E-01;  0.0000000E+00;  2.9224578E-01;  7.2752920E+03;
  1.0793542E+00;  9.9999998E-03; -2.2097009E-01;8127;  5.2972770E-01;  0.0000000E+00;  6.7888707E-02;  9.9902032E+02;  1.7250609E-01; -8.1108899E+02;3;  8.2007370E+01;  0.0000000E+00; -3.8902313E+01;0;  7.6394916E-01;  1.3546111E+04;  0.0000000E+00;  8.8459276E-02;  4.0000000E+04;  0.0000000E+00;  3.9627707E+04;  5.3755212E-01;  0.0000000E+00;  2.2639704E-01;  7.1887808E+03;
  1.0793762E+00;  9.9999998E-03; -2.1095820E-01;8128;  5.1012814E-01;  0.0000000E+00;  6.8835139E-02;  9.9826361E+02;  1.7248338E-01; -1.4376150E+03;3;  7.8772148E+01;  0.0000000E+00; -3.7642700E+01;0;  8.3284336E-01;  1.3529337E+04;  0.0000000E+00;  4.6247616E-01;  4.0000000E+04;  0.0000000E+00;  3.9625047E+04;  6.4559400E-01;  0.0000000E+00;  1.8724938E-01;  7.2585391E+03;
  1.0804551E+00;  9.9999998E-03; -2.6117921E-01;8123;  6.0933006E-01;  0.0000000E+00;  3.7768342E-02;  9.9975909E+02;  1.7247029E-01; -1.9946370E+02;3;  9.1030464E+01;  0.0000000E+00; -4.6270882E+01;0;  6.2934715E-01;  1.3584464E+04;  0.0000000E+00; -2.0867531E+00;  4.0000000E+04;  0.0000000E+00;  3.9625102E+04;  2.3432451E-01;  0.0000000E+00;  3.9502263E-01;  8.1590186E+03;
  1.0794768E+00;  9.9999998E-03; -2.0095222E-01;8129;  4.9065211E-01;  0.0000000E+00;  6.9108285E-02;  9.9736157E+02;  1.7245807E-01; -2.1844009E+03;3;  7.6609695E+01;  0.0000000E+00; -3.6917648E+01;0;  9.0603590E-01;  1.3508509E+04;  0.0000000E+00;  7.4140090E-01;  4.0000000E+04;  0.0000000E+00;  3.9624605E+04;  7.6718920E-01;  0.0000000E+00;  1.3884668E-01;  7.6426426E+03;
  1.0818884E+00;  9.9999998E-03; -1.1053730E-01;8138;  3.4425923E-01;  0.0000000E+00;  5.6882888E-02;  9.9008466E+02;  1.7241022E-01; -8.2089795E+03;3;  6.4680481E+01;  0.0000000E+00; -2.6054983E+01;0;  1.8866357E+00;  1.3316366E+04;  0.0000000E+00; -5.1223135E-01;  4.0000000E+04;  0.0000000E+00;  3.9631625E+04;  2.1798410E+00;  0.0000000E+00; -2.9320541E-01;  8.5186953E+03;
  1.0807822E+00;  9.9999998E-03; -2.7124023E-01;8122;  6.2834424E-01;  0.0000000E+00;  1.6231595E-02;  9.9945245E+02;  1.7244279E-01; -4.5330713E+02;3;  9.2746391E+01;  0.0000000E+00; -3.6365192E+01;0;  7.8818262E-01;  1.3586970E+04;  0.0000000E+00; -2.3985825E+00;  4.0000000E+04;  0.0000000E+00;  3.9616039E+04;  1.8202133E-01;  0.0000000E+00;  6.0616130E-01;  7.3024648E+03;
  1.0796473E+00;  9.9999998E-03; -1.9092524E-01;8130;  4.7152206E-01;  0.0000000E+00;  6.9056384E-02;  9.9635791E+02;  1.7243549E-01; -3.0153708E+03;3;  7.2260567E+01;  0.0000000E+00; -3.6315971E+01;0;  9.8642516E-01;  1.3484612E+04;  0.0000000E+00;  9.1700339E-01;  4.0000000E+04;  0.0000000E+00;  3.9625238E+04;  9.0210140E-01;  0.0000000E+00;  8.4323779E-02;  8.0852920E+03;
  1.0798970E+00;  9.9999998E-03; -1.8087275E-01;8131;  4.5321807E-01;  0.0000000E+00;  6.8778992E-02;  9.9528619E+02;  1.7241314E-01; -3.9026904E+03;3;  6.8306053E+01;  0.0000000E+00; -3.5792553E+01;0;  1.0764273E+00;  1.3459154E+04;  0.0000000E+00;  9.7377145E-01;  4.0000000E+04;  0.0000000E+00;  3.9625492E+04;  1.0497985E+00;  0.0000000E+00;  2.6628869E-02;  8.2785879E+03;
  1.0819982E+00;  9.9999998E-03; -1.2055295E-01;8137;  3.5766849E-01;  0.0000000E+00;  6.0249444E-02;  9.9046844E+02;  1.7235373E-01; -7.8912246E+03;3;  6.5357033E+01;  0.0000000E+00; -2.7493107E+01;0;  1.7846677E+00;  1.3335432E+04;  0.0000000E+00; -3.8633901E-01;  4.0000000E+04;  0.0000000E+00;  3.9630727E+04;  2.0485306E+00;  0.0000000E+00; -2.6386291E-01;  8.2374482E+03;
  1.0802588E+00;  9.9999998E-03; -1.7080161E-01;8132;  4.3579215E-01;  0.0000000E+00;  6.8328537E-02;  9.9420544E+02;  1.7238711E-01; -4.7974517E+03;3;  6.5325356E+01;  0.0000000E+00; -3.5047546E+01;0;  1.1783402E+00;  1.3434270E+04;  0.0000000E+00;  9.0002990E-01;  4.0000000E+04;  0.0000000E+00;  3.9625312E+04;  1.2101358E+00;  0.0000000E+00; -3.1795658E-02;  8.1532305E+03;
  1.0819528E+00;  9.9999998E-03; -1.3057487E-01;8136;  3.7194255E-01;  0.0000000E+00;  6.3060410E-02;  9.9094495E+02;  1.7231731E-01; -7.4967485E+03;3;  6.5645325E+01;  0.0000000E+00; -2.8603157E+01;0;  1.6710448E+00;  1.3354502E+04;  0.0000000E+00; -1.7263648E-01;  4.0000000E+04;  0.0000000E+00;  3.9628926E+04;  1.9004254E+00;  0.0000000E+00; -2.2938055E-01;  7.8620674E+03;
  1.0807270E+00;  9.9999998E-03; -1.6072547E-01;8133;  4.1908664E-01;  0.0000000E+00;  6.7737877E-02;  9.9318890E+02;  1.7235602E-01; -5.6390034E+03;3;  6.5496506E+01;  0.0000000E+00; -3.2741188E+01;0;  1.2928190E+00;  1.3411506E+04;  0.0000000E+00;  7.0414829E-01;  4.0000000E+04;  0.0000000E+00;  3.9625203E+04;  1.3814111E+00;  0.0000000E+00; -8.8592090E-02;  7.8401494E+03;
  1.0812209E+00;  9.9999998E-03; -1.5066327E-01;8134;  4.0282533E-01;  0.0000000E+00;  6.6656403E-02;  9.9229108E+02;  1.7232916E-01; -6.3822949E+03;3;  6.6223236E+01;  0.0000000E+00; -3.0921227E+01;0;  1.4167261E+00;  1.3391035E+04;  0.0000000E+00;  4.2256686E-01;  4.0000000E+04;  0.0000000E+00;  3.9625711E+04;  1.5580931E+00;  0.0000000E+00; -1.4136699E-01;  7.5860015E+03;
  1.0816519E+00;  9.9999998E-03; -1.4061409E-01;8135;  3.8703722E-01;  0.0000000E+00;  6.5136112E-02;  9.9154529E+02;  1.7231430E-01; -6.9997480E+03;3;  6.6053772E+01;  0.0000000E+00; -2.9761211E+01;0;  1.5448608E+00;  1.3372280E+04;  0.0000000E+00;  1.1120605E-01;  4.0000000E+04;  0.0000000E+00;  3.9627215E+04;  1.7333437E+00;  0.0000000E+00; -1.8848293E-01;  7.5914253E+03;
  1.0995319E+00;  9.9999998E-03; -1.1054338E-01;8199;  3.4349933E-01;  0.0000000E+00;  7.7424504E-02;  9.8972449E+02;  1.6833243E-01; -8.5053477E+03;3;  6.3769325E+01;  0.0000000E+00; -2.4396687E+01;0;  2.9603801E+00;  1.3956347E+04;  0.0000000E+00; -4.8598844E-01;  4.0000000E+04;  0.0000000E+00;  3.9618598E+04;  3.3347390E+00;  0.0000000E+00; -3.7435886E-01;  6.1607222E+03;
  1.0996209E+00;  9.9999998E-03; -1.2055473E-01;8198;  3.5675594E-01;  0.0000000E+00;  8.2126647E-02;  9.8988757E+02;  1.6828491E-01; -8.3703525E+03;3;  6.4396645E+01;  0.0000000E+00; -2.5737982E+01;0;  2.8142986E+00;  1.3967355E+04;  0.0000000E+00; -4.1717553E-01;  4.0000000E+04;  0.0000000E+00;  3.9619680E+04;  3.1606090E+00;  0.0000000E+00; -3.4631044E-01;  6.2189219E+03;
  1.0996748E+00;  9.9999998E-03; -1.3056092E-01;8197;  3.7091038E-01;  0.0000000E+00;  8.6216934E-02;  9.9009747E+02;  1.6824469E-01; -8.1966328E+03;3;  6.5169167E+01;  0.0000000E+00; -2.7836002E+01;0;  2.6576481E+00;  1.3979243E+04;  0.0000000E+00; -2.8611320E-01;  4.0000000E+04;  0.0000000E+00;  3.9619996E+04;  2.9721911E+00;  0.0000000E+00; -3.1454301E-01;  6.1343887E+03;
  1.0974498E+00;  9.9999998E-03; -2.3103456E-01;8187;  5.4705286E-01;  0.0000000E+00;  9.7772285E-02;  9.9550812E+02;  1.6835946E-01; -3.7181650E+03;3;  8.7354820E+01;  0.0000000E+00; -3.4780460E+01;0;  1.0221575E+00;  1.4115943E+04;  0.0000000E+00; -1.7756641E-01;  4.0000000E+04;  0.0000000E+00;  3.9648332E+04;  8.8818270E-01;  0.0000000E+00;  1.3397481E-01;  9.1715537E+03;
  1.0973459E+00;  9.9999998E-03; -2.2096285E-01;8188;  5.2740276E-01;  0.0000000E+00;  9.8717883E-02;  9.9514624E+02;  1.6836964E-01; -4.0177510E+03;3;  8.2240631E+01;  0.0000000E+00; -3.5027283E+01;0;  1.1539569E+00;  1.4101975E+04;  0.0000000E+00;  1.1903273E-01;  4.0000000E+04;  0.0000000E+00;  3.9647379E+04;  1.0405034E+00;  0.0000000E+00;  1.1345356E-01;  9.0278047E+03;
  1.0977697E+00;  9.9999998E-03; -2.4110249E-01;8186;  5.6634533E-01;  0.0000000E+00;  9.6068829E-02;  9.9565369E+02;  1.6832530E-01; -3.5976660E+03;3;  8.7723099E+01;  0.0000000E+00; -3.4317566E+01;0;  8.9213979E-01;  1.4129867E+04;  0.0000000E+00; -5.8406299E-01;  4.0000000E+04;  0.0000000E+00;  3.9647461E+04;  7.5689536E-01;  0.0000000E+00;  1.3524441E-01;  9.1898545E+03;
  1.0973713E+00;  9.9999998E-03; -2.1091433E-01;8189;  5.0843287E-01;  0.0000000E+00;  9.8960631E-02;  9.9458191E+02;  1.6836758E-01; -4.4848330E+03;3;  7.8515945E+01;  0.0000000E+00; -3.3240116E+01;0;  1.2898130E+00;  1.4086496E+04;  0.0000000E+00;  3.3034128E-01;  4.0000000E+04;  0.0000000E+00;  3.9642117E+04;  1.2115982E+00;  0.0000000E+00;  7.8214929E-02;  8.4247617E+03;
  1.0974962E+00;  9.9999998E-03; -2.0087010E-01;8190;  4.8935866E-01;  0.0000000E+00;  9.8352060E-02;  9.9391168E+02;  1.6835944E-01; -5.0396323E+03;3;  7.8357170E+01;  0.0000000E+00; -3.2027687E+01;0;  1.4332782E+00;  1.4069096E+04;  0.0000000E+00;  4.6945393E-01;  4.0000000E+04;  0.0000000E+00;  3.9637277E+04;  1.4006382E+00;  0.0000000E+00;  3.2640010E-02;  7.8943398E+03;
  1.0995544E+00;  9.9999998E-03; -1.4057334E-01;8196;  3.8586339E-01;  0.0000000E+00;  8.9560732E-02;  9.9036676E+02;  1.6823076E-01; -7.9737422E+03;3;  6.5419746E+01;  0.0000000E+00; -2.9191174E+01;0;  2.4850259E+00;  1.3989492E+04;  0.0000000E+00; -1.0438303E-01;  4.0000000E+04;  0.0000000E+00;  3.9620332E+04;  2.7626071E+00;  0.0000000E+00; -2.7758116E-01;  6.0320713E+03;
  1.0984240E+00;  9.9999998E-03; -2.5114414E-01;8185;  5.8544433E-01;  0.0000000E+00;  9.1834195E-02;  9.9569666E+02;  1.6824278E-01; -3.5620627E+03;3;  9.0112801E+01;  0.0000000E+00; -3.4083740E+01;0;  7.7462786E-01;  1.4146125E+04;  0.0000000E+00; -1.1169093E+00;  4.0000000E+04;  0.0000000E+00;  3.9656578E+04;  6.4803219E-01;  0.0000000E+00;  1.2659566E-01;  1.0513638E+04;
  1.0977061E+00;  9.9999998E-03; -1.9081631E-01;8191;  4.7017968E-01;  0.0000000E+00;  9.7449049E-02;  9.9319238E+02;  1.6834602E-01; -5.6350278E+03;3;  7.4360146E+01;  0.0000000E+00; -3.1962339E+01;0;  1.5863394E+00;  1.4050995E+04;  0.0000000E+00;  5.3752923E-01;  4.0000000E+04;  0.0000000E+00;  3.9632746E+04;  1.6061635E+00;  0.0000000E+00; -1.9824116E-02;  7.4547710E+03;
  1.0979810E+00;  9.9999998E-03; -1.8075363E-01;8192;  4.5179471E-01;  0.0000000E+00;  9.6343711E-02;  9.9247040E+02;  1.6833043E-01; -6.2326348E+03;3;  7.0533951E+01;  0.0000000E+00; -3.1984388E+01;0;  1.7496120E+00;  1.4033398E+04;  0.0000000E+00;  5.3110284E-01;  4.0000000E+04;  0.0000000E+00;  3.9628676E+04;  1.8250923E+00;  0.0000000E+00; -7.5480379E-02;  7.0169922E+03;
  1.0992016E+00;  9.9999998E-03; -1.5059952E-01;8195;  4.0154544E-01;  0.0000000E+00;  9.2034020E-02;  9.9072571E+02;  1.6824600E-01; -7.6766733E+03;3;  6.5558815E+01;  0.0000000E+00; -3.0980341E+01;0;  2.2975681E+00;  1.3997499E+04;  0.0000000E+00;  1.0206059E-01;  4.0000000E+04;  0.0000000E+00;  3.9620812E+04;  2.5318274E+00;  0.0000000E+00; -2.3425947E-01;  6.0440293E+03;
  1.0983036E+00;  9.9999998E-03; -1.7068797E-01;8193;  4.3429592E-01;  0.0000000E+00;  9.5013686E-02;  9.9178918E+02;  1.6831066E-01; -6.7964868E+03;3;  6.6944336E+01;  0.0000000E+00; -3.2331146E+01;0;  1.9223197E+00;  1.4017660E+04;  0.0000000E+00;  4.4875976E-01;  4.0000000E+04;  0.0000000E+00;  3.9625020E+04;  2.0535750E+00;  0.0000000E+00; -1.3125543E-01;  6.5896226E+03;
  1.0987450E+00;  9.9999998E-03; -1.6063417E-01;8194;  4.1761568E-01;  0.0000000E+00;  9.3689337E-02;  9.9119940E+02;  1.6827677E-01; -7.2846377E+03;3;  6.4445816E+01;  0.0000000E+00; -3.2619183E+01;0;  2.1070559E+00;  1.4006274E+04;  0.0000000E+00;  2.9745269E-01;  4.0000000E+04;  0.0000000E+00;  3.9622402E+04;  2.2920506E+00;  0.0000000E+00; -1.8499467E-01;  6.2368457E+03;
  1.0993382E+00;  9.9999998E-03; -2.6117939E-01;8184;  6.0422981E-01;  0.0000000E+00;  7.9979137E-02;  9.9565289E+02;  1.6811816E-01; -3.5982322E+03;3;  9.1830307E+01;  0.0000000E+00; -3.7861084E+01;0;  7.2490758E-01;  1.4163483E+04;  0.0000000E+00; -1.7365142E+00;  4.0000000E+04;  0.0000000E+00;  3.9673871E+04;  5.5668813E-01;  0.0000000E+00;  1.6821943E-01;  1.2828216E+04;
  1.0998858E+00;  9.9999998E-03; -2.7122414E-01;8183;  6.2248588E-01;  0.0000000E+00;  5.6311943E-02;  9.9552808E+02;  1.6804460E-01; -3.7015159E+03;3;  9.2379822E+01;  0.0000000E+00; -4.2403820E+01;0;  8.3604580E-01;  1.4171363E+04;  0.0000000E+00; -2.2764597E+00;  4.0000000E+04;  0.0000000E+00;  3.9685707E+04;  4.6666452E-01;  0.0000000E+00;  3.6938128E-01;  1.4345904E+04;
  1.1166518E+00;  9.9999998E-03; -1.1060368E-01;8260;  3.8976440E-01;  0.0000000E+00;  8.8486187E-02;  9.9048425E+02;  1.6403563E-01; -7.8744204E+03;3; -8.4435760E+01;  0.0000000E+00; -4.2438273E+00;0;  4.0766988E+00;  1.4718635E+04;  0.0000000E+00; -3.6274302E-01;  4.0000000E+04;  0.0000000E+00;  3.9603250E+04;  4.4981561E+00;  0.0000000E+00; -4.2145738E-01;  3.3393032E+03;
  1.1149485E+00;  9.9999998E-03; -2.3107390E-01;8248;  5.4349095E-01;  0.0000000E+00;  1.2522408E-01;  9.9201221E+02;  1.6396926E-01; -6.6102036E+03;3;  8.8241173E+01;  0.0000000E+00; -2.2123997E+01;0;  1.5484849E+00;  1.4769134E+04;  0.0000000E+00;  4.6475884E-02;  4.0000000E+04;  0.0000000E+00;  3.9660930E+04;  1.5556933E+00;  0.0000000E+00; -7.2083576E-03;  1.0159387E+04;
  1.1146966E+00;  9.9999998E-03; -2.2097233E-01;8249;  5.2409935E-01;  0.0000000E+00;  1.2473926E-01;  9.9193530E+02;  1.6402295E-01; -6.6738618E+03;3;  8.4489853E+01;  0.0000000E+00; -2.4039610E+01;0;  1.7427900E+00;  1.4754803E+04;  0.0000000E+00;  1.5987757E-01;  4.0000000E+04;  0.0000000E+00;  3.9661043E+04;  1.7544752E+00;  0.0000000E+00; -1.1685233E-02;  1.0193485E+04;
  1.1146328E+00;  9.9999998E-03; -2.1090195E-01;8250;  5.0512183E-01;  0.0000000E+00;  1.2441934E-01;  9.9166748E+02;  1.6405475E-01; -6.8954878E+03;3;  7.9911140E+01;  0.0000000E+00; -2.5690254E+01;0;  1.9408728E+00;  1.4742591E+04;  0.0000000E+00;  1.6153918E-01;  4.0000000E+04;  0.0000000E+00;  3.9652887E+04;  1.9768145E+00;  0.0000000E+00; -3.5941705E-02;  9.2422383E+03;
  1.1165712E+00;  9.9999998E-03; -1.2063088E-01;8259;  3.8882264E-01;  0.0000000E+00;  9.4927162E-02;  9.9041772E+02;  1.6401732E-01; -7.9294771E+03;3; -6.6091057E+01;  0.0000000E+00; -4.4310818E+00;0;  3.8970034E+00;  1.4717600E+04;  0.0000000E+00; -3.8507679E-01;  4.0000000E+04;  0.0000000E+00;  3.9606645E+04;  4.2936363E+00;  0.0000000E+00; -3.9663297E-01;  3.8209670E+03;
  1.1146971E+00;  9.9999998E-03; -2.0085560E-01;8251;  4.8679700E-01;  0.0000000E+00;  1.2398149E-01;  9.9133862E+02;  1.6407408E-01; -7.1676577E+03;3;  7.5879395E+01;  0.0000000E+00; -2.6255928E+01;0;  2.1463084E+00;  1.4731349E+04;  0.0000000E+00;  1.0517255E-01;  4.0000000E+04;  0.0000000E+00;  3.9643242E+04;  2.2189102E+00;  0.0000000E+00; -7.2601900E-02;  8.1230425E+03;
  1.1154102E+00;  9.9999998E-03; -2.4114664E-01;8247;  5.6140184E-01;  0.0000000E+00;  1.2433256E-01;  9.9198962E+02;  1.6389179E-01; -6.6288452E+03;3;  8.7588615E+01;  0.0000000E+00; -2.5939644E+01;0;  1.3578786E+00;  1.4785770E+04;  0.0000000E+00; -2.5003257E-01;  4.0000000E+04;  0.0000000E+00;  3.9661457E+04;  1.3829178E+00;  0.0000000E+00; -2.5039153E-02;  1.0265455E+04;
  1.1148709E+00;  9.9999998E-03; -1.9081640E-01;8252;  4.6845299E-01;  0.0000000E+00;  1.2292752E-01;  9.9100940E+02;  1.6407785E-01; -7.4400586E+03;3;  7.4480247E+01;  0.0000000E+00; -2.4086977E+01;0;  2.3615208E+00;  1.4722201E+04;  0.0000000E+00;  2.3385366E-02;  4.0000000E+04;  0.0000000E+00;  3.9634828E+04;  2.4781549E+00;  0.0000000E+00; -1.1663417E-01;  7.1600137E+03;
  1.1164533E+00;  9.9999998E-03; -1.3064659E-01;8258;  3.8967690E-01;  0.0000000E+00;  1.0103671E-01;  9.9034906E+02;  1.6400622E-01; -7.9863145E+03;3; -4.1946129E+01;  0.0000000E+00; -6.0847511E+00;0;  3.7026169E+00;  1.4716561E+04;  0.0000000E+00; -3.8075089E-01;  4.0000000E+04;  0.0000000E+00;  3.9609414E+04;  4.0715280E+00;  0.0000000E+00; -3.6891106E-01;  4.1776396E+03;
  1.1151192E+00;  9.9999998E-03; -1.8077530E-01;8253;  4.5038068E-01;  0.0000000E+00;  1.2109851E-01;  9.9072357E+02;  1.6407095E-01; -7.6765898E+03;3;  7.1549095E+01;  0.0000000E+00; -2.3098135E+01;0;  2.5849948E+00;  1.4715692E+04;  0.0000000E+00; -6.7154258E-02;  4.0000000E+04;  0.0000000E+00;  3.9627707E+04;  2.7494035E+00;  0.0000000E+00; -1.6440870E-01;  6.3616914E+03;
  1.1162800E+00;  9.9999998E-03; -1.4064983E-01;8257;  3.9377087E-01;  0.0000000E+00;  1.0681773E-01;  9.9029785E+02;  1.6400336E-01; -8.0287080E+03;3; -7.2354646E+00;  0.0000000E+00; -7.2793756E+00;0;  3.4946702E+00;  1.4715146E+04;  0.0000000E+00; -3.5060027E-01;  4.0000000E+04;  0.0000000E+00;  3.9611312E+04;  3.8319836E+00;  0.0000000E+00; -3.3731338E-01;  4.4682373E+03;
  1.1154164E+00;  9.9999998E-03; -1.7073314E-01;8254;  4.3304020E-01;  0.0000000E+00;  1.1868306E-01;  9.9049786E+02;  1.6405417E-01; -7.8632939E+03;3;  6.8161224E+01;  0.0000000E+00; -2.2100588E+01;0;  2.8142049E+00;  1.4712379E+04;  0.0000000E+00; -1.5543877E-01;  4.0000000E+04;  0.0000000E+00;  3.9621879E+04;  3.0269485E+00;  0.0000000E+00; -2.1274360E-01;  5.7008867E+03;
  1.1159809E+00;  9.9999998E-03; -1.5066573E-01;8256;  4.0279731E-01;  0.0000000E+00;  1.1172590E-01;  9.9028827E+02;  1.6402175E-01; -8.0366904E+03;3;  3.4549389E+01;  0.0000000E+00; -1.3709849E+01;0;  3.2711382E+00;  1.4711749E+04;  0.0000000E+00; -2.9933861E-01;  4.0000000E+04;  0.0000000E+00;  3.9613836E+04;  3.5716913E+00;  0.0000000E+00; -3.0055299E-01;  4.7812627E+03;
  1.1156937E+00;  9.9999998E-03; -1.6069210E-01;8255;  4.1673684E-01;  0.0000000E+00;  1.1563458E-01;  9.9035437E+02;  1.6403843E-01; -7.9820293E+03;3;  5.9605785E+01;  0.0000000E+00; -1.9861233E+01;0;  3.0433447E+00;  1.4710783E+04;  0.0000000E+00; -2.3333798E-01;  4.0000000E+04;  0.0000000E+00;  3.9617332E+04;  3.3020785E+00;  0.0000000E+00; -2.5873381E-01;  5.1784629E+03;
  1.1160668E+00;  9.9999998E-03; -2.5117883E-01;8246;  5.7966655E-01;  0.0000000E+00;  1.1997314E-01;  9.9202502E+02;  1.6378388E-01; -6.5994722E+03;3;  9.3019661E+01;  0.0000000E+00; -2.6424738E+01;0;  1.1832013E+00;  1.4804627E+04;  0.0000000E+00; -8.1330085E-01;  4.0000000E+04;  0.0000000E+00;  3.9676531E+04;  1.2341322E+00;  0.0000000E+00; -5.0930806E-02;  1.2218824E+04;
  1.1169292E+00;  9.9999998E-03; -2.6120532E-01;8245;  5.9811425E-01;  0.0000000E+00;  1.1137761E-01;  9.9206384E+02;  1.6363868E-01; -6.5672632E+03;3;  9.2806602E+01;  0.0000000E+00; -2.5960398E+01;0;  1.0501918E+00;  1.4825842E+04;  0.0000000E+00; -1.7113619E+00;  4.0000000E+04;  0.0000000E+00;  3.9701148E+04;  1.1076864E+00;  0.0000000E+00; -5.7494592E-02;  1.5415609E+04;
  1.1175302E+00;  9.9999998E-03; -2.7123490E-01;8244;  6.1581802E-01;  0.0000000E+00;  9.3405999E-02;  9.9209064E+02;  1.6353737E-01; -6.5449985E+03;3;  9.2473381E+01;  0.0000000E+00; -3.5561256E+01;0;  1.0354211E+00;  1.4837501E+04;  0.0000000E+00; -2.7922323E+00;  4.0000000E+04;  0.0000000E+00;  3.9728707E+04;  9.8527008E-01;  0.0000000E+00;  5.0151061E-02;  1.9022750E+04;
  1.1330051E+00;  9.9999998E-03; -1.1066078E-01;8321;  5.2845889E-01;  0.0000000E+00;  8.3244555E-02;  9.9212799E+02;  1.5968810E-01; -6.5120620E+03;3; -1.2403716E+02;  0.0000000E+00;  1.1705935E+01;0;  4.9971213E+00;  1.5584157E+04;  0.0000000E+00; -1.3919035E-01;  4.0000000E+04;  0.0000000E+00;  3.9587027E+04;  5.4293799E+00;  0.0000000E+00; -4.3225858E-01;  7.2486328E+02;
  1.1328975E+00;  9.9999998E-03; -1.2066799E-01;8320;  5.2099109E-01;  0.0000000E+00;  8.9851558E-02;  9.9187610E+02;  1.5968466E-01; -6.7204526E+03;3; -1.1283369E+02;  0.0000000E+00;  1.2021167E+01;0;  4.8190269E+00;  1.5574212E+04;  0.0000000E+00; -2.6526874E-01;  4.0000000E+04;  0.0000000E+00;  3.9592344E+04;  5.2318263E+00;  0.0000000E+00; -4.1279915E-01;  1.4258881E+03;
  1.1327183E+00;  9.9999998E-03; -1.3068381E-01;8319;  5.1243085E-01;  0.0000000E+00;  9.6277289E-02;  9.9157251E+02;  1.5969138E-01; -6.9716543E+03;3; -1.0043868E+02;  0.0000000E+00;  1.2255952E+01;0;  4.6222272E+00;  1.5561889E+04;  0.0000000E+00; -4.0458754E-01;  4.0000000E+04;  0.0000000E+00;  3.9596773E+04;  5.0135016E+00;  0.0000000E+00; -3.9127466E-01;  2.2547244E+03;
  1.1324753E+00;  9.9999998E-03; -1.4070338E-01;8318;  5.0341207E-01;  0.0000000E+00;  1.0250001E-01;  9.9123828E+02;  1.5970375E-01; -7.2481621E+03;3; -8.6702209E+01;  0.0000000E+00;  1.2056066E+01;0;  4.4086246E+00;  1.5548093E+04;  0.0000000E+00; -5.4465574E-01;  4.0000000E+04;  0.0000000E+00;  3.9600918E+04;  4.7753534E+00;  0.0000000E+00; -3.6672872E-01;  3.0988118E+03;
  1.1321919E+00;  9.9999998E-03; -1.5074743E-01;8317;  4.9459630E-01;  0.0000000E+00;  1.0839898E-01;  9.9090790E+02;  1.5972157E-01; -7.5215254E+03;3; -7.1632195E+01;  0.0000000E+00;  1.1863419E+01;0;  4.1811175E+00;  1.5533868E+04;  0.0000000E+00; -6.6963655E-01;  4.0000000E+04;  0.0000000E+00;  3.9605410E+04;  4.5191579E+00;  0.0000000E+00; -3.3804044E-01;  3.9476538E+03;
  1.1319584E+00;  9.9999998E-03; -1.6080415E-01;8316;  4.8719278E-01;  0.0000000E+00;  1.1395828E-01;  9.9062146E+02;  1.5973157E-01; -7.7585425E+03;3; -5.4944317E+01;  0.0000000E+00;  1.1141185E+01;0;  3.9468966E+00;  1.5522759E+04;  0.0000000E+00; -7.5678021E-01;  4.0000000E+04;  0.0000000E+00;  3.9610676E+04;  4.2518330E+00;  0.0000000E+00; -3.0493641E-01;  4.7782324E+03;
  1.1317661E+00;  9.9999998E-03; -1.7084824E-01;8315;  4.8125929E-01;  0.0000000E+00;  1.1932772E-01;  9.9039227E+02;  1.5973382E-01; -7.9481685E+03;3; -3.5065098E+01;  0.0000000E+00;  1.1841190E+01;0;  3.7084165E+00;  1.5514785E+04;  0.0000000E+00; -7.7896488E-01;  4.0000000E+04;  0.0000000E+00;  3.9616973E+04;  3.9766498E+00;  0.0000000E+00; -2.6823330E-01;  5.5620361E+03;
  1.1315303E+00;  9.9999998E-03; -1.8087779E-01;8314;  4.7722095E-01;  0.0000000E+00;  1.2514380E-01;  9.9022217E+02;  1.5973991E-01; -8.0889380E+03;3; -9.3915138E+00;  0.0000000E+00;  1.3295909E+01;0;  3.4631004E+00;  1.5507232E+04;  0.0000000E+00; -7.1835208E-01;  4.0000000E+04;  0.0000000E+00;  3.9624375E+04;  3.6926913E+00;  0.0000000E+00; -2.2959085E-01;  6.2981787E+03;
  1.1313109E+00;  9.9999998E-03; -1.9090056E-01;8313;  4.7944251E-01;  0.0000000E+00;  1.3096158E-01;  9.9011353E+02;  1.5974057E-01; -8.1788677E+03;3;  2.6141354E+01;  0.0000000E+00;  1.0893393E+01;0;  3.2144284E+00;  1.5502265E+04;  0.0000000E+00; -5.7713759E-01;  4.0000000E+04;  0.0000000E+00;  3.9632879E+04;  3.4065282E+00;  0.0000000E+00; -1.9209985E-01;  7.0423779E+03;
  1.1311882E+00;  9.9999998E-03; -2.0092511E-01;8312;  4.9028414E-01;  0.0000000E+00;  1.3519199E-01;  9.9006812E+02;  1.5972254E-01; -8.2164141E+03;3;  5.5017593E+01;  0.0000000E+00;  4.4489393E+00;0;  2.9668517E+00;  1.5501987E+04;  0.0000000E+00; -3.7644821E-01;  4.0000000E+04;  0.0000000E+00;  3.9642902E+04;  3.1263251E+00;  0.0000000E+00; -1.5947348E-01;  7.9128008E+03;
  1.1312044E+00;  9.9999998E-03; -2.1096736E-01;8311;  5.0579953E-01;  0.0000000E+00;  1.3773124E-01;  9.9007123E+02;  1.5968287E-01; -8.2138467E+03;3;  6.9891014E+01;  0.0000000E+00;  3.7651032E-02;0;  2.7239175E+00;  1.5506614E+04;  0.0000000E+00; -1.6161822E-01;  4.0000000E+04;  0.0000000E+00;  3.9654074E+04;  2.8595643E+00;  0.0000000E+00; -1.3564679E-01;  8.9485459E+03;
  1.1313689E+00;  9.9999998E-03; -2.2103946E-01;8310;  5.2282441E-01;  0.0000000E+00;  1.3911520E-01;  9.9005573E+02;  1.5962219E-01; -8.2266387E+03;3;  7.7805214E+01;  0.0000000E+00; -3.1027193E+00;0;  2.4857442E+00;  1.5515191E+04;  0.0000000E+00; -6.6838325E-03;  4.0000000E+04;  0.0000000E+00;  3.9662977E+04;  2.6111271E+00;  0.0000000E+00; -1.2538287E-01;  9.8263477E+03;
  1.1316795E+00;  9.9999998E-03; -2.3113865E-01;8309;  5.3970456E-01;  0.0000000E+00;  1.3939279E-01;  9.8993219E+02;  1.5954734E-01; -8.3287998E+03;3;  8.1737587E+01;  0.0000000E+00; -6.5620174E+00;0;  2.2506411E+00;  1.5527013E+04;  0.0000000E+00; -1.7277781E-02;  4.0000000E+04;  0.0000000E+00;  3.9663574E+04;  2.3841670E+00;  0.0000000E+00; -1.3352595E-01;  9.8139072E+03;
  1.1321129E+00;  9.9999998E-03; -2.4120694E-01;8308;  5.5629361E-01;  0.0000000E+00;  1.3929965E-01;  9.8977936E+02;  1.5946002E-01; -8.4551494E+03;3;  8.7983231E+01;  0.0000000E+00; -7.0237513E+00;0;  2.0137241E+00;  1.5541132E+04;  0.0000000E+00; -3.3169109E-01;  4.0000000E+04;  0.0000000E+00;  3.9664730E+04;  2.1804199E+00;  0.0000000E+00; -1.6669573E-01;  9.9817588E+03;
  1.1326698E+00;  9.9999998E-03; -2.5123698E-01;8307;  5.7334310E-01;  0.0000000E+00;  1.3798948E-01;  9.8973248E+02;  1.5935558E-01; -8.4937998E+03;3;  9.3610649E+01;  0.0000000E+00; -8.3451300E+00;0;  1.7751225E+00;  1.5557443E+04;  0.0000000E+00; -1.1118068E+00;  4.0000000E+04;  0.0000000E+00;  3.9678684E+04;  2.0002191E+00;  0.0000000E+00; -2.2509654E-01;  1.1888524E+04;
  1.1333879E+00;  9.9999998E-03; -2.6125801E-01;8306;  5.9030825E-01;  0.0000000E+00;  1.3267060E-01;  9.8974310E+02;  1.5921767E-01; -8.4848877E+03;3;  9.1151543E+01;  0.0000000E+00; -1.8403744E+01;0;  1.5629855E+00;  1.5577214E+04;  0.0000000E+00; -2.4971745E+00;  4.0000000E+04;  0.0000000E+00;  3.9703672E+04;  1.8449235E+00;  0.0000000E+00; -2.8193796E-01;  1.5449982E+04;
  1.1339505E+00;  9.9999998E-03; -2.7127689E-01;8305;  6.0722381E-01;  0.0000000E+00;  1.1928355E-01;  9.8978937E+02;  1.5910466E-01; -8.4465176E+03;3;  9.6168388E+01;  0.0000000E+00; -2.4681011E+01;0;  1.4501430E+00;  1.5589509E+04;  0.0000000E+00; -4.2307897E+00;  4.0000000E+04;  0.0000000E+00;  3.9737391E+04;  1.6986995E+00;  0.0000000E+00; -2.4855651E-01;  2.0351502E+04;
  1.1486958E+00;  9.9999998E-03; -1.1071090E-01;8382;  6.7536592E-01;  0.0000000E+00;  7.0354410E-02;  9.9425830E+02;  1.5537784E-01; -4.7479307E+03;3; -1.4013161E+02;  0.0000000E+00;  2.0089298E+01;0;  5.6084013E+00;  1.6536186E+04;  0.0000000E+00;  1.1445135E-01;  4.0000000E+04;  0.0000000E+00;  3.9570668E+04;  6.0180902E+00;  0.0000000E+00; -4.0968871E-01;  3.0007080E+03;
  1.1485302E+00;  9.9999998E-03; -1.2072773E-01;8381;  6.6433150E-01;  0.0000000E+00;  7.6287769E-02;  9.9387256E+02;  1.5539248E-01; -5.0668984E+03;3; -1.3173390E+02;  0.0000000E+00;  2.1392576E+01;0;  5.4540558E+00;  1.6517566E+04;  0.0000000E+00; -8.9139260E-02;  4.0000000E+04;  0.0000000E+00;  3.9577285E+04;  5.8505692E+00;  0.0000000E+00; -3.9651346E-01;  2.2559990E+03;
  1.1483064E+00;  9.9999998E-03; -1.3073620E-01;8380;  6.5134680E-01;  0.0000000E+00;  8.2192197E-02;  9.9340472E+02;  1.5541478E-01; -5.4537974E+03;3; -1.2236316E+02;  0.0000000E+00;  2.2466928E+01;0;  5.2823792E+00;  1.6495572E+04;  0.0000000E+00; -3.4336266E-01;  4.0000000E+04;  0.0000000E+00;  3.9583297E+04;  5.6646190E+00;  0.0000000E+00; -3.8224003E-01;  2.0604319E+03;
  1.1480720E+00;  9.9999998E-03; -1.4075740E-01;8379;  6.3727051E-01;  0.0000000E+00;  8.8036925E-02;  9.9287421E+02;  1.5543377E-01; -5.8925547E+03;3; -1.1189976E+02;  0.0000000E+00;  2.3755039E+01;0;  5.0951056E+00;  1.6473025E+04;  0.0000000E+00; -6.2535077E-01;  4.0000000E+04;  0.0000000E+00;  3.9589246E+04;  5.4610457E+00;  0.0000000E+00; -3.6593989E-01;  2.5703447E+03;
  1.1478505E+00;  9.9999998E-03; -1.5081543E-01;8378;  6.2259400E-01;  0.0000000E+00;  9.3735598E-02;  9.9233563E+02;  1.5544686E-01; -6.3379697E+03;3; -1.0066799E+02;  0.0000000E+00;  2.4311386E+01;0;  4.8939624E+00;  1.6451330E+04;  0.0000000E+00; -9.0320361E-01;  4.0000000E+04;  0.0000000E+00;  3.9595527E+04;  5.2405300E+00;  0.0000000E+00; -3.4656745E-01;  3.4656021E+03;
  1.1476539E+00;  9.9999998E-03; -1.6088846E-01;8377;  6.0743999E-01;  0.0000000E+00;  9.9205695E-02;  9.9179956E+02;  1.5545027E-01; -6.7813154E+03;3; -8.8469505E+01;  0.0000000E+00;  2.5184534E+01;0;  4.6815948E+00;  1.6431695E+04;  0.0000000E+00; -1.1334410E+00;  4.0000000E+04;  0.0000000E+00;  3.9602793E+04;  5.0051765E+00;  0.0000000E+00; -3.2358187E-01;  4.4442495E+03;
  1.1474624E+00;  9.9999998E-03; -1.7095752E-01;8376;  5.9159243E-01;  0.0000000E+00;  1.0446113E-01;  9.9129620E+02;  1.5544711E-01; -7.1975552E+03;3; -7.5633537E+01;  0.0000000E+00;  2.5400393E+01;0;  4.4595652E+00;  1.6414268E+04;  0.0000000E+00; -1.2705286E+00;  4.0000000E+04;  0.0000000E+00;  3.9610906E+04;  4.7568526E+00;  0.0000000E+00; -2.9728740E-01;  5.3380630E+03;
  1.1472571E+00;  9.9999998E-03; -1.8101102E-01;8375;  5.7535613E-01;  0.0000000E+00;  1.0961489E-01;  9.9082831E+02;  1.5544124E-01; -7.5845244E+03;3; -6.1780388E+01;  0.0000000E+00;  2.5953243E+01;0;  4.2291899E+00;  1.6398145E+04;  0.0000000E+00; -1.2830472E+00;  4.0000000E+04;  0.0000000E+00;  3.9619395E+04;  4.4980202E+00;  0.0000000E+00; -2.6883033E-01;  6.0567734E+03;
  1.1470708E+00;  9.9999998E-03; -1.9104363E-01;8374;  5.6028056E-01;  0.0000000E+00;  1.1458079E-01;  9.9041400E+02;  1.5543188E-01; -7.9271802E+03;3; -4.7035042E+01;  0.0000000E+00;  2.6267237E+01;0;  3.9936905E+00;  1.6384225E+04;  0.0000000E+00; -1.1640663E+00;  4.0000000E+04;  0.0000000E+00;  3.9628234E+04;  4.2339873E+00;  0.0000000E+00; -2.4029683E-01;  6.6024185E+03;
  1.1469718E+00;  9.9999998E-03; -2.0106441E-01;8373;  5.4823422E-01;  0.0000000E+00;  1.1947827E-01;  9.9007971E+02;  1.5540835E-01; -8.2036729E+03;3; -3.0163849E+01;  0.0000000E+00;  2.6961609E+01;0;  3.7572293E+00;  1.6375065E+04;  0.0000000E+00; -9.4784862E-01;  4.0000000E+04;  0.0000000E+00;  3.9637469E+04;  3.9721923E+00;  0.0000000E+00; -2.1496287E-01;  7.1219463E+03;
  1.1469990E+00;  9.9999998E-03; -2.1108893E-01;8372;  5.4088974E-01;  0.0000000E+00;  1.2470746E-01;  9.8981927E+02;  1.5536408E-01; -8.4190166E+03;3; -7.8376317E+00;  0.0000000E+00;  2.9556610E+01;0;  3.5208991E+00;  1.6371792E+04;  0.0000000E+00; -7.1025050E-01;  4.0000000E+04;  0.0000000E+00;  3.9647871E+04;  3.7186882E+00;  0.0000000E+00; -1.9778909E-01;  7.8220610E+03;
  1.1471483E+00;  9.9999998E-03; -2.2113846E-01;8371;  5.3977585E-01;  0.0000000E+00;  1.2993355E-01;  9.8959406E+02;  1.5530466E-01; -8.6052500E+03;3;  2.4371199E+01;  0.0000000E+00;  2.9596895E+01;0;  3.2812726E+00;  1.6373061E+04;  0.0000000E+00; -5.6254297E-01;  4.0000000E+04;  0.0000000E+00;  3.9656758E+04;  3.4765892E+00;  0.0000000E+00; -1.9531663E-01;  8.5569492E+03;
  1.1474344E+00;  9.9999998E-03; -2.3121470E-01;8370;  5.4602575E-01;  0.0000000E+00;  1.3456045E-01;  9.8932446E+02;  1.5522829E-01; -8.8281201E+03;3;  5.4809380E+01;  0.0000000E+00;  2.4238052E+01;0;  3.0341930E+00;  1.6379312E+04;  0.0000000E+00; -6.4844841E-01;  4.0000000E+04;  0.0000000E+00;  3.9658828E+04;  3.2494907E+00;  0.0000000E+00; -2.1529759E-01;  8.7248809E+03;
  1.1477937E+00;  9.9999998E-03; -2.4127251E-01;8369;  5.5634081E-01;  0.0000000E+00;  1.3791226E-01;  9.8905414E+02;  1.5514821E-01; -9.0515596E+03;3;  7.3701675E+01;  0.0000000E+00;  1.8220516E+01;0;  2.7755880E+00;  1.6387660E+04;  0.0000000E+00; -1.1429923E+00;  4.0000000E+04;  0.0000000E+00;  3.9660199E+04;  3.0385079E+00;  0.0000000E+00; -2.6291981E-01;  9.0612588E+03;
  1.1482080E+00;  9.9999998E-03; -2.5130540E-01;8368;  5.6883651E-01;  0.0000000E+00;  1.3979007E-01;  9.8884479E+02;  1.5506163E-01; -9.2245576E+03;3;  8.4360100E+01;  0.0000000E+00;  1.1455014E+01;0;  2.5041761E+00;  1.6396693E+04;  0.0000000E+00; -2.2116227E+00;  4.0000000E+04;  0.0000000E+00;  3.9668758E+04;  2.8451576E+00;  0.0000000E+00; -3.4098142E-01;  1.0728576E+04;
  1.1486135E+00;  9.9999998E-03; -2.6132512E-01;8367;  5.8202654E-01;  0.0000000E+00;  1.3901132E-01;  9.8871887E+02;  1.5497948E-01; -9.3285996E+03;3;  8.9616257E+01;  0.0000000E+00;  2.6785252E+00;0;  2.2323554E+00;  1.6403277E+04;  0.0000000E+00; -3.8728840E+00;  4.0000000E+04;  0.0000000E+00;  3.9688027E+04;  2.6674106E+00;  0.0000000E+00; -4.3505517E-01;  1.4275556E+04;
  1.1489512E+00;  9.9999998E-03; -2.7133733E-01;8366;  5.9660095E-01;  0.0000000E+00;  1.3278264E-01;  9.8867889E+02;  1.5490851E-01; -9.3615820E+03;3;  9.6559853E+01;  0.0000000E+00; -7.0439467E+00;0;  2.0147920E+00;  1.6405266E+04;  0.0000000E+00; -5.7383900E+00;  4.0000000E+04;  0.0000000E+00;  3.9720805E+04;  2.5024862E+00;  0.0000000E+00; -4.8769429E-01;  1.9470188E+04;
  1.1636509E+00;  9.9999998E-03; -1.1073595E-01;8443;  8.1096679E-01;  0.0000000E+00;  5.5452704E-02;  9.9647296E+02;  1.5120625E-01; -2.9151995E+03;3; -1.4382481E+02;  0.0000000E+00;  2.4440693E+01;0;  5.8661809E+00;  1.7546693E+04;  0.0000000E+00;  2.9382187E-01;  4.0000000E+04;  0.0000000E+00;  3.9554750E+04;  6.2268867E+00;  0.0000000E+00; -3.6070570E-01;  5.8302222E+03;
  1.1635020E+00;  9.9999998E-03; -1.2076489E-01;8442;  7.9874945E-01;  0.0000000E+00;  6.0231380E-02;  9.9602911E+02;  1.5122403E-01; -3.2820430E+03;3; -1.3863396E+02;  0.0000000E+00;  2.6444002E+01;0;  5.7536554E+00;  1.7524535E+04;  0.0000000E+00;  7.3772997E-02;  4.0000000E+04;  0.0000000E+00;  3.9562234E+04;  6.1075659E+00;  0.0000000E+00; -3.5391042E-01;  4.8624170E+03;
  1.1633812E+00;  9.9999998E-03; -1.3078360E-01;8441;  7.8554362E-01;  0.0000000E+00;  6.4950556E-02;  9.9549652E+02;  1.5123536E-01; -3.7222920E+03;3; -1.3256389E+02;  0.0000000E+00;  2.8240377E+01;0;  5.6275020E+00;  1.7501641E+04;  0.0000000E+00; -2.2212455E-01;  4.0000000E+04;  0.0000000E+00;  3.9569309E+04;  5.9742970E+00;  0.0000000E+00; -3.4679502E-01;  4.0742148E+03;
  1.1633016E+00;  9.9999998E-03; -1.4082253E-01;8440;  7.7107358E-01;  0.0000000E+00;  6.9576241E-02;  9.9490430E+02;  1.5123558E-01; -4.2118042E+03;3; -1.2564477E+02;  0.0000000E+00;  2.9921919E+01;0;  5.4880881E+00;  1.7479295E+04;  0.0000000E+00; -5.6989080E-01;  4.0000000E+04;  0.0000000E+00;  3.9576539E+04;  5.8268466E+00;  0.0000000E+00; -3.3875865E-01;  3.6178020E+03;
  1.1631848E+00;  9.9999998E-03; -1.5088867E-01;8439;  7.5429887E-01;  0.0000000E+00;  7.4240990E-02;  9.9425543E+02;  1.5123473E-01; -4.7481274E+03;3; -1.1801532E+02;  0.0000000E+00;  3.1468693E+01;0;  5.3349309E+00;  1.7455061E+04;  0.0000000E+00; -9.3188918E-01;  4.0000000E+04;  0.0000000E+00;  3.9584809E+04;  5.6641035E+00;  0.0000000E+00; -3.2917270E-01;  3.6179893E+03;
  1.1629612E+00;  9.9999998E-03; -1.6096449E-01;8438;  7.3454237E-01;  0.0000000E+00;  7.9000093E-02;  9.9357562E+02;  1.5124463E-01; -5.3100439E+03;3; -1.0994398E+02;  0.0000000E+00;  3.2550179E+01;0;  5.1672435E+00;  1.7426859E+04;  0.0000000E+00; -1.2579521E+00;  4.0000000E+04;  0.0000000E+00;  3.9594078E+04;  5.4845638E+00;  0.0000000E+00; -3.1732026E-01;  4.0442495E+03;
  1.1627182E+00;  9.9999998E-03; -1.7103200E-01;8437;  7.1328980E-01;  0.0000000E+00;  8.3755575E-02;  9.9290088E+02;  1.5124689E-01; -5.8677861E+03;3; -1.0131144E+02;  0.0000000E+00;  3.3801277E+01;0;  4.9875040E+00;  1.7399564E+04;  0.0000000E+00; -1.4938544E+00;  4.0000000E+04;  0.0000000E+00;  3.9603895E+04;  5.2902312E+00;  0.0000000E+00; -3.0272746E-01;  4.6868579E+03;
  1.1625141E+00;  9.9999998E-03; -1.8108724E-01;8436;  6.9151294E-01;  0.0000000E+00;  8.8350937E-02;  9.9225989E+02;  1.5123573E-01; -6.3976919E+03;3; -9.2547112E+01;  0.0000000E+00;  3.4535797E+01;0;  4.7986774E+00;  1.7376045E+04;  0.0000000E+00; -1.5963529E+00;  4.0000000E+04;  0.0000000E+00;  3.9613941E+04;  5.0845246E+00;  0.0000000E+00; -2.8584737E-01;  5.3064829E+03;
  1.1623857E+00;  9.9999998E-03; -1.9113371E-01;8435;  6.7052031E-01;  0.0000000E+00;  9.2812046E-02;  9.9167200E+02;  1.5120958E-01; -6.8836411E+03;3; -8.3629707E+01;  0.0000000E+00;  3.5273563E+01;0;  4.6036758E+00;  1.7357770E+04;  0.0000000E+00; -1.5618391E+00;  4.0000000E+04;  0.0000000E+00;  3.9623402E+04;  4.8717160E+00;  0.0000000E+00; -2.6804033E-01;  5.7843169E+03;
  1.1623245E+00;  9.9999998E-03; -2.0117079E-01;8434;  6.5087140E-01;  0.0000000E+00;  9.7042754E-02;  9.9114233E+02;  1.5117373E-01; -7.3214438E+03;3; -7.4930420E+01;  0.0000000E+00;  3.6077721E+01;0;  4.4042897E+00;  1.7343588E+04;  0.0000000E+00; -1.4402776E+00;  4.0000000E+04;  0.0000000E+00;  3.9632020E+04;  4.6556458E+00;  0.0000000E+00; -2.5135598E-01;  6.1652007E+03;
  1.1623254E+00;  9.9999998E-03; -2.1120416E-01;8433;  6.3291937E-01;  0.0000000E+00;  1.0106475E-01;  9.9067639E+02;  1.5113252E-01; -7.7065654E+03;3; -6.6555824E+01;  0.0000000E+00;  3.6181080E+01;0;  4.2016058E+00;  1.7332809E+04;  0.0000000E+00; -1.3313448E+00;  4.0000000E+04;  0.0000000E+00;  3.9640000E+04;  4.4401627E+00;  0.0000000E+00; -2.3855689E-01;  6.5899790E+03;
  1.1624200E+00;  9.9999998E-03; -2.2124146E-01;8432;  6.1774057E-01;  0.0000000E+00;  1.0495540E-01;  9.9027325E+02;  1.5108436E-01; -8.0397822E+03;3; -5.7787361E+01;  0.0000000E+00;  3.7697945E+01;0;  3.9968829E+00;  1.7325793E+04;  0.0000000E+00; -1.3706503E+00;  4.0000000E+04;  0.0000000E+00;  3.9646426E+04;  4.2303181E+00;  0.0000000E+00; -2.3343517E-01;  7.1367461E+03;
  1.1625506E+00;  9.9999998E-03; -2.3128949E-01;8431;  6.0348564E-01;  0.0000000E+00;  1.0896727E-01;  9.8988000E+02;  1.5104018E-01; -8.3647588E+03;3; -4.9060902E+01;  0.0000000E+00;  3.8724594E+01;0;  3.7861509E+00;  1.7319508E+04;  0.0000000E+00; -1.7067987E+00;  4.0000000E+04;  0.0000000E+00;  3.9649797E+04;  4.0274348E+00;  0.0000000E+00; -2.4128397E-01;  7.6749624E+03;
  1.1626725E+00;  9.9999998E-03; -2.4133529E-01;8430;  5.8953571E-01;  0.0000000E+00;  1.1423782E-01;  9.8948206E+02;  1.5100800E-01; -8.6936758E+03;3; -3.2180222E+01;  0.0000000E+00;  4.3725143E+01;0;  3.5592434E+00;  1.7311924E+04;  0.0000000E+00; -2.4534802E+00;  4.0000000E+04;  0.0000000E+00;  3.9650777E+04;  3.8325334E+00;  0.0000000E+00; -2.7328995E-01;  8.4664502E+03;
  1.1628090E+00;  9.9999998E-03; -2.5137052E-01;8429;  5.8092737E-01;  0.0000000E+00;  1.2146423E-01;  9.8910437E+02;  1.5097722E-01; -9.0057861E+03;3;  1.8484924E+01;  0.0000000E+00;  4.6206596E+01;0;  3.2975485E+00;  1.7304350E+04;  0.0000000E+00; -3.6556513E+00;  4.0000000E+04;  0.0000000E+00;  3.9653543E+04;  3.6475284E+00;  0.0000000E+00; -3.4997979E-01;  1.0175080E+04;
  1.1631352E+00;  9.9999998E-03; -2.6139313E-01;8428;  5.8209336E-01;  0.0000000E+00;  1.2705314E-01;  9.8879327E+02;  1.5090823E-01; -9.2628506E+03;3;  5.7290714E+01;  0.0000000E+00;  3.7661995E+01;0;  3.0163481E+00;  1.7304652E+04;  0.0000000E+00; -5.3856606E+00;  4.0000000E+04;  0.0000000E+00;  3.9665035E+04;  3.4818280E+00;  0.0000000E+00; -4.6547985E-01;  1.3562710E+04;
  1.1635250E+00;  9.9999998E-03; -2.7140617E-01;8427;  5.8933574E-01;  0.0000000E+00;  1.2905484E-01;  9.8858734E+02;  1.5083024E-01; -9.4329346E+03;3;  8.2047707E+01;  0.0000000E+00;  2.5885902E+01;0;  2.7470801E+00;  1.7305410E+04;  0.0000000E+00; -7.1792741E+00;  4.0000000E+04;  0.0000000E+00;  3.9690133E+04;  3.3318102E+00;  0.0000000E+00; -5.8473015E-01;  1.8150342E+04;
  1.1769716E+00;  9.9999998E-03; -2.0125541E-01;8495;  7.5926071E-01;  0.0000000E+00;  7.3574133E-02;  9.9280383E+02;  1.4717387E-01; -5.9447554E+03;3; -1.0175427E+02;  0.0000000E+00;  4.0027069E+01;0;  4.8324876E+00;  1.8364057E+04;  0.0000000E+00; -1.6581562E+00;  4.0000000E+04;  0.0000000E+00;  3.9625340E+04;  5.1023235E+00;  0.0000000E+00; -2.6983607E-01;  4.9128579E+03;
  1.1770817E+00;  9.9999998E-03; -1.9121507E-01;8496;  7.8236920E-01;  0.0000000E+00;  6.9709815E-02;  9.9342957E+02;  1.4719903E-01; -5.4278154E+03;3; -1.0616522E+02;  0.0000000E+00;  3.9602009E+01;0;  4.9780788E+00;  1.8386045E+04;  0.0000000E+00; -1.6317265E+00;  4.0000000E+04;  0.0000000E+00;  3.9617352E+04;  5.2546806E+00;  0.0000000E+00; -2.7660173E-01;  4.5231270E+03;
  1.1769598E+00;  9.9999998E-03; -2.1128638E-01;8494;  7.3770934E-01;  0.0000000E+00;  7.7251986E-02;  9.9223718E+02;  1.4713524E-01; -6.4128267E+03;3; -9.7649033E+01;  0.0000000E+00;  4.0639206E+01;0;  4.6823163E+00;  1.8348000E+04;  0.0000000E+00; -1.7472553E+00;  4.0000000E+04;  0.0000000E+00;  3.9631789E+04;  4.9466796E+00;  0.0000000E+00; -2.6436338E-01;  5.3721216E+03;
  1.1772990E+00;  9.9999998E-03; -1.8116769E-01;8497;  8.0665594E-01;  0.0000000E+00;  6.5726146E-02;  9.9410968E+02;  1.4720613E-01; -4.8659033E+03;3; -1.1079523E+02;  0.0000000E+00;  3.8812164E+01;0;  5.1171427E+00;  1.8414787E+04;  0.0000000E+00; -1.5556806E+00;  4.0000000E+04;  0.0000000E+00;  3.9607270E+04;  5.4000759E+00;  0.0000000E+00; -2.8293329E-01;  4.1454370E+03;
  1.1770303E+00;  9.9999998E-03; -2.2131434E-01;8493;  7.1795738E-01;  0.0000000E+00;  8.0920763E-02;  9.9173346E+02;  1.4708988E-01; -6.8289771E+03;3; -9.4428490E+01;  0.0000000E+00;  4.0548271E+01;0;  4.5281992E+00;  1.8336105E+04;  0.0000000E+00; -2.0529776E+00;  4.0000000E+04;  0.0000000E+00;  3.9636758E+04;  4.7908769E+00;  0.0000000E+00; -2.6267782E-01;  6.0655044E+03;
  1.1772016E+00;  9.9999998E-03; -2.3134539E-01;8492;  7.0000625E-01;  0.0000000E+00;  8.4600896E-02;  9.9126807E+02;  1.4703701E-01; -7.2133828E+03;3; -9.1553619E+01;  0.0000000E+00;  4.0920498E+01;0;  4.3708072E+00;  1.8328264E+04;  0.0000000E+00; -2.7426004E+00;  4.0000000E+04;  0.0000000E+00;  3.9640527E+04;  4.6388369E+00;  0.0000000E+00; -2.6802966E-01;  7.2080205E+03;
  1.1776345E+00;  9.9999998E-03; -1.7111579E-01;8498;  8.3158761E-01;  0.0000000E+00;  6.1566085E-02;  9.9484283E+02;  1.4719018E-01; -4.2602065E+03;3; -1.1540972E+02;  0.0000000E+00;  3.7802563E+01;0;  5.2474360E+00;  1.8451131E+04;  0.0000000E+00; -1.3759662E+00;  4.0000000E+04;  0.0000000E+00;  3.9596055E+04;  5.5349393E+00;  0.0000000E+00; -2.8750321E-01;  3.9107402E+03;
  1.1774273E+00;  9.9999998E-03; -2.4138376E-01;8491;  6.8293506E-01;  0.0000000E+00;  8.8748172E-02;  9.9079938E+02;  1.4698526E-01; -7.6004731E+03;3; -8.9521065E+01;  0.0000000E+00;  3.9867516E+01;0;  4.2054415E+00;  1.8321158E+04;  0.0000000E+00; -3.9410386E+00;  4.0000000E+04;  0.0000000E+00;  3.9641273E+04;  4.4918900E+00;  0.0000000E+00; -2.8644839E-01;  9.0424893E+03;
  1.1779690E+00;  9.9999998E-03; -1.6106187E-01;8499;  8.5512149E-01;  0.0000000E+00;  5.7492226E-02;  9.9558771E+02;  1.4716533E-01; -3.6448281E+03;3; -1.1965321E+02;  0.0000000E+00;  3.6785183E+01;0;  5.3661594E+00;  1.8489480E+04;  0.0000000E+00; -1.0962380E+00;  4.0000000E+04;  0.0000000E+00;  3.9584410E+04;  5.6560044E+00;  0.0000000E+00; -2.8984511E-01;  4.0501941E+03;
  1.1781548E+00;  9.9999998E-03; -1.5100306E-01;8500;  8.7538099E-01;  0.0000000E+00;  5.3748846E-02;  9.9630157E+02;  1.4715637E-01; -3.0550903E+03;3; -1.2370058E+02;  0.0000000E+00;  3.5325249E+01;0;  5.4729023E+00;  1.8522279E+04;  0.0000000E+00; -7.5756878E-01;  4.0000000E+04;  0.0000000E+00;  3.9573605E+04;  5.7634625E+00;  0.0000000E+00; -2.9056031E-01;  4.6239443E+03;
  1.1776487E+00;  9.9999998E-03; -2.5142479E-01;8490;  6.6325021E-01;  0.0000000E+00;  9.4297908E-02;  9.9027393E+02;  1.4694043E-01; -8.0344312E+03;3; -8.8183853E+01;  0.0000000E+00;  3.6804466E+01;0;  4.0195718E+00;  1.8312695E+04;  0.0000000E+00; -5.6408286E+00;  4.0000000E+04;  0.0000000E+00;  3.9638699E+04;  4.3504319E+00;  0.0000000E+00; -3.3086002E-01;  1.1851392E+04;
  1.1782793E+00;  9.9999998E-03; -1.2079773E-01;8503;  9.2118889E-01;  0.0000000E+00;  4.3387827E-02;  9.9810309E+02;  1.4715292E-01; -1.5669507E+03;3; -1.3379730E+02;  0.0000000E+00;  2.9869431E+01;0;  5.7297173E+00;  1.8595594E+04;  0.0000000E+00;  1.5922070E-01;  4.0000000E+04;  0.0000000E+00;  3.9547301E+04;  6.0203476E+00;  0.0000000E+00; -2.9063028E-01;  7.3903696E+03;
  1.1782612E+00;  9.9999998E-03; -1.3085306E-01;8502;  9.0774196E-01;  0.0000000E+00;  4.6794612E-02;  9.9757678E+02;  1.4715375E-01; -2.0017102E+03;3; -1.3089745E+02;  0.0000000E+00;  3.1814589E+01;0;  5.6546416E+00;  1.8574395E+04;  0.0000000E+00; -9.3149148E-02;  4.0000000E+04;  0.0000000E+00;  3.9555176E+04;  5.9449086E+00;  0.0000000E+00; -2.9026696E-01;  6.4122896E+03;
  1.1782333E+00;  9.9999998E-03; -1.4093100E-01;8501;  8.9268017E-01;  0.0000000E+00;  5.0219212E-02;  9.9696741E+02;  1.4715394E-01; -2.5050581E+03;3; -1.2750220E+02;  0.0000000E+00;  3.3565102E+01;0;  5.5689402E+00;  1.8550152E+04;  0.0000000E+00; -4.0926737E-01;  4.0000000E+04;  0.0000000E+00;  3.9563844E+04;  5.8593779E+00;  0.0000000E+00; -2.9043752E-01;  5.4666069E+03;
  1.1783378E+00;  9.9999998E-03; -1.1074098E-01;8504;  9.3384856E-01;  0.0000000E+00;  3.9973035E-02;  9.9854388E+02;  1.4714618E-01; -1.2028438E+03;3; -1.3608784E+02;  0.0000000E+00;  2.7729441E+01;0;  5.7938805E+00;  1.8615316E+04;  0.0000000E+00;  3.3168858E-01;  4.0000000E+04;  0.0000000E+00;  3.9539766E+04;  6.0855603E+00;  0.0000000E+00; -2.9168010E-01;  8.3847451E+03;
  1.1779521E+00;  9.9999998E-03; -2.6145351E-01;8489;  6.4161718E-01;  0.0000000E+00;  1.0087758E-01;  9.8978394E+02;  1.4687996E-01; -8.4391035E+03;3; -8.7280441E+01;  0.0000000E+00;  3.4278458E+01;0;  3.8067341E+00;  1.8307789E+04;  0.0000000E+00; -7.7539010E+00;  4.0000000E+04;  0.0000000E+00;  3.9642352E+04;  4.2198510E+00;  0.0000000E+00; -4.1311693E-01;  1.5973223E+04;
  1.1782945E+00;  9.9999998E-03; -2.7147219E-01;8488;  6.1958688E-01;  0.0000000E+00;  1.0635816E-01;  9.8936548E+02;  1.4681427E-01; -8.7846670E+03;3; -7.8048531E+01;  0.0000000E+00;  3.2162785E+01;0;  3.5825100E+00;  1.8302656E+04;  0.0000000E+00; -9.6137524E+00;  4.0000000E+04;  0.0000000E+00;  3.9657664E+04;  4.0997553E+00;  0.0000000E+00; -5.1724523E-01;  2.0146416E+04;
  1.1912929E+00;  9.9999998E-03; -2.1135090E-01;8555;  8.4321344E-01;  0.0000000E+00;  5.3672221E-02;  9.9407678E+02;  1.4332913E-01; -4.8897935E+03;3; -1.1352613E+02;  0.0000000E+00;  4.3181732E+01;0;  4.9434648E+00;  1.9413482E+04;  0.0000000E+00; -1.8637983E+00;  4.0000000E+04;  0.0000000E+00;  3.9621652E+04;  5.2182789E+00;  0.0000000E+00; -2.7481422E-01;  4.0546143E+03;
  1.1913441E+00;  9.9999998E-03; -2.2136934E-01;8554;  8.2284278E-01;  0.0000000E+00;  5.7062943E-02;  9.9353937E+02;  1.4329809E-01; -5.3334150E+03;3; -1.1319937E+02;  0.0000000E+00;  4.3786407E+01;0;  4.8510647E+00;  1.9396174E+04;  0.0000000E+00; -2.4692192E+00;  4.0000000E+04;  0.0000000E+00;  3.9625414E+04;  5.1294837E+00;  0.0000000E+00; -2.7841884E-01;  5.1270088E+03;
  1.1913899E+00;  9.9999998E-03; -2.0132083E-01;8556;  8.6571479E-01;  0.0000000E+00;  5.0216284E-02;  9.9468225E+02;  1.4333986E-01; -4.3899414E+03;3; -1.1432799E+02;  0.0000000E+00;  4.2847855E+01;0;  5.0308118E+00;  1.9439209E+04;  0.0000000E+00; -1.5336933E+00;  4.0000000E+04;  0.0000000E+00;  3.9617055E+04;  5.3025661E+00;  0.0000000E+00; -2.7175406E-01;  3.4287051E+03;
  1.1914957E+00;  9.9999998E-03; -2.3138745E-01;8553;  8.0387717E-01;  0.0000000E+00;  6.0622547E-02;  9.9305658E+02;  1.4325544E-01; -5.7319326E+03;3; -1.1304040E+02;  0.0000000E+00;  4.3886597E+01;0;  4.7540903E+00;  1.9383861E+04;  0.0000000E+00; -3.5089631E+00;  4.0000000E+04;  0.0000000E+00;  3.9629059E+04;  5.0387702E+00;  0.0000000E+00; -2.8467986E-01;  7.0023804E+03;
  1.1915972E+00;  9.9999998E-03; -1.9127966E-01;8557;  8.8935012E-01;  0.0000000E+00;  4.6731032E-02;  9.9534027E+02;  1.4333479E-01; -3.8466736E+03;3; -1.1522984E+02;  0.0000000E+00;  4.2454647E+01;0;  5.1107731E+00;  1.9471805E+04;  0.0000000E+00; -1.3363165E+00;  4.0000000E+04;  0.0000000E+00;  3.9609605E+04;  5.3787084E+00;  0.0000000E+00; -2.6793516E-01;  3.0606230E+03;
  1.1917287E+00;  9.9999998E-03; -2.4141903E-01;8552;  7.8587961E-01;  0.0000000E+00;  6.4733855E-02;  9.9255975E+02;  1.4320637E-01; -6.1420283E+03;3; -1.1295180E+02;  0.0000000E+00;  4.3762978E+01;0;  4.6505294E+00;  1.9374068E+04;  0.0000000E+00; -5.1220622E+00;  4.0000000E+04;  0.0000000E+00;  3.9629977E+04;  4.9483299E+00;  0.0000000E+00; -2.9780036E-01;  9.9522529E+03;
  1.1918607E+00;  9.9999998E-03; -1.8123087E-01;8558;  9.1325784E-01;  0.0000000E+00;  4.3245282E-02;  9.9603247E+02;  1.4332102E-01; -3.2752136E+03;3; -1.1634933E+02;  0.0000000E+00;  4.1880543E+01;0;  5.1816330E+00;  1.9509146E+04;  0.0000000E+00; -1.1656795E+00;  4.0000000E+04;  0.0000000E+00;  3.9599523E+04;  5.4441819E+00;  0.0000000E+00; -2.6254869E-01;  3.0880671E+03;
  1.1919881E+00;  9.9999998E-03; -2.5146368E-01;8551;  7.6604128E-01;  0.0000000E+00;  7.0510142E-02;  9.9196338E+02;  1.4315933E-01; -6.6342251E+03;3; -1.1292812E+02;  0.0000000E+00;  4.3507774E+01;0;  4.5289898E+00;  1.9364061E+04;  0.0000000E+00; -7.2912197E+00;  4.0000000E+04;  0.0000000E+00;  3.9624664E+04;  4.8589616E+00;  0.0000000E+00; -3.2997185E-01;  1.4057318E+04;
  1.1921456E+00;  9.9999998E-03; -1.7118227E-01;8559;  9.3668294E-01;  0.0000000E+00;  3.9876755E-02;  9.9674719E+02;  1.4329843E-01; -2.6851675E+03;3; -1.1734474E+02;  0.0000000E+00;  4.1229549E+01;0;  5.2425790E+00;  1.9549523E+04;  0.0000000E+00; -9.6189284E-01;  4.0000000E+04;  0.0000000E+00;  3.9587730E+04;  5.4978929E+00;  0.0000000E+00; -2.5531390E-01;  3.6955481E+03;
  1.1924255E+00;  9.9999998E-03; -1.6113564E-01;8560;  9.5886528E-01;  0.0000000E+00;  3.6651321E-02;  9.9746027E+02;  1.4327073E-01; -2.0965176E+03;3; -1.1817989E+02;  0.0000000E+00;  4.0285576E+01;0;  5.2936387E+00;  1.9591330E+04;  0.0000000E+00; -7.1589583E-01;  4.0000000E+04;  0.0000000E+00;  3.9575062E+04;  5.5400891E+00;  0.0000000E+00; -2.4645042E-01;  4.7750020E+03;
  1.1922615E+00;  9.9999998E-03; -2.6149920E-01;8550;  7.4233639E-01;  0.0000000E+00;  7.8106992E-02;  9.9135675E+02;  1.4310762E-01; -7.1349146E+03;3; -1.1390087E+02;  0.0000000E+00;  4.2139519E+01;0;  4.3745060E+00;  1.9354367E+04;  0.0000000E+00; -9.7058105E+00;  4.0000000E+04;  0.0000000E+00;  3.9622238E+04;  4.7716603E+00;  0.0000000E+00; -3.9715457E-01;  1.8966805E+04;
  1.1926900E+00;  9.9999998E-03; -1.5107521E-01;8561;  9.7951460E-01;  0.0000000E+00;  3.3644546E-02;  9.9816302E+02;  1.4323919E-01; -1.5163495E+03;3; -1.1874150E+02;  0.0000000E+00;  3.9257694E+01;0;  5.3351665E+00;  1.9632379E+04;  0.0000000E+00; -4.5451233E-01;  4.0000000E+04;  0.0000000E+00;  3.9562816E+04;  5.5717773E+00;  0.0000000E+00; -2.3661108E-01;  6.0686353E+03;
  1.1928408E+00;  9.9999998E-03; -1.1071964E-01;8565;  1.0402305E+00;  0.0000000E+00;  2.3923799E-02;  1.0002821E+03;  1.4323230E-01;  2.3282086E+02;3; -1.1920000E+02;  0.0000000E+00;  3.3129288E+01;0;  5.4394178E+00;  1.9725506E+04;  0.0000000E+00;  2.1953084E-01;  4.0000000E+04;  0.0000000E+00;  3.9526531E+04;  5.6489906E+00;  0.0000000E+00; -2.0957279E-01;  1.0509577E+04;
  1.1928993E+00;  9.9999998E-03; -1.2080480E-01;8564;  1.0278072E+00;  0.0000000E+00;  2.6108766E-02;  9.9988861E+02;  1.4322011E-01; -9.1957062E+01;3; -1.1937983E+02;  0.0000000E+00;  3.4977852E+01;0;  5.4210529E+00;  1.9712672E+04;  0.0000000E+00;  1.3346146E-01;  4.0000000E+04;  0.0000000E+00;  3.9533879E+04;  5.6343093E+00;  0.0000000E+00; -2.1325658E-01;  9.5714375E+03;
  1.1926185E+00;  9.9999998E-03; -2.7152503E-01;8549;  7.1844691E-01;  0.0000000E+00;  8.5560359E-02;  9.9078296E+02;  1.4304268E-01; -7.6083945E+03;3; -1.1528145E+02;  0.0000000E+00;  3.9402164E+01;0;  4.1959209E+00;  1.9346932E+04;  0.0000000E+00; -1.1689185E+01;  4.0000000E+04;  0.0000000E+00;  3.9629348E+04;  4.6895757E+00;  0.0000000E+00; -4.9365449E-01;  2.3241215E+04;
  1.1928812E+00;  9.9999998E-03; -1.4099723E-01;8562;  9.9805117E-01;  0.0000000E+00;  3.0870140E-02;  9.9881836E+02;  1.4321466E-01; -9.7541498E+02;3; -1.1908215E+02;  0.0000000E+00;  3.8145542E+01;0;  5.3687501E+00;  1.9668320E+04;  0.0000000E+00; -2.1164732E-01;  4.0000000E+04;  0.0000000E+00;  3.9551742E+04;  5.5957708E+00;  0.0000000E+00; -2.2702061E-01;  7.3602026E+03;
  1.1929339E+00;  9.9999998E-03; -1.3090852E-01;8563;  1.0139571E+00;  0.0000000E+00;  2.8398860E-02;  9.9939911E+02;  1.4321066E-01; -4.9599649E+02;3; -1.1933485E+02;  0.0000000E+00;  3.6718750E+01;0;  5.3972368E+00;  1.9694439E+04;  0.0000000E+00; -1.1489568E-02;  4.0000000E+04;  0.0000000E+00;  3.9542164E+04;  5.6163116E+00;  0.0000000E+00; -2.1907470E-01;  8.5322275E+03;
  1.2054981E+00;  9.9999998E-03; -2.2135836E-01;8615;  9.2585301E-01;  0.0000000E+00;  3.3835765E-02;  9.9545422E+02;  1.3966729E-01; -3.7494985E+03;3; -1.1816601E+02;  0.0000000E+00;  4.6485008E+01;0;  4.9541426E+00;  2.0501074E+04;  0.0000000E+00; -2.6257350E+00;  4.0000000E+04;  0.0000000E+00;  3.9619691E+04;  5.2332048E+00;  0.0000000E+00; -2.7906221E-01;  4.6513618E+03;
  1.2056191E+00;  9.9999998E-03; -2.3138765E-01;8614;  9.0853816E-01;  0.0000000E+00;  3.7115119E-02;  9.9497290E+02;  1.3964105E-01; -4.1465146E+03;3; -1.2005879E+02;  0.0000000E+00;  4.6502945E+01;0;  4.9212222E+00;  2.0483605E+04;  0.0000000E+00; -4.1337132E+00;  4.0000000E+04;  0.0000000E+00;  3.9622973E+04;  5.2087016E+00;  0.0000000E+00; -2.8747934E-01;  7.4391279E+03;
  1.2054571E+00;  9.9999998E-03; -2.1133877E-01;8616;  9.4405299E-01;  0.0000000E+00;  3.0778987E-02;  9.9595508E+02;  1.3968344E-01; -3.3364309E+03;3; -1.1630344E+02;  0.0000000E+00;  4.6012489E+01;0;  4.9817977E+00;  2.0522887E+04;  0.0000000E+00; -1.6685799E+00;  4.0000000E+04;  0.0000000E+00;  3.9614941E+04;  5.2511973E+00;  0.0000000E+00; -2.6939955E-01;  2.9520640E+03;
  1.2055006E+00;  9.9999998E-03; -2.0132016E-01;8617;  9.6356386E-01;  0.0000000E+00;  2.7810318E-02;  9.9650702E+02;  1.3968860E-01; -2.8811128E+03;3; -1.1485691E+02;  0.0000000E+00;  4.5677330E+01;0;  5.0030646E+00;  2.0550121E+04;  0.0000000E+00; -1.0957817E+00;  4.0000000E+04;  0.0000000E+00;  3.9609051E+04;  5.2609043E+00;  0.0000000E+00; -2.5783953E-01;  2.1056377E+03;
  1.2058117E+00;  9.9999998E-03; -2.4143286E-01;8613;  8.9163315E-01;  0.0000000E+00;  4.0925279E-02;  9.9443896E+02;  1.3960670E-01; -4.5868647E+03;3; -1.2203118E+02;  0.0000000E+00;  4.6889835E+01;0;  4.8827052E+00;  2.0468670E+04;  0.0000000E+00; -6.3423595E+00;  4.0000000E+04;  0.0000000E+00;  3.9621355E+04;  5.1794310E+00;  0.0000000E+00; -2.9672578E-01;  1.1657431E+04;
  1.2056384E+00;  9.9999998E-03; -1.9129507E-01;8618;  9.8404986E-01;  0.0000000E+00;  2.4884388E-02;  9.9710779E+02;  1.3967897E-01; -2.3855667E+03;3; -1.1333887E+02;  0.0000000E+00;  4.5295002E+01;0;  5.0165181E+00;  2.0584020E+04;  0.0000000E+00; -7.6189744E-01;  4.0000000E+04;  0.0000000E+00;  3.9601496E+04;  5.2606831E+00;  0.0000000E+00; -2.4416482E-01;  2.1426587E+03;
  1.2060431E+00;  9.9999998E-03; -2.5148731E-01;8612;  8.7251288E-01;  0.0000000E+00;  4.6369512E-02;  9.9378827E+02;  1.3956951E-01; -5.1234995E+03;3; -1.2424920E+02;  0.0000000E+00;  4.7029900E+01;0;  4.8294430E+00;  2.0454652E+04;  0.0000000E+00; -9.2266340E+00;  4.0000000E+04;  0.0000000E+00;  3.9612754E+04;  5.1463699E+00;  0.0000000E+00; -3.1692708E-01;  1.7439145E+04;
  1.2063142E+00;  9.9999998E-03; -2.6153097E-01;8611;  8.4913069E-01;  0.0000000E+00;  5.3962577E-02;  9.9310364E+02;  1.3952279E-01; -5.6880752E+03;3; -1.2718980E+02;  0.0000000E+00;  4.7050720E+01;0;  4.7446594E+00;  2.0442301E+04;  0.0000000E+00; -1.2427057E+01;  4.0000000E+04;  0.0000000E+00;  3.9605906E+04;  5.1098723E+00;  0.0000000E+00; -3.6521304E-01;  2.4127156E+04;
  1.2058916E+00;  9.9999998E-03; -1.8125837E-01;8619;  1.0055770E+00;  0.0000000E+00;  2.1956280E-02;  9.9774280E+02;  1.3964918E-01; -1.8617954E+03;3; -1.1184876E+02;  0.0000000E+00;  4.4776009E+01;0;  5.0205255E+00;  2.0625914E+04;  0.0000000E+00; -5.5226314E-01;  4.0000000E+04;  0.0000000E+00;  3.9591426E+04;  5.2487793E+00;  0.0000000E+00; -2.2825365E-01;  2.9945317E+03;
  1.2062138E+00;  9.9999998E-03; -1.7120829E-01;8620;  1.0272985E+00;  0.0000000E+00;  1.9064909E-02;  9.9840454E+02;  1.3960880E-01; -1.3159127E+03;3; -1.1007867E+02;  0.0000000E+00;  4.4269722E+01;0;  5.0149565E+00;  2.0672578E+04;  0.0000000E+00; -3.9553565E-01;  4.0000000E+04;  0.0000000E+00;  3.9579285E+04;  5.2253685E+00;  0.0000000E+00; -2.1041198E-01;  4.3355352E+03;
  1.2066989E+00;  9.9999998E-03; -2.7156496E-01;8610;  8.2494837E-01;  0.0000000E+00;  6.2643111E-02;  9.9240051E+02;  1.3945602E-01; -6.2678228E+03;3; -1.3025719E+02;  0.0000000E+00;  4.5323692E+01;0;  4.6225653E+00;  2.0433297E+04;  0.0000000E+00; -1.5132215E+01;  4.0000000E+04;  0.0000000E+00;  3.9606535E+04;  5.0718989E+00;  0.0000000E+00; -4.4933349E-01;  2.9889301E+04;
  1.2065520E+00;  9.9999998E-03; -1.6115175E-01;8621;  1.0483139E+00;  0.0000000E+00;  1.6357336E-02;  9.9906488E+02;  1.3956338E-01; -7.7128143E+02;3; -1.0813854E+02;  0.0000000E+00;  4.3604931E+01;0;  5.0009151E+00;  2.0719910E+04;  0.0000000E+00; -2.5943998E-01;  4.0000000E+04;  0.0000000E+00;  3.9566035E+04;  5.1923661E+00;  0.0000000E+00; -1.9145106E-01;  5.8975220E+03;
  1.2069265E+00;  9.9999998E-03; -1.1071331E-01;8626;  1.1257702E+00;  0.0000000E+00;  7.5788866E-03;  1.0015663E+03;  1.3954175E-01;  1.2918112E+03;3; -9.6614189E+01;  0.0000000E+00;  3.8540466E+01;0;  4.8890886E+00;  2.0845584E+04;  0.0000000E+00;  1.2670851E-02;  4.0000000E+04;  0.0000000E+00;  3.9516023E+04;  5.0121255E+00;  0.0000000E+00; -1.2303708E-01;  1.2077719E+04;
  1.2070359E+00;  9.9999998E-03; -1.2078287E-01;8625;  1.1140703E+00;  0.0000000E+00;  8.8442639E-03;  1.0012339E+03;  1.3951550E-01;  1.0176907E+03;3; -9.8966698E+01;  0.0000000E+00;  3.9624565E+01;0;  4.9113593E+00;  2.0838771E+04;  0.0000000E+00;  1.2573537E-02;  4.0000000E+04;  0.0000000E+00;  3.9522750E+04;  5.0418720E+00;  0.0000000E+00; -1.3051264E-01;  1.1211806E+04;
  1.2068634E+00;  9.9999998E-03; -1.5108028E-01;8622;  1.0679755E+00;  0.0000000E+00;  1.3938923E-02;  9.9970801E+02;  1.3952187E-01; -2.4083301E+02;3; -1.0590657E+02;  0.0000000E+00;  4.2841637E+01;0;  4.9800968E+00;  2.0764764E+04;  0.0000000E+00; -1.4330888E-01;  4.0000000E+04;  0.0000000E+00;  3.9552965E+04;  5.1526523E+00;  0.0000000E+00; -1.7255564E-01;  7.4802378E+03;
  1.2070963E+00;  9.9999998E-03; -1.3087849E-01;8624;  1.1007543E+00;  0.0000000E+00;  1.0243143E-02;  1.0008105E+03;  1.3949744E-01;  6.6846210E+02;3; -1.0128810E+02;  0.0000000E+00;  4.0833225E+01;0;  4.9336362E+00;  2.0824783E+04;  0.0000000E+00; -8.9200521E-03;  4.0000000E+04;  0.0000000E+00;  3.9531090E+04;  5.0749102E+00;  0.0000000E+00; -1.4127415E-01;  1.0177631E+04;
  1.2070489E+00;  9.9999998E-03; -1.4098617E-01;8623;  1.0854727E+00;  0.0000000E+00;  1.1908791E-02;  1.0002959E+03;  1.3949846E-01;  2.4402534E+02;3; -1.0361575E+02;  0.0000000E+00;  4.1855064E+01;0;  4.9568501E+00;  2.0800381E+04;  0.0000000E+00; -5.9012726E-02;  4.0000000E+04;  0.0000000E+00;  3.9541238E+04;  5.1122894E+00;  0.0000000E+00; -1.5543947E-01;  8.9325312E+03;
  1.2194066E+00;  9.9999998E-03; -2.3137265E-01;8675;  1.0071626E+00;  0.0000000E+00;  1.5494061E-02;  9.9675165E+02;  1.3623048E-01; -2.6766274E+03;3; -1.1664757E+02;  0.0000000E+00;  4.7893230E+01;0;  4.8774891E+00;  2.1604426E+04;  0.0000000E+00; -4.4504623E+00;  4.0000000E+04;  0.0000000E+00;  3.9617105E+04;  5.1543298E+00;  0.0000000E+00; -2.7684084E-01;  7.5160381E+03;
  1.2195987E+00;  9.9999998E-03; -2.4143374E-01;8674;  9.9255514E-01;  0.0000000E+00;  1.9028999E-02;  9.9619080E+02;  1.3620427E-01; -3.1387434E+03;3; -1.2053830E+02;  0.0000000E+00;  4.8779278E+01;0;  4.9001427E+00;  2.1587078E+04;  0.0000000E+00; -7.4751287E+00;  4.0000000E+04;  0.0000000E+00;  3.9613508E+04;  5.1852026E+00;  0.0000000E+00; -2.8505978E-01;  1.3298801E+04;
  1.2192628E+00;  9.9999998E-03; -2.2133714E-01;8676;  1.0211328E+00;  0.0000000E+00;  1.2678858E-02;  9.9719312E+02;  1.3624957E-01; -2.3129141E+03;3; -1.1341034E+02;  0.0000000E+00;  4.7386494E+01;0;  4.8504491E+00;  2.1623848E+04;  0.0000000E+00; -2.4266915E+00;  4.0000000E+04;  0.0000000E+00;  3.9612586E+04;  5.1160350E+00;  0.0000000E+00; -2.6558575E-01;  3.8361777E+03;
  1.2198254E+00;  9.9999998E-03; -2.5149766E-01;8673;  9.7531354E-01;  0.0000000E+00;  2.3859672E-02;  9.9551270E+02;  1.3617182E-01; -3.6973904E+03;3; -1.2448673E+02;  0.0000000E+00;  4.9054119E+01;0;  4.9123311E+00;  2.1571025E+04;  0.0000000E+00; -1.1545978E+01;  4.0000000E+04;  0.0000000E+00;  3.9602980E+04;  5.2085943E+00;  0.0000000E+00; -2.9626334E-01;  2.1427088E+04;
  1.2192082E+00;  9.9999998E-03; -2.1132676E-01;8677;  1.0356951E+00;  0.0000000E+00;  1.0019575E-02;  9.9762524E+02;  1.3625577E-01; -1.9568407E+03;3; -1.1010338E+02;  0.0000000E+00;  4.6997494E+01;0;  4.8190746E+00;  2.1647898E+04;  0.0000000E+00; -1.1761534E+00;  4.0000000E+04;  0.0000000E+00;  3.9605832E+04;  5.0690441E+00;  0.0000000E+00; -2.4996944E-01;  2.0170167E+03;
  1.2192631E+00;  9.9999998E-03; -2.0132211E-01;8678;  1.0515895E+00;  0.0000000E+00;  7.4354787E-03;  9.9810553E+02;  1.3624710E-01; -1.5610647E+03;3; -1.0703963E+02;  0.0000000E+00;  4.6381756E+01;0;  4.7811322E+00;  2.1678137E+04;  0.0000000E+00; -4.5277005E-01;  4.0000000E+04;  0.0000000E+00;  3.9599344E+04;  5.0118055E+00;  0.0000000E+00; -2.3067324E-01;  1.9653965E+03;
  1.2201130E+00;  9.9999998E-03; -2.6154917E-01;8672;  9.5289832E-01;  0.0000000E+00;  3.0853122E-02;  9.9477386E+02;  1.3612430E-01; -4.3060894E+03;3; -1.2937741E+02;  0.0000000E+00;  4.8785725E+01;0;  4.8956456E+00;  2.1557797E+04;  0.0000000E+00; -1.6321817E+01;  4.0000000E+04;  0.0000000E+00;  3.9593859E+04;  5.2230725E+00;  0.0000000E+00; -3.2742703E-01;  3.1152896E+04;
  1.2194353E+00;  9.9999998E-03; -1.9130677E-01;8679;  1.0688043E+00;  0.0000000E+00;  4.9089445E-03;  9.9864020E+02;  1.3622092E-01; -1.1204895E+03;3; -1.0375578E+02;  0.0000000E+00;  4.5617599E+01;0;  4.7349000E+00;  2.1715641E+04;  0.0000000E+00; -7.4909642E-02;  4.0000000E+04;  0.0000000E+00;  3.9592293E+04;  4.9431334E+00;  0.0000000E+00; -2.0823343E-01;  2.7689238E+03;
  1.2204914E+00;  9.9999998E-03; -2.7159131E-01;8671;  9.2751527E-01;  0.0000000E+00;  3.9887507E-02;  9.9396594E+02;  1.3605693E-01; -4.9716406E+03;3; -1.3447427E+02;  0.0000000E+00;  4.8701710E+01;0;  4.8323631E+00;  2.1547311E+04;  0.0000000E+00; -2.0457693E+01;  4.0000000E+04;  0.0000000E+00;  3.9590281E+04;  5.2280865E+00;  0.0000000E+00; -3.9572346E-01;  3.9544645E+04;
  1.2196963E+00;  9.9999998E-03; -1.8127677E-01;8680;  1.0869840E+00;  0.0000000E+00;  2.5221165E-03;  9.9920386E+02;  1.3618346E-01; -6.5600348E+02;3; -1.0026882E+02;  0.0000000E+00;  4.4983452E+01;0;  4.6802297E+00;  2.1758664E+04;  0.0000000E+00;  8.7708667E-02;  4.0000000E+04;  0.0000000E+00;  3.9582992E+04;  4.8635235E+00;  0.0000000E+00; -1.8329388E-01;  3.9265837E+03;
  1.2205011E+00;  9.9999998E-03; -1.1071000E-01;8687;  1.1907153E+00;  0.0000000E+00; -8.3238743E-03;  1.0024128E+03;  1.3611721E-01;  1.9879672E+03;3; -7.1238792E+01;  0.0000000E+00;  4.0920593E+01;0;  4.2383051E+00;  2.1951146E+04;  0.0000000E+00; -2.0973419E-01;  4.0000000E+04;  0.0000000E+00;  3.9508078E+04;  4.2774110E+00;  0.0000000E+00; -3.9105903E-02;  1.3068801E+04;
  1.2200054E+00;  9.9999998E-03; -1.7122443E-01;8681;  1.1054262E+00;  0.0000000E+00;  2.2094822E-04;  9.9978247E+02;  1.3613990E-01; -1.7925826E+02;3; -9.6412643E+01;  0.0000000E+00;  4.4351200E+01;0;  4.6182470E+00;  2.1804566E+04;  0.0000000E+00;  1.3030130E-01;  4.0000000E+04;  0.0000000E+00;  3.9571293E+04;  4.7749782E+00;  0.0000000E+00; -1.5673099E-01;  5.3589468E+03;
  1.2205930E+00;  9.9999998E-03; -1.2077083E-01;8686;  1.1803463E+00;  0.0000000E+00; -7.2347596E-03;  1.0021447E+03;  1.3608977E-01;  1.7670576E+03;3; -7.5364006E+01;  0.0000000E+00;  4.1497349E+01;0;  4.2951150E+00;  2.1947186E+04;  0.0000000E+00; -1.5222561E-01;  4.0000000E+04;  0.0000000E+00;  3.9514484E+04;  4.3444471E+00;  0.0000000E+00; -4.9332358E-02;  1.2265958E+04;
  1.2203071E+00;  9.9999998E-03; -1.6114470E-01;8682;  1.1233788E+00;  0.0000000E+00; -1.8561356E-03;  1.0003497E+03;  1.3609838E-01;  2.8818124E+02;3; -9.2323837E+01;  0.0000000E+00;  4.3839321E+01;0;  4.5513792E+00;  2.1849508E+04;  0.0000000E+00;  1.1382651E-01;  4.0000000E+04;  0.0000000E+00;  3.9558027E+04;  4.6812468E+00;  0.0000000E+00; -1.2986736E-01;  6.9623862E+03;
  1.2206539E+00;  9.9999998E-03; -1.3084495E-01;8685;  1.1685427E+00;  0.0000000E+00; -6.1838338E-03;  1.0018021E+03;  1.3606894E-01;  1.4847689E+03;3; -7.9547546E+01;  0.0000000E+00;  4.1905239E+01;0;  4.3545232E+00;  2.1936947E+04;  0.0000000E+00; -7.8729995E-02;  4.0000000E+04;  0.0000000E+00;  3.9522828E+04;  4.4181037E+00;  0.0000000E+00; -6.3580528E-02;  1.1262923E+04;
  1.2205312E+00;  9.9999998E-03; -1.5104699E-01;8683;  1.1400601E+00;  0.0000000E+00; -3.6241333E-03;  1.0008856E+03;  1.3606977E-01;  7.2967249E+02;3; -8.8042305E+01;  0.0000000E+00;  4.3186573E+01;0;  4.4834366E+00;  2.1888291E+04;  0.0000000E+00;  6.7223541E-02;  4.0000000E+04;  0.0000000E+00;  3.9544836E+04;  4.5878716E+00;  0.0000000E+00; -1.0443511E-01;  8.5683994E+03;
  1.2206452E+00;  9.9999998E-03; -1.4093943E-01;8684;  1.1551514E+00;  0.0000000E+00; -5.0301603E-03;  1.0013779E+03;  1.3605954E-01;  1.1353082E+03;3; -8.3774284E+01;  0.0000000E+00;  4.2475094E+01;0;  4.4172821E+00;  2.1917861E+04;  0.0000000E+00; -3.7937242E-04;  4.0000000E+04;  0.0000000E+00;  3.9532879E+04;  4.4992948E+00;  0.0000000E+00; -8.2012877E-02;  1.0028098E+04;
  1.2333699E+00;  9.9999998E-03; -2.5149783E-01;8734;  1.0688865E+00;  0.0000000E+00;  3.9073108E-03;  9.9696069E+02;  1.3298187E-01; -2.5012532E+03;3; -1.1641158E+02;  0.0000000E+00;  4.8994659E+01;0;  4.7976398E+00;  2.2692756E+04;  0.0000000E+00; -1.4358149E+01;  4.0000000E+04;  0.0000000E+00;  3.9595809E+04;  5.0668373E+00;  0.0000000E+00; -2.6919743E-01;  2.5595834E+04;
  1.2332866E+00;  9.9999998E-03; -2.4142368E-01;8735;  1.0852641E+00;  0.0000000E+00; -7.4348983E-04;  9.9765643E+02;  1.3299204E-01; -1.9287244E+03;3; -1.1074373E+02;  0.0000000E+00;  4.8541725E+01;0;  4.7273202E+00;  2.2716707E+04;  0.0000000E+00; -9.0405025E+00;  4.0000000E+04;  0.0000000E+00;  3.9607219E+04;  4.9892020E+00;  0.0000000E+00; -2.6188189E-01;  1.5462101E+04;
  1.2335202E+00;  9.9999998E-03; -2.6155835E-01;8733;  1.0461153E+00;  0.0000000E+00;  1.0534574E-02;  9.9621857E+02;  1.3295363E-01; -3.1119639E+03;3; -1.2357024E+02;  0.0000000E+00;  4.9761921E+01;0;  4.8399806E+00;  2.2673945E+04;  0.0000000E+00; -2.0516382E+01;  4.0000000E+04;  0.0000000E+00;  3.9585207E+04;  5.1293945E+00;  0.0000000E+00; -2.8941414E-01;  3.7431344E+04;
  1.2331741E+00;  9.9999998E-03; -2.3134792E-01;8736;  1.0978310E+00;  0.0000000E+00; -3.9019231E-03;  9.9825195E+02;  1.3300247E-01; -1.4386005E+03;3; -1.0552262E+02;  0.0000000E+00;  4.7712696E+01;0;  4.6484642E+00;  2.2740598E+04;  0.0000000E+00; -4.9423814E+00;  4.0000000E+04;  0.0000000E+00;  3.9611648E+04;  4.9022551E+00;  0.0000000E+00; -2.5379094E-01;  7.9184565E+03;
  1.2330079E+00;  9.9999998E-03; -2.2130029E-01;8737;  1.1078687E+00;  0.0000000E+00; -6.2351096E-03;  9.9870868E+02;  1.3301878E-01; -1.0627677E+03;3; -1.0115775E+02;  0.0000000E+00;  4.6810516E+01;0;  4.5697255E+00;  2.2761908E+04;  0.0000000E+00; -2.1994286E+00;  4.0000000E+04;  0.0000000E+00;  3.9606234E+04;  4.8091741E+00;  0.0000000E+00; -2.3944835E-01;  3.2495730E+03;
  1.2328826E+00;  9.9999998E-03; -2.1128367E-01;8738;  1.1176535E+00;  0.0000000E+00; -8.3505530E-03;  9.9910138E+02;  1.3302879E-01; -7.3955615E+02;3; -9.7144478E+01;  0.0000000E+00;  4.6012085E+01;0;  4.4899912E+00;  2.2783924E+04;  0.0000000E+00; -6.3019121E-01;  4.0000000E+04;  0.0000000E+00;  3.9597941E+04;  4.7086782E+00;  0.0000000E+00; -2.1868728E-01;  2.1041582E+03;
  1.2337985E+00;  9.9999998E-03; -2.7160865E-01;8732;  1.0189797E+00;  0.0000000E+00;  1.9015267E-02;  9.9537958E+02;  1.3289878E-01; -3.8023157E+03;3; -1.3126370E+02;  0.0000000E+00;  4.9937504E+01;0;  4.8348398E+00;  2.2659816E+04;  0.0000000E+00; -2.5929129E+01;  4.0000000E+04;  0.0000000E+00;  3.9579312E+04;  5.1735411E+00;  0.0000000E+00; -3.3870119E-01;  4.7661578E+04;
  1.2328500E+00;  9.9999998E-03; -2.0127669E-01;8739;  1.1285781E+00;  0.0000000E+00; -1.0295407E-02;  9.9951898E+02;  1.3302706E-01; -3.9587671E+02;3; -9.3083588E+01;  0.0000000E+00;  4.5278488E+01;0;  4.4059854E+00;  2.2809715E+04;  0.0000000E+00;  1.7139684E-01;  4.0000000E+04;  0.0000000E+00;  3.9590699E+04;  4.5991254E+00;  0.0000000E+00; -1.9314003E-01;  3.0037664E+03;
  1.2329247E+00;  9.9999998E-03; -1.9126695E-01;8740;  1.1409459E+00;  0.0000000E+00; -1.2156889E-02;  9.9995660E+02;  1.3301142E-01; -3.5712036E+01;3; -8.8806854E+01;  0.0000000E+00;  4.4412884E+01;0;  4.3159671E+00;  2.2840832E+04;  0.0000000E+00;  5.0777996E-01;  4.0000000E+04;  0.0000000E+00;  3.9583430E+04;  4.4799399E+00;  0.0000000E+00; -1.6397275E-01;  3.9596335E+03;
  1.2330978E+00;  9.9999998E-03; -1.8124416E-01;8741;  1.1545650E+00;  0.0000000E+00; -1.3909492E-02;  1.0004137E+03;  1.3298377E-01;  3.4043585E+02;3; -8.4046280E+01;  0.0000000E+00;  4.3982311E+01;0;  4.2196131E+00;  2.2877221E+04;  0.0000000E+00;  5.6743485E-01;  4.0000000E+04;  0.0000000E+00;  3.9574762E+04;  4.3519349E+00;  0.0000000E+00; -1.3232169E-01;  4.9877798E+03;
  1.2336625E+00;  9.9999998E-03; -1.1069505E-01;8748;  1.2376107E+00;  0.0000000E+00; -1.9089209E-02;  1.0028774E+03;  1.3296092E-01;  2.3679077E+03;3; -4.5313229E+01;  0.0000000E+00;  3.0204180E+01;0;  3.5601058E+00;  2.3031506E+04;  0.0000000E+00; -3.9043066E-01;  4.0000000E+04;  0.0000000E+00;  3.9502582E+04;  3.5221906E+00;  0.0000000E+00;  3.7915163E-02;  1.3509735E+04;
  1.2333292E+00;  9.9999998E-03; -1.7119680E-01;8742;  1.1688366E+00;  0.0000000E+00; -1.5614294E-02;  1.0008735E+03;  1.3294989E-01;  7.1882318E+02;3; -7.8895401E+01;  0.0000000E+00;  4.3380650E+01;0;  4.1184840E+00;  2.2916275E+04;  0.0000000E+00;  4.7412705E-01;  4.0000000E+04;  0.0000000E+00;  3.9563777E+04;  4.2179675E+00;  0.0000000E+00; -9.9483259E-02;  6.2428770E+03;
  1.2336842E+00;  9.9999998E-03; -1.2075015E-01;8747;  1.2290730E+00;  0.0000000E+00; -2.0665228E-02;  1.0026866E+03;  1.3294159E-01;  2.2109385E+03;3; -5.0793312E+01;  0.0000000E+00;  3.6935623E+01;0;  3.6442587E+00;  2.3027363E+04;  0.0000000E+00; -3.1469575E-01;  4.0000000E+04;  0.0000000E+00;  3.9508781E+04;  3.6181295E+00;  0.0000000E+00;  2.6129246E-02;  1.2759224E+04;
  1.2336906E+00;  9.9999998E-03; -1.3082004E-01;8746;  1.2193450E+00;  0.0000000E+00; -2.0375891E-02;  1.0024252E+03;  1.3292621E-01;  1.9957981E+03;3; -5.6429745E+01;  0.0000000E+00;  4.0481663E+01;0;  3.7324870E+00;  2.3017881E+04;  0.0000000E+00; -1.9319831E-01;  4.0000000E+04;  0.0000000E+00;  3.9516805E+04;  3.7228582E+00;  0.0000000E+00;  9.6288221E-03;  1.1794072E+04;
  1.2335385E+00;  9.9999998E-03; -1.6111435E-01;8743;  1.1829532E+00;  0.0000000E+00; -1.7127687E-02;  1.0013177E+03;  1.3292156E-01;  1.0844419E+03;3; -7.3357475E+01;  0.0000000E+00;  4.2726345E+01;0;  4.0164695E+00;  2.2952906E+04;  0.0000000E+00;  3.1354502E-01;  4.0000000E+04;  0.0000000E+00;  3.9551211E+04;  4.0836620E+00;  0.0000000E+00; -6.7192711E-02;  7.7016763E+03;
  1.2336844E+00;  9.9999998E-03; -1.4090480E-01;8745;  1.2083806E+00;  0.0000000E+00; -1.9426102E-02;  1.0021085E+03;  1.3291560E-01;  1.7352389E+03;3; -6.2104252E+01;  0.0000000E+00;  4.1524227E+01;0;  3.8238008E+00;  2.3002953E+04;  0.0000000E+00; -3.7211094E-02;  4.0000000E+04;  0.0000000E+00;  3.9526680E+04;  3.8354137E+00;  0.0000000E+00; -1.1612929E-02;  1.0602973E+04;
  1.2336477E+00;  9.9999998E-03; -1.5100397E-01;8744;  1.1962031E+00;  0.0000000E+00; -1.8367166E-02;  1.0017335E+03;  1.3291170E-01;  1.4265153E+03;3; -6.7759628E+01;  0.0000000E+00;  4.2080231E+01;0;  3.9181442E+00;  2.2981791E+04;  0.0000000E+00;  1.3594130E-01;  4.0000000E+04;  0.0000000E+00;  3.9538410E+04;  3.9555771E+00;  0.0000000E+00; -3.7433013E-02;  9.2104434E+03;
  1.2466213E+00;  9.9999998E-03; -2.5149339E-01;8795;  1.1491036E+00;  0.0000000E+00; -1.3591744E-02;  9.9800549E+02;  1.3003677E-01; -1.6390284E+03;3; -1.0284734E+02;  0.0000000E+00;  4.7821110E+01;0;  4.5277095E+00;  2.3791105E+04;  0.0000000E+00; -1.7515743E+01;  4.0000000E+04;  0.0000000E+00;  3.9590418E+04;  4.7588735E+00;  0.0000000E+00; -2.3116380E-01;  2.9382824E+04;
  1.2466069E+00;  9.9999998E-03; -2.6156124E-01;8794;  1.1259319E+00;  0.0000000E+00; -7.3953611E-03;  9.9729932E+02;  1.3002600E-01; -2.2193684E+03;3; -1.1253906E+02;  0.0000000E+00;  4.8780376E+01;0;  4.6214151E+00;  2.3768133E+04;  0.0000000E+00; -2.4594954E+01;  4.0000000E+04;  0.0000000E+00;  3.9580094E+04;  4.8649364E+00;  0.0000000E+00; -2.4352144E-01;  4.1952551E+04;
  1.2466003E+00;  9.9999998E-03; -2.4141449E-01;8796;  1.1643820E+00;  0.0000000E+00; -1.7899720E-02;  9.9873737E+02;  1.3004014E-01; -1.0375837E+03;3; -9.5402481E+01;  0.0000000E+00;  4.7002300E+01;0;  4.4090290E+00;  2.3819430E+04;  0.0000000E+00; -1.0630157E+01;  4.0000000E+04;  0.0000000E+00;  3.9600047E+04;  4.6357179E+00;  0.0000000E+00; -2.2668877E-01;  1.7168676E+04;
  1.2464899E+00;  9.9999998E-03; -2.3132679E-01;8797;  1.1742604E+00;  0.0000000E+00; -2.0665757E-02;  9.9943262E+02;  1.3005014E-01; -4.6626492E+02;3; -8.9425224E+01;  0.0000000E+00;  4.6123695E+01;0;  4.2856302E+00;  2.3847029E+04;  0.0000000E+00; -5.2732635E+00;  4.0000000E+04;  0.0000000E+00;  3.9605266E+04;  4.5044045E+00;  0.0000000E+00; -2.1877418E-01;  7.8809497E+03;
  1.2462825E+00;  9.9999998E-03; -2.2125481E-01;8798;  1.1806010E+00;  0.0000000E+00; -2.2538012E-02;  9.9997675E+02;  1.3006812E-01; -1.9103672E+01;3; -8.4469345E+01;  0.0000000E+00;  4.5023891E+01;0;  4.1672893E+00;  2.3870045E+04;  0.0000000E+00; -1.8441917E+00;  4.0000000E+04;  0.0000000E+00;  3.9601695E+04;  4.3699670E+00;  0.0000000E+00; -2.0267789E-01;  2.5448552E+03;
  1.2460884E+00;  9.9999998E-03; -2.1121842E-01;8799;  1.1859519E+00;  0.0000000E+00; -2.4046360E-02;  1.0003773E+03;  1.3008374E-01;  3.1007449E+02;3; -7.9924988E+01;  0.0000000E+00;  4.4218174E+01;0;  4.0523238E+00;  2.3890600E+04;  0.0000000E+00; -8.0592372E-02;  4.0000000E+04;  0.0000000E+00;  3.9592246E+04;  4.2311449E+00;  0.0000000E+00; -1.7882109E-01;  2.6570237E+03;
  1.2467068E+00;  9.9999998E-03; -2.7162015E-01;8793;  1.0993658E+00;  0.0000000E+00;  4.6883189E-04;  9.9653577E+02;  1.2999269E-01; -2.8467920E+03;3; -1.2187315E+02;  0.0000000E+00;  4.8677692E+01;0;  4.6685681E+00;  2.3751223E+04;  0.0000000E+00; -3.0064596E+01;  4.0000000E+04;  0.0000000E+00;  3.9572137E+04;  4.9464955E+00;  0.0000000E+00; -2.7792749E-01;  5.1466996E+04;
  1.2459744E+00;  9.9999998E-03; -2.0120844E-01;8800;  1.1921128E+00;  0.0000000E+00; -2.5452768E-02;  1.0007187E+03;  1.3008960E-01;  5.9066803E+02;3; -7.5467110E+01;  0.0000000E+00;  4.3717777E+01;0;  3.9369385E+00;  2.3911961E+04;  0.0000000E+00;  6.7328036E-01;  4.0000000E+04;  0.0000000E+00;  3.9582809E+04;  4.0861073E+00;  0.0000000E+00; -1.4916883E-01;  4.0206384E+03;
  1.2459645E+00;  9.9999998E-03; -1.9120300E-01;8801;  1.1998173E+00;  0.0000000E+00; -2.6794819E-02;  1.0010607E+03;  1.3008285E-01;  8.7174835E+02;3; -7.0656006E+01;  0.0000000E+00;  4.3119946E+01;0;  3.8185368E+00;  2.3936277E+04;  0.0000000E+00;  8.8847917E-01;  4.0000000E+04;  0.0000000E+00;  3.9574844E+04;  3.9341180E+00;  0.0000000E+00; -1.1558132E-01;  4.9387607E+03;
  1.2460507E+00;  9.9999998E-03; -1.8118621E-01;8802;  1.2089314E+00;  0.0000000E+00; -2.8086668E-02;  1.0013996E+03;  1.3006656E-01;  1.1502688E+03;3; -6.5298080E+01;  0.0000000E+00;  4.2363056E+01;0;  3.6966774E+00;  2.3963965E+04;  0.0000000E+00;  8.1809866E-01;  4.0000000E+04;  0.0000000E+00;  3.9566652E+04;  3.7762804E+00;  0.0000000E+00; -7.9602927E-02;  5.7813022E+03;
  1.2464492E+00;  9.9999998E-03; -1.1067375E-01;8809;  1.2686113E+00;  0.0000000E+00; -2.0179765E-02;  1.0030251E+03;  1.3007127E-01;  2.4860725E+03;3; -2.0920469E+01;  0.0000000E+00;  2.4902403E+01;0;  2.9099853E+00;  2.4075244E+04;  0.0000000E+00; -5.0332052E-01;  4.0000000E+04;  0.0000000E+00;  3.9499172E+04;  2.8049967E+00;  0.0000000E+00;  1.0498855E-01;  1.3430061E+04;
  1.2461725E+00;  9.9999998E-03; -1.7114566E-01;8803;  1.2188215E+00;  0.0000000E+00; -2.9290926E-02;  1.0017267E+03;  1.3004771E-01;  1.4190785E+03;3; -5.9471523E+01;  0.0000000E+00;  4.1665710E+01;0;  3.5739996E+00;  2.3992281E+04;  0.0000000E+00;  6.0249370E-01;  4.0000000E+04;  0.0000000E+00;  3.9556742E+04;  3.6169417E+00;  0.0000000E+00; -4.2942058E-02;  6.8118369E+03;
  1.2464243E+00;  9.9999998E-03; -1.2073099E-01;8808;  1.2626767E+00;  0.0000000E+00; -2.4285549E-02;  1.0029136E+03;  1.3005859E-01;  2.3943843E+03;3; -2.7204128E+01;  0.0000000E+00;  2.6432774E+01;0;  3.0099771E+00;  2.4072168E+04;  0.0000000E+00; -4.4755071E-01;  4.0000000E+04;  0.0000000E+00;  3.9505238E+04;  2.9169860E+00;  0.0000000E+00;  9.2991047E-02;  1.2731277E+04;
  1.2463838E+00;  9.9999998E-03; -1.3079643E-01;8807;  1.2555804E+00;  0.0000000E+00; -2.8621148E-02;  1.0027577E+03;  1.3004875E-01;  2.2662559E+03;3; -3.3726463E+01;  0.0000000E+00;  2.9632418E+01;0;  3.1155839E+00;  2.4064314E+04;  0.0000000E+00; -3.2627302E-01;  4.0000000E+04;  0.0000000E+00;  3.9513148E+04;  3.0398936E+00;  0.0000000E+00;  7.5690381E-02;  1.1817985E+04;
  1.2462603E+00;  9.9999998E-03; -1.6107272E-01;8804;  1.2288599E+00;  0.0000000E+00; -3.0302940E-02;  1.0020278E+03;  1.3003780E-01;  1.6664325E+03;3; -5.3295925E+01;  0.0000000E+00;  4.0850235E+01;0;  3.4540927E+00;  2.4016945E+04;  0.0000000E+00;  3.3540240E-01;  4.0000000E+04;  0.0000000E+00;  3.9545500E+04;  3.4616013E+00;  0.0000000E+00; -7.5085838E-03;  8.0645420E+03;
  1.2463378E+00;  9.9999998E-03; -1.4088000E-01;8806;  1.2474762E+00;  0.0000000E+00; -3.1141646E-02;  1.0025475E+03;  1.3004275E-01;  2.0935527E+03;3; -4.0307716E+01;  0.0000000E+00;  3.5995705E+01;0;  3.2255518E+00;  2.4052045E+04;  0.0000000E+00; -1.4668077E-01;  4.0000000E+04;  0.0000000E+00;  3.9522668E+04;  3.1726429E+00;  0.0000000E+00;  5.2908976E-02;  1.0697170E+04;
  1.2463015E+00;  9.9999998E-03; -1.5097809E-01;8805;  1.2385250E+00;  0.0000000E+00; -3.1127153E-02;  1.0023035E+03;  1.3003790E-01;  1.8930227E+03;3; -4.6884457E+01;  0.0000000E+00;  3.9564045E+01;0;  3.3383648E+00;  2.4036248E+04;  0.0000000E+00;  7.7172123E-02;  4.0000000E+04;  0.0000000E+00;  3.9533664E+04;  3.3134732E+00;  0.0000000E+00;  2.4891507E-02;  9.4125430E+03;
  1.2589558E+00;  9.9999998E-03; -1.1065966E-01;8870;  1.2862954E+00;  0.0000000E+00; -2.1703606E-02;  1.0029234E+03;  1.2743747E-01;  2.3984561E+03;3;  8.5561723E-01;  0.0000000E+00;  2.3711927E+01;0;  2.3217819E+00;  2.5076668E+04;  0.0000000E+00; -5.4507267E-01;  4.0000000E+04;  0.0000000E+00;  3.9497402E+04;  2.1609757E+00;  0.0000000E+00;  1.6080618E-01;  1.2878301E+04;
  1.2589024E+00;  9.9999998E-03; -1.2072290E-01;8869;  1.2833717E+00;  0.0000000E+00; -2.5331084E-02;  1.0028914E+03;  1.2742776E-01;  2.3722625E+03;3; -5.6870189E+00;  0.0000000E+00;  2.4866312E+01;0;  2.4271936E+00;  2.5075646E+04;  0.0000000E+00; -5.3559536E-01;  4.0000000E+04;  0.0000000E+00;  3.9503270E+04;  2.2776752E+00;  0.0000000E+00;  1.4951843E-01;  1.2236276E+04;
  1.2588409E+00;  9.9999998E-03; -1.3078801E-01;8868;  1.2794406E+00;  0.0000000E+00; -3.0086916E-02;  1.0028364E+03;  1.2742059E-01;  2.3270972E+03;3; -1.2650673E+01;  0.0000000E+00;  2.5528891E+01;0;  2.5386658E+00;  2.5071248E+04;  0.0000000E+00; -4.5225498E-01;  4.0000000E+04;  0.0000000E+00;  3.9510844E+04;  2.4061272E+00;  0.0000000E+00;  1.3253862E-01;  1.1398047E+04;
  1.2591999E+00;  9.9999998E-03; -2.5149733E-01;8856;  1.2170676E+00;  0.0000000E+00; -2.8494932E-02;  9.9880280E+02;  1.2740026E-01; -9.8221442E+02;3; -8.4377655E+01;  0.0000000E+00;  4.5379974E+01;0;  4.1671925E+00;  2.4835998E+04;  0.0000000E+00; -1.7647587E+01;  4.0000000E+04;  0.0000000E+00;  3.9580602E+04;  4.3480525E+00;  0.0000000E+00; -1.8085980E-01;  2.7402645E+04;
  1.2593073E+00;  9.9999998E-03; -2.4142101E-01;8857;  1.2300216E+00;  0.0000000E+00; -3.2612599E-02;  9.9946051E+02;  1.2738959E-01; -4.4259103E+02;3; -7.5876930E+01;  0.0000000E+00;  4.4280281E+01;0;  4.0082870E+00;  2.4869211E+04;  0.0000000E+00; -1.0724846E+01;  4.0000000E+04;  0.0000000E+00;  3.9586457E+04;  4.1873169E+00;  0.0000000E+00; -1.7902979E-01;  1.5998401E+04;
  1.2587774E+00;  9.9999998E-03; -1.4086607E-01;8867;  1.2745614E+00;  0.0000000E+00; -3.5749927E-02;  1.0027520E+03;  1.2741570E-01;  2.2578711E+03;3; -1.9725222E+01;  0.0000000E+00;  2.6638285E+01;0;  2.6552155E+00;  2.5063754E+04;  0.0000000E+00; -2.9552668E-01;  4.0000000E+04;  0.0000000E+00;  3.9519691E+04;  2.5456913E+00;  0.0000000E+00;  1.0952429E-01;  1.0386132E+04;
  1.2590528E+00;  9.9999998E-03; -2.6156870E-01;8855;  1.1961679E+00;  0.0000000E+00; -2.2396836E-02;  9.9825299E+02;  1.2740159E-01; -1.4333025E+03;3; -9.5934975E+01;  0.0000000E+00;  4.6260433E+01;0;  4.2993770E+00;  2.4814455E+04;  0.0000000E+00; -2.4223391E+01;  4.0000000E+04;  0.0000000E+00;  3.9571863E+04;  4.4900632E+00;  0.0000000E+00; -1.9068615E-01;  3.8128781E+04;
  1.2592833E+00;  9.9999998E-03; -2.3133419E-01;8858;  1.2369678E+00;  0.0000000E+00; -3.5263672E-02;  1.0002065E+03;  1.2738526E-01;  1.6938910E+02;3; -6.9530235E+01;  0.0000000E+00;  4.3314827E+01;0;  3.8485487E+00;  2.4904752E+04;  0.0000000E+00; -4.9620070E+00;  4.0000000E+04;  0.0000000E+00;  3.9590984E+04;  4.0208158E+00;  0.0000000E+00; -1.7226723E-01;  6.8022900E+03;
  1.2591305E+00;  9.9999998E-03; -2.2124930E-01;8859;  1.2399049E+00;  0.0000000E+00; -3.6856521E-02;  1.0008597E+03;  1.2739138E-01;  7.0534711E+02;3; -6.4499542E+01;  0.0000000E+00;  4.2102425E+01;0;  3.6980686E+00;  2.4935477E+04;  0.0000000E+00; -1.2712820E+00;  4.0000000E+04;  0.0000000E+00;  3.9589660E+04;  3.8547723E+00;  0.0000000E+00; -1.5670367E-01;  2.5259358E+03;
  1.2589270E+00;  9.9999998E-03; -2.1118978E-01;8860;  1.2413684E+00;  0.0000000E+00; -3.7844125E-02;  1.0013314E+03;  1.2740351E-01;  1.0923811E+03;3; -6.0010448E+01;  0.0000000E+00;  4.1098194E+01;0;  3.5572541E+00;  2.4959078E+04;  0.0000000E+00;  5.0387567E-01;  4.0000000E+04;  0.0000000E+00;  3.9582359E+04;  3.6897576E+00;  0.0000000E+00; -1.3250342E-01;  3.7955718E+03;
  1.2587640E+00;  9.9999998E-03; -2.0116125E-01;8861;  1.2432745E+00;  0.0000000E+00; -3.8790941E-02;  1.0016723E+03;  1.2741329E-01;  1.3720371E+03;3; -5.5643414E+01;  0.0000000E+00;  4.0469353E+01;0;  3.4219091E+00;  2.4978289E+04;  0.0000000E+00;  1.0864184E+00;  4.0000000E+04;  0.0000000E+00;  3.9573398E+04;  3.5233140E+00;  0.0000000E+00; -1.0140485E-01;  4.9787969E+03;
  1.2586714E+00;  9.9999998E-03; -1.9114754E-01;8862;  1.2466238E+00;  0.0000000E+00; -3.9630335E-02;  1.0019440E+03;  1.2741648E-01;  1.5950583E+03;3; -5.0953522E+01;  0.0000000E+00;  3.9889481E+01;0;  3.2886279E+00;  2.4995818E+04;  0.0000000E+00;  1.1025699E+00;  4.0000000E+04;  0.0000000E+00;  3.9565527E+04;  3.3546543E+00;  0.0000000E+00; -6.6026449E-02;  5.6709106E+03;
  1.2587242E+00;  9.9999998E-03; -1.5095519E-01;8866;  1.2689847E+00;  0.0000000E+00; -4.0236317E-02;  1.0026445E+03;  1.2741214E-01;  2.1697639E+03;3; -2.6623783E+01;  0.0000000E+00;  3.0974379E+01;0;  2.7756183E+00;  2.5053771E+04;  0.0000000E+00; -7.0523381E-02;  4.0000000E+04;  0.0000000E+00;  3.9529867E+04;  2.6949611E+00;  0.0000000E+00;  8.0657274E-02;  9.2563740E+03;
  1.2586447E+00;  9.9999998E-03; -1.8113089E-01;8863;  1.2513108E+00;  0.0000000E+00; -4.0411156E-02;  1.0021740E+03;  1.2741463E-01;  1.7837374E+03;3; -4.5625610E+01;  0.0000000E+00;  3.9183281E+01;0;  3.1565154E+00;  2.5012580E+04;  0.0000000E+00;  8.7396729E-01;  4.0000000E+04;  0.0000000E+00;  3.9558117E+04;  3.1847866E+00;  0.0000000E+00; -2.8271226E-02;  6.2924849E+03;
  1.2586877E+00;  9.9999998E-03; -1.6103648E-01;8865;  1.2630378E+00;  0.0000000E+00; -4.1441146E-02;  1.0025194E+03;  1.2741034E-01;  2.0670767E+03;3; -3.3302567E+01;  0.0000000E+00;  3.6036324E+01;0;  2.8992109E+00;  2.5042133E+04;  0.0000000E+00;  2.1835640E-01;  4.0000000E+04;  0.0000000E+00;  3.9540043E+04;  2.8522556E+00;  0.0000000E+00;  4.6955314E-02;  8.1109727E+03;
  1.2586628E+00;  9.9999998E-03; -1.7109652E-01;8864;  1.2569779E+00;  0.0000000E+00; -4.1105747E-02;  1.0023636E+03;  1.2741017E-01;  1.9392483E+03;3; -3.9722977E+01;  0.0000000E+00;  3.8025715E+01;0;  3.0261462E+00;  2.5028555E+04;  0.0000000E+00;  5.5055714E-01;  4.0000000E+04;  0.0000000E+00;  3.9549793E+04;  3.0161104E+00;  0.0000000E+00;  1.0035673E-02;  7.0897583E+03;
  1.2590338E+00;  9.9999998E-03; -2.7163413E-01;8854;  1.1738756E+00;  0.0000000E+00; -1.4890693E-02;  9.9766125E+02;  1.2738079E-01; -1.9188016E+03;3; -1.0617192E+02;  0.0000000E+00;  4.7151661E+01;0;  4.3874435E+00;  2.4802129E+04;  0.0000000E+00; -2.8899036E+01;  4.0000000E+04;  0.0000000E+00;  3.9562734E+04;  4.6058354E+00;  0.0000000E+00; -2.1839184E-01;  4.5564086E+04;
  1.2712600E+00;  9.9999998E-03; -1.1065496E-01;8930;  1.2940927E+00;  0.0000000E+00; -2.4524644E-02;  1.0026407E+03;  1.2504590E-01;  2.1623599E+03;3;  1.4941225E+01;  0.0000000E+00;  2.1015207E+01;0;  1.8140036E+00;  2.6030600E+04;  0.0000000E+00; -5.2260655E-01;  4.0000000E+04;  0.0000000E+00;  3.9496969E+04;  1.6090395E+00;  0.0000000E+00;  2.0496409E-01;  1.1927007E+04;
  1.2711018E+00;  9.9999998E-03; -2.6158473E-01;8915;  1.2592372E+00;  0.0000000E+00; -3.5085678E-02;  9.9903479E+02;  1.2504704E-01; -7.9040735E+02;3; -7.5285538E+01;  0.0000000E+00;  4.3763790E+01;0;  3.9229693E+00;  2.5809660E+04;  0.0000000E+00; -1.9885471E+01;  4.0000000E+04;  0.0000000E+00;  3.9558027E+04;  4.0512271E+00;  0.0000000E+00; -1.2825783E-01;  2.8625574E+04;
  1.2712944E+00;  9.9999998E-03; -2.5150886E-01;8916;  1.2735041E+00;  0.0000000E+00; -4.0635787E-02;  9.9943610E+02;  1.2503865E-01; -4.6176337E+02;3; -6.4235687E+01;  0.0000000E+00;  4.2735676E+01;0;  3.7575841E+00;  2.5827881E+04;  0.0000000E+00; -1.4118106E+01;  4.0000000E+04;  0.0000000E+00;  3.9567172E+04;  3.8808315E+00;  0.0000000E+00; -1.2324727E-01;  1.9740090E+04;
  1.2711835E+00;  9.9999998E-03; -1.2073356E-01;8929;  1.2937183E+00;  0.0000000E+00; -2.7846158E-02;  1.0026847E+03;  1.2503900E-01;  2.1984087E+03;3;  1.1063959E+01;  0.0000000E+00;  2.2900976E+01;0;  1.9169508E+00;  2.6031875E+04;  0.0000000E+00; -5.6968266E-01;  4.0000000E+04;  0.0000000E+00;  3.9502559E+04;  1.7221601E+00;  0.0000000E+00;  1.9479069E-01;  1.1350429E+04;
  1.2714959E+00;  9.9999998E-03; -2.4143398E-01;8917;  1.2816246E+00;  0.0000000E+00; -4.4119522E-02;  9.9996240E+02;  1.2501450E-01; -3.0796171E+01;3; -5.5465347E+01;  0.0000000E+00;  4.1141903E+01;0;  3.5662663E+00;  2.5862846E+04;  0.0000000E+00; -8.3367167E+00;  4.0000000E+04;  0.0000000E+00;  3.9570609E+04;  3.6926594E+00;  0.0000000E+00; -1.2639309E-01;  1.0980637E+04;
  1.2710689E+00;  9.9999998E-03; -2.7165407E-01;8914;  1.2426505E+00;  0.0000000E+00; -2.8253121E-02;  9.9856262E+02;  1.2502842E-01; -1.1770273E+03;3; -8.5163765E+01;  0.0000000E+00;  4.5310966E+01;0;  4.0451531E+00;  2.5802766E+04;  0.0000000E+00; -2.4501101E+01;  4.0000000E+04;  0.0000000E+00;  3.9548766E+04;  4.1938586E+00;  0.0000000E+00; -1.4870556E-01;  3.5539273E+04;
  1.2711072E+00;  9.9999998E-03; -1.3080423E-01;8928;  1.2929244E+00;  0.0000000E+00; -3.2212228E-02;  1.0027220E+03;  1.2503234E-01;  2.2289915E+03;3;  5.6169353E+00;  0.0000000E+00;  2.3803209E+01;0;  2.0257261E+00;  2.6031705E+04;  0.0000000E+00; -5.4567695E-01;  4.0000000E+04;  0.0000000E+00;  3.9509406E+04;  1.8469542E+00;  0.0000000E+00;  1.7877179E-01;  1.0617320E+04;
  1.2715677E+00;  9.9999998E-03; -2.3135664E-01;8918;  1.2850091E+00;  0.0000000E+00; -4.6345834E-02;  1.0006577E+03;  1.2499559E-01;  5.3851141E+02;3; -4.9045475E+01;  0.0000000E+00;  3.9956959E+01;0;  3.3799875E+00;  2.5904717E+04;  0.0000000E+00; -3.2404404E+00;  4.0000000E+04;  0.0000000E+00;  3.9571672E+04;  3.5022497E+00;  0.0000000E+00; -1.2226222E-01;  4.5484258E+03;
  1.2709650E+00;  9.9999998E-03; -1.5095338E-01;8926;  1.2893721E+00;  0.0000000E+00; -4.4242974E-02;  1.0027983E+03;  1.2502795E-01;  2.2915225E+03;3; -8.1914234E+00;  0.0000000E+00;  2.4673315E+01;0;  2.2577045E+00;  2.6026525E+04;  0.0000000E+00; -2.5681919E-01;  4.0000000E+04;  0.0000000E+00;  3.9526180E+04;  2.1298280E+00;  0.0000000E+00;  1.2787643E-01;  8.8371484E+03;
  1.2710334E+00;  9.9999998E-03; -1.4087774E-01;8927;  1.2914792E+00;  0.0000000E+00; -3.7921231E-02;  1.0027675E+03;  1.2502974E-01;  2.2662126E+03;3; -1.2087561E+00;  0.0000000E+00;  2.3826012E+01;0;  2.1395257E+00;  2.6029922E+04;  0.0000000E+00; -4.4404191E-01;  4.0000000E+04;  0.0000000E+00;  3.9517621E+04;  1.9830958E+00;  0.0000000E+00;  1.5642981E-01;  9.7605400E+03;
  1.2714717E+00;  9.9999998E-03; -2.2127248E-01;8919;  1.2850319E+00;  0.0000000E+00; -4.7728606E-02;  1.0013967E+03;  1.2499250E-01;  1.1437091E+03;3; -4.4274548E+01;  0.0000000E+00;  3.8607040E+01;0;  3.2094080E+00;  2.5942256E+04;  0.0000000E+00;  1.1241972E-01;  4.0000000E+04;  0.0000000E+00;  3.9571691E+04;  3.3173251E+00;  0.0000000E+00; -1.0791697E-01;  4.3087036E+03;
  1.2712924E+00;  9.9999998E-03; -2.1119803E-01;8920;  1.2834336E+00;  0.0000000E+00; -4.8427667E-02;  1.0019686E+03;  1.2499952E-01;  1.6119994E+03;3; -4.0072632E+01;  0.0000000E+00;  3.7769657E+01;0;  3.0533140E+00;  2.5970230E+04;  0.0000000E+00;  1.4947140E+00;  4.0000000E+04;  0.0000000E+00;  3.9567891E+04;  3.1379008E+00;  0.0000000E+00; -8.4586762E-02;  5.6594331E+03;
  1.2711084E+00;  9.9999998E-03; -2.0114926E-01;8921;  1.2819607E+00;  0.0000000E+00; -4.9001299E-02;  1.0023480E+03;  1.2501079E-01;  1.9227659E+03;3; -3.6045017E+01;  0.0000000E+00;  3.6913639E+01;0;  2.9084013E+00;  2.5988607E+04;  0.0000000E+00;  1.6517823E+00;  4.0000000E+04;  0.0000000E+00;  3.9561375E+04;  2.9623549E+00;  0.0000000E+00; -5.3953715E-02;  6.1256548E+03;
  1.2709751E+00;  9.9999998E-03; -1.9112155E-01;8922;  1.2816931E+00;  0.0000000E+00; -4.9449001E-02;  1.0025860E+03;  1.2501973E-01;  2.1176582E+03;3; -3.1596218E+01;  0.0000000E+00;  3.6097885E+01;0;  2.7700429E+00;  2.6000998E+04;  0.0000000E+00;  1.3079413E+00;  4.0000000E+04;  0.0000000E+00;  3.9554684E+04;  2.7887664E+00;  0.0000000E+00; -1.8723605E-02;  6.3222627E+03;
  1.2709054E+00;  9.9999998E-03; -1.8109822E-01;8923;  1.2826867E+00;  0.0000000E+00; -4.9780536E-02;  1.0027246E+03;  1.2502511E-01;  2.2312166E+03;3; -2.6546696E+01;  0.0000000E+00;  3.4681778E+01;0;  2.6360555E+00;  2.6009705E+04;  0.0000000E+00;  8.4693193E-01;  4.0000000E+04;  0.0000000E+00;  3.9548594E+04;  2.6170461E+00;  0.0000000E+00;  1.9009337E-02;  6.6279570E+03;
  1.2708912E+00;  9.9999998E-03; -1.7106819E-01;8924;  1.2846258E+00;  0.0000000E+00; -4.9812913E-02;  1.0027966E+03;  1.2502696E-01;  2.2901848E+03;3; -2.0835011E+01;  0.0000000E+00;  3.2485897E+01;0;  2.5059247E+00;  2.6016617E+04;  0.0000000E+00;  4.0485856E-01;  4.0000000E+04;  0.0000000E+00;  3.9541969E+04;  2.4486151E+00;  0.0000000E+00;  5.7309680E-02;  7.1699785E+03;
  1.2709143E+00;  9.9999998E-03; -1.6102034E-01;8925;  1.2869810E+00;  0.0000000E+00; -4.8582751E-02;  1.0028191E+03;  1.2502842E-01;  2.3085283E+03;3; -1.4687234E+01;  0.0000000E+00;  2.8414215E+01;0;  2.3798292E+00;  2.6022029E+04;  0.0000000E+00;  2.8517867E-02;  4.0000000E+04;  0.0000000E+00;  3.9534586E+04;  2.2855933E+00;  0.0000000E+00;  9.4235808E-02;  7.9354785E+03;
  1.2833931E+00;  9.9999998E-03; -1.1067104E-01;8989;  1.2971622E+00;  0.0000000E+00; -2.7494194E-02;  1.0022474E+03;  1.2288739E-01;  1.8360325E+03;3;  2.1035942E+01;  0.0000000E+00;  1.6966471E+01;0;  1.3936868E+00;  2.6932117E+04;  0.0000000E+00; -4.5031616E-01;  4.0000000E+04;  0.0000000E+00;  3.9496816E+04;  1.1560074E+00;  0.0000000E+00;  2.3767938E-01;  1.0671930E+04;
  1.2833011E+00;  9.9999998E-03; -1.2075760E-01;8988;  1.2980577E+00;  0.0000000E+00; -3.0996883E-02;  1.0023601E+03;  1.2288234E-01;  1.9282015E+03;3;  1.9086157E+01;  0.0000000E+00;  1.8970703E+01;0;  1.4882960E+00;  2.6936039E+04;  0.0000000E+00; -5.4880959E-01;  4.0000000E+04;  0.0000000E+00;  3.9502047E+04;  1.2595935E+00;  0.0000000E+00;  2.2870260E-01;  1.0182036E+04;
  1.2831960E+00;  9.9999998E-03; -1.3084504E-01;8987;  1.2991585E+00;  0.0000000E+00; -3.5299685E-02;  1.0024934E+03;  1.2288008E-01;  2.0371316E+03;3;  1.6560133E+01;  0.0000000E+00;  2.0470181E+01;0;  1.5889482E+00;  2.6939605E+04;  0.0000000E+00; -5.9004515E-01;  4.0000000E+04;  0.0000000E+00;  3.9508129E+04;  1.3750918E+00;  0.0000000E+00;  2.1385646E-01;  9.5903877E+03;
  1.2830951E+00;  9.9999998E-03; -1.4092159E-01;8986;  1.3003672E+00;  0.0000000E+00; -4.0731721E-02;  1.0026497E+03;  1.2288015E-01;  2.1648621E+03;3;  1.2931664E+01;  0.0000000E+00;  2.1158037E+01;0;  1.6942284E+00;  2.6942852E+04;  0.0000000E+00; -5.5753666E-01;  4.0000000E+04;  0.0000000E+00;  3.9514910E+04;  1.5015440E+00;  0.0000000E+00;  1.9268443E-01;  8.9353799E+03;
  1.2829392E+00;  9.9999998E-03; -1.6103995E-01;8984;  1.3024174E+00;  0.0000000E+00; -5.2443564E-02;  1.0029464E+03;  1.2288217E-01;  2.4073621E+03;3;  1.7571163E+00;  0.0000000E+00;  2.3764257E+01;0;  1.9169657E+00;  2.6948447E+04;  0.0000000E+00; -1.4276698E-01;  4.0000000E+04;  0.0000000E+00;  3.9527523E+04;  1.7839131E+00;  0.0000000E+00;  1.3305260E-01;  7.6478286E+03;
  1.2830064E+00;  9.9999998E-03; -1.5098689E-01;8985;  1.3014991E+00;  0.0000000E+00; -4.7035400E-02;  1.0028038E+03;  1.2288063E-01;  2.2908391E+03;3;  7.7096105E+00;  0.0000000E+00;  2.1460701E+01;0;  1.8035178E+00;  2.6945830E+04;  0.0000000E+00; -4.1853112E-01;  4.0000000E+04;  0.0000000E+00;  3.9521426E+04;  1.6381538E+00;  0.0000000E+00;  1.6536401E-01;  8.2643486E+03;
  1.2829124E+00;  9.9999998E-03; -1.7107715E-01;8983;  1.3033799E+00;  0.0000000E+00; -5.4844767E-02;  1.0030358E+03;  1.2288131E-01;  2.4804265E+03;3; -3.7408867E+00;  0.0000000E+00;  2.7272593E+01;0;  2.0348198E+00;  2.6950510E+04;  0.0000000E+00;  2.9104951E-01;  4.0000000E+04;  0.0000000E+00;  3.9532430E+04;  1.9372177E+00;  0.0000000E+00;  9.7602040E-02;  7.1789126E+03;
  1.2831898E+00;  9.9999998E-03; -2.5152084E-01;8975;  1.3159378E+00;  0.0000000E+00; -4.9021341E-02;  9.9982178E+02;  1.2291001E-01; -1.4560699E+02;3; -4.3974991E+01;  0.0000000E+00;  4.0366390E+01;0;  3.3099344E+00;  2.6759527E+04;  0.0000000E+00; -9.0922995E+00;  4.0000000E+04;  0.0000000E+00;  3.9556953E+04;  3.3816583E+00;  0.0000000E+00; -7.1723849E-02;  1.0962170E+04;
  1.2829405E+00;  9.9999998E-03; -1.8110189E-01;8982;  1.3045794E+00;  0.0000000E+00; -5.5486515E-02;  1.0030562E+03;  1.2287614E-01;  2.4970676E+03;3; -8.8755341E+00;  0.0000000E+00;  2.9654465E+01;0;  2.1574073E+00;  2.6951068E+04;  0.0000000E+00;  9.0938985E-01;  4.0000000E+04;  0.0000000E+00;  3.9536742E+04;  2.0965469E+00;  0.0000000E+00;  6.0860299E-02;  6.9574365E+03;
  1.2830309E+00;  9.9999998E-03; -1.9112673E-01;8981;  1.3065847E+00;  0.0000000E+00; -5.5625163E-02;  1.0029680E+03;  1.2286702E-01;  2.4249463E+03;3; -1.3441082E+01;  0.0000000E+00;  3.1630959E+01;0;  2.2855763E+00;  2.6948207E+04;  0.0000000E+00;  1.7241924E+00;  4.0000000E+04;  0.0000000E+00;  3.9541016E+04;  2.2608771E+00;  0.0000000E+00;  2.4699328E-02;  7.1081011E+03;
  1.2830045E+00;  9.9999998E-03; -2.6160151E-01;8974;  1.3072108E+00;  0.0000000E+00; -4.3797493E-02;  9.9950653E+02;  1.2291749E-01; -4.0318588E+02;3; -5.4130795E+01;  0.0000000E+00;  4.2064610E+01;0;  3.4876175E+00;  2.6746176E+04;  0.0000000E+00; -1.4832028E+01;  4.0000000E+04;  0.0000000E+00;  3.9547297E+04;  3.5669968E+00;  0.0000000E+00; -7.9379313E-02;  1.9272947E+04;
  1.2833892E+00;  9.9999998E-03; -2.4144313E-01;8976;  1.3197347E+00;  0.0000000E+00; -5.1941644E-02;  1.0002801E+03;  1.2288646E-01;  2.2887120E+02;3; -3.5599049E+01;  0.0000000E+00;  3.8666061E+01;0;  3.1054895E+00;  2.6793518E+04;  0.0000000E+00; -3.9059954E+00;  4.0000000E+04;  0.0000000E+00;  3.9558824E+04;  3.1817169E+00;  0.0000000E+00; -7.6227412E-02;  4.6757554E+03;
  1.2831721E+00;  9.9999998E-03; -2.0116277E-01;8980;  1.3095880E+00;  0.0000000E+00; -5.5485148E-02;  1.0027352E+03;  1.2285671E-01;  2.2346614E+03;3; -1.7327747E+01;  0.0000000E+00;  3.3456577E+01;0;  2.4211128E+00;  2.6938148E+04;  0.0000000E+00;  2.6206841E+00;  4.0000000E+04;  0.0000000E+00;  3.9545887E+04;  2.4301808E+00;  0.0000000E+00; -9.0680271E-03;  7.6866997E+03;
  1.2835103E+00;  9.9999998E-03; -2.3137149E-01;8977;  1.3195933E+00;  0.0000000E+00; -5.3619042E-02;  1.0009070E+03;  1.2286001E-01;  7.4093988E+02;3; -2.9372946E+01;  0.0000000E+00;  3.6948818E+01;0;  2.9067533E+00;  2.6839219E+04;  0.0000000E+00;  9.7117029E-02;  4.0000000E+04;  0.0000000E+00;  3.9555570E+04;  2.9807158E+00;  0.0000000E+00; -7.3962532E-02;  5.4891558E+03;
  1.2834731E+00;  9.9999998E-03; -2.2129549E-01;8978;  1.3171607E+00;  0.0000000E+00; -5.4624319E-02;  1.0016555E+03;  1.2284800E-01;  1.3524594E+03;3; -2.4637978E+01;  0.0000000E+00;  3.5817764E+01;0;  2.7277148E+00;  2.6883402E+04;  0.0000000E+00;  2.5641236E+00;  4.0000000E+04;  0.0000000E+00;  3.9553434E+04;  2.7885163E+00;  0.0000000E+00; -6.0801424E-02;  7.8937949E+03;
  1.2833360E+00;  9.9999998E-03; -2.1121995E-01;8979;  1.3134009E+00;  0.0000000E+00; -5.5207130E-02;  1.0023047E+03;  1.2284898E-01;  1.8829000E+03;3; -2.0893543E+01;  0.0000000E+00;  3.4950390E+01;0;  2.5671942E+00;  2.6917283E+04;  0.0000000E+00;  3.1702261E+00;  4.0000000E+04;  0.0000000E+00;  3.9550777E+04;  2.6055012E+00;  0.0000000E+00; -3.8307000E-02;  8.3173203E+03;
  1.2829630E+00;  9.9999998E-03; -2.7167451E-01;8973;  1.2963035E+00;  0.0000000E+00; -3.7574425E-02;  9.9912933E+02;  1.2290030E-01; -7.1136438E+02;3; -6.2755638E+01;  0.0000000E+00;  4.2927246E+01;0;  3.6271822E+00;  2.6744076E+04;  0.0000000E+00; -1.9530809E+01;  4.0000000E+04;  0.0000000E+00;  3.9538293E+04;  3.7281029E+00;  0.0000000E+00; -1.0092068E-01;  2.5966529E+04;
  1.2953417E+00;  9.9999998E-03; -1.1070950E-01;9048;  1.2983874E+00;  0.0000000E+00; -2.9717483E-02;  1.0018113E+03;  1.2095173E-01;  1.4759178E+03;3;  2.4503756E+01;  0.0000000E+00;  1.3526677E+01;0;  1.0588145E+00;  2.7777713E+04;  0.0000000E+00; -3.4896183E-01;  4.0000000E+04;  0.0000000E+00;  3.9496199E+04;  7.9922104E-01;  0.0000000E+00;  2.5959352E-01;  9.2335498E+03;
  1.2952470E+00;  9.9999998E-03; -1.2080059E-01;9047;  1.3000064E+00;  0.0000000E+00; -3.3564441E-02;  1.0019839E+03;  1.2094901E-01;  1.6166021E+03;3;  2.3283686E+01;  0.0000000E+00;  1.4981175E+01;0;  1.1415322E+00;  2.7784512E+04;  0.0000000E+00; -4.8383909E-01;  4.0000000E+04;  0.0000000E+00;  3.9500602E+04;  8.8981867E-01;  0.0000000E+00;  2.5171345E-01;  8.8630771E+03;
  1.2951299E+00;  9.9999998E-03; -1.3088924E-01;9046;  1.3020335E+00;  0.0000000E+00; -3.8137175E-02;  1.0022021E+03;  1.2094956E-01;  1.7943113E+03;3;  2.1796457E+01;  0.0000000E+00;  1.6168970E+01;0;  1.2296987E+00;  2.7792117E+04;  0.0000000E+00; -5.8201432E-01;  4.0000000E+04;  0.0000000E+00;  3.9505395E+04;  9.9150366E-01;  0.0000000E+00;  2.3819499E-01;  8.4553008E+03;
  1.2950033E+00;  9.9999998E-03; -1.4097025E-01;9045;  1.3045921E+00;  0.0000000E+00; -4.3540098E-02;  1.0024556E+03;  1.2095233E-01;  2.0009827E+03;3;  2.0241146E+01;  0.0000000E+00;  1.7097561E+01;0;  1.3224044E+00;  2.7800475E+04;  0.0000000E+00; -6.0424584E-01;  4.0000000E+04;  0.0000000E+00;  3.9510273E+04;  1.1037955E+00;  0.0000000E+00;  2.1860889E-01;  8.0407920E+03;
  1.2950102E+00;  9.9999998E-03; -2.5153601E-01;9034;  1.3449087E+00;  0.0000000E+00; -5.4194435E-02;  9.9981616E+02;  1.2099033E-01; -1.4978932E+02;3; -2.5684078E+01;  0.0000000E+00;  3.6517078E+01;0;  2.8451798E+00;  2.7621238E+04;  0.0000000E+00; -5.1065626E+00;  4.0000000E+04;  0.0000000E+00;  3.9549844E+04;  2.8733020E+00;  0.0000000E+00; -2.8122270E-02;  5.1685728E+03;
  1.2948040E+00;  9.9999998E-03; -1.6107462E-01;9043;  1.3111153E+00;  0.0000000E+00; -5.4693963E-02;  1.0029327E+03;  1.2095729E-01;  2.3899485E+03;3;  1.4701902E+01;  0.0000000E+00;  2.0518362E+01;0;  1.5193446E+00;  2.7818225E+04;  0.0000000E+00; -1.9595730E-01;  4.0000000E+04;  0.0000000E+00;  3.9517844E+04;  1.3558903E+00;  0.0000000E+00;  1.6345432E-01;  7.3540273E+03;
  1.2948874E+00;  9.9999998E-03; -1.5103295E-01;9044;  1.3076943E+00;  0.0000000E+00; -4.9497209E-02;  1.0027070E+03;  1.2095545E-01;  2.2059124E+03;3;  1.7905617E+01;  0.0000000E+00;  1.7923788E+01;0;  1.4189371E+00;  2.7809291E+04;  0.0000000E+00; -4.9481905E-01;  4.0000000E+04;  0.0000000E+00;  3.9514551E+04;  1.2256517E+00;  0.0000000E+00;  1.9328533E-01;  7.6565156E+03;
  1.2947699E+00;  9.9999998E-03; -1.7110018E-01;9042;  1.3146468E+00;  0.0000000E+00; -5.7149153E-02;  1.0031040E+03;  1.2095612E-01;  2.5294688E+03;3;  1.0756720E+01;  0.0000000E+00;  2.4111580E+01;0;  1.6243061E+00;  2.7826484E+04;  0.0000000E+00;  3.6373091E-01;  4.0000000E+04;  0.0000000E+00;  3.9520203E+04;  1.4935231E+00;  0.0000000E+00;  1.3078292E-01;  7.2172905E+03;
  1.2948006E+00;  9.9999998E-03; -2.6162139E-01;9033;  1.3403997E+00;  0.0000000E+00; -4.9635202E-02;  9.9962964E+02;  1.2099616E-01; -3.0182816E+02;3; -3.4930405E+01;  0.0000000E+00;  3.8459221E+01;0;  3.0243325E+00;  2.7615613E+04;  0.0000000E+00; -1.0857965E+01;  4.0000000E+04;  0.0000000E+00;  3.9540039E+04;  3.0631258E+00;  0.0000000E+00; -3.8793288E-02;  1.2546731E+04;
  1.2952044E+00;  9.9999998E-03; -2.4145195E-01;9035;  1.3454052E+00;  0.0000000E+00; -5.6858566E-02;  1.0002473E+03;  1.2096985E-01;  2.0155525E+02;3; -1.8107327E+01;  0.0000000E+00;  3.5331120E+01;0;  2.6446092E+00;  2.7653689E+04;  0.0000000E+00;  3.2766739E-01;  4.0000000E+04;  0.0000000E+00;  3.9551668E+04;  2.6734471E+00;  0.0000000E+00; -2.8837848E-02;  5.4995513E+03;
  1.2947987E+00;  9.9999998E-03; -1.8111792E-01;9041;  1.3182609E+00;  0.0000000E+00; -5.7947449E-02;  1.0031737E+03;  1.2095025E-01;  2.5862810E+03;3;  6.6754255E+00;  0.0000000E+00;  2.6237986E+01;0;  1.7345119E+00;  2.7832387E+04;  0.0000000E+00;  1.2844051E+00;  4.0000000E+04;  0.0000000E+00;  3.9522328E+04;  1.6376739E+00;  0.0000000E+00;  9.6837945E-02;  7.4095474E+03;
  1.2948939E+00;  9.9999998E-03; -1.9113912E-01;9040;  1.3223561E+00;  0.0000000E+00; -5.8390740E-02;  1.0031132E+03;  1.2094022E-01;  2.5369702E+03;3;  3.0035489E+00;  0.0000000E+00;  2.8182140E+01;0;  1.8513589E+00;  2.7832436E+04;  0.0000000E+00;  2.6394479E+00;  4.0000000E+04;  0.0000000E+00;  3.9525273E+04;  1.7879831E+00;  0.0000000E+00;  6.3375860E-02;  8.2295244E+03;
  1.2953327E+00;  9.9999998E-03; -2.3137611E-01;9036;  1.3424989E+00;  0.0000000E+00; -5.8184337E-02;  1.0008694E+03;  1.2094332E-01;  7.0838385E+02;3; -1.2555172E+01;  0.0000000E+00;  3.3948444E+01;0;  2.4481282E+00;  2.7703311E+04;  0.0000000E+00;  4.0065060E+00;  4.0000000E+04;  0.0000000E+00;  3.9545938E+04;  2.4745257E+00;  0.0000000E+00; -2.6397554E-02;  1.0178496E+04;
  1.2950385E+00;  9.9999998E-03; -2.0117581E-01;9039;  1.3270990E+00;  0.0000000E+00; -5.8772597E-02;  1.0028563E+03;  1.2092967E-01;  2.3274495E+03;3; -4.2613804E-01;  0.0000000E+00;  3.0091185E+01;0;  1.9774261E+00;  2.7821838E+04;  0.0000000E+00;  4.2989364E+00;  4.0000000E+04;  0.0000000E+00;  3.9529441E+04;  1.9451088E+00;  0.0000000E+00;  3.2317236E-02;  9.8688652E+03;
  1.2953181E+00;  9.9999998E-03; -2.2130457E-01;9037;  1.3378166E+00;  0.0000000E+00; -5.8832966E-02;  1.0016406E+03;  1.2092699E-01;  1.3367357E+03;3; -7.9445467E+00;  0.0000000E+00;  3.3001427E+01;0;  2.2719731E+00;  2.7755104E+04;  0.0000000E+00;  5.8637142E+00;  4.0000000E+04;  0.0000000E+00;  3.9539387E+04;  2.2865210E+00;  0.0000000E+00; -1.4547911E-02;  1.2348239E+04;
  1.2951969E+00;  9.9999998E-03; -2.1123318E-01;9038;  1.3324219E+00;  0.0000000E+00; -5.8995876E-02;  1.0023563E+03;  1.2092332E-01;  1.9199750E+03;3; -4.0182891E+00;  0.0000000E+00;  3.1776350E+01;0;  2.1163447E+00;  2.7796479E+04;  0.0000000E+00;  5.7047706E+00;  4.0000000E+04;  0.0000000E+00;  3.9534426E+04;  2.1106491E+00;  0.0000000E+00;  5.6956797E-03;  1.1752944E+04;
  1.2947179E+00;  9.9999998E-03; -2.7169836E-01;9032;  1.3348109E+00;  0.0000000E+00; -4.4636194E-02;  9.9939166E+02;  1.2098331E-01; -4.9573856E+02;3; -4.2526211E+01;  0.0000000E+00;  3.9099232E+01;0;  3.1799018E+00;  2.7620273E+04;  0.0000000E+00; -1.4936670E+01;  4.0000000E+04;  0.0000000E+00;  3.9531078E+04;  3.2359207E+00;  0.0000000E+00; -5.6018908E-02;  1.8125531E+04;
  1.3066972E+00;  9.9999998E-03; -2.5156128E-01;9093;  1.3630422E+00;  0.0000000E+00; -5.7078779E-02;  9.9949158E+02;  1.1926685E-01; -4.1302628E+02;3; -1.1704684E+01;  0.0000000E+00;  3.1894001E+01;0;  2.3931053E+00;  2.8413578E+04;  0.0000000E+00; -2.3875980E+00;  4.0000000E+04;  0.0000000E+00;  3.9542449E+04;  2.3826489E+00;  0.0000000E+00;  1.0456333E-02;  2.9474275E+03;
  1.3070368E+00;  9.9999998E-03; -1.2084193E-01;9106;  1.3007337E+00;  0.0000000E+00; -3.5374526E-02;  1.0016111E+03;  1.1922107E-01;  1.3086769E+03;3;  2.6111385E+01;  0.0000000E+00;  1.1798931E+01;0;  8.6909831E-01;  2.8577789E+04;  0.0000000E+00; -3.9476931E-01;  4.0000000E+04;  0.0000000E+00;  3.9497109E+04;  6.0428870E-01;  0.0000000E+00;  2.6480961E-01;  7.5427793E+03;
  1.3071311E+00;  9.9999998E-03; -1.1074369E-01;9107;  1.2985885E+00;  0.0000000E+00; -3.1280421E-02;  1.0013845E+03;  1.1922190E-01;  1.1245697E+03;3;  2.6698433E+01;  0.0000000E+00;  1.0775833E+01;0;  7.9944688E-01;  2.8567664E+04;  0.0000000E+00; -2.4226032E-01;  4.0000000E+04;  0.0000000E+00;  3.9493957E+04;  5.2769005E-01;  0.0000000E+00;  2.7175683E-01;  7.7536548E+03;
  1.3065878E+00;  9.9999998E-03; -1.6109036E-01;9102;  1.3154451E+00;  0.0000000E+00; -5.5440854E-02;  1.0028178E+03;  1.1923248E-01;  2.2891958E+03;3;  2.1714149E+01;  0.0000000E+00;  1.6998390E+01;0;  1.1872417E+00;  2.8632367E+04;  0.0000000E+00; -1.8764447E-02;  4.0000000E+04;  0.0000000E+00;  3.9504609E+04;  1.0009508E+00;  0.0000000E+00;  1.8629089E-01;  7.1335156E+03;
  1.3066803E+00;  9.9999998E-03; -1.5105781E-01;9103;  1.3107923E+00;  0.0000000E+00; -5.0968077E-02;  1.0025376E+03;  1.1923063E-01;  2.0614614E+03;3;  2.3218798E+01;  0.0000000E+00;  1.4008868E+01;0;  1.1020262E+00;  2.8618330E+04;  0.0000000E+00; -4.2820260E-01;  4.0000000E+04;  0.0000000E+00;  3.9504059E+04;  8.8940549E-01;  0.0000000E+00;  2.1262079E-01;  7.1179863E+03;
  1.3067989E+00;  9.9999998E-03; -1.4100328E-01;9104;  1.3067751E+00;  0.0000000E+00; -4.5407806E-02;  1.0022187E+03;  1.1922579E-01;  1.8023495E+03;3;  2.4251291E+01;  0.0000000E+00;  1.3026157E+01;0;  1.0207766E+00;  2.8603955E+04;  0.0000000E+00; -5.6317002E-01;  4.0000000E+04;  0.0000000E+00;  3.9502512E+04;  7.8562349E-01;  0.0000000E+00;  2.3515312E-01;  7.2066768E+03;
  1.3069241E+00;  9.9999998E-03; -1.3092783E-01;9105;  1.3034359E+00;  0.0000000E+00; -4.0078230E-02;  1.0018994E+03;  1.1922237E-01;  1.5428651E+03;3;  2.5300718E+01;  0.0000000E+00;  1.2511305E+01;0;  9.4303060E-01;  2.8590166E+04;  0.0000000E+00; -5.2398282E-01;  4.0000000E+04;  0.0000000E+00;  3.9500012E+04;  6.9032687E-01;  0.0000000E+00;  2.5270373E-01;  7.3554541E+03;
  1.3064433E+00;  9.9999998E-03; -2.6165017E-01;9092;  1.3614788E+00;  0.0000000E+00; -5.3102572E-02;  9.9952094E+02;  1.1927181E-01; -3.8918323E+02;3; -1.9559175E+01;  0.0000000E+00;  3.3706322E+01;0;  2.5607448E+00;  2.8420846E+04;  0.0000000E+00; -7.8613038E+00;  4.0000000E+04;  0.0000000E+00;  3.9532289E+04;  2.5669544E+00;  0.0000000E+00; -6.2095542E-03;  7.7686660E+03;
  1.3069068E+00;  9.9999998E-03; -2.4147139E-01;9094;  1.3619192E+00;  0.0000000E+00; -5.9691336E-02;  9.9985718E+02;  1.1925147E-01; -1.1600838E+02;3; -5.2402925E+00;  0.0000000E+00;  3.0363848E+01;0;  2.2100506E+00;  2.8440455E+04;  0.0000000E+00;  3.7268240E+00;  4.0000000E+04;  0.0000000E+00;  3.9544707E+04;  2.1933978E+00;  0.0000000E+00;  1.6652707E-02;  9.2579414E+03;
  1.3065424E+00;  9.9999998E-03; -1.7110710E-01;9101;  1.3203202E+00;  0.0000000E+00; -5.7429172E-02;  1.0030225E+03;  1.1923099E-01;  2.4555083E+03;3;  1.9056368E+01;  0.0000000E+00;  2.0512634E+01;0;  1.2770581E+00;  2.8644637E+04;  0.0000000E+00;  8.0569577E-01;  4.0000000E+04;  0.0000000E+00;  3.9504816E+04;  1.1195935E+00;  0.0000000E+00;  1.5746468E-01;  7.3722642E+03;
  1.3065575E+00;  9.9999998E-03; -1.8111868E-01;9100;  1.3252672E+00;  0.0000000E+00; -5.8382839E-02;  1.0031076E+03;  1.1922517E-01;  2.5245483E+03;3;  1.6096882E+01;  0.0000000E+00;  2.2630547E+01;0;  1.3724360E+00;  2.8652430E+04;  0.0000000E+00;  2.2241852E+00;  4.0000000E+04;  0.0000000E+00;  3.9505383E+04;  1.2449899E+00;  0.0000000E+00;  1.2744612E-01;  8.1465229E+03;
  1.3070220E+00;  9.9999998E-03; -2.3138709E-01;9095;  1.3575019E+00;  0.0000000E+00; -6.0859606E-02;  1.0005371E+03;  1.1922987E-01;  4.3632431E+02;3; -2.6309595E-01;  0.0000000E+00;  2.9167126E+01;0;  2.0273535E+00;  2.8493113E+04;  0.0000000E+00;  8.1692314E+00;  4.0000000E+04;  0.0000000E+00;  3.9538617E+04;  2.0066531E+00;  0.0000000E+00;  2.0700460E-02;  1.5252928E+04;
  1.3066332E+00;  9.9999998E-03; -1.9113693E-01;9099;  1.3306969E+00;  0.0000000E+00; -5.9133343E-02;  1.0030328E+03;  1.1921734E-01;  2.4637734E+03;3;  1.2855050E+01;  0.0000000E+00;  2.3997679E+01;0;  1.4751953E+00;  2.8651170E+04;  0.0000000E+00;  4.3487649E+00;  4.0000000E+04;  0.0000000E+00;  3.9508305E+04;  1.3774318E+00;  0.0000000E+00;  9.7763509E-02;  9.9586533E+03;
  1.3070087E+00;  9.9999998E-03; -2.2130840E-01;9096;  1.3510002E+00;  0.0000000E+00; -6.1067693E-02;  1.0013818E+03;  1.1921349E-01;  1.1224790E+03;3;  3.4813881E+00;  0.0000000E+00;  2.7901888E+01;0;  1.8611017E+00;  2.8552787E+04;  0.0000000E+00;  1.0055640E+01;  4.0000000E+04;  0.0000000E+00;  3.9529496E+04;  1.8308129E+00;  0.0000000E+00;  3.0288829E-02;  1.7494873E+04;
  1.3067554E+00;  9.9999998E-03; -2.0117353E-01;9098;  1.3368633E+00;  0.0000000E+00; -5.9923746E-02;  1.0027408E+03;  1.1920992E-01;  2.2264312E+03;3;  9.8158197E+00;  0.0000000E+00;  2.5259279E+01;0;  1.5882707E+00;  2.8636158E+04;  0.0000000E+00;  6.9811130E+00;  4.0000000E+04;  0.0000000E+00;  3.9514090E+04;  1.5179906E+00;  0.0000000E+00;  7.0280083E-02;  1.2946679E+04;
  1.3063014E+00;  9.9999998E-03; -2.7173021E-01;9091;  1.3606261E+00;  0.0000000E+00; -4.9461503E-02;  9.9950006E+02;  1.1926526E-01; -4.0619641E+02;3; -2.5653254E+01;  0.0000000E+00;  3.4577652E+01;0;  2.7265303E+00;  2.8435777E+04;  0.0000000E+00; -1.0536361E+01;  4.0000000E+04;  0.0000000E+00;  3.9522688E+04;  2.7451642E+00;  0.0000000E+00; -1.8633895E-02;  1.1655839E+04;
  1.3068975E+00;  9.9999998E-03; -2.1123341E-01;9097;  1.3438039E+00;  0.0000000E+00; -6.0691018E-02;  1.0021856E+03;  1.1920767E-01;  1.7753785E+03;3;  6.7143569E+00;  0.0000000E+00;  2.6525120E+01;0;  1.7156292E+00;  2.8603287E+04;  0.0000000E+00;  9.3251829E+00;  4.0000000E+04;  0.0000000E+00;  3.9521492E+04;  1.6684110E+00;  0.0000000E+00;  4.7218155E-02;  1.6133426E+04;
  1.3186765E+00;  9.9999998E-03; -1.2087560E-01;9164;  1.3007419E+00;  0.0000000E+00; -3.6423400E-02;  1.0013010E+03;  1.1768273E-01;  1.0529850E+03;3;  2.7867752E+01;  0.0000000E+00;  9.1761799E+00;0;  6.6006160E-01;  2.9318012E+04;  0.0000000E+00; -3.0548090E-01;  4.0000000E+04;  0.0000000E+00;  3.9489613E+04;  3.9082590E-01;  0.0000000E+00;  2.6923570E-01;  6.3708760E+03;
  1.3187585E+00;  9.9999998E-03; -1.1078297E-01;9165;  1.2982354E+00;  0.0000000E+00; -3.2206327E-02;  1.0010206E+03;  1.1768299E-01;  8.2604053E+02;3;  2.8142748E+01;  0.0000000E+00;  8.5314074E+00;0;  6.0334277E-01;  2.9303424E+04;  0.0000000E+00; -1.5491538E-01;  4.0000000E+04;  0.0000000E+00;  3.9488656E+04;  3.2799309E-01;  0.0000000E+00;  2.7534965E-01;  6.3803677E+03;
  1.3184847E+00;  9.9999998E-03; -1.4101616E-01;9162;  1.3077873E+00;  0.0000000E+00; -4.6070278E-02;  1.0019988E+03;  1.1768700E-01;  1.6177885E+03;3;  2.7276035E+01;  0.0000000E+00;  9.8576708E+00;0;  7.8267920E-01;  2.9354350E+04;  0.0000000E+00; -4.0941292E-01;  4.0000000E+04;  0.0000000E+00;  3.9490094E+04;  5.3908455E-01;  0.0000000E+00;  2.4359466E-01;  6.5436772E+03;
  1.3185889E+00;  9.9999998E-03; -1.3095479E-01;9163;  1.3038944E+00;  0.0000000E+00; -4.1082527E-02;  1.0016393E+03;  1.1768382E-01;  1.3268351E+03;3;  2.7567217E+01;  0.0000000E+00;  9.5583839E+00;0;  7.1986431E-01;  2.9335574E+04;  0.0000000E+00; -4.2279941E-01;  4.0000000E+04;  0.0000000E+00;  3.9490258E+04;  4.6119159E-01;  0.0000000E+00;  2.5867271E-01;  6.4249556E+03;
  1.3183798E+00;  9.9999998E-03; -1.5105537E-01;9161;  1.3123938E+00;  0.0000000E+00; -5.0883330E-02;  1.0023347E+03;  1.1768963E-01;  1.8897543E+03;3;  2.6505369E+01;  0.0000000E+00;  1.0987041E+01;0;  8.4858984E-01;  2.9373176E+04;  0.0000000E+00; -1.4464004E-01;  4.0000000E+04;  0.0000000E+00;  3.9489102E+04;  6.2404644E-01;  0.0000000E+00;  2.2454338E-01;  6.7383965E+03;
  1.3182935E+00;  9.9999998E-03; -1.6107510E-01;9160;  1.3176326E+00;  0.0000000E+00; -5.4219991E-02;  1.0026214E+03;  1.1769041E-01;  2.1218738E+03;3;  2.5439413E+01;  0.0000000E+00;  1.3750664E+01;0;  9.1819394E-01;  2.9390219E+04;  0.0000000E+00;  5.2797455E-01;  4.0000000E+04;  0.0000000E+00;  3.9487387E+04;  7.1570802E-01;  0.0000000E+00;  2.0248595E-01;  7.0796089E+03;
  1.3182415E+00;  9.9999998E-03; -1.7108457E-01;9159;  1.3230655E+00;  0.0000000E+00; -5.5824507E-02;  1.0028136E+03;  1.1768832E-01;  2.2774597E+03;3;  2.3306253E+01;  0.0000000E+00;  1.6507509E+01;0;  9.9223042E-01;  2.9403299E+04;  0.0000000E+00;  1.8241558E+00;  4.0000000E+04;  0.0000000E+00;  3.9486273E+04;  8.1396365E-01;  0.0000000E+00;  1.7826678E-01;  7.8122617E+03;
  1.3182348E+00;  9.9999998E-03; -1.8109496E-01;9158;  1.3288990E+00;  0.0000000E+00; -5.6860156E-02;  1.0028846E+03;  1.1768565E-01;  2.3349758E+03;3;  2.0982574E+01;  0.0000000E+00;  1.8052917E+01;0;  1.0719275E+00;  2.9408885E+04;  0.0000000E+00;  3.9826190E+00;  4.0000000E+04;  0.0000000E+00;  3.9487207E+04;  9.1908330E-01;  0.0000000E+00;  1.5284431E-01;  9.4772422E+03;
  1.3182812E+00;  9.9999998E-03; -1.9111671E-01;9157;  1.3353814E+00;  0.0000000E+00; -5.7879604E-02;  1.0027654E+03;  1.1768023E-01;  2.2384463E+03;3;  1.8481367E+01;  0.0000000E+00;  1.9292643E+01;0;  1.1592171E+00;  2.9402535E+04;  0.0000000E+00;  7.0953369E+00;  4.0000000E+04;  0.0000000E+00;  3.9492113E+04;  1.0316989E+00;  0.0000000E+00;  1.2751818E-01;  1.2624894E+04;
  1.3184096E+00;  9.9999998E-03; -2.4151017E-01;9152;  1.3727524E+00;  0.0000000E+00; -6.0632374E-02;  9.9930609E+02;  1.1772008E-01; -5.6166187E+02;3;  4.5237093E+00;  0.0000000E+00;  2.5640682E+01;0;  1.8197991E+00;  2.9162561E+04;  0.0000000E+00;  7.0844054E+00;  4.0000000E+04;  0.0000000E+00;  3.9533262E+04;  1.7624809E+00;  0.0000000E+00;  5.7318218E-02;  1.3073055E+04;
  1.3183697E+00;  9.9999998E-03; -2.0116200E-01;9156;  1.3428472E+00;  0.0000000E+00; -5.9137069E-02;  1.0024159E+03;  1.1767796E-01;  1.9554702E+03;3;  1.6194029E+01;  0.0000000E+00;  2.0410585E+01;0;  1.2576122E+00;  2.9379439E+04;  0.0000000E+00;  1.0796316E+01;  4.0000000E+04;  0.0000000E+00;  3.9500941E+04;  1.1534164E+00;  0.0000000E+00;  1.0419586E-01;  1.7060699E+04;
  1.3181541E+00;  9.9999998E-03; -2.5160408E-01;9151;  1.3751976E+00;  0.0000000E+00; -5.8213476E-02;  9.9915277E+02;  1.1773049E-01; -6.8580554E+02;3; -9.9279040E-01;  0.0000000E+00;  2.6862461E+01;0;  1.9801985E+00;  2.9151141E+04;  0.0000000E+00;  8.3442628E-01;  4.0000000E+04;  0.0000000E+00;  3.9529582E+04;  1.9364678E+00;  0.0000000E+00;  4.3730706E-02;  5.5212729E+03;
  1.3185464E+00;  9.9999998E-03; -2.3141770E-01;9153;  1.3674872E+00;  0.0000000E+00; -6.1740384E-02;  9.9995221E+02;  1.1770335E-01; -3.8690262E+01;3;  8.7754612E+00;  0.0000000E+00;  2.4479345E+01;0;  1.6571960E+00;  2.9211344E+04;  0.0000000E+00;  1.2461844E+01;  4.0000000E+04;  0.0000000E+00;  3.9528672E+04;  1.5924447E+00;  0.0000000E+00;  6.4751342E-02;  2.0007031E+04;
  1.3185582E+00;  9.9999998E-03; -2.2132607E-01;9154;  1.3599162E+00;  0.0000000E+00; -6.1654910E-02;  1.0008707E+03;  1.1768821E-01;  7.0471954E+02;3;  1.1544037E+01;  0.0000000E+00;  2.2879997E+01;0;  1.5054835E+00;  2.9276275E+04;  0.0000000E+00;  1.4870196E+01;  4.0000000E+04;  0.0000000E+00;  3.9520203E+04;  1.4326481E+00;  0.0000000E+00;  7.2835468E-02;  2.2882834E+04;
  1.3184788E+00;  9.9999998E-03; -2.1123518E-01;9155;  1.3512771E+00;  0.0000000E+00; -6.0611475E-02;  1.0017677E+03;  1.1767913E-01;  1.4308004E+03;3;  1.3942710E+01;  0.0000000E+00;  2.1422546E+01;0;  1.3719355E+00;  2.9336352E+04;  0.0000000E+00;  1.3945498E+01;  4.0000000E+04;  0.0000000E+00;  3.9511203E+04;  1.2863688E+00;  0.0000000E+00;  8.5566625E-02;  2.1288555E+04;
  1.3178703E+00;  9.9999998E-03; -2.6169431E-01;9150;  1.3763273E+00;  0.0000000E+00; -5.5107128E-02;  9.9945691E+02;  1.1773495E-01; -4.3968304E+02;3; -6.9745154E+00;  0.0000000E+00;  2.8358955E+01;0;  2.1342480E+00;  2.9175713E+04;  0.0000000E+00; -4.4505401E+00;  4.0000000E+04;  0.0000000E+00;  3.9518762E+04;  2.1101265E+00;  0.0000000E+00;  2.4121519E-02;  3.8947000E+03;
  1.3177036E+00;  9.9999998E-03; -2.7177379E-01;9149;  1.3780906E+00;  0.0000000E+00; -5.2550830E-02;  9.9962360E+02;  1.1773305E-01; -3.0473584E+02;3; -1.1868952E+01;  0.0000000E+00;  2.9497030E+01;0;  2.2960858E+00;  2.9199141E+04;  0.0000000E+00; -5.9401884E+00;  4.0000000E+04;  0.0000000E+00;  3.9510371E+04;  2.2830060E+00;  0.0000000E+00;  1.3079780E-02;  6.3384658E+03;
  1.3300381E+00;  9.9999998E-03; -1.4100395E-01;9219;  1.3080274E+00;  0.0000000E+00; -4.5466822E-02;  1.0017895E+03;  1.1631784E-01;  1.4422471E+03;3;  2.9063427E+01;  0.0000000E+00;  7.5299263E+00;0;  5.9912550E-01;  3.0052184E+04;  0.0000000E+00; -8.3787397E-02;  4.0000000E+04;  0.0000000E+00;  3.9472285E+04;  3.5359174E-01;  0.0000000E+00;  2.4553376E-01;  6.1263672E+03;
  1.3301231E+00;  9.9999998E-03; -1.3096069E-01;9220;  1.3038076E+00;  0.0000000E+00; -4.1068692E-02;  1.0014312E+03;  1.1631674E-01;  1.1533937E+03;3;  2.8990616E+01;  0.0000000E+00;  7.2311673E+00;0;  5.4945725E-01;  3.0029838E+04;  0.0000000E+00; -2.5836080E-01;  4.0000000E+04;  0.0000000E+00;  3.9475027E+04;  2.9176494E-01;  0.0000000E+00;  2.5769231E-01;  5.7573101E+03;
  1.3298827E+00;  9.9999998E-03; -1.6102920E-01;9217;  1.3184575E+00;  0.0000000E+00; -5.1190153E-02;  1.0023669E+03;  1.1631816E-01;  1.9077727E+03;3;  2.7761478E+01;  0.0000000E+00;  1.1301826E+01;0;  7.0631182E-01;  3.0090334E+04;  0.0000000E+00;  1.6238049E+00;  4.0000000E+04;  0.0000000E+00;  3.9466422E+04;  4.9324170E-01;  0.0000000E+00;  2.1307015E-01;  7.3531729E+03;
  1.3299545E+00;  9.9999998E-03; -1.5102345E-01;9218;  1.3130069E+00;  0.0000000E+00; -4.9172644E-02;  1.0021136E+03;  1.1631863E-01;  1.7035431E+03;3;  2.8635136E+01;  0.0000000E+00;  9.0910311E+00;0;  6.5123433E-01;  3.0073119E+04;  0.0000000E+00;  4.6989202E-01;  4.0000000E+04;  0.0000000E+00;  3.9469145E+04;  4.2074624E-01;  0.0000000E+00;  2.3048808E-01;  6.5999380E+03;
  1.3302057E+00;  9.9999998E-03; -1.2089316E-01;9221;  1.3003438E+00;  0.0000000E+00; -3.6660217E-02;  1.0010696E+03;  1.1631552E-01;  8.6196661E+02;3;  2.9071413E+01;  0.0000000E+00;  7.0569372E+00;0;  5.0189501E-01;  3.0008152E+04;  0.0000000E+00; -2.2372019E-01;  4.0000000E+04;  0.0000000E+00;  3.9477262E+04;  2.3543735E-01;  0.0000000E+00;  2.6645768E-01;  5.4592495E+03;
  1.3302784E+00;  9.9999998E-03; -1.1080989E-01;9222;  1.2975734E+00;  0.0000000E+00; -3.2493312E-02;  1.0007475E+03;  1.1631534E-01;  6.0236011E+02;3;  2.9167377E+01;  0.0000000E+00;  6.7673755E+00;0;  4.5667708E-01;  2.9989086E+04;  0.0000000E+00; -1.0983447E-01;  4.0000000E+04;  0.0000000E+00;  3.9478434E+04;  1.8497251E-01;  0.0000000E+00;  2.7170458E-01;  5.2427119E+03;
  1.3296964E+00;  9.9999998E-03; -2.4157065E-01;9209;  1.3797859E+00;  0.0000000E+00; -5.9967637E-02;  9.9879462E+02;  1.1635955E-01; -9.7163751E+02;3;  1.1857838E+01;  0.0000000E+00;  2.1423491E+01;0;  1.4794477E+00;  2.9832486E+04;  0.0000000E+00;  1.0965284E+01;  4.0000000E+04;  0.0000000E+00;  3.9515098E+04;  1.3888466E+00;  0.0000000E+00;  9.0601102E-02;  1.7331367E+04;
  1.3298328E+00;  9.9999998E-03; -1.7103279E-01;9216;  1.3243327E+00;  0.0000000E+00; -5.2489743E-02;  1.0025156E+03;  1.1631693E-01;  2.0277272E+03;3;  2.6013809E+01;  0.0000000E+00;  1.2550507E+01;0;  7.6520830E-01;  3.0100598E+04;  0.0000000E+00;  3.6545739E+00;  4.0000000E+04;  0.0000000E+00;  3.9466016E+04;  5.7144791E-01;  0.0000000E+00;  1.9376038E-01;  8.8484814E+03;
  1.3293940E+00;  9.9999998E-03; -2.5166637E-01;9208;  1.3837909E+00;  0.0000000E+00; -5.7989508E-02;  9.9900977E+02;  1.1636705E-01; -7.9828583E+02;3;  7.5899787E+00;  0.0000000E+00;  2.2787867E+01;0;  1.6173427E+00;  2.9846088E+04;  0.0000000E+00;  4.7853656E+00;  4.0000000E+04;  0.0000000E+00;  3.9508703E+04;  1.5462551E+00;  0.0000000E+00;  7.1087621E-02;  1.0232560E+04;
  1.3298817E+00;  9.9999998E-03; -2.3147416E-01;9210;  1.3740848E+00;  0.0000000E+00; -6.1096650E-02;  9.9924585E+02;  1.1634756E-01; -6.0788361E+02;3;  1.5416074E+01;  0.0000000E+00;  1.9860321E+01;0;  1.3416401E+00;  2.9867295E+04;  0.0000000E+00;  1.6988327E+01;  4.0000000E+04;  0.0000000E+00;  3.9512496E+04;  1.2380041E+00;  0.0000000E+00;  1.0363600E-01;  2.4560275E+04;
  1.3298115E+00;  9.9999998E-03; -1.8104570E-01;9215;  1.3307933E+00;  0.0000000E+00; -5.3716414E-02;  1.0025247E+03;  1.1631496E-01;  2.0349509E+03;3;  2.4398640E+01;  0.0000000E+00;  1.3875433E+01;0;  8.2941532E-01;  3.0100355E+04;  0.0000000E+00;  6.8099217E+00;  4.0000000E+04;  0.0000000E+00;  3.9470098E+04;  6.5615904E-01;  0.0000000E+00;  1.7325629E-01;  1.1764552E+04;
  1.3299310E+00;  9.9999998E-03; -2.2137275E-01;9211;  1.3661398E+00;  0.0000000E+00; -6.0876038E-02;  1.0001584E+03;  1.1633331E-01;  1.2769486E+02;3;  1.7829433E+01;  0.0000000E+00;  1.8473919E+01;0;  1.2085717E+00;  2.9931809E+04;  0.0000000E+00;  2.0337646E+01;  4.0000000E+04;  0.0000000E+00;  3.9506141E+04;  1.0967289E+00;  0.0000000E+00;  1.1184275E-01;  2.8472695E+04;
  1.3298215E+00;  9.9999998E-03; -1.9108111E-01;9214;  1.3382459E+00;  0.0000000E+00; -5.5196527E-02;  1.0023505E+03;  1.1631332E-01;  1.8945588E+03;3;  2.2502777E+01;  0.0000000E+00;  1.5160240E+01;0;  9.0158403E-01;  3.0085197E+04;  0.0000000E+00;  1.1081266E+01;  4.0000000E+04;  0.0000000E+00;  3.9479203E+04;  7.4887234E-01;  0.0000000E+00;  1.5271170E-01;  1.6440150E+04;
  1.3299035E+00;  9.9999998E-03; -2.1125771E-01;9212;  1.3566606E+00;  0.0000000E+00; -5.9466302E-02;  1.0011597E+03;  1.1632163E-01;  9.3480573E+02;3;  1.9402681E+01;  0.0000000E+00;  1.7298172E+01;0;  1.0887588E+00;  2.9998762E+04;  0.0000000E+00;  1.9612099E+01;  4.0000000E+04;  0.0000000E+00;  3.9500961E+04;  9.6760154E-01;  0.0000000E+00;  1.2115731E-01;  2.7173160E+04;
  1.3298557E+00;  9.9999998E-03; -2.0115206E-01;9213;  1.3469592E+00;  0.0000000E+00; -5.7224452E-02;  1.0019171E+03;  1.1631531E-01;  1.5452596E+03;3;  2.0810484E+01;  0.0000000E+00;  1.6163744E+01;0;  9.8637819E-01;  3.0051600E+04;  0.0000000E+00;  1.5857014E+01;  4.0000000E+04;  0.0000000E+00;  3.9491406E+04;  8.5191447E-01;  0.0000000E+00;  1.3446374E-01;  2.2237365E+04;
  1.3290981E+00;  9.9999998E-03; -2.6175499E-01;9207;  1.3869417E+00;  0.0000000E+00; -5.5750724E-02;  9.9963153E+02;  1.1637048E-01; -2.9709109E+02;3;  3.1558583E+00;  0.0000000E+00;  2.4185385E+01;0;  1.7550739E+00;  2.9891564E+04;  0.0000000E+00; -7.3159868E-01;  4.0000000E+04;  0.0000000E+00;  3.9497910E+04;  1.7059845E+00;  0.0000000E+00;  4.9089450E-02;  4.6895063E+03;
  1.3289107E+00;  9.9999998E-03; -2.7183187E-01;9206;  1.3904169E+00;  0.0000000E+00; -5.4005150E-02;  1.0000032E+03;  1.1637237E-01;  2.5952916E+00;3; -6.5883589E-01;  0.0000000E+00;  2.5225842E+01;0;  1.9055128E+00;  2.9925160E+04;  0.0000000E+00; -8.8187188E-01;  4.0000000E+04;  0.0000000E+00;  3.9490621E+04;  1.8696170E+00;  0.0000000E+00;  3.5895865E-02;  4.2641587E+03;
  1.3399688E+00;  9.9999998E-03; -2.7190396E-01;9263;  1.4001499E+00;  0.0000000E+00; -5.4963931E-02;  1.0006794E+03;  1.1516856E-01;  5.4535040E+02;3;  8.0546036E+00;  0.0000000E+00;  2.1298063E+01;0;  1.5811495E+00;  3.0616309E+04;  0.0000000E+00;  3.5088391E+00;  4.0000000E+04;  0.0000000E+00;  3.9463359E+04;  1.5182010E+00;  0.0000000E+00;  6.2948465E-02;  5.8621616E+03;
  1.3401896E+00;  9.9999998E-03; -2.6183018E-01;9264;  1.3945570E+00;  0.0000000E+00; -5.5547759E-02;  1.0000449E+03;  1.1516324E-01;  3.6066055E+01;3;  1.1234363E+01;  0.0000000E+00;  2.0136410E+01;0;  1.4299762E+00;  3.0569301E+04;  0.0000000E+00;  1.9169611E+00;  4.0000000E+04;  0.0000000E+00;  3.9470938E+04;  1.3589113E+00;  0.0000000E+00;  7.1064934E-02;  6.8307090E+03;
  1.3404877E+00;  9.9999998E-03; -2.5174567E-01;9265;  1.3898383E+00;  0.0000000E+00; -5.6871898E-02;  9.9909467E+02;  1.1515955E-01; -7.2643616E+02;3;  1.4185388E+01;  0.0000000E+00;  1.8981937E+01;0;  1.3069034E+00;  3.0502580E+04;  0.0000000E+00;  7.9054852E+00;  4.0000000E+04;  0.0000000E+00;  3.9481117E+04;  1.2134283E+00;  0.0000000E+00;  9.3475066E-02;  1.3634848E+04;
  1.3408247E+00;  9.9999998E-03; -2.4165094E-01;9266;  1.3845663E+00;  0.0000000E+00; -5.8269110E-02;  9.9841461E+02;  1.1515359E-01; -1.2718920E+03;3;  1.7079046E+01;  0.0000000E+00;  1.7763889E+01;0;  1.1905760E+00;  3.0457691E+04;  0.0000000E+00;  1.4374363E+01;  4.0000000E+04;  0.0000000E+00;  3.9490023E+04;  1.0731604E+00;  0.0000000E+00;  1.1741554E-01;  2.0714756E+04;
  1.3410821E+00;  9.9999998E-03; -2.3155268E-01;9267;  1.3782799E+00;  0.0000000E+00; -5.9098180E-02;  9.9847211E+02;  1.1514475E-01; -1.2256495E+03;3;  1.9929935E+01;  0.0000000E+00;  1.6436827E+01;0;  1.0758971E+00;  3.0465389E+04;  0.0000000E+00;  2.0585478E+01;  4.0000000E+04;  0.0000000E+00;  3.9490723E+04;  9.4080502E-01;  0.0000000E+00;  1.3509203E-01;  2.7557096E+04;
  1.3411895E+00;  9.9999998E-03; -2.2144872E-01;9268;  1.3703682E+00;  0.0000000E+00; -5.8981743E-02;  9.9924042E+02;  1.1513361E-01; -6.0930420E+02;3;  2.2204441E+01;  0.0000000E+00;  1.4907390E+01;0;  9.6503246E-01;  3.0520707E+04;  0.0000000E+00;  2.5207409E+01;  4.0000000E+04;  0.0000000E+00;  3.9486004E+04;  8.1872481E-01;  0.0000000E+00;  1.4630766E-01;  3.2670061E+04;
  1.3411958E+00;  9.9999998E-03; -2.1132028E-01;9269;  1.3607315E+00;  0.0000000E+00; -5.7615593E-02;  1.0003361E+03;  1.1512163E-01;  2.6955798E+02;3;  2.3705490E+01;  0.0000000E+00;  1.3548347E+01;0;  8.6197507E-01;  3.0592330E+04;  0.0000000E+00;  2.5753128E+01;  4.0000000E+04;  0.0000000E+00;  3.9484699E+04;  7.0790678E-01;  0.0000000E+00;  1.5406832E-01;  3.2925184E+04;
  1.3411824E+00;  9.9999998E-03; -2.0117739E-01;9270;  1.3501693E+00;  0.0000000E+00; -5.4893985E-02;  1.0012734E+03;  1.1511121E-01;  1.0214389E+03;3;  2.4692242E+01;  0.0000000E+00;  1.2548312E+01;0;  7.7139086E-01;  3.0655227E+04;  0.0000000E+00;  2.2176098E+01;  4.0000000E+04;  0.0000000E+00;  3.9481012E+04;  6.0941595E-01;  0.0000000E+00;  1.6197489E-01;  2.8343752E+04;
  1.3411918E+00;  9.9999998E-03; -1.9106366E-01;9271;  1.3401999E+00;  0.0000000E+00; -5.1919315E-02;  1.0018385E+03;  1.1510525E-01;  1.4746830E+03;3;  2.5586342E+01;  0.0000000E+00;  1.1639817E+01;0;  6.9780076E-01;  3.0699848E+04;  0.0000000E+00;  1.6542463E+01;  4.0000000E+04;  0.0000000E+00;  3.9468973E+04;  5.2384841E-01;  0.0000000E+00;  1.7395236E-01;  2.1612465E+04;
  1.3412293E+00;  9.9999998E-03; -1.8099782E-01;9272;  1.3317509E+00;  0.0000000E+00; -4.9617622E-02;  1.0020925E+03;  1.1510225E-01;  1.6784246E+03;3;  2.6557590E+01;  0.0000000E+00;  1.0831359E+01;0;  6.3850605E-01;  3.0725791E+04;  0.0000000E+00;  1.0975899E+01;  4.0000000E+04;  0.0000000E+00;  3.9455246E+04;  4.4943008E-01;  0.0000000E+00;  1.8907599E-01;  1.5373095E+04;
  1.3412827E+00;  9.9999998E-03; -1.7096974E-01;9273;  1.3247186E+00;  0.0000000E+00; -4.8110124E-02;  1.0021534E+03;  1.1510223E-01;  1.7272438E+03;3;  2.7827658E+01;  0.0000000E+00;  9.9936781E+00;0;  5.8806902E-01;  3.0735119E+04;  0.0000000E+00;  6.5592017E+00;  4.0000000E+04;  0.0000000E+00;  3.9446352E+04;  3.8336739E-01;  0.0000000E+00;  2.0470163E-01;  1.0892085E+04;
  1.3413469E+00;  9.9999998E-03; -1.6096355E-01;9274;  1.3185211E+00;  0.0000000E+00; -4.6923317E-02;  1.0020767E+03;  1.1510358E-01;  1.6657122E+03;3;  2.9110670E+01;  0.0000000E+00;  9.1496639E+00;0;  5.4246736E-01;  3.0731420E+04;  0.0000000E+00;  3.4941103E+00;  4.0000000E+04;  0.0000000E+00;  3.9443344E+04;  3.2333270E-01;  0.0000000E+00;  2.1913466E-01;  8.2291396E+03;
  1.3414189E+00;  9.9999998E-03; -1.5096420E-01;9275;  1.3129674E+00;  0.0000000E+00; -4.5675170E-02;  1.0018820E+03;  1.1510389E-01;  1.5094266E+03;3;  2.9801249E+01;  0.0000000E+00;  7.9107528E+00;0;  4.9987215E-01;  3.0718035E+04;  0.0000000E+00;  1.5840731E+00;  4.0000000E+04;  0.0000000E+00;  3.9444949E+04;  2.6800045E-01;  0.0000000E+00;  2.3187171E-01;  6.8098765E+03;
  1.3414965E+00;  9.9999998E-03; -1.4095818E-01;9276;  1.3078423E+00;  0.0000000E+00; -4.3493405E-02;  1.0016080E+03;  1.1510449E-01;  1.2896639E+03;3;  3.0308458E+01;  0.0000000E+00;  6.3450570E+00;0;  4.5930612E-01;  3.0698123E+04;  0.0000000E+00;  5.2482212E-01;  4.0000000E+04;  0.0000000E+00;  3.9448855E+04;  2.1661763E-01;  0.0000000E+00;  2.4268849E-01;  5.9869365E+03;
  1.3415726E+00;  9.9999998E-03; -1.3093312E-01;9277;  1.3033941E+00;  0.0000000E+00; -3.9986677E-02;  1.0012720E+03;  1.1510377E-01;  1.0202030E+03;3;  2.9983082E+01;  0.0000000E+00;  5.5211396E+00;0;  4.2048231E-01;  3.0674580E+04;  0.0000000E+00;  3.4083668E-02;  4.0000000E+04;  0.0000000E+00;  3.9453777E+04;  1.6898549E-01;  0.0000000E+00;  2.5149682E-01;  5.3818921E+03;
  1.3416419E+00;  9.9999998E-03; -1.2088224E-01;9278;  1.2997001E+00;  0.0000000E+00; -3.6050767E-02;  1.0009186E+03;  1.1510310E-01;  7.3670996E+02;3;  3.0031591E+01;  0.0000000E+00;  5.4561186E+00;0;  3.8326037E-01;  3.0650027E+04;  0.0000000E+00; -1.1732104E-01;  4.0000000E+04;  0.0000000E+00;  3.9458273E+04;  1.2517799E-01;  0.0000000E+00;  2.5808236E-01;  4.8671982E+03;
  1.3416976E+00;  9.9999998E-03; -1.1081499E-01;9279;  1.2966923E+00;  0.0000000E+00; -3.2140657E-02;  1.0005698E+03;  1.1510353E-01;  4.5696634E+02;3;  3.0065548E+01;  0.0000000E+00;  5.4667158E+00;0;  3.4777775E-01;  3.0626441E+04;  0.0000000E+00; -9.9849969E-02;  4.0000000E+04;  0.0000000E+00;  3.9461816E+04;  8.5534252E-02;  0.0000000E+00;  2.6224351E-01;  4.4343804E+03;
  1.3511882E+00;  9.9999998E-03; -2.6191723E-01;9320;  1.4001504E+00;  0.0000000E+00; -5.4779686E-02;  1.0006573E+03;  1.1409967E-01;  5.2466504E+02;3;  1.6926329E+01;  0.0000000E+00;  1.5874504E+01;0;  1.1618999E+00;  3.1206412E+04;  0.0000000E+00;  2.8100522E+00;  4.0000000E+04;  0.0000000E+00;  3.9439770E+04;  1.0712682E+00;  0.0000000E+00;  9.0631701E-02;  6.6748623E+03;
  1.3514721E+00;  9.9999998E-03; -2.5183889E-01;9321;  1.3941779E+00;  0.0000000E+00; -5.5153765E-02;  9.9949457E+02;  1.1409573E-01; -4.0338159E+02;3;  1.9378981E+01;  0.0000000E+00;  1.5018509E+01;0;  1.0491060E+00;  3.1125873E+04;  0.0000000E+00;  9.1565657E+00;  4.0000000E+04;  0.0000000E+00;  3.9448410E+04;  9.3808520E-01;  0.0000000E+00;  1.1102086E-01;  1.4334822E+04;
  1.3518192E+00;  9.9999998E-03; -2.4174920E-01;9322;  1.3880821E+00;  0.0000000E+00; -5.5955939E-02;  9.9834644E+02;  1.1409164E-01; -1.3194047E+03;3;  2.1559443E+01;  0.0000000E+00;  1.4235002E+01;0;  9.5282596E-01;  3.1049297E+04;  0.0000000E+00;  1.6724472E+01;  4.0000000E+04;  0.0000000E+00;  3.9457918E+04;  8.1441486E-01;  0.0000000E+00;  1.3841110E-01;  2.2451742E+04;
  1.3521366E+00;  9.9999998E-03; -2.3165132E-01;9323;  1.3811643E+00;  0.0000000E+00; -5.6492195E-02;  9.9786487E+02;  1.1408464E-01; -1.7034000E+03;3;  2.3742405E+01;  0.0000000E+00;  1.3166549E+01;0;  8.5985684E-01;  3.1020004E+04;  0.0000000E+00;  2.3273371E+01;  4.0000000E+04;  0.0000000E+00;  3.9462551E+04;  6.9877660E-01;  0.0000000E+00;  1.6108023E-01;  2.9195115E+04;
  1.3523276E+00;  9.9999998E-03; -2.2154756E-01;9324;  1.3731747E+00;  0.0000000E+00; -5.6349371E-02;  9.9826489E+02;  1.1407537E-01; -1.3840911E+03;3;  2.5665674E+01;  0.0000000E+00;  1.1803559E+01;0;  7.6962054E-01;  3.1051078E+04;  0.0000000E+00;  2.8791481E+01;  4.0000000E+04;  0.0000000E+00;  3.9460434E+04;  5.9383422E-01;  0.0000000E+00;  1.7578635E-01;  3.4860273E+04;
  1.3523973E+00;  9.9999998E-03; -2.0125161E-01;9326;  1.3529270E+00;  0.0000000E+00; -5.2440390E-02;  1.0004357E+03;  1.1405227E-01;  3.4755508E+02;3;  2.7598047E+01;  0.0000000E+00;  9.8236122E+00;0;  6.0533738E-01;  3.1190922E+04;  0.0000000E+00;  2.9028931E+01;  4.0000000E+04;  0.0000000E+00;  3.9465383E+04;  4.1768676E-01;  0.0000000E+00;  1.8765061E-01;  3.4269160E+04;
  1.3523849E+00;  9.9999998E-03; -2.1141917E-01;9325;  1.3636950E+00;  0.0000000E+00; -5.5189338E-02;  9.9930511E+02;  1.1406400E-01; -5.5428503E+02;3;  2.6997780E+01;  0.0000000E+00;  1.0408076E+01;0;  6.8397844E-01;  3.1119691E+04;  0.0000000E+00;  3.1260809E+01;  4.0000000E+04;  0.0000000E+00;  3.9461293E+04;  5.0008988E-01;  0.0000000E+00;  1.8388858E-01;  3.7178844E+04;
  1.3524363E+00;  9.9999998E-03; -1.9108778E-01;9327;  1.3420076E+00;  0.0000000E+00; -4.8801150E-02;  1.0012103E+03;  1.1404257E-01;  9.6543170E+02;3;  2.8196245E+01;  0.0000000E+00;  9.0537271E+00;0;  5.4027140E-01;  3.1246551E+04;  0.0000000E+00;  2.3287790E+01;  4.0000000E+04;  0.0000000E+00;  3.9459508E+04;  3.4739989E-01;  0.0000000E+00;  1.9287154E-01;  2.7632861E+04;
  1.3525169E+00;  9.9999998E-03; -1.8097451E-01;9328;  1.3324331E+00;  0.0000000E+00; -4.5479152E-02;  1.0015861E+03;  1.1403596E-01;  1.2650953E+03;3;  2.8280676E+01;  0.0000000E+00;  8.4914961E+00;0;  4.9024978E-01;  3.1283785E+04;  0.0000000E+00;  1.6585236E+01;  4.0000000E+04;  0.0000000E+00;  3.9443980E+04;  2.8874388E-01;  0.0000000E+00;  2.0150590E-01;  2.0238510E+04;
  1.3526164E+00;  9.9999998E-03; -1.7091449E-01;9329;  1.3247104E+00;  0.0000000E+00; -4.3418456E-02;  1.0017227E+03;  1.1403257E-01;  1.3739884E+03;3;  2.8907125E+01;  0.0000000E+00;  7.9821124E+00;0;  4.5093381E-01;  3.1304645E+04;  0.0000000E+00;  1.0745087E+01;  4.0000000E+04;  0.0000000E+00;  3.9429121E+04;  2.3891267E-01;  0.0000000E+00;  2.1202116E-01;  1.4155266E+04;
  1.3527068E+00;  9.9999998E-03; -1.6089211E-01;9330;  1.3181906E+00;  0.0000000E+00; -4.2068172E-02;  1.0017233E+03;  1.1403123E-01;  1.3743970E+03;3;  2.9885717E+01;  0.0000000E+00;  7.2647772E+00;0;  4.1650987E-01;  3.1311059E+04;  0.0000000E+00;  6.3761096E+00;  4.0000000E+04;  0.0000000E+00;  3.9420566E+04;  1.9481964E-01;  0.0000000E+00;  2.2169021E-01;  1.0013822E+04;
  1.3527867E+00;  9.9999998E-03; -1.5088929E-01;9331;  1.3124889E+00;  0.0000000E+00; -4.1071020E-02;  1.0016201E+03;  1.1403169E-01;  1.2920070E+03;3;  3.0401842E+01;  0.0000000E+00;  6.8571548E+00;0;  3.8439634E-01;  3.1305238E+04;  0.0000000E+00;  3.4145319E+00;  4.0000000E+04;  0.0000000E+00;  3.9418414E+04;  1.5451722E-01;  0.0000000E+00;  2.2987913E-01;  7.5557471E+03;
  1.3528608E+00;  9.9999998E-03; -1.4088857E-01;9332;  1.3073694E+00;  0.0000000E+00; -3.9889827E-02;  1.0014237E+03;  1.1403270E-01;  1.1353806E+03;3;  3.1112307E+01;  0.0000000E+00;  5.8588662E+00;0;  3.5342932E-01;  3.1289898E+04;  0.0000000E+00;  1.5869392E+00;  4.0000000E+04;  0.0000000E+00;  3.9421004E+04;  1.1691079E-01;  0.0000000E+00;  2.3651852E-01;  6.1694033E+03;
  1.3529263E+00;  9.9999998E-03; -1.3087685E-01;9333;  1.3027718E+00;  0.0000000E+00; -3.7829038E-02;  1.0011487E+03;  1.1403394E-01;  9.1602960E+02;3;  3.0938427E+01;  0.0000000E+00;  4.7132397E+00;0;  3.2337946E-01;  3.1268328E+04;  0.0000000E+00;  5.7467461E-01;  4.0000000E+04;  0.0000000E+00;  3.9426402E+04;  8.1600919E-02;  0.0000000E+00;  2.4177854E-01;  5.2822349E+03;
  1.3529817E+00;  9.9999998E-03; -1.2084559E-01;9334;  1.2988900E+00;  0.0000000E+00; -3.4620907E-02;  1.0008237E+03;  1.1403426E-01;  6.5677240E+02;3;  3.0773422E+01;  0.0000000E+00;  4.3716984E+00;0;  2.9437226E-01;  3.1243111E+04;  0.0000000E+00;  9.3395844E-02;  4.0000000E+04;  0.0000000E+00;  3.9432402E+04;  4.8577562E-02;  0.0000000E+00;  2.4579470E-01;  4.5818228E+03;
  1.3530216E+00;  9.9999998E-03; -1.1079990E-01;9335;  1.2957021E+00;  0.0000000E+00; -3.1176168E-02;  1.0004833E+03;  1.1403533E-01;  3.8546167E+02;3;  3.0646126E+01;  0.0000000E+00;  4.5246887E+00;0;  2.6663017E-01;  3.1216949E+04;  0.0000000E+00; -7.6660261E-02;  4.0000000E+04;  0.0000000E+00;  3.9438410E+04;  1.8115602E-02;  0.0000000E+00;  2.4851458E-01;  3.9744495E+03;
  1.3621515E+00;  9.9999998E-03; -2.6201183E-01;9375;  1.4047360E+00;  0.0000000E+00; -5.3918578E-02;  1.0012200E+03;  1.1316754E-01;  9.6774078E+02;3;  2.1084311E+01;  0.0000000E+00;  1.2577566E+01;0;  9.5816201E-01;  3.1784658E+04;  0.0000000E+00;  2.3977678E+00;  4.0000000E+04;  0.0000000E+00;  3.9407637E+04;  8.4502745E-01;  0.0000000E+00;  1.1313458E-01;  4.9439863E+03;
  1.3623971E+00;  9.9999998E-03; -2.5194192E-01;9376;  1.3971448E+00;  0.0000000E+00; -5.3073145E-02;  1.0001198E+03;  1.1316256E-01;  9.5019913E+01;3;  2.3003561E+01;  0.0000000E+00;  1.1665204E+01;0;  8.4166318E-01;  3.1710814E+04;  0.0000000E+00;  7.4231734E+00;  4.0000000E+04;  0.0000000E+00;  3.9413414E+04;  7.1682000E-01;  0.0000000E+00;  1.2484316E-01;  1.1367217E+04;
  1.3627216E+00;  9.9999998E-03; -2.4186069E-01;9377;  1.3904829E+00;  0.0000000E+00; -5.3222194E-02;  9.9865594E+02;  1.1315913E-01; -1.0658076E+03;3;  2.4871811E+01;  0.0000000E+00;  1.0952991E+01;0;  7.6091301E-01;  3.1613117E+04;  0.0000000E+00;  1.6686548E+01;  4.0000000E+04;  0.0000000E+00;  3.9421137E+04;  6.0761607E-01;  0.0000000E+00;  1.5329692E-01;  2.1148582E+04;
  1.3630555E+00;  9.9999998E-03; -2.3176922E-01;9378;  1.3833437E+00;  0.0000000E+00; -5.3550664E-02;  9.9763788E+02;  1.1315507E-01; -1.8726952E+03;3;  2.6610832E+01;  0.0000000E+00;  1.0147969E+01;0;  6.8955326E-01;  3.1547469E+04;  0.0000000E+00;  2.4805159E+01;  4.0000000E+04;  0.0000000E+00;  3.9426891E+04;  5.0791717E-01;  0.0000000E+00;  1.8163608E-01;  2.9175984E+04;
  1.3633163E+00;  9.9999998E-03; -2.2166918E-01;9379;  1.3751733E+00;  0.0000000E+00; -5.3284444E-02;  9.9748553E+02;  1.1314818E-01; -1.9931567E+03;3;  2.8141850E+01;  0.0000000E+00;  8.7745552E+00;0;  6.1720967E-01;  3.1541939E+04;  0.0000000E+00;  3.1219009E+01;  4.0000000E+04;  0.0000000E+00;  3.9427566E+04;  4.1730502E-01;  0.0000000E+00;  1.9990462E-01;  3.5385586E+04;
  1.3634472E+00;  9.9999998E-03; -2.1155173E-01;9380;  1.3658978E+00;  0.0000000E+00; -5.2153893E-02;  9.9821387E+02;  1.1313817E-01; -1.4156851E+03;3;  2.9474127E+01;  0.0000000E+00;  7.7746563E+00;0;  5.4674494E-01;  3.1592113E+04;  0.0000000E+00;  3.5421112E+01;  4.0000000E+04;  0.0000000E+00;  3.9427887E+04;  3.3784291E-01;  0.0000000E+00;  2.0890202E-01;  3.9309719E+04;
  1.3634866E+00;  9.9999998E-03; -2.0138650E-01;9381;  1.3553244E+00;  0.0000000E+00; -4.9860187E-02;  9.9941327E+02;  1.1312574E-01; -4.6504916E+02;3;  2.9830734E+01;  0.0000000E+00;  7.3179708E+00;0;  4.8072046E-01;  3.1665461E+04;  0.0000000E+00;  3.5541809E+01;  4.0000000E+04;  0.0000000E+00;  3.9436695E+04;  2.6929718E-01;  0.0000000E+00;  2.1142329E-01;  3.8952523E+04;
  1.3635309E+00;  9.9999998E-03; -1.9118607E-01;9382;  1.3439792E+00;  0.0000000E+00; -4.6168685E-02;  1.0004554E+03;  1.1311476E-01;  3.6091815E+02;3;  3.0155645E+01;  0.0000000E+00;  6.8204398E+00;0;  4.2262638E-01;  3.1731043E+04;  0.0000000E+00;  3.0971548E+01;  4.0000000E+04;  0.0000000E+00;  3.9441969E+04;  2.1170413E-01;  0.0000000E+00;  2.1092226E-01;  3.3813531E+04;
  1.3636266E+00;  9.9999998E-03; -1.8101354E-01;9383;  1.3333430E+00;  0.0000000E+00; -4.1944847E-02;  1.0010278E+03;  1.1310447E-01;  8.1456848E+02;3;  2.9862196E+01;  0.0000000E+00;  6.7284584E+00;0;  3.7760353E-01;  3.1779020E+04;  0.0000000E+00;  2.3767105E+01;  4.0000000E+04;  0.0000000E+00;  3.9432344E+04;  1.6553470E-01;  0.0000000E+00;  2.1206884E-01;  2.6174234E+04;
  1.3637565E+00;  9.9999998E-03; -1.7090760E-01;9384;  1.3247217E+00;  0.0000000E+00; -3.9049402E-02;  1.0012759E+03;  1.1309916E-01;  1.0110904E+03;3;  2.9825531E+01;  0.0000000E+00;  6.3716784E+00;0;  3.4574050E-01;  3.1810139E+04;  0.0000000E+00;  1.6507265E+01;  4.0000000E+04;  0.0000000E+00;  3.9414258E+04;  1.2899946E-01;  0.0000000E+00;  2.1674103E-01;  1.8765963E+04;
  1.3638821E+00;  9.9999998E-03; -1.6085705E-01;9385;  1.3177844E+00;  0.0000000E+00; -3.7275650E-02;  1.0013560E+03;  1.1309647E-01;  1.0744890E+03;3;  3.0510275E+01;  0.0000000E+00;  5.9402771E+00;0;  3.1994921E-01;  3.1827502E+04;  0.0000000E+00;  1.0578079E+01;  4.0000000E+04;  0.0000000E+00;  3.9399191E+04;  9.8278366E-02;  0.0000000E+00;  2.2167085E-01;  1.3030714E+04;
  1.3639894E+00;  9.9999998E-03; -1.5083678E-01;9386;  1.3118280E+00;  0.0000000E+00; -3.6187574E-02;  1.0013232E+03;  1.1309458E-01;  1.0484421E+03;3;  3.0990505E+01;  0.0000000E+00;  5.8718119E+00;0;  2.9614210E-01;  3.1831619E+04;  0.0000000E+00;  6.2524056E+00;  4.0000000E+04;  0.0000000E+00;  3.9391418E+04;  7.0604153E-02;  0.0000000E+00;  2.2553794E-01;  9.1785537E+03;
  1.3640795E+00;  9.9999998E-03; -1.4082851E-01;9387;  1.3066546E+00;  0.0000000E+00; -3.5395194E-02;  1.0012106E+03;  1.1309516E-01;  9.5922333E+02;3;  3.1371826E+01;  0.0000000E+00;  5.3396978E+00;0;  2.7284840E-01;  3.1824234E+04;  0.0000000E+00;  3.3502016E+00;  4.0000000E+04;  0.0000000E+00;  3.9390602E+04;  4.4630084E-02;  0.0000000E+00;  2.2821832E-01;  6.8493369E+03;
  1.3641552E+00;  9.9999998E-03; -1.3081743E-01;9388;  1.3020008E+00;  0.0000000E+00; -3.4317318E-02;  1.0010164E+03;  1.1309624E-01;  8.0523352E+02;3;  3.1541780E+01;  0.0000000E+00;  4.7660136E+00;0;  2.4968651E-01;  3.1807834E+04;  0.0000000E+00;  1.5536485E+00;  4.0000000E+04;  0.0000000E+00;  3.9394359E+04;  1.9692153E-02;  0.0000000E+00;  2.2999436E-01;  5.4680430E+03;
  1.3642181E+00;  9.9999998E-03; -1.2079646E-01;9389;  1.2979845E+00;  0.0000000E+00; -3.2432586E-02;  1.0007571E+03;  1.1309741E-01;  5.9979321E+02;3;  3.1354029E+01;  0.0000000E+00;  3.8532836E+00;0;  2.2692953E-01;  3.1785381E+04;  0.0000000E+00;  5.4437768E-01;  4.0000000E+04;  0.0000000E+00;  3.9400520E+04; -4.2815697E-03;  0.0000000E+00;  2.3121110E-01;  4.5413018E+03;
  1.3642660E+00;  9.9999998E-03; -1.1076638E-01;9390;  1.2946405E+00;  0.0000000E+00; -2.9589796E-02;  1.0004508E+03;  1.1309793E-01;  3.5716415E+02;3;  3.1266949E+01;  0.0000000E+00;  3.7844887E+00;0;  2.0498812E-01;  3.1759641E+04;  0.0000000E+00;  5.0678924E-02;  4.0000000E+04;  0.0000000E+00;  3.9407727E+04; -2.7080392E-02;  0.0000000E+00;  2.3206851E-01;  3.8008584E+03;
  1.3730906E+00;  9.9999998E-03; -2.6210856E-01;9429;  1.4076023E+00;  0.0000000E+00; -5.2619167E-02;  1.0015892E+03;  1.1235024E-01;  1.2516050E+03;3;  2.4332563E+01;  0.0000000E+00;  9.3993931E+00;0;  8.0194652E-01;  3.2293615E+04;  0.0000000E+00;  4.3195133E+00;  4.0000000E+04;  0.0000000E+00;  3.9378379E+04;  6.7057127E-01;  0.0000000E+00;  1.3137527E-01;  4.0787490E+03;
  1.3732976E+00;  9.9999998E-03; -2.5205061E-01;9430;  1.3992757E+00;  0.0000000E+00; -5.0847538E-02;  1.0007783E+03;  1.1234695E-01;  6.1289777E+02;3;  2.5828762E+01;  0.0000000E+00;  9.0941200E+00;0;  6.8409526E-01;  3.2244625E+04;  0.0000000E+00;  3.4883211E+00;  4.0000000E+04;  0.0000000E+00;  3.9378637E+04;  5.4753101E-01;  0.0000000E+00;  1.3656428E-01;  6.1334204E+03;
  1.3735689E+00;  9.9999998E-03; -2.4197976E-01;9431;  1.3920170E+00;  0.0000000E+00; -5.0245978E-02;  9.9932935E+02;  1.1234305E-01; -5.2802936E+02;3;  2.7126856E+01;  0.0000000E+00;  8.3787832E+00;0;  6.1079425E-01;  3.2148875E+04;  0.0000000E+00;  1.3253657E+01;  4.0000000E+04;  0.0000000E+00;  3.9382770E+04;  4.4814143E-01;  0.0000000E+00;  1.6265284E-01;  1.6266966E+04;
  1.3738900E+00;  9.9999998E-03; -2.3189808E-01;9432;  1.3847768E+00;  0.0000000E+00; -5.0220177E-02;  9.9787549E+02;  1.1234093E-01; -1.6722609E+03;3;  2.8763781E+01;  0.0000000E+00;  7.6327248E+00;0;  5.5603945E-01;  3.2054094E+04;  0.0000000E+00;  2.3579662E+01;  4.0000000E+04;  0.0000000E+00;  3.9386891E+04;  3.6146167E-01;  0.0000000E+00;  1.9457777E-01;  2.6122699E+04;
  1.3741856E+00;  9.9999998E-03; -2.2180705E-01;9433;  1.3765914E+00;  0.0000000E+00; -4.9789928E-02;  9.9710907E+02;  1.1233719E-01; -2.2750886E+03;3;  3.0147690E+01;  0.0000000E+00;  6.6059499E+00;0;  4.9967712E-01;  3.2007812E+04;  0.0000000E+00;  3.1674351E+01;  4.0000000E+04;  0.0000000E+00;  3.9387895E+04;  2.8277135E-01;  0.0000000E+00;  2.1690579E-01;  3.3597957E+04;
  1.3743886E+00;  9.9999998E-03; -2.1170272E-01;9434;  1.3673949E+00;  0.0000000E+00; -4.8627984E-02;  9.9728119E+02;  1.1232954E-01; -2.1393115E+03;3;  3.1149368E+01;  0.0000000E+00;  5.6282034E+00;0;  4.4189012E-01;  3.2024283E+04;  0.0000000E+00;  3.7475548E+01;  4.0000000E+04;  0.0000000E+00;  3.9387266E+04;  2.1398307E-01;  0.0000000E+00;  2.2790703E-01;  3.8833129E+04;
  1.3744763E+00;  9.9999998E-03; -2.0156085E-01;9435;  1.3572736E+00;  0.0000000E+00; -4.6862230E-02;  9.9827618E+02;  1.1231917E-01; -1.3563193E+03;3;  3.1937809E+01;  0.0000000E+00;  4.9983654E+00;0;  3.8806155E-01;  3.2086701E+04;  0.0000000E+00;  4.0262165E+01;  4.0000000E+04;  0.0000000E+00;  3.9394375E+04;  1.5637703E-01;  0.0000000E+00;  2.3168452E-01;  4.1032941E+04;
  1.3745096E+00;  9.9999998E-03; -1.9135797E-01;9436;  1.3460979E+00;  0.0000000E+00; -4.3750558E-02;  9.9953168E+02;  1.1230714E-01; -3.6846405E+02;3;  3.2151066E+01;  0.0000000E+00;  4.7040706E+00;0;  3.3720514E-01;  3.2159896E+04;  0.0000000E+00;  3.8510384E+01;  4.0000000E+04;  0.0000000E+00;  3.9409094E+04;  1.0883024E-01;  0.0000000E+00;  2.2837491E-01;  3.8815684E+04;
  1.3745782E+00;  9.9999998E-03; -1.8113942E-01;9437;  1.3347863E+00;  0.0000000E+00; -3.9317660E-02;  1.0004294E+03;  1.1229707E-01;  3.3782419E+02;3;  3.1533869E+01;  0.0000000E+00;  4.9022894E+00;0;  2.9434097E-01;  3.2218625E+04;  0.0000000E+00;  3.2288635E+01;  4.0000000E+04;  0.0000000E+00;  3.9412035E+04;  7.1684822E-02;  0.0000000E+00;  2.2265616E-01;  3.2492070E+04;
  1.3747114E+00;  9.9999998E-03; -1.7097427E-01;9438;  1.3250871E+00;  0.0000000E+00; -3.5457809E-02;  1.0008370E+03;  1.1228967E-01;  6.5842242E+02;3;  3.1006260E+01;  0.0000000E+00;  5.0059552E+00;0;  2.6501289E-01;  3.2258510E+04;  0.0000000E+00;  2.4105665E+01;  4.0000000E+04;  0.0000000E+00;  3.9398145E+04;  4.4718280E-02;  0.0000000E+00;  2.2029461E-01;  2.4544434E+04;
  1.3748742E+00;  9.9999998E-03; -1.6087626E-01;9439;  1.3175051E+00;  0.0000000E+00; -3.3023298E-02;  1.0009775E+03;  1.1228351E-01;  7.6889819E+02;3;  3.1140892E+01;  0.0000000E+00;  5.0031028E+00;0;  2.4463132E-01;  3.2284160E+04;  0.0000000E+00;  1.6490929E+01;  4.0000000E+04;  0.0000000E+00;  3.9379520E+04;  2.4511941E-02;  0.0000000E+00;  2.2011937E-01;  1.7381051E+04;
  1.3750293E+00;  9.9999998E-03; -1.5082440E-01;9440;  1.3112087E+00;  0.0000000E+00; -3.1600572E-02;  1.0010031E+03;  1.1228055E-01;  7.8897040E+02;3;  3.1437431E+01;  0.0000000E+00;  5.0535798E+00;0;  2.2696938E-01;  3.2297559E+04;  0.0000000E+00;  1.0485440E+01;  4.0000000E+04;  0.0000000E+00;  3.9365867E+04;  7.1943961E-03;  0.0000000E+00;  2.1977498E-01;  1.1977524E+04;
  1.3751607E+00;  9.9999998E-03; -1.4079456E-01;9441;  1.3058476E+00;  0.0000000E+00; -3.0766699E-02;  1.0009666E+03;  1.1227982E-01;  7.6020874E+02;3;  3.1568521E+01;  0.0000000E+00;  5.0199084E+00;0;  2.0963782E-01;  3.2299547E+04;  0.0000000E+00;  6.1625853E+00;  4.0000000E+04;  0.0000000E+00;  3.9359629E+04; -9.0778349E-03;  0.0000000E+00;  2.1871565E-01;  8.3393955E+03;
  1.3752664E+00;  9.9999998E-03; -1.3077174E-01;9442;  1.3011693E+00;  0.0000000E+00; -3.0093327E-02;  1.0008568E+03;  1.1227978E-01;  6.7372107E+02;3;  3.1837379E+01;  0.0000000E+00;  4.6028409E+00;0;  1.9195890E-01;  3.2291230E+04;  0.0000000E+00;  3.2582591E+00;  4.0000000E+04;  0.0000000E+00;  3.9359832E+04; -2.5222454E-02;  0.0000000E+00;  2.1718135E-01;  6.0870054E+03;
  1.3753513E+00;  9.9999998E-03; -1.2074960E-01;9443;  1.2970688E+00;  0.0000000E+00; -2.9209431E-02;  1.0006688E+03;  1.1227995E-01;  5.2585828E+02;3;  3.1899897E+01;  0.0000000E+00;  4.0111475E+00;0;  1.7412153E-01;  3.2274732E+04;  0.0000000E+00;  1.4499731E+00;  4.0000000E+04;  0.0000000E+00;  3.9364359E+04; -4.1496806E-02;  0.0000000E+00;  2.1561833E-01;  4.7263311E+03;
  1.3754174E+00;  9.9999998E-03; -1.1072628E-01;9444;  1.2935443E+00;  0.0000000E+00; -2.7451040E-02;  1.0004273E+03;  1.1228112E-01;  3.3602710E+02;3;  3.1883297E+01;  0.0000000E+00;  3.2881229E+00;0;  1.5658911E-01;  3.2252436E+04;  0.0000000E+00;  4.2733759E-01;  4.0000000E+04;  0.0000000E+00;  3.9371012E+04; -5.7751987E-02;  0.0000000E+00;  2.1434109E-01;  3.8165667E+03;
  1.3839147E+00;  9.9999998E-03; -2.6221254E-01;9482;  1.4108918E+00;  0.0000000E+00; -5.1249970E-02;  1.0023781E+03;  1.1163543E-01;  1.8577745E+03;3;  2.8178787E+01;  0.0000000E+00;  6.4942946E+00;0;  7.1048158E-01;  3.2783262E+04;  0.0000000E+00;  1.1204585E+01;  4.0000000E+04;  0.0000000E+00;  3.9343492E+04;  5.6099546E-01;  0.0000000E+00;  1.4948611E-01;  5.7245859E+03;
  1.3841866E+00;  9.9999998E-03; -2.5216123E-01;9483;  1.4009104E+00;  0.0000000E+00; -4.8758771E-02;  1.0012552E+03;  1.1163647E-01;  9.8040442E+02;3;  2.8296041E+01;  0.0000000E+00;  6.4136386E+00;0;  5.7710814E-01;  3.2714137E+04;  0.0000000E+00;  1.3495709E+00;  4.0000000E+04;  0.0000000E+00;  3.9345844E+04;  4.2787448E-01;  0.0000000E+00;  1.4923368E-01;  3.1691729E+03;
  1.3843992E+00;  9.9999998E-03; -2.4210191E-01;9484;  1.3930397E+00;  0.0000000E+00; -4.7357325E-02;  1.0001602E+03;  1.1163302E-01;  1.2501968E+02;3;  2.9221344E+01;  0.0000000E+00;  6.1955523E+00;0;  5.0244814E-01;  3.2644730E+04;  0.0000000E+00;  6.7713618E+00;  4.0000000E+04;  0.0000000E+00;  3.9345438E+04;  3.3258766E-01;  0.0000000E+00;  1.6986048E-01;  8.7929238E+03;
  1.3846765E+00;  9.9999998E-03; -2.3203102E-01;9485;  1.3855395E+00;  0.0000000E+00; -4.6745237E-02;  9.9858026E+02;  1.1163107E-01; -1.1084048E+03;3;  3.0207651E+01;  0.0000000E+00;  5.5572100E+00;0;  4.5499933E-01;  3.2541762E+04;  0.0000000E+00;  1.8503656E+01;  4.0000000E+04;  0.0000000E+00;  3.9346594E+04;  2.5398418E-01;  0.0000000E+00;  2.0101516E-01;  1.9639740E+04;
  1.3849710E+00;  9.9999998E-03; -2.2195138E-01;9486;  1.3773397E+00;  0.0000000E+00; -4.5924652E-02;  9.9727063E+02;  1.1162902E-01; -2.1303503E+03;3;  3.1545904E+01;  0.0000000E+00;  4.7077050E+00;0;  4.0889117E-01;  3.2460463E+04;  0.0000000E+00;  2.9038633E+01;  4.0000000E+04;  0.0000000E+00;  3.9345484E+04;  1.8370257E-01;  0.0000000E+00;  2.2518860E-01;  2.8859482E+04;
  1.3852189E+00;  9.9999998E-03; -2.1186246E-01;9487;  1.3682084E+00;  0.0000000E+00; -4.4612110E-02;  9.9676514E+02;  1.1162452E-01; -2.5244053E+03;3;  3.2659927E+01;  0.0000000E+00;  3.7654650E+00;0;  3.6074924E-01;  3.2434930E+04;  0.0000000E+00;  3.6860558E+01;  4.0000000E+04;  0.0000000E+00;  3.9341863E+04;  1.2207850E-01;  0.0000000E+00;  2.3867074E-01;  3.5590059E+04;
  1.3853698E+00;  9.9999998E-03; -2.0175047E-01;9488;  1.3584021E+00;  0.0000000E+00; -4.2998388E-02;  9.9723676E+02;  1.1161788E-01; -2.1561206E+03;3;  3.3663372E+01;  0.0000000E+00;  3.0059645E+00;0;  3.1585687E-01;  3.2468311E+04;  0.0000000E+00;  4.2041065E+01;  4.0000000E+04;  0.0000000E+00;  3.9342664E+04;  7.1522743E-02;  0.0000000E+00;  2.4433415E-01;  3.9829832E+04;
  1.3854191E+00;  9.9999998E-03; -1.9158047E-01;9489;  1.3478414E+00;  0.0000000E+00; -4.0806398E-02;  9.9842963E+02;  1.1160780E-01; -1.2252560E+03;3;  3.4069424E+01;  0.0000000E+00;  2.5767894E+00;0;  2.7405664E-01;  3.2538262E+04;  0.0000000E+00;  4.3896523E+01;  4.0000000E+04;  0.0000000E+00;  3.9356953E+04;  3.1428102E-02;  0.0000000E+00;  2.4262854E-01;  4.0900699E+04;
  1.3854477E+00;  9.9999998E-03; -1.8135071E-01;9490;  1.3366023E+00;  0.0000000E+00; -3.7141066E-02;  9.9967395E+02;  1.1159787E-01; -2.5438371E+02;3;  3.3590168E+01;  0.0000000E+00;  2.7994411E+00;0;  2.3425047E-01;  3.2608193E+04;  0.0000000E+00;  4.0774738E+01;  4.0000000E+04;  0.0000000E+00;  3.9374008E+04;  5.3530553E-04;  0.0000000E+00;  2.3371516E-01;  3.7608836E+04;
  1.3855423E+00;  9.9999998E-03; -1.7112713E-01;9491;  1.3260539E+00;  0.0000000E+00; -3.2865886E-02;  1.0004021E+03;  1.1158987E-01;  3.1370010E+02;3;  3.2708145E+01;  0.0000000E+00;  3.4526119E+00;0;  2.0384064E-01;  3.2657877E+04;  0.0000000E+00;  3.3311745E+01;  4.0000000E+04;  0.0000000E+00;  3.9374199E+04; -2.0560220E-02;  0.0000000E+00;  2.2440086E-01;  3.0749812E+04;
  1.3857154E+00;  9.9999998E-03; -1.6096389E-01;9492;  1.3175153E+00;  0.0000000E+00; -2.9573536E-02;  1.0006448E+03;  1.1158195E-01;  5.0298337E+02;3;  3.1973755E+01;  0.0000000E+00;  4.0576134E+00;0;  1.8458395E-01;  3.2688883E+04;  0.0000000E+00;  2.4465223E+01;  4.0000000E+04;  0.0000000E+00;  3.9359496E+04; -3.3552933E-02;  0.0000000E+00;  2.1813688E-01;  2.2901896E+04;
  1.3859204E+00;  9.9999998E-03; -1.5086064E-01;9493;  1.3107548E+00;  0.0000000E+00; -2.7616050E-02;  1.0006970E+03;  1.1157683E-01;  5.4362140E+02;3;  3.2005127E+01;  0.0000000E+00;  4.2103200E+00;0;  1.7068560E-01;  3.2707619E+04;  0.0000000E+00;  1.6595816E+01;  4.0000000E+04;  0.0000000E+00;  3.9342426E+04; -4.2704597E-02;  0.0000000E+00;  2.1339020E-01;  1.6086115E+04;
  1.3861109E+00;  9.9999998E-03; -1.4079632E-01;9494;  1.3051274E+00;  0.0000000E+00; -2.6488466E-02;  1.0006868E+03;  1.1157320E-01;  5.3563440E+02;3;  3.1990885E+01;  0.0000000E+00;  4.3027663E+00;0;  1.5774882E-01;  3.2717414E+04;  0.0000000E+00;  1.0487086E+01;  4.0000000E+04;  0.0000000E+00;  3.9330453E+04; -5.0953079E-02;  0.0000000E+00;  2.0870189E-01;  1.0969458E+04;
  1.3862686E+00;  9.9999998E-03; -1.3075182E-01;9495;  1.3003317E+00;  0.0000000E+00; -2.5837995E-02;  1.0006306E+03;  1.1157160E-01;  4.9169330E+02;3;  3.2132641E+01;  0.0000000E+00;  4.3425469E+00;0;  1.4442569E-01;  3.2717982E+04;  0.0000000E+00;  6.0921960E+00;  4.0000000E+04;  0.0000000E+00;  3.9325195E+04; -5.9625547E-02;  0.0000000E+00;  2.0405124E-01;  7.4796567E+03;
  1.3863921E+00;  9.9999998E-03; -1.2071841E-01;9496;  1.2961360E+00;  0.0000000E+00; -2.5303904E-02;  1.0005162E+03;  1.1157023E-01;  4.0242236E+02;3;  3.2316448E+01;  0.0000000E+00;  4.0130267E+00;0;  1.3056473E-01;  3.2709746E+04;  0.0000000E+00;  3.1312034E+00;  4.0000000E+04;  0.0000000E+00;  3.9325660E+04; -6.9244832E-02;  0.0000000E+00;  1.9980957E-01;  5.2960640E+03;
  1.3864833E+00;  9.9999998E-03; -1.1069106E-01;9497;  1.2924953E+00;  0.0000000E+00; -2.4498180E-02;  1.0003506E+03;  1.1157095E-01;  2.7331055E+02;3;  3.2498653E+01;  0.0000000E+00;  3.2777348E+00;0;  1.1660822E-01;  3.2694025E+04;  0.0000000E+00;  1.2816918E+00;  4.0000000E+04;  0.0000000E+00;  3.9330027E+04; -7.9766043E-02;  0.0000000E+00;  1.9637427E-01;  3.9909912E+03;
  1.3949888E+00;  9.9999998E-03; -2.5227639E-01;9535;  1.4033732E+00;  0.0000000E+00; -4.7206163E-02;  1.0019924E+03;  1.1101715E-01;  1.5417544E+03;3;  3.1094692E+01;  0.0000000E+00;  3.7392299E+00;0;  5.3456181E-01;  3.3156680E+04;  0.0000000E+00;  6.0782056E+00;  4.0000000E+04;  0.0000000E+00;  3.9308367E+04;  3.6594629E-01;  0.0000000E+00;  1.6861553E-01;  3.1595664E+03;
  1.3952203E+00;  9.9999998E-03; -2.4222487E-01;9536;  1.3941681E+00;  0.0000000E+00; -4.4998061E-02;  1.0009247E+03;  1.1101742E-01;  7.1537885E+02;3;  3.1093414E+01;  0.0000000E+00;  4.0640020E+00;0;  4.4268003E-01;  3.3088871E+04;  0.0000000E+00;  1.1657668E+00;  4.0000000E+04;  0.0000000E+00;  3.9308902E+04;  2.6160559E-01;  0.0000000E+00;  1.8107444E-01;  2.8375012E+03;
  1.3954405E+00;  9.9999998E-03; -2.3216422E-01;9537;  1.3862001E+00;  0.0000000E+00; -4.3683372E-02;  9.9961047E+02;  1.1101469E-01; -3.0127954E+02;3;  3.1804018E+01;  0.0000000E+00;  3.8263345E+00;0;  3.9164114E-01;  3.3004328E+04;  0.0000000E+00;  1.0078361E+01;  4.0000000E+04;  0.0000000E+00;  3.9307379E+04;  1.8434933E-01;  0.0000000E+00;  2.0729181E-01;  1.0894922E+04;
  1.3957059E+00;  9.9999998E-03; -2.2209497E-01;9538;  1.3778138E+00;  0.0000000E+00; -4.2310089E-02;  9.9803870E+02;  1.1101335E-01; -1.5166287E+03;3;  3.2775223E+01;  0.0000000E+00;  3.1251645E+00;0;  3.4698027E-01;  3.2905090E+04;  0.0000000E+00;  2.2420864E+01;  4.0000000E+04;  0.0000000E+00;  3.9303770E+04;  1.1724062E-01;  0.0000000E+00;  2.2973967E-01;  2.1173084E+04;
  1.3959684E+00;  9.9999998E-03; -2.1201983E-01;9539;  1.3685784E+00;  0.0000000E+00; -4.0500034E-02;  9.9689886E+02;  1.1101239E-01; -2.3974451E+03;3;  3.3846176E+01;  0.0000000E+00;  2.2508311E+00;0;  3.0034581E-01;  3.2838707E+04;  0.0000000E+00;  3.2754898E+01;  4.0000000E+04;  0.0000000E+00;  3.9296367E+04;  5.7982970E-02;  0.0000000E+00;  2.4236283E-01;  2.9461926E+04;
  1.3961701E+00;  9.9999998E-03; -2.0193329E-01;9540;  1.3588121E+00;  0.0000000E+00; -3.8598198E-02;  9.9662787E+02;  1.1100850E-01; -2.6064812E+03;3;  3.4861263E+01;  0.0000000E+00;  1.3839724E+00;0;  2.5809994E-01;  3.2830406E+04;  0.0000000E+00;  4.0372089E+01;  4.0000000E+04;  0.0000000E+00;  3.9289625E+04;  9.7322222E-03;  0.0000000E+00;  2.4836773E-01;  3.5475727E+04;
  1.3962748E+00;  9.9999998E-03; -1.9180913E-01;9541;  1.3486433E+00;  0.0000000E+00; -3.6724746E-02;  9.9733167E+02;  1.1100106E-01; -2.0622703E+03;3;  3.5723286E+01;  0.0000000E+00;  8.6280423E-01;0;  2.2169568E-01;  3.2876141E+04;  0.0000000E+00;  4.5351109E+01;  4.0000000E+04;  0.0000000E+00;  3.9294348E+04; -2.7054517E-02;  0.0000000E+00;  2.4875019E-01;  3.9086918E+04;
  1.3963033E+00;  9.9999998E-03; -1.8161292E-01;9542;  1.3380538E+00;  0.0000000E+00; -3.4311596E-02;  9.9863568E+02;  1.1099298E-01; -1.0543939E+03;3;  3.5576038E+01;  0.0000000E+00;  1.0547768E+00;0;  1.8831311E-01;  3.2947645E+04;  0.0000000E+00;  4.6543606E+01;  4.0000000E+04;  0.0000000E+00;  3.9314781E+04; -5.3669360E-02;  0.0000000E+00;  2.4198247E-01;  3.9434574E+04;
  1.3963423E+00;  9.9999998E-03; -1.7136486E-01;9543;  1.3274132E+00;  0.0000000E+00; -3.0741431E-02;  9.9977740E+02;  1.1098433E-01; -1.7204849E+02;3;  3.4543571E+01;  0.0000000E+00;  1.7519808E+00;0;  1.5799224E-01;  3.3010465E+04;  0.0000000E+00;  4.2457966E+01;  4.0000000E+04;  0.0000000E+00;  3.9332391E+04; -7.1345031E-02;  0.0000000E+00;  2.2933728E-01;  3.5657703E+04;
  1.3964720E+00;  9.9999998E-03; -1.6113441E-01;9544;  1.3179727E+00;  0.0000000E+00; -2.7018378E-02;  1.0003187E+03;  1.1097611E-01;  2.4631961E+02;3;  3.3185932E+01;  0.0000000E+00;  2.7910783E+00;0;  1.3641879E-01;  3.3049637E+04;  0.0000000E+00;  3.4222118E+01;  4.0000000E+04;  0.0000000E+00;  3.9331996E+04; -8.0526002E-02;  0.0000000E+00;  2.1694478E-01;  2.8814496E+04;
  1.3966888E+00;  9.9999998E-03; -1.5096271E-01;9545;  1.3105203E+00;  0.0000000E+00; -2.4378734E-02;  1.0004446E+03;  1.1097047E-01;  3.4343286E+02;3;  3.2684269E+01;  0.0000000E+00;  3.3686571E+00;0;  1.2318707E-01;  3.3070824E+04;  0.0000000E+00;  2.4954573E+01;  4.0000000E+04;  0.0000000E+00;  3.9318734E+04; -8.3974749E-02;  0.0000000E+00;  2.0716181E-01;  2.1323078E+04;
  1.3969352E+00;  9.9999998E-03; -1.4084636E-01;9546;  1.3045089E+00;  0.0000000E+00; -2.2782408E-02;  1.0004095E+03;  1.1096459E-01;  3.1628290E+02;3;  3.2454342E+01;  0.0000000E+00;  3.7297127E+00;0;  1.1291935E-01;  3.3083438E+04;  0.0000000E+00;  1.6839405E+01;  4.0000000E+04;  0.0000000E+00;  3.9303270E+04; -8.5800469E-02;  0.0000000E+00;  1.9871981E-01;  1.4870797E+04;
  1.3971630E+00;  9.9999998E-03; -1.3076928E-01;9547;  1.2995219E+00;  0.0000000E+00; -2.1915559E-02;  1.0003575E+03;  1.1096109E-01;  2.7607825E+02;3;  3.2519131E+01;  0.0000000E+00;  3.8335495E+00;0;  1.0292614E-01;  3.3090070E+04;  0.0000000E+00;  1.0549880E+01;  4.0000000E+04;  0.0000000E+00;  3.9292102E+04; -8.8125631E-02;  0.0000000E+00;  1.9105177E-01;  9.9895117E+03;
  1.3973472E+00;  9.9999998E-03; -1.2071590E-01;9548;  1.2952276E+00;  0.0000000E+00; -2.1386914E-02;  1.0003033E+03;  1.1095992E-01;  2.3424376E+02;3;  3.2758961E+01;  0.0000000E+00;  3.6284068E+00;0;  9.2359126E-02;  3.3090242E+04;  0.0000000E+00;  6.0240569E+00;  4.0000000E+04;  0.0000000E+00;  3.9286930E+04; -9.1891617E-02;  0.0000000E+00;  1.8425074E-01;  6.6284204E+03;
  1.3974845E+00;  9.9999998E-03; -1.1067633E-01;9549;  1.2914610E+00;  0.0000000E+00; -2.0908535E-02;  1.0001957E+03;  1.1095762E-01;  1.5111131E+02;3;  3.3068607E+01;  0.0000000E+00;  3.2022536E+00;0;  8.1407540E-02;  3.3083203E+04;  0.0000000E+00;  2.9724133E+00;  4.0000000E+04;  0.0000000E+00;  3.9286918E+04; -9.7280256E-02;  0.0000000E+00;  1.7868780E-01;  4.5207061E+03;
  1.4059902E+00;  9.9999998E-03; -2.4234948E-01;9586;  1.3960998E+00;  0.0000000E+00; -4.3211441E-02;  1.0017488E+03;  1.1048342E-01;  1.3386818E+03;3;  3.3491985E+01;  0.0000000E+00;  1.5839329E+00;0;  4.3655279E-01;  3.3496355E+04;  0.0000000E+00;  2.9785500E+00;  4.0000000E+04;  0.0000000E+00;  3.9268473E+04;  2.3880218E-01;  0.0000000E+00;  1.9775061E-01;  2.0097019E+03;
  1.4061999E+00;  9.9999998E-03; -2.3229630E-01;9587;  1.3872404E+00;  0.0000000E+00; -4.1227635E-02;  1.0006672E+03;  1.1048321E-01;  5.1063107E+02;3;  3.3541058E+01;  0.0000000E+00;  1.7299327E+00;0;  3.7034631E-01;  3.3426152E+04;  0.0000000E+00;  1.8810725E+00;  4.0000000E+04;  0.0000000E+00;  3.9268191E+04;  1.5351960E-01;  0.0000000E+00;  2.1682672E-01;  3.0834209E+03;
  1.4064155E+00;  9.9999998E-03; -2.2223553E-01;9588;  1.3784106E+00;  0.0000000E+00; -3.9184254E-02;  9.9926703E+02;  1.1048125E-01; -5.6081927E+02;3;  3.4125332E+01;  0.0000000E+00;  1.4120712E+00;0;  3.1662005E-01;  3.3337570E+04;  0.0000000E+00;  1.2397621E+01;  4.0000000E+04;  0.0000000E+00;  3.9263676E+04;  8.2937166E-02;  0.0000000E+00;  2.3368289E-01;  1.1747688E+04;
  1.4066589E+00;  9.9999998E-03; -2.1216980E-01;9589;  1.3689790E+00;  0.0000000E+00; -3.6866762E-02;  9.9777020E+02;  1.1048102E-01; -1.7056906E+03;3;  3.5067101E+01;  0.0000000E+00;  7.8414357E-01;0;  2.6484290E-01;  3.3246957E+04;  0.0000000E+00;  2.4923384E+01;  4.0000000E+04;  0.0000000E+00;  3.9254301E+04;  2.1204932E-02;  0.0000000E+00;  2.4363796E-01;  2.1161334E+04;
  1.4068884E+00;  9.9999998E-03; -2.0209852E-01;9590;  1.3589654E+00;  0.0000000E+00; -3.4386516E-02;  9.9676941E+02;  1.1047932E-01; -2.4706245E+03;3;  3.5835938E+01;  0.0000000E+00;  1.4034170E-01;0;  2.1660881E-01;  3.3193254E+04;  0.0000000E+00;  3.5179340E+01;  4.0000000E+04;  0.0000000E+00;  3.9242305E+04; -3.0437095E-02;  0.0000000E+00;  2.4704590E-01;  2.8663336E+04;
  1.4070605E+00;  9.9999998E-03; -1.9201009E-01;9591;  1.3487029E+00;  0.0000000E+00; -3.2069836E-02;  9.9665051E+02;  1.1047680E-01; -2.5610979E+03;3;  3.6665924E+01;  0.0000000E+00; -3.1259954E-01;0;  1.7654106E-01;  3.3193676E+04;  0.0000000E+00;  4.2579105E+01;  4.0000000E+04;  0.0000000E+00;  3.9235125E+04; -6.9655336E-02;  0.0000000E+00;  2.4619640E-01;  3.3923277E+04;
  1.4071472E+00;  9.9999998E-03; -1.8187068E-01;9592;  1.3385022E+00;  0.0000000E+00; -3.0128883E-02;  9.9746472E+02;  1.1046986E-01; -1.9383629E+03;3;  3.6721249E+01;  0.0000000E+00; -2.4345744E-01;0;  1.4607397E-01;  3.3242562E+04;  0.0000000E+00;  4.7338783E+01;  4.0000000E+04;  0.0000000E+00;  3.9244633E+04; -9.5875494E-02;  0.0000000E+00;  2.4194947E-01;  3.6951297E+04;
  1.4071819E+00;  9.9999998E-03; -1.7165411E-01;9593;  1.3283883E+00;  0.0000000E+00; -2.7847266E-02;  9.9874280E+02;  1.1046268E-01; -9.6114832E+02;3;  3.5968781E+01;  0.0000000E+00;  3.2276207E-01;0;  1.1983439E-01;  3.3309633E+04;  0.0000000E+00;  4.8087883E+01;  4.0000000E+04;  0.0000000E+00;  3.9268234E+04; -1.1164915E-01;  0.0000000E+00;  2.3148353E-01;  3.6899086E+04;
  1.4072477E+00;  9.9999998E-03; -1.6139397E-01;9594;  1.3187541E+00;  0.0000000E+00; -2.4762044E-02;  9.9974438E+02;  1.1045478E-01; -1.9543323E+02;3;  3.4689156E+01;  0.0000000E+00;  1.3861234E+00;0;  9.7256459E-02;  3.3363801E+04;  0.0000000E+00;  4.3488071E+01;  4.0000000E+04;  0.0000000E+00;  3.9286016E+04; -1.1907008E-01;  0.0000000E+00;  2.1632653E-01;  3.3111637E+04;
  1.4074117E+00;  9.9999998E-03; -1.5115432E-01;9595;  1.3105915E+00;  0.0000000E+00; -2.1823552E-02;  1.0001628E+03;  1.1044897E-01;  1.2446507E+02;3;  3.3556885E+01;  0.0000000E+00;  2.3688359E+00;0;  8.2212888E-02;  3.3393723E+04;  0.0000000E+00;  3.4921799E+01;  4.0000000E+04;  0.0000000E+00;  3.9286418E+04; -1.1951128E-01;  0.0000000E+00;  2.0172417E-01;  2.6676902E+04;
  1.4076638E+00;  9.9999998E-03; -1.4097120E-01;9596;  1.3040762E+00;  0.0000000E+00; -1.9742224E-02;  1.0001843E+03;  1.1044306E-01;  1.4082825E+02;3;  3.3126324E+01;  0.0000000E+00;  2.9145257E+00;0;  7.2599813E-02;  3.3407160E+04;  0.0000000E+00;  2.5422421E+01;  4.0000000E+04;  0.0000000E+00;  3.9274699E+04; -1.1664848E-01;  0.0000000E+00;  1.8924829E-01;  1.9704824E+04;
  1.4079468E+00;  9.9999998E-03; -1.3084389E-01;9597;  1.2988009E+00;  0.0000000E+00; -1.8521285E-02;  1.0000817E+03;  1.1043764E-01;  6.2470257E+01;3;  3.3040791E+01;  0.0000000E+00;  3.2182348E+00;0;  6.4818025E-02;  3.3414289E+04;  0.0000000E+00;  1.7092863E+01;  4.0000000E+04;  0.0000000E+00;  3.9260250E+04; -1.1369479E-01;  0.0000000E+00;  1.7851281E-01;  1.3659993E+04;
  1.4082063E+00;  9.9999998E-03; -1.2075675E-01;9598;  1.2943441E+00;  0.0000000E+00; -1.7815584E-02;  9.9999292E+02;  1.1043411E-01; -5.4168339E+00;3;  3.3262012E+01;  0.0000000E+00;  3.0798726E+00;0;  5.6917518E-02;  3.3418516E+04;  0.0000000E+00;  1.0621852E+01;  4.0000000E+04;  0.0000000E+00;  3.9249352E+04; -1.1230545E-01;  0.0000000E+00;  1.6922297E-01;  9.0385713E+03;
  1.4084095E+00;  9.9999998E-03; -1.1069530E-01;9599;  1.2904520E+00;  0.0000000E+00; -1.7322728E-02;  9.9992249E+02;  1.1043087E-01; -5.9162601E+01;3;  3.3581142E+01;  0.0000000E+00;  2.7621417E+00;0;  4.8577391E-02;  3.3419309E+04;  0.0000000E+00;  5.9608355E+00;  4.0000000E+04;  0.0000000E+00;  3.9243688E+04; -1.1299223E-01;  0.0000000E+00;  1.6156963E-01;  5.8228013E+03;
  1.4169375E+00;  9.9999998E-03; -2.3242708E-01;9635;  1.3886189E+00;  0.0000000E+00; -3.8971752E-02;  1.0016124E+03;  1.1002607E-01;  1.2193503E+03;3;  3.5596630E+01;  0.0000000E+00; -7.0021003E-01;0;  3.8461637E-01;  3.3803418E+04;  0.0000000E+00;  1.3329922E+00;  4.0000000E+04;  0.0000000E+00;  3.9225836E+04;  1.5893202E-01;  0.0000000E+00;  2.2568436E-01;  1.1653350E+03;
  1.4171281E+00;  9.9999998E-03; -2.2237359E-01;9636;  1.3793310E+00;  0.0000000E+00; -3.6472652E-02;  1.0005355E+03;  1.1002393E-01;  4.0485635E+02;3;  3.5944645E+01;  0.0000000E+00; -7.9662919E-01;0;  3.1807309E-01;  3.3735625E+04;  0.0000000E+00;  2.3538156E+00;  4.0000000E+04;  0.0000000E+00;  3.9222473E+04;  8.0512397E-02;  0.0000000E+00;  2.3756070E-01;  3.1787341E+03;
  1.4173274E+00;  9.9999998E-03; -2.1231405E-01;9637;  1.3697222E+00;  0.0000000E+00; -3.3855896E-02;  9.9917157E+02;  1.1002272E-01; -6.2619879E+02;3;  3.6642464E+01;  0.0000000E+00; -1.1106526E+00;0;  2.5799736E-01;  3.3651457E+04;  0.0000000E+00;  1.3629487E+01;  4.0000000E+04;  0.0000000E+00;  3.9213867E+04;  1.2786753E-02;  0.0000000E+00;  2.4521060E-01;  1.1530773E+04;
  1.4175481E+00;  9.9999998E-03; -2.0224996E-01;9638;  1.3593731E+00;  0.0000000E+00; -3.0869978E-02;  9.9776093E+02;  1.1002228E-01; -1.6919917E+03;3;  3.7170696E+01;  0.0000000E+00; -1.4049709E+00;0;  1.9767967E-01;  3.3569109E+04;  0.0000000E+00;  2.6292913E+01;  4.0000000E+04;  0.0000000E+00;  3.9200656E+04; -4.7096971E-02;  0.0000000E+00;  2.4477664E-01;  2.0118967E+04;
  1.4177588E+00;  9.9999998E-03; -1.9217864E-01;9639;  1.3486260E+00;  0.0000000E+00; -2.7790477E-02;  9.9682281E+02;  1.1002133E-01; -2.4003010E+03;3;  3.7520504E+01;  0.0000000E+00; -1.4381883E+00;0;  1.4383174E-01;  3.3520223E+04;  0.0000000E+00;  3.6383160E+01;  4.0000000E+04;  0.0000000E+00;  3.9186648E+04; -9.5303357E-02;  0.0000000E+00;  2.3913510E-01;  2.6807359E+04;
  1.4179219E+00;  9.9999998E-03; -1.8208450E-01;9640;  1.3382030E+00;  0.0000000E+00; -2.5296418E-02;  9.9672760E+02;  1.1001862E-01; -2.4717791E+03;3;  3.7610695E+01;  0.0000000E+00; -1.2564107E+00;0;  1.0534999E-01;  3.3520805E+04;  0.0000000E+00;  4.3509476E+01;  4.0000000E+04;  0.0000000E+00;  3.9180551E+04; -1.2752905E-01;  0.0000000E+00;  2.3287904E-01;  3.1321016E+04;
  1.4180179E+00;  9.9999998E-03; -1.7193311E-01;9641;  1.3283958E+00;  0.0000000E+00; -2.3477957E-02;  9.9750397E+02;  1.1001309E-01; -1.8851108E+03;3;  3.6978016E+01;  0.0000000E+00; -6.9290066E-01;0;  8.0176726E-02;  3.3564691E+04;  0.0000000E+00;  4.7880882E+01;  4.0000000E+04;  0.0000000E+00;  3.9192230E+04; -1.4485510E-01;  0.0000000E+00;  2.2503182E-01;  3.3748066E+04;
  1.4180789E+00;  9.9999998E-03; -1.6170767E-01;9642;  1.3191640E+00;  0.0000000E+00; -2.1582579E-02;  9.9865790E+02;  1.1000684E-01; -1.0135624E+03;3;  3.5911495E+01;  0.0000000E+00;  1.9084732E-01;0;  6.0745984E-02;  3.3624203E+04;  0.0000000E+00;  4.8244907E+01;  4.0000000E+04;  0.0000000E+00;  3.9215605E+04; -1.5154424E-01;  0.0000000E+00;  2.1229023E-01;  3.3440109E+04;
  1.4181777E+00;  9.9999998E-03; -1.5144466E-01;9643;  1.3108140E+00;  0.0000000E+00; -1.9276377E-02;  9.9952417E+02;  1.1000003E-01; -3.5929794E+02;3;  3.4576645E+01;  0.0000000E+00;  1.2692759E+00;0;  4.5440748E-02;  3.3670527E+04;  0.0000000E+00;  4.3489597E+01;  4.0000000E+04;  0.0000000E+00;  3.9232328E+04; -1.5067904E-01;  0.0000000E+00;  1.9611979E-01;  2.9926805E+04;
  1.4183669E+00;  9.9999998E-03; -1.4119901E-01;9644;  1.3038398E+00;  0.0000000E+00; -1.7139753E-02;  9.9986371E+02;  1.0999464E-01; -1.0290970E+02;3;  3.3919025E+01;  0.0000000E+00;  2.0121963E+00;0;  3.5344601E-02;  3.3694117E+04;  0.0000000E+00;  3.5045494E+01;  4.0000000E+04;  0.0000000E+00;  3.9233930E+04; -1.4500724E-01;  0.0000000E+00;  1.8035184E-01;  2.4193271E+04;
  1.4186376E+00;  9.9999998E-03; -1.3100414E-01;9645;  1.2981813E+00;  0.0000000E+00; -1.5621484E-02;  9.9983105E+02;  1.0998906E-01; -1.2748197E+02;3;  3.3625713E+01;  0.0000000E+00;  2.5060763E+00;0;  2.8595671E-02;  3.3702312E+04;  0.0000000E+00;  2.5641630E+01;  4.0000000E+04;  0.0000000E+00;  3.9224391E+04; -1.3798746E-01;  0.0000000E+00;  1.6658314E-01;  1.7946037E+04;
  1.4189371E+00;  9.9999998E-03; -1.2086613E-01;9646;  1.2935059E+00;  0.0000000E+00; -1.4678482E-02;  9.9968799E+02;  1.0998519E-01; -2.3540131E+02;3;  3.3765854E+01;  0.0000000E+00;  2.4686661E+00;0;  2.2779673E-02;  3.3705512E+04;  0.0000000E+00;  1.7255682E+01;  4.0000000E+04;  0.0000000E+00;  3.9211234E+04; -1.3209192E-01;  0.0000000E+00;  1.5487160E-01;  1.2422055E+04;
  1.4192098E+00;  9.9999998E-03; -1.1076859E-01;9647;  1.2894654E+00;  0.0000000E+00; -1.4062305E-02;  9.9958063E+02;  1.0998213E-01; -3.1628226E+02;3;  3.4071579E+01;  0.0000000E+00;  2.2518725E+00;0;  1.6737193E-02;  3.3708184E+04;  0.0000000E+00;  1.0682812E+01;  4.0000000E+04;  0.0000000E+00;  3.9200469E+04; -1.2846556E-01;  0.0000000E+00;  1.4520276E-01;  8.1317720E+03;
  1.4275767E+00;  9.9999998E-03; -2.3255336E-01;9682;  1.3907324E+00;  0.0000000E+00; -3.6729954E-02;  1.0030705E+03;  1.0962956E-01;  2.2912571E+03;3;  3.8014645E+01;  0.0000000E+00; -2.8201137E+00;0;  4.3476725E-01;  3.4183184E+04;  0.0000000E+00;  1.3729919E+01;  4.0000000E+04;  0.0000000E+00;  3.9178906E+04;  2.0236784E-01;  0.0000000E+00;  2.3239942E-01;  4.4838662E+03;
  1.4278370E+00;  9.9999998E-03; -2.2250800E-01;9683;  1.3802499E+00;  0.0000000E+00; -3.3537254E-02;  1.0015744E+03;  1.0963400E-01;  1.1744460E+03;3;  3.7814106E+01;  0.0000000E+00; -3.0883372E+00;0;  3.3978364E-01;  3.4084594E+04;  0.0000000E+00;  4.5673317E-01;  4.0000000E+04;  0.0000000E+00;  3.9178074E+04;  1.0513341E-01;  0.0000000E+00;  2.3465022E-01;  5.0308633E+02;
  1.4280119E+00;  9.9999998E-03; -2.1245545E-01;9684;  1.3703481E+00;  0.0000000E+00; -3.0520361E-02;  1.0005315E+03;  1.0963213E-01;  3.9634021E+02;3;  3.8285469E+01;  0.0000000E+00; -3.2025204E+00;0;  2.6613200E-01;  3.4021129E+04;  0.0000000E+00;  2.2853427E+00;  4.0000000E+04;  0.0000000E+00;  3.9171039E+04;  2.8130041E-02;  0.0000000E+00;  2.3800194E-01;  2.8636567E+03;
  1.4281925E+00;  9.9999998E-03; -2.0239721E-01;9685;  1.3599495E+00;  0.0000000E+00; -2.7452573E-02;  9.9924579E+02;  1.0963088E-01; -5.6236932E+02;3;  3.8747738E+01;  0.0000000E+00; -3.2406683E+00;0;  1.9708408E-01;  3.3945242E+04;  0.0000000E+00;  1.3742573E+01;  4.0000000E+04;  0.0000000E+00;  3.9158188E+04; -4.0316224E-02;  0.0000000E+00;  2.3740031E-01;  1.0492464E+04;
  1.4283928E+00;  9.9999998E-03; -1.9233303E-01;9686;  1.3488976E+00;  0.0000000E+00; -2.4090659E-02;  9.9792871E+02;  1.0963047E-01; -1.5439482E+03;3;  3.8781128E+01;  0.0000000E+00; -2.8140879E+00;0;  1.2945244E-01;  3.3870270E+04;  0.0000000E+00;  2.6459715E+01;  4.0000000E+04;  0.0000000E+00;  3.9142227E+04; -1.0025666E-01;  0.0000000E+00;  2.2970910E-01;  1.8262477E+04;
  1.4285918E+00;  9.9999998E-03; -1.8225853E-01;9687;  1.3379586E+00;  0.0000000E+00; -2.0926293E-02;  9.9700549E+02;  1.0962878E-01; -2.2315339E+03;3;  3.8580158E+01;  0.0000000E+00; -2.3441653E+00;0;  7.4797094E-02;  3.3822645E+04;  0.0000000E+00;  3.6385750E+01;  4.0000000E+04;  0.0000000E+00;  3.9127832E+04; -1.4459862E-01;  0.0000000E+00;  2.1939571E-01;  2.4170324E+04;
  1.4287612E+00;  9.9999998E-03; -1.7215668E-01;9688;  1.3278047E+00;  0.0000000E+00; -1.8573295E-02;  9.9683502E+02;  1.0962624E-01; -2.3580806E+03;3;  3.7781948E+01;  0.0000000E+00; -1.5313214E+00;0;  3.9641470E-02;  3.3816805E+04;  0.0000000E+00;  4.3018738E+01;  4.0000000E+04;  0.0000000E+00;  3.9122895E+04; -1.7028484E-01;  0.0000000E+00;  2.0992631E-01;  2.7904289E+04;
  1.4288852E+00;  9.9999998E-03; -1.6199709E-01;9689;  1.3187178E+00;  0.0000000E+00; -1.7062066E-02;  9.9743695E+02;  1.0962094E-01; -1.9092839E+03;3;  3.6640892E+01;  0.0000000E+00; -5.3989071E-01;0;  2.0056203E-02;  3.3849262E+04;  0.0000000E+00;  4.6737232E+01;  4.0000000E+04;  0.0000000E+00;  3.9134574E+04; -1.7980416E-01;  0.0000000E+00;  1.9986036E-01;  2.9690023E+04;
  1.4289911E+00;  9.9999998E-03; -1.5177369E-01;9690;  1.3106172E+00;  0.0000000E+00; -1.5690271E-02;  9.9835974E+02;  1.0961516E-01; -1.2216956E+03;3;  3.5403736E+01;  0.0000000E+00;  3.8141125E-01;0;  7.4774623E-03;  3.3895918E+04;  0.0000000E+00;  4.6588615E+01;  4.0000000E+04;  0.0000000E+00;  3.9154738E+04; -1.7870463E-01;  0.0000000E+00;  1.8618210E-01;  2.9132580E+04;
  1.4291254E+00;  9.9999998E-03; -1.4151789E-01;9691;  1.3035871E+00;  0.0000000E+00; -1.4237224E-02;  9.9910730E+02;  1.0961208E-01; -6.6477826E+02;3;  3.4690628E+01;  0.0000000E+00;  1.1018804E+00;0; -1.0977834E-03;  3.3934660E+04;  0.0000000E+00;  4.2006668E+01;  4.0000000E+04;  0.0000000E+00;  3.9169520E+04; -1.7140774E-01;  0.0000000E+00;  1.7030996E-01;  2.6077414E+04;
  1.4293213E+00;  9.9999998E-03; -1.3127246E-01;9692;  1.2976797E+00;  0.0000000E+00; -1.2913560E-02;  9.9944226E+02;  1.0960807E-01; -4.1521613E+02;3;  3.4304203E+01;  0.0000000E+00;  1.6464437E+00;0; -6.6860318E-03;  3.3956312E+04;  0.0000000E+00;  3.4213913E+01;  4.0000000E+04;  0.0000000E+00;  3.9172344E+04; -1.6149549E-01;  0.0000000E+00;  1.5480946E-01;  2.1285436E+04;
  1.4295810E+00;  9.9999998E-03; -1.2106556E-01;9693;  1.2927431E+00;  0.0000000E+00; -1.1905258E-02;  9.9942816E+02;  1.0960279E-01; -4.2558398E+02;3;  3.4267700E+01;  0.0000000E+00;  1.8291191E+00;0; -1.0827929E-02;  3.3963633E+04;  0.0000000E+00;  2.5379822E+01;  4.0000000E+04;  0.0000000E+00;  3.9165418E+04; -1.5191549E-01;  0.0000000E+00;  1.4108756E-01;  1.5980345E+04;
  1.4298669E+00;  9.9999998E-03; -1.1091049E-01;9694;  1.2885160E+00;  0.0000000E+00; -1.1150819E-02;  9.9928510E+02;  1.0959957E-01; -5.3184094E+02;3;  3.4561661E+01;  0.0000000E+00;  1.7135623E+00;0; -1.4867336E-02;  3.3965004E+04;  0.0000000E+00;  1.7259722E+01;  4.0000000E+04;  0.0000000E+00;  3.9154574E+04; -1.4442167E-01;  0.0000000E+00;  1.2955433E-01;  1.1142664E+04;
  1.4384578E+00;  9.9999998E-03; -2.2263375E-01;9729;  1.3819650E+00;  0.0000000E+00; -3.0861659E-02;  1.0030703E+03;  1.0929643E-01;  2.2565867E+03;3;  3.9789875E+01;  0.0000000E+00; -5.1620021E+00;0;  3.9550841E-01;  3.4434918E+04;  0.0000000E+00;  1.3738552E+01;  4.0000000E+04;  0.0000000E+00;  3.9130926E+04;  1.6330443E-01;  0.0000000E+00;  2.3220398E-01;  4.0967793E+03;
  1.4386983E+00;  9.9999998E-03; -2.1259074E-01;9730;  1.3708502E+00;  0.0000000E+00; -2.6799945E-02;  1.0016063E+03;  1.0930037E-01;  1.1801801E+03;3;  3.9857262E+01;  0.0000000E+00; -5.0989652E+00;0;  2.8615543E-01;  3.4341832E+04;  0.0000000E+00;  9.7776800E-02;  4.0000000E+04;  0.0000000E+00;  3.9124793E+04;  6.4852059E-02;  0.0000000E+00;  2.2130337E-01;  3.9398886E+02;
  1.4388627E+00;  9.9999998E-03; -2.0253934E-01;9731;  1.3601950E+00;  0.0000000E+00; -2.3379821E-02;  1.0005911E+03;  1.0929991E-01;  4.3413065E+02;3;  4.0126965E+01;  0.0000000E+00; -4.9012728E+00;0;  2.0226267E-01;  3.4282957E+04;  0.0000000E+00;  1.5601126E+00;  4.0000000E+04;  0.0000000E+00;  3.9113289E+04; -1.4992238E-02;  0.0000000E+00;  2.1725491E-01;  2.1762578E+03;
  1.4390264E+00;  9.9999998E-03; -1.9248062E-01;9732;  1.3491230E+00;  0.0000000E+00; -2.0073781E-02;  9.9943127E+02;  1.0929824E-01; -4.1765536E+02;3;  4.0076454E+01;  0.0000000E+00; -4.2919297E+00;0;  1.2506482E-01;  3.4217391E+04;  0.0000000E+00;  1.2523248E+01;  4.0000000E+04;  0.0000000E+00;  3.9097508E+04; -8.5877359E-02;  0.0000000E+00;  2.1094218E-01;  8.7508838E+03;
  1.4392079E+00;  9.9999998E-03; -1.8241322E-01;9733;  1.3380787E+00;  0.0000000E+00; -1.6987164E-02;  9.9823737E+02;  1.0929721E-01; -1.2940243E+03;3;  3.9684380E+01;  0.0000000E+00; -3.5789635E+00;0;  5.9627220E-02;  3.4152004E+04;  0.0000000E+00;  2.5007032E+01;  4.0000000E+04;  0.0000000E+00;  3.9080305E+04; -1.4237638E-01;  0.0000000E+00;  2.0200360E-01;  1.5600964E+04;
  1.4393979E+00;  9.9999998E-03; -1.7233212E-01;9734;  1.3275281E+00;  0.0000000E+00; -1.4284580E-02;  9.9735577E+02;  1.0929596E-01; -1.9407070E+03;3;  3.8785362E+01;  0.0000000E+00; -2.5292180E+00;0;  1.0128736E-02;  3.4105527E+04;  0.0000000E+00;  3.4641689E+01;  4.0000000E+04;  0.0000000E+00;  3.9065910E+04; -1.8099770E-01;  0.0000000E+00;  1.9112644E-01;  2.0728607E+04;
  1.4395798E+00;  9.9999998E-03; -1.6221963E-01;9735;  1.3180411E+00;  0.0000000E+00; -1.2389887E-02;  9.9706171E+02;  1.0929326E-01; -2.1559224E+03;3;  3.7357567E+01;  0.0000000E+00; -1.3378918E+00;0; -1.9603118E-02;  3.4089949E+04;  0.0000000E+00;  4.0736683E+01;  4.0000000E+04;  0.0000000E+00;  3.9062277E+04; -2.0012496E-01;  0.0000000E+00;  1.8052185E-01;  2.3775646E+04;
  1.4397426E+00;  9.9999998E-03; -1.5205719E-01;9736;  1.3098645E+00;  0.0000000E+00; -1.1222316E-02;  9.9737299E+02;  1.0929073E-01; -1.9270745E+03;3;  3.6115990E+01;  0.0000000E+00; -2.7263090E-01;0; -3.4135163E-02;  3.4104191E+04;  0.0000000E+00;  4.3597954E+01;  4.0000000E+04;  0.0000000E+00;  3.9071516E+04; -2.0315889E-01;  0.0000000E+00;  1.6902372E-01;  2.4946887E+04;
  1.4398917E+00;  9.9999998E-03; -1.4184566E-01;9737;  1.3029233E+00;  0.0000000E+00; -1.0408637E-02;  9.9799506E+02;  1.0928525E-01; -1.4704036E+03;3;  3.5207851E+01;  0.0000000E+00;  5.1405305E-01;0; -4.0423989E-02;  3.4135379E+04;  0.0000000E+00;  4.3011669E+01;  4.0000000E+04;  0.0000000E+00;  3.9086176E+04; -1.9600838E-01;  0.0000000E+00;  1.5558439E-01;  2.4250744E+04;
  1.4400505E+00;  9.9999998E-03; -1.3160373E-01;9738;  1.2970386E+00;  0.0000000E+00; -9.7109275E-03;  9.9859796E+02;  1.0928170E-01; -1.0279937E+03;3;  3.4815773E+01;  0.0000000E+00;  9.4936228E-01;0; -4.3174133E-02;  3.4167102E+04;  0.0000000E+00;  3.8936058E+01;  4.0000000E+04;  0.0000000E+00;  3.9098055E+04; -1.8420458E-01;  0.0000000E+00;  1.4103045E-01;  2.1779615E+04;
  1.4402406E+00;  9.9999998E-03; -1.2135756E-01;9739;  1.2919923E+00;  0.0000000E+00; -9.0509085E-03;  9.9895416E+02;  1.0927816E-01; -7.6660315E+02;3;  3.4779510E+01;  0.0000000E+00;  1.1639788E+00;0; -4.4936627E-02;  3.4188918E+04;  0.0000000E+00;  3.2293812E+01;  4.0000000E+04;  0.0000000E+00;  3.9102559E+04; -1.7177774E-01;  0.0000000E+00;  1.2684111E-01;  1.8061701E+04;
  1.4404678E+00;  9.9999998E-03; -1.1113763E-01;9740;  1.2876254E+00;  0.0000000E+00; -8.4365793E-03;  9.9902313E+02;  1.0927445E-01; -7.1580847E+02;3;  3.5023621E+01;  0.0000000E+00;  1.0864854E+00;0; -4.6726935E-02;  3.4198410E+04;  0.0000000E+00;  2.4515854E+01;  4.0000000E+04;  0.0000000E+00;  3.9099113E+04; -1.6093947E-01;  0.0000000E+00;  1.1421254E-01;  1.3834043E+04;
  1.4493002E+00;  9.9999998E-03; -2.1271196E-01;9774;  1.3722252E+00;  0.0000000E+00; -2.3558600E-02;  1.0031479E+03;  1.0901343E-01;  2.2749353E+03;3;  4.1532066E+01;  0.0000000E+00; -7.0749269E+00;0;  3.3901706E-01;  3.4666543E+04;  0.0000000E+00;  1.5027558E+01;  4.0000000E+04;  0.0000000E+00;  3.9078121E+04;  1.3228160E-01;  0.0000000E+00;  2.0673546E-01;  4.2863408E+03;
  1.4495305E+00;  9.9999998E-03; -2.0267217E-01;9775;  1.3603947E+00;  0.0000000E+00; -1.8970661E-02;  1.0016554E+03;  1.0901770E-01;  1.1958602E+03;3;  4.1373619E+01;  0.0000000E+00; -6.3354759E+00;0;  2.1667115E-01;  3.4576164E+04;  0.0000000E+00;  2.8824371E-01;  4.0000000E+04;  0.0000000E+00;  3.9065145E+04;  2.9358620E-02;  0.0000000E+00;  1.8731253E-01;  7.6254346E+02;
  1.4496896E+00;  9.9999998E-03; -1.9262019E-01;9776;  1.3489981E+00;  0.0000000E+00; -1.5339012E-02;  1.0006844E+03;  1.0901757E-01;  4.9428537E+02;3;  4.1001274E+01;  0.0000000E+00; -5.5866356E+00;0;  1.2256524E-01;  3.4522609E+04;  0.0000000E+00;  1.7650791E-01;  4.0000000E+04;  0.0000000E+00;  3.9050230E+04; -5.5551007E-02;  0.0000000E+00;  1.7811625E-01;  1.2809750E+03;
  1.4498414E+00;  9.9999998E-03; -1.8255724E-01;9777;  1.3379736E+00;  0.0000000E+00; -1.2403563E-02;  9.9968207E+02;  1.0901634E-01; -2.2956485E+02;3;  4.0671864E+01;  0.0000000E+00; -4.6708250E+00;0;  4.8446633E-02;  3.4468973E+04;  0.0000000E+00;  9.6745625E+00;  4.0000000E+04;  0.0000000E+00;  3.9032789E+04; -1.2365226E-01;  0.0000000E+00;  1.7209889E-01;  6.3937646E+03;
  1.4500095E+00;  9.9999998E-03; -1.7248364E-01;9778;  1.3273976E+00;  0.0000000E+00; -9.9640908E-03;  9.9863800E+02;  1.0901455E-01; -9.8319122E+02;3;  3.9815022E+01;  0.0000000E+00; -3.5497034E+00;0; -9.5494241E-03;  3.4413551E+04;  0.0000000E+00;  2.1189489E+01;  4.0000000E+04;  0.0000000E+00;  3.9014664E+04; -1.7446057E-01;  0.0000000E+00;  1.6491115E-01;  1.2073772E+04;
  1.4501897E+00;  9.9999998E-03; -1.6239384E-01;9779;  1.3176897E+00;  0.0000000E+00; -8.0664773E-03;  9.9782361E+02;  1.0901362E-01; -1.5705928E+03;3;  3.8395603E+01;  0.0000000E+00; -2.3279154E+00;0; -4.9635649E-02;  3.4370980E+04;  0.0000000E+00;  3.0367258E+01;  4.0000000E+04;  0.0000000E+00;  3.9000551E+04; -2.0568715E-01;  0.0000000E+00;  1.5605150E-01;  1.6429941E+04;
  1.4503729E+00;  9.9999998E-03; -1.5227352E-01;9780;  1.3092059E+00;  0.0000000E+00; -6.8433206E-03;  9.9745050E+02;  1.0901196E-01; -1.8393026E+03;3;  3.6895374E+01;  0.0000000E+00; -1.0348713E+00;0; -7.1847320E-02;  3.4350098E+04;  0.0000000E+00;  3.6174423E+01;  4.0000000E+04;  0.0000000E+00;  3.8996121E+04; -2.1809855E-01;  0.0000000E+00;  1.4625123E-01;  1.9021162E+04;
  1.4505512E+00;  9.9999998E-03; -1.4211078E-01;9781;  1.3021269E+00;  0.0000000E+00; -6.2778671E-03;  9.9752338E+02;  1.0900905E-01; -1.7861886E+03;3;  3.5732033E+01;  0.0000000E+00; -4.5961391E-02;0; -7.9807609E-02;  3.4351418E+04;  0.0000000E+00;  3.8761551E+01;  4.0000000E+04;  0.0000000E+00;  3.9002059E+04; -2.1539715E-01;  0.0000000E+00;  1.3558954E-01;  1.9963807E+04;
  1.4507251E+00;  9.9999998E-03; -1.3190846E-01;9782;  1.2962171E+00;  0.0000000E+00; -6.0127415E-03;  9.9786829E+02;  1.0900522E-01; -1.5369772E+03;3;  3.5223076E+01;  0.0000000E+00;  4.0593302E-01;0; -8.0982432E-02;  3.4367086E+04;  0.0000000E+00;  3.8178066E+01;  4.0000000E+04;  0.0000000E+00;  3.9012137E+04; -2.0437841E-01;  0.0000000E+00;  1.2339598E-01;  1.9372367E+04;
  1.4508996E+00;  9.9999998E-03; -1.2167414E-01;9783;  1.2911431E+00;  0.0000000E+00; -5.7898904E-03;  9.9828693E+02;  1.0900169E-01; -1.2348038E+03;3;  3.5258514E+01;  0.0000000E+00;  5.2384186E-01;0; -8.0317244E-02;  3.4388195E+04;  0.0000000E+00;  3.4881184E+01;  4.0000000E+04;  0.0000000E+00;  3.9022078E+04; -1.9073719E-01;  0.0000000E+00;  1.1041994E-01;  1.7532662E+04;
  1.4510833E+00;  9.9999998E-03; -1.1142802E-01;9784;  1.2867187E+00;  0.0000000E+00; -5.5297120E-03;  9.9859149E+02;  1.0899840E-01; -1.0149536E+03;3;  3.5429600E+01;  0.0000000E+00;  5.2768546E-01;0; -7.9543211E-02;  3.4405754E+04;  0.0000000E+00;  2.9522474E+01;  4.0000000E+04;  0.0000000E+00;  3.9027512E+04; -1.7755541E-01;  0.0000000E+00;  9.8012201E-02;  1.4794136E+04;
  1.4608098E+00;  9.9999998E-03; -1.6254185E-01;9821;  1.3171539E+00;  0.0000000E+00; -3.2115369E-03;  9.9898376E+02;  1.0877651E-01; -7.2010315E+02;3;  3.9128834E+01;  0.0000000E+00; -2.9983737E+00;0; -7.6762728E-02;  3.4650785E+04;  0.0000000E+00;  1.4659547E+01;  4.0000000E+04;  0.0000000E+00;  3.8944129E+04; -1.9720365E-01;  0.0000000E+00;  1.2044092E-01;  7.8910879E+03;
  1.4609778E+00;  9.9999998E-03; -1.5244265E-01;9822;  1.3086374E+00;  0.0000000E+00; -2.3401370E-03;  9.9828473E+02;  1.0877448E-01; -1.2150233E+03;3;  3.7497246E+01;  0.0000000E+00; -1.5011170E+00;0; -1.0359398E-01;  3.4616164E+04;  0.0000000E+00;  2.3092442E+01;  4.0000000E+04;  0.0000000E+00;  3.8929766E+04; -2.1962722E-01;  0.0000000E+00;  1.1603323E-01;  1.1462278E+04;
  1.4611495E+00;  9.9999998E-03; -1.4231308E-01;9823;  1.3015065E+00;  0.0000000E+00; -2.1318095E-03;  9.9794250E+02;  1.0877347E-01; -1.4570121E+03;3;  3.6290180E+01;  0.0000000E+00; -6.6743857E-01;0; -1.1394200E-01;  3.4597422E+04;  0.0000000E+00;  2.8989988E+01;  4.0000000E+04;  0.0000000E+00;  3.8924801E+04; -2.2404121E-01;  0.0000000E+00;  1.1009921E-01;  1.3818379E+04;
  1.4606509E+00;  9.9999998E-03; -1.7262278E-01;9820;  1.3268763E+00;  0.0000000E+00; -4.8395307E-03;  9.9987079E+02;  1.0877793E-01; -9.1591156E+01;3;  4.0610706E+01;  0.0000000E+00; -4.4132800E+00;0; -3.0001767E-02;  3.4695051E+04;  0.0000000E+00;  5.0743690E+00;  4.0000000E+04;  0.0000000E+00;  3.8963273E+04; -1.5429336E-01;  0.0000000E+00;  1.2429159E-01;  3.6306658E+03;
  1.4613200E+00;  9.9999998E-03; -1.3214459E-01;9824;  1.2954947E+00;  0.0000000E+00; -2.2142660E-03;  9.9793878E+02;  1.0877127E-01; -1.4592220E+03;3;  3.5734623E+01;  0.0000000E+00; -2.0732167E-01;0; -1.1588363E-01;  3.4594379E+04;  0.0000000E+00;  3.2125896E+01;  4.0000000E+04;  0.0000000E+00;  3.8929117E+04; -2.1741819E-01;  0.0000000E+00;  1.0153457E-01;  1.4905598E+04;
  1.4601120E+00;  9.9999998E-03; -2.0278442E-01;9817;  1.3614544E+00;  0.0000000E+00; -1.5206782E-02;  1.0032635E+03;  1.0877518E-01;  2.3153328E+03;3;  4.2875553E+01;  0.0000000E+00; -7.8549213E+00;0;  2.6183188E-01;  3.4878605E+04;  0.0000000E+00;  1.8110258E+01;  4.0000000E+04;  0.0000000E+00;  3.9020027E+04;  1.0142208E-01;  0.0000000E+00;  1.6040979E-01;  5.0335537E+03;
  1.4604999E+00;  9.9999998E-03; -1.8269208E-01;9819;  1.3376641E+00;  0.0000000E+00; -7.3111290E-03;  1.0007751E+03;  1.0877968E-01;  5.4952679E+02;3;  4.1513153E+01;  0.0000000E+00; -5.4654107E+00;0;  4.0444866E-02;  3.4741277E+04;  0.0000000E+00; -1.5268656E+00;  4.0000000E+04;  0.0000000E+00;  3.8981777E+04; -8.9201570E-02;  0.0000000E+00;  1.2964644E-01;  8.1064862E+02;
  1.4614904E+00;  9.9999998E-03; -1.2194090E-01;9825;  1.2903430E+00;  0.0000000E+00; -2.3300536E-03;  9.9813470E+02;  1.0876881E-01; -1.3200756E+03;3;  3.5698463E+01;  0.0000000E+00; -1.0054516E-01;0; -1.1451584E-01;  3.4601652E+04;  0.0000000E+00;  3.2388840E+01;  4.0000000E+04;  0.0000000E+00;  3.8937164E+04; -2.0547909E-01;  0.0000000E+00;  9.0963244E-02;  1.4749719E+04;
  1.4616618E+00;  9.9999998E-03; -1.1171106E-01;9826;  1.2858304E+00;  0.0000000E+00; -2.3819881E-03;  9.9837305E+02;  1.0876646E-01; -1.1510709E+03;3;  3.5846569E+01;  0.0000000E+00; -7.1189433E-02;0; -1.1240470E-01;  3.4612324E+04;  0.0000000E+00;  3.0132120E+01;  4.0000000E+04;  0.0000000E+00;  3.8944668E+04; -1.9227642E-01;  0.0000000E+00;  7.9871714E-02;  1.3557274E+04;
  1.4603384E+00;  9.9999998E-03; -1.9274780E-01;9818;  1.3491464E+00;  0.0000000E+00; -1.0599623E-02;  1.0017182E+03;  1.0877946E-01;  1.2184902E+03;3;  4.1970459E+01;  0.0000000E+00; -6.7243242E+00;0;  1.3369519E-01;  3.4790953E+04;  0.0000000E+00;  1.4595722E+00;  4.0000000E+04;  0.0000000E+00;  3.8999184E+04; -4.7191111E-03;  0.0000000E+00;  1.3841429E-01;  1.0852000E+03;
  1.4711262E+00;  9.9999998E-03; -1.8280891E-01;9858;  1.3379432E+00;  0.0000000E+00; -2.7118756E-03;  1.0018102E+03;  1.0858064E-01;  1.2581487E+03;3;  4.2390381E+01;  0.0000000E+00; -6.3862543E+00;0;  5.3542115E-02;  3.4988102E+04;  0.0000000E+00;  4.7173004E+00;  4.0000000E+04;  0.0000000E+00;  3.8928777E+04; -3.1635225E-02;  0.0000000E+00;  8.5177340E-02;  1.6480662E+03;
  1.4712958E+00;  9.9999998E-03; -1.7274936E-01;9859;  1.3267628E+00;  0.0000000E+00;  2.1930982E-05;  1.0008525E+03;  1.0858155E-01;  5.9238129E+02;3;  4.1286846E+01;  0.0000000E+00; -4.9273787E+00;0; -3.4629829E-02;  3.4940195E+04;  0.0000000E+00; -2.3895884E+00;  4.0000000E+04;  0.0000000E+00;  3.8907898E+04; -1.1268390E-01;  0.0000000E+00;  7.8054070E-02;  1.2033020E+03;
  1.4714482E+00;  9.9999998E-03; -1.6267233E-01;9860;  1.3167601E+00;  0.0000000E+00;  1.6184143E-03;  1.0000573E+03;  1.0857958E-01;  3.9745331E+01;3;  3.9804401E+01;  0.0000000E+00; -3.3866298E+00;0; -9.3531430E-02;  3.4901988E+04;  0.0000000E+00;  1.0377243E-01;  4.0000000E+04;  0.0000000E+00;  3.8888680E+04; -1.7059858E-01;  0.0000000E+00;  7.7067152E-02;  1.2923845E+03;
  1.4716011E+00;  9.9999998E-03; -1.5257938E-01;9861;  1.3081052E+00;  0.0000000E+00;  2.2836996E-03;  9.9934241E+02;  1.0857767E-01; -4.5664536E+02;3;  3.7962620E+01;  0.0000000E+00; -1.9597826E+00;0; -1.2771499E-01;  3.4868043E+04;  0.0000000E+00;  6.9298964E+00;  4.0000000E+04;  0.0000000E+00;  3.8871000E+04; -2.0546123E-01;  0.0000000E+00;  7.7746250E-02;  3.9490720E+03;
  1.4717586E+00;  9.9999998E-03; -1.4246783E-01;9862;  1.3008977E+00;  0.0000000E+00;  2.2444779E-03;  9.9877600E+02;  1.0857614E-01; -8.4966278E+02;3;  3.6736065E+01;  0.0000000E+00; -1.1554174E+00;0; -1.4231867E-01;  3.4841180E+04;  0.0000000E+00;  1.4100246E+01;  4.0000000E+04;  0.0000000E+00;  3.8857473E+04; -2.1952480E-01;  0.0000000E+00;  7.7206135E-02;  6.6728062E+03;
  1.4719185E+00;  9.9999998E-03; -1.3232681E-01;9863;  1.2948060E+00;  0.0000000E+00;  1.8587607E-03;  9.9846405E+02;  1.0857368E-01; -1.0658936E+03;3;  3.6195126E+01;  0.0000000E+00; -7.7676636E-01;0; -1.4648560E-01;  3.4825090E+04;  0.0000000E+00;  1.9855545E+01;  4.0000000E+04;  0.0000000E+00;  3.8852355E+04; -2.2007072E-01;  0.0000000E+00;  7.3585123E-02;  8.7323740E+03;
  1.4720802E+00;  9.9999998E-03; -1.2215264E-01;9864;  1.2895547E+00;  0.0000000E+00;  1.4012899E-03;  9.9837054E+02;  1.0857171E-01; -1.1304349E+03;3;  3.6081871E+01;  0.0000000E+00; -5.7418793E-01;0; -1.4598861E-01;  3.4818047E+04;  0.0000000E+00;  2.3443394E+01;  4.0000000E+04;  0.0000000E+00;  3.8854172E+04; -2.1297136E-01;  0.0000000E+00;  6.6982746E-02;  9.8940879E+03;
  1.4722375E+00;  9.9999998E-03; -1.1195091E-01;9865;  1.2849835E+00;  0.0000000E+00;  9.9857501E-04;  9.9845001E+02;  1.0856999E-01; -1.0749424E+03;3;  3.6202637E+01;  0.0000000E+00; -5.5562431E-01;0; -1.4349797E-01;  3.4820145E+04;  0.0000000E+00;  2.4634680E+01;  4.0000000E+04;  0.0000000E+00;  3.8858680E+04; -2.0216934E-01;  0.0000000E+00;  5.8671378E-02;  1.0127902E+04;
  1.4825176E+00;  9.9999998E-03; -1.3247171E-01;9899;  1.2944177E+00;  0.0000000E+00;  5.8691227E-03;  9.9927209E+02;  1.0840799E-01; -4.9438937E+02;3;  3.6507629E+01;  0.0000000E+00; -1.1048821E+00;0; -1.6586870E-01;  3.5052359E+04;  0.0000000E+00;  5.1944489E+00;  4.0000000E+04;  0.0000000E+00;  3.8782062E+04; -2.0648064E-01;  0.0000000E+00;  4.0611945E-02;  2.7960713E+03;
  1.4826691E+00;  9.9999998E-03; -1.2232499E-01;9900;  1.2890787E+00;  0.0000000E+00;  5.1322733E-03;  9.9893463E+02;  1.0840674E-01; -7.2337909E+02;3;  3.6385849E+01;  0.0000000E+00; -9.2413783E-01;0; -1.6800363E-01;  3.5035914E+04;  0.0000000E+00;  9.8230515E+00;  4.0000000E+04;  0.0000000E+00;  3.8774508E+04; -2.0676552E-01;  0.0000000E+00;  3.8761884E-02;  4.2912285E+03;
  1.4828203E+00;  9.9999998E-03; -1.1214966E-01;9901;  1.2843423E+00;  0.0000000E+00;  4.4238269E-03;  9.9875226E+02;  1.0840590E-01; -8.4695135E+02;3;  3.6561237E+01;  0.0000000E+00; -9.2324573E-01;0; -1.6812323E-01;  3.5024645E+04;  0.0000000E+00;  1.3257066E+01;  4.0000000E+04;  0.0000000E+00;  3.8773012E+04; -2.0230676E-01;  0.0000000E+00;  3.4183536E-02;  5.3140400E+03;
  1.4818890E+00;  9.9999998E-03; -1.7284672E-01;9895;  1.3273174E+00;  0.0000000E+00;  4.1731745E-03;  1.0020045E+03;  1.0841190E-01;  1.3632670E+03;3;  4.2116604E+01;  0.0000000E+00; -5.4900255E+00;0; -1.5558206E-02;  3.5174391E+04;  0.0000000E+00;  1.1539795E+01;  4.0000000E+04;  0.0000000E+00;  3.8856910E+04; -4.8143011E-02;  0.0000000E+00;  3.2584805E-02;  3.0172014E+03;
  1.4822195E+00;  9.9999998E-03; -1.5270109E-01;9897;  1.3081653E+00;  0.0000000E+00;  6.5328293E-03;  1.0003185E+03;  1.0841201E-01;  2.1648125E+02;3;  3.8707142E+01;  0.0000000E+00; -2.5176022E+00;0; -1.3301674E-01;  3.5099449E+04;  0.0000000E+00; -2.8665624E+00;  4.0000000E+04;  0.0000000E+00;  3.8810324E+04; -1.6848725E-01;  0.0000000E+00;  3.5470523E-02;  9.6503003E+02;
  1.4823672E+00;  9.9999998E-03; -1.4259608E-01;9898;  1.3006926E+00;  0.0000000E+00;  6.4108567E-03;  9.9975409E+02;  1.0840982E-01; -1.6708929E+02;3;  3.7282871E+01;  0.0000000E+00; -1.6189357E+00;0; -1.5622817E-01;  3.5074660E+04;  0.0000000E+00;  2.2283597E-01;  4.0000000E+04;  0.0000000E+00;  3.8794527E+04; -1.9560792E-01;  0.0000000E+00;  3.9379742E-02;  1.1571305E+03;
  1.4820663E+00;  9.9999998E-03; -1.6278547E-01;9896;  1.3171474E+00;  0.0000000E+00;  5.8519603E-03;  1.0010090E+03;  1.0841325E-01;  6.8595984E+02;3;  4.0610073E+01;  0.0000000E+00; -3.9168112E+00;0; -8.6528614E-02;  3.5129324E+04;  0.0000000E+00; -3.5610405E-01;  4.0000000E+04;  0.0000000E+00;  3.8830375E+04; -1.1856289E-01;  0.0000000E+00;  3.2034278E-02;  1.3077246E+03;
  1.4933926E+00;  9.9999998E-03; -1.1230563E-01;9935;  1.2841189E+00;  0.0000000E+00;  7.7413870E-03;  9.9938989E+02;  1.0827006E-01; -4.0474277E+02;3;  3.6867802E+01;  0.0000000E+00; -1.1390553E+00;0; -1.7987418E-01;  3.5231762E+04;  0.0000000E+00;  1.1283646E+00;  4.0000000E+04;  0.0000000E+00;  3.8692062E+04; -1.8660596E-01;  0.0000000E+00;  6.7317802E-03;  1.1518076E+03;
  1.4932530E+00;  9.9999998E-03; -1.2246082E-01;9934;  1.2890099E+00;  0.0000000E+00;  8.6602522E-03;  9.9970868E+02;  1.0827174E-01; -1.9333716E+02;3;  3.6795773E+01;  0.0000000E+00; -1.2210733E+00;0; -1.7547646E-01;  3.5246352E+04;  0.0000000E+00; -1.6532056E+00;  4.0000000E+04;  0.0000000E+00;  3.8700133E+04; -1.8271151E-01;  0.0000000E+00;  7.2350474E-03;  5.5858081E+02;
  1.4931105E+00;  9.9999998E-03; -1.3259463E-01;9933;  1.2945331E+00;  0.0000000E+00;  9.5350277E-03;  1.0001143E+03;  1.0827325E-01;  7.5808449E+01;3;  3.7060486E+01;  0.0000000E+00; -1.4383167E+00;0; -1.6797909E-01;  3.5263906E+04;  0.0000000E+00; -3.3149214E+00;  4.0000000E+04;  0.0000000E+00;  3.8712191E+04; -1.7264161E-01;  0.0000000E+00;  4.6625067E-03;  8.7063025E+02;
  1.4928042E+00;  9.9999998E-03; -1.5279388E-01;9931;  1.3089594E+00;  0.0000000E+00;  1.0059578E-02;  1.0013481E+03;  1.0827374E-01;  8.9551440E+02;3;  3.9939316E+01;  0.0000000E+00; -3.1197004E+00;0; -1.1403847E-01;  3.5313797E+04;  0.0000000E+00;  6.3532553E+00;  4.0000000E+04;  0.0000000E+00;  3.8752395E+04; -1.0799643E-01;  0.0000000E+00; -6.0420437E-03;  1.8576642E+03;
  1.4929631E+00;  9.9999998E-03; -1.4270557E-01;9932;  1.3011141E+00;  0.0000000E+00;  1.0066879E-02;  1.0006464E+03;  1.0827429E-01;  4.2919467E+02;3;  3.8160450E+01;  0.0000000E+00; -2.0696499E+00;0; -1.4938384E-01;  3.5285609E+04;  0.0000000E+00; -1.6159555E+00;  4.0000000E+04;  0.0000000E+00;  3.8729488E+04; -1.4922898E-01;  0.0000000E+00; -1.5487318E-04;  1.1237465E+03;
  1.4926186E+00;  9.9999998E-03; -1.6285422E-01;9930;  1.3178600E+00;  0.0000000E+00;  9.4008446E-03;  1.0024271E+03;  1.0827064E-01;  1.6128927E+03;3;  4.1575172E+01;  0.0000000E+00; -4.4234252E+00;0; -6.2007088E-02;  3.5358164E+04;  0.0000000E+00;  2.2901407E+01;  4.0000000E+04;  0.0000000E+00;  3.8786551E+04; -5.0517518E-02;  0.0000000E+00; -1.1489571E-02;  5.2998555E+03;
  1.5035102E+00;  9.9999998E-03; -1.4276496E-01;9963;  1.3017992E+00;  0.0000000E+00;  1.3215923E-02;  1.0018357E+03;  1.0815596E-01;  1.1899199E+03;3;  3.9263157E+01;  0.0000000E+00; -2.6282492E+00;0; -1.2933101E-01;  3.5490156E+04;  0.0000000E+00;  1.8628048E+01;  4.0000000E+04;  0.0000000E+00;  3.8679480E+04; -8.9181215E-02;  0.0000000E+00; -4.0149793E-02;  3.9842710E+03;
  1.5036757E+00;  9.9999998E-03; -1.3267504E-01;9964;  1.2950156E+00;  0.0000000E+00;  1.2671347E-02;  1.0010335E+03;  1.0815756E-01;  6.6969330E+02;3;  3.7872383E+01;  0.0000000E+00; -1.8327910E+00;0; -1.5442069E-01;  3.5459367E+04;  0.0000000E+00;  5.6769080E+00;  4.0000000E+04;  0.0000000E+00;  3.8651527E+04; -1.2240959E-01;  0.0000000E+00; -3.2011095E-02;  1.6164222E+03;
  1.5038230E+00;  9.9999998E-03; -1.2255704E-01;9965;  1.2892418E+00;  0.0000000E+00;  1.1774272E-02;  1.0004932E+03;  1.0815788E-01;  3.1944238E+02;3;  3.7287449E+01;  0.0000000E+00; -1.4695680E+00;0; -1.6861881E-01;  3.5438652E+04;  0.0000000E+00; -9.9173850E-01;  4.0000000E+04;  0.0000000E+00;  3.8633082E+04; -1.4277799E-01;  0.0000000E+00; -2.5840821E-02;  1.0139116E+03;
  1.5039587E+00;  9.9999998E-03; -1.1241473E-01;9966;  1.2841889E+00;  0.0000000E+00;  1.0724174E-02;  1.0001130E+03;  1.0815723E-01;  7.3177444E+01;3;  3.7215740E+01;  0.0000000E+00; -1.3472281E+00;0; -1.7783338E-01;  3.5423230E+04;  0.0000000E+00; -3.3262250E+00;  4.0000000E+04;  0.0000000E+00;  3.8620512E+04; -1.5542224E-01;  0.0000000E+00; -2.2411130E-02;  9.6963916E+02;
  1.5040855E+00;  9.9999998E-03; -1.0224894E-01;9967;  1.2797259E+00;  0.0000000E+00;  9.6435593E-03;  9.9984314E+02;  1.0815593E-01; -1.0155366E+02;3;  3.7330734E+01;  0.0000000E+00; -1.2506229E+00;0; -1.8422775E-01;  3.5411602E+04;  0.0000000E+00; -3.1943941E+00;  4.0000000E+04;  0.0000000E+00;  3.8612773E+04; -1.6285816E-01;  0.0000000E+00; -2.1369586E-02;  7.8717523E+02;
  1.5143555E+00;  9.9999998E-03; -1.2259343E-01;9992;  1.2894626E+00;  0.0000000E+00;  1.4425891E-02;  1.0015677E+03;  1.0806119E-01;  9.9021399E+02;3;  3.7920689E+01;  0.0000000E+00; -1.8397177E+00;0; -1.5608940E-01;  3.5619852E+04;  0.0000000E+00;  1.8986317E+01;  4.0000000E+04;  0.0000000E+00;  3.8585113E+04; -9.6614361E-02;  0.0000000E+00; -5.9475027E-02;  3.8041033E+03;
  1.5145026E+00;  9.9999998E-03; -1.1247306E-01;9993;  1.2843515E+00;  0.0000000E+00;  1.3278980E-02;  1.0009352E+03;  1.0806202E-01;  5.9048340E+02;3;  3.7638237E+01;  0.0000000E+00; -1.5996214E+00;0; -1.6738705E-01;  3.5597094E+04;  0.0000000E+00;  8.0374918E+00;  4.0000000E+04;  0.0000000E+00;  3.8561574E+04; -1.1518225E-01;  0.0000000E+00; -5.2204799E-02;  1.9826326E+03;
  1.5146327E+00;  9.9999998E-03; -1.0232884E-01;9994;  1.2798016E+00;  0.0000000E+00;  1.2098004E-02;  1.0004940E+03;  1.0806225E-01;  3.1181491E+02;3;  3.7635223E+01;  0.0000000E+00; -1.4691468E+00;0; -1.7684652E-01;  3.5581332E+04;  0.0000000E+00;  1.6270585E+00;  4.0000000E+04;  0.0000000E+00;  3.8544910E+04; -1.2903479E-01;  0.0000000E+00; -4.7811732E-02;  1.1969167E+03;
  3.1367019E-03;  9.9999998E-03; -1.0003947E-01;2467; -3.9149825E-03;  0.0000000E+00; -1.7081272E-04;  9.8278137E+02;  1.0000000E-01; -1.4265325E+04;3;  5.2509857E+01;  0.0000000E+00; -1.2109082E+00;0; -1.0424399E-01;  3.8656859E+04;  0.0000000E+00; -1.8495370E-02;  4.0000000E+04;  0.0000000E+00;  3.9994043E+04; -1.0639897E-01;  0.0000000E+00;  2.1549808E-03;  7.1768542E+02;
  3.1144375E-03;  9.9999998E-03; -9.0029232E-02;2468; -3.8655442E-03;  0.0000000E+00; -1.3733246E-04;  9.8293213E+02;  1.0000000E-01; -1.4140391E+04;3;  5.0292267E+01;  0.0000000E+00; -1.1815095E+00;0; -1.0328853E-01;  3.8669742E+04;  0.0000000E+00; -7.6156594E-03;  4.0000000E+04;  0.0000000E+00;  3.9992762E+04; -1.0559101E-01;  0.0000000E+00;  2.3024802E-03;  5.3402832E+02;
  3.0926510E-03;  9.9999998E-03; -8.0019332E-02;2469; -3.8259942E-03;  0.0000000E+00; -1.0858844E-04;  9.8307507E+02;  1.0000000E-01; -1.4021974E+04;3;  4.8288826E+01;  0.0000000E+00; -1.0935992E+00;0; -1.0236139E-01;  3.8681836E+04;  0.0000000E+00; -1.9427957E-03;  4.0000000E+04;  0.0000000E+00;  3.9991801E+04; -1.0472587E-01;  0.0000000E+00;  2.3644767E-03;  3.7642090E+02;
  3.0720441E-03;  9.9999998E-03; -7.0010938E-02;2470; -3.7994301E-03;  0.0000000E+00; -8.5124586E-05;  9.8320630E+02;  1.0000000E-01; -1.3913285E+04;3;  4.6536446E+01;  0.0000000E+00; -9.7192407E-01;0; -1.0152680E-01;  3.8692727E+04;  0.0000000E+00;  4.2126881E-04;  4.0000000E+04;  0.0000000E+00;  3.9990875E+04; -1.0386269E-01;  0.0000000E+00;  2.3358907E-03;  2.5509769E+02;
  3.0529560E-03;  9.9999998E-03; -6.0004573E-02;2471; -3.7861655E-03;  0.0000000E+00; -6.6535082E-05;  9.8332452E+02;  1.0000000E-01; -1.3815312E+04;3;  4.5057362E+01;  0.0000000E+00; -8.3357513E-01;0; -1.0082304E-01;  3.8702301E+04;  0.0000000E+00;  9.8088488E-04;  4.0000000E+04;  0.0000000E+00;  3.9990277E+04; -1.0304874E-01;  0.0000000E+00;  2.2256942E-03;  1.7615996E+02;
  3.0360483E-03;  9.9999998E-03; -5.0000463E-02;2472; -3.7843210E-03;  0.0000000E+00; -5.1902411E-05;  9.8342542E+02;  1.0000000E-01; -1.3731710E+04;3;  4.3887600E+01;  0.0000000E+00; -6.8994331E-01;0; -1.0026558E-01;  3.8710316E+04;  0.0000000E+00;  7.7245064E-04;  4.0000000E+04;  0.0000000E+00;  3.9989746E+04; -1.0232025E-01;  0.0000000E+00;  2.0546680E-03;  1.3918881E+02;
  3.0214596E-03;  9.9999998E-03; -3.9998207E-02;2473; -3.7905297E-03;  0.0000000E+00; -3.9987935E-05;  9.8350836E+02;  1.0000000E-01; -1.3663021E+04;3;  4.3013187E+01;  0.0000000E+00; -5.4694188E-01;0; -9.9850670E-02;  3.8716758E+04;  0.0000000E+00;  4.0080125E-04;  4.0000000E+04;  0.0000000E+00;  3.9989594E+04; -1.0170226E-01;  0.0000000E+00;  1.8515898E-03;  1.3712213E+02;
  3.0096204E-03;  9.9999998E-03; -2.9997488E-02;2474; -3.8009004E-03;  0.0000000E+00; -2.9496670E-05;  9.8357709E+02;  1.0000000E-01; -1.3606084E+04;3;  4.2374359E+01;  0.0000000E+00; -4.0611047E-01;0; -9.9562436E-02;  3.8721715E+04;  0.0000000E+00;  1.3273703E-04;  4.0000000E+04;  0.0000000E+00;  3.9990395E+04; -1.0121123E-01;  0.0000000E+00;  1.6488022E-03;  1.5779564E+02;
  3.0008731E-03;  9.9999998E-03; -1.9997828E-02;2475; -3.8115354E-03;  0.0000000E+00; -1.9639336E-05;  9.8362592E+02;  1.0000000E-01; -1.3565641E+04;3;  4.1967339E+01;  0.0000000E+00; -2.6884097E-01;0; -9.9378616E-02;  3.8725113E+04;  0.0000000E+00;  1.6829901E-05;  4.0000000E+04;  0.0000000E+00;  3.9990898E+04; -1.0085610E-01;  0.0000000E+00;  1.4774780E-03;  1.8673921E+02;
  2.9955290E-03;  9.9999998E-03; -9.9987956E-03;2476; -3.8192605E-03;  0.0000000E+00; -9.8578885E-06;  9.8365295E+02;  1.0000000E-01; -1.3543222E+04;3;  4.1761189E+01;  0.0000000E+00; -1.3381135E-01;0; -9.9278443E-02;  3.8727219E+04;  0.0000000E+00; -3.3935353E-06;  4.0000000E+04;  0.0000000E+00;  3.9990844E+04; -1.0064180E-01;  0.0000000E+00;  1.3633616E-03;  2.1045685E+02;
  2.9937427E-03;  9.9999998E-03;  8.5829135E-11;2477; -3.8220906E-03;  0.0000000E+00;  3.0732641E-10;  9.8366241E+02;  1.0000000E-01; -1.3535370E+04;3;  4.1692894E+01;  0.0000000E+00;  6.1043734E-06;0; -9.9246696E-02;  3.8727883E+04;  0.0000000E+00; -5.9545733E-13;  4.0000000E+04;  0.0000000E+00;  3.9990844E+04; -1.0057005E-01;  0.0000000E+00;  1.3233597E-03;  2.1948756E+02;
  2.9955290E-03;  9.9999998E-03;  9.9987965E-03;2478; -3.8192605E-03;  0.0000000E+00;  9.8555756E-06;  9.8365295E+02;  1.0000000E-01; -1.3543222E+04;3;  4.1761330E+01;  0.0000000E+00;  1.3376011E-01;0; -9.9278413E-02;  3.8727219E+04;  0.0000000E+00; -3.3783058E-06;  4.0000000E+04;  0.0000000E+00;  3.9990844E+04; -1.0064177E-01;  0.0000000E+00;  1.3633600E-03;  2.1046532E+02;
  3.0008738E-03;  9.9999998E-03;  1.9997828E-02;2479; -3.8115380E-03;  0.0000000E+00;  1.9641097E-05;  9.8362592E+02;  1.0000000E-01; -1.3565641E+04;3;  4.1967476E+01;  0.0000000E+00;  2.6888201E-01;0; -9.9378683E-02;  3.8725121E+04;  0.0000000E+00;  1.6903963E-05;  4.0000000E+04;  0.0000000E+00;  3.9990898E+04; -1.0085616E-01;  0.0000000E+00;  1.4774766E-03;  1.8674680E+02;
  3.0096206E-03;  9.9999998E-03;  2.9997488E-02;2480; -3.8009016E-03;  0.0000000E+00;  2.9497201E-05;  9.8357715E+02;  1.0000000E-01; -1.3606035E+04;3;  4.2373997E+01;  0.0000000E+00;  4.0613431E-01;0; -9.9562459E-02;  3.8721719E+04;  0.0000000E+00;  1.3283351E-04;  4.0000000E+04;  0.0000000E+00;  3.9990395E+04; -1.0121126E-01;  0.0000000E+00;  1.6487992E-03;  1.5780164E+02;
  3.0214600E-03;  9.9999998E-03;  3.9998207E-02;2481; -3.7905239E-03;  0.0000000E+00;  3.9985734E-05;  9.8350830E+02;  1.0000000E-01; -1.3663070E+04;3;  4.3013855E+01;  0.0000000E+00;  5.4686314E-01;0; -9.9850819E-02;  3.8716762E+04;  0.0000000E+00;  4.0129683E-04;  4.0000000E+04;  0.0000000E+00;  3.9989594E+04; -1.0170241E-01;  0.0000000E+00;  1.8515855E-03;  1.3713983E+02;
  3.0360483E-03;  9.9999998E-03;  5.0000463E-02;2482; -3.7843131E-03;  0.0000000E+00;  5.1903320E-05;  9.8342542E+02;  1.0000000E-01; -1.3731710E+04;3;  4.3887791E+01;  0.0000000E+00;  6.8995196E-01;0; -1.0026568E-01;  3.8710316E+04;  0.0000000E+00;  7.7267649E-04;  4.0000000E+04;  0.0000000E+00;  3.9989746E+04; -1.0232034E-01;  0.0000000E+00;  2.0546606E-03;  1.3920763E+02;
  3.0529562E-03;  9.9999998E-03;  6.0004573E-02;2483; -3.7861569E-03;  0.0000000E+00;  6.6538836E-05;  9.8332452E+02;  1.0000000E-01; -1.3815312E+04;3;  4.5057564E+01;  0.0000000E+00;  8.3363140E-01;0; -1.0082307E-01;  3.8702289E+04;  0.0000000E+00;  9.8112307E-04;  4.0000000E+04;  0.0000000E+00;  3.9990277E+04; -1.0304876E-01;  0.0000000E+00;  2.2256873E-03;  1.7617542E+02;
  1.2906724E-02;  9.9999998E-03; -1.0004144E-01;2527; -5.4770424E-03;  0.0000000E+00; -2.4347373E-04;  9.8553815E+02;  1.0000000E-01; -1.1981390E+04;3;  1.0515860E+01;  0.0000000E+00; -1.2317166E+00;0; -1.1027014E-01;  3.8867633E+04;  0.0000000E+00; -2.1818437E-02;  4.0000000E+04;  0.0000000E+00;  3.9994906E+04; -1.1275700E-01;  0.0000000E+00;  2.4868527E-03;  5.5725928E+02;
  1.2885348E-02;  9.9999998E-03; -9.0032347E-02;2528; -5.4001119E-03;  0.0000000E+00; -1.9917190E-04;  9.8570007E+02;  1.0000000E-01; -1.1847221E+04;3;  8.4923325E+00;  0.0000000E+00; -1.1864955E+00;0; -1.0915088E-01;  3.8881488E+04;  0.0000000E+00; -8.8471808E-03;  4.0000000E+04;  0.0000000E+00;  3.9993465E+04; -1.1184382E-01;  0.0000000E+00;  2.6929358E-03;  3.7102954E+02;
  1.2865453E-02;  9.9999998E-03; -8.0023438E-02;2529; -5.3366586E-03;  0.0000000E+00; -1.5853932E-04;  9.8585254E+02;  1.0000000E-01; -1.1720903E+04;3;  6.6064262E+00;  0.0000000E+00; -1.0804045E+00;0; -1.0809257E-01;  3.8894328E+04;  0.0000000E+00; -2.3893511E-03;  4.0000000E+04;  0.0000000E+00;  3.9991859E+04; -1.1088005E-01;  0.0000000E+00;  2.7874880E-03;  1.9821928E+02;
  1.2847458E-02;  9.9999998E-03; -7.0015699E-02;2530; -5.2905078E-03;  0.0000000E+00; -1.2321756E-04;  9.8598376E+02;  1.0000000E-01; -1.1612165E+04;3;  4.9637146E+00;  0.0000000E+00; -9.3972492E-01;0; -1.0716105E-01;  3.8905570E+04;  0.0000000E+00;  9.5827818E-05;  4.0000000E+04;  0.0000000E+00;  3.9990641E+04; -1.0992514E-01;  0.0000000E+00;  2.7640883E-03;  5.4280174E+01;
  1.2831298E-02;  9.9999998E-03; -6.0009360E-02;2531; -5.2622133E-03;  0.0000000E+00; -9.3811570E-05;  9.8609918E+02;  1.0000000E-01; -1.1516563E+04;3;  3.5603371E+00;  0.0000000E+00; -7.8486466E-01;0; -1.0639301E-01;  3.8915363E+04;  0.0000000E+00;  5.5080379E-04;  4.0000000E+04;  0.0000000E+00;  3.9989812E+04; -1.0902734E-01;  0.0000000E+00;  2.6343311E-03;  4.9548943E+01;
  1.2817302E-02;  9.9999998E-03; -5.0004829E-02;2532; -5.2495822E-03;  0.0000000E+00; -7.0049289E-05;  9.8619952E+02;  1.0000000E-01; -1.1433454E+04;3;  2.4141045E+00;  0.0000000E+00; -6.2990814E-01;0; -1.0579927E-01;  3.8923422E+04;  0.0000000E+00;  2.5858471E-04;  4.0000000E+04;  0.0000000E+00;  3.9989766E+04; -1.0822420E-01;  0.0000000E+00;  2.4249316E-03;  1.0963106E+02;
  1.2805346E-02;  9.9999998E-03; -4.0001828E-02;2533; -5.2484535E-03;  0.0000000E+00; -5.0989456E-05;  9.8627753E+02;  1.0000000E-01; -1.1368814E+04;3;  1.5768106E+00;  0.0000000E+00; -4.8277086E-01;0; -1.0536926E-01;  3.8929941E+04;  0.0000000E+00; -8.5396779E-05;  4.0000000E+04;  0.0000000E+00;  3.9989832E+04; -1.0754210E-01;  0.0000000E+00;  2.1728380E-03;  1.3053557E+02;
  1.2795663E-02;  9.9999998E-03; -3.0000204E-02;2534; -5.2542188E-03;  0.0000000E+00; -3.5576399E-05;  9.8634424E+02;  1.0000000E-01; -1.1313557E+04;3;  9.4886243E-01;  0.0000000E+00; -3.4778848E-01;0; -1.0507949E-01;  3.8934648E+04;  0.0000000E+00; -2.2448249E-04;  4.0000000E+04;  0.0000000E+00;  3.9989855E+04; -1.0699897E-01;  0.0000000E+00;  1.9194836E-03;  1.2359820E+02;
  1.2788470E-02;  9.9999998E-03; -1.9999599E-02;2535; -5.2621583E-03;  0.0000000E+00; -2.2491477E-05;  9.8638983E+02;  1.0000000E-01; -1.1275780E+04;3;  5.5902338E-01;  0.0000000E+00; -2.2381705E-01;0; -1.0490096E-01;  3.8937961E+04;  0.0000000E+00; -1.7191844E-04;  4.0000000E+04;  0.0000000E+00;  3.9989918E+04; -1.0660569E-01;  0.0000000E+00;  1.7047308E-03;  1.0352726E+02;
  1.2784041E-02;  9.9999998E-03; -9.9996692E-03;2536; -5.2685244E-03;  0.0000000E+00; -1.0921490E-05;  9.8641553E+02;  1.0000000E-01; -1.1254496E+04;3;  3.5822499E-01;  0.0000000E+00; -1.0946753E-01;0; -1.0480645E-01;  3.8940070E+04;  0.0000000E+00; -5.5428169E-05;  4.0000000E+04;  0.0000000E+00;  3.9990426E+04; -1.0636790E-01;  0.0000000E+00;  1.5614473E-03;  8.4587608E+01;
  1.2782543E-02;  9.9999998E-03;  1.4200451E-10;2537; -5.2709635E-03;  0.0000000E+00;  9.9171428E-11;  9.8642694E+02;  1.0000000E-01; -1.1245016E+04;3;  2.7517647E-01;  0.0000000E+00;  1.4726222E-06;0; -1.0477720E-01;  3.8940688E+04;  0.0000000E+00; -6.3491849E-15;  4.0000000E+04;  0.0000000E+00;  3.9990543E+04; -1.0628839E-01;  0.0000000E+00;  1.5111852E-03;  7.7047188E+01;
  1.2784041E-02;  9.9999998E-03;  9.9996701E-03;2538; -5.2685221E-03;  0.0000000E+00;  1.0922851E-05;  9.8641553E+02;  1.0000000E-01; -1.1254496E+04;3;  3.5829198E-01;  0.0000000E+00;  1.0948043E-01;0; -1.0480647E-01;  3.8940074E+04;  0.0000000E+00; -5.5377401E-05;  4.0000000E+04;  0.0000000E+00;  3.9990430E+04; -1.0636792E-01;  0.0000000E+00;  1.5614451E-03;  8.4580490E+01;
  1.2788470E-02;  9.9999998E-03;  1.9999599E-02;2539; -5.2621560E-03;  0.0000000E+00;  2.2495864E-05;  9.8638983E+02;  1.0000000E-01; -1.1275780E+04;3;  5.5909401E-01;  0.0000000E+00;  2.2383264E-01;0; -1.0490102E-01;  3.8937965E+04;  0.0000000E+00; -1.7172738E-04;  4.0000000E+04;  0.0000000E+00;  3.9989918E+04; -1.0660575E-01;  0.0000000E+00;  1.7047272E-03;  1.0352023E+02;
  1.2795663E-02;  9.9999998E-03;  3.0000204E-02;2540; -5.2542151E-03;  0.0000000E+00;  3.5577283E-05;  9.8634424E+02;  1.0000000E-01; -1.1313557E+04;3;  9.4895917E-01;  0.0000000E+00;  3.4778774E-01;0; -1.0507957E-01;  3.8934648E+04;  0.0000000E+00; -2.2430379E-04;  4.0000000E+04;  0.0000000E+00;  3.9989855E+04; -1.0699905E-01;  0.0000000E+00;  1.9194790E-03;  1.2358852E+02;
  1.2805347E-02;  9.9999998E-03;  4.0001828E-02;2541; -5.2484493E-03;  0.0000000E+00;  5.0996528E-05;  9.8627753E+02;  1.0000000E-01; -1.1368814E+04;3;  1.5768661E+00;  0.0000000E+00;  4.8285192E-01;0; -1.0536923E-01;  3.8929941E+04;  0.0000000E+00; -8.4912252E-05;  4.0000000E+04;  0.0000000E+00;  3.9989832E+04; -1.0754205E-01;  0.0000000E+00;  2.1728314E-03;  1.3053061E+02;
  1.2817302E-02;  9.9999998E-03;  5.0004829E-02;2542; -5.2495790E-03;  0.0000000E+00;  7.0051901E-05;  9.8619952E+02;  1.0000000E-01; -1.1433454E+04;3;  2.4142325E+00;  0.0000000E+00;  6.2992817E-01;0; -1.0579930E-01;  3.8923430E+04;  0.0000000E+00;  2.5879283E-04;  4.0000000E+04;  0.0000000E+00;  3.9989766E+04; -1.0822423E-01;  0.0000000E+00;  2.4249223E-03;  1.0961751E+02;
  1.2831298E-02;  9.9999998E-03;  6.0009360E-02;2543; -5.2622086E-03;  0.0000000E+00;  9.3814044E-05;  9.8609918E+02;  1.0000000E-01; -1.1516563E+04;3;  3.5604455E+00;  0.0000000E+00;  7.8491253E-01;0; -1.0639302E-01;  3.8915367E+04;  0.0000000E+00;  5.5034109E-04;  4.0000000E+04;  0.0000000E+00;  3.9989812E+04; -1.0902734E-01;  0.0000000E+00;  2.6343237E-03;  4.9539860E+01;
  2.2653513E-02;  9.9999998E-03; -1.0003283E-01;2588; -7.2890026E-03;  0.0000000E+00; -3.2339132E-04;  9.8902283E+02;  1.0000000E-01; -9.0943604E+03;3; -2.9070541E+01;  0.0000000E+00; -1.1279411E+00;0; -1.1282207E-01;  3.9137676E+04;  0.0000000E+00; -2.3914451E-02;  4.0000000E+04;  0.0000000E+00;  3.9995965E+04; -1.1561225E-01;  0.0000000E+00;  2.7901824E-03;  4.1654095E+02;
  2.2633204E-02;  9.9999998E-03; -9.0028122E-02;2589; -7.1821520E-03;  0.0000000E+00; -2.6740026E-04;  9.8919586E+02;  1.0000000E-01; -8.9510059E+03;3; -3.0798267E+01;  0.0000000E+00; -1.0794122E+00;0; -1.1155074E-01;  3.9152293E+04;  0.0000000E+00; -1.0161627E-02;  4.0000000E+04;  0.0000000E+00;  3.9994430E+04; -1.1461330E-01;  0.0000000E+00;  3.0625619E-03;  2.3624698E+02;
  2.2615185E-02;  9.9999998E-03; -8.0022797E-02;2590; -7.0921415E-03;  0.0000000E+00; -2.1317467E-04;  9.8934711E+02;  1.0000000E-01; -8.8257256E+03;3; -3.2414913E+01;  0.0000000E+00; -9.7185236E-01;0; -1.1038040E-01;  3.9165441E+04;  0.0000000E+00; -3.5548962E-03;  4.0000000E+04;  0.0000000E+00;  3.9993719E+04; -1.1357430E-01;  0.0000000E+00;  3.1939084E-03;  5.1128349E+01;
  2.2599593E-02;  9.9999998E-03; -7.0017248E-02;2591; -7.0240940E-03;  0.0000000E+00; -1.6401411E-04;  9.8948132E+02;  1.0000000E-01; -8.7145186E+03;3; -3.3907314E+01;  0.0000000E+00; -8.3166707E-01;0; -1.0937612E-01;  3.9176996E+04;  0.0000000E+00; -1.1328607E-03;  4.0000000E+04;  0.0000000E+00;  3.9992086E+04; -1.1255237E-01;  0.0000000E+00;  3.1762575E-03;  1.1715381E+02;
  2.2586118E-02;  9.9999998E-03; -6.0011968E-02;2592; -6.9786562E-03;  0.0000000E+00; -1.2185786E-04;  9.8959283E+02;  1.0000000E-01; -8.6221270E+03;3; -3.5183151E+01;  0.0000000E+00; -6.7960268E-01;0; -1.0857069E-01;  3.9186844E+04;  0.0000000E+00; -7.0165808E-04;  4.0000000E+04;  0.0000000E+00;  3.9991086E+04; -1.1159492E-01;  0.0000000E+00;  3.0242330E-03;  2.5009828E+02;
  2.2574747E-02;  9.9999998E-03; -5.0007626E-02;2593; -6.9533233E-03;  0.0000000E+00; -8.7334469E-05;  9.8968658E+02;  1.0000000E-01; -8.5444492E+03;3; -3.6229336E+01;  0.0000000E+00; -5.3050297E-01;0; -1.0796775E-01;  3.9194840E+04;  0.0000000E+00; -8.7921246E-04;  4.0000000E+04;  0.0000000E+00;  3.9990391E+04; -1.1073907E-01;  0.0000000E+00;  2.7713180E-03;  3.3884613E+02;
  2.2565214E-02;  9.9999998E-03; -4.0004324E-02;2594; -6.9433879E-03;  0.0000000E+00; -6.0149730E-05;  9.8976440E+02;  1.0000000E-01; -8.4800068E+03;3; -3.7038952E+01;  0.0000000E+00; -3.9402109E-01;0; -1.0754810E-01;  3.9201184E+04;  0.0000000E+00; -9.7786298E-04;  4.0000000E+04;  0.0000000E+00;  3.9990285E+04; -1.1001188E-01;  0.0000000E+00;  2.4637717E-03;  3.8444324E+02;
  2.2557601E-02;  9.9999998E-03; -3.0002119E-02;2595; -6.9432505E-03;  0.0000000E+00; -3.9367904E-05;  9.8982233E+02;  1.0000000E-01; -8.4320088E+03;3; -3.7597454E+01;  0.0000000E+00; -2.7465937E-01;0; -1.0727876E-01;  3.9205961E+04;  0.0000000E+00; -8.0555090E-04;  4.0000000E+04;  0.0000000E+00;  3.9990043E+04; -1.0943208E-01;  0.0000000E+00;  2.1533121E-03;  3.9646466E+02;
  2.2551972E-02;  9.9999998E-03; -2.0000853E-02;2596; -6.9476035E-03;  0.0000000E+00; -2.3482671E-05;  9.8986609E+02;  1.0000000E-01; -8.3957627E+03;3; -3.7970261E+01;  0.0000000E+00; -1.7191680E-01;0; -1.0712187E-01;  3.9209152E+04;  0.0000000E+00; -4.5670537E-04;  4.0000000E+04;  0.0000000E+00;  3.9989980E+04; -1.0901146E-01;  0.0000000E+00;  1.8895867E-03;  3.8929144E+02;
  2.2548510E-02;  9.9999998E-03; -1.0000253E-02;2597; -6.9520925E-03;  0.0000000E+00; -1.0937127E-05;  9.8989221E+02;  1.0000000E-01; -8.3741338E+03;3; -3.8173336E+01;  0.0000000E+00; -8.2503296E-02;0; -1.0704337E-01;  3.9211180E+04;  0.0000000E+00; -1.3076147E-04;  4.0000000E+04;  0.0000000E+00;  3.9989941E+04; -1.0875681E-01;  0.0000000E+00;  1.7134395E-03;  3.7772568E+02;
  2.2547336E-02;  9.9999998E-03;  1.3165909E-10;2598; -6.9539077E-03;  0.0000000E+00;  1.0471010E-09;  9.8990070E+02;  1.0000000E-01; -8.3670723E+03;3; -3.8236782E+01;  0.0000000E+00;  1.0791747E-05;0; -1.0702007E-01;  3.9211777E+04;  0.0000000E+00; -2.9920719E-13;  4.0000000E+04;  0.0000000E+00;  3.9990289E+04; -1.0867170E-01;  0.0000000E+00;  1.6516263E-03;  3.7257031E+02;
  2.2548510E-02;  9.9999998E-03;  1.0000253E-02;2599; -6.9520865E-03;  0.0000000E+00;  1.0940414E-05;  9.8989221E+02;  1.0000000E-01; -8.3741338E+03;3; -3.8173290E+01;  0.0000000E+00;  8.2501352E-02;0; -1.0704340E-01;  3.9211180E+04;  0.0000000E+00; -1.3069449E-04;  4.0000000E+04;  0.0000000E+00;  3.9989941E+04; -1.0875684E-01;  0.0000000E+00;  1.7134390E-03;  3.7772314E+02;
  2.2551972E-02;  9.9999998E-03;  2.0000853E-02;2600; -6.9475998E-03;  0.0000000E+00;  2.3482906E-05;  9.8986609E+02;  1.0000000E-01; -8.3957627E+03;3; -3.7970165E+01;  0.0000000E+00;  1.7186132E-01;0; -1.0712188E-01;  3.9209152E+04;  0.0000000E+00; -4.5673308E-04;  4.0000000E+04;  0.0000000E+00;  3.9989980E+04; -1.0901146E-01;  0.0000000E+00;  1.8895826E-03;  3.8928406E+02;
  2.2557601E-02;  9.9999998E-03;  3.0002119E-02;2601; -6.9432422E-03;  0.0000000E+00;  3.9370556E-05;  9.8982220E+02;  1.0000000E-01; -8.4321074E+03;3; -3.7596615E+01;  0.0000000E+00;  2.7463943E-01;0; -1.0727870E-01;  3.9205961E+04;  0.0000000E+00; -8.0551155E-04;  4.0000000E+04;  0.0000000E+00;  3.9990043E+04; -1.0943201E-01;  0.0000000E+00;  2.1533060E-03;  3.9644470E+02;
  2.2565214E-02;  9.9999998E-03;  4.0004324E-02;2602; -6.9433860E-03;  0.0000000E+00;  6.0152892E-05;  9.8976440E+02;  1.0000000E-01; -8.4800068E+03;3; -3.7038822E+01;  0.0000000E+00;  3.9406076E-01;0; -1.0754810E-01;  3.9201184E+04;  0.0000000E+00; -9.7765704E-04;  4.0000000E+04;  0.0000000E+00;  3.9990285E+04; -1.1001187E-01;  0.0000000E+00;  2.4637636E-03;  3.8443436E+02;
  2.2574747E-02;  9.9999998E-03;  5.0007626E-02;2603; -6.9533153E-03;  0.0000000E+00;  8.7338238E-05;  9.8968658E+02;  1.0000000E-01; -8.5444492E+03;3; -3.6229267E+01;  0.0000000E+00;  5.3054392E-01;0; -1.0796770E-01;  3.9194848E+04;  0.0000000E+00; -8.7881600E-04;  4.0000000E+04;  0.0000000E+00;  3.9990391E+04; -1.1073901E-01;  0.0000000E+00;  2.7713089E-03;  3.3883441E+02;
  2.2586118E-02;  9.9999998E-03;  6.0011968E-02;2604; -6.9786538E-03;  0.0000000E+00;  1.2186141E-04;  9.8959290E+02;  1.0000000E-01; -8.6220771E+03;3; -3.5183876E+01;  0.0000000E+00;  6.7957962E-01;0; -1.0857077E-01;  3.9186848E+04;  0.0000000E+00; -7.0150837E-04;  4.0000000E+04;  0.0000000E+00;  3.9991086E+04; -1.1159499E-01;  0.0000000E+00;  3.0242233E-03;  2.5008984E+02;
  3.2401718E-02;  9.9999998E-03; -1.0002442E-01;2649; -9.1385311E-03;  0.0000000E+00; -4.0354172E-04;  9.9282098E+02;  1.0000000E-01; -5.9476836E+03;3; -5.7872246E+01;  0.0000000E+00; -9.4020861E-01;0; -1.1192626E-01;  3.9435652E+04;  0.0000000E+00; -2.3959482E-02;  4.0000000E+04;  0.0000000E+00;  3.9997391E+04; -1.1497730E-01;  0.0000000E+00;  3.0510419E-03;  3.2778641E+02;
  3.2381915E-02;  9.9999998E-03; -9.0023600E-02;2650; -9.0007707E-03;  0.0000000E+00; -3.3525887E-04;  9.9299609E+02;  1.0000000E-01; -5.8026016E+03;3; -5.9220806E+01;  0.0000000E+00; -8.9611816E-01;0; -1.1052538E-01;  3.9450777E+04;  0.0000000E+00; -1.0903074E-02;  4.0000000E+04;  0.0000000E+00;  3.9996902E+04; -1.1391995E-01;  0.0000000E+00;  3.3945730E-03;  1.6108623E+02;
  3.2365277E-02;  9.9999998E-03; -8.0021463E-02;2651; -8.8831326E-03;  0.0000000E+00; -2.6615884E-04;  9.9315283E+02;  1.0000000E-01; -5.6727285E+03;3; -6.0577217E+01;  0.0000000E+00; -7.9913771E-01;0; -1.0927226E-01;  3.9464113E+04;  0.0000000E+00; -4.8267981E-03;  4.0000000E+04;  0.0000000E+00;  3.9995105E+04; -1.1283685E-01;  0.0000000E+00;  3.5645976E-03;  3.4405273E+01;
  3.2351643E-02;  9.9999998E-03; -7.0018113E-02;2652; -8.7917801E-03;  0.0000000E+00; -2.0137907E-04;  9.9328223E+02;  1.0000000E-01; -5.5655708E+03;3; -6.1836231E+01;  0.0000000E+00; -6.7286468E-01;0; -1.0822904E-01;  3.9475652E+04;  0.0000000E+00; -2.6655931E-03;  4.0000000E+04;  0.0000000E+00;  3.9993492E+04; -1.1178058E-01;  0.0000000E+00;  3.5515414E-03;  2.2570685E+02;
  3.2340594E-02;  9.9999998E-03; -6.0014021E-02;2653; -8.7279752E-03;  0.0000000E+00; -1.4513156E-04;  9.9338818E+02;  1.0000000E-01; -5.4777710E+03;3; -6.2946869E+01;  0.0000000E+00; -5.3799862E-01;0; -1.0742174E-01;  3.9485406E+04;  0.0000000E+00; -2.2209343E-03;  4.0000000E+04;  0.0000000E+00;  3.9992762E+04; -1.1079517E-01;  0.0000000E+00;  3.3734259E-03;  3.8997064E+02;
  3.2331605E-02;  9.9999998E-03; -5.0009966E-02;2654; -8.6887004E-03;  0.0000000E+00; -9.9376266E-05;  9.9347723E+02;  1.0000000E-01; -5.4039951E+03;3; -6.3880924E+01;  0.0000000E+00; -4.0900430E-01;0; -1.0684441E-01;  3.9493297E+04;  0.0000000E+00; -2.1737565E-03;  4.0000000E+04;  0.0000000E+00;  3.9991695E+04; -1.0991576E-01;  0.0000000E+00;  3.0713566E-03;  5.1096600E+02;
  3.2324266E-02;  9.9999998E-03; -4.0006451E-02;2655; -8.6686052E-03;  0.0000000E+00; -6.4239503E-05;  9.9355011E+02;  1.0000000E-01; -5.3436021E+03;3; -6.4609238E+01;  0.0000000E+00; -2.9444778E-01;0; -1.0646677E-01;  3.9499508E+04;  0.0000000E+00; -1.9308412E-03;  4.0000000E+04;  0.0000000E+00;  3.9990703E+04; -1.0916869E-01;  0.0000000E+00;  2.7019253E-03;  5.8526050E+02;
  3.2318525E-02;  9.9999998E-03; -3.0003771E-02;2656; -8.6614108E-03;  0.0000000E+00; -3.8885701E-05;  9.9360413E+02;  1.0000000E-01; -5.2988623E+03;3; -6.5117104E+01;  0.0000000E+00; -1.9851607E-01;0; -1.0624463E-01;  3.9504168E+04;  0.0000000E+00; -1.3941991E-03;  4.0000000E+04;  0.0000000E+00;  3.9990977E+04; -1.0857278E-01;  0.0000000E+00;  2.3281530E-03;  6.2003326E+02;
  3.2314319E-02;  9.9999998E-03; -2.0001937E-02;2657; -8.6611686E-03;  0.0000000E+00; -2.1288555E-05;  9.9364484E+02;  1.0000000E-01; -5.2651353E+03;3; -6.5455643E+01;  0.0000000E+00; -1.2030751E-01;0; -1.0612965E-01;  3.9507289E+04;  0.0000000E+00; -7.3426496E-04;  4.0000000E+04;  0.0000000E+00;  3.9990727E+04; -1.0814001E-01;  0.0000000E+00;  2.0103515E-03;  6.2889655E+02;
  3.2311738E-02;  9.9999998E-03; -1.0000779E-02;2658; -8.6631076E-03;  0.0000000E+00; -9.2461996E-06;  9.9366913E+02;  1.0000000E-01; -5.2449873E+03;3; -6.5640297E+01;  0.0000000E+00; -5.6355324E-02;0; -1.0607986E-01;  3.9509156E+04;  0.0000000E+00; -2.0236897E-04;  4.0000000E+04;  0.0000000E+00;  3.9990562E+04; -1.0787787E-01;  0.0000000E+00;  1.7980142E-03;  6.2667261E+02;
  3.2310866E-02;  9.9999998E-03;  1.2244444E-10;2659; -8.6640874E-03;  0.0000000E+00; -1.1263135E-10;  9.9367657E+02;  1.0000000E-01; -5.2388149E+03;3; -6.5695099E+01;  0.0000000E+00; -2.8840890E-05;0; -1.0606648E-01;  3.9509660E+04;  0.0000000E+00; -1.9940370E-13;  4.0000000E+04;  0.0000000E+00;  3.9990465E+04; -1.0778997E-01;  0.0000000E+00;  1.7234911E-03;  6.2454767E+02;
  3.2311738E-02;  9.9999998E-03;  1.0000779E-02;2660; -8.6631076E-03;  0.0000000E+00;  9.2462160E-06;  9.9366901E+02;  1.0000000E-01; -5.2450864E+03;3; -6.5639626E+01;  0.0000000E+00;  5.6304161E-02;0; -1.0607975E-01;  3.9509156E+04;  0.0000000E+00; -2.0233807E-04;  4.0000000E+04;  0.0000000E+00;  3.9990562E+04; -1.0787776E-01;  0.0000000E+00;  1.7980149E-03;  6.2666803E+02;
  3.2314319E-02;  9.9999998E-03;  2.0001937E-02;2661; -8.6611751E-03;  0.0000000E+00;  2.1288386E-05;  9.9364496E+02;  1.0000000E-01; -5.2650361E+03;3; -6.5456276E+01;  0.0000000E+00;  1.2025423E-01;0; -1.0612968E-01;  3.9507285E+04;  0.0000000E+00; -7.3411362E-04;  4.0000000E+04;  0.0000000E+00;  3.9990727E+04; -1.0814004E-01;  0.0000000E+00;  2.0103499E-03;  6.2888983E+02;
  3.2318525E-02;  9.9999998E-03;  3.0003771E-02;2662; -8.6613996E-03;  0.0000000E+00;  3.8887603E-05;  9.9360406E+02;  1.0000000E-01; -5.2989116E+03;3; -6.5116600E+01;  0.0000000E+00;  1.9844846E-01;0; -1.0624462E-01;  3.9504164E+04;  0.0000000E+00; -1.3938658E-03;  4.0000000E+04;  0.0000000E+00;  3.9990977E+04; -1.0857277E-01;  0.0000000E+00;  2.3281483E-03;  6.2002600E+02;
  3.2324266E-02;  9.9999998E-03;  4.0006451E-02;2663; -8.6686015E-03;  0.0000000E+00;  6.4243373E-05;  9.9355005E+02;  1.0000000E-01; -5.3436514E+03;3; -6.4608833E+01;  0.0000000E+00;  2.9449680E-01;0; -1.0646679E-01;  3.9499512E+04;  0.0000000E+00; -1.9310636E-03;  4.0000000E+04;  0.0000000E+00;  3.9990699E+04; -1.0916871E-01;  0.0000000E+00;  2.7019195E-03;  5.8524829E+02;
  3.2331605E-02;  9.9999998E-03;  5.0009966E-02;2664; -8.6886967E-03;  0.0000000E+00;  9.9382880E-05;  9.9347723E+02;  1.0000000E-01; -5.4039951E+03;3; -6.3880859E+01;  0.0000000E+00;  4.0904492E-01;0; -1.0684440E-01;  3.9493297E+04;  0.0000000E+00; -2.1735565E-03;  4.0000000E+04;  0.0000000E+00;  3.9991695E+04; -1.0991575E-01;  0.0000000E+00;  3.0713505E-03;  5.1095367E+02;
  3.2340594E-02;  9.9999998E-03;  6.0014021E-02;2665; -8.7279705E-03;  0.0000000E+00;  1.4514153E-04;  9.9338818E+02;  1.0000000E-01; -5.4777710E+03;3; -6.2946754E+01;  0.0000000E+00;  5.3800189E-01;0; -1.0742178E-01;  3.9485406E+04;  0.0000000E+00; -2.2208379E-03;  4.0000000E+04;  0.0000000E+00;  3.9992762E+04; -1.1079519E-01;  0.0000000E+00;  3.3734175E-03;  3.8995490E+02;
  4.2166162E-02;  9.9999998E-03; -1.0001821E-01;2710; -1.0854441E-02;  0.0000000E+00; -4.8088451E-04;  9.9655182E+02;  1.0000000E-01; -2.8567588E+03;3; -7.2291908E+01;  0.0000000E+00; -7.2434521E-01;0; -1.0789215E-01;  3.9731566E+04;  0.0000000E+00; -2.1116178E-02;  4.0000000E+04;  0.0000000E+00;  4.0000242E+04; -1.1115006E-01;  0.0000000E+00;  3.2579151E-03;  3.1156332E+02;
  4.2146143E-02;  9.9999998E-03; -9.0019874E-02;2711; -1.0686111E-02;  0.0000000E+00; -3.9898159E-04;  9.9673083E+02;  1.0000000E-01; -2.7084172E+03;3; -7.3297791E+01;  0.0000000E+00; -6.8706876E-01;0; -1.0639740E-01;  3.9746699E+04;  0.0000000E+00; -1.0133637E-02;  4.0000000E+04;  0.0000000E+00;  3.9999109E+04; -1.1007109E-01;  0.0000000E+00;  3.6736936E-03;  1.6418953E+02;
  4.2130511E-02;  9.9999998E-03; -8.0019549E-02;2712; -1.0540834E-02;  0.0000000E+00; -3.1338583E-04;  9.9687885E+02;  1.0000000E-01; -2.5858035E+03;3; -7.4328209E+01;  0.0000000E+00; -6.0613245E-01;0; -1.0510239E-01;  3.9760078E+04;  0.0000000E+00; -5.2362904E-03;  4.0000000E+04;  0.0000000E+00;  3.9997699E+04; -1.0898373E-01;  0.0000000E+00;  3.8813362E-03;  3.6908371E+01;
  4.2118207E-02;  9.9999998E-03; -7.0017390E-02;2713; -1.0426071E-02;  0.0000000E+00; -2.3120089E-04;  9.9700342E+02;  1.0000000E-01; -2.4825964E+03;3; -7.5349030E+01;  0.0000000E+00; -5.0097847E-01;0; -1.0406405E-01;  3.9771387E+04;  0.0000000E+00; -3.5938120E-03;  4.0000000E+04;  0.0000000E+00;  3.9995969E+04; -1.0793361E-01;  0.0000000E+00;  3.8695612E-03;  2.5059781E+02;
  4.2108674E-02;  9.9999998E-03; -6.0014132E-02;2714; -1.0343459E-02;  0.0000000E+00; -1.5970682E-04;  9.9710571E+02;  1.0000000E-01; -2.3978582E+03;3; -7.6286690E+01;  0.0000000E+00; -3.9069653E-01;0; -1.0329927E-01;  3.9780883E+04;  0.0000000E+00; -3.2335918E-03;  4.0000000E+04;  0.0000000E+00;  3.9994297E+04; -1.0695957E-01;  0.0000000E+00;  3.6603012E-03;  4.4607260E+02;
  4.2101197E-02;  9.9999998E-03; -5.0010517E-02;2715; -1.0289524E-02;  0.0000000E+00; -1.0299023E-04;  9.9718903E+02;  1.0000000E-01; -2.3288230E+03;3; -7.7083382E+01;  0.0000000E+00; -2.8866044E-01;0; -1.0278954E-01;  3.9788633E+04;  0.0000000E+00; -3.0299327E-03;  4.0000000E+04;  0.0000000E+00;  3.9993516E+04; -1.0609262E-01;  0.0000000E+00;  3.3030866E-03;  6.0028546E+02;
  4.2095415E-02;  9.9999998E-03; -4.0007114E-02;2716; -1.0258312E-02;  0.0000000E+00; -6.0853152E-05;  9.9725427E+02;  1.0000000E-01; -2.2747998E+03;3; -7.7701309E+01;  0.0000000E+00; -2.0069118E-01;0; -1.0249148E-01;  3.9794641E+04;  0.0000000E+00; -2.5356514E-03;  4.0000000E+04;  0.0000000E+00;  3.9992621E+04; -1.0535718E-01;  0.0000000E+00;  2.8657012E-03;  7.0494409E+02;
  4.2091116E-02;  9.9999998E-03; -3.0004315E-02;2717; -1.0243025E-02;  0.0000000E+00; -3.2168013E-05;  9.9730524E+02;  1.0000000E-01; -2.2325789E+03;3; -7.8147362E+01;  0.0000000E+00; -1.2965232E-01;0; -1.0234695E-01;  3.9799090E+04;  0.0000000E+00; -1.7493564E-03;  4.0000000E+04;  0.0000000E+00;  3.9992266E+04; -1.0477017E-01;  0.0000000E+00;  2.4232201E-03;  7.6440314E+02;
  4.2088095E-02;  9.9999998E-03; -2.0002255E-02;2718; -1.0237317E-02;  0.0000000E+00; -1.4353732E-05;  9.9734052E+02;  1.0000000E-01; -2.2033450E+03;3; -7.8431648E+01;  0.0000000E+00; -7.4869931E-02;0; -1.0229649E-01;  3.9802113E+04;  0.0000000E+00; -8.9406519E-04;  4.0000000E+04;  0.0000000E+00;  3.9992273E+04; -1.0434365E-01;  0.0000000E+00;  2.0471578E-03;  7.9097345E+02;
  4.2086311E-02;  9.9999998E-03; -1.0000899E-02;2719; -1.0236066E-02;  0.0000000E+00; -5.0857520E-06;  9.9736224E+02;  1.0000000E-01; -2.1853208E+03;3; -7.8589470E+01;  0.0000000E+00; -3.3800934E-02;0; -1.0228907E-01;  3.9803742E+04;  0.0000000E+00; -2.4231081E-04;  4.0000000E+04;  0.0000000E+00;  3.9992043E+04; -1.0408506E-01;  0.0000000E+00;  1.7959955E-03;  7.9925146E+02;
  4.2085711E-02;  9.9999998E-03;  7.5664183E-11;2720; -1.0236013E-02;  0.0000000E+00;  2.5620598E-11;  9.9737000E+02;  1.0000000E-01; -2.1789014E+03;3; -7.8641068E+01;  0.0000000E+00; -1.1619574E-05;0; -1.0229059E-01;  3.9804387E+04;  0.0000000E+00; -6.2433229E-13;  4.0000000E+04;  0.0000000E+00;  3.9991875E+04; -1.0399846E-01;  0.0000000E+00;  1.7078676E-03;  8.0061841E+02;
  4.2086311E-02;  9.9999998E-03;  1.0000899E-02;2721; -1.0236057E-02;  0.0000000E+00;  5.0871540E-06;  9.9736218E+02;  1.0000000E-01; -2.1853704E+03;3; -7.8589218E+01;  0.0000000E+00;  3.3782341E-02;0; -1.0228910E-01;  3.9803738E+04;  0.0000000E+00; -2.4225787E-04;  4.0000000E+04;  0.0000000E+00;  3.9992043E+04; -1.0408509E-01;  0.0000000E+00;  1.7959934E-03;  7.9924750E+02;
  4.2088095E-02;  9.9999998E-03;  2.0002255E-02;2722; -1.0237316E-02;  0.0000000E+00;  1.4354782E-05;  9.9734052E+02;  1.0000000E-01; -2.2033450E+03;3; -7.8431702E+01;  0.0000000E+00;  7.4837148E-02;0; -1.0229655E-01;  3.9802117E+04;  0.0000000E+00; -8.9395378E-04;  4.0000000E+04;  0.0000000E+00;  3.9992273E+04; -1.0434370E-01;  0.0000000E+00;  2.0471534E-03;  7.9096985E+02;
  4.2091116E-02;  9.9999998E-03;  3.0004315E-02;2723; -1.0243024E-02;  0.0000000E+00;  3.2170847E-05;  9.9730524E+02;  1.0000000E-01; -2.2325789E+03;3; -7.8147316E+01;  0.0000000E+00;  1.2964624E-01;0; -1.0234692E-01;  3.9799086E+04;  0.0000000E+00; -1.7492023E-03;  4.0000000E+04;  0.0000000E+00;  3.9992266E+04; -1.0477014E-01;  0.0000000E+00;  2.4232171E-03;  7.6438727E+02;
  4.2095415E-02;  9.9999998E-03;  4.0007114E-02;2724; -1.0258317E-02;  0.0000000E+00;  6.0856240E-05;  9.9725421E+02;  1.0000000E-01; -2.2748491E+03;3; -7.7701080E+01;  0.0000000E+00;  2.0066994E-01;0; -1.0249155E-01;  3.9794641E+04;  0.0000000E+00; -2.5356016E-03;  4.0000000E+04;  0.0000000E+00;  3.9992621E+04; -1.0535724E-01;  0.0000000E+00;  2.8656940E-03;  7.0493451E+02;
  4.2101197E-02;  9.9999998E-03;  5.0010517E-02;2725; -1.0289523E-02;  0.0000000E+00;  1.0299331E-04;  9.9718903E+02;  1.0000000E-01; -2.3288230E+03;3; -7.7083488E+01;  0.0000000E+00;  2.8863513E-01;0; -1.0278966E-01;  3.9788629E+04;  0.0000000E+00; -3.0298545E-03;  4.0000000E+04;  0.0000000E+00;  3.9993520E+04; -1.0609274E-01;  0.0000000E+00;  3.3030754E-03;  6.0026923E+02;
  4.2108674E-02;  9.9999998E-03;  6.0014132E-02;2726; -1.0343452E-02;  0.0000000E+00;  1.5970957E-04;  9.9710571E+02;  1.0000000E-01; -2.3978582E+03;3; -7.6286522E+01;  0.0000000E+00;  3.9069071E-01;0; -1.0329930E-01;  3.9780891E+04;  0.0000000E+00; -3.2336069E-03;  4.0000000E+04;  0.0000000E+00;  3.9994297E+04; -1.0695960E-01;  0.0000000E+00;  3.6602882E-03;  4.4605746E+02;
  5.1957987E-02;  9.9999998E-03; -1.0001410E-01;2771; -1.2321906E-02;  0.0000000E+00; -5.5517344E-04;  9.9991003E+02;  1.0000000E-01; -7.4516411E+01;3; -7.3195244E+01;  0.0000000E+00; -5.2127016E-01;0; -1.0126556E-01;  4.0000324E+04;  0.0000000E+00; -1.5035092E-02;  4.0000000E+04;  0.0000000E+00;  4.0003203E+04; -1.0466707E-01;  0.0000000E+00;  3.4015095E-03;  3.7782373E+02;
  5.1937360E-02;  9.9999998E-03; -9.0017013E-02;2772; -1.2124175E-02;  0.0000000E+00; -4.5669771E-04;  1.0000873E+03;  1.0000000E-01;  7.2393013E+01;3; -7.3893944E+01;  0.0000000E+00; -4.8985627E-01;0; -9.9726424E-02;  4.0015105E+04;  0.0000000E+00; -7.2267335E-03;  4.0000000E+04;  0.0000000E+00;  4.0001867E+04; -1.0361277E-01;  0.0000000E+00;  3.8863427E-03;  2.5293767E+02;
  5.1921345E-02;  9.9999998E-03; -8.0017492E-02;2773; -1.1951985E-02;  0.0000000E+00; -3.5047220E-04;  1.0002264E+03;  1.0000000E-01;  1.8764902E+02;3; -7.4641548E+01;  0.0000000E+00; -4.2444146E-01;0; -9.8442718E-02;  4.0027883E+04;  0.0000000E+00; -4.0900470E-03;  4.0000000E+04;  0.0000000E+00;  4.0000816E+04; -1.0256997E-01;  0.0000000E+00;  4.1272603E-03;  5.0610455E+01;
  5.1909093E-02;  9.9999998E-03; -7.0015728E-02;2774; -1.1814883E-02;  0.0000000E+00; -2.4863984E-04;  1.0003424E+03;  1.0000000E-01;  2.8364630E+02;3; -7.5427078E+01;  0.0000000E+00; -3.4240246E-01;0; -9.7462863E-02;  4.0038914E+04;  0.0000000E+00; -3.2986614E-03;  4.0000000E+04;  0.0000000E+00;  3.9999125E+04; -1.0157424E-01;  0.0000000E+00;  4.1113757E-03;  1.8422855E+02;
  5.1899865E-02;  9.9999998E-03; -6.0012721E-02;2775; -1.1713721E-02;  0.0000000E+00; -1.6096995E-04;  1.0004358E+03;  1.0000000E-01;  3.6107620E+02;3; -7.6168739E+01;  0.0000000E+00; -2.5848827E-01;0; -9.6792035E-02;  4.0047926E+04;  0.0000000E+00; -3.2622768E-03;  4.0000000E+04;  0.0000000E+00;  3.9996973E+04; -1.0065705E-01;  0.0000000E+00;  3.8650166E-03;  4.0902490E+02;
  5.1893003E-02;  9.9999998E-03; -5.0009299E-02;2776; -1.1645046E-02;  0.0000000E+00; -9.4180745E-05;  1.0005103E+03;  1.0000000E-01;  4.2280286E+02;3; -7.6808685E+01;  0.0000000E+00; -1.8414864E-01;0; -9.6396968E-02;  4.0055277E+04;  0.0000000E+00; -3.1213986E-03;  4.0000000E+04;  0.0000000E+00;  3.9995656E+04; -9.9843808E-02;  0.0000000E+00;  3.4468363E-03;  5.9524805E+02;
  5.1888078E-02;  9.9999998E-03; -4.0006086E-02;2777; -1.1602318E-02;  0.0000000E+00; -4.5977002E-05;  1.0005690E+03;  1.0000000E-01;  4.7139407E+02;3; -7.7313667E+01;  0.0000000E+00; -1.2124360E-01;0; -9.6218608E-02;  4.0060887E+04;  0.0000000E+00; -2.5945308E-03;  4.0000000E+04;  0.0000000E+00;  3.9994738E+04; -9.9155031E-02;  0.0000000E+00;  2.9364245E-03;  7.2983246E+02;
  5.1884640E-02;  9.9999998E-03; -3.0003469E-02;2778; -1.1578280E-02;  0.0000000E+00; -1.5089931E-05;  1.0006163E+03;  1.0000000E-01;  5.1060284E+02;3; -7.7684769E+01;  0.0000000E+00; -7.2282895E-02;0; -9.6184239E-02;  4.0065285E+04;  0.0000000E+00; -1.7676348E-03;  4.0000000E+04;  0.0000000E+00;  3.9994129E+04; -9.8605499E-02;  0.0000000E+00;  2.4212636E-03;  8.1401031E+02;
  5.1882382E-02;  9.9999998E-03; -2.0001676E-02;2779; -1.1566289E-02;  0.0000000E+00; -6.1475572E-07;  1.0006493E+03;  1.0000000E-01;  5.3796008E+02;3; -7.7922836E+01;  0.0000000E+00; -3.8634270E-02;0; -9.6221827E-02;  4.0068242E+04;  0.0000000E+00; -8.9350226E-04;  4.0000000E+04;  0.0000000E+00;  3.9993734E+04; -9.8206028E-02;  0.0000000E+00;  1.9842030E-03;  8.5867334E+02;
  5.1881142E-02;  9.9999998E-03; -1.0000623E-02;2780; -1.1561181E-02;  0.0000000E+00;  2.6105527E-06;  1.0006664E+03;  1.0000000E-01;  5.5208313E+02;3; -7.8042831E+01;  0.0000000E+00; -1.6381655E-02;0; -9.6271098E-02;  4.0069898E+04;  0.0000000E+00; -2.4045270E-04;  4.0000000E+04;  0.0000000E+00;  3.9993320E+04; -9.7963735E-02;  0.0000000E+00;  1.6926408E-03;  8.7785181E+02;
  5.1880762E-02;  9.9999998E-03;  5.6276414E-11;2781; -1.1559860E-02;  0.0000000E+00; -2.3925219E-11;  1.0006749E+03;  1.0000000E-01;  5.5919403E+02;3; -7.8090027E+01;  0.0000000E+00; -2.0783067E-05;0; -9.6292064E-02;  4.0070445E+04;  0.0000000E+00; -6.2528953E-13;  4.0000000E+04;  0.0000000E+00;  3.9993605E+04; -9.7882457E-02;  0.0000000E+00;  1.5903946E-03;  8.8281006E+02;
  5.1881142E-02;  9.9999998E-03;  1.0000623E-02;2782; -1.1561180E-02;  0.0000000E+00; -2.6097266E-06;  1.0006664E+03;  1.0000000E-01;  5.5218188E+02;3; -7.8042824E+01;  0.0000000E+00;  1.6354138E-02;0; -9.6271098E-02;  4.0069898E+04;  0.0000000E+00; -2.4040755E-04;  4.0000000E+04;  0.0000000E+00;  3.9993320E+04; -9.7963735E-02;  0.0000000E+00;  1.6926378E-03;  8.7785065E+02;
  5.1882382E-02;  9.9999998E-03;  2.0001676E-02;2783; -1.1566289E-02;  0.0000000E+00;  6.1697494E-07;  1.0006493E+03;  1.0000000E-01;  5.3796008E+02;3; -7.7922722E+01;  0.0000000E+00;  3.8615230E-02;0; -9.6221834E-02;  4.0068242E+04;  0.0000000E+00; -8.9349359E-04;  4.0000000E+04;  0.0000000E+00;  3.9993734E+04; -9.8206028E-02;  0.0000000E+00;  1.9841974E-03;  8.5866467E+02;
  5.1884640E-02;  9.9999998E-03;  3.0003469E-02;2784; -1.1578276E-02;  0.0000000E+00;  1.5091910E-05;  1.0006163E+03;  1.0000000E-01;  5.1060284E+02;3; -7.7684715E+01;  0.0000000E+00;  7.2255939E-02;0; -9.6184194E-02;  4.0065289E+04;  0.0000000E+00; -1.7675441E-03;  4.0000000E+04;  0.0000000E+00;  3.9994129E+04; -9.8605454E-02;  0.0000000E+00;  2.4212573E-03;  8.1400464E+02;
  5.1888078E-02;  9.9999998E-03;  4.0006086E-02;2785; -1.1602313E-02;  0.0000000E+00;  4.5981087E-05;  1.0005690E+03;  1.0000000E-01;  4.7139407E+02;3; -7.7313515E+01;  0.0000000E+00;  1.2124000E-01;0; -9.6218668E-02;  4.0060891E+04;  0.0000000E+00; -2.5942058E-03;  4.0000000E+04;  0.0000000E+00;  3.9994742E+04; -9.9155083E-02;  0.0000000E+00;  2.9364149E-03;  7.2981403E+02;
  5.1893003E-02;  9.9999998E-03;  5.0009299E-02;2786; -1.1645036E-02;  0.0000000E+00;  9.4185147E-05;  1.0005103E+03;  1.0000000E-01;  4.2280286E+02;3; -7.6808495E+01;  0.0000000E+00;  1.8413630E-01;0; -9.6396975E-02;  4.0055277E+04;  0.0000000E+00; -3.1213434E-03;  4.0000000E+04;  0.0000000E+00;  3.9995656E+04; -9.9843800E-02;  0.0000000E+00;  3.4468272E-03;  5.9523785E+02;
  5.1899865E-02;  9.9999998E-03;  6.0012721E-02;2787; -1.1713718E-02;  0.0000000E+00;  1.6097540E-04;  1.0004358E+03;  1.0000000E-01;  3.6107620E+02;3; -7.6168640E+01;  0.0000000E+00;  2.5851625E-01;0; -9.6791930E-02;  4.0047930E+04;  0.0000000E+00; -3.2624961E-03;  4.0000000E+04;  0.0000000E+00;  3.9996973E+04; -1.0065693E-01;  0.0000000E+00;  3.8650045E-03;  4.0901254E+02;
  6.1786424E-02;  9.9999998E-03; -1.0001127E-01;2832; -1.3491408E-02;  0.0000000E+00; -6.3951261E-04;  1.0026847E+03;  1.0000000E-01;  2.2242334E+03;3; -6.4317085E+01;  0.0000000E+00; -3.6251023E-01;0; -9.2775993E-02;  4.0223398E+04;  0.0000000E+00; -6.3390010E-03;  4.0000000E+04;  0.0000000E+00;  4.0006180E+04; -9.6250460E-02;  0.0000000E+00;  3.4744700E-03;  5.2653723E+02;
  6.1763261E-02;  9.9999998E-03; -9.0014949E-02;2833; -1.3262239E-02;  0.0000000E+00; -5.1196624E-04;  1.0028488E+03;  1.0000000E-01;  2.3601309E+03;3; -6.4743835E+01;  0.0000000E+00; -3.2928693E-01;0; -9.1256790E-02;  4.0237367E+04;  0.0000000E+00; -2.4580145E-03;  4.0000000E+04;  0.0000000E+00;  4.0005395E+04; -9.5277369E-02;  0.0000000E+00;  4.0205773E-03;  4.2452008E+02;
  6.1745174E-02;  9.9999998E-03; -8.0015585E-02;2834; -1.3063129E-02;  0.0000000E+00; -3.7481834E-04;  1.0029791E+03;  1.0000000E-01;  2.4681770E+03;3; -6.5262787E+01;  0.0000000E+00; -2.7428058E-01;0; -9.0047397E-02;  4.0249195E+04;  0.0000000E+00; -1.5430008E-03;  4.0000000E+04;  0.0000000E+00;  4.0004191E+04; -9.4334736E-02;  0.0000000E+00;  4.2873397E-03;  2.2091704E+02;
  6.1731588E-02;  9.9999998E-03; -7.0013583E-02;2835; -1.2904341E-02;  0.0000000E+00; -2.4804808E-04;  1.0030818E+03;  1.0000000E-01;  2.5532117E+03;3; -6.5830605E+01;  0.0000000E+00; -2.1205226E-01;0; -8.9186236E-02;  4.0259332E+04;  0.0000000E+00; -1.9228860E-03;  4.0000000E+04;  0.0000000E+00;  4.0002043E+04; -9.3446612E-02;  0.0000000E+00;  4.2603794E-03;  3.1068756E+01;
  6.1721668E-02;  9.9999998E-03; -6.0010172E-02;2836; -1.2785583E-02;  0.0000000E+00; -1.4355764E-04;  1.0031648E+03;  1.0000000E-01;  2.6219504E+03;3; -6.6388702E+01;  0.0000000E+00; -1.5261556E-01;0; -8.8664457E-02;  4.0267605E+04;  0.0000000E+00; -2.4666360E-03;  4.0000000E+04;  0.0000000E+00;  3.9999867E+04; -9.2635281E-02;  0.0000000E+00;  3.9708223E-03;  2.8220084E+02;
  6.1714701E-02;  9.9999998E-03; -5.0006565E-02;2837; -1.2702771E-02;  0.0000000E+00; -6.4996901E-05;  1.0032295E+03;  1.0000000E-01;  2.6755786E+03;3; -6.6876938E+01;  0.0000000E+00; -1.0064211E-01;0; -8.8432439E-02;  4.0274453E+04;  0.0000000E+00; -2.6098599E-03;  4.0000000E+04;  0.0000000E+00;  3.9998402E+04; -9.1919363E-02;  0.0000000E+00;  3.4869218E-03;  4.9786526E+02;
  6.1709929E-02;  9.9999998E-03; -4.0003441E-02;2838; -1.2648588E-02;  0.0000000E+00; -1.2794214E-05;  1.0032819E+03;  1.0000000E-01;  2.7190342E+03;3; -6.7269943E+01;  0.0000000E+00; -5.9711967E-02;0; -8.8413775E-02;  4.0279844E+04;  0.0000000E+00; -2.2467072E-03;  4.0000000E+04;  0.0000000E+00;  3.9997195E+04; -9.1314070E-02;  0.0000000E+00;  2.9002973E-03;  6.6037103E+02;
  6.1706770E-02;  9.9999998E-03; -3.0001299E-02;2839; -1.2615116E-02;  0.0000000E+00;  1.3648461E-05;  1.0033198E+03;  1.0000000E-01;  2.7503420E+03;3; -6.7547005E+01;  0.0000000E+00; -3.1668209E-02;0; -8.8520713E-02;  4.0283895E+04;  0.0000000E+00; -1.5465588E-03;  4.0000000E+04;  0.0000000E+00;  3.9996465E+04; -9.0831444E-02;  0.0000000E+00;  2.3107273E-03;  7.6810376E+02;
  6.1704833E-02;  9.9999998E-03; -2.0000137E-02;2840; -1.2596183E-02;  0.0000000E+00;  2.0145637E-05;  1.0033508E+03;  1.0000000E-01;  2.7761189E+03;3; -6.7735245E+01;  0.0000000E+00; -1.4418875E-02;0; -8.8668413E-02;  4.0286535E+04;  0.0000000E+00; -7.8268070E-04;  4.0000000E+04;  0.0000000E+00;  3.9995758E+04; -9.0480372E-02;  0.0000000E+00;  1.8119625E-03;  8.3023181E+02;
  6.1703794E-02;  9.9999998E-03; -9.9998396E-03;2841; -1.2586882E-02;  0.0000000E+00;  1.3366701E-05;  1.0033690E+03;  1.0000000E-01;  2.7911309E+03;3; -6.7836533E+01;  0.0000000E+00; -5.1392545E-03;0; -8.8787362E-02;  4.0288320E+04;  0.0000000E+00; -2.1039053E-04;  4.0000000E+04;  0.0000000E+00;  3.9995773E+04; -9.0267204E-02;  0.0000000E+00;  1.4798380E-03;  8.6007568E+02;
  6.1703462E-02;  9.9999998E-03;  3.5766414E-11;2842; -1.2584093E-02;  0.0000000E+00;  4.9181165E-10;  1.0033746E+03;  1.0000000E-01;  2.7957727E+03;3; -6.7867043E+01;  0.0000000E+00; -1.1996875E-05;0; -8.8832296E-02;  4.0288723E+04;  0.0000000E+00; -4.4099002E-13;  4.0000000E+04;  0.0000000E+00;  3.9995555E+04; -9.0195768E-02;  0.0000000E+00;  1.3634692E-03;  8.6859802E+02;
  6.1703794E-02;  9.9999998E-03;  9.9998396E-03;2843; -1.2586887E-02;  0.0000000E+00; -1.3364778E-05;  1.0033690E+03;  1.0000000E-01;  2.7911309E+03;3; -6.7836578E+01;  0.0000000E+00;  5.1239352E-03;0; -8.8787362E-02;  4.0288320E+04;  0.0000000E+00; -2.1036268E-04;  4.0000000E+04;  0.0000000E+00;  3.9995773E+04; -9.0267196E-02;  0.0000000E+00;  1.4798361E-03;  8.6007391E+02;
  6.1704833E-02;  9.9999998E-03;  2.0000137E-02;2844; -1.2596183E-02;  0.0000000E+00; -2.0144307E-05;  1.0033508E+03;  1.0000000E-01;  2.7761189E+03;3; -6.7735153E+01;  0.0000000E+00;  1.4394279E-02;0; -8.8668413E-02;  4.0286535E+04;  0.0000000E+00; -7.8252982E-04;  4.0000000E+04;  0.0000000E+00;  3.9995758E+04; -9.0480372E-02;  0.0000000E+00;  1.8119583E-03;  8.3021674E+02;
  6.1706770E-02;  9.9999998E-03;  3.0001299E-02;2845; -1.2615109E-02;  0.0000000E+00; -1.3645112E-05;  1.0033198E+03;  1.0000000E-01;  2.7503420E+03;3; -6.7546883E+01;  0.0000000E+00;  3.1640511E-02;0; -8.8520728E-02;  4.0283895E+04;  0.0000000E+00; -1.5465054E-03;  4.0000000E+04;  0.0000000E+00;  3.9996465E+04; -9.0831451E-02;  0.0000000E+00;  2.3107219E-03;  7.6809174E+02;
  6.1709929E-02;  9.9999998E-03;  4.0003441E-02;2846; -1.2648584E-02;  0.0000000E+00;  1.2797268E-05;  1.0032819E+03;  1.0000000E-01;  2.7189355E+03;3; -6.7269943E+01;  0.0000000E+00;  5.9650581E-02;0; -8.8413782E-02;  4.0279844E+04;  0.0000000E+00; -2.2463433E-03;  4.0000000E+04;  0.0000000E+00;  3.9997195E+04; -9.1314070E-02;  0.0000000E+00;  2.9002863E-03;  6.6035999E+02;
  6.1714698E-02;  9.9999998E-03;  5.0006565E-02;2847; -1.2702772E-02;  0.0000000E+00;  6.5002569E-05;  1.0032295E+03;  1.0000000E-01;  2.6755786E+03;3; -6.6876923E+01;  0.0000000E+00;  1.0068429E-01;0; -8.8432446E-02;  4.0274457E+04;  0.0000000E+00; -2.6099801E-03;  4.0000000E+04;  0.0000000E+00;  3.9998402E+04; -9.1919355E-02;  0.0000000E+00;  3.4869122E-03;  4.9785468E+02;
  6.1721668E-02;  9.9999998E-03;  6.0010172E-02;2848; -1.2785584E-02;  0.0000000E+00;  1.4356578E-04;  1.0031647E+03;  1.0000000E-01;  2.6219504E+03;3; -6.6388428E+01;  0.0000000E+00;  1.5264773E-01;0; -8.8664539E-02;  4.0267609E+04;  0.0000000E+00; -2.4662076E-03;  4.0000000E+04;  0.0000000E+00;  3.9999867E+04; -9.2635348E-02;  0.0000000E+00;  3.9708107E-03;  2.8218008E+02;
  7.1656302E-02;  9.9999998E-03; -1.0000953E-01;2893; -1.4374515E-02;  0.0000000E+00; -7.4516499E-04;  1.0047629E+03;  1.0000000E-01;  3.9459624E+03;3; -5.0355541E+01;  0.0000000E+00; -2.4744411E-01;0; -8.3278336E-02;  4.0390453E+04;  0.0000000E+00;  3.1692532E-03;  4.0000000E+04;  0.0000000E+00;  4.0009383E+04; -8.6749576E-02;  0.0000000E+00;  3.4712381E-03;  7.4700287E+02;
  7.1629398E-02;  9.9999998E-03; -9.0013549E-02;2894; -1.4114225E-02;  0.0000000E+00; -5.8655109E-04;  1.0049080E+03;  1.0000000E-01;  4.0661565E+03;3; -5.0589779E+01;  0.0000000E+00; -2.2176263E-01;0; -8.1850275E-02;  4.0402555E+04;  0.0000000E+00;  2.8182808E-03;  4.0000000E+04;  0.0000000E+00;  4.0008793E+04; -8.5916847E-02;  0.0000000E+00;  4.0665735E-03;  6.6578455E+02;
  7.1608365E-02;  9.9999998E-03; -8.0013722E-02;2895; -1.3881237E-02;  0.0000000E+00; -4.0222745E-04;  1.0050186E+03;  1.0000000E-01;  4.1578081E+03;3; -5.0898972E+01;  0.0000000E+00; -1.7264377E-01;0; -8.0783561E-02;  4.0412938E+04;  0.0000000E+00;  1.3166879E-03;  4.0000000E+04;  0.0000000E+00;  4.0007145E+04; -8.5132733E-02;  0.0000000E+00;  4.3491693E-03;  4.6157584E+02;
  7.1592577E-02;  9.9999998E-03; -7.0010878E-02;2896; -1.3694030E-02;  0.0000000E+00; -2.2693932E-04;  1.0051043E+03;  1.0000000E-01;  4.2288188E+03;3; -5.1267296E+01;  0.0000000E+00; -1.1829510E-01;0; -8.0103755E-02;  4.0421762E+04;  0.0000000E+00; -3.5685196E-04;  4.0000000E+04;  0.0000000E+00;  4.0005164E+04; -8.4407195E-02;  0.0000000E+00;  4.3034442E-03;  1.9463489E+02;
  7.1581274E-02;  9.9999998E-03; -6.0006846E-02;2897; -1.3557038E-02;  0.0000000E+00; -9.7843593E-05;  1.0051708E+03;  1.0000000E-01;  4.2839282E+03;3; -5.1651760E+01;  0.0000000E+00; -7.4864410E-02;0; -7.9785161E-02;  4.0429082E+04;  0.0000000E+00; -1.5579287E-03;  4.0000000E+04;  0.0000000E+00;  4.0002988E+04; -8.3750769E-02;  0.0000000E+00;  3.9656088E-03;  7.9897049E+01;
  7.1573474E-02;  9.9999998E-03; -5.0003149E-02;2898; -1.3460758E-02;  0.0000000E+00; -1.1963683E-05;  1.0052234E+03;  1.0000000E-01;  4.3274824E+03;3; -5.2000763E+01;  0.0000000E+00; -4.3349374E-02;0; -7.9761080E-02;  4.0435102E+04;  0.0000000E+00; -2.0377929E-03;  4.0000000E+04;  0.0000000E+00;  4.0001395E+04; -8.3174631E-02;  0.0000000E+00;  3.4135478E-03;  3.2168192E+02;
  7.1568325E-02;  9.9999998E-03; -4.0000442E-02;2899; -1.3395019E-02;  0.0000000E+00;  3.5388810E-05;  1.0052663E+03;  1.0000000E-01;  4.3630371E+03;3; -5.2282608E+01;  0.0000000E+00; -2.1544579E-02;0; -7.9937816E-02;  4.0440000E+04;  0.0000000E+00; -1.8703534E-03;  4.0000000E+04;  0.0000000E+00;  3.9999316E+04; -8.2688376E-02;  0.0000000E+00;  2.7505592E-03;  5.0936935E+02;
  7.1565062E-02;  9.9999998E-03; -2.9998844E-02;2900; -1.3352142E-02;  0.0000000E+00;  5.3027397E-05;  1.0053010E+03;  1.0000000E-01;  4.3917769E+03;3; -5.2488815E+01;  0.0000000E+00; -7.4183475E-03;0; -8.0212496E-02;  4.0443668E+04;  0.0000000E+00; -1.3138398E-03;  4.0000000E+04;  0.0000000E+00;  3.9998738E+04; -8.2300410E-02;  0.0000000E+00;  2.0879128E-03;  6.3869214E+02;
  7.1563154E-02;  9.9999998E-03; -1.9998405E-02;2901; -1.3326107E-02;  0.0000000E+00;  4.8008485E-05;  1.0053254E+03;  1.0000000E-01;  4.4120234E+03;3; -5.2620857E+01;  0.0000000E+00; -6.5241818E-04;0; -8.0488436E-02;  4.0446195E+04;  0.0000000E+00; -6.6821423E-04;  4.0000000E+04;  0.0000000E+00;  3.9998082E+04; -8.2017727E-02;  0.0000000E+00;  1.5292941E-03;  7.1719525E+02;
  7.1562186E-02;  9.9999998E-03; -9.9989166E-03;2902; -1.3312353E-02;  0.0000000E+00;  2.7532778E-05;  1.0053418E+03;  1.0000000E-01;  4.4255537E+03;3; -5.2695244E+01;  0.0000000E+00;  9.3130546E-04;0; -8.0687664E-02;  4.0447766E+04;  0.0000000E+00; -1.7965466E-04;  4.0000000E+04;  0.0000000E+00;  3.9997664E+04; -8.1845783E-02;  0.0000000E+00;  1.1581173E-03;  7.5719617E+02;
  7.1561880E-02;  9.9999998E-03; -1.5887069E-11;2903; -1.3308067E-02;  0.0000000E+00;  3.7708203E-10;  1.0053471E+03;  1.0000000E-01;  4.4299980E+03;3; -5.2718220E+01;  0.0000000E+00;  2.4873669E-05;0; -8.0759808E-02;  4.0448258E+04;  0.0000000E+00; -4.7828413E-13;  4.0000000E+04;  0.0000000E+00;  3.9997699E+04; -8.1788011E-02;  0.0000000E+00;  1.0282008E-03;  7.6916168E+02;
  7.1562186E-02;  9.9999998E-03;  9.9989166E-03;2904; -1.3312355E-02;  0.0000000E+00; -2.7533011E-05;  1.0053418E+03;  1.0000000E-01;  4.4255537E+03;3; -5.2695255E+01;  0.0000000E+00; -9.5179933E-04;0; -8.0687642E-02;  4.0447770E+04;  0.0000000E+00; -1.7961167E-04;  4.0000000E+04;  0.0000000E+00;  3.9997664E+04; -8.1845760E-02;  0.0000000E+00;  1.1581145E-03;  7.5718915E+02;
  7.1563154E-02;  9.9999998E-03;  1.9998405E-02;2905; -1.3326101E-02;  0.0000000E+00; -4.8005841E-05;  1.0053254E+03;  1.0000000E-01;  4.4120234E+03;3; -5.2620800E+01;  0.0000000E+00;  6.0408568E-04;0; -8.0488406E-02;  4.0446199E+04;  0.0000000E+00; -6.6818239E-04;  4.0000000E+04;  0.0000000E+00;  3.9998082E+04; -8.2017697E-02;  0.0000000E+00;  1.5292893E-03;  7.1718164E+02;
  7.1565062E-02;  9.9999998E-03;  2.9998844E-02;2906; -1.3352145E-02;  0.0000000E+00; -5.3024796E-05;  1.0053010E+03;  1.0000000E-01;  4.3917769E+03;3; -5.2489048E+01;  0.0000000E+00;  7.3819407E-03;0; -8.0212489E-02;  4.0443668E+04;  0.0000000E+00; -1.3136963E-03;  4.0000000E+04;  0.0000000E+00;  3.9998738E+04; -8.2300395E-02;  0.0000000E+00;  2.0879065E-03;  6.3868256E+02;
  7.1568325E-02;  9.9999998E-03;  4.0000442E-02;2907; -1.3395015E-02;  0.0000000E+00; -3.5386936E-05;  1.0052662E+03;  1.0000000E-01;  4.3629385E+03;3; -5.2282299E+01;  0.0000000E+00;  2.1522978E-02;0; -7.9937816E-02;  4.0440000E+04;  0.0000000E+00; -1.8700686E-03;  4.0000000E+04;  0.0000000E+00;  3.9999316E+04; -8.2688369E-02;  0.0000000E+00;  2.7505506E-03;  5.0935004E+02;
  7.1573466E-02;  9.9999998E-03;  5.0003149E-02;2908; -1.3460764E-02;  0.0000000E+00;  1.1965118E-05;  1.0052234E+03;  1.0000000E-01;  4.3274824E+03;3; -5.2000809E+01;  0.0000000E+00;  4.3322936E-02;0; -7.9761125E-02;  4.0435105E+04;  0.0000000E+00; -2.0380067E-03;  4.0000000E+04;  0.0000000E+00;  4.0001395E+04; -8.3174661E-02;  0.0000000E+00;  3.4135345E-03;  3.2167267E+02;
  7.1581274E-02;  9.9999998E-03;  6.0006846E-02;2909; -1.3557040E-02;  0.0000000E+00;  9.7852921E-05;  1.0051709E+03;  1.0000000E-01;  4.2840269E+03;3; -5.1651928E+01;  0.0000000E+00;  7.4923910E-02;0; -7.9785243E-02;  4.0429082E+04;  0.0000000E+00; -1.5582544E-03;  4.0000000E+04;  0.0000000E+00;  4.0002988E+04; -8.3750844E-02;  0.0000000E+00;  3.9655976E-03;  7.9876846E+01;
  8.1572361E-02;  9.9999998E-03; -1.0000826E-01;2954; -1.4981508E-02;  0.0000000E+00; -8.1596314E-04;  1.0061116E+03;  1.0000000E-01;  5.0633628E+03;3; -3.5377659E+01;  0.0000000E+00; -1.5140206E-01;0; -7.3671974E-02;  4.0497809E+04;  0.0000000E+00;  1.1079438E-02;  4.0000000E+04;  0.0000000E+00;  4.0012605E+04; -7.7060699E-02;  0.0000000E+00;  3.3887220E-03;  1.0193149E+03;
  8.1542395E-02;  9.9999998E-03; -9.0012237E-02;2955; -1.4701478E-02;  0.0000000E+00; -6.3705910E-04;  1.0062269E+03;  1.0000000E-01;  5.1588662E+03;3; -3.5494030E+01;  0.0000000E+00; -1.3501160E-01;0; -7.2407372E-02;  4.0507320E+04;  0.0000000E+00;  6.7279479E-03;  4.0000000E+04;  0.0000000E+00;  4.0012008E+04; -7.6425016E-02;  0.0000000E+00;  4.0176422E-03;  9.5554156E+02;
  8.1518538E-02;  9.9999998E-03; -8.0011658E-02;2956; -1.4442557E-02;  0.0000000E+00; -4.1249895E-04;  1.0063134E+03;  1.0000000E-01;  5.2305684E+03;3; -3.5668945E+01;  0.0000000E+00; -1.0195907E-01;0; -7.1548082E-02;  4.0515652E+04;  0.0000000E+00;  3.0228682E-03;  4.0000000E+04;  0.0000000E+00;  4.0010391E+04; -7.5852476E-02;  0.0000000E+00;  4.3043974E-03;  7.5048029E+02;
  8.1500612E-02;  9.9999998E-03; -7.0008025E-02;2957; -1.4226007E-02;  0.0000000E+00; -1.9204238E-04;  1.0063775E+03;  1.0000000E-01;  5.2836035E+03;3; -3.5884773E+01;  0.0000000E+00; -6.3044176E-02;0; -7.1105681E-02;  4.0522742E+04;  0.0000000E+00;  2.7128917E-04;  4.0000000E+04;  0.0000000E+00;  4.0007977E+04; -7.5338461E-02;  0.0000000E+00;  4.2327773E-03;  4.7024994E+02;
  8.1487656E-02;  9.9999998E-03; -6.0003497E-02;2958; -1.4063887E-02;  0.0000000E+00; -2.8051270E-05;  1.0064224E+03;  1.0000000E-01;  5.3208374E+03;3; -3.6115719E+01;  0.0000000E+00; -2.9845215E-02;0; -7.1037635E-02;  4.0528672E+04;  0.0000000E+00; -1.3745206E-03;  4.0000000E+04;  0.0000000E+00;  4.0005715E+04; -7.4881621E-02;  0.0000000E+00;  3.8439883E-03;  1.7558522E+02;
  8.1478864E-02;  9.9999998E-03; -4.9999803E-02;2959; -1.3953309E-02;  0.0000000E+00;  6.1481820E-05;  1.0064618E+03;  1.0000000E-01;  5.3534287E+03;3; -3.6344330E+01;  0.0000000E+00; -1.0558308E-02;0; -7.1258314E-02;  4.0533727E+04;  0.0000000E+00; -1.9927733E-03;  4.0000000E+04;  0.0000000E+00;  4.0003805E+04; -7.4483246E-02;  0.0000000E+00;  3.2249307E-03;  8.9094368E+01;
  8.1473269E-02;  9.9999998E-03; -3.9997552E-02;2960; -1.3877123E-02;  0.0000000E+00;  9.8555283E-05;  1.0064932E+03;  1.0000000E-01;  5.3795020E+03;3; -3.6531364E+01;  0.0000000E+00; -5.6530599E-04;0; -7.1657352E-02;  4.0537895E+04;  0.0000000E+00; -1.8466040E-03;  4.0000000E+04;  0.0000000E+00;  4.0002414E+04; -7.4146748E-02;  0.0000000E+00;  2.4893924E-03;  2.9902997E+02;
  8.1469968E-02;  9.9999998E-03; -2.9996920E-02;2961; -1.3825826E-02;  0.0000000E+00;  1.0233228E-04;  1.0065182E+03;  1.0000000E-01;  5.4002422E+03;3; -3.6667309E+01;  0.0000000E+00;  4.1979691E-03;0; -7.2118454E-02;  4.0541051E+04;  0.0000000E+00; -1.2882299E-03;  4.0000000E+04;  0.0000000E+00;  4.0000992E+04; -7.3877133E-02;  0.0000000E+00;  1.7586810E-03;  4.4780743E+02;
  8.1468135E-02;  9.9999998E-03; -1.9997513E-02;2962; -1.3793526E-02;  0.0000000E+00;  8.0955848E-05;  1.0065362E+03;  1.0000000E-01;  5.4151553E+03;3; -3.6754513E+01;  0.0000000E+00;  4.9992860E-03;0; -7.2534546E-02;  4.0543305E+04;  0.0000000E+00; -6.4886431E-04;  4.0000000E+04;  0.0000000E+00;  4.0000168E+04; -7.3679522E-02;  0.0000000E+00;  1.1449720E-03;  5.4134387E+02;
  8.1467353E-02;  9.9999998E-03; -9.9986875E-03;2963; -1.3775815E-02;  0.0000000E+00;  4.4145418E-05;  1.0065495E+03;  1.0000000E-01;  5.4261182E+03;3; -3.6804237E+01;  0.0000000E+00;  3.2329785E-03;0; -7.2820656E-02;  4.0544578E+04;  0.0000000E+00; -1.7317969E-04;  4.0000000E+04;  0.0000000E+00;  3.9999980E+04; -7.3558725E-02;  0.0000000E+00;  7.3806668E-04;  5.9085016E+02;
  8.1467137E-02;  9.9999998E-03; -2.3926279E-11;2964; -1.3770177E-02;  0.0000000E+00;  3.2768852E-10;  1.0065543E+03;  1.0000000E-01;  5.4301675E+03;3; -3.6820286E+01;  0.0000000E+00; -2.4585868E-05;0; -7.2922274E-02;  4.0545023E+04;  0.0000000E+00;  3.4996981E-13;  4.0000000E+04;  0.0000000E+00;  3.9999836E+04; -7.3518060E-02;  0.0000000E+00;  5.9578649E-04;  6.0611731E+02;
  8.1467353E-02;  9.9999998E-03;  9.9986875E-03;2965; -1.3775811E-02;  0.0000000E+00; -4.4147298E-05;  1.0065495E+03;  1.0000000E-01;  5.4261182E+03;3; -3.6804199E+01;  0.0000000E+00; -3.3232188E-03;0; -7.2820671E-02;  4.0544578E+04;  0.0000000E+00; -1.7309928E-04;  4.0000000E+04;  0.0000000E+00;  3.9999980E+04; -7.3558733E-02;  0.0000000E+00;  7.3806301E-04;  5.9084204E+02;
  8.1468135E-02;  9.9999998E-03;  1.9997513E-02;2966; -1.3793526E-02;  0.0000000E+00; -8.0951395E-05;  1.0065362E+03;  1.0000000E-01;  5.4151553E+03;3; -3.6754478E+01;  0.0000000E+00; -5.0095934E-03;0; -7.2534621E-02;  4.0543305E+04;  0.0000000E+00; -6.4879056E-04;  4.0000000E+04;  0.0000000E+00;  4.0000168E+04; -7.3679589E-02;  0.0000000E+00;  1.1449672E-03;  5.4133282E+02;
  8.1469968E-02;  9.9999998E-03;  2.9996920E-02;2967; -1.3825824E-02;  0.0000000E+00; -1.0233081E-04;  1.0065182E+03;  1.0000000E-01;  5.4002422E+03;3; -3.6667305E+01;  0.0000000E+00; -4.2145937E-03;0; -7.2118469E-02;  4.0541051E+04;  0.0000000E+00; -1.2881180E-03;  4.0000000E+04;  0.0000000E+00;  4.0000992E+04; -7.3877141E-02;  0.0000000E+00;  1.7586717E-03;  4.4779727E+02;
  8.1473269E-02;  9.9999998E-03;  3.9997552E-02;2968; -1.3877126E-02;  0.0000000E+00; -9.8549455E-05;  1.0064933E+03;  1.0000000E-01;  5.3796011E+03;3; -3.6531502E+01;  0.0000000E+00;  5.8939547E-04;0; -7.1657456E-02;  4.0537898E+04;  0.0000000E+00; -1.8465971E-03;  4.0000000E+04;  0.0000000E+00;  4.0002414E+04; -7.4146837E-02;  0.0000000E+00;  2.4893812E-03;  2.9901578E+02;
  8.1478864E-02;  9.9999998E-03;  4.9999803E-02;2969; -1.3953312E-02;  0.0000000E+00; -6.1472980E-05;  1.0064617E+03;  1.0000000E-01;  5.3534287E+03;3; -3.6344353E+01;  0.0000000E+00;  1.0621616E-02;0; -7.1258314E-02;  4.0533719E+04;  0.0000000E+00; -1.9922312E-03;  4.0000000E+04;  0.0000000E+00;  4.0003805E+04; -7.4483231E-02;  0.0000000E+00;  3.2249191E-03;  8.9073410E+01;
  8.1487656E-02;  9.9999998E-03;  6.0003497E-02;2970; -1.4063887E-02;  0.0000000E+00;  2.8051047E-05;  1.0064224E+03;  1.0000000E-01;  5.3208374E+03;3; -3.6115692E+01;  0.0000000E+00;  2.9804399E-02;0; -7.1037702E-02;  4.0528676E+04;  0.0000000E+00; -1.3742568E-03;  4.0000000E+04;  0.0000000E+00;  4.0005715E+04; -7.4881673E-02;  0.0000000E+00;  3.8439722E-03;  1.7559378E+02;
  9.1534413E-02;  9.9999998E-03; -1.0000739E-01;3015; -1.5341153E-02;  0.0000000E+00; -8.0483063E-04;  1.0067701E+03;  1.0000000E-01;  5.6089277E+03;3; -2.2215403E+01;  0.0000000E+00; -7.8224733E-02;0; -6.4797714E-02;  4.0547711E+04;  0.0000000E+00;  1.5390236E-02;  4.0000000E+04;  0.0000000E+00;  4.0015309E+04; -6.8026111E-02;  0.0000000E+00;  3.2283959E-03;  1.3173862E+03;
  9.1505326E-02;  9.9999998E-03; -9.0011187E-02;3016; -1.5047424E-02;  0.0000000E+00; -6.0089078E-04;  1.0068461E+03;  1.0000000E-01;  5.6719385E+03;3; -2.2254995E+01;  0.0000000E+00; -6.5860644E-02;0; -6.3765772E-02;  4.0554062E+04;  0.0000000E+00;  7.8124944E-03;  4.0000000E+04;  0.0000000E+00;  4.0014715E+04; -6.7638680E-02;  0.0000000E+00;  3.8729096E-03;  1.2671666E+03;
  9.1481514E-02;  9.9999998E-03; -8.0010071E-02;3017; -1.4773802E-02;  0.0000000E+00; -3.4769875E-04;  1.0068979E+03;  1.0000000E-01;  5.7148013E+03;3; -2.2342287E+01;  0.0000000E+00; -4.5436930E-02;0; -6.3172005E-02;  4.0559598E+04;  0.0000000E+00;  2.5379190E-03;  4.0000000E+04;  0.0000000E+00;  4.0013309E+04; -6.7323707E-02;  0.0000000E+00;  4.1516987E-03;  1.0605636E+03;
  9.1463223E-02;  9.9999998E-03; -7.0006050E-02;3018; -1.4539443E-02;  0.0000000E+00; -1.0021160E-04;  1.0069283E+03;  1.0000000E-01;  5.7399858E+03;3; -2.2453259E+01;  0.0000000E+00; -2.0390054E-02;0; -6.3012823E-02;  4.0564457E+04;  0.0000000E+00; -7.5207360E-04;  4.0000000E+04;  0.0000000E+00;  4.0011043E+04; -6.7061573E-02;  0.0000000E+00;  4.0487489E-03;  7.6854498E+02;
  9.1450125E-02;  9.9999998E-03; -6.0001414E-02;3019; -1.4363882E-02;  0.0000000E+00;  6.4099135E-05;  1.0069514E+03;  1.0000000E-01;  5.7591460E+03;3; -2.2588406E+01;  0.0000000E+00; -5.1890546E-03;0; -6.3228972E-02;  4.0568703E+04;  0.0000000E+00; -2.3835851E-03;  4.0000000E+04;  0.0000000E+00;  4.0008770E+04; -6.6838875E-02;  0.0000000E+00;  3.6098997E-03;  4.5628497E+02;
  9.1441482E-02;  9.9999998E-03; -4.9997896E-02;3020; -1.4240444E-02;  0.0000000E+00;  1.4946096E-04;  1.0069731E+03;  1.0000000E-01;  5.7770220E+03;3; -2.2721443E+01;  0.0000000E+00;  4.7180508E-03;0; -6.3717730E-02;  4.0572359E+04;  0.0000000E+00; -2.7622594E-03;  4.0000000E+04;  0.0000000E+00;  4.0006152E+04; -6.6647239E-02;  0.0000000E+00;  2.9295075E-03;  1.7176749E+02;
  9.1436327E-02;  9.9999998E-03; -3.9996203E-02;3021; -1.4155656E-02;  0.0000000E+00;  1.7346887E-04;  1.0069903E+03;  1.0000000E-01;  5.7913423E+03;3; -2.2832764E+01;  0.0000000E+00;  8.6043933E-03;0; -6.4354345E-02;  4.0575328E+04;  0.0000000E+00; -2.3400362E-03;  4.0000000E+04;  0.0000000E+00;  4.0004324E+04; -6.6484049E-02;  0.0000000E+00;  2.1297000E-03;  5.7919743E+01;
  9.1433533E-02;  9.9999998E-03; -2.9996280E-02;3022; -1.4098339E-02;  0.0000000E+00;  1.5848641E-04;  1.0070062E+03;  1.0000000E-01;  5.8044780E+03;3; -2.2916197E+01;  0.0000000E+00;  8.4547810E-03;0; -6.5010749E-02;  4.0577980E+04;  0.0000000E+00; -1.5534768E-03;  4.0000000E+04;  0.0000000E+00;  4.0003098E+04; -6.6350505E-02;  0.0000000E+00;  1.3397576E-03;  2.2399562E+02;
  9.1432199E-02;  9.9999998E-03; -1.9997517E-02;3023; -1.4061544E-02;  0.0000000E+00;  1.1820740E-04;  1.0070169E+03;  1.0000000E-01;  5.8133662E+03;3; -2.2968834E+01;  0.0000000E+00;  6.5025534E-03;0; -6.5571778E-02;  4.0579750E+04;  0.0000000E+00; -7.5983600E-04;  4.0000000E+04;  0.0000000E+00;  4.0002570E+04; -6.6250384E-02;  0.0000000E+00;  6.7860424E-04;  3.3119446E+02;
  9.1431752E-02;  9.9999998E-03; -9.9989958E-03;3024; -1.4040956E-02;  0.0000000E+00;  6.2555380E-05;  1.0070268E+03;  1.0000000E-01;  5.8215640E+03;3; -2.2999556E+01;  0.0000000E+00;  3.7008552E-03;0; -6.5946959E-02;  4.0580727E+04;  0.0000000E+00; -1.9956262E-04;  4.0000000E+04;  0.0000000E+00;  4.0001625E+04; -6.6188075E-02;  0.0000000E+00;  2.4111755E-04;  3.8947363E+02;
  9.1431722E-02;  9.9999998E-03; -5.4781572E-11;3025; -1.4034342E-02;  0.0000000E+00;  1.7775342E-09;  1.0070309E+03;  1.0000000E-01;  5.8249219E+03;3; -2.3009672E+01;  0.0000000E+00; -4.7284339E-06;0; -6.6078536E-02;  4.0581184E+04;  0.0000000E+00; -1.0865950E-12;  4.0000000E+04;  0.0000000E+00;  4.0001320E+04; -6.6166811E-02;  0.0000000E+00;  8.8274501E-05;  4.0777139E+02;
  9.1431752E-02;  9.9999998E-03;  9.9989958E-03;3026; -1.4040960E-02;  0.0000000E+00; -6.2554493E-05;  1.0070268E+03;  1.0000000E-01;  5.8215640E+03;3; -2.2999538E+01;  0.0000000E+00; -3.7277713E-03;0; -6.5946989E-02;  4.0580727E+04;  0.0000000E+00; -1.9951408E-04;  4.0000000E+04;  0.0000000E+00;  4.0001625E+04; -6.6188104E-02;  0.0000000E+00;  2.4111563E-04;  3.8946939E+02;
  9.1432199E-02;  9.9999998E-03;  1.9997517E-02;3027; -1.4061548E-02;  0.0000000E+00; -1.1820505E-04;  1.0070168E+03;  1.0000000E-01;  5.8133662E+03;3; -2.2968807E+01;  0.0000000E+00; -6.5219160E-03;0; -6.5571748E-02;  4.0579754E+04;  0.0000000E+00; -7.5967005E-04;  4.0000000E+04;  0.0000000E+00;  4.0002570E+04; -6.6250347E-02;  0.0000000E+00;  6.7859999E-04;  3.3118268E+02;
  9.1433533E-02;  9.9999998E-03;  2.9996280E-02;3028; -1.4098338E-02;  0.0000000E+00; -1.5848482E-04;  1.0070062E+03;  1.0000000E-01;  5.8044780E+03;3; -2.2916189E+01;  0.0000000E+00; -8.4929783E-03;0; -6.5010786E-02;  4.0577977E+04;  0.0000000E+00; -1.5531735E-03;  4.0000000E+04;  0.0000000E+00;  4.0003098E+04; -6.6350535E-02;  0.0000000E+00;  1.3397472E-03;  2.2398386E+02;
  9.1436327E-02;  9.9999998E-03;  3.9996203E-02;3029; -1.4155657E-02;  0.0000000E+00; -1.7346056E-04;  1.0069902E+03;  1.0000000E-01;  5.7912437E+03;3; -2.2832659E+01;  0.0000000E+00; -8.5747428E-03;0; -6.4354345E-02;  4.0575320E+04;  0.0000000E+00; -2.3395845E-03;  4.0000000E+04;  0.0000000E+00;  4.0004324E+04; -6.6484034E-02;  0.0000000E+00;  2.1296868E-03;  5.7904438E+01;
  9.1441482E-02;  9.9999998E-03;  4.9997892E-02;3030; -1.4240444E-02;  0.0000000E+00; -1.4945753E-04;  1.0069731E+03;  1.0000000E-01;  5.7770220E+03;3; -2.2721397E+01;  0.0000000E+00; -4.7372472E-03;0; -6.3717782E-02;  4.0572355E+04;  0.0000000E+00; -2.7623535E-03;  4.0000000E+04;  0.0000000E+00;  4.0006152E+04; -6.6647276E-02;  0.0000000E+00;  2.9294954E-03;  1.7177731E+02;
  9.1450125E-02;  9.9999998E-03;  6.0001414E-02;3031; -1.4363880E-02;  0.0000000E+00; -6.4093903E-05;  1.0069514E+03;  1.0000000E-01;  5.7591460E+03;3; -2.2588375E+01;  0.0000000E+00;  5.2365283E-03;0; -6.3228987E-02;  4.0568703E+04;  0.0000000E+00; -2.3836487E-03;  4.0000000E+04;  0.0000000E+00;  4.0008770E+04; -6.6838868E-02;  0.0000000E+00;  3.6098836E-03;  4.5628717E+02;
  1.0149526E-01;  9.9999998E-03; -1.0000532E-01;3076; -1.5502184E-02;  0.0000000E+00; -6.8452978E-04;  1.0068110E+03;  1.0000000E-01;  5.6428032E+03;3; -1.2290397E+01;  0.0000000E+00; -2.7540648E-02;0; -5.7373103E-02;  4.0547016E+04;  0.0000000E+00;  1.5387641E-02;  4.0000000E+04;  0.0000000E+00;  4.0017578E+04; -6.0372248E-02;  0.0000000E+00;  2.9991458E-03;  1.6123965E+03;
  1.0146579E-01;  9.9999998E-03; -9.0008892E-02;3077; -1.5203732E-02;  0.0000000E+00; -4.5592678E-04;  1.0068406E+03;  1.0000000E-01;  5.6672964E+03;3; -1.2296735E+01;  0.0000000E+00; -1.7832536E-02;0; -5.6638759E-02;  4.0549438E+04;  0.0000000E+00;  5.7736253E-03;  4.0000000E+04;  0.0000000E+00;  4.0017371E+04; -6.0280155E-02;  0.0000000E+00;  3.6413977E-03;  1.5716576E+03;
  1.0144136E-01;  9.9999998E-03; -8.0007553E-02;3078; -1.4925112E-02;  0.0000000E+00; -1.8383232E-04;  1.0068477E+03;  1.0000000E-01;  5.6732222E+03;3; -1.2330801E+01;  0.0000000E+00; -3.3251296E-03;0; -5.6359775E-02;  4.0551348E+04;  0.0000000E+00; -1.4945985E-04;  4.0000000E+04;  0.0000000E+00;  4.0015762E+04; -6.0261507E-02;  0.0000000E+00;  3.9017305E-03;  1.3624631E+03;
  1.0142262E-01;  9.9999998E-03; -7.0003688E-02;3079; -1.4692490E-02;  0.0000000E+00;  4.6822781E-05;  1.0068445E+03;  1.0000000E-01;  5.6705557E+03;3; -1.2389208E+01;  0.0000000E+00;  6.0209092E-03;0; -5.6517489E-02;  4.0553266E+04;  0.0000000E+00; -3.2748191E-03;  4.0000000E+04;  0.0000000E+00;  4.0013426E+04; -6.0282715E-02;  0.0000000E+00;  3.7652235E-03;  1.0596477E+03;
  1.0140927E-01;  9.9999998E-03; -5.9999496E-02;3080; -1.4517054E-02;  0.0000000E+00;  1.8788871E-04;  1.0068386E+03;  1.0000000E-01;  5.6657163E+03;3; -1.2460963E+01;  0.0000000E+00;  1.1679878E-02;0; -5.7037223E-02;  4.0555301E+04;  0.0000000E+00; -4.3723960E-03;  4.0000000E+04;  0.0000000E+00;  4.0010637E+04; -6.0318828E-02;  0.0000000E+00;  3.2816043E-03;  7.3181030E+02;
  1.0140074E-01;  9.9999998E-03; -4.9996462E-02;3081; -1.4392111E-02;  0.0000000E+00;  2.4971762E-04;  1.0068348E+03;  1.0000000E-01;  5.6624570E+03;3; -1.2531785E+01;  0.0000000E+00;  1.3905054E-02;0; -5.7802685E-02;  4.0557453E+04;  0.0000000E+00; -4.1406062E-03;  4.0000000E+04;  0.0000000E+00;  4.0008469E+04; -6.0353033E-02;  0.0000000E+00;  2.5503493E-03;  4.2981897E+02;
  1.0139588E-01;  9.9999998E-03; -3.9995458E-02;3082; -1.4305220E-02;  0.0000000E+00;  2.5369885E-04;  1.0068351E+03;  1.0000000E-01;  5.6627534E+03;3; -1.2593653E+01;  0.0000000E+00;  1.2098101E-02;0; -5.8678191E-02;  4.0559070E+04;  0.0000000E+00; -3.1890764E-03;  4.0000000E+04;  0.0000000E+00;  4.0006418E+04; -6.0377363E-02;  0.0000000E+00;  1.6991715E-03;  1.8302133E+02;
  1.0139334E-01;  9.9999998E-03; -2.9996047E-02;3083; -1.4245228E-02;  0.0000000E+00;  2.1879791E-04;  1.0068385E+03;  1.0000000E-01;  5.6656177E+03;3; -1.2639473E+01;  0.0000000E+00;  1.0021826E-02;0; -5.9527449E-02;  4.0560840E+04;  0.0000000E+00; -2.0073268E-03;  4.0000000E+04;  0.0000000E+00;  4.0004781E+04; -6.0390193E-02;  0.0000000E+00;  8.6274353E-04;  3.1688423E+00;
  1.0139223E-01;  9.9999998E-03; -1.9997548E-02;3084; -1.4206416E-02;  0.0000000E+00;  1.5769710E-04;  1.0068421E+03;  1.0000000E-01;  5.6685806E+03;3; -1.2669342E+01;  0.0000000E+00;  6.6930400E-03;0; -6.0229719E-02;  4.0562012E+04;  0.0000000E+00; -9.5226761E-04;  4.0000000E+04;  0.0000000E+00;  4.0003750E+04; -6.0394451E-02;  0.0000000E+00;  1.6473279E-04;  1.1790140E+02;
  1.0139196E-01;  9.9999998E-03; -9.9992873E-03;3085; -1.4184464E-02;  0.0000000E+00;  8.1973318E-05;  1.0068463E+03;  1.0000000E-01;  5.6720371E+03;3; -1.2686077E+01;  0.0000000E+00;  3.4234184E-03;0; -6.0690861E-02;  4.0562824E+04;  0.0000000E+00; -2.4612571E-04;  4.0000000E+04;  0.0000000E+00;  4.0003402E+04; -6.0394496E-02;  0.0000000E+00; -2.9636585E-04;  1.8404018E+02;
  1.0139192E-01;  9.9999998E-03; -8.3033150E-11;3086; -1.4177420E-02;  0.0000000E+00;  1.4578612E-09;  1.0068465E+03;  1.0000000E-01;  5.6722349E+03;3; -1.2690754E+01;  0.0000000E+00; -2.9437075E-05;0; -6.0851458E-02;  4.0563113E+04;  0.0000000E+00;  4.8206614E-14;  4.0000000E+04;  0.0000000E+00;  4.0003090E+04; -6.0394119E-02;  0.0000000E+00; -4.5733969E-04;  2.0509561E+02;
  1.0139196E-01;  9.9999998E-03;  9.9992873E-03;3087; -1.4184461E-02;  0.0000000E+00; -8.1975391E-05;  1.0068463E+03;  1.0000000E-01;  5.6720371E+03;3; -1.2686078E+01;  0.0000000E+00; -3.4964567E-03;0; -6.0690857E-02;  4.0562824E+04;  0.0000000E+00; -2.4603691E-04;  4.0000000E+04;  0.0000000E+00;  4.0003402E+04; -6.0394488E-02;  0.0000000E+00; -2.9636826E-04;  1.8403883E+02;
  1.0139223E-01;  9.9999998E-03;  1.9997548E-02;3088; -1.4206418E-02;  0.0000000E+00; -1.5769633E-04;  1.0068421E+03;  1.0000000E-01;  5.6685806E+03;3; -1.2669356E+01;  0.0000000E+00; -6.7198910E-03;0; -6.0229726E-02;  4.0562016E+04;  0.0000000E+00; -9.5186010E-04;  4.0000000E+04;  0.0000000E+00;  4.0003750E+04; -6.0394451E-02;  0.0000000E+00;  1.6472630E-04;  1.1789235E+02;
  1.0139334E-01;  9.9999998E-03;  2.9996047E-02;3089; -1.4245230E-02;  0.0000000E+00; -2.1879152E-04;  1.0068385E+03;  1.0000000E-01;  5.6656177E+03;3; -1.2639403E+01;  0.0000000E+00; -9.9491784E-03;0; -5.9527427E-02;  4.0560840E+04;  0.0000000E+00; -2.0070113E-03;  4.0000000E+04;  0.0000000E+00;  4.0004781E+04; -6.0390163E-02;  0.0000000E+00;  8.6273503E-04;  3.1739817E+00;
  1.0139588E-01;  9.9999998E-03;  3.9995458E-02;3090; -1.4305222E-02;  0.0000000E+00; -2.5369984E-04;  1.0068351E+03;  1.0000000E-01;  5.6627534E+03;3; -1.2593632E+01;  0.0000000E+00; -1.2158697E-02;0; -5.8678184E-02;  4.0559066E+04;  0.0000000E+00; -3.1891486E-03;  4.0000000E+04;  0.0000000E+00;  4.0006422E+04; -6.0377341E-02;  0.0000000E+00;  1.6991578E-03;  1.8304134E+02;
  1.0140074E-01;  9.9999998E-03;  4.9996462E-02;3091; -1.4392114E-02;  0.0000000E+00; -2.4970539E-04;  1.0068348E+03;  1.0000000E-01;  5.6624570E+03;3; -1.2531793E+01;  0.0000000E+00; -1.3894726E-02;0; -5.7802793E-02;  4.0557457E+04;  0.0000000E+00; -4.1407631E-03;  4.0000000E+04;  0.0000000E+00;  4.0008469E+04; -6.0353126E-02;  0.0000000E+00;  2.5503351E-03;  4.2983170E+02;
  1.0140927E-01;  9.9999998E-03;  5.9999496E-02;3092; -1.4517055E-02;  0.0000000E+00; -1.8788612E-04;  1.0068385E+03;  1.0000000E-01;  5.6656177E+03;3; -1.2460906E+01;  0.0000000E+00; -1.1647345E-02;0; -5.7037283E-02;  4.0555301E+04;  0.0000000E+00; -4.3712282E-03;  4.0000000E+04;  0.0000000E+00;  4.0010637E+04; -6.0318869E-02;  0.0000000E+00;  3.2815873E-03;  7.3182336E+02;
  1.1142910E-01;  9.9999998E-03; -1.0000009E-01;3137; -1.5553457E-02;  0.0000000E+00; -4.7440123E-04;  1.0063561E+03;  1.0000000E-01;  5.2659253E+03;3; -5.7786980E+00;  0.0000000E+00;  8.5655125E-03;0; -5.1845677E-02;  4.0505355E+04;  0.0000000E+00;  1.1749021E-02;  4.0000000E+04;  0.0000000E+00;  4.0019398E+04; -5.4562904E-02;  0.0000000E+00;  2.7172272E-03;  1.8768418E+03;
  1.1139592E-01;  9.9999998E-03; -9.0003274E-02;3138; -1.5259656E-02;  0.0000000E+00; -2.3113498E-04;  1.0063284E+03;  1.0000000E-01;  5.2429136E+03;3; -5.7727966E+00;  0.0000000E+00;  1.6569193E-02;0; -5.1458333E-02;  4.0502812E+04;  0.0000000E+00;  1.5220258E-03;  4.0000000E+04;  0.0000000E+00;  4.0019379E+04; -5.4800570E-02;  0.0000000E+00;  3.3422387E-03;  1.8413906E+03;
  1.1136810E-01;  9.9999998E-03; -8.0001988E-02;3139; -1.4993500E-02;  0.0000000E+00;  2.0361069E-05;  1.0062824E+03;  1.0000000E-01;  5.2048896E+03;3; -5.7848792E+00;  0.0000000E+00;  2.2899069E-02;0; -5.1526923E-02;  4.0500801E+04;  0.0000000E+00; -4.0577645E-03;  4.0000000E+04;  0.0000000E+00;  4.0017488E+04; -5.5104204E-02;  0.0000000E+00;  3.5772806E-03;  1.6281528E+03;
  1.1134643E-01;  9.9999998E-03; -6.9998562E-02;3140; -1.4776046E-02;  0.0000000E+00;  2.0764055E-04;  1.0062395E+03;  1.0000000E-01;  5.1693354E+03;3; -5.8128452E+00;  0.0000000E+00;  2.3248708E-02;0; -5.2017890E-02;  4.0499570E+04;  0.0000000E+00; -6.3779969E-03;  4.0000000E+04;  0.0000000E+00;  4.0014777E+04; -5.5427004E-02;  0.0000000E+00;  3.4091137E-03;  1.3148549E+03;
  1.1133088E-01;  9.9999998E-03; -5.9995227E-02;3141; -1.4612187E-02;  0.0000000E+00;  3.1220217E-04;  1.0061974E+03;  1.0000000E-01;  5.1344722E+03;3; -5.8481565E+00;  0.0000000E+00;  2.1474652E-02;0; -5.2843548E-02;  4.0498930E+04;  0.0000000E+00; -6.5730414E-03;  4.0000000E+04;  0.0000000E+00;  4.0012113E+04; -5.5733595E-02;  0.0000000E+00;  2.8900479E-03;  9.7280145E+02;
  1.1132061E-01;  9.9999998E-03; -4.9993020E-02;3142; -1.4493394E-02;  0.0000000E+00;  3.4739819E-04;  1.0061688E+03;  1.0000000E-01;  5.1106704E+03;3; -5.8848419E+00;  0.0000000E+00;  1.7851474E-02;0; -5.3878255E-02;  4.0498938E+04;  0.0000000E+00; -5.5556507E-03;  4.0000000E+04;  0.0000000E+00;  4.0009508E+04; -5.6000356E-02;  0.0000000E+00;  2.1221007E-03;  6.5507312E+02;
  1.1131445E-01;  9.9999998E-03; -3.9992712E-02;3143; -1.4407279E-02;  0.0000000E+00;  3.3114885E-04;  1.0061469E+03;  1.0000000E-01;  5.0925967E+03;3; -5.9152126E+00;  0.0000000E+00;  1.4242799E-02;0; -5.4979727E-02;  4.0499227E+04;  0.0000000E+00; -4.0147426E-03;  4.0000000E+04;  0.0000000E+00;  4.0007289E+04; -5.6215361E-02;  0.0000000E+00;  1.2356354E-03;  3.9286063E+02;
  1.1131074E-01;  9.9999998E-03; -2.9993817E-02;3144; -1.4349072E-02;  0.0000000E+00;  2.7503713E-04;  1.0061350E+03;  1.0000000E-01;  5.0827202E+03;3; -5.9382277E+00;  0.0000000E+00;  1.0752418E-02;0; -5.6007914E-02;  4.0499789E+04;  0.0000000E+00; -2.4343792E-03;  4.0000000E+04;  0.0000000E+00;  4.0005758E+04; -5.6376047E-02;  0.0000000E+00;  3.6813298E-04;  1.9765962E+02;
  1.1130857E-01;  9.9999998E-03; -1.9995848E-02;3145; -1.4310759E-02;  0.0000000E+00;  1.9385768E-04;  1.0061311E+03;  1.0000000E-01;  5.0794614E+03;3; -5.9545269E+00;  0.0000000E+00;  6.4992346E-03;0; -5.6839265E-02;  4.0500402E+04;  0.0000000E+00; -1.1306038E-03;  4.0000000E+04;  0.0000000E+00;  4.0004910E+04; -5.6485128E-02;  0.0000000E+00; -3.5413780E-04;  6.7439262E+01;
  1.1130758E-01;  9.9999998E-03; -9.9984258E-03;3146; -1.4288550E-02;  0.0000000E+00;  9.9691926E-05;  1.0061288E+03;  1.0000000E-01;  5.0775850E+03;3; -5.9629660E+00;  0.0000000E+00;  3.0101803E-03;0; -5.7378177E-02;  4.0500938E+04;  0.0000000E+00; -2.8896070E-04;  4.0000000E+04;  0.0000000E+00;  4.0004383E+04; -5.6547541E-02;  0.0000000E+00; -8.3063566E-04;  5.7780375E+00;
  1.1130730E-01;  9.9999998E-03; -1.0078554E-10;3147; -1.4281237E-02;  0.0000000E+00;  1.1193465E-09;  1.0061283E+03;  1.0000000E-01;  5.0771899E+03;3; -5.9656096E+00;  0.0000000E+00; -1.0408647E-05;0; -5.7564624E-02;  4.0501082E+04;  0.0000000E+00;  1.7291005E-13;  4.0000000E+04;  0.0000000E+00;  4.0004238E+04; -5.6567732E-02;  0.0000000E+00; -9.9688966E-04;  2.9276930E+01;
  1.1130758E-01;  9.9999998E-03;  9.9984258E-03;3148; -1.4288549E-02;  0.0000000E+00; -9.9693432E-05;  1.0061288E+03;  1.0000000E-01;  5.0775850E+03;3; -5.9629836E+00;  0.0000000E+00; -3.0735619E-03;0; -5.7378184E-02;  4.0500934E+04;  0.0000000E+00; -2.8874128E-04;  4.0000000E+04;  0.0000000E+00;  4.0004383E+04; -5.6547541E-02;  0.0000000E+00; -8.3064166E-04;  5.7775459E+00;
  1.1130857E-01;  9.9999998E-03;  1.9995848E-02;3149; -1.4310760E-02;  0.0000000E+00; -1.9385896E-04;  1.0061311E+03;  1.0000000E-01;  5.0794614E+03;3; -5.9545002E+00;  0.0000000E+00; -6.4861458E-03;0; -5.6839276E-02;  4.0500398E+04;  0.0000000E+00; -1.1304202E-03;  4.0000000E+04;  0.0000000E+00;  4.0004910E+04; -5.6485131E-02;  0.0000000E+00; -3.5414458E-04;  6.7450485E+01;
  1.1131074E-01;  9.9999998E-03;  2.9993817E-02;3150; -1.4349070E-02;  0.0000000E+00; -2.7503748E-04;  1.0061350E+03;  1.0000000E-01;  5.0827202E+03;3; -5.9382253E+00;  0.0000000E+00; -1.0790657E-02;0; -5.6007918E-02;  4.0499789E+04;  0.0000000E+00; -2.4342234E-03;  4.0000000E+04;  0.0000000E+00;  4.0005758E+04; -5.6376044E-02;  0.0000000E+00;  3.6812594E-04;  1.9766663E+02;
  1.1131444E-01;  9.9999998E-03;  3.9992712E-02;3151; -1.4407281E-02;  0.0000000E+00; -3.3114551E-04;  1.0061469E+03;  1.0000000E-01;  5.0925967E+03;3; -5.9152184E+00;  0.0000000E+00; -1.4231696E-02;0; -5.4979727E-02;  4.0499230E+04;  0.0000000E+00; -4.0139849E-03;  4.0000000E+04;  0.0000000E+00;  4.0007289E+04; -5.6215353E-02;  0.0000000E+00;  1.2356265E-03;  3.9288095E+02;
  1.1132061E-01;  9.9999998E-03;  4.9993020E-02;3152; -1.4493393E-02;  0.0000000E+00; -3.4739042E-04;  1.0061688E+03;  1.0000000E-01;  5.1106704E+03;3; -5.8848553E+00;  0.0000000E+00; -1.7807677E-02;0; -5.3878330E-02;  4.0498934E+04;  0.0000000E+00; -5.5552600E-03;  4.0000000E+04;  0.0000000E+00;  4.0009508E+04; -5.6000419E-02;  0.0000000E+00;  2.1220890E-03;  6.5509021E+02;
  1.1133088E-01;  9.9999998E-03;  5.9995227E-02;3153; -1.4612187E-02;  0.0000000E+00; -3.1219507E-04;  1.0061975E+03;  1.0000000E-01;  5.1344722E+03;3; -5.8481488E+00;  0.0000000E+00; -2.1392515E-02;0; -5.2843526E-02;  4.0498930E+04;  0.0000000E+00; -6.5719406E-03;  4.0000000E+04;  0.0000000E+00;  4.0012113E+04; -5.5733558E-02;  0.0000000E+00;  2.8900299E-03;  9.7281012E+02;
  1.2134410E-01;  9.9999998E-03; -9.9991605E-02;3198; -1.5594596E-02;  0.0000000E+00; -2.3579539E-04;  1.0055280E+03;  1.0000000E-01;  4.5798213E+03;3; -2.0715668E+00;  0.0000000E+00;  3.2298896E-02;0; -4.8371434E-02;  4.0433430E+04;  0.0000000E+00;  5.8158990E-03;  4.0000000E+04;  0.0000000E+00;  4.0020477E+04; -5.0775964E-02;  0.0000000E+00;  2.4045287E-03;  2.0866548E+03;
  1.2130545E-01;  9.9999998E-03; -8.9994065E-02;3199; -1.5322571E-02;  0.0000000E+00; -1.5765629E-05;  1.0054331E+03;  1.0000000E-01;  4.5012061E+03;3; -2.0637596E+00;  0.0000000E+00;  3.6298223E-02;0; -4.8359543E-02;  4.0425562E+04;  0.0000000E+00; -3.5576387E-03;  4.0000000E+04;  0.0000000E+00;  4.0019781E+04; -5.1361345E-02;  0.0000000E+00;  3.0018019E-03;  2.0522092E+03;
  1.2127230E-01;  9.9999998E-03; -7.9992473E-02;3200; -1.5082537E-02;  0.0000000E+00;  1.9105643E-04;  1.0053346E+03;  1.0000000E-01;  4.4196279E+03;3; -2.0676844E+00;  0.0000000E+00;  3.5787757E-02;0; -4.8786350E-02;  4.0419324E+04;  0.0000000E+00; -7.9097338E-03;  4.0000000E+04;  0.0000000E+00;  4.0018590E+04; -5.1995594E-02;  0.0000000E+00;  3.2092435E-03;  1.8327977E+03;
  1.2124636E-01;  9.9999998E-03; -6.9989383E-02;3201; -1.4887717E-02;  0.0000000E+00;  3.3506867E-04;  1.0052419E+03;  1.0000000E-01;  4.3428896E+03;3; -2.0785933E+00;  0.0000000E+00;  3.1690519E-02;0; -4.9605340E-02;  4.0414312E+04;  0.0000000E+00; -9.0087047E-03;  4.0000000E+04;  0.0000000E+00;  4.0015645E+04; -5.2620590E-02;  0.0000000E+00;  3.0152481E-03;  1.5084868E+03;
  1.2122740E-01;  9.9999998E-03; -5.9986725E-02;3202; -1.4738450E-02;  0.0000000E+00;  4.0905128E-04;  1.0051652E+03;  1.0000000E-01;  4.2792866E+03;3; -2.0957768E+00;  0.0000000E+00;  2.4803486E-02;0; -5.0720003E-02;  4.0410910E+04;  0.0000000E+00; -8.2095321E-03;  4.0000000E+04;  0.0000000E+00;  4.0012848E+04; -5.3192988E-02;  0.0000000E+00;  2.4729862E-03;  1.1526139E+03;
  1.2121412E-01;  9.9999998E-03; -4.9985126E-02;3203; -1.4626418E-02;  0.0000000E+00;  4.2383026E-04;  1.0051038E+03;  1.0000000E-01;  4.2283247E+03;3; -2.1107748E+00;  0.0000000E+00;  2.0085823E-02;0; -5.2000001E-02;  4.0408691E+04;  0.0000000E+00; -6.4960783E-03;  4.0000000E+04;  0.0000000E+00;  4.0010188E+04; -5.3684585E-02;  0.0000000E+00;  1.6845844E-03;  8.2010223E+02;
  1.2120526E-01;  9.9999998E-03; -3.9985042E-02;3204; -1.4545891E-02;  0.0000000E+00;  3.8868477E-04;  1.0050618E+03;  1.0000000E-01;  4.1935605E+03;3; -2.1241963E+00;  0.0000000E+00;  1.5382629E-02;0; -5.3301547E-02;  4.0407457E+04;  0.0000000E+00; -4.5202803E-03;  4.0000000E+04;  0.0000000E+00;  4.0007969E+04; -5.4081988E-02;  0.0000000E+00;  7.8044063E-04;  5.4361847E+02;
  1.2119932E-01;  9.9999998E-03; -2.9986763E-02;3205; -1.4489275E-02;  0.0000000E+00;  3.1685640E-04;  1.0050345E+03;  1.0000000E-01;  4.1709438E+03;3; -2.1347427E+00;  0.0000000E+00;  1.0999973E-02;0; -5.4483701E-02;  4.0407000E+04;  0.0000000E+00; -2.6867662E-03;  4.0000000E+04;  0.0000000E+00;  4.0006371E+04; -5.4382138E-02;  0.0000000E+00; -1.0156187E-04;  3.3581052E+02;
  1.2119503E-01;  9.9999998E-03; -1.9990439E-02;3206; -1.4451707E-02;  0.0000000E+00;  2.2173567E-04;  1.0050209E+03;  1.0000000E-01;  4.1597837E+03;3; -2.1424766E+00;  0.0000000E+00;  6.9406028E-03;0; -5.5423874E-02;  4.0406691E+04;  0.0000000E+00; -1.2365512E-03;  4.0000000E+04;  0.0000000E+00;  4.0005102E+04; -5.4589275E-02;  0.0000000E+00; -8.3459949E-04;  1.9558101E+02;
  1.2119251E-01;  9.9999998E-03; -9.9955257E-03;3207; -1.4429915E-02;  0.0000000E+00;  1.1368804E-04;  1.0050125E+03;  1.0000000E-01;  4.1526729E+03;3; -2.1465325E+00;  0.0000000E+00;  3.4018264E-03;0; -5.6027461E-02;  4.0406863E+04;  0.0000000E+00; -3.1493054E-04;  4.0000000E+04;  0.0000000E+00;  4.0004652E+04; -5.4709733E-02;  0.0000000E+00; -1.3177296E-03;  1.1578100E+02;
  1.2119167E-01;  9.9999998E-03; -8.9834695E-11;3208; -1.4422586E-02;  0.0000000E+00;  1.3771075E-10;  1.0050103E+03;  1.0000000E-01;  4.1508950E+03;3; -2.1478338E+00;  0.0000000E+00; -2.3436174E-05;0; -5.6235395E-02;  4.0406852E+04;  0.0000000E+00; -6.3747824E-13;  4.0000000E+04;  0.0000000E+00;  4.0004332E+04; -5.4749168E-02;  0.0000000E+00; -1.4862258E-03;  8.9936462E+01;
  1.2119251E-01;  9.9999998E-03;  9.9955257E-03;3209; -1.4429916E-02;  0.0000000E+00; -1.1368867E-04;  1.0050125E+03;  1.0000000E-01;  4.1526729E+03;3; -2.1465166E+00;  0.0000000E+00; -3.3938726E-03;0; -5.6027465E-02;  4.0406863E+04;  0.0000000E+00; -3.1473613E-04;  4.0000000E+04;  0.0000000E+00;  4.0004652E+04; -5.4709733E-02;  0.0000000E+00; -1.3177323E-03;  1.1578191E+02;
  1.2119503E-01;  9.9999998E-03;  1.9990437E-02;3210; -1.4451708E-02;  0.0000000E+00; -2.2173802E-04;  1.0050209E+03;  1.0000000E-01;  4.1597837E+03;3; -2.1424921E+00;  0.0000000E+00; -6.9818106E-03;0; -5.5423874E-02;  4.0406688E+04;  0.0000000E+00; -1.2360951E-03;  4.0000000E+04;  0.0000000E+00;  4.0005102E+04; -5.4589268E-02;  0.0000000E+00; -8.3460793E-04;  1.9559041E+02;
  1.2119932E-01;  9.9999998E-03;  2.9986763E-02;3211; -1.4489277E-02;  0.0000000E+00; -3.1685267E-04;  1.0050345E+03;  1.0000000E-01;  4.1709438E+03;3; -2.1348166E+00;  0.0000000E+00; -1.1021473E-02;0; -5.4483704E-02;  4.0407000E+04;  0.0000000E+00; -2.6863050E-03;  4.0000000E+04;  0.0000000E+00;  4.0006371E+04; -5.4382134E-02;  0.0000000E+00; -1.0157044E-04;  3.3582639E+02;
  1.2120526E-01;  9.9999998E-03;  3.9985042E-02;3212; -1.4545890E-02;  0.0000000E+00; -3.8868000E-04;  1.0050618E+03;  1.0000000E-01;  4.1935605E+03;3; -2.1241848E+00;  0.0000000E+00; -1.5382244E-02;0; -5.3301517E-02;  4.0407457E+04;  0.0000000E+00; -4.5195520E-03;  4.0000000E+04;  0.0000000E+00;  4.0007969E+04; -5.4081947E-02;  0.0000000E+00;  7.8043126E-04;  5.4363019E+02;
  1.2121412E-01;  9.9999998E-03;  4.9985126E-02;3213; -1.4626418E-02;  0.0000000E+00; -4.2383099E-04;  1.0051036E+03;  1.0000000E-01;  4.2282261E+03;3; -2.1107295E+00;  0.0000000E+00; -2.0111067E-02;0; -5.2000035E-02;  4.0408688E+04;  0.0000000E+00; -6.4953011E-03;  4.0000000E+04;  0.0000000E+00;  4.0010188E+04; -5.3684603E-02;  0.0000000E+00;  1.6845689E-03;  8.2011121E+02;
  1.2122740E-01;  9.9999998E-03;  5.9986725E-02;3214; -1.4738453E-02;  0.0000000E+00; -4.0905189E-04;  1.0051652E+03;  1.0000000E-01;  4.2792866E+03;3; -2.0957935E+00;  0.0000000E+00; -2.4853768E-02;0; -5.0719947E-02;  4.0410910E+04;  0.0000000E+00; -8.2100155E-03;  4.0000000E+04;  0.0000000E+00;  4.0012848E+04; -5.3192914E-02;  0.0000000E+00;  2.4729657E-03;  1.1526274E+03;
  1.3125241E-01;  9.9999998E-03; -9.9980421E-02;3259; -1.5720624E-02;  0.0000000E+00; -5.1237570E-05;  1.0044529E+03;  1.0000000E-01;  3.6890808E+03;3; -2.9282048E-01;  0.0000000E+00;  4.4193741E-02;0; -4.6856377E-02;  4.0342340E+04;  0.0000000E+00; -1.3761501E-03;  4.0000000E+04;  0.0000000E+00;  4.0020777E+04; -4.8944000E-02;  0.0000000E+00;  2.0876236E-03;  2.2226799E+03;
  1.3120802E-01;  9.9999998E-03; -8.9981630E-02;3260; -1.5482542E-02;  0.0000000E+00;  1.3148150E-04;  1.0042863E+03;  1.0000000E-01;  3.5511094E+03;3; -2.8742558E-01;  0.0000000E+00;  4.4580370E-02;0; -4.7224648E-02;  4.0329172E+04;  0.0000000E+00; -8.5194241E-03;  4.0000000E+04;  0.0000000E+00;  4.0020688E+04; -4.9876407E-02;  0.0000000E+00;  2.6517573E-03;  2.1843254E+03;
  1.3116899E-01;  9.9999998E-03; -7.9979479E-02;3261; -1.5275777E-02;  0.0000000E+00;  2.9204864E-04;  1.0041301E+03;  1.0000000E-01;  3.4217305E+03;3; -2.8839344E-01;  0.0000000E+00;  3.9880246E-02;0; -4.7997888E-02;  4.0318199E+04;  0.0000000E+00; -1.1001607E-02;  4.0000000E+04;  0.0000000E+00;  4.0018555E+04; -5.0831415E-02;  0.0000000E+00;  2.8335252E-03;  1.9558456E+03;
  1.3113841E-01;  9.9999998E-03; -6.9976024E-02;3262; -1.5104810E-02;  0.0000000E+00;  4.0603956E-04;  1.0039900E+03;  1.0000000E-01;  3.3055854E+03;3; -2.9050413E-01;  0.0000000E+00;  3.4457773E-02;0; -4.9119730E-02;  4.0309699E+04;  0.0000000E+00; -1.0759052E-02;  4.0000000E+04;  0.0000000E+00;  4.0015777E+04; -5.1742256E-02;  0.0000000E+00;  2.6225268E-03;  1.6189734E+03;
  1.3111563E-01;  9.9999998E-03; -5.9972830E-02;3263; -1.4968827E-02;  0.0000000E+00;  4.6088887E-04;  1.0038752E+03;  1.0000000E-01;  3.2104771E+03;3; -2.9657599E-01;  0.0000000E+00;  2.7499622E-02;0; -5.0489552E-02;  4.0303277E+04;  0.0000000E+00; -9.1401031E-03;  4.0000000E+04;  0.0000000E+00;  4.0012645E+04; -5.2560575E-02;  0.0000000E+00;  2.0710214E-03;  1.2488196E+03;
  1.3109858E-01;  9.9999998E-03; -4.9971081E-02;3264; -1.4865809E-02;  0.0000000E+00;  4.6165465E-04;  1.0037869E+03;  1.0000000E-01;  3.1373928E+03;3; -3.0221707E-01;  0.0000000E+00;  2.0766914E-02;0; -5.1977366E-02;  4.0298805E+04;  0.0000000E+00; -6.9978670E-03;  4.0000000E+04;  0.0000000E+00;  4.0009812E+04; -5.3256653E-02;  0.0000000E+00;  1.2792883E-03;  9.0184418E+02;
  1.3108583E-01;  9.9999998E-03; -3.9971512E-02;3265; -1.4788748E-02;  0.0000000E+00;  4.1620279E-04;  1.0037228E+03;  1.0000000E-01;  3.0842585E+03;3; -3.0708376E-01;  0.0000000E+00;  1.5432270E-02;0; -5.3441040E-02;  4.0296074E+04;  0.0000000E+00; -4.8202784E-03;  4.0000000E+04;  0.0000000E+00;  4.0007660E+04; -5.3816669E-02;  0.0000000E+00;  3.7562987E-04;  6.1175482E+02;
  1.3107616E-01;  9.9999998E-03; -2.9975561E-02;3266; -1.4733396E-02;  0.0000000E+00;  3.3670149E-04;  1.0036826E+03;  1.0000000E-01;  3.0509753E+03;3; -3.1178576E-01;  0.0000000E+00;  1.0345930E-02;0; -5.4743342E-02;  4.0294348E+04;  0.0000000E+00; -2.8743311E-03;  4.0000000E+04;  0.0000000E+00;  4.0005746E+04; -5.4239463E-02;  0.0000000E+00; -5.0387799E-04;  3.9194550E+02;
  1.3106881E-01;  9.9999998E-03; -1.9982958E-02;3267; -1.4695293E-02;  0.0000000E+00;  2.3509047E-04;  1.0036563E+03;  1.0000000E-01;  3.0291489E+03;3; -3.1469008E-01;  0.0000000E+00;  6.4004110E-03;0; -5.5765480E-02;  4.0293430E+04;  0.0000000E+00; -1.3347932E-03;  4.0000000E+04;  0.0000000E+00;  4.0004547E+04; -5.4531462E-02;  0.0000000E+00; -1.2340173E-03;  2.4194466E+02;
  1.3106397E-01;  9.9999998E-03; -9.9918200E-03;3268; -1.4672668E-02;  0.0000000E+00;  1.2033880E-04;  1.0036425E+03;  1.0000000E-01;  3.0177913E+03;3; -3.1622675E-01;  0.0000000E+00;  3.2260437E-03;0; -5.6416728E-02;  4.0293031E+04;  0.0000000E+00; -3.4278177E-04;  4.0000000E+04;  0.0000000E+00;  4.0003883E+04; -5.4701716E-02;  0.0000000E+00; -1.7150120E-03;  1.5553418E+02;
  1.3106221E-01;  9.9999998E-03; -9.8290182E-11;3269; -1.4665210E-02;  0.0000000E+00; -1.7797777E-09;  1.0036389E+03;  1.0000000E-01;  3.0147295E+03;3; -3.1684375E-01;  0.0000000E+00; -4.9220242E-05;0; -5.6640275E-02;  4.0293039E+04;  0.0000000E+00;  7.3081780E-13;  4.0000000E+04;  0.0000000E+00;  4.0003566E+04; -5.4757543E-02;  0.0000000E+00; -1.8827318E-03;  1.2732071E+02;
  1.3106397E-01;  9.9999998E-03;  9.9918200E-03;3270; -1.4672670E-02;  0.0000000E+00; -1.2034088E-04;  1.0036425E+03;  1.0000000E-01;  3.0177913E+03;3; -3.1627333E-01;  0.0000000E+00; -3.2702060E-03;0; -5.6416702E-02;  4.0293031E+04;  0.0000000E+00; -3.4260374E-04;  4.0000000E+04;  0.0000000E+00;  4.0003883E+04; -5.4701686E-02;  0.0000000E+00; -1.7150152E-03;  1.5553748E+02;
  1.3106881E-01;  9.9999998E-03;  1.9982956E-02;3271; -1.4695291E-02;  0.0000000E+00; -2.3508743E-04;  1.0036564E+03;  1.0000000E-01;  3.0292476E+03;3; -3.1465515E-01;  0.0000000E+00; -6.3747177E-03;0; -5.5765498E-02;  4.0293426E+04;  0.0000000E+00; -1.3345759E-03;  4.0000000E+04;  0.0000000E+00;  4.0004547E+04; -5.4531474E-02;  0.0000000E+00; -1.2340242E-03;  2.4195236E+02;
  1.3107616E-01;  9.9999998E-03;  2.9975560E-02;3272; -1.4733400E-02;  0.0000000E+00; -3.3670396E-04;  1.0036826E+03;  1.0000000E-01;  3.0509753E+03;3; -3.1180260E-01;  0.0000000E+00; -1.0348351E-02;0; -5.4743290E-02;  4.0294352E+04;  0.0000000E+00; -2.8737988E-03;  4.0000000E+04;  0.0000000E+00;  4.0005746E+04; -5.4239403E-02;  0.0000000E+00; -5.0388649E-04;  3.9195975E+02;
  1.3108583E-01;  9.9999998E-03;  3.9971512E-02;3273; -1.4788749E-02;  0.0000000E+00; -4.1620593E-04;  1.0037228E+03;  1.0000000E-01;  3.0842585E+03;3; -3.0704424E-01;  0.0000000E+00; -1.5503863E-02;0; -5.3441033E-02;  4.0296074E+04;  0.0000000E+00; -4.8200605E-03;  4.0000000E+04;  0.0000000E+00;  4.0007660E+04; -5.3816654E-02;  0.0000000E+00;  3.7561997E-04;  6.1176978E+02;
  1.3109857E-01;  9.9999998E-03;  4.9971081E-02;3274; -1.4865812E-02;  0.0000000E+00; -4.6165497E-04;  1.0037869E+03;  1.0000000E-01;  3.1373928E+03;3; -3.0222261E-01;  0.0000000E+00; -2.0806151E-02;0; -5.1977418E-02;  4.0298805E+04;  0.0000000E+00; -6.9974964E-03;  4.0000000E+04;  0.0000000E+00;  4.0009812E+04; -5.3256691E-02;  0.0000000E+00;  1.2792724E-03;  9.0186023E+02;
  1.3111563E-01;  9.9999998E-03;  5.9972830E-02;3275; -1.4968826E-02;  0.0000000E+00; -4.6088913E-04;  1.0038751E+03;  1.0000000E-01;  3.2104771E+03;3; -2.9659647E-01;  0.0000000E+00; -2.7586732E-02;0; -5.0489575E-02;  4.0303277E+04;  0.0000000E+00; -9.1393040E-03;  4.0000000E+04;  0.0000000E+00;  4.0012645E+04; -5.2560586E-02;  0.0000000E+00;  2.0710111E-03;  1.2488309E+03;
  1.4116488E-01;  9.9999998E-03; -9.9965148E-02;3320; -1.5992349E-02;  0.0000000E+00;  4.6787420E-05;  1.0032584E+03;  1.0000000E-01;  2.6994792E+03;3;  3.7524560E-01;  0.0000000E+00;  4.5457505E-02;0; -4.6992134E-02;  4.0243008E+04;  0.0000000E+00; -9.6529247E-03;  4.0000000E+04;  0.0000000E+00;  4.0020312E+04; -4.8788510E-02;  0.0000000E+00;  1.7963761E-03;  2.2709663E+03;
  1.4111747E-01;  9.9999998E-03; -8.9964673E-02;3321; -1.5797531E-02;  0.0000000E+00;  1.9055018E-04;  1.0030251E+03;  1.0000000E-01;  2.5062996E+03;3;  3.7930015E-01;  0.0000000E+00;  4.4664472E-02;0; -4.7722638E-02;  4.0224582E+04;  0.0000000E+00; -1.3473371E-02;  4.0000000E+04;  0.0000000E+00;  4.0019539E+04; -5.0048850E-02;  0.0000000E+00;  2.3262133E-03;  2.2229258E+03;
  1.4107545E-01;  9.9999998E-03; -7.9960980E-02;3322; -1.5620664E-02;  0.0000000E+00;  3.2318113E-04;  1.0028134E+03;  1.0000000E-01;  2.3308970E+03;3;  3.8228434E-01;  0.0000000E+00;  4.0410630E-02;0; -4.8809689E-02;  4.0209270E+04;  0.0000000E+00; -1.3789792E-02;  4.0000000E+04;  0.0000000E+00;  4.0017680E+04; -5.1296867E-02;  0.0000000E+00;  2.4871803E-03;  1.9815276E+03;
  1.4104088E-01;  9.9999998E-03; -6.9956772E-02;3323; -1.5473688E-02;  0.0000000E+00;  4.1683338E-04;  1.0026290E+03;  1.0000000E-01;  2.1781113E+03;3;  3.8315737E-01;  0.0000000E+00;  3.3397954E-02;0; -5.0192501E-02;  4.0197223E+04;  0.0000000E+00; -1.2369090E-02;  4.0000000E+04;  0.0000000E+00;  4.0014746E+04; -5.2461904E-02;  0.0000000E+00;  2.2694010E-03;  1.6301329E+03;
  1.4101239E-01;  9.9999998E-03; -5.9954625E-02;3324; -1.5353439E-02;  0.0000000E+00;  4.6216956E-04;  1.0024786E+03;  1.0000000E-01;  2.0534729E+03;3;  3.8219416E-01;  0.0000000E+00;  2.6198896E-02;0; -5.1769681E-02;  4.0188273E+04;  0.0000000E+00; -1.0239313E-02;  4.0000000E+04;  0.0000000E+00;  4.0011488E+04; -5.3493034E-02;  0.0000000E+00;  1.7233521E-03;  1.2453987E+03;
  1.4098810E-01;  9.9999998E-03; -4.9956169E-02;3325; -1.5257183E-02;  0.0000000E+00;  4.5856528E-04;  1.0023660E+03;  1.0000000E-01;  1.9601421E+03;3;  3.8196066E-01;  0.0000000E+00;  2.0250631E-02;0; -5.3414695E-02;  4.0181938E+04;  0.0000000E+00; -7.9119885E-03;  4.0000000E+04;  0.0000000E+00;  4.0008707E+04; -5.4360520E-02;  0.0000000E+00;  9.4582443E-04;  8.8472913E+02;
  1.4096822E-01;  9.9999998E-03; -3.9961170E-02;3326; -1.5182061E-02;  0.0000000E+00;  4.1245553E-04;  1.0022806E+03;  1.0000000E-01;  1.8894281E+03;3;  3.8073087E-01;  0.0000000E+00;  1.4748300E-02;0; -5.4992490E-02;  4.0177750E+04;  0.0000000E+00; -5.6051924E-03;  4.0000000E+04;  0.0000000E+00;  4.0006227E+04; -5.5053376E-02;  0.0000000E+00;  6.0885828E-05;  5.8208710E+02;
  1.4095312E-01;  9.9999998E-03; -2.9969143E-02;3327; -1.5125795E-02;  0.0000000E+00;  3.3423273E-04;  1.0022266E+03;  1.0000000E-01;  1.8446886E+03;3;  3.7939626E-01;  0.0000000E+00;  9.7634848E-03;0; -5.6373987E-02;  4.0174992E+04;  0.0000000E+00; -3.4587081E-03;  4.0000000E+04;  0.0000000E+00;  4.0004469E+04; -5.5574343E-02;  0.0000000E+00; -7.9964619E-04;  3.5101718E+02;
  1.4094242E-01;  9.9999998E-03; -1.9979581E-02;3328; -1.5085952E-02;  0.0000000E+00;  2.3391687E-04;  1.0021911E+03;  1.0000000E-01;  1.8152573E+03;3;  3.7876731E-01;  0.0000000E+00;  6.3280850E-03;0; -5.7447236E-02;  4.0173602E+04;  0.0000000E+00; -1.6559843E-03;  4.0000000E+04;  0.0000000E+00;  4.0003242E+04; -5.5933319E-02;  0.0000000E+00; -1.5139165E-03;  1.9153581E+02;
  1.4093544E-01;  9.9999998E-03; -9.9905059E-03;3329; -1.5061894E-02;  0.0000000E+00;  1.2034579E-04;  1.0021747E+03;  1.0000000E-01;  1.8017268E+03;3;  3.7838721E-01;  0.0000000E+00;  2.9606186E-03;0; -5.8126751E-02;  4.0172945E+04;  0.0000000E+00; -4.3411780E-04;  4.0000000E+04;  0.0000000E+00;  4.0002281E+04; -5.6142259E-02;  0.0000000E+00; -1.9844926E-03;  9.8538300E+01;
  1.4093290E-01;  9.9999998E-03; -1.1698606E-10;3330; -1.5053820E-02;  0.0000000E+00; -1.5834408E-09;  1.0021672E+03;  1.0000000E-01;  1.7955048E+03;3;  3.7820292E-01;  0.0000000E+00; -1.1059232E-05;0; -5.8359247E-02;  4.0172668E+04;  0.0000000E+00;  1.5640817E-13;  4.0000000E+04;  0.0000000E+00;  4.0002059E+04; -5.6210641E-02;  0.0000000E+00; -2.1486063E-03;  6.7922096E+01;
  1.4093544E-01;  9.9999998E-03;  9.9905049E-03;3331; -1.5061894E-02;  0.0000000E+00; -1.2035049E-04;  1.0021747E+03;  1.0000000E-01;  1.8017268E+03;3;  3.7835035E-01;  0.0000000E+00; -3.0042594E-03;0; -5.8126744E-02;  4.0172949E+04;  0.0000000E+00; -4.3394617E-04;  4.0000000E+04;  0.0000000E+00;  4.0002281E+04; -5.6142244E-02;  0.0000000E+00; -1.9844994E-03;  9.8541138E+01;
  1.4094242E-01;  9.9999998E-03;  1.9979581E-02;3332; -1.5085953E-02;  0.0000000E+00; -2.3391940E-04;  1.0021911E+03;  1.0000000E-01;  1.8152573E+03;3;  3.7877363E-01;  0.0000000E+00; -6.3735419E-03;0; -5.7447206E-02;  4.0173602E+04;  0.0000000E+00; -1.6557988E-03;  4.0000000E+04;  0.0000000E+00;  4.0003242E+04; -5.5933282E-02;  0.0000000E+00; -1.5139233E-03;  1.9154156E+02;
  1.4095312E-01;  9.9999998E-03;  2.9969143E-02;3333; -1.5125797E-02;  0.0000000E+00; -3.3423191E-04;  1.0022266E+03;  1.0000000E-01;  1.8446886E+03;3;  3.7936354E-01;  0.0000000E+00; -9.8066786E-03;0; -5.6374088E-02;  4.0174988E+04;  0.0000000E+00; -3.4583600E-03;  4.0000000E+04;  0.0000000E+00;  4.0004469E+04; -5.5574432E-02;  0.0000000E+00; -7.9965452E-04;  3.5102798E+02;
  1.4096822E-01;  9.9999998E-03;  3.9961170E-02;3334; -1.5182061E-02;  0.0000000E+00; -4.1245663E-04;  1.0022806E+03;  1.0000000E-01;  1.8894281E+03;3;  3.8070717E-01;  0.0000000E+00; -1.4771859E-02;0; -5.4992504E-02;  4.0177754E+04;  0.0000000E+00; -5.6047714E-03;  4.0000000E+04;  0.0000000E+00;  4.0006227E+04; -5.5053379E-02;  0.0000000E+00;  6.0875514E-05;  5.8209937E+02;
  1.4098810E-01;  9.9999998E-03;  4.9956169E-02;3335; -1.5257184E-02;  0.0000000E+00; -4.5856342E-04;  1.0023660E+03;  1.0000000E-01;  1.9601421E+03;3;  3.8194168E-01;  0.0000000E+00; -2.0265235E-02;0; -5.3414680E-02;  4.0181934E+04;  0.0000000E+00; -7.9110237E-03;  4.0000000E+04;  0.0000000E+00;  4.0008711E+04; -5.4360490E-02;  0.0000000E+00;  9.4581133E-04;  8.8473694E+02;
  1.4101239E-01;  9.9999998E-03;  5.9954625E-02;3336; -1.5353439E-02;  0.0000000E+00; -4.6216752E-04;  1.0024786E+03;  1.0000000E-01;  2.0534729E+03;3;  3.8218814E-01;  0.0000000E+00; -2.6253622E-02;0; -5.1769666E-02;  4.0188273E+04;  0.0000000E+00; -1.0239837E-02;  4.0000000E+04;  0.0000000E+00;  4.0011488E+04; -5.3493008E-02;  0.0000000E+00;  1.7233415E-03;  1.2454099E+03;
  1.5083238E-01;  9.9999998E-03; -9.9915760E-03;3390; -1.5618918E-02;  0.0000000E+00;  1.1449063E-04;  1.0007672E+03;  1.0000000E-01;  6.3553760E+02;3;  5.6391847E-01;  0.0000000E+00;  2.8917720E-03;0; -6.0599636E-02;  4.0059281E+04;  0.0000000E+00; -6.7942310E-04;  4.0000000E+04;  0.0000000E+00;  4.0000078E+04; -5.8503591E-02;  0.0000000E+00; -2.0960455E-03;  5.2283070E+01;
  1.5082914E-01;  9.9999998E-03; -1.7018463E-10;3391; -1.5610173E-02;  0.0000000E+00; -1.4914946E-09;  1.0007601E+03;  1.0000000E-01;  6.2971057E+02;3;  5.6401587E-01;  0.0000000E+00; -1.5889804E-05;0; -6.0834028E-02;  4.0059086E+04;  0.0000000E+00;  1.5315305E-12;  4.0000000E+04;  0.0000000E+00;  3.9999703E+04; -5.8580253E-02;  0.0000000E+00; -2.2537736E-03;  8.5007645E+01;
  1.5083238E-01;  9.9999998E-03;  9.9915760E-03;3392; -1.5618916E-02;  0.0000000E+00; -1.1449325E-04;  1.0007672E+03;  1.0000000E-01;  6.3553760E+02;3;  5.6392366E-01;  0.0000000E+00; -2.9026382E-03;0; -6.0599670E-02;  4.0059281E+04;  0.0000000E+00; -6.7932438E-04;  4.0000000E+04;  0.0000000E+00;  4.0000078E+04; -5.8503620E-02;  0.0000000E+00; -2.0960481E-03;  5.2278194E+01;
  1.5084153E-01;  9.9999998E-03; -1.9981101E-02;3389; -1.5644671E-02;  0.0000000E+00;  2.2185009E-04;  1.0007883E+03;  1.0000000E-01;  6.5301855E+02;3;  5.6371003E-01;  0.0000000E+00;  5.7795937E-03;0; -5.9913035E-02;  4.0060215E+04;  0.0000000E+00; -2.5451309E-03;  4.0000000E+04;  0.0000000E+00;  4.0001117E+04; -5.8269162E-02;  0.0000000E+00; -1.6438735E-03;  4.6419735E+01;
  1.5084153E-01;  9.9999998E-03;  1.9981101E-02;3393; -1.5644673E-02;  0.0000000E+00; -2.2185316E-04;  1.0007883E+03;  1.0000000E-01;  6.5301855E+02;3;  5.6366485E-01;  0.0000000E+00; -5.8486084E-03;0; -5.9913088E-02;  4.0060215E+04;  0.0000000E+00; -2.5445907E-03;  4.0000000E+04;  0.0000000E+00;  4.0001117E+04; -5.8269210E-02;  0.0000000E+00; -1.6438792E-03;  4.6428654E+01;
  1.5085639E-01;  9.9999998E-03; -2.9970801E-02;3388; -1.5686668E-02;  0.0000000E+00;  3.1490100E-04;  1.0008246E+03;  1.0000000E-01;  6.8323993E+02;3;  5.6341505E-01;  0.0000000E+00;  9.4524166E-03;0; -5.8822859E-02;  4.0061949E+04;  0.0000000E+00; -5.1547447E-03;  4.0000000E+04;  0.0000000E+00;  4.0002293E+04; -5.7865109E-02;  0.0000000E+00; -9.5775008E-04;  2.1343445E+02;
  1.5085639E-01;  9.9999998E-03;  2.9970799E-02;3394; -1.5686663E-02;  0.0000000E+00; -3.1490359E-04;  1.0008246E+03;  1.0000000E-01;  6.8323993E+02;3;  5.6350636E-01;  0.0000000E+00; -9.4697047E-03;0; -5.8822870E-02;  4.0061945E+04;  0.0000000E+00; -5.1543983E-03;  4.0000000E+04;  0.0000000E+00;  4.0002293E+04; -5.7865109E-02;  0.0000000E+00; -9.5776032E-04;  2.1344603E+02;
  1.5087713E-01;  9.9999998E-03; -3.9962560E-02;3387; -1.5744234E-02;  0.0000000E+00;  3.8550494E-04;  1.0008911E+03;  1.0000000E-01;  7.3825073E+02;3;  5.6319946E-01;  0.0000000E+00;  1.3564666E-02;0; -5.7407185E-02;  4.0065191E+04;  0.0000000E+00; -7.9930229E-03;  4.0000000E+04;  0.0000000E+00;  4.0004164E+04; -5.7275817E-02;  0.0000000E+00; -1.3136693E-04;  4.5330182E+02;
  1.5087713E-01;  9.9999998E-03;  3.9962560E-02;3395; -1.5744237E-02;  0.0000000E+00; -3.8550756E-04;  1.0008911E+03;  1.0000000E-01;  7.3825073E+02;3;  5.6312400E-01;  0.0000000E+00; -1.3654197E-02;0; -5.7407156E-02;  4.0065191E+04;  0.0000000E+00; -7.9918755E-03;  4.0000000E+04;  0.0000000E+00;  4.0004164E+04; -5.7275776E-02;  0.0000000E+00; -1.3138029E-04;  4.5330917E+02;
  1.5090379E-01;  9.9999998E-03; -4.9956877E-02;3386; -1.5817659E-02;  0.0000000E+00;  4.2448766E-04;  1.0009861E+03;  1.0000000E-01;  8.1696454E+02;3;  5.6260884E-01;  0.0000000E+00;  1.9214613E-02;0; -5.5768002E-02;  4.0070188E+04;  0.0000000E+00; -1.0689595E-02;  4.0000000E+04;  0.0000000E+00;  4.0006816E+04; -5.6486361E-02;  0.0000000E+00;  7.1835954E-04;  7.6617419E+02;
  1.5090379E-01;  9.9999998E-03;  4.9956877E-02;3396; -1.5817663E-02;  0.0000000E+00; -4.2448845E-04;  1.0009861E+03;  1.0000000E-01;  8.1696454E+02;3;  5.6259233E-01;  0.0000000E+00; -1.9254817E-02;0; -5.5768073E-02;  4.0070188E+04;  0.0000000E+00; -1.0688143E-02;  4.0000000E+04;  0.0000000E+00;  4.0006816E+04; -5.6486420E-02;  0.0000000E+00;  7.1834767E-04;  7.6618317E+02;
  1.5093598E-01;  9.9999998E-03; -5.9953146E-02;3385; -1.5906520E-02;  0.0000000E+00;  4.2422101E-04;  1.0011182E+03;  1.0000000E-01;  9.2639355E+02;3;  5.6044543E-01;  0.0000000E+00;  2.4779232E-02;0; -5.4024402E-02;  4.0077887E+04;  0.0000000E+00; -1.3136845E-02;  4.0000000E+04;  0.0000000E+00;  4.0009918E+04; -5.5489674E-02;  0.0000000E+00;  1.4652708E-03;  1.1389606E+03;
  1.5093598E-01;  9.9999998E-03;  5.9953146E-02;3397; -1.5906520E-02;  0.0000000E+00; -4.2422061E-04;  1.0011182E+03;  1.0000000E-01;  9.2639355E+02;3;  5.6045765E-01;  0.0000000E+00; -2.4824524E-02;0; -5.4024413E-02;  4.0077883E+04;  0.0000000E+00; -1.3135909E-02;  4.0000000E+04;  0.0000000E+00;  4.0009918E+04; -5.5489667E-02;  0.0000000E+00;  1.4652553E-03;  1.1389691E+03;
  1.5097292E-01;  9.9999998E-03; -6.9950663E-02;3384; -1.6012099E-02;  0.0000000E+00;  3.7943985E-04;  1.0012938E+03;  1.0000000E-01;  1.0718710E+03;3;  5.5909687E-01;  0.0000000E+00;  3.2259334E-02;0; -5.2301303E-02;  4.0088727E+04;  0.0000000E+00; -1.5430060E-02;  4.0000000E+04;  0.0000000E+00;  4.0013125E+04; -5.4292478E-02;  0.0000000E+00;  1.9911760E-03;  1.5374270E+03;
  1.5101427E-01;  9.9999998E-03; -7.9948932E-02;3383; -1.6134955E-02;  0.0000000E+00;  2.9454389E-04;  1.0015133E+03;  1.0000000E-01;  1.2537917E+03;3;  5.5573213E-01;  0.0000000E+00;  3.7329454E-02;0; -5.0716199E-02;  4.0103504E+04;  0.0000000E+00; -1.7616488E-02;  4.0000000E+04;  0.0000000E+00;  4.0016242E+04; -5.2920803E-02;  0.0000000E+00;  2.2046044E-03;  1.9034868E+03;
  1.5105930E-01;  9.9999998E-03; -8.9946844E-02;3382; -1.6274888E-02;  0.0000000E+00;  1.8466129E-04;  1.0017744E+03;  1.0000000E-01;  1.4699832E+03;3;  5.5018514E-01;  0.0000000E+00;  4.1075882E-02;0; -4.9365666E-02;  4.0122242E+04;  0.0000000E+00; -1.9337965E-02;  4.0000000E+04;  0.0000000E+00;  4.0018246E+04; -5.1423904E-02;  0.0000000E+00;  2.0582383E-03;  2.1597073E+03;
  1.5110764E-01;  9.9999998E-03; -9.9944413E-02;3381; -1.6424248E-02;  0.0000000E+00;  7.1095579E-05;  1.0020652E+03;  1.0000000E-01;  1.7110627E+03;3;  5.4555202E-01;  0.0000000E+00;  4.2827751E-02;0; -4.8312940E-02;  4.0145375E+04;  0.0000000E+00; -1.9448750E-02;  4.0000000E+04;  0.0000000E+00;  4.0019320E+04; -4.9874160E-02;  0.0000000E+00;  1.5612225E-03;  2.2225608E+03;
  1.6113541E-01;  9.9999998E-03; -9.9965066E-02;3442; -1.6995706E-02;  0.0000000E+00;  6.2396022E-05;  1.0009763E+03;  1.0000000E-01;  8.0886603E+02;3;  5.6995356E-01;  0.0000000E+00;  3.0753510E-02;0; -5.0264370E-02;  4.0057473E+04;  0.0000000E+00; -3.0352874E-02;  4.0000000E+04;  0.0000000E+00;  4.0017379E+04; -5.1672559E-02;  0.0000000E+00;  1.4081910E-03;  2.0890911E+03;
  1.6109124E-01;  9.9999998E-03; -8.9972310E-02;3443; -1.6901216E-02;  0.0000000E+00;  1.4488053E-04;  1.0006409E+03;  1.0000000E-01;  5.3094794E+02;3;  5.8042777E-01;  0.0000000E+00;  3.4840252E-02;0; -5.1580608E-02;  4.0031391E+04;  0.0000000E+00; -2.6628779E-02;  4.0000000E+04;  0.0000000E+00;  4.0016609E+04; -5.3456623E-02;  0.0000000E+00;  1.8760139E-03;  2.0063475E+03;
  1.6104555E-01;  9.9999998E-03; -7.9977095E-02;3444; -1.6805086E-02;  0.0000000E+00;  2.3543958E-04;  1.0003494E+03;  1.0000000E-01;  2.8947330E+02;3;  5.8756983E-01;  0.0000000E+00;  3.2833159E-02;0; -5.3128645E-02;  4.0010230E+04;  0.0000000E+00; -2.3675246E-02;  4.0000000E+04;  0.0000000E+00;  4.0014031E+04; -5.5143595E-02;  0.0000000E+00;  2.0149508E-03;  1.7317646E+03;
  1.6100180E-01;  9.9999998E-03; -6.9980159E-02;3445; -1.6711263E-02;  0.0000000E+00;  3.1513110E-04;  1.0001075E+03;  1.0000000E-01;  8.9083900E+01;3;  5.9208298E-01;  0.0000000E+00;  2.7842550E-02;0; -5.4847475E-02;  3.9994016E+04;  0.0000000E+00; -2.1473467E-02;  4.0000000E+04;  0.0000000E+00;  4.0010824E+04; -5.6663614E-02;  0.0000000E+00;  1.8161384E-03;  1.3500463E+03;
  1.6096205E-01;  9.9999998E-03; -5.9982106E-02;3446; -1.6623363E-02;  0.0000000E+00;  3.6416345E-04;  9.9992102E+02;  1.0000000E-01; -6.5430244E+01;3;  5.9635472E-01;  0.0000000E+00;  2.2791104E-02;0; -5.6648474E-02;  3.9982359E+04;  0.0000000E+00; -1.9367829E-02;  4.0000000E+04;  0.0000000E+00;  4.0007336E+04; -5.7971854E-02;  0.0000000E+00;  1.3233805E-03;  9.3974817E+02;
  1.6092776E-01;  9.9999998E-03; -4.9983684E-02;3447; -1.6543914E-02;  0.0000000E+00;  3.7329737E-04;  9.9978375E+02;  1.0000000E-01; -1.7915543E+02;3;  5.9898913E-01;  0.0000000E+00;  1.6952720E-02;0; -5.8425836E-02;  3.9974328E+04;  0.0000000E+00; -1.6629992E-02;  4.0000000E+04;  0.0000000E+00;  4.0004477E+04; -5.9047926E-02;  0.0000000E+00;  6.2209106E-04;  5.5958966E+02;
  1.6089891E-01;  9.9999998E-03; -3.9986011E-02;3448; -1.6474538E-02;  0.0000000E+00;  3.4410090E-04;  9.9968726E+02;  1.0000000E-01; -2.5910379E+02;3;  6.0125768E-01;  0.0000000E+00;  1.2707050E-02;0; -6.0067687E-02;  3.9969188E+04;  0.0000000E+00; -1.2926638E-02;  4.0000000E+04;  0.0000000E+00;  4.0001855E+04; -5.9890896E-02;  0.0000000E+00; -1.7679100E-04;  2.4293221E+02;
  1.6087601E-01;  9.9999998E-03; -2.9989950E-02;3449; -1.6416509E-02;  0.0000000E+00;  2.8480706E-04;  9.9962482E+02;  1.0000000E-01; -3.1085541E+02;3;  6.0280329E-01;  0.0000000E+00;  8.9986641E-03;0; -6.1468493E-02;  3.9966184E+04;  0.0000000E+00; -8.5361479E-03;  4.0000000E+04;  0.0000000E+00;  3.9999727E+04; -6.0514014E-02;  0.0000000E+00; -9.5447834E-04;  1.2264249E+01;
  1.6085880E-01;  9.9999998E-03; -1.9995021E-02;3450; -1.6372632E-02;  0.0000000E+00;  2.0227258E-04;  9.9958972E+02;  1.0000000E-01; -3.3989163E+02;3;  6.0350782E-01;  0.0000000E+00;  5.5912412E-03;0; -6.2538147E-02;  3.9964578E+04;  0.0000000E+00; -4.2689890E-03;  4.0000000E+04;  0.0000000E+00;  3.9998473E+04; -6.0937479E-02;  0.0000000E+00; -1.6006654E-03;  1.6993684E+02;
  1.6084772E-01;  9.9999998E-03; -9.9993134E-03;3451; -1.6345099E-02;  0.0000000E+00;  1.0491513E-04;  9.9956873E+02;  1.0000000E-01; -3.5732324E+02;3;  6.0408860E-01;  0.0000000E+00;  2.7833900E-03;0; -6.3208446E-02;  3.9963969E+04;  0.0000000E+00; -1.1468024E-03;  4.0000000E+04;  0.0000000E+00;  3.9997590E+04; -6.1181676E-02;  0.0000000E+00; -2.0267686E-03;  2.7112061E+02;
  1.6084364E-01;  9.9999998E-03; -1.7392922E-10;3452; -1.6335646E-02;  0.0000000E+00; -2.4304168E-09;  9.9956201E+02;  1.0000000E-01; -3.6285394E+02;3;  6.0415000E-01;  0.0000000E+00; -1.6065165E-05;0; -6.3436657E-02;  3.9963770E+04;  0.0000000E+00; -1.0335022E-14;  4.0000000E+04;  0.0000000E+00;  3.9997289E+04; -6.1261188E-02;  0.0000000E+00; -2.1754720E-03;  3.0511343E+02;
  1.6084772E-01;  9.9999998E-03;  9.9993134E-03;3453; -1.6345100E-02;  0.0000000E+00; -1.0491953E-04;  9.9956873E+02;  1.0000000E-01; -3.5732324E+02;3;  6.0413688E-01;  0.0000000E+00; -2.8212208E-03;0; -6.3208371E-02;  3.9963969E+04;  0.0000000E+00; -1.1468045E-03;  4.0000000E+04;  0.0000000E+00;  3.9997590E+04; -6.1181601E-02;  0.0000000E+00; -2.0267731E-03;  2.7111514E+02;
  1.6085880E-01;  9.9999998E-03;  1.9995021E-02;3454; -1.6372636E-02;  0.0000000E+00; -2.0227517E-04;  9.9958972E+02;  1.0000000E-01; -3.3989163E+02;3;  6.0346532E-01;  0.0000000E+00; -5.6128399E-03;0; -6.2538095E-02;  3.9964578E+04;  0.0000000E+00; -4.2687948E-03;  4.0000000E+04;  0.0000000E+00;  3.9998473E+04; -6.0937420E-02;  0.0000000E+00; -1.6006734E-03;  1.6992775E+02;
  1.6087601E-01;  9.9999998E-03;  2.9989948E-02;3455; -1.6416509E-02;  0.0000000E+00; -2.8480875E-04;  9.9962482E+02;  1.0000000E-01; -3.1085541E+02;3;  6.0281336E-01;  0.0000000E+00; -9.0240007E-03;0; -6.1468516E-02;  3.9966180E+04;  0.0000000E+00; -8.5361879E-03;  4.0000000E+04;  0.0000000E+00;  3.9999727E+04; -6.0514029E-02;  0.0000000E+00; -9.5448754E-04;  1.2264173E+01;
  1.6089891E-01;  9.9999998E-03;  3.9986011E-02;3456; -1.6474536E-02;  0.0000000E+00; -3.4410489E-04;  9.9968719E+02;  1.0000000E-01; -2.5915317E+02;3;  6.0120159E-01;  0.0000000E+00; -1.2733992E-02;0; -6.0067702E-02;  3.9969188E+04;  0.0000000E+00; -1.2925345E-02;  4.0000000E+04;  0.0000000E+00;  4.0001855E+04; -5.9890896E-02;  0.0000000E+00; -1.7680554E-04;  2.4293678E+02;
  1.6092776E-01;  9.9999998E-03;  4.9983684E-02;3457; -1.6543917E-02;  0.0000000E+00; -3.7329845E-04;  9.9978375E+02;  1.0000000E-01; -1.7915543E+02;3;  5.9896809E-01;  0.0000000E+00; -1.6965447E-02;0; -5.8425870E-02;  3.9974328E+04;  0.0000000E+00; -1.6630029E-02;  4.0000000E+04;  0.0000000E+00;  4.0004477E+04; -5.9047949E-02;  0.0000000E+00;  6.2207854E-04;  5.5959949E+02;
  1.6096205E-01;  9.9999998E-03;  5.9982106E-02;3458; -1.6623359E-02;  0.0000000E+00; -3.6416369E-04;  9.9992102E+02;  1.0000000E-01; -6.5430244E+01;3;  5.9637547E-01;  0.0000000E+00; -2.2808768E-02;0; -5.6648560E-02;  3.9982359E+04;  0.0000000E+00; -1.9365856E-02;  4.0000000E+04;  0.0000000E+00;  4.0007340E+04; -5.7971925E-02;  0.0000000E+00;  1.3233642E-03;  9.3976031E+02;
  1.7118280E-01;  9.9999998E-03; -1.0002532E-01;3503; -1.7663598E-02;  0.0000000E+00;  6.2815940E-05;  1.0000748E+03;  1.0000000E-01;  6.1924175E+01;3;  5.9119922E-01;  0.0000000E+00;  2.8693886E-02;0; -5.2237201E-02;  3.9986410E+04;  0.0000000E+00; -4.0128667E-02;  4.0000000E+04;  0.0000000E+00;  4.0015105E+04; -5.3601082E-02;  0.0000000E+00;  1.3638797E-03;  1.8726534E+03;
  1.7113379E-01;  9.9999998E-03; -9.0034187E-02;3504; -1.7627291E-02;  0.0000000E+00;  1.2277735E-04;  9.9972308E+02;  1.0000000E-01; -2.2942561E+02;3;  5.9900045E-01;  0.0000000E+00;  2.5901577E-02;0; -5.3731740E-02;  3.9959215E+04;  0.0000000E+00; -3.4353398E-02;  4.0000000E+04;  0.0000000E+00;  4.0013961E+04; -5.5537783E-02;  0.0000000E+00;  1.8060446E-03;  1.7641681E+03;
  1.7108637E-01;  9.9999998E-03; -8.0038682E-02;3505; -1.7582742E-02;  0.0000000E+00;  1.8954060E-04;  9.9942773E+02;  1.0000000E-01; -4.7411005E+02;3;  6.0663801E-01;  0.0000000E+00;  2.3170253E-02;0; -5.5390429E-02;  3.9937738E+04;  0.0000000E+00; -3.1691514E-02;  4.0000000E+04;  0.0000000E+00;  4.0011152E+04; -5.7332970E-02;  0.0000000E+00;  1.9425405E-03;  1.4694785E+03;
  1.7104384E-01;  9.9999998E-03; -7.0038512E-02;3506; -1.7528769E-02;  0.0000000E+00;  2.5408875E-04;  9.9918835E+02;  1.0000000E-01; -6.7242542E+02;3;  6.1405832E-01;  0.0000000E+00;  2.0775825E-02;0; -5.7156675E-02;  3.9921855E+04;  0.0000000E+00; -3.0507682E-02;  4.0000000E+04;  0.0000000E+00;  4.0007945E+04; -5.8922414E-02;  0.0000000E+00;  1.7657384E-03;  1.0738619E+03;
  1.7101030E-01;  9.9999998E-03; -6.0034566E-02;3507; -1.7466189E-02;  0.0000000E+00;  3.0138495E-04;  9.9901007E+02;  1.0000000E-01; -8.2012494E+02;3;  6.2055010E-01;  0.0000000E+00;  1.8774154E-02;0; -5.8952242E-02;  3.9910988E+04;  0.0000000E+00; -2.8957428E-02;  4.0000000E+04;  0.0000000E+00;  4.0004426E+04; -6.0268566E-02;  0.0000000E+00;  1.3163245E-03;  6.5726990E+02;
  1.7099303E-01;  9.9999998E-03; -5.0029043E-02;3508; -1.7401092E-02;  0.0000000E+00;  3.1760026E-04;  9.9888489E+02;  1.0000000E-01; -9.2382574E+02;3;  6.2501365E-01;  0.0000000E+00;  1.4897382E-02;0; -6.0686428E-02;  3.9904086E+04;  0.0000000E+00; -2.5689967E-02;  4.0000000E+04;  0.0000000E+00;  4.0001410E+04; -6.1359834E-02;  0.0000000E+00;  6.7340466E-04;  2.7937512E+02;
  1.7099653E-01;  9.9999998E-03; -4.0025078E-02;3509; -1.7339669E-02;  0.0000000E+00;  2.9907518E-04;  9.9880487E+02;  1.0000000E-01; -9.9014484E+02;3;  6.2848616E-01;  0.0000000E+00;  1.1483678E-02;0; -6.2264126E-02;  3.9900090E+04;  0.0000000E+00; -2.0323090E-02;  4.0000000E+04;  0.0000000E+00;  3.9999012E+04; -6.2204070E-02;  0.0000000E+00; -6.0055288E-05;  4.3750126E+01;
  1.7101300E-01;  9.9999998E-03; -3.0023234E-02;3510; -1.7286105E-02;  0.0000000E+00;  2.5078352E-04;  9.9875647E+02;  1.0000000E-01; -1.0302424E+03;3;  6.3059705E-01;  0.0000000E+00;  7.8670559E-03;0; -6.3595295E-02;  3.9898191E+04;  0.0000000E+00; -1.3527536E-02;  4.0000000E+04;  0.0000000E+00;  3.9997293E+04; -6.2821075E-02;  0.0000000E+00; -7.7421917E-04;  2.6602625E+02;
  1.7102653E-01;  9.9999998E-03; -2.0021107E-02;3511; -1.7243676E-02;  0.0000000E+00;  1.7967592E-04;  9.9872900E+02;  1.0000000E-01; -1.0530072E+03;3;  6.3216901E-01;  0.0000000E+00;  5.0219353E-03;0; -6.4602897E-02;  3.9897293E+04;  0.0000000E+00; -6.7818365E-03;  4.0000000E+04;  0.0000000E+00;  3.9995441E+04; -6.3235067E-02;  0.0000000E+00; -1.3678278E-03;  4.2751480E+02;
  1.7102653E-01;  9.9999998E-03; -1.0015302E-02;3512; -1.7215500E-02;  0.0000000E+00;  9.3503564E-05;  9.9871808E+02;  1.0000000E-01; -1.0620441E+03;3;  6.3296878E-01;  0.0000000E+00;  2.4725033E-03;0; -6.5229550E-02;  3.9897102E+04;  0.0000000E+00; -1.8219642E-03;  4.0000000E+04;  0.0000000E+00;  3.9994902E+04; -6.3469797E-02;  0.0000000E+00; -1.7597538E-03;  5.2491833E+02;
  1.7102519E-01;  9.9999998E-03; -1.7676381E-11;3513; -1.7205602E-02;  0.0000000E+00; -2.4181912E-09;  9.9871423E+02;  1.0000000E-01; -1.0652538E+03;3;  6.3329315E-01;  0.0000000E+00; -1.7335351E-05;0; -6.5442510E-02;  3.9897121E+04;  0.0000000E+00;  1.6028064E-12;  4.0000000E+04;  0.0000000E+00;  3.9994648E+04; -6.3545816E-02;  0.0000000E+00; -1.8966917E-03;  5.5806580E+02;
  1.7102653E-01;  9.9999998E-03;  1.0015302E-02;3514; -1.7215496E-02;  0.0000000E+00; -9.3508323E-05;  9.9871814E+02;  1.0000000E-01; -1.0619946E+03;3;  6.3307798E-01;  0.0000000E+00; -2.5096901E-03;0; -6.5229602E-02;  3.9897105E+04;  0.0000000E+00; -1.8219822E-03;  4.0000000E+04;  0.0000000E+00;  3.9994902E+04; -6.3469850E-02;  0.0000000E+00; -1.7597561E-03;  5.2491821E+02;
  1.7102653E-01;  9.9999998E-03;  2.0021107E-02;3515; -1.7243676E-02;  0.0000000E+00; -1.7967928E-04;  9.9872906E+02;  1.0000000E-01; -1.0529579E+03;3;  6.3216734E-01;  0.0000000E+00; -5.0442088E-03;0; -6.4602852E-02;  3.9897293E+04;  0.0000000E+00; -6.7818193E-03;  4.0000000E+04;  0.0000000E+00;  3.9995441E+04; -6.3235015E-02;  0.0000000E+00; -1.3678365E-03;  4.2750977E+02;
  1.7101300E-01;  9.9999998E-03;  3.0023234E-02;3516; -1.7286105E-02;  0.0000000E+00; -2.5078782E-04;  9.9875653E+02;  1.0000000E-01; -1.0301931E+03;3;  6.3067216E-01;  0.0000000E+00; -7.8944089E-03;0; -6.3595347E-02;  3.9898191E+04;  0.0000000E+00; -1.3528135E-02;  4.0000000E+04;  0.0000000E+00;  3.9997293E+04; -6.2821113E-02;  0.0000000E+00; -7.7423098E-04;  2.6602161E+02;
  1.7099653E-01;  9.9999998E-03;  4.0025078E-02;3517; -1.7339671E-02;  0.0000000E+00; -2.9907850E-04;  9.9880469E+02;  1.0000000E-01; -9.9029297E+02;3;  6.2850714E-01;  0.0000000E+00; -1.1499958E-02;0; -6.2264092E-02;  3.9900082E+04;  0.0000000E+00; -2.0322869E-02;  4.0000000E+04;  0.0000000E+00;  3.9999012E+04; -6.2204022E-02;  0.0000000E+00; -6.0070382E-05;  4.3743408E+01;
  1.7099303E-01;  9.9999998E-03;  5.0029043E-02;3518; -1.7401086E-02;  0.0000000E+00; -3.1760184E-04;  9.9888489E+02;  1.0000000E-01; -9.2382574E+02;3;  6.2505317E-01;  0.0000000E+00; -1.4881348E-02;0; -6.0686465E-02;  3.9904082E+04;  0.0000000E+00; -2.5691940E-02;  4.0000000E+04;  0.0000000E+00;  4.0001410E+04; -6.1359856E-02;  0.0000000E+00;  6.7338982E-04;  2.7938290E+02;
  1.7101030E-01;  9.9999998E-03;  6.0034566E-02;3519; -1.7466186E-02;  0.0000000E+00; -3.0138472E-04;  9.9901007E+02;  1.0000000E-01; -8.2012494E+02;3;  6.2065774E-01;  0.0000000E+00; -1.8780947E-02;0; -5.8952313E-02;  3.9910980E+04;  0.0000000E+00; -2.8954132E-02;  4.0000000E+04;  0.0000000E+00;  4.0004426E+04; -6.0268622E-02;  0.0000000E+00;  1.3163086E-03;  6.5728046E+02;
  1.8120602E-01;  9.9999998E-03; -1.0007271E-01;3564; -1.8424734E-02;  0.0000000E+00;  2.4297669E-05;  9.9941803E+02;  1.0000000E-01; -4.8215921E+02;3;  6.1696911E-01;  0.0000000E+00;  3.2641277E-02;0; -5.3622168E-02;  3.9935863E+04;  0.0000000E+00; -4.3013074E-02;  4.0000000E+04;  0.0000000E+00;  4.0011961E+04; -5.5066694E-02;  0.0000000E+00;  1.4445258E-03;  1.5624097E+03;
  1.8117836E-01;  9.9999998E-03; -9.0081461E-02;3565; -1.8441232E-02;  0.0000000E+00;  8.3659113E-05;  9.9908221E+02;  1.0000000E-01; -7.6037354E+02;3;  6.2551302E-01;  0.0000000E+00;  2.8621884E-02;0; -5.5189118E-02;  3.9910098E+04;  0.0000000E+00; -3.8060356E-02;  4.0000000E+04;  0.0000000E+00;  4.0010781E+04; -5.7051402E-02;  0.0000000E+00;  1.8622834E-03;  1.4264878E+03;
  1.8116477E-01;  9.9999998E-03; -8.0084540E-02;3566; -1.8443443E-02;  0.0000000E+00;  1.5055349E-04;  9.9880627E+02;  1.0000000E-01; -9.8895966E+02;3;  6.3371986E-01;  0.0000000E+00;  2.4494030E-02;0; -5.6850959E-02;  3.9890785E+04;  0.0000000E+00; -3.7940845E-02;  4.0000000E+04;  0.0000000E+00;  4.0007891E+04; -5.8849439E-02;  0.0000000E+00;  1.9984795E-03;  1.1155389E+03;
  1.8116653E-01;  9.9999998E-03; -7.0081182E-02;3567; -1.8427955E-02;  0.0000000E+00;  2.1282247E-04;  9.9860150E+02;  1.0000000E-01; -1.1586339E+03;3;  6.4130837E-01;  0.0000000E+00;  2.0108594E-02;0; -5.8557596E-02;  3.9877434E+04;  0.0000000E+00; -3.9182141E-02;  4.0000000E+04;  0.0000000E+00;  4.0004695E+04; -6.0405623E-02;  0.0000000E+00;  1.8480264E-03;  7.1508380E+02;
  1.8117917E-01;  9.9999998E-03; -6.0072299E-02;3568; -1.8395174E-02;  0.0000000E+00;  2.5783243E-04;  9.9845697E+02;  1.0000000E-01; -1.2783835E+03;3;  6.4773345E-01;  0.0000000E+00;  1.5711438E-02;0; -6.0242176E-02;  3.9869262E+04;  0.0000000E+00; -3.8806215E-02;  4.0000000E+04;  0.0000000E+00;  4.0001227E+04; -6.1692014E-02;  0.0000000E+00;  1.4498391E-03;  3.0715231E+02;
  1.8120077E-01;  9.9999998E-03; -5.0061271E-02;3569; -1.8349312E-02;  0.0000000E+00;  2.7402063E-04;  9.9837134E+02;  1.0000000E-01; -1.3492952E+03;3;  6.5297937E-01;  0.0000000E+00;  1.1785019E-02;0; -6.1829563E-02;  3.9865273E+04;  0.0000000E+00; -3.5079572E-02;  4.0000000E+04;  0.0000000E+00;  3.9998418E+04; -6.2706374E-02;  0.0000000E+00;  8.7681116E-04;  7.8140915E+01;
  1.8122829E-01;  9.9999998E-03; -4.0052574E-02;3570; -1.8297235E-02;  0.0000000E+00;  2.6009712E-04;  9.9832776E+02;  1.0000000E-01; -1.3854423E+03;3;  6.5697652E-01;  0.0000000E+00;  8.6835977E-03;0; -6.3244469E-02;  3.9864121E+04;  0.0000000E+00; -2.7865116E-02;  4.0000000E+04;  0.0000000E+00;  3.9996207E+04; -6.3466780E-02;  0.0000000E+00;  2.2231408E-04;  3.4550992E+02;
  1.8125954E-01;  9.9999998E-03; -3.0049052E-02;3571; -1.8246621E-02;  0.0000000E+00;  2.1952117E-04;  9.9831287E+02;  1.0000000E-01; -1.3977383E+03;3;  6.5989268E-01;  0.0000000E+00;  6.0964841E-03;0; -6.4419031E-02;  3.9864621E+04;  0.0000000E+00; -1.8506676E-02;  4.0000000E+04;  0.0000000E+00;  3.9994438E+04; -6.4004272E-02;  0.0000000E+00; -4.1476105E-04;  5.4853577E+02;
  1.8128486E-01;  9.9999998E-03; -2.0045714E-02;3572; -1.8204210E-02;  0.0000000E+00;  1.5818301E-04;  9.9831305E+02;  1.0000000E-01; -1.3975901E+03;3;  6.6190040E-01;  0.0000000E+00;  4.1187969E-03;0; -6.5298930E-02;  3.9865695E+04;  0.0000000E+00; -9.2502190E-03;  4.0000000E+04;  0.0000000E+00;  3.9993363E+04; -6.4354777E-02;  0.0000000E+00; -9.4415603E-04;  6.8658441E+02;
  1.8130071E-01;  9.9999998E-03; -1.0032273E-02;3573; -1.8175952E-02;  0.0000000E+00;  8.2624123E-05;  9.9831506E+02;  1.0000000E-01; -1.3959606E+03;3;  6.6310698E-01;  0.0000000E+00;  1.9370648E-03;0; -6.5844089E-02;  3.9866738E+04;  0.0000000E+00; -2.4824785E-03;  4.0000000E+04;  0.0000000E+00;  3.9992688E+04; -6.4550437E-02;  0.0000000E+00; -1.2936515E-03;  7.6963293E+02;
  1.8130839E-01;  9.9999998E-03;  9.4719579E-11;3574; -1.8166242E-02;  0.0000000E+00; -3.0057954E-09;  9.9831866E+02;  1.0000000E-01; -1.3929482E+03;3;  6.6343814E-01;  0.0000000E+00; -1.8350987E-05;0; -6.6028908E-02;  3.9867098E+04;  0.0000000E+00;  7.6114560E-13;  4.0000000E+04;  0.0000000E+00;  3.9992617E+04; -6.4613193E-02;  0.0000000E+00; -1.4157166E-03;  7.9829364E+02;
  1.8130071E-01;  9.9999998E-03;  1.0032273E-02;3575; -1.8175954E-02;  0.0000000E+00; -8.2629093E-05;  9.9831506E+02;  1.0000000E-01; -1.3959606E+03;3;  6.6311693E-01;  0.0000000E+00; -1.9668401E-03;0; -6.5844141E-02;  3.9866738E+04;  0.0000000E+00; -2.4827109E-03;  4.0000000E+04;  0.0000000E+00;  3.9992688E+04; -6.4550482E-02;  0.0000000E+00; -1.2936565E-03;  7.6963013E+02;
  1.8128486E-01;  9.9999998E-03;  2.0045714E-02;3576; -1.8204205E-02;  0.0000000E+00; -1.5818815E-04;  9.9831305E+02;  1.0000000E-01; -1.3975901E+03;3;  6.6188735E-01;  0.0000000E+00; -4.1456409E-03;0; -6.5298982E-02;  3.9865695E+04;  0.0000000E+00; -9.2504947E-03;  4.0000000E+04;  0.0000000E+00;  3.9993363E+04; -6.4354815E-02;  0.0000000E+00; -9.4416563E-04;  6.8658130E+02;
  1.8125954E-01;  9.9999998E-03;  3.0049052E-02;3577; -1.8246621E-02;  0.0000000E+00; -2.1952463E-04;  9.9831281E+02;  1.0000000E-01; -1.3977876E+03;3;  6.5994626E-01;  0.0000000E+00; -6.1177406E-03;0; -6.4419106E-02;  3.9864625E+04;  0.0000000E+00; -1.8507294E-02;  4.0000000E+04;  0.0000000E+00;  3.9994438E+04; -6.4004332E-02;  0.0000000E+00; -4.1477566E-04;  5.4852448E+02;
  1.8122829E-01;  9.9999998E-03;  4.0052574E-02;3578; -1.8297238E-02;  0.0000000E+00; -2.6010023E-04;  9.9832776E+02;  1.0000000E-01; -1.3854423E+03;3;  6.5697891E-01;  0.0000000E+00; -8.6993063E-03;0; -6.3244484E-02;  3.9864121E+04;  0.0000000E+00; -2.7864954E-02;  4.0000000E+04;  0.0000000E+00;  3.9996207E+04; -6.3466780E-02;  0.0000000E+00;  2.2229718E-04;  3.4549994E+02;
  1.8120077E-01;  9.9999998E-03;  5.0061271E-02;3579; -1.8349314E-02;  0.0000000E+00; -2.7402170E-04;  9.9837134E+02;  1.0000000E-01; -1.3492952E+03;3;  6.5296680E-01;  0.0000000E+00; -1.1767778E-02;0; -6.1829589E-02;  3.9865270E+04;  0.0000000E+00; -3.5080586E-02;  4.0000000E+04;  0.0000000E+00;  3.9998418E+04; -6.2706381E-02;  0.0000000E+00;  8.7679259E-04;  7.8132790E+01;
  1.8117917E-01;  9.9999998E-03;  6.0072299E-02;3580; -1.8395172E-02;  0.0000000E+00; -2.5783322E-04;  9.9845697E+02;  1.0000000E-01; -1.2783835E+03;3;  6.4774561E-01;  0.0000000E+00; -1.5705366E-02;0; -6.0242262E-02;  3.9869262E+04;  0.0000000E+00; -3.8807318E-02;  4.0000000E+04;  0.0000000E+00;  4.0001227E+04; -6.1692081E-02;  0.0000000E+00;  1.4498200E-03;  3.0716064E+02;
  1.9126482E-01;  9.9999998E-03; -1.0009392E-01;3625; -1.9246526E-02;  0.0000000E+00; -5.0591403E-05;  9.9903302E+02;  1.0000000E-01; -8.0111316E+02;3;  6.4325279E-01;  0.0000000E+00;  3.7356164E-02;0; -5.3793605E-02;  3.9908203E+04;  0.0000000E+00; -3.1836033E-02;  4.0000000E+04;  0.0000000E+00;  4.0008621E+04; -5.5449340E-02;  0.0000000E+00;  1.6557340E-03;  1.1721498E+03;
  1.9128411E-01;  9.9999998E-03; -9.0099856E-02;3626; -1.9316610E-02;  0.0000000E+00;  1.8112791E-05;  9.9875043E+02;  1.0000000E-01; -1.0352300E+03;3;  6.5260947E-01;  0.0000000E+00;  3.1470180E-02;0; -5.5293247E-02;  3.9886789E+04;  0.0000000E+00; -3.1561844E-02;  4.0000000E+04;  0.0000000E+00;  4.0007023E+04; -5.7341781E-02;  0.0000000E+00;  2.0485329E-03;  1.0097592E+03;
  1.9131199E-01;  9.9999998E-03; -8.0100350E-02;3627; -1.9363226E-02;  0.0000000E+00;  9.3849827E-05;  9.9853625E+02;  1.0000000E-01; -1.2127064E+03;3;  6.6182971E-01;  0.0000000E+00;  2.4964035E-02;0; -5.6815807E-02;  3.9872391E+04;  0.0000000E+00; -3.6362302E-02;  4.0000000E+04;  0.0000000E+00;  4.0004473E+04; -5.8999933E-02;  0.0000000E+00;  2.1841268E-03;  6.9025824E+02;
  1.9134150E-01;  9.9999998E-03; -7.0095234E-02;3628; -1.9380761E-02;  0.0000000E+00;  1.6296045E-04;  9.9839215E+02;  1.0000000E-01; -1.3320610E+03;3;  6.7010498E-01;  0.0000000E+00;  1.9027410E-02;0; -5.8322154E-02;  3.9864109E+04;  0.0000000E+00; -4.1264609E-02;  4.0000000E+04;  0.0000000E+00;  4.0001184E+04; -6.0383614E-02;  0.0000000E+00;  2.0614609E-03;  3.0148309E+02;
  1.9136713E-01;  9.9999998E-03; -6.0084704E-02;3629; -1.9368414E-02;  0.0000000E+00;  2.1089875E-04;  9.9831464E+02;  1.0000000E-01; -1.3963062E+03;3;  6.7682034E-01;  0.0000000E+00;  1.4486948E-02;0; -5.9763201E-02;  3.9860855E+04;  0.0000000E+00; -4.2754687E-02;  4.0000000E+04;  0.0000000E+00;  3.9997973E+04; -6.1481681E-02;  0.0000000E+00;  1.7184790E-03;  1.0914709E+02;
  1.9138756E-01;  9.9999998E-03; -5.0071977E-02;3630; -1.9332290E-02;  0.0000000E+00;  2.3110324E-04;  9.9828986E+02;  1.0000000E-01; -1.4167994E+03;3;  6.8230087E-01;  0.0000000E+00;  1.0570806E-02;0; -6.1085772E-02;  3.9861426E+04;  0.0000000E+00; -3.9291374E-02;  4.0000000E+04;  0.0000000E+00;  3.9995492E+04; -6.2307552E-02;  0.0000000E+00;  1.2217786E-03;  4.1568674E+02;
  1.9140527E-01;  9.9999998E-03; -4.0060442E-02;3631; -1.9281771E-02;  0.0000000E+00;  2.2163120E-04;  9.9830145E+02;  1.0000000E-01; -1.4072195E+03;3;  6.8646514E-01;  0.0000000E+00;  7.8482693E-03;0; -6.2239286E-02;  3.9864223E+04;  0.0000000E+00; -3.1294718E-02;  4.0000000E+04;  0.0000000E+00;  3.9993797E+04; -6.2893540E-02;  0.0000000E+00;  6.5425423E-04;  6.4867688E+02;
  1.9142880E-01;  9.9999998E-03; -3.0056128E-02;3632; -1.9228771E-02;  0.0000000E+00;  1.8775664E-04;  9.9833142E+02;  1.0000000E-01; -1.3823806E+03;3;  6.8960190E-01;  0.0000000E+00;  5.6640529E-03;0; -6.3178085E-02;  3.9868027E+04;  0.0000000E+00; -2.0731373E-02;  4.0000000E+04;  0.0000000E+00;  3.9992473E+04; -6.3281000E-02;  0.0000000E+00;  1.0291293E-04;  8.0297418E+02;
  1.9145629E-01;  9.9999998E-03; -2.0053769E-02;3633; -1.9183299E-02;  0.0000000E+00;  1.3547869E-04;  9.9836823E+02;  1.0000000E-01; -1.3519124E+03;3;  6.9186068E-01;  0.0000000E+00;  3.6339490E-03;0; -6.3869350E-02;  3.9871656E+04;  0.0000000E+00; -1.0328469E-02;  4.0000000E+04;  0.0000000E+00;  3.9991574E+04; -6.3515402E-02;  0.0000000E+00; -3.5394393E-04;  8.9903204E+02;
  1.9147801E-01;  9.9999998E-03; -1.0038964E-02;3634; -1.9152757E-02;  0.0000000E+00;  7.0847993E-05;  9.9839276E+02;  1.0000000E-01; -1.3315673E+03;3;  6.9308943E-01;  0.0000000E+00;  1.8347725E-03;0; -6.4292572E-02;  3.9874188E+04;  0.0000000E+00; -2.7662846E-03;  4.0000000E+04;  0.0000000E+00;  3.9991371E+04; -6.3637599E-02;  0.0000000E+00; -6.5497152E-04;  9.5406110E+02;
  1.9148755E-01;  9.9999998E-03;  1.7833728E-10;3635; -1.9142121E-02;  0.0000000E+00; -3.3349532E-09;  9.9840350E+02;  1.0000000E-01; -1.3226786E+03;3;  6.9355971E-01;  0.0000000E+00; -2.0928883E-05;0; -6.4434901E-02;  3.9875242E+04;  0.0000000E+00; -3.8643473E-13;  4.0000000E+04;  0.0000000E+00;  3.9991293E+04; -6.3674837E-02;  0.0000000E+00; -7.6006009E-04;  9.7291992E+02;
  1.9147801E-01;  9.9999998E-03;  1.0038965E-02;3636; -1.9152757E-02;  0.0000000E+00; -7.0854345E-05;  9.9839270E+02;  1.0000000E-01; -1.3316167E+03;3;  6.9300711E-01;  0.0000000E+00; -1.8687325E-03;0; -6.4292625E-02;  3.9874188E+04;  0.0000000E+00; -2.7665384E-03;  4.0000000E+04;  0.0000000E+00;  3.9991371E+04; -6.3637644E-02;  0.0000000E+00; -6.5497687E-04;  9.5405670E+02;
  1.9145629E-01;  9.9999998E-03;  2.0053770E-02;3637; -1.9183302E-02;  0.0000000E+00; -1.3548443E-04;  9.9836823E+02;  1.0000000E-01; -1.3519124E+03;3;  6.9181335E-01;  0.0000000E+00; -3.6619976E-03;0; -6.3869357E-02;  3.9871656E+04;  0.0000000E+00; -1.0328866E-02;  4.0000000E+04;  0.0000000E+00;  3.9991574E+04; -6.3515402E-02;  0.0000000E+00; -3.5395531E-04;  8.9902740E+02;
  1.9142880E-01;  9.9999998E-03;  3.0056130E-02;3638; -1.9228771E-02;  0.0000000E+00; -1.8776135E-04;  9.9833142E+02;  1.0000000E-01; -1.3823806E+03;3;  6.8955016E-01;  0.0000000E+00; -5.6835036E-03;0; -6.3178048E-02;  3.9868031E+04;  0.0000000E+00; -2.0731837E-02;  4.0000000E+04;  0.0000000E+00;  3.9992473E+04; -6.3280940E-02;  0.0000000E+00;  1.0289409E-04;  8.0296436E+02;
  1.9140527E-01;  9.9999998E-03;  4.0060442E-02;3639; -1.9281775E-02;  0.0000000E+00; -2.2163491E-04;  9.9830133E+02;  1.0000000E-01; -1.4073182E+03;3;  6.8653691E-01;  0.0000000E+00; -7.8655835E-03;0; -6.2239319E-02;  3.9864215E+04;  0.0000000E+00; -3.1296570E-02;  4.0000000E+04;  0.0000000E+00;  3.9993797E+04; -6.2893555E-02;  0.0000000E+00;  6.5423379E-04;  6.4866437E+02;
  1.9138756E-01;  9.9999998E-03;  5.0071977E-02;3640; -1.9332293E-02;  0.0000000E+00; -2.3110532E-04;  9.9828986E+02;  1.0000000E-01; -1.4167994E+03;3;  6.8230057E-01;  0.0000000E+00; -1.0567605E-02;0; -6.1085809E-02;  3.9861426E+04;  0.0000000E+00; -3.9292831E-02;  4.0000000E+04;  0.0000000E+00;  3.9995492E+04; -6.2307566E-02;  0.0000000E+00;  1.2217585E-03;  4.1567157E+02;
  1.9136713E-01;  9.9999998E-03;  6.0084704E-02;3641; -1.9368412E-02;  0.0000000E+00; -2.1090076E-04;  9.9831470E+02;  1.0000000E-01; -1.3962568E+03;3;  6.7680663E-01;  0.0000000E+00; -1.4482884E-02;0; -5.9763215E-02;  3.9860848E+04;  0.0000000E+00; -4.2755548E-02;  4.0000000E+04;  0.0000000E+00;  3.9997973E+04; -6.1481677E-02;  0.0000000E+00;  1.7184601E-03;  1.0913668E+02;
  2.0137161E-01;  9.9999998E-03; -1.0009462E-01;3686; -2.0090843E-02;  0.0000000E+00; -1.4964520E-04;  9.9894568E+02;  1.0000000E-01; -8.7350616E+02;3;  6.7043883E-01;  0.0000000E+00;  4.0749326E-02;0; -5.2098900E-02;  3.9904812E+04;  0.0000000E+00; -2.5506455E-03;  4.0000000E+04;  0.0000000E+00;  4.0005109E+04; -5.4090843E-02;  0.0000000E+00;  1.9919442E-03;  7.3316412E+02;
  2.0142575E-01;  9.9999998E-03; -9.0094849E-02;3687; -2.0211913E-02;  0.0000000E+00; -5.6520174E-05;  9.9874908E+02;  1.0000000E-01; -1.0363657E+03;3;  6.8195570E-01;  0.0000000E+00;  3.0512756E-02;0; -5.3369258E-02;  3.9890664E+04;  0.0000000E+00; -1.0589123E-02;  4.0000000E+04;  0.0000000E+00;  4.0003457E+04; -5.5725269E-02;  0.0000000E+00;  2.3560107E-03;  5.4897742E+02;
  2.0147943E-01;  9.9999998E-03; -8.0088809E-02;3688; -2.0296067E-02;  0.0000000E+00;  3.5253266E-05;  9.9862671E+02;  1.0000000E-01; -1.1377456E+03;3;  6.9133449E-01;  0.0000000E+00;  2.3723682E-02;0; -5.4598071E-02;  3.9883398E+04;  0.0000000E+00; -2.2111509E-02;  4.0000000E+04;  0.0000000E+00;  4.0000977E+04; -5.7085510E-02;  0.0000000E+00;  2.4874383E-03;  2.3134009E+02;
  2.0152733E-01;  9.9999998E-03; -7.0076115E-02;3689; -2.0336676E-02;  0.0000000E+00;  1.0935307E-04;  9.9857123E+02;  1.0000000E-01; -1.1837196E+03;3;  6.9946414E-01;  0.0000000E+00;  1.8534657E-02;0; -5.5762433E-02;  3.9881871E+04;  0.0000000E+00; -3.1578284E-02;  4.0000000E+04;  0.0000000E+00;  3.9997902E+04; -5.8153089E-02;  0.0000000E+00;  2.3906571E-03;  1.4884492E+02;
  2.0156039E-01;  9.9999998E-03; -6.0057312E-02;3690; -2.0335181E-02;  0.0000000E+00;  1.5784075E-04;  9.9857129E+02;  1.0000000E-01; -1.1836702E+03;3;  7.0632625E-01;  0.0000000E+00;  1.3897338E-02;0; -5.6835528E-02;  3.9884750E+04;  0.0000000E+00; -3.5855591E-02;  4.0000000E+04;  0.0000000E+00;  3.9994941E+04; -5.8938969E-02;  0.0000000E+00;  2.1034414E-03;  4.8783981E+02;
  2.0157556E-01;  9.9999998E-03; -5.0035555E-02;3691; -2.0300668E-02;  0.0000000E+00;  1.8009414E-04;  9.9861780E+02;  1.0000000E-01; -1.1451528E+03;3;  7.1189976E-01;  0.0000000E+00;  1.0335371E-02;0; -5.7789847E-02;  3.9890449E+04;  0.0000000E+00; -3.4140207E-02;  4.0000000E+04;  0.0000000E+00;  3.9993125E+04; -5.9475992E-02;  0.0000000E+00;  1.6861449E-03;  7.5073615E+02;
  2.0158049E-01;  9.9999998E-03; -4.0016506E-02;3692; -2.0245606E-02;  0.0000000E+00;  1.7561876E-04;  9.9869073E+02;  1.0000000E-01; -1.0847101E+03;3;  7.1625948E-01;  0.0000000E+00;  7.8201247E-03;0; -5.8597710E-02;  3.9897711E+04;  0.0000000E+00; -2.7507937E-02;  4.0000000E+04;  0.0000000E+00;  3.9991516E+04; -5.9808768E-02;  0.0000000E+00;  1.2110572E-03;  9.1777899E+02;
  2.0159039E-01;  9.9999998E-03; -3.0008741E-02;3693; -2.0185236E-02;  0.0000000E+00;  1.4994029E-04;  9.9876941E+02;  1.0000000E-01; -1.0195267E+03;3;  7.1965748E-01;  0.0000000E+00;  5.5789510E-03;0; -5.9233893E-02;  3.9904695E+04;  0.0000000E+00; -1.8241910E-02;  4.0000000E+04;  0.0000000E+00;  3.9991316E+04; -5.9985995E-02;  0.0000000E+00;  7.5210334E-04;  1.0045312E+03;
  2.0160475E-01;  9.9999998E-03; -2.0009018E-02;3694; -2.0132141E-02;  0.0000000E+00;  1.0859651E-04;  9.9883911E+02;  1.0000000E-01; -9.6175055E+02;3;  7.2193789E-01;  0.0000000E+00;  3.5117257E-03;0; -5.9688233E-02;  3.9910789E+04;  0.0000000E+00; -9.0582436E-03;  4.0000000E+04;  0.0000000E+00;  3.9990879E+04; -6.0062110E-02;  0.0000000E+00;  3.7387939E-04;  1.0410475E+03;
  2.0161749E-01;  9.9999998E-03; -1.0008940E-02;3695; -2.0096105E-02;  0.0000000E+00;  5.6939123E-05;  9.9889032E+02;  1.0000000E-01; -9.1933203E+02;3;  7.2334576E-01;  0.0000000E+00;  1.6659455E-03;0; -5.9959460E-02;  3.9914734E+04;  0.0000000E+00; -2.4156151E-03;  4.0000000E+04;  0.0000000E+00;  3.9990836E+04; -6.0085423E-02;  0.0000000E+00;  1.2596391E-04;  1.0539761E+03;
  2.0162469E-01;  9.9999998E-03;  3.1096434E-10;3696; -2.0083563E-02;  0.0000000E+00; -3.7092536E-09;  9.9890741E+02;  1.0000000E-01; -9.0520898E+02;3;  7.2387099E-01;  0.0000000E+00; -1.9431438E-05;0; -6.0048368E-02;  3.9916027E+04;  0.0000000E+00; -7.1523424E-13;  4.0000000E+04;  0.0000000E+00;  3.9990844E+04; -6.0088225E-02;  0.0000000E+00;  3.9856703E-05;  1.0573429E+03;
  2.0161749E-01;  9.9999998E-03;  1.0008941E-02;3697; -2.0096106E-02;  0.0000000E+00; -5.6946159E-05;  9.9889032E+02;  1.0000000E-01; -9.1933203E+02;3;  7.2341108E-01;  0.0000000E+00; -1.7030014E-03;0; -5.9959460E-02;  3.9914734E+04;  0.0000000E+00; -2.4160335E-03;  4.0000000E+04;  0.0000000E+00;  3.9990836E+04; -6.0085416E-02;  0.0000000E+00;  1.2595637E-04;  1.0539707E+03;
  2.0160475E-01;  9.9999998E-03;  2.0009020E-02;3698; -2.0132137E-02;  0.0000000E+00; -1.0860326E-04;  9.9883911E+02;  1.0000000E-01; -9.6175055E+02;3;  7.2198659E-01;  0.0000000E+00; -3.5417627E-03;0; -5.9688240E-02;  3.9910789E+04;  0.0000000E+00; -9.0586720E-03;  4.0000000E+04;  0.0000000E+00;  3.9990879E+04; -6.0062107E-02;  0.0000000E+00;  3.7386621E-04;  1.0410391E+03;
  2.0159039E-01;  9.9999998E-03;  3.0008743E-02;3699; -2.0185236E-02;  0.0000000E+00; -1.4994608E-04;  9.9876941E+02;  1.0000000E-01; -1.0195267E+03;3;  7.1961111E-01;  0.0000000E+00; -5.6006671E-03;0; -5.9233904E-02;  3.9904695E+04;  0.0000000E+00; -1.8242637E-02;  4.0000000E+04;  0.0000000E+00;  3.9991316E+04; -5.9985988E-02;  0.0000000E+00;  7.5208361E-04;  1.0045154E+03;
  2.0158049E-01;  9.9999998E-03;  4.0016510E-02;3700; -2.0245610E-02;  0.0000000E+00; -1.7562333E-04;  9.9869080E+02;  1.0000000E-01; -1.0846606E+03;3;  7.1621925E-01;  0.0000000E+00; -7.8311423E-03;0; -5.8597755E-02;  3.9897715E+04;  0.0000000E+00; -2.7508138E-02;  4.0000000E+04;  0.0000000E+00;  3.9991516E+04; -5.9808791E-02;  0.0000000E+00;  1.2110356E-03;  9.1777063E+02;
  2.0157556E-01;  9.9999998E-03;  5.0035555E-02;3701; -2.0300673E-02;  0.0000000E+00; -1.8009702E-04;  9.9861780E+02;  1.0000000E-01; -1.1451528E+03;3;  7.1188092E-01;  0.0000000E+00; -1.0325440E-02;0; -5.7789881E-02;  3.9890453E+04;  0.0000000E+00; -3.4141354E-02;  4.0000000E+04;  0.0000000E+00;  3.9993125E+04; -5.9476003E-02;  0.0000000E+00;  1.6861222E-03;  7.5072455E+02;
  2.0156039E-01;  9.9999998E-03;  6.0057316E-02;3702; -2.0335181E-02;  0.0000000E+00; -1.5784423E-04;  9.9857129E+02;  1.0000000E-01; -1.1836702E+03;3;  7.0633137E-01;  0.0000000E+00; -1.3889856E-02;0; -5.6835584E-02;  3.9884750E+04;  0.0000000E+00; -3.5853971E-02;  4.0000000E+04;  0.0000000E+00;  3.9994945E+04; -5.8939002E-02;  0.0000000E+00;  2.1034169E-03;  4.8782803E+02;
  2.1159454E-01;  9.9999998E-03; -1.0004175E-01;3747; -2.0937314E-02;  0.0000000E+00; -2.3572370E-04;  9.9915613E+02;  1.0000000E-01; -6.9914075E+02;3;  7.0120430E-01;  0.0000000E+00;  3.8711537E-02;0; -4.7878470E-02;  3.9925613E+04;  0.0000000E+00;  4.2213149E-02;  4.0000000E+04;  0.0000000E+00;  4.0001418E+04; -5.0317630E-02;  0.0000000E+00;  2.4391597E-03;  2.7698404E+02;
  2.1167500E-01;  9.9999998E-03; -9.0031326E-02;3748; -2.1096824E-02;  0.0000000E+00; -1.2731562E-04;  9.9907495E+02;  1.0000000E-01; -7.6639807E+02;3;  7.1085185E-01;  0.0000000E+00;  3.1380814E-02;0; -4.8760608E-02;  3.9920707E+04;  0.0000000E+00;  2.3672156E-02;  4.0000000E+04;  0.0000000E+00;  3.9999938E+04; -5.1526636E-02;  0.0000000E+00;  2.7660271E-03;  7.5977386E+01;
  2.1171820E-01;  9.9999998E-03; -8.0022201E-02;3749; -2.1201795E-02;  0.0000000E+00; -2.8641940E-05;  9.9905591E+02;  1.0000000E-01; -7.8215070E+02;3;  7.2021788E-01;  0.0000000E+00;  2.3179194E-02;0; -4.9564574E-02;  3.9921723E+04;  0.0000000E+00;  5.0169649E-03;  4.0000000E+04;  0.0000000E+00;  3.9997363E+04; -5.2449554E-02;  0.0000000E+00;  2.8849791E-03;  2.3852171E+02;
  2.1172738E-01;  9.9999998E-03; -7.0011638E-02;3750; -2.1248426E-02;  0.0000000E+00;  4.3976634E-05;  9.9908875E+02;  1.0000000E-01; -7.5494159E+02;3;  7.2814721E-01;  0.0000000E+00;  1.8069685E-02;0; -5.0287910E-02;  3.9927078E+04;  0.0000000E+00; -9.0590231E-03;  4.0000000E+04;  0.0000000E+00;  3.9994766E+04; -5.3095650E-02;  0.0000000E+00;  2.8077415E-03;  5.6900323E+02;
  2.1171081E-01;  9.9999998E-03; -5.9997078E-02;3751; -2.1244243E-02;  0.0000000E+00;  9.4862102E-05;  9.9916711E+02;  1.0000000E-01; -6.9005457E+02;3;  7.3485047E-01;  0.0000000E+00;  1.3688366E-02;0; -5.0920021E-02;  3.9935617E+04;  0.0000000E+00; -1.6785754E-02;  4.0000000E+04;  0.0000000E+00;  3.9992629E+04; -5.3492580E-02;  0.0000000E+00;  2.5725602E-03;  8.5149847E+02;
  2.1167871E-01;  9.9999998E-03; -4.9980476E-02;3752; -2.1200286E-02;  0.0000000E+00;  1.2013508E-04;  9.9927429E+02;  1.0000000E-01; -6.0121759E+02;3;  7.4029469E-01;  0.0000000E+00;  1.0250248E-02;0; -5.1449995E-02;  3.9945719E+04;  0.0000000E+00; -1.8487869E-02;  4.0000000E+04;  0.0000000E+00;  3.9991098E+04; -5.3683773E-02;  0.0000000E+00;  2.2337772E-03;  1.0406335E+03;
  2.1164609E-01;  9.9999998E-03; -3.9968494E-02;3753; -2.1133158E-02;  0.0000000E+00;  1.2273614E-04;  9.9939587E+02;  1.0000000E-01; -5.0052905E+02;3;  7.4524403E-01;  0.0000000E+00;  7.8323968E-03;0; -5.1866960E-02;  3.9956125E+04;  0.0000000E+00; -1.5735704E-02;  4.0000000E+04;  0.0000000E+00;  3.9990672E+04; -5.3719521E-02;  0.0000000E+00;  1.8525617E-03;  1.1281801E+03;
  2.1162640E-01;  9.9999998E-03; -2.9968346E-02;3754; -2.1059947E-02;  0.0000000E+00;  1.0758941E-04;  9.9951294E+02;  1.0000000E-01; -4.0354413E+02;3;  7.4879706E-01;  0.0000000E+00;  5.4834108E-03;0; -5.2166231E-02;  3.9965688E+04;  0.0000000E+00; -1.0644179E-02;  4.0000000E+04;  0.0000000E+00;  3.9990629E+04; -5.3654622E-02;  0.0000000E+00;  1.4883911E-03;  1.1385248E+03;
  2.1161674E-01;  9.9999998E-03; -1.9976184E-02;3755; -2.0995300E-02;  0.0000000E+00;  7.8999510E-05;  9.9961145E+02;  1.0000000E-01; -3.2191681E+02;3;  7.5146329E-01;  0.0000000E+00;  3.6059385E-03;0; -5.2361436E-02;  3.9973305E+04;  0.0000000E+00; -5.3143958E-03;  4.0000000E+04;  0.0000000E+00;  3.9990840E+04; -5.3552389E-02;  0.0000000E+00;  1.1909523E-03;  1.1097045E+03;
  2.1161172E-01;  9.9999998E-03; -9.9872975E-03;3756; -2.0951137E-02;  0.0000000E+00;  4.1604599E-05;  9.9967554E+02;  1.0000000E-01; -2.6883191E+02;3;  7.5299978E-01;  0.0000000E+00;  1.8749968E-03;0; -5.2470747E-02;  3.9978230E+04;  0.0000000E+00; -1.4172250E-03;  4.0000000E+04;  0.0000000E+00;  3.9991172E+04; -5.3467944E-02;  0.0000000E+00;  9.9719514E-04;  1.0772450E+03;
  2.1161069E-01;  9.9999998E-03;  3.9483880E-10;3757; -2.0935539E-02;  0.0000000E+00; -3.9262744E-09;  9.9969995E+02;  1.0000000E-01; -2.4858556E+02;3;  7.5358474E-01;  0.0000000E+00; -1.6224680E-05;0; -5.2505262E-02;  3.9979941E+04;  0.0000000E+00; -4.8353807E-13;  4.0000000E+04;  0.0000000E+00;  3.9991348E+04; -5.3435348E-02;  0.0000000E+00;  9.3008624E-04;  1.0640156E+03;
  2.1161172E-01;  9.9999998E-03;  9.9872984E-03;3758; -2.0951137E-02;  0.0000000E+00; -4.1611918E-05;  9.9967554E+02;  1.0000000E-01; -2.6883191E+02;3;  7.5301027E-01;  0.0000000E+00; -1.9057228E-03;0; -5.2470829E-02;  3.9978234E+04;  0.0000000E+00; -1.4174997E-03;  4.0000000E+04;  0.0000000E+00;  3.9991172E+04; -5.3468015E-02;  0.0000000E+00;  9.9718734E-04;  1.0772373E+03;
  2.1161674E-01;  9.9999998E-03;  1.9976184E-02;3759; -2.0995298E-02;  0.0000000E+00; -7.9006495E-05;  9.9961145E+02;  1.0000000E-01; -3.2191681E+02;3;  7.5150979E-01;  0.0000000E+00; -3.6384405E-03;0; -5.2361421E-02;  3.9973301E+04;  0.0000000E+00; -5.3151646E-03;  4.0000000E+04;  0.0000000E+00;  3.9990840E+04; -5.3552356E-02;  0.0000000E+00;  1.1909348E-03;  1.1097003E+03;
  2.1162640E-01;  9.9999998E-03;  2.9968347E-02;3760; -2.1059943E-02;  0.0000000E+00; -1.0759624E-04;  9.9951294E+02;  1.0000000E-01; -4.0354413E+02;3;  7.4885219E-01;  0.0000000E+00; -5.5065546E-03;0; -5.2166283E-02;  3.9965688E+04;  0.0000000E+00; -1.0644923E-02;  4.0000000E+04;  0.0000000E+00;  3.9990629E+04; -5.3654652E-02;  0.0000000E+00;  1.4883686E-03;  1.1385176E+03;
  2.1164609E-01;  9.9999998E-03;  3.9968498E-02;3761; -2.1133158E-02;  0.0000000E+00; -1.2274146E-04;  9.9939594E+02;  1.0000000E-01; -5.0047968E+02;3;  7.4516857E-01;  0.0000000E+00; -7.8394329E-03;0; -5.1867034E-02;  3.9956121E+04;  0.0000000E+00; -1.5736097E-02;  4.0000000E+04;  0.0000000E+00;  3.9990672E+04; -5.3719569E-02;  0.0000000E+00;  1.8525363E-03;  1.1281792E+03;
  2.1167871E-01;  9.9999998E-03;  4.9980476E-02;3762; -2.1200288E-02;  0.0000000E+00; -1.2014023E-04;  9.9927435E+02;  1.0000000E-01; -6.0116821E+02;3;  7.4033290E-01;  0.0000000E+00; -1.0258134E-02;0; -5.1450014E-02;  3.9945715E+04;  0.0000000E+00; -1.8489676E-02;  4.0000000E+04;  0.0000000E+00;  3.9991098E+04; -5.3683762E-02;  0.0000000E+00;  2.2337476E-03;  1.0406191E+03;
  2.1171081E-01;  9.9999998E-03;  5.9997082E-02;3763; -2.1244245E-02;  0.0000000E+00; -9.4865754E-05;  9.9916711E+02;  1.0000000E-01; -6.9005457E+02;3;  7.3480809E-01;  0.0000000E+00; -1.3687079E-02;0; -5.0920025E-02;  3.9935617E+04;  0.0000000E+00; -1.6789345E-02;  4.0000000E+04;  0.0000000E+00;  3.9992625E+04; -5.3492561E-02;  0.0000000E+00;  2.5725358E-03;  8.5148804E+02;
  2.2176710E-01;  9.9999998E-03; -9.9987432E-02;3808; -2.1735180E-02;  0.0000000E+00; -3.1556824E-04;  9.9963098E+02;  1.0000000E-01; -3.0571976E+02;3;  7.2897369E-01;  0.0000000E+00;  3.9595872E-02;0; -4.0665589E-02;  3.9967543E+04;  0.0000000E+00;  9.2528149E-02;  4.0000000E+04;  0.0000000E+00;  3.9998289E+04; -4.3619614E-02;  0.0000000E+00;  2.9540260E-03;  2.1421889E+02;
  2.2178945E-01;  9.9999998E-03; -8.9987822E-02;3809; -2.1911975E-02;  0.0000000E+00; -2.0443081E-04;  9.9965729E+02;  1.0000000E-01; -2.8394260E+02;3;  7.3932767E-01;  0.0000000E+00;  3.1402305E-02;0; -4.1100532E-02;  3.9971500E+04;  0.0000000E+00;  6.4061232E-02;  4.0000000E+04;  0.0000000E+00;  3.9996695E+04; -4.4331070E-02;  0.0000000E+00;  3.2305401E-03;  3.8719388E+02;
  2.2177924E-01;  9.9999998E-03; -7.9987511E-02;3810; -2.2022376E-02;  0.0000000E+00; -1.0616028E-04;  9.9973163E+02;  1.0000000E-01; -2.2236407E+02;3;  7.4792057E-01;  0.0000000E+00;  2.4574224E-02;0; -4.1424192E-02;  3.9979656E+04;  0.0000000E+00;  3.9954528E-02;  4.0000000E+04;  0.0000000E+00;  3.9994625E+04; -4.4752423E-02;  0.0000000E+00;  3.3282295E-03;  6.6344006E+02;
  2.2174434E-01;  9.9999998E-03; -6.9983192E-02;3811; -2.2066740E-02;  0.0000000E+00; -3.1577692E-05;  9.9984253E+02;  1.0000000E-01; -1.3046544E+02;3;  7.5544804E-01;  0.0000000E+00;  1.7783346E-02;0; -4.1649491E-02;  3.9990715E+04;  0.0000000E+00;  2.2596076E-02;  4.0000000E+04;  0.0000000E+00;  3.9992320E+04; -4.4914655E-02;  0.0000000E+00;  3.2651648E-03;  9.4620105E+02;
  2.2169217E-01;  9.9999998E-03; -5.9974115E-02;3812; -2.2053137E-02;  0.0000000E+00;  2.0731761E-05;  9.9997906E+02;  1.0000000E-01; -1.7332844E+01;3;  7.6158619E-01;  0.0000000E+00;  1.3035551E-02;0; -4.1785710E-02;  4.0003418E+04;  0.0000000E+00;  1.1656906E-02;  4.0000000E+04;  0.0000000E+00;  3.9990684E+04; -4.4864841E-02;  0.0000000E+00;  3.0791315E-03;  1.1642294E+03;
  2.2163154E-01;  9.9999998E-03; -4.9962204E-02;3813; -2.1996334E-02;  0.0000000E+00;  5.1946743E-05;  1.0001304E+03;  1.0000000E-01;  1.0804633E+02;3;  7.6669610E-01;  0.0000000E+00;  8.8096643E-03;0; -4.1842535E-02;  4.0016609E+04;  0.0000000E+00;  5.5666235E-03;  4.0000000E+04;  0.0000000E+00;  3.9989734E+04; -4.4660315E-02;  0.0000000E+00;  2.8177814E-03;  1.2785293E+03;
  2.2157639E-01;  9.9999998E-03; -3.9955769E-02;3814; -2.1914015E-02;  0.0000000E+00;  6.4568987E-05;  1.0002820E+03;  1.0000000E-01;  2.3357364E+02;3;  7.7046525E-01;  0.0000000E+00;  6.2402315E-03;0; -4.1829359E-02;  4.0029055E+04;  0.0000000E+00;  2.5394724E-03;  4.0000000E+04;  0.0000000E+00;  3.9990047E+04; -4.4360019E-02;  0.0000000E+00;  2.5306619E-03;  1.2888052E+03;
  2.2153699E-01;  9.9999998E-03; -2.9960422E-02;3815; -2.1824833E-02;  0.0000000E+00;  6.1424122E-05;  1.0004245E+03;  1.0000000E-01;  3.5169376E+02;3;  7.7368814E-01;  0.0000000E+00;  4.5100036E-03;0; -4.1763715E-02;  4.0039773E+04;  0.0000000E+00;  1.1367472E-03;  4.0000000E+04;  0.0000000E+00;  3.9990469E+04; -4.4025984E-02;  0.0000000E+00;  2.2622701E-03;  1.2266643E+03;
  2.2151084E-01;  9.9999998E-03; -1.9971555E-02;3816; -2.1746203E-02;  0.0000000E+00;  4.7040790E-05;  1.0005357E+03;  1.0000000E-01;  4.4383929E+02;3;  7.7590495E-01;  0.0000000E+00;  2.8689529E-03;0; -4.1681685E-02;  4.0048137E+04;  0.0000000E+00;  4.5785648E-04;  4.0000000E+04;  0.0000000E+00;  3.9991234E+04; -4.3728657E-02;  0.0000000E+00;  2.0469711E-03;  1.1372969E+03;
  2.2149555E-01;  9.9999998E-03; -9.9852998E-03;3817; -2.1692475E-02;  0.0000000E+00;  2.5401410E-05;  1.0006102E+03;  1.0000000E-01;  5.0546719E+02;3;  7.7722108E-01;  0.0000000E+00;  1.2149011E-03;0; -4.1616965E-02;  4.0053340E+04;  0.0000000E+00;  1.1224164E-04;  4.0000000E+04;  0.0000000E+00;  3.9991887E+04; -4.3525603E-02;  0.0000000E+00;  1.9086363E-03;  1.0639821E+03;
  2.2149119E-01;  9.9999998E-03;  4.1650311E-10;3818; -2.1673426E-02;  0.0000000E+00; -4.3626449E-09;  1.0006343E+03;  1.0000000E-01;  5.2551599E+02;3;  7.7693284E-01;  0.0000000E+00; -2.3619594E-05;0; -4.1591808E-02;  4.0055191E+04;  0.0000000E+00; -3.3817223E-13;  4.0000000E+04;  0.0000000E+00;  3.9992164E+04; -4.3452915E-02;  0.0000000E+00;  1.8611073E-03;  1.0362198E+03;
  2.2149555E-01;  9.9999998E-03;  9.9853007E-03;3819; -2.1692475E-02;  0.0000000E+00; -2.5408644E-05;  1.0006101E+03;  1.0000000E-01;  5.0546719E+02;3;  7.7722347E-01;  0.0000000E+00; -1.2383006E-03;0; -4.1616961E-02;  4.0053340E+04;  0.0000000E+00;  1.1192154E-04;  4.0000000E+04;  0.0000000E+00;  3.9991887E+04; -4.3525588E-02;  0.0000000E+00;  1.9086254E-03;  1.0639794E+03;
  2.2151084E-01;  9.9999998E-03;  1.9971557E-02;3820; -2.1746209E-02;  0.0000000E+00; -4.7048034E-05;  1.0005358E+03;  1.0000000E-01;  4.4383929E+02;3;  7.7581626E-01;  0.0000000E+00; -2.8977792E-03;0; -4.1681703E-02;  4.0048137E+04;  0.0000000E+00;  4.5737342E-04;  4.0000000E+04;  0.0000000E+00;  3.9991234E+04; -4.3728653E-02;  0.0000000E+00;  2.0469509E-03;  1.1372927E+03;
  2.2153699E-01;  9.9999998E-03;  2.9960424E-02;3821; -2.1824835E-02;  0.0000000E+00; -6.1430968E-05;  1.0004245E+03;  1.0000000E-01;  3.5169376E+02;3;  7.7371746E-01;  0.0000000E+00; -4.5361258E-03;0; -4.1763771E-02;  4.0039773E+04;  0.0000000E+00;  1.1365212E-03;  4.0000000E+04;  0.0000000E+00;  3.9990469E+04; -4.4026013E-02;  0.0000000E+00;  2.2622424E-03;  1.2266538E+03;
  2.2157639E-01;  9.9999998E-03;  3.9955769E-02;3822; -2.1914018E-02;  0.0000000E+00; -6.4574699E-05;  1.0002820E+03;  1.0000000E-01;  2.3357364E+02;3;  7.7043021E-01;  0.0000000E+00; -6.2415572E-03;0; -4.1829340E-02;  4.0029055E+04;  0.0000000E+00;  2.5388624E-03;  4.0000000E+04;  0.0000000E+00;  3.9990047E+04; -4.4359975E-02;  0.0000000E+00;  2.5306342E-03;  1.2887896E+03;
  2.2163154E-01;  9.9999998E-03;  4.9962208E-02;3823; -2.1996334E-02;  0.0000000E+00; -5.1951731E-05;  1.0001304E+03;  1.0000000E-01;  1.0804633E+02;3;  7.6667684E-01;  0.0000000E+00; -8.8308221E-03;0; -4.1842576E-02;  4.0016605E+04;  0.0000000E+00;  5.5651665E-03;  4.0000000E+04;  0.0000000E+00;  3.9989738E+04; -4.4660326E-02;  0.0000000E+00;  2.8177483E-03;  1.2785167E+03;
  2.2169217E-01;  9.9999998E-03;  5.9974119E-02;3824; -2.2053134E-02;  0.0000000E+00; -2.0735391E-05;  9.9997900E+02;  1.0000000E-01; -1.7382225E+01;3;  7.6152229E-01;  0.0000000E+00; -1.3042639E-02;0; -4.1785710E-02;  4.0003418E+04;  0.0000000E+00;  1.1656817E-02;  4.0000000E+04;  0.0000000E+00;  3.9990680E+04; -4.4864807E-02;  0.0000000E+00;  3.0790963E-03;  1.1642213E+03;
  2.3178780E-01;  9.9999998E-03; -9.9973656E-02;3869; -2.2447480E-02;  0.0000000E+00; -3.9896768E-04;  1.0002869E+03;  1.0000000E-01;  2.3762289E+02;3;  7.5530452E-01;  0.0000000E+00;  4.1081481E-02;0; -3.0289721E-02;  4.0023504E+04;  0.0000000E+00;  1.3610844E-01;  4.0000000E+04;  0.0000000E+00;  3.9995520E+04; -3.3774849E-02;  0.0000000E+00;  3.4851285E-03;  5.9600989E+02;
  2.3176596E-01;  9.9999998E-03; -8.9981556E-02;3870; -2.2632735E-02;  0.0000000E+00; -2.9148621E-04;  1.0004055E+03;  1.0000000E-01;  3.3589172E+02;3;  7.6528060E-01;  0.0000000E+00;  3.1543363E-02;0; -3.0223843E-02;  4.0034797E+04;  0.0000000E+00;  1.0187120E-01;  4.0000000E+04;  0.0000000E+00;  3.9994059E+04; -3.3927362E-02;  0.0000000E+00;  3.7035197E-03;  7.9248132E+02;
  2.3172276E-01;  9.9999998E-03; -7.9985790E-02;3871; -2.2742309E-02;  0.0000000E+00; -2.0146409E-04;  1.0005504E+03;  1.0000000E-01;  4.5598706E+02;3;  7.7335197E-01;  0.0000000E+00;  2.3855288E-02;0; -3.0013995E-02;  4.0048641E+04;  0.0000000E+00;  7.6109581E-02;  4.0000000E+04;  0.0000000E+00;  3.9992062E+04; -3.3787239E-02;  0.0000000E+00;  3.7732439E-03;  1.0499452E+03;
  2.3166238E-01;  9.9999998E-03; -6.9983795E-02;3872; -2.2778511E-02;  0.0000000E+00; -1.2818130E-04;  1.0007128E+03;  1.0000000E-01;  5.9060052E+02;3;  7.7994454E-01;  0.0000000E+00;  1.5695399E-02;0; -2.9693531E-02;  4.0063609E+04;  0.0000000E+00;  5.7974398E-02;  4.0000000E+04;  0.0000000E+00;  3.9990281E+04; -3.3412196E-02;  0.0000000E+00;  3.7186646E-03;  1.2885000E+03;
  2.3159011E-01;  9.9999998E-03; -5.9975792E-02;3873; -2.2751436E-02;  0.0000000E+00; -7.1399329E-05;  1.0008840E+03;  1.0000000E-01;  7.3232489E+02;3;  7.8533447E-01;  0.0000000E+00;  1.0705373E-02;0; -2.9293275E-02;  4.0078723E+04;  0.0000000E+00;  4.4866189E-02;  4.0000000E+04;  0.0000000E+00;  3.9988953E+04; -3.2870628E-02;  0.0000000E+00;  3.5773532E-03;  1.4455690E+03;
  2.3151466E-01;  9.9999998E-03; -4.9964875E-02;3874; -2.2677904E-02;  0.0000000E+00; -2.8804187E-05;  1.0010557E+03;  1.0000000E-01;  8.7464185E+02;3;  7.8997672E-01;  0.0000000E+00;  8.0996761E-03;0; -2.8842788E-02;  4.0093078E+04;  0.0000000E+00;  3.4199666E-02;  4.0000000E+04;  0.0000000E+00;  3.9988602E+04; -3.2233380E-02;  0.0000000E+00;  3.3905916E-03;  1.4903492E+03;
  2.3145027E-01;  9.9999998E-03; -3.9959520E-02;3875; -2.2577345E-02;  0.0000000E+00; -2.9362732E-06;  1.0012216E+03;  1.0000000E-01;  1.0120207E+03;3;  7.9362309E-01;  0.0000000E+00;  6.1308369E-03;0; -2.8368771E-02;  4.0105867E+04;  0.0000000E+00;  2.4422692E-02;  4.0000000E+04;  0.0000000E+00;  3.9989418E+04; -3.1565163E-02;  0.0000000E+00;  3.1963913E-03;  1.4307144E+03;
  2.3140445E-01;  9.9999998E-03; -2.9963734E-02;3876; -2.2470590E-02;  0.0000000E+00;  9.7289976E-06;  1.0013672E+03;  1.0000000E-01;  1.1327086E+03;3;  7.9642266E-01;  0.0000000E+00;  4.0563787E-03;0; -2.7912276E-02;  4.0116648E+04;  0.0000000E+00;  1.5239259E-02;  4.0000000E+04;  0.0000000E+00;  3.9990406E+04; -3.0936325E-02;  0.0000000E+00;  3.0240496E-03;  1.3046680E+03;
  2.3137479E-01;  9.9999998E-03; -1.9973582E-02;3877; -2.2376835E-02;  0.0000000E+00;  1.2327476E-05;  1.0014853E+03;  1.0000000E-01;  1.2305824E+03;3;  7.9846001E-01;  0.0000000E+00;  2.4978393E-03;0; -2.7530599E-02;  4.0124777E+04;  0.0000000E+00;  7.3523670E-03;  4.0000000E+04;  0.0000000E+00;  3.9991645E+04; -3.0422820E-02;  0.0000000E+00;  2.8922213E-03;  1.1634337E+03;
  2.3135804E-01;  9.9999998E-03; -9.9862060E-03;3878; -2.2312902E-02;  0.0000000E+00;  7.9248503E-06;  1.0015577E+03;  1.0000000E-01;  1.2905312E+03;3;  8.0018508E-01;  0.0000000E+00;  1.2261565E-03;0; -2.7277159E-02;  4.0129863E+04;  0.0000000E+00;  1.9355011E-03;  4.0000000E+04;  0.0000000E+00;  3.9992406E+04; -3.0087804E-02;  0.0000000E+00;  2.8106458E-03;  1.0560032E+03;
  2.3135309E-01;  9.9999998E-03;  3.5769751E-10;3879; -2.2290299E-02;  0.0000000E+00; -4.6047628E-09;  1.0015840E+03;  1.0000000E-01;  1.3122590E+03;3;  8.0064458E-01;  0.0000000E+00; -1.7397133E-05;0; -2.7187556E-02;  4.0131656E+04;  0.0000000E+00; -8.8816882E-13;  4.0000000E+04;  0.0000000E+00;  3.9992777E+04; -2.9970761E-02;  0.0000000E+00;  2.7832051E-03;  1.0162722E+03;
  2.3135804E-01;  9.9999998E-03;  9.9862069E-03;3880; -2.2312902E-02;  0.0000000E+00; -7.9333868E-06;  1.0015577E+03;  1.0000000E-01;  1.2905312E+03;3;  8.0013150E-01;  0.0000000E+00; -1.2562010E-03;0; -2.7277179E-02;  4.0129863E+04;  0.0000000E+00;  1.9353420E-03;  4.0000000E+04;  0.0000000E+00;  3.9992406E+04; -3.0087814E-02;  0.0000000E+00;  2.8106340E-03;  1.0559966E+03;
  2.3137479E-01;  9.9999998E-03;  1.9973584E-02;3881; -2.2376835E-02;  0.0000000E+00; -1.2336201E-05;  1.0014853E+03;  1.0000000E-01;  1.2305824E+03;3;  7.9842097E-01;  0.0000000E+00; -2.5322349E-03;0; -2.7530635E-02;  4.0124777E+04;  0.0000000E+00;  7.3520206E-03;  4.0000000E+04;  0.0000000E+00;  3.9991645E+04; -3.0422835E-02;  0.0000000E+00;  2.8921997E-03;  1.1634308E+03;
  2.3140445E-01;  9.9999998E-03;  2.9963734E-02;3882; -2.2470584E-02;  0.0000000E+00; -9.7370839E-06;  1.0013672E+03;  1.0000000E-01;  1.1327086E+03;3;  7.9650557E-01;  0.0000000E+00; -4.0734257E-03;0; -2.7912308E-02;  4.0116652E+04;  0.0000000E+00;  1.5238950E-02;  4.0000000E+04;  0.0000000E+00;  3.9990406E+04; -3.0936327E-02;  0.0000000E+00;  3.0240202E-03;  1.3046599E+03;
  2.3145027E-01;  9.9999998E-03;  3.9959520E-02;3883; -2.2577344E-02;  0.0000000E+00;  2.9281630E-06;  1.0012216E+03;  1.0000000E-01;  1.0120207E+03;3;  7.9363632E-01;  0.0000000E+00; -6.1508045E-03;0; -2.8368782E-02;  4.0105867E+04;  0.0000000E+00;  2.4421988E-02;  4.0000000E+04;  0.0000000E+00;  3.9989418E+04; -3.1565137E-02;  0.0000000E+00;  3.1963554E-03;  1.4306993E+03;
  2.3151466E-01;  9.9999998E-03;  4.9964875E-02;3884; -2.2677902E-02;  0.0000000E+00;  2.8797778E-05;  1.0010557E+03;  1.0000000E-01;  8.7464185E+02;3;  7.9000056E-01;  0.0000000E+00; -8.0969455E-03;0; -2.8842738E-02;  4.0093078E+04;  0.0000000E+00;  3.4199983E-02;  4.0000000E+04;  0.0000000E+00;  3.9988602E+04; -3.2233290E-02;  0.0000000E+00;  3.3905532E-03;  1.4903405E+03;
  2.3159011E-01;  9.9999998E-03;  5.9975795E-02;3885; -2.2751430E-02;  0.0000000E+00;  7.1394250E-05;  1.0008840E+03;  1.0000000E-01;  7.3232489E+02;3;  7.8534156E-01;  0.0000000E+00; -1.0692126E-02;0; -2.9293265E-02;  4.0078723E+04;  0.0000000E+00;  4.4868045E-02;  4.0000000E+04;  0.0000000E+00;  3.9988953E+04; -3.2870587E-02;  0.0000000E+00;  3.5773218E-03;  1.4455614E+03;
  2.4172691E-01;  9.9999998E-03; -9.9983029E-02;3930; -2.3065146E-02;  0.0000000E+00; -4.7500344E-04;  1.0010319E+03;  1.0000000E-01;  8.5488934E+02;3;  7.8152776E-01;  0.0000000E+00;  4.1667193E-02;0; -1.6680405E-02;  4.0086824E+04;  0.0000000E+00;  1.6449098E-01;  4.0000000E+04;  0.0000000E+00;  3.9993121E+04; -2.0669483E-02;  0.0000000E+00;  3.9890776E-03;  9.6120306E+02;
  2.4168132E-01;  9.9999998E-03; -8.9991629E-02;3931; -2.3250306E-02;  0.0000000E+00; -3.8063020E-04;  1.0012139E+03;  1.0000000E-01;  1.0056999E+03;3;  7.8979516E-01;  0.0000000E+00;  3.1835776E-02;0; -1.6072877E-02;  4.0103434E+04;  0.0000000E+00;  1.3036820E-01;  4.0000000E+04;  0.0000000E+00;  3.9991488E+04; -2.0214442E-02;  0.0000000E+00;  4.1415645E-03;  1.1752241E+03;
  2.4162053E-01;  9.9999998E-03; -7.9995289E-02;3932; -2.3352567E-02;  0.0000000E+00; -3.0833844E-04;  1.0014009E+03;  1.0000000E-01;  1.1605597E+03;3;  7.9774457E-01;  0.0000000E+00;  2.2072431E-02;0; -1.5300354E-02;  4.0120559E+04;  0.0000000E+00;  1.0716513E-01;  4.0000000E+04;  0.0000000E+00;  3.9989668E+04; -1.9475501E-02;  0.0000000E+00;  4.1751470E-03;  1.4174783E+03;
  2.4154800E-01;  9.9999998E-03; -6.9992237E-02;3933; -2.3378382E-02;  0.0000000E+00; -2.4894689E-04;  1.0015880E+03;  1.0000000E-01;  1.3156171E+03;3;  8.0379814E-01;  0.0000000E+00;  1.4854747E-02;0; -1.4412224E-02;  4.0137152E+04;  0.0000000E+00;  9.0795860E-02;  4.0000000E+04;  0.0000000E+00;  3.9988277E+04; -1.8533625E-02;  0.0000000E+00;  4.1214000E-03;  1.6156796E+03;
  2.4146919E-01;  9.9999998E-03; -5.9983235E-02;3934; -2.3339128E-02;  0.0000000E+00; -2.0019355E-04;  1.0017685E+03;  1.0000000E-01;  1.4651437E+03;3;  8.0832863E-01;  0.0000000E+00;  9.1647273E-03;0; -1.3456122E-02;  4.0152578E+04;  0.0000000E+00;  7.6788455E-02;  4.0000000E+04;  0.0000000E+00;  3.9987422E+04; -1.7474441E-02;  0.0000000E+00;  4.0183188E-03;  1.7167334E+03;
  2.4139252E-01;  9.9999998E-03; -4.9971811E-02;3935; -2.3250284E-02;  0.0000000E+00; -1.5754932E-04;  1.0019432E+03;  1.0000000E-01;  1.6099297E+03;3;  8.1137061E-01;  0.0000000E+00;  4.4981590E-03;0; -1.2479804E-02;  4.0166324E+04;  0.0000000E+00;  6.2073272E-02;  4.0000000E+04;  0.0000000E+00;  3.9987824E+04; -1.6381014E-02;  0.0000000E+00;  3.9012097E-03;  1.6992158E+03;
  2.4132915E-01;  9.9999998E-03; -3.9965980E-02;3936; -2.3129499E-02;  0.0000000E+00; -1.1493955E-04;  1.0021001E+03;  1.0000000E-01;  1.7399012E+03;3;  8.1389314E-01;  0.0000000E+00;  1.3432375E-03;0; -1.1532762E-02;  4.0178129E+04;  0.0000000E+00;  4.5753494E-02;  4.0000000E+04;  0.0000000E+00;  3.9988793E+04; -1.5329148E-02;  0.0000000E+00;  3.7963856E-03;  1.5787848E+03;
  2.4128366E-01;  9.9999998E-03; -2.9968617E-02;3937; -2.2998909E-02;  0.0000000E+00; -7.0979724E-05;  1.0022366E+03;  1.0000000E-01;  1.8529845E+03;3;  8.1659096E-01;  0.0000000E+00; -2.8745550E-05;0; -1.0679902E-02;  4.0187691E+04;  0.0000000E+00;  2.8937956E-02;  4.0000000E+04;  0.0000000E+00;  3.9990297E+04; -1.4397916E-02;  0.0000000E+00;  3.7180150E-03;  1.3990798E+03;
  2.4125370E-01;  9.9999998E-03; -1.9976679E-02;3938; -2.2884574E-02;  0.0000000E+00; -3.7093017E-05;  1.0023414E+03;  1.0000000E-01;  1.9397969E+03;3;  8.2065582E-01;  0.0000000E+00;  1.5732169E-03;0; -9.9983979E-03;  4.0194691E+04;  0.0000000E+00;  1.4019566E-02;  4.0000000E+04;  0.0000000E+00;  3.9991855E+04; -1.3667185E-02;  0.0000000E+00;  3.6687865E-03;  1.2159448E+03;
  2.4123675E-01;  9.9999998E-03; -9.9875815E-03;3939; -2.2808155E-02;  0.0000000E+00; -1.5494108E-05;  1.0024064E+03;  1.0000000E-01;  1.9936224E+03;3;  8.2288569E-01;  0.0000000E+00;  1.0347459E-03;0; -9.5573170E-03;  4.0198840E+04;  0.0000000E+00;  3.6928984E-03;  4.0000000E+04;  0.0000000E+00;  3.9992984E+04; -1.3201104E-02;  0.0000000E+00;  3.6437868E-03;  1.0818423E+03;
  2.4123140E-01;  9.9999998E-03;  3.1096206E-10;3940; -2.2781089E-02;  0.0000000E+00; -3.7426413E-09;  1.0024285E+03;  1.0000000E-01;  2.0119923E+03;3;  8.2376832E-01;  0.0000000E+00; -9.3732597E-06;0; -9.4043296E-03;  4.0200328E+04;  0.0000000E+00; -1.2095369E-12;  4.0000000E+04;  0.0000000E+00;  3.9993309E+04; -1.3040747E-02;  0.0000000E+00;  3.6364174E-03;  1.0329288E+03;
  2.4123675E-01;  9.9999998E-03;  9.9875825E-03;3941; -2.2808157E-02;  0.0000000E+00;  1.5484829E-05;  1.0024063E+03;  1.0000000E-01;  1.9936224E+03;3;  8.2286090E-01;  0.0000000E+00; -1.0644074E-03;0; -9.5573217E-03;  4.0198840E+04;  0.0000000E+00;  3.6929077E-03;  4.0000000E+04;  0.0000000E+00;  3.9992984E+04; -1.3201094E-02;  0.0000000E+00;  3.6437728E-03;  1.0818412E+03;
  2.4125370E-01;  9.9999998E-03;  1.9976679E-02;3942; -2.2884572E-02;  0.0000000E+00;  3.7084003E-05;  1.0023414E+03;  1.0000000E-01;  1.9397969E+03;3;  8.2070392E-01;  0.0000000E+00; -1.6030263E-03;0; -9.9983970E-03;  4.0194691E+04;  0.0000000E+00;  1.4019697E-02;  4.0000000E+04;  0.0000000E+00;  3.9991855E+04; -1.3667160E-02;  0.0000000E+00;  3.6687630E-03;  1.2159366E+03;
  2.4128366E-01;  9.9999998E-03;  2.9968619E-02;3943; -2.2998903E-02;  0.0000000E+00;  7.0969909E-05;  1.0022366E+03;  1.0000000E-01;  1.8529845E+03;3;  8.1666160E-01;  0.0000000E+00;  1.7381260E-05;0; -1.0679938E-02;  4.0187691E+04;  0.0000000E+00;  2.8937653E-02;  4.0000000E+04;  0.0000000E+00;  3.9990297E+04; -1.4397923E-02;  0.0000000E+00;  3.7179850E-03;  1.3990697E+03;
  2.4132913E-01;  9.9999998E-03;  3.9965980E-02;3944; -2.3129495E-02;  0.0000000E+00;  1.1492974E-04;  1.0021001E+03;  1.0000000E-01;  1.7399012E+03;3;  8.1390387E-01;  0.0000000E+00; -1.3605786E-03;0; -1.1532790E-02;  4.0178137E+04;  0.0000000E+00;  4.5752663E-02;  4.0000000E+04;  0.0000000E+00;  3.9988797E+04; -1.5329137E-02;  0.0000000E+00;  3.7963465E-03;  1.5787831E+03;
  2.4139252E-01;  9.9999998E-03;  4.9971811E-02;3945; -2.3250286E-02;  0.0000000E+00;  1.5753979E-04;  1.0019433E+03;  1.0000000E-01;  1.6100284E+03;3;  8.1133294E-01;  0.0000000E+00; -4.4796546E-03;0; -1.2479795E-02;  4.0166328E+04;  0.0000000E+00;  6.2074188E-02;  4.0000000E+04;  0.0000000E+00;  3.9987824E+04; -1.6380962E-02;  0.0000000E+00;  3.9011666E-03;  1.6992069E+03;
  2.4146919E-01;  9.9999998E-03;  5.9983235E-02;3946; -2.3339128E-02;  0.0000000E+00;  2.0018537E-04;  1.0017684E+03;  1.0000000E-01;  1.4651437E+03;3;  8.0835187E-01;  0.0000000E+00; -9.1524012E-03;0; -1.3456114E-02;  4.0152578E+04;  0.0000000E+00;  7.6788805E-02;  4.0000000E+04;  0.0000000E+00;  3.9987422E+04; -1.7474392E-02;  0.0000000E+00;  4.0182793E-03;  1.7167319E+03;
  2.5163448E-01;  9.9999998E-03; -9.9999331E-02;3991; -2.3582093E-02;  0.0000000E+00; -5.4015801E-04;  1.0017863E+03;  1.0000000E-01;  1.4798593E+03;3;  8.0414325E-01;  0.0000000E+00;  4.1967794E-02;0;  4.0581916E-05;  4.0150965E+04;  0.0000000E+00;  1.7325126E-01;  4.0000000E+04;  0.0000000E+00;  3.9990809E+04; -4.3804622E-03;  0.0000000E+00;  4.4210441E-03;  1.3222831E+03;
  2.5157595E-01;  9.9999998E-03; -9.0005562E-02;3992; -2.3759726E-02;  0.0000000E+00; -4.6480927E-04;  1.0020012E+03;  1.0000000E-01;  1.6579283E+03;3;  8.1208986E-01;  0.0000000E+00;  3.1860922E-02;0;  1.1949234E-03;  4.0170227E+04;  0.0000000E+00;  1.4453676E-01;  4.0000000E+04;  0.0000000E+00;  3.9989031E+04; -3.3043746E-03;  0.0000000E+00;  4.4992981E-03;  1.5537402E+03;
  2.5150830E-01;  9.9999998E-03; -8.0006473E-02;3993; -2.3850758E-02;  0.0000000E+00; -4.1093869E-04;  1.0022002E+03;  1.0000000E-01;  1.8228619E+03;3;  8.1811714E-01;  0.0000000E+00;  2.2146692E-02;0;  2.5243983E-03;  4.0188250E+04;  0.0000000E+00;  1.2708046E-01;  4.0000000E+04;  0.0000000E+00;  3.9987105E+04; -1.9629635E-03;  0.0000000E+00;  4.4873618E-03;  1.7810392E+03;
  2.5143418E-01;  9.9999998E-03; -7.0001230E-02;3994; -2.3862906E-02;  0.0000000E+00; -3.7415998E-04;  1.0023835E+03;  1.0000000E-01;  1.9747588E+03;3;  8.2356787E-01;  0.0000000E+00;  1.5261963E-02;0;  3.9673327E-03;  4.0204215E+04;  0.0000000E+00;  1.1429045E-01;  4.0000000E+04;  0.0000000E+00;  3.9986113E+04; -4.5738526E-04;  0.0000000E+00;  4.4247177E-03;  1.9405193E+03;
  2.5135776E-01;  9.9999998E-03; -5.9991006E-02;3995; -2.3809813E-02;  0.0000000E+00; -3.4337415E-04;  1.0025499E+03;  1.0000000E-01;  2.1125327E+03;3;  8.2743639E-01;  0.0000000E+00;  8.9493403E-03;0;  5.4603266E-03;  4.0217938E+04;  0.0000000E+00;  1.0063062E-01;  4.0000000E+04;  0.0000000E+00;  3.9985996E+04;  1.1101206E-03;  0.0000000E+00;  4.3502059E-03;  1.9896836E+03;
  2.5128528E-01;  9.9999998E-03; -4.9979571E-02;3996; -2.3707528E-02;  0.0000000E+00; -3.1068092E-04;  1.0026988E+03;  1.0000000E-01;  2.2358872E+03;3;  8.3029813E-01;  0.0000000E+00;  4.5254552E-03;0;  6.9367597E-03;  4.0229582E+04;  0.0000000E+00;  8.3149135E-02;  4.0000000E+04;  0.0000000E+00;  3.9986523E+04;  2.6430576E-03;  0.0000000E+00;  4.2937021E-03;  1.9171160E+03;
  2.5122547E-01;  9.9999998E-03; -3.9973423E-02;3997; -2.3574661E-02;  0.0000000E+00; -2.6996914E-04;  1.0028317E+03;  1.0000000E-01;  2.3460076E+03;3;  8.3293664E-01;  0.0000000E+00; -4.4840112E-04;0;  8.3277766E-03;  4.0238684E+04;  0.0000000E+00;  6.1864544E-02;  4.0000000E+04;  0.0000000E+00;  3.9987910E+04;  4.0570735E-03;  0.0000000E+00;  4.2707031E-03;  1.7458202E+03;
  2.5118181E-01;  9.9999998E-03; -2.9974453E-02;3998; -2.3429971E-02;  0.0000000E+00; -2.1364454E-04;  1.0029418E+03;  1.0000000E-01;  2.4371655E+03;3;  8.3516508E-01;  0.0000000E+00; -3.6131311E-03;0;  9.5493495E-03;  4.0245875E+04;  0.0000000E+00;  3.9222822E-02;  4.0000000E+04;  0.0000000E+00;  3.9989668E+04;  5.2685249E-03;  0.0000000E+00;  4.2808251E-03;  1.5237629E+03;
  2.5115272E-01;  9.9999998E-03; -1.9980613E-02;3999; -2.3296295E-02;  0.0000000E+00; -1.4579624E-04;  1.0030253E+03;  1.0000000E-01;  2.5063979E+03;3;  8.3555883E-01;  0.0000000E+00; -6.3265171E-03;0;  1.0508472E-02;  4.0250840E+04;  0.0000000E+00;  1.8992987E-02;  4.0000000E+04;  0.0000000E+00;  3.9991398E+04;  6.1977860E-03;  0.0000000E+00;  4.3106857E-03;  1.3094950E+03;
  2.5113603E-01;  9.9999998E-03; -9.9894395E-03;4000; -2.3195239E-02;  0.0000000E+00; -6.8152382E-05;  1.0030768E+03;  1.0000000E-01;  2.5490635E+03;3;  8.3814681E-01;  0.0000000E+00; -6.4125755E-03;0;  1.1121991E-02;  4.0253859E+04;  0.0000000E+00;  4.9977237E-03;  4.0000000E+04;  0.0000000E+00;  3.9992750E+04;  6.7815711E-03;  0.0000000E+00;  4.3404200E-03;  1.1565039E+03;
  2.5113076E-01;  9.9999998E-03;  2.6711258E-10;4001; -2.3156829E-02;  0.0000000E+00; -3.6683889E-09;  1.0030946E+03;  1.0000000E-01;  2.5637791E+03;3;  8.3724552E-01;  0.0000000E+00; -1.0636608E-05;0;  1.1333583E-02;  4.0254809E+04;  0.0000000E+00; -9.7526143E-13;  4.0000000E+04;  0.0000000E+00;  3.9993160E+04;  6.9809179E-03;  0.0000000E+00;  4.3526650E-03;  1.1012766E+03;
  2.5113603E-01;  9.9999998E-03;  9.9894395E-03;4002; -2.3195235E-02;  0.0000000E+00;  6.8144262E-05;  1.0030768E+03;  1.0000000E-01;  2.5490635E+03;3;  8.3816671E-01;  0.0000000E+00;  6.3901255E-03;0;  1.1121982E-02;  4.0253859E+04;  0.0000000E+00;  4.9976641E-03;  4.0000000E+04;  0.0000000E+00;  3.9992750E+04;  6.7815715E-03;  0.0000000E+00;  4.3404102E-03;  1.1565027E+03;
  2.5115272E-01;  9.9999998E-03;  1.9980613E-02;4003; -2.3296295E-02;  0.0000000E+00;  1.4578874E-04;  1.0030253E+03;  1.0000000E-01;  2.5063979E+03;3;  8.3553052E-01;  0.0000000E+00;  6.3072322E-03;0;  1.0508420E-02;  4.0250848E+04;  0.0000000E+00;  1.8992804E-02;  4.0000000E+04;  0.0000000E+00;  3.9991402E+04;  6.1977683E-03;  0.0000000E+00;  4.3106521E-03;  1.3094910E+03;
  2.5118181E-01;  9.9999998E-03;  2.9974453E-02;4004; -2.3429966E-02;  0.0000000E+00;  2.1363283E-04;  1.0029417E+03;  1.0000000E-01;  2.4371655E+03;3;  8.3509368E-01;  0.0000000E+00;  3.5992416E-03;0;  9.5493384E-03;  4.0245875E+04;  0.0000000E+00;  3.9223015E-02;  4.0000000E+04;  0.0000000E+00;  3.9989668E+04;  5.2685584E-03;  0.0000000E+00;  4.2807800E-03;  1.5237554E+03;
  2.5122547E-01;  9.9999998E-03;  3.9973423E-02;4005; -2.3574663E-02;  0.0000000E+00;  2.6995924E-04;  1.0028318E+03;  1.0000000E-01;  2.3461062E+03;3;  8.3293235E-01;  0.0000000E+00;  4.3044062E-04;0;  8.3277589E-03;  4.0238691E+04;  0.0000000E+00;  6.1865147E-02;  4.0000000E+04;  0.0000000E+00;  3.9987910E+04;  4.0571033E-03;  0.0000000E+00;  4.2706556E-03;  1.7458093E+03;
  2.5128528E-01;  9.9999998E-03;  4.9979571E-02;4006; -2.3707524E-02;  0.0000000E+00;  3.1066872E-04;  1.0026987E+03;  1.0000000E-01;  2.2357883E+03;3;  8.3031142E-01;  0.0000000E+00; -4.5402730E-03;0;  6.9367979E-03;  4.0229578E+04;  0.0000000E+00;  8.3147489E-02;  4.0000000E+04;  0.0000000E+00;  3.9986523E+04;  2.6431445E-03;  0.0000000E+00;  4.2936536E-03;  1.9171122E+03;
  2.5135776E-01;  9.9999998E-03;  5.9991006E-02;4007; -2.3809807E-02;  0.0000000E+00;  3.4336493E-04;  1.0025500E+03;  1.0000000E-01;  2.1126313E+03;3;  8.2746315E-01;  0.0000000E+00; -8.9511285E-03;0;  5.4603033E-03;  4.0217938E+04;  0.0000000E+00;  1.0062849E-01;  4.0000000E+04;  0.0000000E+00;  3.9985996E+04;  1.1101386E-03;  0.0000000E+00;  4.3501644E-03;  1.9896796E+03;
  2.6153257E-01;  9.9999998E-03; -1.0001665E-01;4052; -2.4002688E-02;  0.0000000E+00; -5.8659888E-04;  1.0024736E+03;  1.0000000E-01;  2.0493247E+03;3;  8.2463545E-01;  0.0000000E+00;  4.2014193E-02;0;  1.9482497E-02;  4.0210148E+04;  0.0000000E+00;  1.6117482E-01;  4.0000000E+04;  0.0000000E+00;  3.9988238E+04;  1.4746782E-02;  0.0000000E+00;  4.7357152E-03;  1.6974341E+03;
  2.6146919E-01;  9.9999998E-03; -9.0018913E-02;4053; -2.4164476E-02;  0.0000000E+00; -5.3306262E-04;  1.0026943E+03;  1.0000000E-01;  2.2321343E+03;3;  8.3232415E-01;  0.0000000E+00;  3.1162277E-02;0;  2.1149328E-02;  4.0229574E+04;  0.0000000E+00;  1.4117402E-01;  4.0000000E+04;  0.0000000E+00;  3.9986566E+04;  1.6417164E-02;  0.0000000E+00;  4.7321632E-03;  1.9402906E+03;
  2.6140168E-01;  9.9999998E-03; -8.0016337E-02;4054; -2.4238342E-02;  0.0000000E+00; -5.0595688E-04;  1.0028791E+03;  1.0000000E-01;  2.3853152E+03;3;  8.3793646E-01;  0.0000000E+00;  2.2368819E-02;0;  2.2984684E-02;  4.0246121E+04;  0.0000000E+00;  1.3098350E-01;  4.0000000E+04;  0.0000000E+00;  3.9984840E+04;  1.8319523E-02;  0.0000000E+00;  4.6651606E-03;  2.1480671E+03;
  2.6133135E-01;  9.9999998E-03; -7.0008919E-02;4055; -2.4234315E-02;  0.0000000E+00; -4.9430627E-04;  1.0030327E+03;  1.0000000E-01;  2.5125212E+03;3;  8.4194827E-01;  0.0000000E+00;  1.5369369E-02;0;  2.4917601E-02;  4.0259441E+04;  0.0000000E+00;  1.2269015E-01;  4.0000000E+04;  0.0000000E+00;  3.9983918E+04;  2.0335546E-02;  0.0000000E+00;  4.5820544E-03;  2.2674556E+03;
  2.6126069E-01;  9.9999998E-03; -5.9998114E-02;4056; -2.4166306E-02;  0.0000000E+00; -4.8531833E-04;  1.0031620E+03;  1.0000000E-01;  2.6196787E+03;3;  8.4528220E-01;  0.0000000E+00;  9.9411663E-03;0;  2.6873413E-02;  4.0269969E+04;  0.0000000E+00;  1.1062600E-01;  4.0000000E+04;  0.0000000E+00;  3.9983828E+04;  2.2350339E-02;  0.0000000E+00;  4.5230733E-03;  2.2675012E+03;
  2.6119453E-01;  9.9999998E-03; -4.9987316E-02;4057; -2.4050916E-02;  0.0000000E+00; -4.6679724E-04;  1.0032686E+03;  1.0000000E-01;  2.7079727E+03;3;  8.4865212E-01;  0.0000000E+00;  5.1733945E-03;0;  2.8773636E-02;  4.0277715E+04;  0.0000000E+00;  9.2424400E-02;  4.0000000E+04;  0.0000000E+00;  3.9985016E+04;  2.4260044E-02;  0.0000000E+00;  4.5135925E-03;  2.1468933E+03;
  2.6113966E-01;  9.9999998E-03; -3.9981183E-02;4058; -2.3906259E-02;  0.0000000E+00; -4.3245542E-04;  1.0033585E+03;  1.0000000E-01;  2.7824397E+03;3;  8.4927905E-01;  0.0000000E+00;  1.8869892E-04;0;  3.0535474E-02;  4.0282984E+04;  0.0000000E+00;  6.9006190E-02;  4.0000000E+04;  0.0000000E+00;  3.9986664E+04;  2.5975795E-02;  0.0000000E+00;  4.5596790E-03;  1.9348411E+03;
  2.6109895E-01;  9.9999998E-03; -2.9980907E-02;4059; -2.3752524E-02;  0.0000000E+00; -3.7560312E-04;  1.0034298E+03;  1.0000000E-01;  2.8414998E+03;3;  8.5039872E-01;  0.0000000E+00; -4.5481334E-03;0;  3.2062691E-02;  4.0286828E+04;  0.0000000E+00;  4.3739136E-02;  4.0000000E+04;  0.0000000E+00;  3.9988664E+04;  2.7414791E-02;  0.0000000E+00;  4.6478994E-03;  1.6821198E+03;
  2.6107132E-01;  9.9999998E-03; -1.9985123E-02;4060; -2.3612311E-02;  0.0000000E+00; -2.9202420E-04;  1.0034836E+03;  1.0000000E-01;  2.8860415E+03;3;  8.5151672E-01;  0.0000000E+00; -6.5631256E-03;0;  3.3251032E-02;  4.0289223E+04;  0.0000000E+00;  2.1147704E-02;  4.0000000E+04;  0.0000000E+00;  3.9990570E+04;  2.8501311E-02;  0.0000000E+00;  4.7497214E-03;  1.4474266E+03;
  2.6105547E-01;  9.9999998E-03; -9.9918526E-03;4061; -2.3509748E-02;  0.0000000E+00; -1.7564766E-04;  1.0035153E+03;  1.0000000E-01;  2.9124111E+03;3;  8.5203832E-01;  0.0000000E+00; -6.3219257E-03;0;  3.4008037E-02;  4.0290438E+04;  0.0000000E+00;  5.5572661E-03;  4.0000000E+04;  0.0000000E+00;  3.9991875E+04;  2.9177679E-02;  0.0000000E+00;  4.8303585E-03;  1.2830889E+03;
  2.6105055E-01;  9.9999998E-03;  2.6579131E-10;4062; -2.3475138E-02;  0.0000000E+00; -1.6527658E-09;  1.0035265E+03;  1.0000000E-01;  2.9215962E+03;3;  8.5058147E-01;  0.0000000E+00; -4.4111043E-06;0;  3.4268770E-02;  4.0290816E+04;  0.0000000E+00; -1.5043682E-12;  4.0000000E+04;  0.0000000E+00;  3.9992492E+04;  2.9407812E-02;  0.0000000E+00;  4.8609576E-03;  1.2242628E+03;
  2.6105547E-01;  9.9999998E-03;  9.9918526E-03;4063; -2.3509745E-02;  0.0000000E+00;  1.7564159E-04;  1.0035153E+03;  1.0000000E-01;  2.9124111E+03;3;  8.5204327E-01;  0.0000000E+00;  6.2966007E-03;0;  3.4008041E-02;  4.0290438E+04;  0.0000000E+00;  5.5572544E-03;  4.0000000E+04;  0.0000000E+00;  3.9991871E+04;  2.9177703E-02;  0.0000000E+00;  4.8303395E-03;  1.2830801E+03;
  2.6107132E-01;  9.9999998E-03;  1.9985123E-02;4064; -2.3612307E-02;  0.0000000E+00;  2.9201276E-04;  1.0034836E+03;  1.0000000E-01;  2.8860415E+03;3;  8.5153329E-01;  0.0000000E+00;  6.5216264E-03;0;  3.3251025E-02;  4.0289223E+04;  0.0000000E+00;  2.1148048E-02;  4.0000000E+04;  0.0000000E+00;  3.9990570E+04;  2.8501334E-02;  0.0000000E+00;  4.7496893E-03;  1.4474202E+03;
  2.6109895E-01;  9.9999998E-03;  2.9980907E-02;4065; -2.3752520E-02;  0.0000000E+00;  3.7559235E-04;  1.0034297E+03;  1.0000000E-01;  2.8414998E+03;3;  8.5039663E-01;  0.0000000E+00;  4.5259893E-03;0;  3.2062653E-02;  4.0286828E+04;  0.0000000E+00;  4.3739334E-02;  4.0000000E+04;  0.0000000E+00;  3.9988664E+04;  2.7414797E-02;  0.0000000E+00;  4.6478580E-03;  1.6821108E+03;
  2.6113966E-01;  9.9999998E-03;  3.9981183E-02;4066; -2.3906255E-02;  0.0000000E+00;  4.3244311E-04;  1.0033585E+03;  1.0000000E-01;  2.7824397E+03;3;  8.4922051E-01;  0.0000000E+00; -2.1748828E-04;0;  3.0535437E-02;  4.0282984E+04;  0.0000000E+00;  6.9005944E-02;  4.0000000E+04;  0.0000000E+00;  3.9986664E+04;  2.5975812E-02;  0.0000000E+00;  4.5596240E-03;  1.9348254E+03;
  2.6119453E-01;  9.9999998E-03;  4.9987316E-02;4067; -2.4050912E-02;  0.0000000E+00;  4.6678615E-04;  1.0032686E+03;  1.0000000E-01;  2.7079727E+03;3;  8.4863371E-01;  0.0000000E+00; -5.1930193E-03;0;  2.8773624E-02;  4.0277715E+04;  0.0000000E+00;  9.2424586E-02;  4.0000000E+04;  0.0000000E+00;  3.9985016E+04;  2.4260081E-02;  0.0000000E+00;  4.5135422E-03;  2.1468948E+03;
  2.6126069E-01;  9.9999998E-03;  5.9998114E-02;4068; -2.4166301E-02;  0.0000000E+00;  4.8530489E-04;  1.0031620E+03;  1.0000000E-01;  2.6196787E+03;3;  8.4525490E-01;  0.0000000E+00; -9.9396668E-03;0;  2.6873425E-02;  4.0269969E+04;  0.0000000E+00;  1.1062732E-01;  4.0000000E+04;  0.0000000E+00;  3.9983828E+04;  2.2350404E-02;  0.0000000E+00;  4.5230207E-03;  2.2675010E+03;
  2.7143264E-01;  9.9999998E-03; -1.0003179E-01;4113; -2.4322288E-02;  0.0000000E+00; -6.0970522E-04;  1.0030543E+03;  1.0000000E-01;  2.5303975E+03;3;  8.4265339E-01;  0.0000000E+00;  4.1614402E-02;0;  4.0956777E-02;  4.0260324E+04;  0.0000000E+00;  1.2986831E-01;  4.0000000E+04;  0.0000000E+00;  3.9985355E+04;  3.6066089E-02;  0.0000000E+00;  4.8906878E-03;  2.0964861E+03;
  2.7136958E-01;  9.9999998E-03; -9.0030119E-02;4114; -2.4465624E-02;  0.0000000E+00; -5.8575650E-04;  1.0032464E+03;  1.0000000E-01;  2.6896028E+03;3;  8.4969956E-01;  0.0000000E+00;  3.0192954E-02;0;  4.3053128E-02;  4.0277742E+04;  0.0000000E+00;  1.1960495E-01;  4.0000000E+04;  0.0000000E+00;  3.9983523E+04;  3.8253568E-02;  0.0000000E+00;  4.7995602E-03;  2.3383865E+03;
  2.7130559E-01;  9.9999998E-03; -8.0024138E-02;4115; -2.4518831E-02;  0.0000000E+00; -5.8864674E-04;  1.0033900E+03;  1.0000000E-01;  2.8085129E+03;3;  8.5533094E-01;  0.0000000E+00;  2.2005206E-02;0;  4.5287561E-02;  4.0290730E+04;  0.0000000E+00;  1.1670256E-01;  4.0000000E+04;  0.0000000E+00;  3.9982117E+04;  4.0619075E-02;  0.0000000E+00;  4.6684858E-03;  2.5181350E+03;
  2.7124131E-01;  9.9999998E-03; -7.0014998E-02;4116; -2.4495451E-02;  0.0000000E+00; -6.0168182E-04;  1.0034951E+03;  1.0000000E-01;  2.8956216E+03;3;  8.5935068E-01;  0.0000000E+00;  1.6554842E-02;0;  4.7587574E-02;  4.0299809E+04;  0.0000000E+00;  1.1318982E-01;  4.0000000E+04;  0.0000000E+00;  3.9981754E+04;  4.3035131E-02;  0.0000000E+00;  4.5524440E-03;  2.5939143E+03;
  2.7117804E-01;  9.9999998E-03; -6.0004454E-02;4117; -2.4409123E-02;  0.0000000E+00; -6.1112345E-04;  1.0035711E+03;  1.0000000E-01;  2.9586321E+03;3;  8.6259609E-01;  0.0000000E+00;  1.2645931E-02;0;  4.9875487E-02;  4.0305465E+04;  0.0000000E+00;  1.0402785E-01;  4.0000000E+04;  0.0000000E+00;  3.9982203E+04;  4.5382135E-02;  0.0000000E+00;  4.4933516E-03;  2.5467139E+03;
  2.7111948E-01;  9.9999998E-03; -4.9994700E-02;4118; -2.4277676E-02;  0.0000000E+00; -6.0500210E-04;  1.0036223E+03;  1.0000000E-01;  3.0010012E+03;3;  8.6559880E-01;  0.0000000E+00;  9.3686143E-03;0;  5.2069630E-02;  4.0308266E+04;  0.0000000E+00;  8.7647311E-02;  4.0000000E+04;  0.0000000E+00;  3.9983559E+04;  4.7556374E-02;  0.0000000E+00;  4.5132572E-03;  2.3845786E+03;
  2.7107060E-01;  9.9999998E-03; -3.9988730E-02;4119; -2.4119405E-02;  0.0000000E+00; -5.7885092E-04;  1.0036564E+03;  1.0000000E-01;  3.0292473E+03;3;  8.6787874E-01;  0.0000000E+00;  3.4745706E-03;0;  5.4082043E-02;  4.0309223E+04;  0.0000000E+00;  6.5596163E-02;  4.0000000E+04;  0.0000000E+00;  3.9985391E+04;  4.9471460E-02;  0.0000000E+00;  4.6105837E-03;  2.1415239E+03;
  2.7103338E-01;  9.9999998E-03; -2.9987512E-02;4120; -2.3956200E-02;  0.0000000E+00; -5.2530115E-04;  1.0036824E+03;  1.0000000E-01;  3.0507776E+03;3;  8.6796516E-01;  0.0000000E+00; -6.0775870E-04;0;  5.5811193E-02;  4.0309023E+04;  0.0000000E+00;  4.1556519E-02;  4.0000000E+04;  0.0000000E+00;  3.9987715E+04;  5.1050209E-02;  0.0000000E+00;  4.7609848E-03;  1.8690736E+03;
  2.7100787E-01;  9.9999998E-03; -1.9989956E-02;4121; -2.3812314E-02;  0.0000000E+00; -4.2859736E-04;  1.0036968E+03;  1.0000000E-01;  3.0627280E+03;3;  8.6838722E-01;  0.0000000E+00; -4.3037455E-03;0;  5.7150606E-02;  4.0308250E+04;  0.0000000E+00;  2.0064112E-02;  4.0000000E+04;  0.0000000E+00;  3.9989539E+04;  5.2227918E-02;  0.0000000E+00;  4.9226889E-03;  1.6238601E+03;
  2.7099350E-01;  9.9999998E-03; -9.9944677E-03;4122; -2.3722967E-02;  0.0000000E+00; -2.4432296E-04;  1.0037080E+03;  1.0000000E-01;  3.0720117E+03;3;  8.6866939E-01;  0.0000000E+00; -3.9662831E-03;0;  5.8002837E-02;  4.0307652E+04;  0.0000000E+00;  5.2662124E-03;  4.0000000E+04;  0.0000000E+00;  3.9990891E+04;  5.2955873E-02;  0.0000000E+00;  5.0469628E-03;  1.4550298E+03;
  2.7098867E-01;  9.9999998E-03;  2.9971509E-10;4123; -2.3693856E-02;  0.0000000E+00; -6.6783984E-10;  1.0037112E+03;  1.0000000E-01;  3.0746782E+03;3;  8.6874008E-01;  0.0000000E+00;  6.3527318E-06;0;  5.8295365E-02;  4.0307477E+04;  0.0000000E+00; -1.1150804E-12;  4.0000000E+04;  0.0000000E+00;  3.9991426E+04;  5.3201739E-02;  0.0000000E+00;  5.0936281E-03;  1.3949824E+03;
  2.7099350E-01;  9.9999998E-03;  9.9944687E-03;4124; -2.3722963E-02;  0.0000000E+00;  2.4431964E-04;  1.0037080E+03;  1.0000000E-01;  3.0720117E+03;3;  8.6863995E-01;  0.0000000E+00;  3.9533433E-03;0;  5.8002852E-02;  4.0307648E+04;  0.0000000E+00;  5.2663409E-03;  4.0000000E+04;  0.0000000E+00;  3.9990891E+04;  5.2955907E-02;  0.0000000E+00;  5.0469441E-03;  1.4550255E+03;
  2.7100787E-01;  9.9999998E-03;  1.9989956E-02;4125; -2.3812313E-02;  0.0000000E+00;  4.2858347E-04;  1.0036968E+03;  1.0000000E-01;  3.0627280E+03;3;  8.6839271E-01;  0.0000000E+00;  4.2781881E-03;0;  5.7150550E-02;  4.0308254E+04;  0.0000000E+00;  2.0064553E-02;  4.0000000E+04;  0.0000000E+00;  3.9989539E+04;  5.2227903E-02;  0.0000000E+00;  4.9226470E-03;  1.6238538E+03;
  2.7103341E-01;  9.9999998E-03;  2.9987512E-02;4126; -2.3956196E-02;  0.0000000E+00;  5.2528962E-04;  1.0036824E+03;  1.0000000E-01;  3.0507776E+03;3;  8.6796129E-01;  0.0000000E+00;  5.7230605E-04;0;  5.5811163E-02;  4.0309023E+04;  0.0000000E+00;  4.1556899E-02;  4.0000000E+04;  0.0000000E+00;  3.9987715E+04;  5.1050223E-02;  0.0000000E+00;  4.7609401E-03;  1.8690612E+03;
  2.7107060E-01;  9.9999998E-03;  3.9988730E-02;4127; -2.4119403E-02;  0.0000000E+00;  5.7883700E-04;  1.0036564E+03;  1.0000000E-01;  3.0292473E+03;3;  8.6790127E-01;  0.0000000E+00; -3.5086635E-03;0;  5.4082029E-02;  4.0309223E+04;  0.0000000E+00;  6.5596938E-02;  4.0000000E+04;  0.0000000E+00;  3.9985391E+04;  4.9471498E-02;  0.0000000E+00;  4.6105292E-03;  2.1415071E+03;
  2.7111948E-01;  9.9999998E-03;  4.9994700E-02;4128; -2.4277674E-02;  0.0000000E+00;  6.0499029E-04;  1.0036223E+03;  1.0000000E-01;  3.0010012E+03;3;  8.6560863E-01;  0.0000000E+00; -9.3708057E-03;0;  5.2069619E-02;  4.0308270E+04;  0.0000000E+00;  8.7647416E-02;  4.0000000E+04;  0.0000000E+00;  3.9983559E+04;  4.7556415E-02;  0.0000000E+00;  4.5132022E-03;  2.3845708E+03;
  2.7117804E-01;  9.9999998E-03;  6.0004454E-02;4129; -2.4409119E-02;  0.0000000E+00;  6.1110826E-04;  1.0035710E+03;  1.0000000E-01;  2.9585334E+03;3;  8.6267704E-01;  0.0000000E+00; -1.2655484E-02;0;  4.9875475E-02;  4.0305461E+04;  0.0000000E+00;  1.0402827E-01;  4.0000000E+04;  0.0000000E+00;  3.9982199E+04;  4.5382161E-02;  0.0000000E+00;  4.4933143E-03;  2.5467119E+03;
  2.8133970E-01;  9.9999998E-03; -1.0004348E-01;4174; -2.4538400E-02;  0.0000000E+00; -6.2231754E-04;  1.0034855E+03;  1.0000000E-01;  2.8876218E+03;3;  8.6257392E-01;  0.0000000E+00;  3.8437795E-02;0;  6.3463338E-02;  4.0299039E+04;  0.0000000E+00;  8.3624691E-02;  4.0000000E+04;  0.0000000E+00;  3.9982352E+04;  5.8614336E-02;  0.0000000E+00;  4.8490018E-03;  2.5174282E+03;
  2.8127974E-01;  9.9999998E-03; -9.0038292E-02;4175; -2.4653081E-02;  0.0000000E+00; -6.2982092E-04;  1.0036277E+03;  1.0000000E-01;  3.0054456E+03;3;  8.6807531E-01;  0.0000000E+00;  3.0049684E-02;0;  6.5851234E-02;  4.0312277E+04;  0.0000000E+00;  8.2432121E-02;  4.0000000E+04;  0.0000000E+00;  3.9980434E+04;  6.1184287E-02;  0.0000000E+00;  4.6669482E-03;  2.7423416E+03;
  2.8122106E-01;  9.9999998E-03; -8.0029830E-02;4176; -2.4679447E-02;  0.0000000E+00; -6.5188797E-04;  1.0037161E+03;  1.0000000E-01;  3.0787275E+03;3;  8.7388754E-01;  0.0000000E+00;  2.4204558E-02;0;  6.8320706E-02;  4.0320520E+04;  0.0000000E+00;  8.5994445E-02;  4.0000000E+04;  0.0000000E+00;  3.9979551E+04;  6.3856371E-02;  0.0000000E+00;  4.4643357E-03;  2.8837490E+03;
  2.8116384E-01;  9.9999998E-03; -7.0019796E-02;4177; -2.4629850E-02;  0.0000000E+00; -6.7952205E-04;  1.0037576E+03;  1.0000000E-01;  3.1130969E+03;3;  8.7803704E-01;  0.0000000E+00;  2.0148503E-02;0;  7.0806593E-02;  4.0323910E+04;  0.0000000E+00;  8.7258548E-02;  4.0000000E+04;  0.0000000E+00;  3.9979242E+04;  6.6503413E-02;  0.0000000E+00;  4.3031806E-03;  2.9119219E+03;
  2.8110898E-01;  9.9999998E-03; -6.0009897E-02;4178; -2.4520032E-02;  0.0000000E+00; -6.9779193E-04;  1.0037688E+03;  1.0000000E-01;  3.1223806E+03;3;  8.8149649E-01;  0.0000000E+00;  1.7207740E-02;0;  7.3239140E-02;  4.0323949E+04;  0.0000000E+00;  8.2259744E-02;  4.0000000E+04;  0.0000000E+00;  3.9979996E+04;  6.9011942E-02;  0.0000000E+00;  4.2272010E-03;  2.8191902E+03;
  2.8105867E-01;  9.9999998E-03; -5.0001446E-02;4179; -2.4368683E-02;  0.0000000E+00; -7.0192141E-04;  1.0037552E+03;  1.0000000E-01;  3.1111216E+03;3;  8.8442647E-01;  0.0000000E+00;  1.1925533E-02;0;  7.5543113E-02;  4.0321301E+04;  0.0000000E+00;  7.0184208E-02;  4.0000000E+04;  0.0000000E+00;  3.9981602E+04;  7.1287036E-02;  0.0000000E+00;  4.2560785E-03;  2.6217046E+03;
  2.8101620E-01;  9.9999998E-03; -3.9996106E-02;4180; -2.4195142E-02;  0.0000000E+00; -6.8688922E-04;  1.0037339E+03;  1.0000000E-01;  3.0935420E+03;3;  8.8690370E-01;  0.0000000E+00;  8.2554724E-03;0;  7.7635787E-02;  4.0317309E+04;  0.0000000E+00;  5.2802458E-02;  4.0000000E+04;  0.0000000E+00;  3.9983699E+04;  7.3253177E-02;  0.0000000E+00;  4.3826122E-03;  2.3566140E+03;
  2.8098345E-01;  9.9999998E-03; -2.9994136E-02;4181; -2.4021268E-02;  0.0000000E+00; -6.3977716E-04;  1.0037070E+03;  1.0000000E-01;  3.0711228E+03;3;  8.8856536E-01;  0.0000000E+00;  1.2551059E-03;0;  7.9422757E-02;  4.0312848E+04;  0.0000000E+00;  3.3499982E-02;  4.0000000E+04;  0.0000000E+00;  3.9985840E+04;  7.4848585E-02;  0.0000000E+00;  4.5741736E-03;  2.0741411E+03;
  2.8096098E-01;  9.9999998E-03; -1.9995011E-02;4182; -2.3871252E-02;  0.0000000E+00; -5.3640845E-04;  1.0036845E+03;  1.0000000E-01;  3.0525554E+03;3;  8.9036536E-01;  0.0000000E+00; -7.1635447E-03;0;  8.0803573E-02;  4.0309125E+04;  0.0000000E+00;  1.6171586E-02;  4.0000000E+04;  0.0000000E+00;  3.9987863E+04;  7.6024927E-02;  0.0000000E+00;  4.7786436E-03;  1.8268785E+03;
  2.8094801E-01;  9.9999998E-03; -9.9972393E-03;4183; -2.3777541E-02;  0.0000000E+00; -3.1327354E-04;  1.0036713E+03;  1.0000000E-01;  3.0415928E+03;3;  8.9142704E-01;  0.0000000E+00; -6.7917057E-03;0;  8.1681095E-02;  4.0306531E+04;  0.0000000E+00;  4.2422786E-03;  4.0000000E+04;  0.0000000E+00;  3.9989297E+04;  7.6745301E-02;  0.0000000E+00;  4.9357959E-03;  1.6591613E+03;
  2.8094378E-01;  9.9999998E-03;  3.3949804E-10;4184; -2.3746181E-02;  0.0000000E+00; -8.5207580E-10;  1.0036654E+03;  1.0000000E-01;  3.0367534E+03;3;  8.9157856E-01;  0.0000000E+00;  2.1608312E-06;0;  8.1982873E-02;  4.0305742E+04;  0.0000000E+00;  1.8652537E-13;  4.0000000E+04;  0.0000000E+00;  3.9989633E+04;  7.6987967E-02;  0.0000000E+00;  4.9949093E-03;  1.5999185E+03;
  2.8094801E-01;  9.9999998E-03;  9.9972393E-03;4185; -2.3777541E-02;  0.0000000E+00;  3.1327299E-04;  1.0036713E+03;  1.0000000E-01;  3.0415928E+03;3;  8.9145124E-01;  0.0000000E+00;  6.7763990E-03;0;  8.1681103E-02;  4.0306539E+04;  0.0000000E+00;  4.2425445E-03;  4.0000000E+04;  0.0000000E+00;  3.9989297E+04;  7.6745324E-02;  0.0000000E+00;  4.9357805E-03;  1.6591597E+03;
  2.8096098E-01;  9.9999998E-03;  1.9995011E-02;4186; -2.3871250E-02;  0.0000000E+00;  5.3639855E-04;  1.0036845E+03;  1.0000000E-01;  3.0525554E+03;3;  8.9043200E-01;  0.0000000E+00;  7.1754470E-03;0;  8.0803424E-02;  4.0309125E+04;  0.0000000E+00;  1.6172169E-02;  4.0000000E+04;  0.0000000E+00;  3.9987863E+04;  7.6024815E-02;  0.0000000E+00;  4.7786110E-03;  1.8268755E+03;
  2.8098345E-01;  9.9999998E-03;  2.9994136E-02;4187; -2.4021262E-02;  0.0000000E+00;  6.3976308E-04;  1.0037069E+03;  1.0000000E-01;  3.0711228E+03;3;  8.8860548E-01;  0.0000000E+00; -1.3040330E-03;0;  7.9422779E-02;  4.0312848E+04;  0.0000000E+00;  3.3500951E-02;  4.0000000E+04;  0.0000000E+00;  3.9985840E+04;  7.4848659E-02;  0.0000000E+00;  4.5741205E-03;  2.0741255E+03;
  2.8101620E-01;  9.9999998E-03;  3.9996106E-02;4188; -2.4195138E-02;  0.0000000E+00;  6.8687263E-04;  1.0037339E+03;  1.0000000E-01;  3.0934431E+03;3;  8.8695276E-01;  0.0000000E+00; -8.2818912E-03;0;  7.7635802E-02;  4.0317309E+04;  0.0000000E+00;  5.2803680E-02;  4.0000000E+04;  0.0000000E+00;  3.9983699E+04;  7.3253244E-02;  0.0000000E+00;  4.3825605E-03;  2.3566069E+03;
  2.8105867E-01;  9.9999998E-03;  5.0001446E-02;4189; -2.4368677E-02;  0.0000000E+00;  7.0190523E-04;  1.0037552E+03;  1.0000000E-01;  3.1111216E+03;3;  8.8440448E-01;  0.0000000E+00; -1.1968202E-02;0;  7.5543150E-02;  4.0321293E+04;  0.0000000E+00;  7.0185944E-02;  4.0000000E+04;  0.0000000E+00;  3.9981602E+04;  7.1287133E-02;  0.0000000E+00;  4.2560208E-03;  2.6216970E+03;
  2.8110898E-01;  9.9999998E-03;  6.0009897E-02;4190; -2.4520025E-02;  0.0000000E+00;  6.9777382E-04;  1.0037688E+03;  1.0000000E-01;  3.1223806E+03;3;  8.8148278E-01;  0.0000000E+00; -1.7232314E-02;0;  7.3239103E-02;  4.0323949E+04;  0.0000000E+00;  8.2260787E-02;  4.0000000E+04;  0.0000000E+00;  3.9979996E+04;  6.9011949E-02;  0.0000000E+00;  4.2271516E-03;  2.8191975E+03;
  2.9125506E-01;  9.9999998E-03; -1.0005093E-01;4235; -2.4623645E-02;  0.0000000E+00; -6.2817679E-04;  1.0037571E+03;  1.0000000E-01;  3.1127019E+03;3;  8.8127291E-01;  0.0000000E+00;  4.0497717E-02;0;  8.5701510E-02;  4.0324809E+04;  0.0000000E+00;  2.9187700E-02;  4.0000000E+04;  0.0000000E+00;  3.9978953E+04;  8.1121087E-02;  0.0000000E+00;  4.5804232E-03;  2.9468162E+03;
  2.9119998E-01;  9.9999998E-03; -9.0042800E-02;4236; -2.4701294E-02;  0.0000000E+00; -6.5060059E-04;  1.0038353E+03;  1.0000000E-01;  3.1774902E+03;3;  8.8712549E-01;  0.0000000E+00;  3.2447699E-02;0;  8.8189363E-02;  4.0332840E+04;  0.0000000E+00;  3.5679143E-02;  4.0000000E+04;  0.0000000E+00;  3.9977543E+04;  8.3882153E-02;  0.0000000E+00;  4.3072137E-03;  3.1383569E+03;
  2.9114753E-01;  9.9999998E-03; -8.0033071E-02;4237; -2.4693806E-02;  0.0000000E+00; -6.8435026E-04;  1.0038564E+03;  1.0000000E-01;  3.1949712E+03;3;  8.9145803E-01;  0.0000000E+00;  2.4714144E-02;0;  9.0675220E-02;  4.0335004E+04;  0.0000000E+00;  4.4687610E-02;  4.0000000E+04;  0.0000000E+00;  3.9976727E+04;  8.6646713E-02;  0.0000000E+00;  4.0285084E-03;  3.2319460E+03;
  2.9109815E-01;  9.9999998E-03; -7.0023358E-02;4238; -2.4614954E-02;  0.0000000E+00; -7.1782223E-04;  1.0038309E+03;  1.0000000E-01;  3.1738359E+03;3;  8.9557374E-01;  0.0000000E+00;  2.0433944E-02;0;  9.3111709E-02;  4.0332543E+04;  0.0000000E+00;  5.0637886E-02;  4.0000000E+04;  0.0000000E+00;  3.9977031E+04;  8.9299604E-02;  0.0000000E+00;  3.8121040E-03;  3.2097222E+03;
  2.9105222E-01;  9.9999998E-03; -6.0014874E-02;4239; -2.4481159E-02;  0.0000000E+00; -7.4335001E-04;  1.0037712E+03;  1.0000000E-01;  3.1243560E+03;3;  8.9899963E-01;  0.0000000E+00;  1.8401030E-02;0;  9.5447898E-02;  4.0326574E+04;  0.0000000E+00;  5.0745036E-02;  4.0000000E+04;  0.0000000E+00;  3.9977988E+04;  9.1744624E-02;  0.0000000E+00;  3.7032724E-03;  3.0740938E+03;
  2.9101080E-01;  9.9999998E-03; -5.0008096E-02;4240; -2.4310069E-02;  0.0000000E+00; -7.5745559E-04;  1.0036965E+03;  1.0000000E-01;  3.0624316E+03;3;  9.0336341E-01;  0.0000000E+00;  1.4302173E-02;0;  9.7627230E-02;  4.0318516E+04;  0.0000000E+00;  4.4744521E-02;  4.0000000E+04;  0.0000000E+00;  3.9979824E+04;  9.3907118E-02;  0.0000000E+00;  3.7201152E-03;  2.8475098E+03;
  2.9097572E-01;  9.9999998E-03; -4.0003508E-02;4241; -2.4117803E-02;  0.0000000E+00; -7.5299415E-04;  1.0036147E+03;  1.0000000E-01;  2.9946804E+03;3;  9.0732419E-01;  0.0000000E+00;  7.3000770E-03;0;  9.9584788E-02;  4.0309625E+04;  0.0000000E+00;  3.4249827E-02;  4.0000000E+04;  0.0000000E+00;  3.9981906E+04;  9.5733099E-02;  0.0000000E+00;  3.8516899E-03;  2.5683733E+03;
  2.9094827E-01;  9.9999998E-03; -3.0001098E-02;4242; -2.3925466E-02;  0.0000000E+00; -7.2239706E-04;  1.0035392E+03;  1.0000000E-01;  2.9321638E+03;3;  9.1213846E-01;  0.0000000E+00; -3.0943945E-03;0;  1.0124499E-01;  4.0301195E+04;  0.0000000E+00;  2.1919677E-02;  4.0000000E+04;  0.0000000E+00;  3.9984156E+04;  9.7185083E-02;  0.0000000E+00;  4.0599005E-03;  2.2839111E+03;
  2.9092908E-01;  9.9999998E-03; -2.0000318E-02;4243; -2.3755344E-02;  0.0000000E+00; -6.3136045E-04;  1.0034809E+03;  1.0000000E-01;  2.8838689E+03;3;  9.1595316E-01;  0.0000000E+00; -1.1961610E-02;0;  1.0252400E-01;  4.0294527E+04;  0.0000000E+00;  1.0624420E-02;  4.0000000E+04;  0.0000000E+00;  3.9986145E+04;  9.8238006E-02;  0.0000000E+00;  4.2859875E-03;  2.0411719E+03;
  2.9091805E-01;  9.9999998E-03; -1.0000216E-02;4244; -2.3645997E-02;  0.0000000E+00; -4.0124988E-04;  1.0034428E+03;  1.0000000E-01;  2.8522649E+03;3;  9.1885453E-01;  0.0000000E+00; -1.8943287E-02;0;  1.0333800E-01;  4.0290074E+04;  0.0000000E+00;  2.7916629E-03;  4.0000000E+04;  0.0000000E+00;  3.9987328E+04;  9.8876029E-02;  0.0000000E+00;  4.4619660E-03;  1.8789393E+03;
  2.9091427E-01;  9.9999998E-03;  3.7825235E-10;4245; -2.3612242E-02;  0.0000000E+00;  1.5553513E-09;  1.0034294E+03;  1.0000000E-01;  2.8412034E+03;3;  9.1760206E-01;  0.0000000E+00; -4.9181563E-07;0;  1.0361799E-01;  4.0288559E+04;  0.0000000E+00; -1.2195099E-13;  4.0000000E+04;  0.0000000E+00;  3.9987742E+04;  9.9089198E-02;  0.0000000E+00;  4.5287898E-03;  1.8220465E+03;
  2.9091805E-01;  9.9999998E-03;  1.0000217E-02;4246; -2.3645993E-02;  0.0000000E+00;  4.0125279E-04;  1.0034428E+03;  1.0000000E-01;  2.8522649E+03;3;  9.1888922E-01;  0.0000000E+00;  1.8945117E-02;0;  1.0333797E-01;  4.0290074E+04;  0.0000000E+00;  2.7919770E-03;  4.0000000E+04;  0.0000000E+00;  3.9987328E+04;  9.8876014E-02;  0.0000000E+00;  4.4619488E-03;  1.8789375E+03;
  2.9092908E-01;  9.9999998E-03;  2.0000318E-02;4247; -2.3755342E-02;  0.0000000E+00;  6.3135021E-04;  1.0034808E+03;  1.0000000E-01;  2.8837700E+03;3;  9.1593874E-01;  0.0000000E+00;  1.1965157E-02;0;  1.0252392E-01;  4.0294527E+04;  0.0000000E+00;  1.0625078E-02;  4.0000000E+04;  0.0000000E+00;  3.9986145E+04;  9.8237954E-02;  0.0000000E+00;  4.2859586E-03;  2.0411691E+03;
  2.9094827E-01;  9.9999998E-03;  3.0001098E-02;4248; -2.3925466E-02;  0.0000000E+00;  7.2238117E-04;  1.0035392E+03;  1.0000000E-01;  2.9321638E+03;3;  9.1211140E-01;  0.0000000E+00;  3.0681822E-03;0;  1.0124499E-01;  4.0301195E+04;  0.0000000E+00;  2.1920763E-02;  4.0000000E+04;  0.0000000E+00;  3.9984156E+04;  9.7185142E-02;  0.0000000E+00;  4.0598493E-03;  2.2839033E+03;
  2.9097572E-01;  9.9999998E-03;  4.0003508E-02;4249; -2.4117799E-02;  0.0000000E+00;  7.5297884E-04;  1.0036147E+03;  1.0000000E-01;  2.9946804E+03;3;  9.0730232E-01;  0.0000000E+00; -7.3147244E-03;0;  9.9584915E-02;  4.0309625E+04;  0.0000000E+00;  3.4250949E-02;  4.0000000E+04;  0.0000000E+00;  3.9981902E+04;  9.5733285E-02;  0.0000000E+00;  3.8516277E-03;  2.5683645E+03;
  2.9101080E-01;  9.9999998E-03;  5.0008096E-02;4250; -2.4310060E-02;  0.0000000E+00;  7.5743732E-04;  1.0036964E+03;  1.0000000E-01;  3.0623330E+03;3;  9.0343928E-01;  0.0000000E+00; -1.4318032E-02;0;  9.7627223E-02;  4.0318516E+04;  0.0000000E+00;  4.4745829E-02;  4.0000000E+04;  0.0000000E+00;  3.9979824E+04;  9.3907163E-02;  0.0000000E+00;  3.7200574E-03;  2.8475039E+03;
  2.9105222E-01;  9.9999998E-03;  6.0014874E-02;4251; -2.4481149E-02;  0.0000000E+00;  7.4333226E-04;  1.0037712E+03;  1.0000000E-01;  3.1243560E+03;3;  8.9905661E-01;  0.0000000E+00; -1.8399082E-02;0;  9.5447809E-02;  4.0326574E+04;  0.0000000E+00;  5.0746467E-02;  4.0000000E+04;  0.0000000E+00;  3.9977988E+04;  9.1744594E-02;  0.0000000E+00;  3.7032154E-03;  3.0740830E+03;
  3.0117789E-01;  9.9999998E-03; -1.0005370E-01;4296; -2.4562497E-02;  0.0000000E+00; -6.0730457E-04;  1.0038705E+03;  1.0000000E-01;  3.2066250E+03;3;  8.9708418E-01;  0.0000000E+00;  3.7134901E-02;0;  1.0611580E-01;  4.0337664E+04;  0.0000000E+00; -2.5012581E-02;  4.0000000E+04;  0.0000000E+00;  3.9975770E+04;  1.0205243E-01;  0.0000000E+00;  4.0633744E-03;  3.3626423E+03;
  3.0112967E-01;  9.9999998E-03; -9.0043731E-02;4297; -2.4599440E-02;  0.0000000E+00; -6.3863577E-04;  1.0038840E+03;  1.0000000E-01;  3.2177854E+03;3;  9.0280992E-01;  0.0000000E+00;  2.8254043E-02;0;  1.0846462E-01;  4.0339664E+04;  0.0000000E+00; -1.2190969E-02;  4.0000000E+04;  0.0000000E+00;  3.9974695E+04;  1.0476187E-01;  0.0000000E+00;  3.7027502E-03;  3.5072458E+03;
  3.0108446E-01;  9.9999998E-03; -8.0033757E-02;4298; -2.4555968E-02;  0.0000000E+00; -6.7889411E-04;  1.0038321E+03;  1.0000000E-01;  3.1748235E+03;3;  9.0787530E-01;  0.0000000E+00;  2.3425169E-02;0;  1.1070196E-01;  4.0335875E+04;  0.0000000E+00;  1.4360602E-03;  4.0000000E+04;  0.0000000E+00;  3.9974262E+04;  1.0735461E-01;  0.0000000E+00;  3.3473433E-03;  3.5467012E+03;
  3.0104342E-01;  9.9999998E-03; -7.0025109E-02;4299; -2.4445247E-02;  0.0000000E+00; -7.1565236E-04;  1.0037371E+03;  1.0000000E-01;  3.0961096E+03;3;  9.1439497E-01;  0.0000000E+00;  1.9051248E-02;0;  1.1280869E-01;  4.0327570E+04;  0.0000000E+00;  1.1876406E-02;  4.0000000E+04;  0.0000000E+00;  3.9974871E+04;  1.0973939E-01;  0.0000000E+00;  3.0693051E-03;  3.4739243E+03;
  3.0100691E-01;  9.9999998E-03; -6.0018331E-02;4300; -2.4277695E-02;  0.0000000E+00; -7.4506248E-04;  1.0036126E+03;  1.0000000E-01;  2.9930015E+03;3;  9.2130673E-01;  0.0000000E+00;  1.2781287E-02;0;  1.1476420E-01;  4.0315980E+04;  0.0000000E+00;  1.7378671E-02;  4.0000000E+04;  0.0000000E+00;  3.9976121E+04;  1.1184929E-01;  0.0000000E+00;  2.9149074E-03;  3.2997092E+03;
  3.0097511E-01;  9.9999998E-03; -5.0013341E-02;4301; -2.4067948E-02;  0.0000000E+00; -7.6654222E-04;  1.0034781E+03;  1.0000000E-01;  2.8815974E+03;3;  9.3177080E-01;  0.0000000E+00;  3.3323402E-03;0;  1.1654369E-01;  4.0302863E+04;  0.0000000E+00;  1.7981485E-02;  4.0000000E+04;  0.0000000E+00;  3.9978062E+04;  1.1364261E-01;  0.0000000E+00;  2.9010791E-03;  3.0506111E+03;
  3.0094850E-01;  9.9999998E-03; -4.0009815E-02;4302; -2.3819413E-02;  0.0000000E+00; -7.7964849E-04;  1.0033428E+03;  1.0000000E-01;  2.7694028E+03;3;  9.4805318E-01;  0.0000000E+00; -8.7832334E-03;0;  1.1811425E-01;  4.0289707E+04;  0.0000000E+00;  1.4913381E-02;  4.0000000E+04;  0.0000000E+00;  3.9980160E+04;  1.1509969E-01;  0.0000000E+00;  3.0145601E-03;  2.7645952E+03;
  3.0092755E-01;  9.9999998E-03; -3.0007318E-02;4303; -2.3567751E-02;  0.0000000E+00; -7.6733134E-04;  1.0032256E+03;  1.0000000E-01;  2.6724180E+03;3;  9.5386744E-01;  0.0000000E+00; -1.9444099E-02;0;  1.1943156E-01;  4.0277949E+04;  0.0000000E+00;  9.9628912E-03;  4.0000000E+04;  0.0000000E+00;  3.9982328E+04;  1.1621704E-01;  0.0000000E+00;  3.2145190E-03;  2.4844705E+03;
  3.0091262E-01;  9.9999998E-03; -2.0005370E-02;4304; -2.3344459E-02;  0.0000000E+00; -7.0187566E-04;  1.0031345E+03;  1.0000000E-01;  2.5968647E+03;3;  9.7034222E-01;  0.0000000E+00; -3.1853147E-02;0;  1.2044143E-01;  4.0268516E+04;  0.0000000E+00;  4.9415338E-03;  4.0000000E+04;  0.0000000E+00;  3.9984133E+04;  1.1700226E-01;  0.0000000E+00;  3.4391647E-03;  2.2511714E+03;
  3.0090392E-01;  9.9999998E-03; -1.0003157E-02;4305; -2.3188882E-02;  0.0000000E+00; -5.1105657E-04;  1.0030769E+03;  1.0000000E-01;  2.5491624E+03;3;  9.8103249E-01;  0.0000000E+00; -4.3667872E-02;0;  1.2108518E-01;  4.0262629E+04;  0.0000000E+00;  1.3131899E-03;  4.0000000E+04;  0.0000000E+00;  3.9985398E+04;  1.1746778E-01;  0.0000000E+00;  3.6174012E-03;  2.0974658E+03;
  3.0090111E-01;  9.9999998E-03;  4.3813450E-10;4306; -2.3141034E-02;  0.0000000E+00;  6.3508980E-09;  1.0030561E+03;  1.0000000E-01;  2.5318789E+03;3;  9.8615170E-01;  0.0000000E+00; -7.1829072E-07;0;  1.2130787E-01;  4.0260621E+04;  0.0000000E+00;  1.0958190E-12;  4.0000000E+04;  0.0000000E+00;  3.9985738E+04;  1.1762171E-01;  0.0000000E+00;  3.6861566E-03;  2.0439353E+03;
  3.0090392E-01;  9.9999998E-03;  1.0003158E-02;4307; -2.3188874E-02;  0.0000000E+00;  5.1106396E-04;  1.0030769E+03;  1.0000000E-01;  2.5491624E+03;3;  9.8101008E-01;  0.0000000E+00;  4.3665942E-02;0;  1.2108516E-01;  4.0262625E+04;  0.0000000E+00;  1.3134533E-03;  4.0000000E+04;  0.0000000E+00;  3.9985398E+04;  1.1746778E-01;  0.0000000E+00;  3.6173805E-03;  2.0974617E+03;
  3.0091262E-01;  9.9999998E-03;  2.0005370E-02;4308; -2.3344466E-02;  0.0000000E+00;  7.0186605E-04;  1.0031345E+03;  1.0000000E-01;  2.5968647E+03;3;  9.7031140E-01;  0.0000000E+00;  3.1847376E-02;0;  1.2044150E-01;  4.0268516E+04;  0.0000000E+00;  4.9421028E-03;  4.0000000E+04;  0.0000000E+00;  3.9984133E+04;  1.1700238E-01;  0.0000000E+00;  3.4391237E-03;  2.2511567E+03;
  3.0092752E-01;  9.9999998E-03;  3.0007320E-02;4309; -2.3567749E-02;  0.0000000E+00;  7.6731719E-04;  1.0032256E+03;  1.0000000E-01;  2.6724180E+03;3;  9.5387596E-01;  0.0000000E+00;  1.9430725E-02;0;  1.1943158E-01;  4.0277949E+04;  0.0000000E+00;  9.9635506E-03;  4.0000000E+04;  0.0000000E+00;  3.9982328E+04;  1.1621711E-01;  0.0000000E+00;  3.2144666E-03;  2.4844590E+03;
  3.0094850E-01;  9.9999998E-03;  4.0009815E-02;4310; -2.3819409E-02;  0.0000000E+00;  7.7963353E-04;  1.0033427E+03;  1.0000000E-01;  2.7694028E+03;3;  9.4803268E-01;  0.0000000E+00;  8.7821735E-03;0;  1.1811415E-01;  4.0289711E+04;  0.0000000E+00;  1.4914328E-02;  4.0000000E+04;  0.0000000E+00;  3.9980160E+04;  1.1509965E-01;  0.0000000E+00;  3.0145035E-03;  2.7645869E+03;
  3.0097511E-01;  9.9999998E-03;  5.0013341E-02;4311; -2.4067948E-02;  0.0000000E+00;  7.6652371E-04;  1.0034780E+03;  1.0000000E-01;  2.8814985E+03;3;  9.3179834E-01;  0.0000000E+00; -3.3294265E-03;0;  1.1654367E-01;  4.0302859E+04;  0.0000000E+00;  1.7982149E-02;  4.0000000E+04;  0.0000000E+00;  3.9978062E+04;  1.1364266E-01;  0.0000000E+00;  2.9010163E-03;  3.0506113E+03;
  3.0100691E-01;  9.9999998E-03;  6.0018331E-02;4312; -2.4277689E-02;  0.0000000E+00;  7.4504293E-04;  1.0036126E+03;  1.0000000E-01;  2.9930015E+03;3;  9.2132795E-01;  0.0000000E+00; -1.2767580E-02;0;  1.1476418E-01;  4.0315977E+04;  0.0000000E+00;  1.7379757E-02;  4.0000000E+04;  0.0000000E+00;  3.9976125E+04;  1.1184932E-01;  0.0000000E+00;  2.9148574E-03;  3.2997097E+03;
  3.1110716E-01;  9.9999998E-03; -1.0005189E-01;4357; -2.4326921E-02;  0.0000000E+00; -5.5652903E-04;  1.0038383E+03;  1.0000000E-01;  3.1799592E+03;3;  9.1587842E-01;  0.0000000E+00;  2.3123736E-02;0;  1.2298312E-01;  4.0338379E+04;  0.0000000E+00; -7.0359997E-02;  4.0000000E+04;  0.0000000E+00;  3.9972691E+04;  1.1969554E-01;  0.0000000E+00;  3.2875750E-03;  3.7391960E+03;
  3.1106803E-01;  9.9999998E-03; -9.0041377E-02;4358; -2.4306806E-02;  0.0000000E+00; -5.8782089E-04;  1.0037829E+03;  1.0000000E-01;  3.1340347E+03;3;  9.2197287E-01;  0.0000000E+00;  8.8793831E-03;0;  1.2491723E-01;  4.0334523E+04;  0.0000000E+00; -5.2199349E-02;  4.0000000E+04;  0.0000000E+00;  3.9972055E+04;  1.2206983E-01;  0.0000000E+00;  2.8474056E-03;  3.8283477E+03;
  3.1103179E-01;  9.9999998E-03; -8.0031998E-02;4359; -2.4200870E-02;  0.0000000E+00; -6.2285579E-04;  1.0036700E+03;  1.0000000E-01;  3.0406052E+03;3;  9.3389237E-01;  0.0000000E+00;  3.7241130E-04;0;  1.2661186E-01;  4.0325051E+04;  0.0000000E+00; -3.4596287E-02;  4.0000000E+04;  0.0000000E+00;  3.9972094E+04;  1.2419224E-01;  0.0000000E+00;  2.4196201E-03;  3.8118569E+03;
  3.1099978E-01;  9.9999998E-03; -7.0024513E-02;4360; -2.4007576E-02;  0.0000000E+00; -6.4844592E-04;  1.0035146E+03;  1.0000000E-01;  2.9118186E+03;3;  9.5015746E-01;  0.0000000E+00; -1.0900497E-02;0;  1.2808408E-01;  4.0311414E+04;  0.0000000E+00; -2.0155575E-02;  4.0000000E+04;  0.0000000E+00;  3.9972918E+04;  1.2600487E-01;  0.0000000E+00;  2.0791993E-03;  3.6919697E+03;
  3.1097263E-01;  9.9999998E-03; -6.0018972E-02;4361; -2.3725435E-02;  0.0000000E+00; -6.7705486E-04;  1.0033350E+03;  1.0000000E-01;  2.7629834E+03;3;  9.7715449E-01;  0.0000000E+00; -2.3728408E-02;0;  1.2935457E-01;  4.0295363E+04;  0.0000000E+00; -9.8636048E-03;  4.0000000E+04;  0.0000000E+00;  3.9974359E+04;  1.2748222E-01;  0.0000000E+00;  1.8723495E-03;  3.4855808E+03;
  3.1095040E-01;  9.9999998E-03; -5.0015099E-02;4362; -2.3338735E-02;  0.0000000E+00; -7.0108229E-04;  1.0031483E+03;  1.0000000E-01;  2.6083210E+03;3;  1.0133657E+00;  0.0000000E+00; -3.7598126E-02;0;  1.3044353E-01;  4.0278098E+04;  0.0000000E+00; -3.5638469E-03;  4.0000000E+04;  0.0000000E+00;  3.9976348E+04;  1.2862863E-01;  0.0000000E+00;  1.8149015E-03;  3.2212302E+03;
  3.1093270E-01;  9.9999998E-03; -4.0012278E-02;4363; -2.2866111E-02;  0.0000000E+00; -7.2382344E-04;  1.0029724E+03;  1.0000000E-01;  2.4625474E+03;3;  1.0903643E+00;  0.0000000E+00; -5.1614080E-02;0;  1.3136315E-01;  4.0261590E+04;  0.0000000E+00; -4.3558097E-04;  4.0000000E+04;  0.0000000E+00;  3.9978699E+04;  1.2947093E-01;  0.0000000E+00;  1.8922240E-03;  2.9347339E+03;
  3.1091926E-01;  9.9999998E-03; -3.0009942E-02;4364; -2.2333343E-02;  0.0000000E+00; -7.2369346E-04;  1.0028230E+03;  1.0000000E-01;  2.3387979E+03;3;  1.1790237E+00;  0.0000000E+00; -6.2553257E-02;0;  1.3211514E-01;  4.0247156E+04;  0.0000000E+00;  5.9000152E-04;  4.0000000E+04;  0.0000000E+00;  3.9980594E+04;  1.3005245E-01;  0.0000000E+00;  2.0627005E-03;  2.6638650E+03;
  3.1090990E-01;  9.9999998E-03; -2.0007532E-02;4365; -2.1786237E-02;  0.0000000E+00; -6.6579948E-04;  1.0027080E+03;  1.0000000E-01;  2.2434919E+03;3;  1.2703222E+00;  0.0000000E+00; -6.2471390E-02;0;  1.3268833E-01;  4.0235863E+04;  0.0000000E+00;  5.3034362E-04;  4.0000000E+04;  0.0000000E+00;  3.9982445E+04;  1.3042367E-01;  0.0000000E+00;  2.2646650E-03;  2.4432039E+03;
  3.1090441E-01;  9.9999998E-03; -1.0004376E-02;4366; -2.1349050E-02;  0.0000000E+00; -4.9802469E-04;  1.0026337E+03;  1.0000000E-01;  2.1819629E+03;3;  1.4055992E+00;  0.0000000E+00; -5.1975597E-02;0;  1.3305613E-01;  4.0228926E+04;  0.0000000E+00;  1.7277489E-04;  4.0000000E+04;  0.0000000E+00;  3.9983359E+04;  1.3062786E-01;  0.0000000E+00;  2.4282718E-03;  2.2997834E+03;
  3.1090263E-01;  9.9999998E-03;  4.9626447E-10;4367; -2.1168809E-02;  0.0000000E+00;  1.7804286E-08;  1.0026083E+03;  1.0000000E-01;  2.1609263E+03;3;  1.4459511E+00;  0.0000000E+00;  6.9569896E-06;0;  1.3318539E-01;  4.0226582E+04;  0.0000000E+00;  6.0511790E-13;  4.0000000E+04;  0.0000000E+00;  3.9983934E+04;  1.3069327E-01;  0.0000000E+00;  2.4921077E-03;  2.2501372E+03;
  3.1090441E-01;  9.9999998E-03;  1.0004377E-02;4368; -2.1349041E-02;  0.0000000E+00;  4.9802969E-04;  1.0026336E+03;  1.0000000E-01;  2.1818640E+03;3;  1.4056017E+00;  0.0000000E+00;  5.1977627E-02;0;  1.3305613E-01;  4.0228926E+04;  0.0000000E+00;  1.7300510E-04;  4.0000000E+04;  0.0000000E+00;  3.9983359E+04;  1.3062789E-01;  0.0000000E+00;  2.4282420E-03;  2.2997788E+03;
  3.1090990E-01;  9.9999998E-03;  2.0007534E-02;4369; -2.1786252E-02;  0.0000000E+00;  6.6579465E-04;  1.0027081E+03;  1.0000000E-01;  2.2435906E+03;3;  1.2703108E+00;  0.0000000E+00;  6.2472265E-02;0;  1.3268816E-01;  4.0235867E+04;  0.0000000E+00;  5.3069560E-04;  4.0000000E+04;  0.0000000E+00;  3.9982445E+04;  1.3042355E-01;  0.0000000E+00;  2.2646228E-03;  2.4431995E+03;
  3.1091926E-01;  9.9999998E-03;  3.0009942E-02;4370; -2.2333352E-02;  0.0000000E+00;  7.2368415E-04;  1.0028230E+03;  1.0000000E-01;  2.3387979E+03;3;  1.1790171E+00;  0.0000000E+00;  6.2554434E-02;0;  1.3211514E-01;  4.0247156E+04;  0.0000000E+00;  5.9058395E-04;  4.0000000E+04;  0.0000000E+00;  3.9980594E+04;  1.3005249E-01;  0.0000000E+00;  2.0626474E-03;  2.6638535E+03;
  3.1093270E-01;  9.9999998E-03;  4.0012278E-02;4371; -2.2866124E-02;  0.0000000E+00;  7.2380999E-04;  1.0029724E+03;  1.0000000E-01;  2.4625474E+03;3;  1.0903568E+00;  0.0000000E+00;  5.1607784E-02;0;  1.3136303E-01;  4.0261586E+04;  0.0000000E+00; -4.3540291E-04;  4.0000000E+04;  0.0000000E+00;  3.9978699E+04;  1.2947087E-01;  0.0000000E+00;  1.8921673E-03;  2.9347244E+03;
  3.1095040E-01;  9.9999998E-03;  5.0015099E-02;4372; -2.3338735E-02;  0.0000000E+00;  7.0106710E-04;  1.0031483E+03;  1.0000000E-01;  2.6082224E+03;3;  1.0133860E+00;  0.0000000E+00;  3.7606187E-02;0;  1.3044347E-01;  4.0278098E+04;  0.0000000E+00; -3.5630362E-03;  4.0000000E+04;  0.0000000E+00;  3.9976348E+04;  1.2862863E-01;  0.0000000E+00;  1.8148366E-03;  3.2212261E+03;
  3.1097266E-01;  9.9999998E-03;  6.0018975E-02;4373; -2.3725433E-02;  0.0000000E+00;  6.7703921E-04;  1.0033351E+03;  1.0000000E-01;  2.7630820E+03;3;  9.7716212E-01;  0.0000000E+00;  2.3738172E-02;0;  1.2935460E-01;  4.0295355E+04;  0.0000000E+00; -9.8621426E-03;  4.0000000E+04;  0.0000000E+00;  3.9974359E+04;  1.2748231E-01;  0.0000000E+00;  1.8722925E-03;  3.4855620E+03;
  3.2092240E-01;  9.9999998E-03; -1.0004279E-02;4427; -1.2133897E-02;  0.0000000E+00; -1.2847896E-04;  1.0021669E+03;  1.0000000E-01;  1.7953071E+03;3;  5.2699509E+00;  0.0000000E+00;  1.4870043E-01;0;  1.3788493E-01;  4.0193484E+04;  0.0000000E+00; -4.1238536E-04;  4.0000000E+04;  0.0000000E+00;  3.9981633E+04;  1.3692716E-01;  0.0000000E+00;  9.5777470E-04;  2.4754390E+03;
  3.2092166E-01;  9.9999998E-03;  4.9089421E-10;4428; -1.1842397E-02;  0.0000000E+00;  3.7901633E-09;  1.0021401E+03;  1.0000000E-01;  1.7729868E+03;3;  5.3993006E+00;  0.0000000E+00; -4.2554229E-06;0;  1.3788758E-01;  4.0190934E+04;  0.0000000E+00;  1.1329081E-12;  4.0000000E+04;  0.0000000E+00;  3.9982086E+04;  1.3687742E-01;  0.0000000E+00;  1.0101637E-03;  2.4298872E+03;
  3.2092240E-01;  9.9999998E-03;  1.0004280E-02;4429; -1.2133919E-02;  0.0000000E+00;  1.2847857E-04;  1.0021669E+03;  1.0000000E-01;  1.7953071E+03;3;  5.2699270E+00;  0.0000000E+00; -1.4869817E-01;0;  1.3788493E-01;  4.0193484E+04;  0.0000000E+00; -4.1230302E-04;  4.0000000E+04;  0.0000000E+00;  3.9981633E+04;  1.3692717E-01;  0.0000000E+00;  9.5775619E-04;  2.4754351E+03;
  3.2092455E-01;  9.9999998E-03; -2.0007363E-02;4426; -1.2983507E-02;  0.0000000E+00; -1.3581783E-04;  1.0022499E+03;  1.0000000E-01;  1.8639471E+03;3;  4.9020848E+00;  0.0000000E+00;  1.6255547E-01;0;  1.3788037E-01;  4.0201195E+04;  0.0000000E+00; -1.7589594E-03;  4.0000000E+04;  0.0000000E+00;  3.9980734E+04;  1.3705684E-01;  0.0000000E+00;  8.2352298E-04;  2.6077966E+03;
  3.2092455E-01;  9.9999998E-03;  2.0007364E-02;4430; -1.2983524E-02;  0.0000000E+00;  1.3581393E-04;  1.0022499E+03;  1.0000000E-01;  1.8639471E+03;3;  4.9020348E+00;  0.0000000E+00; -1.6254656E-01;0;  1.3788030E-01;  4.0201195E+04;  0.0000000E+00; -1.7587369E-03;  4.0000000E+04;  0.0000000E+00;  3.9980734E+04;  1.3705681E-01;  0.0000000E+00;  8.2348747E-04;  2.6077979E+03;
  3.2092795E-01;  9.9999998E-03; -3.0009687E-02;4425; -1.4430898E-02;  0.0000000E+00; -1.5161002E-04;  1.0023815E+03;  1.0000000E-01;  1.9729811E+03;3;  4.3091130E+00;  0.0000000E+00;  1.3546345E-01;0;  1.3787057E-01;  4.0213422E+04;  0.0000000E+00; -4.3604197E-03;  4.0000000E+04;  0.0000000E+00;  3.9979223E+04;  1.3720967E-01;  0.0000000E+00;  6.6089479E-04;  2.8137126E+03;
  3.2092795E-01;  9.9999998E-03;  3.0009689E-02;4431; -1.4430927E-02;  0.0000000E+00;  1.5160844E-04;  1.0023815E+03;  1.0000000E-01;  1.9729811E+03;3;  4.3090773E+00;  0.0000000E+00; -1.3545467E-01;0;  1.3787031E-01;  4.0213418E+04;  0.0000000E+00; -4.3601915E-03;  4.0000000E+04;  0.0000000E+00;  3.9979223E+04;  1.3720946E-01;  0.0000000E+00;  6.6084525E-04;  2.8137048E+03;
  3.2093316E-01;  9.9999998E-03; -4.0011607E-02;4424; -1.6463667E-02;  0.0000000E+00; -1.7304413E-04;  1.0025527E+03;  1.0000000E-01;  2.1149031E+03;3;  3.5022986E+00;  0.0000000E+00;  8.9250930E-02;0;  1.3783595E-01;  4.0229340E+04;  0.0000000E+00; -8.7232040E-03;  4.0000000E+04;  0.0000000E+00;  3.9977195E+04;  1.3730164E-01;  0.0000000E+00;  5.3431670E-04;  3.0714141E+03;
  3.2093316E-01;  9.9999998E-03;  4.0011607E-02;4432; -1.6463673E-02;  0.0000000E+00;  1.7303509E-04;  1.0025527E+03;  1.0000000E-01;  2.1148042E+03;3;  3.5023057E+00;  0.0000000E+00; -8.9239702E-02;0;  1.3783593E-01;  4.0229344E+04;  0.0000000E+00; -8.7230830E-03;  4.0000000E+04;  0.0000000E+00;  3.9977195E+04;  1.3730167E-01;  0.0000000E+00;  5.3426134E-04;  3.0713933E+03;
  3.2094085E-01;  9.9999998E-03; -5.0013725E-02;4423; -1.8850064E-02;  0.0000000E+00; -2.0729467E-04;  1.0027578E+03;  1.0000000E-01;  2.2847747E+03;3;  2.5310199E+00;  0.0000000E+00;  2.8963100E-02;0;  1.3774519E-01;  4.0248121E+04;  0.0000000E+00; -1.5491068E-02;  4.0000000E+04;  0.0000000E+00;  3.9975117E+04;  1.3724215E-01;  0.0000000E+00;  5.0302688E-04;  3.3523376E+03;
  3.2094085E-01;  9.9999998E-03;  5.0013725E-02;4433; -1.8850137E-02;  0.0000000E+00;  2.0728832E-04;  1.0027577E+03;  1.0000000E-01;  2.2846760E+03;3;  2.5310121E+00;  0.0000000E+00; -2.8954297E-02;0;  1.3774547E-01;  4.0248121E+04;  0.0000000E+00; -1.5489900E-02;  4.0000000E+04;  0.0000000E+00;  3.9975121E+04;  1.3724250E-01;  0.0000000E+00;  5.0297444E-04;  3.3523232E+03;
  3.2095227E-01;  9.9999998E-03; -6.0016710E-02;4422; -2.0956827E-02;  0.0000000E+00; -2.9061790E-04;  1.0029785E+03;  1.0000000E-01;  2.4675842E+03;3;  1.6694397E+00;  0.0000000E+00; -3.9689988E-02;0;  1.3755986E-01;  4.0267938E+04;  0.0000000E+00; -2.5351414E-02;  4.0000000E+04;  0.0000000E+00;  3.9973020E+04;  1.3695213E-01;  0.0000000E+00;  6.0772995E-04;  3.6240601E+03;
  3.2095227E-01;  9.9999998E-03;  6.0016714E-02;4434; -2.0956852E-02;  0.0000000E+00;  2.9060760E-04;  1.0029785E+03;  1.0000000E-01;  2.4675842E+03;3;  1.6694348E+00;  0.0000000E+00;  3.9693806E-02;0;  1.3755971E-01;  4.0267938E+04;  0.0000000E+00; -2.5349787E-02;  4.0000000E+04;  0.0000000E+00;  3.9973020E+04;  1.3695203E-01;  0.0000000E+00;  6.0767913E-04;  3.6240474E+03;
  3.2096848E-01;  9.9999998E-03; -7.0021041E-02;4421; -2.2313874E-02;  0.0000000E+00; -3.6455956E-04;  1.0031968E+03;  1.0000000E-01;  2.6485176E+03;3;  1.2436630E+00;  0.0000000E+00; -9.5507249E-02;0;  1.3722418E-01;  4.0287375E+04;  0.0000000E+00; -3.8879920E-02;  4.0000000E+04;  0.0000000E+00;  3.9971398E+04;  1.3635929E-01;  0.0000000E+00;  8.6489960E-04;  3.8541523E+03;
  3.2098952E-01;  9.9999998E-03; -8.0027312E-02;4420; -2.3075338E-02;  0.0000000E+00; -3.9240817E-04;  1.0034001E+03;  1.0000000E-01;  2.8169077E+03;3;  1.0684922E+00;  0.0000000E+00; -7.3573887E-02;0;  1.3666187E-01;  4.0305145E+04;  0.0000000E+00; -5.6298625E-02;  4.0000000E+04;  0.0000000E+00;  3.9970309E+04;  1.3540068E-01;  0.0000000E+00;  1.2611886E-03;  4.0141086E+03;
  3.2101461E-01;  9.9999998E-03; -9.0035655E-02;4419; -2.3495046E-02;  0.0000000E+00; -4.0553621E-04;  1.0035658E+03;  1.0000000E-01;  2.9541877E+03;3;  9.9427712E-01;  0.0000000E+00; -4.1324727E-02;0;  1.3579689E-01;  4.0319227E+04;  0.0000000E+00; -7.7145658E-02;  4.0000000E+04;  0.0000000E+00;  3.9969922E+04;  1.3404629E-01;  0.0000000E+00;  1.7506025E-03;  4.0832180E+03;
  3.2104310E-01;  9.9999998E-03; -1.0004590E-01;4418; -2.3703860E-02;  0.0000000E+00; -4.1150875E-04;  1.0036797E+03;  1.0000000E-01;  3.0486050E+03;3;  9.5915866E-01;  0.0000000E+00; -1.9350575E-02;0;  1.3456419E-01;  4.0328266E+04;  0.0000000E+00; -9.9846125E-02;  4.0000000E+04;  0.0000000E+00;  3.9970180E+04;  1.3230677E-01;  0.0000000E+00;  2.2574191E-03;  4.0520381E+03;
  3.3099103E-01;  9.9999998E-03; -1.0003738E-01;4479; -1.9988289E-02;  0.0000000E+00;  2.5161000E-05;  1.0034157E+03;  1.0000000E-01;  2.8298457E+03;3;  1.9980125E+00;  0.0000000E+00;  5.5855908E-04;0;  1.3940838E-01;  4.0309055E+04;  0.0000000E+00; -1.0956880E-01;  4.0000000E+04;  0.0000000E+00;  3.9968219E+04;  1.3840975E-01;  0.0000000E+00;  9.9863205E-04;  4.2821499E+03;
  3.3097640E-01;  9.9999998E-03; -9.0028003E-02;4480; -1.7244842E-02;  0.0000000E+00;  3.0517689E-04;  1.0032555E+03;  1.0000000E-01;  2.6971086E+03;3;  3.1336000E+00;  0.0000000E+00;  1.0750552E-01;0;  1.3975970E-01;  4.0295926E+04;  0.0000000E+00; -8.3397359E-02;  4.0000000E+04;  0.0000000E+00;  3.9968230E+04;  1.3931316E-01;  0.0000000E+00;  4.4654781E-04;  4.2589980E+03;
  3.3096555E-01;  9.9999998E-03; -8.0021091E-02;4481; -1.4172017E-02;  0.0000000E+00;  4.2646751E-04;  1.0030529E+03;  1.0000000E-01;  2.5293110E+03;3;  4.2854471E+00;  0.0000000E+00;  1.6475734E-01;0;  1.3963889E-01;  4.0278508E+04;  0.0000000E+00; -6.0514607E-02;  4.0000000E+04;  0.0000000E+00;  3.9969043E+04;  1.3972563E-01;  0.0000000E+00; -8.6732580E-05;  4.1450337E+03;
  3.3095723E-01;  9.9999998E-03; -7.0016421E-02;4482; -1.1443363E-02;  0.0000000E+00;  4.5176590E-04;  1.0028204E+03;  1.0000000E-01;  2.3367239E+03;3;  5.3525171E+00;  0.0000000E+00;  2.1477741E-01;0;  1.3914084E-01;  4.0258457E+04;  0.0000000E+00; -4.1805688E-02;  4.0000000E+04;  0.0000000E+00;  3.9970359E+04;  1.3966821E-01;  0.0000000E+00; -5.2736263E-04;  3.9549336E+03;
  3.3095083E-01;  9.9999998E-03; -6.0013529E-02;4483; -9.3963360E-03;  0.0000000E+00;  4.4729703E-04;  1.0025811E+03;  1.0000000E-01;  2.1383098E+03;3;  6.2063332E+00;  0.0000000E+00;  3.7397391E-01;0;  1.3837805E-01;  4.0236887E+04;  0.0000000E+00; -2.7346700E-02;  4.0000000E+04;  0.0000000E+00;  3.9972055E+04;  1.3920860E-01;  0.0000000E+00; -8.3055120E-04;  3.7110088E+03;
  3.3094630E-01;  9.9999998E-03; -5.0011806E-02;4484; -8.2146982E-03;  0.0000000E+00;  3.7083769E-04;  1.0023432E+03;  1.0000000E-01;  1.9412783E+03;3;  6.7531695E+00;  0.0000000E+00;  4.0997052E-01;0;  1.3746950E-01;  4.0215926E+04;  0.0000000E+00; -1.6761048E-02;  4.0000000E+04;  0.0000000E+00;  3.9974160E+04;  1.3845341E-01;  0.0000000E+00; -9.8391471E-04;  3.4402063E+03;
  3.3094382E-01;  9.9999998E-03; -4.0010512E-02;4485; -7.7795885E-03;  0.0000000E+00;  2.5810295E-04;  1.0021308E+03;  1.0000000E-01;  1.7652833E+03;3;  6.9591880E+00;  0.0000000E+00;  3.5633346E-01;0;  1.3654169E-01;  4.0196516E+04;  0.0000000E+00; -9.4433669E-03;  4.0000000E+04;  0.0000000E+00;  3.9976195E+04;  1.3754381E-01;  0.0000000E+00; -1.0021128E-03;  3.1708474E+03;
  3.3094296E-01;  9.9999998E-03; -3.0009069E-02;4486; -7.6178974E-03;  0.0000000E+00;  1.6589202E-04;  1.0019505E+03;  1.0000000E-01;  1.6159542E+03;3;  7.0478244E+00;  0.0000000E+00;  2.8424519E-01;0;  1.3571376E-01;  4.0180152E+04;  0.0000000E+00; -4.7065262E-03;  4.0000000E+04;  0.0000000E+00;  3.9977965E+04;  1.3663773E-01;  0.0000000E+00; -9.2396961E-04;  2.9299011E+03;
  3.3094311E-01;  9.9999998E-03; -2.0006986E-02;4487; -7.5526293E-03;  0.0000000E+00;  9.5358853E-05;  1.0018150E+03;  1.0000000E-01;  1.5036610E+03;3;  7.1048326E+00;  0.0000000E+00;  1.9580822E-01;0;  1.3507241E-01;  4.0167789E+04;  0.0000000E+00; -1.8888082E-03;  4.0000000E+04;  0.0000000E+00;  3.9979340E+04;  1.3587721E-01;  0.0000000E+00; -8.0478989E-04;  2.7404885E+03;
  3.3094355E-01;  9.9999998E-03; -1.0003937E-02;4488; -7.5290236E-03;  0.0000000E+00;  4.2275176E-05;  1.0017305E+03;  1.0000000E-01;  1.4336383E+03;3;  7.1341138E+00;  0.0000000E+00;  1.0103289E-01;0;  1.3467023E-01;  4.0160055E+04;  0.0000000E+00; -4.4070638E-04;  4.0000000E+04;  0.0000000E+00;  3.9980258E+04;  1.3537267E-01;  0.0000000E+00; -7.0244027E-04;  2.6198977E+03;
  3.3094379E-01;  9.9999998E-03;  4.5690043E-10;4489; -7.5242743E-03;  0.0000000E+00; -4.7242288E-10;  1.0017024E+03;  1.0000000E-01;  1.4104292E+03;3;  7.1424766E+00;  0.0000000E+00; -5.8719634E-06;0;  1.3453354E-01;  4.0157375E+04;  0.0000000E+00;  1.5348360E-12;  4.0000000E+04;  0.0000000E+00;  3.9980551E+04;  1.3519597E-01;  0.0000000E+00; -6.6243124E-04;  2.5785347E+03;
  3.3094355E-01;  9.9999998E-03;  1.0003938E-02;4490; -7.5290250E-03;  0.0000000E+00; -4.2276381E-05;  1.0017305E+03;  1.0000000E-01;  1.4336383E+03;3;  7.1341047E+00;  0.0000000E+00; -1.0104278E-01;0;  1.3467009E-01;  4.0160055E+04;  0.0000000E+00; -4.4068173E-04;  4.0000000E+04;  0.0000000E+00;  3.9980258E+04;  1.3537255E-01;  0.0000000E+00; -7.0245797E-04;  2.6198923E+03;
  3.3094311E-01;  9.9999998E-03;  2.0006988E-02;4491; -7.5526382E-03;  0.0000000E+00; -9.5360825E-05;  1.0018149E+03;  1.0000000E-01;  1.5036610E+03;3;  7.1048069E+00;  0.0000000E+00; -1.9581436E-01;0;  1.3507240E-01;  4.0167789E+04;  0.0000000E+00; -1.8889507E-03;  4.0000000E+04;  0.0000000E+00;  3.9979336E+04;  1.3587722E-01;  0.0000000E+00; -8.0482068E-04;  2.7404897E+03;
  3.3094296E-01;  9.9999998E-03;  3.0009069E-02;4492; -7.6179090E-03;  0.0000000E+00; -1.6589501E-04;  1.0019505E+03;  1.0000000E-01;  1.6159542E+03;3;  7.0478177E+00;  0.0000000E+00; -2.8424409E-01;0;  1.3571379E-01;  4.0180152E+04;  0.0000000E+00; -4.7067381E-03;  4.0000000E+04;  0.0000000E+00;  3.9977965E+04;  1.3663779E-01;  0.0000000E+00; -9.2401356E-04;  2.9298960E+03;
  3.3094382E-01;  9.9999998E-03;  4.0010516E-02;4493; -7.7795936E-03;  0.0000000E+00; -2.5810624E-04;  1.0021308E+03;  1.0000000E-01;  1.7652833E+03;3;  6.9591918E+00;  0.0000000E+00; -3.5632715E-01;0;  1.3654144E-01;  4.0196512E+04;  0.0000000E+00; -9.4435010E-03;  4.0000000E+04;  0.0000000E+00;  3.9976203E+04;  1.3754360E-01;  0.0000000E+00; -1.0021626E-03;  3.1708408E+03;
  3.3094630E-01;  9.9999998E-03;  5.0011810E-02;4494; -8.2146944E-03;  0.0000000E+00; -3.7084156E-04;  1.0023432E+03;  1.0000000E-01;  1.9412783E+03;3;  6.7531495E+00;  0.0000000E+00; -4.0995201E-01;0;  1.3746946E-01;  4.0215926E+04;  0.0000000E+00; -1.6761186E-02;  4.0000000E+04;  0.0000000E+00;  3.9974160E+04;  1.3845342E-01;  0.0000000E+00; -9.8396232E-04;  3.4401953E+03;
  3.3095083E-01;  9.9999998E-03;  6.0013529E-02;4495; -9.3963668E-03;  0.0000000E+00; -4.4730428E-04;  1.0025811E+03;  1.0000000E-01;  2.1384084E+03;3;  6.2063074E+00;  0.0000000E+00; -3.7393567E-01;0;  1.3837799E-01;  4.0236887E+04;  0.0000000E+00; -2.7346822E-02;  4.0000000E+04;  0.0000000E+00;  3.9972055E+04;  1.3920859E-01;  0.0000000E+00; -8.3059480E-04;  3.7110017E+03;
  3.4095618E-01;  9.9999998E-03; -1.0002970E-01;4540; -8.0434550E-03;  0.0000000E+00;  9.1215159E-04;  1.0030703E+03;  1.0000000E-01;  2.5436316E+03;3;  5.9755812E+00;  0.0000000E+00;  9.7831619E-01;0;  1.3686587E-01;  4.0282387E+04;  0.0000000E+00; -9.9386163E-02;  4.0000000E+04;  0.0000000E+00;  3.9966777E+04;  1.3729833E-01;  0.0000000E+00; -4.3245940E-04;  4.4180610E+03;
  3.4094769E-01;  9.9999998E-03; -9.0022199E-02;4541; -7.5749131E-03;  0.0000000E+00;  8.2791707E-04;  1.0028844E+03;  1.0000000E-01;  2.3896606E+03;3;  6.2913218E+00;  0.0000000E+00;  9.3796676E-01;0;  1.3615899E-01;  4.0266695E+04;  0.0000000E+00; -7.1535721E-02;  4.0000000E+04;  0.0000000E+00;  3.9967207E+04;  1.3717817E-01;  0.0000000E+00; -1.0191860E-03;  4.3493589E+03;
  3.4094280E-01;  9.9999998E-03; -8.0016933E-02;4542; -7.3442291E-03;  0.0000000E+00;  7.1066734E-04;  1.0026609E+03;  1.0000000E-01;  2.2045793E+03;3;  6.5308094E+00;  0.0000000E+00;  8.5671216E-01;0;  1.3489638E-01;  4.0247652E+04;  0.0000000E+00; -4.8552405E-02;  4.0000000E+04;  0.0000000E+00;  3.9968273E+04;  1.3647912E-01;  0.0000000E+00; -1.5827389E-03;  4.2019341E+03;
  3.4094110E-01;  9.9999998E-03; -7.0013657E-02;4543; -7.2306483E-03;  0.0000000E+00;  5.7953579E-04;  1.0024210E+03;  1.0000000E-01;  2.0057703E+03;3;  6.7154531E+00;  0.0000000E+00;  7.5331730E-01;0;  1.3325265E-01;  4.0226664E+04;  0.0000000E+00; -3.0834237E-02;  4.0000000E+04;  0.0000000E+00;  3.9969812E+04;  1.3530625E-01;  0.0000000E+00; -2.0536005E-03;  3.9936047E+03;
  3.4094226E-01;  9.9999998E-03; -6.0011700E-02;4544; -7.1865791E-03;  0.0000000E+00;  4.5447666E-04;  1.0021748E+03;  1.0000000E-01;  1.8018254E+03;3;  6.8591866E+00;  0.0000000E+00;  6.5134430E-01;0;  1.3140626E-01;  4.0204918E+04;  0.0000000E+00; -1.8084586E-02;  4.0000000E+04;  0.0000000E+00;  3.9971637E+04;  1.3379647E-01;  0.0000000E+00; -2.3902019E-03;  3.7466467E+03;
  3.4094530E-01;  9.9999998E-03; -5.0010536E-02;4545; -7.1898745E-03;  0.0000000E+00;  3.3931623E-04;  1.0019410E+03;  1.0000000E-01;  1.6080532E+03;3;  6.9663839E+00;  0.0000000E+00;  5.4230535E-01;0;  1.2953025E-01;  4.0184180E+04;  0.0000000E+00; -9.5998235E-03;  4.0000000E+04;  0.0000000E+00;  3.9973457E+04;  1.3211076E-01;  0.0000000E+00; -2.5805125E-03;  3.4852556E+03;
  3.4094986E-01;  9.9999998E-03; -4.0009499E-02;4546; -7.2212447E-03;  0.0000000E+00;  2.3966040E-04;  1.0017332E+03;  1.0000000E-01;  1.4359099E+03;3;  7.0506434E+00;  0.0000000E+00;  4.3112665E-01;0;  1.2777974E-01;  4.0165559E+04;  0.0000000E+00; -4.4757328E-03;  4.0000000E+04;  0.0000000E+00;  3.9975547E+04;  1.3041948E-01;  0.0000000E+00; -2.6397435E-03;  3.2333308E+03;
  3.4095487E-01;  9.9999998E-03; -3.0008202E-02;4547; -7.2667594E-03;  0.0000000E+00;  1.5736534E-04;  1.0015617E+03;  1.0000000E-01;  1.2938893E+03;3;  7.1088362E+00;  0.0000000E+00;  3.2103825E-01;0;  1.2628607E-01;  4.0150023E+04;  0.0000000E+00; -1.7503076E-03;  4.0000000E+04;  0.0000000E+00;  3.9977020E+04;  1.2889111E-01;  0.0000000E+00; -2.6050333E-03;  3.0127893E+03;
  3.4095886E-01;  9.9999998E-03; -2.0006303E-02;4548; -7.3108571E-03;  0.0000000E+00;  9.2024231E-05;  1.0014321E+03;  1.0000000E-01;  1.1865343E+03;3;  7.1483302E+00;  0.0000000E+00;  2.0977718E-01;0;  1.2515186E-01;  4.0138258E+04;  0.0000000E+00; -5.2762002E-04;  4.0000000E+04;  0.0000000E+00;  3.9978254E+04;  1.2767786E-01;  0.0000000E+00; -2.5260074E-03;  2.8418240E+03;
  3.4096187E-01;  9.9999998E-03; -1.0003398E-02;4549; -7.3414491E-03;  0.0000000E+00;  4.1889216E-05;  1.0013529E+03;  1.0000000E-01;  1.1208571E+03;3;  7.1714468E+00;  0.0000000E+00;  1.0414645E-01;0;  1.2444489E-01;  4.0131176E+04;  0.0000000E+00; -9.3960443E-05;  4.0000000E+04;  0.0000000E+00;  3.9979082E+04;  1.2689796E-01;  0.0000000E+00; -2.4530643E-03;  2.7339043E+03;
  3.4096277E-01;  9.9999998E-03;  4.5692702E-10;4550; -7.3520257E-03;  0.0000000E+00;  1.1276344E-10;  1.0013269E+03;  1.0000000E-01;  1.0993269E+03;3;  7.1792827E+00;  0.0000000E+00; -8.7953067E-06;0;  1.2420540E-01;  4.0128660E+04;  0.0000000E+00;  1.7700223E-12;  4.0000000E+04;  0.0000000E+00;  3.9979387E+04;  1.2662938E-01;  0.0000000E+00; -2.4239791E-03;  2.6970537E+03;
  3.4096187E-01;  9.9999998E-03;  1.0003399E-02;4551; -7.3414510E-03;  0.0000000E+00; -4.1888987E-05;  1.0013529E+03;  1.0000000E-01;  1.1208571E+03;3;  7.1714425E+00;  0.0000000E+00; -1.0416401E-01;0;  1.2444486E-01;  4.0131176E+04;  0.0000000E+00; -9.4152419E-05;  4.0000000E+04;  0.0000000E+00;  3.9979082E+04;  1.2689795E-01;  0.0000000E+00; -2.4530813E-03;  2.7338953E+03;
  3.4095886E-01;  9.9999998E-03;  2.0006305E-02;4552; -7.3108627E-03;  0.0000000E+00; -9.2023656E-05;  1.0014321E+03;  1.0000000E-01;  1.1865343E+03;3;  7.1483374E+00;  0.0000000E+00; -2.0979081E-01;0;  1.2515178E-01;  4.0138258E+04;  0.0000000E+00; -5.2806753E-04;  4.0000000E+04;  0.0000000E+00;  3.9978254E+04;  1.2767783E-01;  0.0000000E+00; -2.5260386E-03;  2.8418240E+03;
  3.4095487E-01;  9.9999998E-03;  3.0008204E-02;4553; -7.2667636E-03;  0.0000000E+00; -1.5736457E-04;  1.0015618E+03;  1.0000000E-01;  1.2938893E+03;3;  7.1088319E+00;  0.0000000E+00; -3.2104319E-01;0;  1.2628600E-01;  4.0150031E+04;  0.0000000E+00; -1.7504940E-03;  4.0000000E+04;  0.0000000E+00;  3.9977020E+04;  1.2889107E-01;  0.0000000E+00; -2.6050701E-03;  3.0127837E+03;
  3.4094986E-01;  9.9999998E-03;  4.0009499E-02;4554; -7.2212489E-03;  0.0000000E+00; -2.3965958E-04;  1.0017332E+03;  1.0000000E-01;  1.4359099E+03;3;  7.0506644E+00;  0.0000000E+00; -4.3112484E-01;0;  1.2777953E-01;  4.0165559E+04;  0.0000000E+00; -4.4758441E-03;  4.0000000E+04;  0.0000000E+00;  3.9975547E+04;  1.3041931E-01;  0.0000000E+00; -2.6397905E-03;  3.2333306E+03;
  3.4094530E-01;  9.9999998E-03;  5.0010536E-02;4555; -7.1898820E-03;  0.0000000E+00; -3.3931553E-04;  1.0019410E+03;  1.0000000E-01;  1.6080532E+03;3;  6.9663768E+00;  0.0000000E+00; -5.4230028E-01;0;  1.2953016E-01;  4.0184180E+04;  0.0000000E+00; -9.6004354E-03;  4.0000000E+04;  0.0000000E+00;  3.9973457E+04;  1.3211071E-01;  0.0000000E+00; -2.5805582E-03;  3.4852410E+03;
  3.4094226E-01;  9.9999998E-03;  6.0011700E-02;4556; -7.1865846E-03;  0.0000000E+00; -4.5447602E-04;  1.0021748E+03;  1.0000000E-01;  1.8018254E+03;3;  6.8591595E+00;  0.0000000E+00; -6.5133107E-01;0;  1.3140646E-01;  4.0204914E+04;  0.0000000E+00; -1.8084809E-02;  4.0000000E+04;  0.0000000E+00;  3.9971637E+04;  1.3379671E-01;  0.0000000E+00; -2.3902447E-03;  3.7466428E+03;
  3.5091320E-01;  9.9999998E-03; -1.0002359E-01;4601; -6.8580881E-03;  0.0000000E+00;  1.0690060E-03;  1.0026685E+03;  1.0000000E-01;  2.2108015E+03;3;  6.3883338E+00;  0.0000000E+00;  1.0443813E+00;0;  1.2703261E-01;  4.0250457E+04;  0.0000000E+00; -7.2611205E-02;  4.0000000E+04;  0.0000000E+00;  3.9966215E+04;  1.2899114E-01;  0.0000000E+00; -1.9585341E-03;  4.4574199E+03;
  3.5091218E-01;  9.9999998E-03; -9.0017512E-02;4602; -6.8036234E-03;  0.0000000E+00;  9.2861248E-04;  1.0024730E+03;  1.0000000E-01;  2.0488308E+03;3;  6.5699310E+00;  0.0000000E+00;  9.4562066E-01;0;  1.2546329E-01;  4.0233789E+04;  0.0000000E+00; -4.5710187E-02;  4.0000000E+04;  0.0000000E+00;  3.9966867E+04;  1.2802401E-01;  0.0000000E+00; -2.5607173E-03;  4.3559282E+03;
  3.5091516E-01;  9.9999998E-03; -8.0013283E-02;4603; -6.8012970E-03;  0.0000000E+00;  7.8303588E-04;  1.0022489E+03;  1.0000000E-01;  1.8631570E+03;3;  6.7216821E+00;  0.0000000E+00;  8.3520424E-01;0;  1.2335005E-01;  4.0214652E+04;  0.0000000E+00; -2.5182523E-02;  4.0000000E+04;  0.0000000E+00;  3.9968211E+04;  1.2648502E-01;  0.0000000E+00; -3.1349764E-03;  4.1886934E+03;
  3.5092163E-01;  9.9999998E-03; -7.0010573E-02;4604; -6.8429485E-03;  0.0000000E+00;  6.3839857E-04;  1.0020162E+03;  1.0000000E-01;  1.6703724E+03;3;  6.8566413E+00;  0.0000000E+00;  7.2440231E-01;0;  1.2089157E-01;  4.0194078E+04;  0.0000000E+00; -1.0982594E-02;  4.0000000E+04;  0.0000000E+00;  3.9969695E+04;  1.2451080E-01;  0.0000000E+00; -3.6192290E-03;  3.9748320E+03;
  3.5093096E-01;  9.9999998E-03; -6.0008936E-02;4605; -6.9152419E-03;  0.0000000E+00;  5.0487829E-04;  1.0017864E+03;  1.0000000E-01;  1.4800568E+03;3;  6.9654551E+00;  0.0000000E+00;  6.1502934E-01;0;  1.1829209E-01;  4.0173730E+04;  0.0000000E+00; -2.3471855E-03;  4.0000000E+04;  0.0000000E+00;  3.9971395E+04;  1.2226824E-01;  0.0000000E+00; -3.9761420E-03;  3.7354250E+03;
  3.5094202E-01;  9.9999998E-03; -5.0007857E-02;4606; -7.0045125E-03;  0.0000000E+00;  3.9063397E-04;  1.0015704E+03;  1.0000000E-01;  1.3010989E+03;3;  7.0553856E+00;  0.0000000E+00;  5.1187736E-01;0;  1.1574551E-01;  4.0154621E+04;  0.0000000E+00;  1.8986117E-03;  4.0000000E+04;  0.0000000E+00;  3.9973199E+04;  1.1994065E-01;  0.0000000E+00; -4.1951402E-03;  3.4915542E+03;
  3.5095295E-01;  9.9999998E-03; -4.0007140E-02;4607; -7.1016909E-03;  0.0000000E+00;  2.9062221E-04;  1.0013820E+03;  1.0000000E-01;  1.1449552E+03;3;  7.1255035E+00;  0.0000000E+00;  4.0773007E-01;0;  1.1342552E-01;  4.0137816E+04;  0.0000000E+00;  3.0976394E-03;  4.0000000E+04;  0.0000000E+00;  3.9974875E+04;  1.1771598E-01;  0.0000000E+00; -4.2904508E-03;  3.2628391E+03;
  3.5096183E-01;  9.9999998E-03; -3.0006494E-02;4608; -7.1935658E-03;  0.0000000E+00;  2.0366932E-04;  1.0012283E+03;  1.0000000E-01;  1.0176501E+03;3;  7.1773725E+00;  0.0000000E+00;  3.0388567E-01;0;  1.1147694E-01;  4.0123973E+04;  0.0000000E+00;  2.5584658E-03;  4.0000000E+04;  0.0000000E+00;  3.9976477E+04;  1.1577225E-01;  0.0000000E+00; -4.2953035E-03;  3.0665305E+03;
  3.5096800E-01;  9.9999998E-03; -2.0005275E-02;4609; -7.2680851E-03;  0.0000000E+00;  1.2846795E-04;  1.0011132E+03;  1.0000000E-01;  9.2224542E+02;3;  7.2135739E+00;  0.0000000E+00;  2.0131694E-01;0;  1.1001010E-01;  4.0113672E+04;  0.0000000E+00;  1.3889938E-03;  4.0000000E+04;  0.0000000E+00;  3.9977531E+04;  1.1426321E-01;  0.0000000E+00; -4.2531090E-03;  2.9164802E+03;
  3.5097107E-01;  9.9999998E-03; -1.0003103E-02;4610; -7.3170685E-03;  0.0000000E+00;  6.1751030E-05;  1.0010452E+03;  1.0000000E-01;  8.6585199E+02;3;  7.2329230E+00;  0.0000000E+00;  9.9425249E-02;0;  1.0910171E-01;  4.0107520E+04;  0.0000000E+00;  3.8385903E-04;  4.0000000E+04;  0.0000000E+00;  3.9978156E+04;  1.1330827E-01;  0.0000000E+00; -4.2065601E-03;  2.8226345E+03;
  3.5097170E-01;  9.9999998E-03;  4.7795756E-10;4611; -7.3347203E-03;  0.0000000E+00;  5.3611421E-10;  1.0010222E+03;  1.0000000E-01;  8.4688959E+02;3;  7.2388973E+00;  0.0000000E+00; -1.0350585E-05;0;  1.0879484E-01;  4.0105461E+04;  0.0000000E+00;  3.0295902E-13;  4.0000000E+04;  0.0000000E+00;  3.9978395E+04;  1.1298196E-01;  0.0000000E+00; -4.1871211E-03;  2.7907344E+03;
  3.5097107E-01;  9.9999998E-03;  1.0003104E-02;4612; -7.3170704E-03;  0.0000000E+00; -6.1749626E-05;  1.0010452E+03;  1.0000000E-01;  8.6585199E+02;3;  7.2329345E+00;  0.0000000E+00; -9.9442527E-02;0;  1.0910173E-01;  4.0107520E+04;  0.0000000E+00;  3.8368761E-04;  4.0000000E+04;  0.0000000E+00;  3.9978156E+04;  1.1330830E-01;  0.0000000E+00; -4.2065699E-03;  2.8226277E+03;
  3.5096800E-01;  9.9999998E-03;  2.0005276E-02;4613; -7.2680856E-03;  0.0000000E+00; -1.2846661E-04;  1.0011132E+03;  1.0000000E-01;  9.2224542E+02;3;  7.2135844E+00;  0.0000000E+00; -2.0133442E-01;0;  1.1001001E-01;  4.0113672E+04;  0.0000000E+00;  1.3886277E-03;  4.0000000E+04;  0.0000000E+00;  3.9977531E+04;  1.1426314E-01;  0.0000000E+00; -4.2531295E-03;  2.9164768E+03;
  3.5096183E-01;  9.9999998E-03;  3.0006496E-02;4614; -7.1935719E-03;  0.0000000E+00; -2.0366763E-04;  1.0012283E+03;  1.0000000E-01;  1.0176501E+03;3;  7.1773572E+00;  0.0000000E+00; -3.0389518E-01;0;  1.1147684E-01;  4.0123973E+04;  0.0000000E+00;  2.5577783E-03;  4.0000000E+04;  0.0000000E+00;  3.9976477E+04;  1.1577218E-01;  0.0000000E+00; -4.2953384E-03;  3.0665300E+03;
  3.5095295E-01;  9.9999998E-03;  4.0007140E-02;4615; -7.1016941E-03;  0.0000000E+00; -2.9062020E-04;  1.0013821E+03;  1.0000000E-01;  1.1450540E+03;3;  7.1255026E+00;  0.0000000E+00; -4.0773219E-01;0;  1.1342552E-01;  4.0137809E+04;  0.0000000E+00;  3.0967044E-03;  4.0000000E+04;  0.0000000E+00;  3.9974875E+04;  1.1771601E-01;  0.0000000E+00; -4.2904862E-03;  3.2628318E+03;
  3.5094202E-01;  9.9999998E-03;  5.0007857E-02;4616; -7.0045176E-03;  0.0000000E+00; -3.9063199E-04;  1.0015704E+03;  1.0000000E-01;  1.3010989E+03;3;  7.0554466E+00;  0.0000000E+00; -5.1187247E-01;0;  1.1574530E-01;  4.0154617E+04;  0.0000000E+00;  1.8989500E-03;  4.0000000E+04;  0.0000000E+00;  3.9973199E+04;  1.1994047E-01;  0.0000000E+00; -4.1951709E-03;  3.4915540E+03;
  3.5093096E-01;  9.9999998E-03;  6.0008939E-02;4617; -6.9152475E-03;  0.0000000E+00; -5.0487631E-04;  1.0017864E+03;  1.0000000E-01;  1.4800568E+03;3;  6.9654312E+00;  0.0000000E+00; -6.1502004E-01;0;  1.1829206E-01;  4.0173730E+04;  0.0000000E+00; -2.3484267E-03;  4.0000000E+04;  0.0000000E+00;  3.9971398E+04;  1.2226824E-01;  0.0000000E+00; -3.9761830E-03;  3.7354182E+03;
  3.6087784E-01;  9.9999998E-03; -1.0002034E-01;4662; -6.5511880E-03;  0.0000000E+00;  1.1434710E-03;  1.0022375E+03;  1.0000000E-01;  1.8537745E+03;3;  6.4961152E+00;  0.0000000E+00;  9.7140807E-01;0;  1.1183988E-01;  4.0215207E+04;  0.0000000E+00; -3.4947734E-02;  4.0000000E+04;  0.0000000E+00;  3.9966328E+04;  1.1530673E-01;  0.0000000E+00; -3.4668478E-03;  4.4044585E+03;
  3.6088333E-01;  9.9999998E-03; -9.0015523E-02;4663; -6.5641967E-03;  0.0000000E+00;  9.9385169E-04;  1.0020435E+03;  1.0000000E-01;  1.6929890E+03;3;  6.6601315E+00;  0.0000000E+00;  8.7787569E-01;0;  1.0967612E-01;  4.0198734E+04;  0.0000000E+00; -1.2059446E-02;  4.0000000E+04;  0.0000000E+00;  3.9967195E+04;  1.1375225E-01;  0.0000000E+00; -4.0761339E-03;  4.2844077E+03;
  3.6089313E-01;  9.9999998E-03; -8.0011919E-02;4664; -6.6197882E-03;  0.0000000E+00;  8.4906741E-04;  1.0018382E+03;  1.0000000E-01;  1.5229198E+03;3;  6.8069763E+00;  0.0000000E+00;  7.8023797E-01;0;  1.0700873E-01;  4.0180914E+04;  0.0000000E+00;  3.3490465E-03;  4.0000000E+04;  0.0000000E+00;  3.9968492E+04;  1.1166137E-01;  0.0000000E+00; -4.6526473E-03;  4.1113936E+03;
  3.6090654E-01;  9.9999998E-03; -7.0009127E-02;4665; -6.7141308E-03;  0.0000000E+00;  7.0754113E-04;  1.0016273E+03;  1.0000000E-01;  1.3481099E+03;3;  6.9291883E+00;  0.0000000E+00;  6.7957771E-01;0;  1.0404704E-01;  4.0162449E+04;  0.0000000E+00;  1.1848612E-02;  4.0000000E+04;  0.0000000E+00;  3.9970051E+04;  1.0919013E-01;  0.0000000E+00; -5.1430902E-03;  3.9044031E+03;
  3.6092195E-01;  9.9999998E-03; -6.0006935E-02;4666; -6.8349666E-03;  0.0000000E+00;  5.7252188E-04;  1.0014269E+03;  1.0000000E-01;  1.1821887E+03;3;  7.0336370E+00;  0.0000000E+00;  5.7675856E-01;0;  1.0100380E-01;  4.0144602E+04;  0.0000000E+00;  1.4748668E-02;  4.0000000E+04;  0.0000000E+00;  3.9971488E+04;  1.0651868E-01;  0.0000000E+00; -5.5148732E-03;  3.6827942E+03;
  3.6093670E-01;  9.9999998E-03; -5.0005529E-02;4667; -6.9691618E-03;  0.0000000E+00;  4.4783685E-04;  1.0012424E+03;  1.0000000E-01;  1.0293042E+03;3;  7.1186576E+00;  0.0000000E+00;  4.7562504E-01;0;  9.8080650E-02;  4.0128203E+04;  0.0000000E+00;  1.3728206E-02;  4.0000000E+04;  0.0000000E+00;  3.9973168E+04;  1.0383920E-01;  0.0000000E+00; -5.7585514E-03;  3.4643542E+03;
  3.6094871E-01;  9.9999998E-03; -4.0004939E-02;4668; -7.0988936E-03;  0.0000000E+00;  3.4006365E-04;  1.0010831E+03;  1.0000000E-01;  8.9735724E+02;3;  7.1881509E+00;  0.0000000E+00;  3.7583521E-01;0;  9.5454536E-02;  4.0114121E+04;  0.0000000E+00;  1.0512553E-02;  4.0000000E+04;  0.0000000E+00;  3.9974652E+04;  1.0134099E-01;  0.0000000E+00; -5.8864593E-03;  3.2647659E+03;
  3.6095729E-01;  9.9999998E-03; -3.0004699E-02;4669; -7.2148754E-03;  0.0000000E+00;  2.4433425E-04;  1.0009557E+03;  1.0000000E-01;  7.9178003E+02;3;  7.2394304E+00;  0.0000000E+00;  2.8130522E-01;0;  9.3269110E-02;  4.0102559E+04;  0.0000000E+00;  6.6087693E-03;  4.0000000E+04;  0.0000000E+00;  3.9975895E+04;  9.9196665E-02;  0.0000000E+00; -5.9275539E-03;  3.0969194E+03;
  3.6096284E-01;  9.9999998E-03; -2.0004079E-02;4670; -7.3065697E-03;  0.0000000E+00;  1.5766195E-04;  1.0008608E+03;  1.0000000E-01;  7.1316498E+02;3;  7.2703567E+00;  0.0000000E+00;  1.8690740E-01;0;  9.1632985E-02;  4.0094227E+04;  0.0000000E+00;  3.1386476E-03;  4.0000000E+04;  0.0000000E+00;  3.9976883E+04;  9.7551912E-02;  0.0000000E+00; -5.9189289E-03;  2.9707429E+03;
  3.6096516E-01;  9.9999998E-03; -1.0002522E-02;4671; -7.3659304E-03;  0.0000000E+00;  7.7545032E-05;  1.0008052E+03;  1.0000000E-01;  6.6704279E+02;3;  7.2889705E+00;  0.0000000E+00;  9.3174055E-02;0;  9.0623073E-02;  4.0089152E+04;  0.0000000E+00;  8.1253931E-04;  4.0000000E+04;  0.0000000E+00;  3.9977316E+04;  9.6519344E-02;  0.0000000E+00; -5.8962707E-03;  2.8927092E+03;
  3.6096600E-01;  9.9999998E-03;  5.0789811E-10;4672; -7.3867813E-03;  0.0000000E+00;  9.1619867E-10;  1.0007874E+03;  1.0000000E-01;  6.5232721E+02;3;  7.2930489E+00;  0.0000000E+00; -1.3186813E-05;0;  9.0281449E-02;  4.0087391E+04;  0.0000000E+00;  1.5297647E-13;  4.0000000E+04;  0.0000000E+00;  3.9977566E+04;  9.6167043E-02;  0.0000000E+00; -5.8855927E-03;  2.8663337E+03;
  3.6096516E-01;  9.9999998E-03;  1.0002523E-02;4673; -7.3659332E-03;  0.0000000E+00; -7.7543387E-05;  1.0008052E+03;  1.0000000E-01;  6.6704279E+02;3;  7.2889934E+00;  0.0000000E+00; -9.3202464E-02;0;  9.0623081E-02;  4.0089152E+04;  0.0000000E+00;  8.1229646E-04;  4.0000000E+04;  0.0000000E+00;  3.9977320E+04;  9.6519366E-02;  0.0000000E+00; -5.8962828E-03;  2.8927009E+03;
  3.6096284E-01;  9.9999998E-03;  2.0004081E-02;4674; -7.3065753E-03;  0.0000000E+00; -1.5765966E-04;  1.0008608E+03;  1.0000000E-01;  7.1316498E+02;3;  7.2703462E+00;  0.0000000E+00; -1.8692802E-01;0;  9.1632947E-02;  4.0094223E+04;  0.0000000E+00;  3.1381557E-03;  4.0000000E+04;  0.0000000E+00;  3.9976883E+04;  9.7551897E-02;  0.0000000E+00; -5.9189498E-03;  2.9707371E+03;
  3.6095729E-01;  9.9999998E-03;  3.0004701E-02;4675; -7.2148768E-03;  0.0000000E+00; -2.4433204E-04;  1.0009557E+03;  1.0000000E-01;  7.9178003E+02;3;  7.2395005E+00;  0.0000000E+00; -2.8131485E-01;0;  9.3269058E-02;  4.0102555E+04;  0.0000000E+00;  6.6079898E-03;  4.0000000E+04;  0.0000000E+00;  3.9975895E+04;  9.9196635E-02;  0.0000000E+00; -5.9275776E-03;  3.0969045E+03;
  3.6094871E-01;  9.9999998E-03;  4.0004939E-02;4676; -7.0989002E-03;  0.0000000E+00; -3.4006147E-04;  1.0010831E+03;  1.0000000E-01;  8.9735724E+02;3;  7.1880989E+00;  0.0000000E+00; -3.7584788E-01;0;  9.5454499E-02;  4.0114121E+04;  0.0000000E+00;  1.0512429E-02;  4.0000000E+04;  0.0000000E+00;  3.9974652E+04;  1.0134099E-01;  0.0000000E+00; -5.8864909E-03;  3.2647629E+03;
  3.6093670E-01;  9.9999998E-03;  5.0005529E-02;4677; -6.9691688E-03;  0.0000000E+00; -4.4783473E-04;  1.0012424E+03;  1.0000000E-01;  1.0293042E+03;3;  7.1185961E+00;  0.0000000E+00; -4.7563177E-01;0;  9.8080605E-02;  4.0128207E+04;  0.0000000E+00;  1.3727257E-02;  4.0000000E+04;  0.0000000E+00;  3.9973168E+04;  1.0383919E-01;  0.0000000E+00; -5.7585873E-03;  3.4643408E+03;
  3.6092195E-01;  9.9999998E-03;  6.0006939E-02;4678; -6.8349708E-03;  0.0000000E+00; -5.7251932E-04;  1.0014269E+03;  1.0000000E-01;  1.1821887E+03;3;  7.0336051E+00;  0.0000000E+00; -5.7675719E-01;0;  1.0100369E-01;  4.0144594E+04;  0.0000000E+00;  1.4748122E-02;  4.0000000E+04;  0.0000000E+00;  3.9971488E+04;  1.0651860E-01;  0.0000000E+00; -5.5149016E-03;  3.6827969E+03;
  3.7085295E-01;  9.9999998E-03; -1.0002061E-01;4723; -6.4391065E-03;  0.0000000E+00;  1.1993535E-03;  1.0017969E+03;  1.0000000E-01;  1.4886492E+03;3;  6.5606751E+00;  0.0000000E+00;  8.9823079E-01;0;  9.3341149E-02;  4.0178777E+04;  0.0000000E+00;  7.0558926E-03;  4.0000000E+04;  0.0000000E+00;  3.9967164E+04;  9.8206237E-02;  0.0000000E+00; -4.8650848E-03;  4.2679907E+03;
  3.7086394E-01;  9.9999998E-03; -9.0016373E-02;4724; -6.4867637E-03;  0.0000000E+00;  1.0483599E-03;  1.0016245E+03;  1.0000000E-01;  1.3458384E+03;3;  6.7220845E+00;  0.0000000E+00;  8.0676073E-01;0;  9.0843946E-02;  4.0164012E+04;  0.0000000E+00;  2.3166437E-02;  4.0000000E+04;  0.0000000E+00;  3.9968148E+04;  9.6326880E-02;  0.0000000E+00; -5.4829372E-03;  4.1430850E+03;
  3.7087882E-01;  9.9999998E-03; -8.0012552E-02;4725; -6.5781334E-03;  0.0000000E+00;  9.0016430E-04;  1.0014465E+03;  1.0000000E-01;  1.1983857E+03;3;  6.8649740E+00;  0.0000000E+00;  7.1511656E-01;0;  8.7905891E-02;  4.0148527E+04;  0.0000000E+00;  3.1403165E-02;  4.0000000E+04;  0.0000000E+00;  3.9969188E+04;  9.3968935E-02;  0.0000000E+00; -6.0630469E-03;  3.9771746E+03;
  3.7089598E-01;  9.9999998E-03; -7.0009314E-02;4726; -6.7020515E-03;  0.0000000E+00;  7.6089933E-04;  1.0012718E+03;  1.0000000E-01;  1.0536985E+03;3;  6.9890299E+00;  0.0000000E+00;  6.2449378E-01;0;  8.4734619E-02;  4.0133109E+04;  0.0000000E+00;  3.2945845E-02;  4.0000000E+04;  0.0000000E+00;  3.9970586E+04;  9.1295354E-02;  0.0000000E+00; -6.5607359E-03;  3.7884563E+03;
  3.7091240E-01;  9.9999998E-03; -6.0007039E-02;4727; -6.8496796E-03;  0.0000000E+00;  6.2739290E-04;  1.0011078E+03;  1.0000000E-01;  9.1780115E+02;3;  7.0941458E+00;  0.0000000E+00;  5.3022540E-01;0;  8.1538945E-02;  4.0118625E+04;  0.0000000E+00;  2.9615313E-02;  4.0000000E+04;  0.0000000E+00;  3.9972172E+04;  8.8487171E-02;  0.0000000E+00; -6.9482219E-03;  3.5939985E+03;
  3.7092569E-01;  9.9999998E-03; -5.0005868E-02;4728; -7.0077586E-03;  0.0000000E+00;  5.0051924E-04;  1.0009633E+03;  1.0000000E-01;  7.9800208E+02;3;  7.1765218E+00;  0.0000000E+00;  4.3857366E-01;0;  7.8511029E-02;  4.0105594E+04;  0.0000000E+00;  2.3454392E-02;  4.0000000E+04;  0.0000000E+00;  3.9973426E+04;  8.5728310E-02;  0.0000000E+00; -7.2172782E-03;  3.4084507E+03;
  3.7093493E-01;  9.9999998E-03; -4.0005319E-02;4729; -7.1574482E-03;  0.0000000E+00;  3.8465695E-04;  1.0008422E+03;  1.0000000E-01;  6.9775800E+02;3;  7.2392077E+00;  0.0000000E+00;  3.4522563E-01;0;  7.5816676E-02;  4.0094684E+04;  0.0000000E+00;  1.6326400E-02;  4.0000000E+04;  0.0000000E+00;  3.9974730E+04;  8.3194852E-02;  0.0000000E+00; -7.3781740E-03;  3.2436968E+03;
  3.7094095E-01;  9.9999998E-03; -3.0004773E-02;4730; -7.2854059E-03;  0.0000000E+00;  2.8000071E-04;  1.0007445E+03;  1.0000000E-01;  6.1677264E+02;3;  7.2835011E+00;  0.0000000E+00;  2.5775203E-01;0;  7.3587731E-02;  4.0085789E+04;  0.0000000E+00;  9.6701337E-03;  4.0000000E+04;  0.0000000E+00;  3.9975699E+04;  8.1042901E-02;  0.0000000E+00; -7.4551688E-03;  3.1086147E+03;
  3.7094480E-01;  9.9999998E-03; -2.0003779E-02;4731; -7.3861047E-03;  0.0000000E+00;  1.8254643E-04;  1.0006746E+03;  1.0000000E-01;  5.5889771E+02;3;  7.3175964E+00;  0.0000000E+00;  1.7183144E-01;0;  7.1924895E-02;  4.0079469E+04;  0.0000000E+00;  4.4274102E-03;  4.0000000E+04;  0.0000000E+00;  3.9976457E+04;  7.9404011E-02;  0.0000000E+00; -7.4791126E-03;  3.0090767E+03;
  3.7094617E-01;  9.9999998E-03; -1.0002131E-02;4732; -7.4516446E-03;  0.0000000E+00;  9.0200243E-05;  1.0006327E+03;  1.0000000E-01;  5.2413330E+02;3;  7.3359985E+00;  0.0000000E+00;  8.6718395E-02;0;  7.0900694E-02;  4.0075621E+04;  0.0000000E+00;  1.1235413E-03;  4.0000000E+04;  0.0000000E+00;  3.9976809E+04;  7.8379951E-02;  0.0000000E+00; -7.4792560E-03;  2.9484331E+03;
  3.7094626E-01;  9.9999998E-03;  5.4434995E-10;4733; -7.4750474E-03;  0.0000000E+00;  1.3972135E-09;  1.0006179E+03;  1.0000000E-01;  5.1188672E+02;3;  7.3415484E+00;  0.0000000E+00; -1.3781687E-05;0;  7.0555374E-02;  4.0074391E+04;  0.0000000E+00;  1.4906936E-12;  4.0000000E+04;  0.0000000E+00;  3.9976965E+04;  7.8032106E-02;  0.0000000E+00; -7.4767289E-03;  2.9281287E+03;
  3.7094617E-01;  9.9999998E-03;  1.0002132E-02;4734; -7.4516465E-03;  0.0000000E+00; -9.0197143E-05;  1.0006327E+03;  1.0000000E-01;  5.2413330E+02;3;  7.3359714E+00;  0.0000000E+00; -8.6749271E-02;0;  7.0900716E-02;  4.0075621E+04;  0.0000000E+00;  1.1232436E-03;  4.0000000E+04;  0.0000000E+00;  3.9976809E+04;  7.8379981E-02;  0.0000000E+00; -7.4792639E-03;  2.9484382E+03;
  3.7094480E-01;  9.9999998E-03;  2.0003781E-02;4735; -7.3861117E-03;  0.0000000E+00; -1.8254312E-04;  1.0006747E+03;  1.0000000E-01;  5.5899652E+02;3;  7.3176427E+00;  0.0000000E+00; -1.7184986E-01;0;  7.1924895E-02;  4.0079469E+04;  0.0000000E+00;  4.4269208E-03;  4.0000000E+04;  0.0000000E+00;  3.9976457E+04;  7.9404019E-02;  0.0000000E+00; -7.4791247E-03;  3.0090823E+03;
  3.7094095E-01;  9.9999998E-03;  3.0004775E-02;4736; -7.2854096E-03;  0.0000000E+00; -2.7999823E-04;  1.0007445E+03;  1.0000000E-01;  6.1677264E+02;3;  7.2834969E+00;  0.0000000E+00; -2.5776628E-01;0;  7.3587641E-02;  4.0085789E+04;  0.0000000E+00;  9.6693719E-03;  4.0000000E+04;  0.0000000E+00;  3.9975699E+04;  8.1042834E-02;  0.0000000E+00; -7.4551888E-03;  3.1086045E+03;
  3.7093493E-01;  9.9999998E-03;  4.0005319E-02;4737; -7.1574538E-03;  0.0000000E+00; -3.8465398E-04;  1.0008422E+03;  1.0000000E-01;  6.9775800E+02;3;  7.2391510E+00;  0.0000000E+00; -3.4522849E-01;0;  7.5816602E-02;  4.0094684E+04;  0.0000000E+00;  1.6325751E-02;  4.0000000E+04;  0.0000000E+00;  3.9974730E+04;  8.3194807E-02;  0.0000000E+00; -7.3782019E-03;  3.2436912E+03;
  3.7092569E-01;  9.9999998E-03;  5.0005868E-02;4738; -7.0077591E-03;  0.0000000E+00; -5.0051615E-04;  1.0009633E+03;  1.0000000E-01;  7.9810083E+02;3;  7.1765237E+00;  0.0000000E+00; -4.3858403E-01;0;  7.8510895E-02;  4.0105586E+04;  0.0000000E+00;  2.3453189E-02;  4.0000000E+04;  0.0000000E+00;  3.9973426E+04;  8.5728206E-02;  0.0000000E+00; -7.2173066E-03;  3.4084463E+03;
  3.7091240E-01;  9.9999998E-03;  6.0007043E-02;4739; -6.8496806E-03;  0.0000000E+00; -6.2738976E-04;  1.0011078E+03;  1.0000000E-01;  9.1780115E+02;3;  7.0941310E+00;  0.0000000E+00; -5.3022355E-01;0;  8.1538737E-02;  4.0118621E+04;  0.0000000E+00;  2.9614795E-02;  4.0000000E+04;  0.0000000E+00;  3.9972172E+04;  8.8486984E-02;  0.0000000E+00; -6.9482452E-03;  3.5939951E+03;
  3.8083678E-01;  9.9999998E-03; -1.0002386E-01;4784; -6.4420141E-03;  0.0000000E+00;  1.2270805E-03;  1.0013830E+03;  1.0000000E-01;  1.1457452E+03;3;  6.6093674E+00;  0.0000000E+00;  8.1856555E-01;0;  7.3505729E-02;  4.0143766E+04;  0.0000000E+00;  4.7492988E-02;  4.0000000E+04;  0.0000000E+00;  3.9968617E+04;  7.9597026E-02;  0.0000000E+00; -6.0912995E-03;  4.0593206E+03;
  3.8085109E-01;  9.9999998E-03; -9.0019934E-02;4785; -6.5094940E-03;  0.0000000E+00;  1.0846492E-03;  1.0012409E+03;  1.0000000E-01;  1.0280203E+03;3;  6.7735567E+00;  0.0000000E+00;  7.3743951E-01;0;  7.0906945E-02;  4.0131562E+04;  0.0000000E+00;  5.5127241E-02;  4.0000000E+04;  0.0000000E+00;  3.9969363E+04;  7.7632643E-02;  0.0000000E+00; -6.7256987E-03;  3.9412688E+03;
  3.8086748E-01;  9.9999998E-03; -8.0016203E-02;4786; -6.6215596E-03;  0.0000000E+00;  9.4057765E-04;  1.0010989E+03;  1.0000000E-01;  9.1039392E+02;3;  6.9167066E+00;  0.0000000E+00;  6.5299809E-01;0;  6.7946441E-02;  4.0118996E+04;  0.0000000E+00;  5.5363145E-02;  4.0000000E+04;  0.0000000E+00;  3.9970441E+04;  7.5263985E-02;  0.0000000E+00; -7.3175440E-03;  3.7934602E+03;
  3.8088343E-01;  9.9999998E-03; -7.0013218E-02;4787; -6.7618382E-03;  0.0000000E+00;  8.0346694E-04;  1.0009679E+03;  1.0000000E-01;  8.0185382E+02;3;  7.0383925E+00;  0.0000000E+00;  5.6576914E-01;0;  6.4819500E-02;  4.0107273E+04;  0.0000000E+00;  4.9914099E-02;  4.0000000E+04;  0.0000000E+00;  3.9971734E+04;  7.2649643E-02;  0.0000000E+00; -7.8301448E-03;  3.6324512E+03;
  3.8089660E-01;  9.9999998E-03; -6.0011286E-02;4788; -6.9211065E-03;  0.0000000E+00;  6.7203469E-04;  1.0008470E+03;  1.0000000E-01;  7.0170850E+02;3;  7.1390243E+00;  0.0000000E+00;  4.8285666E-01;0;  6.1714865E-02;  4.0096473E+04;  0.0000000E+00;  4.0926855E-02;  4.0000000E+04;  0.0000000E+00;  3.9972926E+04;  6.9955125E-02;  0.0000000E+00; -8.2402602E-03;  3.4729622E+03;
  3.8090569E-01;  9.9999998E-03; -5.0010130E-02;4789; -7.0881117E-03;  0.0000000E+00;  5.4441753E-04;  1.0007426E+03;  1.0000000E-01;  6.1529120E+02;3;  7.2238636E+00;  0.0000000E+00;  4.0138006E-01;0;  5.8803953E-02;  4.0087211E+04;  0.0000000E+00;  3.0509753E-02;  4.0000000E+04;  0.0000000E+00;  3.9973988E+04;  6.7344509E-02;  0.0000000E+00; -8.5405549E-03;  3.3265320E+03;
  3.8091171E-01;  9.9999998E-03; -4.0009107E-02;4790; -7.2449222E-03;  0.0000000E+00;  4.2363402E-04;  1.0006567E+03;  1.0000000E-01;  5.4408331E+02;3;  7.2744727E+00;  0.0000000E+00;  3.1525600E-01;0;  5.6230731E-02;  4.0079441E+04;  0.0000000E+00;  2.0384885E-02;  4.0000000E+04;  0.0000000E+00;  3.9974797E+04;  6.4969689E-02;  0.0000000E+00; -8.7389564E-03;  3.2012146E+03;
  3.8091505E-01;  9.9999998E-03; -3.0007681E-02;4791; -7.3790113E-03;  0.0000000E+00;  3.1138578E-04;  1.0005903E+03;  1.0000000E-01;  4.8907254E+02;3;  7.3228841E+00;  0.0000000E+00;  2.3552701E-01;0;  5.4112580E-02;  4.0073238E+04;  0.0000000E+00;  1.1744794E-02;  4.0000000E+04;  0.0000000E+00;  3.9975586E+04;  6.2967241E-02;  0.0000000E+00; -8.8546602E-03;  3.1020078E+03;
  3.8091612E-01;  9.9999998E-03; -2.0005640E-02;4792; -7.4850791E-03;  0.0000000E+00;  2.0414620E-04;  1.0005435E+03;  1.0000000E-01;  4.5025885E+02;3;  7.3536754E+00;  0.0000000E+00;  1.5756987E-01;0;  5.2539255E-02;  4.0068926E+04;  0.0000000E+00;  5.2824407E-03;  4.0000000E+04;  0.0000000E+00;  3.9976242E+04;  6.1451592E-02;  0.0000000E+00; -8.9123370E-03;  3.0311104E+03;
  3.8091618E-01;  9.9999998E-03; -1.0002994E-02;4793; -7.5527616E-03;  0.0000000E+00;  1.0081490E-04;  1.0005126E+03;  1.0000000E-01;  4.2467932E+02;3;  7.3670855E+00;  0.0000000E+00;  7.9477169E-02;0;  5.1571555E-02;  4.0066469E+04;  0.0000000E+00;  1.3272897E-03;  4.0000000E+04;  0.0000000E+00;  3.9976594E+04;  6.0507156E-02;  0.0000000E+00; -8.9356024E-03;  2.9888904E+03;
  3.8091588E-01;  9.9999998E-03;  5.6320543E-10;4794; -7.5757829E-03;  0.0000000E+00;  1.9997655E-09;  1.0005053E+03;  1.0000000E-01;  4.1865479E+02;3;  7.3711004E+00;  0.0000000E+00; -1.4235715E-05;0;  5.1245514E-02;  4.0065598E+04;  0.0000000E+00;  1.1328902E-12;  4.0000000E+04;  0.0000000E+00;  3.9976621E+04;  6.0186818E-02;  0.0000000E+00; -8.9413030E-03;  2.9749143E+03;
  3.8091618E-01;  9.9999998E-03;  1.0002995E-02;4795; -7.5527662E-03;  0.0000000E+00; -1.0081007E-04;  1.0005125E+03;  1.0000000E-01;  4.2458057E+02;3;  7.3671122E+00;  0.0000000E+00; -7.9502359E-02;0;  5.1571570E-02;  4.0066473E+04;  0.0000000E+00;  1.3270500E-03;  4.0000000E+04;  0.0000000E+00;  3.9976594E+04;  6.0507186E-02;  0.0000000E+00; -8.9356173E-03;  2.9888870E+03;
  3.8091612E-01;  9.9999998E-03;  2.0005642E-02;4796; -7.4850847E-03;  0.0000000E+00; -2.0414243E-04;  1.0005435E+03;  1.0000000E-01;  4.5025885E+02;3;  7.3536415E+00;  0.0000000E+00; -1.5759465E-01;0;  5.2539255E-02;  4.0068926E+04;  0.0000000E+00;  5.2817734E-03;  4.0000000E+04;  0.0000000E+00;  3.9976242E+04;  6.1451603E-02;  0.0000000E+00; -8.9123482E-03;  3.0310986E+03;
  3.8091505E-01;  9.9999998E-03;  3.0007683E-02;4797; -7.3790168E-03;  0.0000000E+00; -3.1138264E-04;  1.0005903E+03;  1.0000000E-01;  4.8907254E+02;3;  7.3228803E+00;  0.0000000E+00; -2.3555349E-01;0;  5.4112561E-02;  4.0073238E+04;  0.0000000E+00;  1.1744236E-02;  4.0000000E+04;  0.0000000E+00;  3.9975586E+04;  6.2967241E-02;  0.0000000E+00; -8.8546788E-03;  3.1020142E+03;
  3.8091171E-01;  9.9999998E-03;  4.0009111E-02;4798; -7.2449273E-03;  0.0000000E+00; -4.2363067E-04;  1.0006566E+03;  1.0000000E-01;  5.4398456E+02;3;  7.2744341E+00;  0.0000000E+00; -3.1527281E-01;0;  5.6230638E-02;  4.0079441E+04;  0.0000000E+00;  2.0383367E-02;  4.0000000E+04;  0.0000000E+00;  3.9974797E+04;  6.4969614E-02;  0.0000000E+00; -8.7389769E-03;  3.2012249E+03;
  3.8090569E-01;  9.9999998E-03;  5.0010134E-02;4799; -7.0881112E-03;  0.0000000E+00; -5.4441404E-04;  1.0007426E+03;  1.0000000E-01;  6.1529120E+02;3;  7.2238235E+00;  0.0000000E+00; -4.0140241E-01;0;  5.8804043E-02;  4.0087203E+04;  0.0000000E+00;  3.0509127E-02;  4.0000000E+04;  0.0000000E+00;  3.9973988E+04;  6.7344613E-02;  0.0000000E+00; -8.5405717E-03;  3.3265247E+03;
  3.8089660E-01;  9.9999998E-03;  6.0011286E-02;4800; -6.9211065E-03;  0.0000000E+00; -6.7203061E-04;  1.0008470E+03;  1.0000000E-01;  7.0170850E+02;3;  7.1390038E+00;  0.0000000E+00; -4.8285770E-01;0;  6.1714798E-02;  4.0096484E+04;  0.0000000E+00;  4.0926162E-02;  4.0000000E+04;  0.0000000E+00;  3.9972926E+04;  6.9955081E-02;  0.0000000E+00; -8.2402835E-03;  3.4729673E+03;
  3.9082828E-01;  9.9999998E-03; -1.0002906E-01;4845; -6.5211845E-03;  0.0000000E+00;  1.2379457E-03;  1.0010268E+03;  1.0000000E-01;  8.5064252E+02;3;  6.6492743E+00;  0.0000000E+00;  7.3404753E-01;0;  5.4016434E-02;  4.0112734E+04;  0.0000000E+00;  8.2159586E-02;  4.0000000E+04;  0.0000000E+00;  3.9970535E+04;  6.1134186E-02;  0.0000000E+00; -7.1177501E-03;  3.7909941E+03;
  3.9084291E-01;  9.9999998E-03; -9.0025291E-02;4846; -6.5962719E-03;  0.0000000E+00;  1.1059601E-03;  1.0009191E+03;  1.0000000E-01;  7.6145990E+02;3;  6.8128290E+00;  0.0000000E+00;  6.6213655E-01;0;  5.1503770E-02;  4.0103492E+04;  0.0000000E+00;  8.1133254E-02;  4.0000000E+04;  0.0000000E+00;  3.9971137E+04;  5.9284836E-02;  0.0000000E+00; -7.7810674E-03;  3.6889387E+03;
  3.9085704E-01;  9.9999998E-03; -8.0021858E-02;4847; -6.7145876E-03;  0.0000000E+00;  9.7077870E-04;  1.0008196E+03;  1.0000000E-01;  6.7899310E+02;3;  6.9624877E+00;  0.0000000E+00;  5.8959639E-01;0;  4.8717894E-02;  4.0094781E+04;  0.0000000E+00;  7.3869474E-02;  4.0000000E+04;  0.0000000E+00;  3.9971992E+04;  5.7115637E-02;  0.0000000E+00; -8.3977412E-03;  3.5673730E+03;
  3.9086869E-01;  9.9999998E-03; -7.0019260E-02;4848; -6.8592946E-03;  0.0000000E+00;  8.3838688E-04;  1.0007307E+03;  1.0000000E-01;  6.0531616E+02;3;  7.0739627E+00;  0.0000000E+00;  5.0980085E-01;0;  4.5828924E-02;  4.0086664E+04;  0.0000000E+00;  6.2397964E-02;  4.0000000E+04;  0.0000000E+00;  3.9972992E+04;  5.4766867E-02;  0.0000000E+00; -8.9379428E-03;  3.4409944E+03;
  3.9087701E-01;  9.9999998E-03; -6.0017437E-02;4849; -7.0205638E-03;  0.0000000E+00;  7.0912973E-04;  1.0006561E+03;  1.0000000E-01;  5.4349078E+02;3;  7.1805458E+00;  0.0000000E+00;  4.3616414E-01;0;  4.2997371E-02;  4.0079668E+04;  0.0000000E+00;  4.8907965E-02;  4.0000000E+04;  0.0000000E+00;  3.9973922E+04;  5.2379467E-02;  0.0000000E+00; -9.3820952E-03;  3.3218503E+03;
  3.9088181E-01;  9.9999998E-03; -5.0015844E-02;4850; -7.1893996E-03;  0.0000000E+00;  5.8123382E-04;  1.0005896E+03;  1.0000000E-01;  4.8847998E+02;3;  7.2551417E+00;  0.0000000E+00;  3.6264941E-01;0;  4.0366571E-02;  4.0073781E+04;  0.0000000E+00;  3.5327438E-02;  4.0000000E+04;  0.0000000E+00;  3.9974754E+04;  5.0089739E-02;  0.0000000E+00; -9.7231679E-03;  3.2181516E+03;
  3.9088348E-01;  9.9999998E-03; -4.0013902E-02;4851; -7.3460857E-03;  0.0000000E+00;  4.5782630E-04;  1.0005383E+03;  1.0000000E-01;  4.4601205E+02;3;  7.3115811E+00;  0.0000000E+00;  2.8623354E-01;0;  3.8057789E-02;  4.0068988E+04;  0.0000000E+00;  2.3092771E-02;  4.0000000E+04;  0.0000000E+00;  3.9975312E+04;  4.8023984E-02;  0.0000000E+00; -9.9661937E-03;  3.1345117E+03;
  3.9088356E-01;  9.9999998E-03; -3.0011330E-02;4852; -7.4834656E-03;  0.0000000E+00;  3.3894429E-04;  1.0004990E+03;  1.0000000E-01;  4.1342038E+02;3;  7.3564425E+00;  0.0000000E+00;  2.1388552E-01;0;  3.6166806E-02;  4.0065625E+04;  0.0000000E+00;  1.3110242E-02;  4.0000000E+04;  0.0000000E+00;  3.9975762E+04;  4.6292312E-02;  0.0000000E+00; -1.0125508E-02;  3.0721775E+03;
  3.9088255E-01;  9.9999998E-03; -2.0008067E-02;4853; -7.5909202E-03;  0.0000000E+00;  2.2343638E-04;  1.0004709E+03;  1.0000000E-01;  3.9011240E+02;3;  7.3850455E+00;  0.0000000E+00;  1.4325495E-01;0;  3.4766950E-02;  4.0063062E+04;  0.0000000E+00;  5.8415206E-03;  4.0000000E+04;  0.0000000E+00;  3.9976098E+04;  4.4986930E-02;  0.0000000E+00; -1.0219982E-02;  3.0301851E+03;
  3.9088139E-01;  9.9999998E-03; -1.0004221E-02;4854; -7.6592001E-03;  0.0000000E+00;  1.1074816E-04;  1.0004536E+03;  1.0000000E-01;  3.7579181E+02;3;  7.3976789E+00;  0.0000000E+00;  7.1493134E-02;0;  3.3907846E-02;  4.0061648E+04;  0.0000000E+00;  1.4600982E-03;  4.0000000E+04;  0.0000000E+00;  3.9976348E+04;  4.4175718E-02;  0.0000000E+00; -1.0267874E-02;  3.0063499E+03;
  3.9088070E-01;  9.9999998E-03;  5.7001270E-10;4855; -7.6823900E-03;  0.0000000E+00;  2.6267515E-09;  1.0004485E+03;  1.0000000E-01;  3.7154501E+02;3;  7.4018993E+00;  0.0000000E+00; -1.2123117E-05;0;  3.3618659E-02;  4.0061062E+04;  0.0000000E+00;  1.4420092E-12;  4.0000000E+04;  0.0000000E+00;  3.9976453E+04;  4.3900903E-02;  0.0000000E+00; -1.0282244E-02;  2.9986599E+03;
  3.9088139E-01;  9.9999998E-03;  1.0004222E-02;4856; -7.6592010E-03;  0.0000000E+00; -1.1074300E-04;  1.0004536E+03;  1.0000000E-01;  3.7579181E+02;3;  7.3976927E+00;  0.0000000E+00; -7.1520694E-02;0;  3.3907834E-02;  4.0061645E+04;  0.0000000E+00;  1.4599711E-03;  4.0000000E+04;  0.0000000E+00;  3.9976348E+04;  4.4175714E-02;  0.0000000E+00; -1.0267881E-02;  3.0063462E+03;
  3.9088255E-01;  9.9999998E-03;  2.0008067E-02;4857; -7.5909258E-03;  0.0000000E+00; -2.2343150E-04;  1.0004709E+03;  1.0000000E-01;  3.9021115E+02;3;  7.3850651E+00;  0.0000000E+00; -1.4328492E-01;0;  3.4766827E-02;  4.0063059E+04;  0.0000000E+00;  5.8410573E-03;  4.0000000E+04;  0.0000000E+00;  3.9976102E+04;  4.4986811E-02;  0.0000000E+00; -1.0219983E-02;  3.0301826E+03;
  3.9088356E-01;  9.9999998E-03;  3.0011330E-02;4858; -7.4834726E-03;  0.0000000E+00; -3.3894079E-04;  1.0004990E+03;  1.0000000E-01;  4.1342038E+02;3;  7.3564162E+00;  0.0000000E+00; -2.1392789E-01;0;  3.6166772E-02;  4.0065625E+04;  0.0000000E+00;  1.3109345E-02;  4.0000000E+04;  0.0000000E+00;  3.9975754E+04;  4.6292283E-02;  0.0000000E+00; -1.0125511E-02;  3.0721838E+03;
  3.9088348E-01;  9.9999998E-03;  4.0013906E-02;4859; -7.3460927E-03;  0.0000000E+00; -4.5782223E-04;  1.0005383E+03;  1.0000000E-01;  4.4601205E+02;3;  7.3115859E+00;  0.0000000E+00; -2.8624591E-01;0;  3.8057718E-02;  4.0068988E+04;  0.0000000E+00;  2.3091955E-02;  4.0000000E+04;  0.0000000E+00;  3.9975312E+04;  4.8023924E-02;  0.0000000E+00; -9.9662049E-03;  3.1345142E+03;
  3.9088181E-01;  9.9999998E-03;  5.0015844E-02;4860; -7.1893996E-03;  0.0000000E+00; -5.8123079E-04;  1.0005896E+03;  1.0000000E-01;  4.8847998E+02;3;  7.2551312E+00;  0.0000000E+00; -3.6267668E-01;0;  4.0366445E-02;  4.0073781E+04;  0.0000000E+00;  3.5326239E-02;  4.0000000E+04;  0.0000000E+00;  3.9974754E+04;  5.0089628E-02;  0.0000000E+00; -9.7231828E-03;  3.2181621E+03;
  3.9087701E-01;  9.9999998E-03;  6.0017437E-02;4861; -7.0205634E-03;  0.0000000E+00; -7.0912554E-04;  1.0006560E+03;  1.0000000E-01;  5.4349078E+02;3;  7.1805053E+00;  0.0000000E+00; -4.3617746E-01;0;  4.2997245E-02;  4.0079668E+04;  0.0000000E+00;  4.8907686E-02;  4.0000000E+04;  0.0000000E+00;  3.9973922E+04;  5.2379366E-02;  0.0000000E+00; -9.3821203E-03;  3.3218464E+03;
  4.0082610E-01;  9.9999998E-03; -1.0003466E-01;4906; -6.6411654E-03;  0.0000000E+00;  1.2411583E-03;  1.0007535E+03;  1.0000000E-01;  6.2427856E+02;3;  6.6783233E+00;  0.0000000E+00;  6.5143669E-01;0;  3.6160134E-02;  4.0088180E+04;  0.0000000E+00;  1.0857707E-01;  4.0000000E+04;  0.0000000E+00;  3.9972750E+04;  4.4110231E-02;  0.0000000E+00; -7.9500973E-03;  3.4764109E+03;
  4.0083826E-01;  9.9999998E-03; -9.0030961E-02;4907; -6.7180251E-03;  0.0000000E+00;  1.1192295E-03;  1.0006889E+03;  1.0000000E-01;  5.7074927E+02;3;  6.8506651E+00;  0.0000000E+00;  5.8928871E-01;0;  3.3870503E-02;  4.0082336E+04;  0.0000000E+00;  1.0014164E-01;  4.0000000E+04;  0.0000000E+00;  3.9973496E+04;  4.2527802E-02;  0.0000000E+00; -8.6572971E-03;  3.3962246E+03;
  4.0084830E-01;  9.9999998E-03; -8.0027811E-02;4908; -6.8343496E-03;  0.0000000E+00;  9.9353364E-04;  1.0006300E+03;  1.0000000E-01;  5.2196051E+02;3;  6.9897561E+00;  0.0000000E+00;  5.2401316E-01;0;  3.1396315E-02;  4.0077238E+04;  0.0000000E+00;  8.6869180E-02;  4.0000000E+04;  0.0000000E+00;  3.9974203E+04;  4.0711071E-02;  0.0000000E+00; -9.3147559E-03;  3.3059204E+03;
  4.0085506E-01;  9.9999998E-03; -7.0025347E-02;4909; -6.9750366E-03;  0.0000000E+00;  8.6777454E-04;  1.0005837E+03;  1.0000000E-01;  4.8354184E+02;3;  7.1124477E+00;  0.0000000E+00;  4.5596731E-01;0;  2.8876478E-02;  4.0072715E+04;  0.0000000E+00;  7.0878528E-02;  4.0000000E+04;  0.0000000E+00;  3.9974691E+04;  3.8774405E-02;  0.0000000E+00; -9.8979268E-03;  3.2177129E+03;
  4.0085858E-01;  9.9999998E-03; -6.0023207E-02;4910; -7.1338769E-03;  0.0000000E+00;  7.4141286E-04;  1.0005457E+03;  1.0000000E-01;  4.5203656E+02;3;  7.2132931E+00;  0.0000000E+00;  3.9090136E-01;0;  2.6439562E-02;  4.0069223E+04;  0.0000000E+00;  5.4201510E-02;  4.0000000E+04;  0.0000000E+00;  3.9975195E+04;  3.6829352E-02;  0.0000000E+00; -1.0389791E-02;  3.1407295E+03;
  4.0085959E-01;  9.9999998E-03; -5.0020862E-02;4911; -7.2978176E-03;  0.0000000E+00;  6.1426027E-04;  1.0005164E+03;  1.0000000E-01;  4.2783972E+02;3;  7.2859497E+00;  0.0000000E+00;  3.2354218E-01;0;  2.4198201E-02;  4.0066535E+04;  0.0000000E+00;  3.8486950E-02;  4.0000000E+04;  0.0000000E+00;  3.9975793E+04;  3.4981098E-02;  0.0000000E+00; -1.0782898E-02;  3.0801064E+03;
  4.0085849E-01;  9.9999998E-03; -4.0017992E-02;4912; -7.4533634E-03;  0.0000000E+00;  4.8841845E-04;  1.0004925E+03;  1.0000000E-01;  4.0798843E+02;3;  7.3411131E+00;  0.0000000E+00;  2.5705296E-01;0;  2.2246774E-02;  4.0064410E+04;  0.0000000E+00;  2.4873339E-02;  4.0000000E+04;  0.0000000E+00;  3.9976074E+04;  3.3326052E-02;  0.0000000E+00; -1.1079277E-02;  3.0370962E+03;
  4.0085608E-01;  9.9999998E-03; -3.0014442E-02;4913; -7.5902534E-03;  0.0000000E+00;  3.6408985E-04;  1.0004774E+03;  1.0000000E-01;  3.9544559E+02;3;  7.3852520E+00;  0.0000000E+00;  1.9204858E-01;0;  2.0659069E-02;  4.0063137E+04;  0.0000000E+00;  1.4020160E-02;  4.0000000E+04;  0.0000000E+00;  3.9976367E+04;  3.1947423E-02;  0.0000000E+00; -1.1288354E-02;  3.0099785E+03;
  4.0085328E-01;  9.9999998E-03; -2.0010151E-02;4914; -7.6978714E-03;  0.0000000E+00;  2.4133314E-04;  1.0004670E+03;  1.0000000E-01;  3.8685324E+02;3;  7.4096375E+00;  0.0000000E+00;  1.2807262E-01;0;  1.9489257E-02;  4.0062234E+04;  0.0000000E+00;  6.2208911E-03;  4.0000000E+04;  0.0000000E+00;  3.9976340E+04;  3.0912781E-02;  0.0000000E+00; -1.1423524E-02;  2.9951064E+03;
  4.0085092E-01;  9.9999998E-03; -1.0005236E-02;4915; -7.7663707E-03;  0.0000000E+00;  1.2016547E-04;  1.0004632E+03;  1.0000000E-01;  3.8379160E+02;3;  7.4256539E+00;  0.0000000E+00;  6.4103462E-02;0;  1.8773772E-02;  4.0061684E+04;  0.0000000E+00;  1.5516995E-03;  4.0000000E+04;  0.0000000E+00;  3.9976453E+04;  3.0271890E-02;  0.0000000E+00; -1.1498118E-02;  2.9883694E+03;
  4.0084991E-01;  9.9999998E-03;  5.5714611E-10;4916; -7.7898097E-03;  0.0000000E+00;  3.1494296E-09;  1.0004614E+03;  1.0000000E-01;  3.8231015E+02;3;  7.4318938E+00;  0.0000000E+00; -1.5596088E-05;0;  1.8533245E-02;  4.0061645E+04;  0.0000000E+00;  7.9260296E-13;  4.0000000E+04;  0.0000000E+00;  3.9976355E+04;  3.0055048E-02;  0.0000000E+00; -1.1521802E-02;  2.9865249E+03;
  4.0085092E-01;  9.9999998E-03;  1.0005237E-02;4917; -7.7663688E-03;  0.0000000E+00; -1.2015961E-04;  1.0004631E+03;  1.0000000E-01;  3.8369281E+02;3;  7.4256992E+00;  0.0000000E+00; -6.4136684E-02;0;  1.8773757E-02;  4.0061680E+04;  0.0000000E+00;  1.5514923E-03;  4.0000000E+04;  0.0000000E+00;  3.9976453E+04;  3.0271878E-02;  0.0000000E+00; -1.1498122E-02;  2.9883721E+03;
  4.0085328E-01;  9.9999998E-03;  2.0010151E-02;4918; -7.6978747E-03;  0.0000000E+00; -2.4132736E-04;  1.0004670E+03;  1.0000000E-01;  3.8685324E+02;3;  7.4096456E+00;  0.0000000E+00; -1.2810105E-01;0;  1.9489255E-02;  4.0062242E+04;  0.0000000E+00;  6.2205438E-03;  4.0000000E+04;  0.0000000E+00;  3.9976340E+04;  3.0912777E-02;  0.0000000E+00; -1.1423524E-02;  2.9951106E+03;
  4.0085608E-01;  9.9999998E-03;  3.0014442E-02;4919; -7.5902576E-03;  0.0000000E+00; -3.6408572E-04;  1.0004773E+03;  1.0000000E-01;  3.9544559E+02;3;  7.3852501E+00;  0.0000000E+00; -1.9208331E-01;0;  2.0659041E-02;  4.0063137E+04;  0.0000000E+00;  1.4019393E-02;  4.0000000E+04;  0.0000000E+00;  3.9976367E+04;  3.1947386E-02;  0.0000000E+00; -1.1288345E-02;  3.0099658E+03;
  4.0085849E-01;  9.9999998E-03;  4.0017992E-02;4920; -7.4533704E-03;  0.0000000E+00; -4.8841466E-04;  1.0004925E+03;  1.0000000E-01;  4.0798843E+02;3;  7.3410592E+00;  0.0000000E+00; -2.5708005E-01;0;  2.2246782E-02;  4.0064410E+04;  0.0000000E+00;  2.4872370E-02;  4.0000000E+04;  0.0000000E+00;  3.9976070E+04;  3.3326074E-02;  0.0000000E+00; -1.1079294E-02;  3.0370911E+03;
  4.0085959E-01;  9.9999998E-03;  5.0020862E-02;4921; -7.2978172E-03;  0.0000000E+00; -6.1425567E-04;  1.0005164E+03;  1.0000000E-01;  4.2783972E+02;3;  7.2859540E+00;  0.0000000E+00; -3.2356435E-01;0;  2.4198171E-02;  4.0066531E+04;  0.0000000E+00;  3.8486347E-02;  4.0000000E+04;  0.0000000E+00;  3.9975793E+04;  3.4981072E-02;  0.0000000E+00; -1.0782900E-02;  3.0800986E+03;
  4.0085858E-01;  9.9999998E-03;  6.0023207E-02;4922; -7.1338806E-03;  0.0000000E+00; -7.4140669E-04;  1.0005457E+03;  1.0000000E-01;  4.5203656E+02;3;  7.2132063E+00;  0.0000000E+00; -3.9090252E-01;0;  2.6439551E-02;  4.0069223E+04;  0.0000000E+00;  5.4200951E-02;  4.0000000E+04;  0.0000000E+00;  3.9975191E+04;  3.6829341E-02;  0.0000000E+00; -1.0389791E-02;  3.1407207E+03;
  4.1082972E-01;  9.9999998E-03; -1.0003927E-01;4967; -6.7834249E-03;  0.0000000E+00;  1.2420597E-03;  1.0005988E+03;  1.0000000E-01;  4.9608469E+02;3;  6.7126365E+00;  0.0000000E+00;  5.7284212E-01;0;  2.0784743E-02;  4.0072598E+04;  0.0000000E+00;  1.2536800E-01;  4.0000000E+04;  0.0000000E+00;  3.9975414E+04;  2.9407986E-02;  0.0000000E+00; -8.6232433E-03;  3.1289258E+03;
  4.1083917E-01;  9.9999998E-03; -9.0035625E-02;4968; -6.8569174E-03;  0.0000000E+00;  1.1306206E-03;  1.0005719E+03;  1.0000000E-01;  4.7376434E+02;3;  6.8805261E+00;  0.0000000E+00;  5.1852638E-01;0;  1.8802125E-02;  4.0070117E+04;  0.0000000E+00;  1.1174951E-01;  4.0000000E+04;  0.0000000E+00;  3.9975973E+04;  2.8192451E-02;  0.0000000E+00; -9.3903253E-03;  3.0732625E+03;
  4.1084677E-01;  9.9999998E-03; -8.0032572E-02;4969; -6.9650798E-03;  0.0000000E+00;  1.0149047E-03;  1.0005540E+03;  1.0000000E-01;  4.5894995E+02;3;  7.0245099E+00;  0.0000000E+00;  4.6183598E-01;0;  1.6717874E-02;  4.0068348E+04;  0.0000000E+00;  9.4526038E-02;  4.0000000E+04;  0.0000000E+00;  3.9976168E+04;  2.6823247E-02;  0.0000000E+00; -1.0105374E-02;  3.0156299E+03;
  4.1085052E-01;  9.9999998E-03; -7.0030011E-02;4970; -7.0993551E-03;  0.0000000E+00;  8.9556177E-04;  1.0005442E+03;  1.0000000E-01;  4.5085141E+02;3;  7.1452303E+00;  0.0000000E+00;  4.0370852E-01;0;  1.4640601E-02;  4.0067328E+04;  0.0000000E+00;  7.5741947E-02;  4.0000000E+04;  0.0000000E+00;  3.9976746E+04;  2.5387969E-02;  0.0000000E+00; -1.0747368E-02;  2.9654177E+03;
  4.1085178E-01;  9.9999998E-03; -6.0027413E-02;4971; -7.2507467E-03;  0.0000000E+00;  7.7240670E-04;  1.0005397E+03;  1.0000000E-01;  4.4709842E+02;3;  7.2397704E+00;  0.0000000E+00;  3.4563032E-01;0;  1.2664810E-02;  4.0066871E+04;  0.0000000E+00;  5.7206683E-02;  4.0000000E+04;  0.0000000E+00;  3.9977055E+04;  2.3965655E-02;  0.0000000E+00; -1.1300845E-02;  2.9287666E+03;
  4.1085091E-01;  9.9999998E-03; -5.0024409E-02;4972; -7.4076406E-03;  0.0000000E+00;  6.4609491E-04;  1.0005424E+03;  1.0000000E-01;  4.4936996E+02;3;  7.3120131E+00;  0.0000000E+00;  2.8654847E-01;0;  1.0872736E-02;  4.0066898E+04;  0.0000000E+00;  4.0297434E-02;  4.0000000E+04;  0.0000000E+00;  3.9977266E+04;  2.2630120E-02;  0.0000000E+00; -1.1757384E-02;  2.9079351E+03;
  4.1084823E-01;  9.9999998E-03; -4.0020805E-02;4973; -7.5588971E-03;  0.0000000E+00;  5.1782746E-04;  1.0005427E+03;  1.0000000E-01;  4.4956750E+02;3;  7.3711615E+00;  0.0000000E+00;  2.2869934E-01;0;  9.3304152E-03;  4.0067207E+04;  0.0000000E+00;  2.5923502E-02;  4.0000000E+04;  0.0000000E+00;  3.9977188E+04;  2.1446170E-02;  0.0000000E+00; -1.2115755E-02;  2.9014827E+03;
  4.1084498E-01;  9.9999998E-03; -3.0016493E-02;4974; -7.6935091E-03;  0.0000000E+00;  3.8843544E-04;  1.0005515E+03;  1.0000000E-01;  4.5687595E+02;3;  7.4081817E+00;  0.0000000E+00;  1.7064737E-01;0;  8.0867643E-03;  4.0067570E+04;  0.0000000E+00;  1.4578481E-02;  4.0000000E+04;  0.0000000E+00;  3.9977203E+04;  2.0467522E-02;  0.0000000E+00; -1.2380757E-02;  2.9053650E+03;
  4.1084161E-01;  9.9999998E-03; -2.0011470E-02;4975; -7.7995937E-03;  0.0000000E+00;  2.5878800E-04;  1.0005544E+03;  1.0000000E-01;  4.5924625E+02;3;  7.4382424E+00;  0.0000000E+00;  1.1362177E-01;0;  7.1769636E-03;  4.0068129E+04;  0.0000000E+00;  6.4633242E-03;  4.0000000E+04;  0.0000000E+00;  3.9977125E+04;  1.9737586E-02;  0.0000000E+00; -1.2560623E-02;  2.9140083E+03;
  4.1083911E-01;  9.9999998E-03; -1.0005887E-02;4976; -7.8678839E-03;  0.0000000E+00;  1.2932305E-04;  1.0005594E+03;  1.0000000E-01;  4.6349304E+02;3;  7.4493618E+00;  0.0000000E+00;  5.6812827E-02;0;  6.6230185E-03;  4.0068398E+04;  0.0000000E+00;  1.6119231E-03;  4.0000000E+04;  0.0000000E+00;  3.9977031E+04;  1.9287178E-02;  0.0000000E+00; -1.2664160E-02;  2.9218928E+03;
  4.1083810E-01;  9.9999998E-03;  5.3797761E-10;4977; -7.8913234E-03;  0.0000000E+00;  3.5707866E-09;  1.0005588E+03;  1.0000000E-01;  4.6290045E+02;3;  7.4572716E+00;  0.0000000E+00; -1.6046559E-05;0;  6.4371889E-03;  4.0068664E+04;  0.0000000E+00;  3.2988254E-14;  4.0000000E+04;  0.0000000E+00;  3.9977047E+04;  1.9135041E-02;  0.0000000E+00; -1.2697852E-02;  2.9250146E+03;
  4.1083911E-01;  9.9999998E-03;  1.0005888E-02;4978; -7.8678858E-03;  0.0000000E+00; -1.2931622E-04;  1.0005594E+03;  1.0000000E-01;  4.6339426E+02;3;  7.4493704E+00;  0.0000000E+00; -5.6835048E-02;0;  6.6229999E-03;  4.0068395E+04;  0.0000000E+00;  1.6118390E-03;  4.0000000E+04;  0.0000000E+00;  3.9977031E+04;  1.9287163E-02;  0.0000000E+00; -1.2664163E-02;  2.9218984E+03;
  4.1084161E-01;  9.9999998E-03;  2.0011470E-02;4979; -7.7995970E-03;  0.0000000E+00; -2.5878160E-04;  1.0005544E+03;  1.0000000E-01;  4.5934500E+02;3;  7.4382730E+00;  0.0000000E+00; -1.1364677E-01;0;  7.1769468E-03;  4.0068125E+04;  0.0000000E+00;  6.4630313E-03;  4.0000000E+04;  0.0000000E+00;  3.9977121E+04;  1.9737577E-02;  0.0000000E+00; -1.2560630E-02;  2.9140081E+03;
  4.1084498E-01;  9.9999998E-03;  3.0016493E-02;4980; -7.6935142E-03;  0.0000000E+00; -3.8843040E-04;  1.0005515E+03;  1.0000000E-01;  4.5687595E+02;3;  7.4081850E+00;  0.0000000E+00; -1.7067578E-01;0;  8.0867475E-03;  4.0067574E+04;  0.0000000E+00;  1.4578553E-02;  4.0000000E+04;  0.0000000E+00;  3.9977203E+04;  2.0467501E-02;  0.0000000E+00; -1.2380754E-02;  2.9053687E+03;
  4.1084823E-01;  9.9999998E-03;  4.0020805E-02;4981; -7.5589018E-03;  0.0000000E+00; -5.1782280E-04;  1.0005427E+03;  1.0000000E-01;  4.4956750E+02;3;  7.3712106E+00;  0.0000000E+00; -2.2873491E-01;0;  9.3304189E-03;  4.0067207E+04;  0.0000000E+00;  2.5922537E-02;  4.0000000E+04;  0.0000000E+00;  3.9977188E+04;  2.1446165E-02;  0.0000000E+00; -1.2115746E-02;  2.9014834E+03;
  4.1085091E-01;  9.9999998E-03;  5.0024413E-02;4982; -7.4076415E-03;  0.0000000E+00; -6.4609043E-04;  1.0005424E+03;  1.0000000E-01;  4.4936996E+02;3;  7.3120341E+00;  0.0000000E+00; -2.8656888E-01;0;  1.0872698E-02;  4.0066902E+04;  0.0000000E+00;  4.0296908E-02;  4.0000000E+04;  0.0000000E+00;  3.9977266E+04;  2.2630088E-02;  0.0000000E+00; -1.1757390E-02;  2.9079319E+03;
  4.1085178E-01;  9.9999998E-03;  6.0027413E-02;4983; -7.2507435E-03;  0.0000000E+00; -7.7240111E-04;  1.0005397E+03;  1.0000000E-01;  4.4709842E+02;3;  7.2398458E+00;  0.0000000E+00; -3.4564498E-01;0;  1.2664779E-02;  4.0066871E+04;  0.0000000E+00;  5.7206210E-02;  4.0000000E+04;  0.0000000E+00;  3.9977055E+04;  2.3965636E-02;  0.0000000E+00; -1.1300857E-02;  2.9287717E+03;
  4.2084533E-01;  9.9999998E-03; -1.0004213E-01;5028; -6.9359224E-03;  0.0000000E+00;  1.2471928E-03;  1.0005780E+03;  1.0000000E-01;  4.7889999E+02;3;  6.7401295E+00;  0.0000000E+00;  4.9333820E-01;0;  8.3043221E-03;  4.0067668E+04;  0.0000000E+00;  1.3164416E-01;  4.0000000E+04;  0.0000000E+00;  3.9978332E+04;  1.7499795E-02;  0.0000000E+00; -9.1954730E-03;  2.7619531E+03;
  4.2085505E-01;  9.9999998E-03; -9.0038627E-02;5029; -7.0014447E-03;  0.0000000E+00;  1.1466581E-03;  1.0005869E+03;  1.0000000E-01;  4.8620844E+02;3;  6.9086609E+00;  0.0000000E+00;  4.4787586E-01;0;  6.6655828E-03;  4.0068410E+04;  0.0000000E+00;  1.1555178E-01;  4.0000000E+04;  0.0000000E+00;  3.9978629E+04;  1.6703462E-02;  0.0000000E+00; -1.0037879E-02;  2.7303530E+03;
  4.2086080E-01;  9.9999998E-03; -8.0035642E-02;5030; -7.0996922E-03;  0.0000000E+00;  1.0398733E-03;  1.0006047E+03;  1.0000000E-01;  5.0102283E+02;3;  7.0530143E+00;  0.0000000E+00;  4.0089154E-01;0;  5.0054910E-03;  4.0069707E+04;  0.0000000E+00;  9.6672155E-02;  4.0000000E+04;  0.0000000E+00;  3.9978812E+04;  1.5831459E-02;  0.0000000E+00; -1.0825968E-02;  2.7034971E+03;
  4.2086408E-01;  9.9999998E-03; -7.0032880E-02;5031; -7.2233644E-03;  0.0000000E+00;  9.2637137E-04;  1.0006305E+03;  1.0000000E-01;  5.2235553E+02;3;  7.1693196E+00;  0.0000000E+00;  3.5102621E-01;0;  3.3972636E-03;  4.0071559E+04;  0.0000000E+00;  7.6904193E-02;  4.0000000E+04;  0.0000000E+00;  3.9978934E+04;  1.4938372E-02;  0.0000000E+00; -1.1541109E-02;  2.6876960E+03;
  4.2086524E-01;  9.9999998E-03; -6.0029928E-02;5032; -7.3637534E-03;  0.0000000E+00;  8.0620556E-04;  1.0006584E+03;  1.0000000E-01;  5.4546600E+02;3;  7.2682862E+00;  0.0000000E+00;  3.0215567E-01;0;  1.9050175E-03;  4.0073805E+04;  0.0000000E+00;  5.7841379E-02;  4.0000000E+04;  0.0000000E+00;  3.9979105E+04;  1.4073432E-02;  0.0000000E+00; -1.2168415E-02;  2.6863018E+03;
  4.2086434E-01;  9.9999998E-03; -5.0026510E-02;5033; -7.5116684E-03;  0.0000000E+00;  6.7986752E-04;  1.0006826E+03;  1.0000000E-01;  5.6551483E+02;3;  7.3403316E+00;  0.0000000E+00;  2.5095013E-01;0;  5.8045797E-04;  4.0076078E+04;  0.0000000E+00;  4.0669531E-02;  4.0000000E+04;  0.0000000E+00;  3.9978934E+04;  1.3278499E-02;  0.0000000E+00; -1.2698041E-02;  2.6990833E+03;
  4.2086175E-01;  9.9999998E-03; -4.0022470E-02;5034; -7.6564536E-03;  0.0000000E+00;  5.4863794E-04;  1.0007078E+03;  1.0000000E-01;  5.8635376E+02;3;  7.3944693E+00;  0.0000000E+00;  2.0004253E-01;0; -5.3845719E-04;  4.0078230E+04;  0.0000000E+00;  2.6158117E-02;  4.0000000E+04;  0.0000000E+00;  3.9978703E+04;  1.2587170E-02;  0.0000000E+00; -1.3125627E-02;  2.7226086E+03;
  4.2085832E-01;  9.9999998E-03; -3.0017694E-02;5035; -7.7865799E-03;  0.0000000E+00;  4.1399346E-04;  1.0007280E+03;  1.0000000E-01;  6.0314337E+02;3;  7.4346094E+00;  0.0000000E+00;  1.5041502E-01;0; -1.4263699E-03;  4.0080352E+04;  0.0000000E+00;  1.4721820E-02;  4.0000000E+04;  0.0000000E+00;  3.9978539E+04;  1.2025147E-02;  0.0000000E+00; -1.3451517E-02;  2.7512283E+03;
  4.2085439E-01;  9.9999998E-03; -2.0012217E-02;5036; -7.8905588E-03;  0.0000000E+00;  2.7704050E-04;  1.0007446E+03;  1.0000000E-01;  6.1687140E+02;3;  7.4594884E+00;  0.0000000E+00;  1.0002499E-01;0; -2.0676320E-03;  4.0081746E+04;  0.0000000E+00;  6.5339352E-03;  4.0000000E+04;  0.0000000E+00;  3.9978375E+04;  1.1611531E-02;  0.0000000E+00; -1.3679164E-02;  2.7783081E+03;
  4.2085186E-01;  9.9999998E-03; -1.0006240E-02;5037; -7.9574576E-03;  0.0000000E+00;  1.3881152E-04;  1.0007528E+03;  1.0000000E-01;  6.2368604E+02;3;  7.4783802E+00;  0.0000000E+00;  5.0100133E-02;0; -2.4549272E-03;  4.0082840E+04;  0.0000000E+00;  1.6309586E-03;  4.0000000E+04;  0.0000000E+00;  3.9978230E+04;  1.1358337E-02;  0.0000000E+00; -1.3813265E-02;  2.7975029E+03;
  4.2085087E-01;  9.9999998E-03;  5.3594296E-10;5038; -7.9804715E-03;  0.0000000E+00;  3.8809502E-09;  1.0007559E+03;  1.0000000E-01;  6.2625385E+02;3;  7.4818983E+00;  0.0000000E+00; -9.2428236E-06;0; -2.5843084E-03;  4.0083203E+04;  0.0000000E+00;  2.9820035E-14;  4.0000000E+04;  0.0000000E+00;  3.9978152E+04;  1.1273183E-02;  0.0000000E+00; -1.3857491E-02;  2.8044294E+03;
  4.2085189E-01;  9.9999998E-03;  1.0006241E-02;5039; -7.9574566E-03;  0.0000000E+00; -1.3880410E-04;  1.0007528E+03;  1.0000000E-01;  6.2368604E+02;3;  7.4783640E+00;  0.0000000E+00; -5.0118670E-02;0; -2.4549458E-03;  4.0082844E+04;  0.0000000E+00;  1.6309005E-03;  4.0000000E+04;  0.0000000E+00;  3.9978230E+04;  1.1358321E-02;  0.0000000E+00; -1.3813267E-02;  2.7975059E+03;
  4.2085439E-01;  9.9999998E-03;  2.0012217E-02;5040; -7.8905625E-03;  0.0000000E+00; -2.7703383E-04;  1.0007446E+03;  1.0000000E-01;  6.1687140E+02;3;  7.4595361E+00;  0.0000000E+00; -1.0004593E-01;0; -2.0676171E-03;  4.0081746E+04;  0.0000000E+00;  6.5336982E-03;  4.0000000E+04;  0.0000000E+00;  3.9978375E+04;  1.1611536E-02;  0.0000000E+00; -1.3679153E-02;  2.7783037E+03;
  4.2085832E-01;  9.9999998E-03;  3.0017694E-02;5041; -7.7865832E-03;  0.0000000E+00; -4.1398799E-04;  1.0007280E+03;  1.0000000E-01;  6.0314337E+02;3;  7.4346418E+00;  0.0000000E+00; -1.5044190E-01;0; -1.4263866E-03;  4.0080352E+04;  0.0000000E+00;  1.4721399E-02;  4.0000000E+04;  0.0000000E+00;  3.9978539E+04;  1.2025131E-02;  0.0000000E+00; -1.3451518E-02;  2.7512297E+03;
  4.2086175E-01;  9.9999998E-03;  4.0022470E-02;5042; -7.6564602E-03;  0.0000000E+00; -5.4863287E-04;  1.0007078E+03;  1.0000000E-01;  5.8635376E+02;3;  7.3945193E+00;  0.0000000E+00; -2.0006596E-01;0; -5.3847674E-04;  4.0078230E+04;  0.0000000E+00;  2.6156796E-02;  4.0000000E+04;  0.0000000E+00;  3.9978707E+04;  1.2587154E-02;  0.0000000E+00; -1.3125631E-02;  2.7226096E+03;
  4.2086434E-01;  9.9999998E-03;  5.0026514E-02;5043; -7.5116758E-03;  0.0000000E+00; -6.7986239E-04;  1.0006827E+03;  1.0000000E-01;  5.6561359E+02;3;  7.3403449E+00;  0.0000000E+00; -2.5097397E-01;0;  5.8045238E-04;  4.0076082E+04;  0.0000000E+00;  4.0669702E-02;  4.0000000E+04;  0.0000000E+00;  3.9978934E+04;  1.3278490E-02;  0.0000000E+00; -1.2698038E-02;  2.6990747E+03;
  4.2086524E-01;  9.9999998E-03;  6.0029928E-02;5044; -7.3637492E-03;  0.0000000E+00; -8.0619985E-04;  1.0006584E+03;  1.0000000E-01;  5.4546600E+02;3;  7.2683382E+00;  0.0000000E+00; -3.0217445E-01;0;  1.9049887E-03;  4.0073801E+04;  0.0000000E+00;  5.7841014E-02;  4.0000000E+04;  0.0000000E+00;  3.9979109E+04;  1.4073397E-02;  0.0000000E+00; -1.2168408E-02;  2.6862913E+03;
  4.3087673E-01;  9.9999998E-03; -1.0004247E-01;5089; -7.0899175E-03;  0.0000000E+00;  1.2640365E-03;  1.0006995E+03;  1.0000000E-01;  5.7953912E+02;3;  6.7579627E+00;  0.0000000E+00;  4.1176850E-01;0; -1.2366241E-03;  4.0074266E+04;  0.0000000E+00;  1.2683916E-01;  4.0000000E+04;  0.0000000E+00;  3.9981566E+04;  8.5042426E-03;  0.0000000E+00; -9.7408667E-03;  2.3897092E+03;
  4.3088570E-01;  9.9999998E-03; -9.0039328E-02;5090; -7.1446700E-03;  0.0000000E+00;  1.1734969E-03;  1.0007441E+03;  1.0000000E-01;  6.1647632E+02;3;  6.9290018E+00;  0.0000000E+00;  3.7708181E-01;0; -2.5262740E-03;  4.0077652E+04;  0.0000000E+00;  1.1099979E-01;  4.0000000E+04;  0.0000000E+00;  3.9981609E+04;  8.1451396E-03;  0.0000000E+00; -1.0671414E-02;  2.3790396E+03;
  4.3089244E-01;  9.9999998E-03; -8.0036387E-02;5091; -7.2298925E-03;  0.0000000E+00;  1.0741830E-03;  1.0007933E+03;  1.0000000E-01;  6.5726532E+02;3;  7.0739241E+00;  0.0000000E+00;  3.3918571E-01;0; -3.7696925E-03;  4.0081785E+04;  0.0000000E+00;  9.2754073E-02;  4.0000000E+04;  0.0000000E+00;  3.9981652E+04;  7.7754068E-03;  0.0000000E+00; -1.1545099E-02;  2.3782185E+03;
  4.3089619E-01;  9.9999998E-03; -7.0033446E-02;5092; -7.3395823E-03;  0.0000000E+00;  9.6526666E-04;  1.0008444E+03;  1.0000000E-01;  6.9963446E+02;3;  7.1957746E+00;  0.0000000E+00;  3.0058643E-01;0; -4.9205520E-03;  4.0086094E+04;  0.0000000E+00;  7.3813215E-02;  4.0000000E+04;  0.0000000E+00;  3.9981566E+04;  7.4237366E-03;  0.0000000E+00; -1.2344289E-02;  2.3906399E+03;
  4.3089747E-01;  9.9999998E-03; -6.0030360E-02;5093; -7.4665910E-03;  0.0000000E+00;  8.4661046E-04;  1.0008947E+03;  1.0000000E-01;  7.4121356E+02;3;  7.2916374E+00;  0.0000000E+00;  2.5843978E-01;0; -5.9445319E-03;  4.0090336E+04;  0.0000000E+00;  5.5606004E-02;  4.0000000E+04;  0.0000000E+00;  3.9981367E+04;  7.1095987E-03;  0.0000000E+00; -1.3054131E-02;  2.4169868E+03;
  4.3089649E-01;  9.9999998E-03; -5.0026875E-02;5094; -7.6025808E-03;  0.0000000E+00;  7.1905035E-04;  1.0009410E+03;  1.0000000E-01;  7.7963220E+02;3;  7.3663840E+00;  0.0000000E+00;  2.1642248E-01;0; -6.8187225E-03;  4.0094551E+04;  0.0000000E+00;  3.9193325E-02;  4.0000000E+04;  0.0000000E+00;  3.9981016E+04;  6.8445490E-03;  0.0000000E+00; -1.3663271E-02;  2.4552095E+03;
  4.3089309E-01;  9.9999998E-03; -4.0022708E-02;5095; -7.7385902E-03;  0.0000000E+00;  5.8376131E-04;  1.0009838E+03;  1.0000000E-01;  8.1508801E+02;3;  7.4201813E+00;  0.0000000E+00;  1.7405643E-01;0; -7.5308350E-03;  4.0098293E+04;  0.0000000E+00;  2.5278406E-02;  4.0000000E+04;  0.0000000E+00;  3.9980684E+04;  6.6334833E-03;  0.0000000E+00; -1.4164318E-02;  2.5005676E+03;
  4.3088859E-01;  9.9999998E-03; -3.0017881E-02;5096; -7.8623183E-03;  0.0000000E+00;  4.4273699E-04;  1.0010187E+03;  1.0000000E-01;  8.4402545E+02;3;  7.4593263E+00;  0.0000000E+00;  1.3014717E-01;0; -8.0780722E-03;  4.0101480E+04;  0.0000000E+00;  1.4265525E-02;  4.0000000E+04;  0.0000000E+00;  3.9980359E+04;  6.4755823E-03;  0.0000000E+00; -1.4553655E-02;  2.5465127E+03;
  4.3088421E-01;  9.9999998E-03; -2.0012368E-02;5097; -7.9615731E-03;  0.0000000E+00;  2.9754415E-04;  1.0010446E+03;  1.0000000E-01;  8.6535815E+02;3;  7.4899106E+00;  0.0000000E+00;  8.7992728E-02;0; -8.4631843E-03;  4.0103750E+04;  0.0000000E+00;  6.3454406E-03;  4.0000000E+04;  0.0000000E+00;  3.9979953E+04;  6.3673444E-03;  0.0000000E+00; -1.4830529E-02;  2.5860884E+03;
  4.3088099E-01;  9.9999998E-03; -1.0006287E-02;5098; -8.0260830E-03;  0.0000000E+00;  1.4947756E-04;  1.0010584E+03;  1.0000000E-01;  8.7691339E+02;3;  7.5030031E+00;  0.0000000E+00;  4.3630674E-02;0; -8.6911935E-03;  4.0105363E+04;  0.0000000E+00;  1.5862412E-03;  4.0000000E+04;  0.0000000E+00;  3.9979789E+04;  6.3046175E-03;  0.0000000E+00; -1.4995811E-02;  2.6127729E+03;
  4.3088010E-01;  9.9999998E-03;  5.3550137E-10;5099; -8.0482289E-03;  0.0000000E+00;  4.3200199E-09;  1.0010630E+03;  1.0000000E-01;  8.8066638E+02;3;  7.5060277E+00;  0.0000000E+00; -3.1969919E-06;0; -8.7667573E-03;  4.0105875E+04;  0.0000000E+00;  6.1194614E-14;  4.0000000E+04;  0.0000000E+00;  3.9979832E+04;  6.2839943E-03;  0.0000000E+00; -1.5050752E-02;  2.6222378E+03;
  4.3088099E-01;  9.9999998E-03;  1.0006288E-02;5100; -8.0260858E-03;  0.0000000E+00; -1.4946933E-04;  1.0010585E+03;  1.0000000E-01;  8.7691339E+02;3;  7.5029688E+00;  0.0000000E+00; -4.3638773E-02;0; -8.6911935E-03;  4.0105363E+04;  0.0000000E+00;  1.5861669E-03;  4.0000000E+04;  0.0000000E+00;  3.9979789E+04;  6.3046194E-03;  0.0000000E+00; -1.4995813E-02;  2.6127678E+03;
  4.3088421E-01;  9.9999998E-03;  2.0012369E-02;5101; -7.9615759E-03;  0.0000000E+00; -2.9753704E-04;  1.0010445E+03;  1.0000000E-01;  8.6535815E+02;3;  7.4899383E+00;  0.0000000E+00; -8.8007450E-02;0; -8.4631797E-03;  4.0103750E+04;  0.0000000E+00;  6.3453615E-03;  4.0000000E+04;  0.0000000E+00;  3.9979953E+04;  6.3673505E-03;  0.0000000E+00; -1.4830531E-02;  2.5860889E+03;
  4.3088859E-01;  9.9999998E-03;  3.0017881E-02;5102; -7.8623211E-03;  0.0000000E+00; -4.4273093E-04;  1.0010187E+03;  1.0000000E-01;  8.4402545E+02;3;  7.4593458E+00;  0.0000000E+00; -1.3016497E-01;0; -8.0780685E-03;  4.0101480E+04;  0.0000000E+00;  1.4265708E-02;  4.0000000E+04;  0.0000000E+00;  3.9980359E+04;  6.4755888E-03;  0.0000000E+00; -1.4553657E-02;  2.5465181E+03;
  4.3089309E-01;  9.9999998E-03;  4.0022712E-02;5103; -7.7385944E-03;  0.0000000E+00; -5.8375607E-04;  1.0009836E+03;  1.0000000E-01;  8.1489044E+02;3;  7.4202490E+00;  0.0000000E+00; -1.7408238E-01;0; -7.5308457E-03;  4.0098293E+04;  0.0000000E+00;  2.5278108E-02;  4.0000000E+04;  0.0000000E+00;  3.9980684E+04;  6.6334819E-03;  0.0000000E+00; -1.4164328E-02;  2.5005652E+03;
  4.3089649E-01;  9.9999998E-03;  5.0026875E-02;5104; -7.6025873E-03;  0.0000000E+00; -7.1904476E-04;  1.0009410E+03;  1.0000000E-01;  7.7963220E+02;3;  7.3664021E+00;  0.0000000E+00; -2.1644549E-01;0; -6.8187257E-03;  4.0094555E+04;  0.0000000E+00;  3.9193209E-02;  4.0000000E+04;  0.0000000E+00;  3.9981020E+04;  6.8445476E-03;  0.0000000E+00; -1.3663273E-02;  2.4552109E+03;
  4.3089747E-01;  9.9999998E-03;  6.0030364E-02;5105; -7.4665970E-03;  0.0000000E+00; -8.4660476E-04;  1.0008947E+03;  1.0000000E-01;  7.4121356E+02;3;  7.2916632E+00;  0.0000000E+00; -2.5846964E-01;0; -5.9445421E-03;  4.0090340E+04;  0.0000000E+00;  5.5604286E-02;  4.0000000E+04;  0.0000000E+00;  3.9981367E+04;  7.1095848E-03;  0.0000000E+00; -1.3054127E-02;  2.4169893E+03;
  4.4091550E-01;  9.9999998E-03; -1.0003937E-01;5150; -7.2395578E-03;  0.0000000E+00;  1.2995765E-03;  1.0009559E+03;  1.0000000E-01;  7.9187878E+02;3;  6.7637501E+00;  0.0000000E+00;  3.2686707E-01;0; -8.0891894E-03;  4.0091656E+04;  0.0000000E+00;  1.1095282E-01;  4.0000000E+04;  0.0000000E+00;  3.9984551E+04;  2.2520050E-03;  0.0000000E+00; -1.0341194E-02;  2.0267906E+03;
  4.4092354E-01;  9.9999998E-03; -9.0036429E-02;5151; -7.2803716E-03;  0.0000000E+00;  1.2172650E-03;  1.0010261E+03;  1.0000000E-01;  8.5004999E+02;3;  6.9403958E+00;  0.0000000E+00;  3.0416137E-01;0; -9.0566538E-03;  4.0097355E+04;  0.0000000E+00;  9.7703449E-02;  4.0000000E+04;  0.0000000E+00;  3.9984512E+04;  2.3120444E-03;  0.0000000E+00; -1.1368698E-02;  2.0320277E+03;
  4.4092906E-01;  9.9999998E-03; -8.0033377E-02;5152; -7.3496024E-03;  0.0000000E+00;  1.1233327E-03;  1.0011033E+03;  1.0000000E-01;  9.1404816E+02;3;  7.0923548E+00;  0.0000000E+00;  2.7866754E-01;0; -9.9195428E-03;  4.0103648E+04;  0.0000000E+00;  8.2142591E-02;  4.0000000E+04;  0.0000000E+00;  3.9984414E+04;  2.4159553E-03;  0.0000000E+00; -1.2335498E-02;  2.0507107E+03;
  4.4093165E-01;  9.9999998E-03; -7.0030361E-02;5153; -7.4420790E-03;  0.0000000E+00;  1.0169613E-03;  1.0011773E+03;  1.0000000E-01;  9.7537976E+02;3;  7.2133136E+00;  0.0000000E+00;  2.4907427E-01;0; -1.0657551E-02;  4.0109859E+04;  0.0000000E+00;  6.5768525E-02;  4.0000000E+04;  0.0000000E+00;  3.9984238E+04;  2.5669723E-03;  0.0000000E+00; -1.3224524E-02;  2.0834158E+03;
  4.4093195E-01;  9.9999998E-03; -6.0027350E-02;5154; -7.5523155E-03;  0.0000000E+00;  8.9790212E-04;  1.0012467E+03;  1.0000000E-01;  1.0328596E+03;3;  7.3135929E+00;  0.0000000E+00;  2.1841015E-01;0; -1.1262135E-02;  4.0115777E+04;  0.0000000E+00;  4.9841903E-02;  4.0000000E+04;  0.0000000E+00;  3.9983961E+04;  2.7585051E-03;  0.0000000E+00; -1.4020639E-02;  2.1288916E+03;
  4.4093028E-01;  9.9999998E-03; -5.0024081E-02;5155; -7.6734121E-03;  0.0000000E+00;  7.6703471E-04;  1.0013073E+03;  1.0000000E-01;  1.0830310E+03;3;  7.3952661E+00;  0.0000000E+00;  1.8393558E-01;0; -1.1735149E-02;  4.0121320E+04;  0.0000000E+00;  3.5329323E-02;  4.0000000E+04;  0.0000000E+00;  3.9983480E+04;  2.9759894E-03;  0.0000000E+00; -1.4711138E-02;  2.1835503E+03;
  4.4092709E-01;  9.9999998E-03; -4.0020373E-02;5156; -7.7968878E-03;  0.0000000E+00;  6.2610698E-04;  1.0013632E+03;  1.0000000E-01;  1.1294495E+03;3;  7.4514050E+00;  0.0000000E+00;  1.4931361E-01;0; -1.2086998E-02;  4.0126266E+04;  0.0000000E+00;  2.2901388E-02;  4.0000000E+04;  0.0000000E+00;  3.9982910E+04;  3.1991482E-03;  0.0000000E+00; -1.5286146E-02;  2.2419858E+03;
  4.4092223E-01;  9.9999998E-03; -3.0016085E-02;5157; -7.9102982E-03;  0.0000000E+00;  4.7707709E-04;  1.0014067E+03;  1.0000000E-01;  1.1653990E+03;3;  7.4950643E+00;  0.0000000E+00;  1.1443854E-01;0; -1.2333367E-02;  4.0130195E+04;  0.0000000E+00;  1.2977933E-02;  4.0000000E+04;  0.0000000E+00;  3.9982562E+04;  3.4051309E-03;  0.0000000E+00; -1.5738498E-02;  2.2976746E+03;
  4.4091767E-01;  9.9999998E-03; -2.0011183E-02;5158; -8.0012949E-03;  0.0000000E+00;  3.2176817E-04;  1.0014372E+03;  1.0000000E-01;  1.1906823E+03;3;  7.5310440E+00;  0.0000000E+00;  7.7917300E-02;0; -1.2492494E-02;  4.0133152E+04;  0.0000000E+00;  5.7907784E-03;  4.0000000E+04;  0.0000000E+00;  3.9982227E+04;  3.5713252E-03;  0.0000000E+00; -1.6063819E-02;  2.3437910E+03;
  4.4091457E-01;  9.9999998E-03; -1.0005751E-02;5159; -8.0605866E-03;  0.0000000E+00;  1.6222087E-04;  1.0014578E+03;  1.0000000E-01;  1.2077682E+03;3;  7.5462575E+00;  0.0000000E+00;  4.0327489E-02;0; -1.2580471E-02;  4.0134910E+04;  0.0000000E+00;  1.4503525E-03;  4.0000000E+04;  0.0000000E+00;  3.9981996E+04;  3.6791894E-03;  0.0000000E+00; -1.6259661E-02;  2.3742253E+03;
  4.4091290E-01;  9.9999998E-03;  5.5653493E-10;5160; -8.0807451E-03;  0.0000000E+00;  4.6679949E-09;  1.0014637E+03;  1.0000000E-01;  1.2126075E+03;3;  7.5506668E+00;  0.0000000E+00; -2.4614374E-06;0; -1.2608339E-02;  4.0135527E+04;  0.0000000E+00; -1.7023002E-12;  4.0000000E+04;  0.0000000E+00;  3.9982027E+04;  3.7166339E-03;  0.0000000E+00; -1.6324973E-02;  2.3848652E+03;
  4.4091457E-01;  9.9999998E-03;  1.0005752E-02;5161; -8.0605876E-03;  0.0000000E+00; -1.6221195E-04;  1.0014578E+03;  1.0000000E-01;  1.2077682E+03;3;  7.5462723E+00;  0.0000000E+00; -4.0322848E-02;0; -1.2580466E-02;  4.0134910E+04;  0.0000000E+00;  1.4503979E-03;  4.0000000E+04;  0.0000000E+00;  3.9981996E+04;  3.6792005E-03;  0.0000000E+00; -1.6259667E-02;  2.3742339E+03;
  4.4091767E-01;  9.9999998E-03;  2.0011183E-02;5162; -8.0012986E-03;  0.0000000E+00; -3.2176002E-04;  1.0014372E+03;  1.0000000E-01;  1.1906823E+03;3;  7.5310249E+00;  0.0000000E+00; -7.7921070E-02;0; -1.2492479E-02;  4.0133148E+04;  0.0000000E+00;  5.7906280E-03;  4.0000000E+04;  0.0000000E+00;  3.9982227E+04;  3.5713327E-03;  0.0000000E+00; -1.6063811E-02;  2.3437959E+03;
  4.4092223E-01;  9.9999998E-03;  3.0016085E-02;5163; -7.9103019E-03;  0.0000000E+00; -4.7707043E-04;  1.0014067E+03;  1.0000000E-01;  1.1653990E+03;3;  7.4950228E+00;  0.0000000E+00; -1.1445486E-01;0; -1.2333334E-02;  4.0130191E+04;  0.0000000E+00;  1.2977608E-02;  4.0000000E+04;  0.0000000E+00;  3.9982562E+04;  3.4051456E-03;  0.0000000E+00; -1.5738480E-02;  2.2976677E+03;
  4.4092709E-01;  9.9999998E-03;  4.0020373E-02;5164; -7.7968910E-03;  0.0000000E+00; -6.2610046E-04;  1.0013632E+03;  1.0000000E-01;  1.1293507E+03;3;  7.4514151E+00;  0.0000000E+00; -1.4933681E-01;0; -1.2086988E-02;  4.0126262E+04;  0.0000000E+00;  2.2900891E-02;  4.0000000E+04;  0.0000000E+00;  3.9982910E+04;  3.1991592E-03;  0.0000000E+00; -1.5286148E-02;  2.2419858E+03;
  4.4093028E-01;  9.9999998E-03;  5.0024081E-02;5165; -7.6734149E-03;  0.0000000E+00; -7.6702802E-04;  1.0013073E+03;  1.0000000E-01;  1.0831298E+03;3;  7.3953476E+00;  0.0000000E+00; -1.8395211E-01;0; -1.1735140E-02;  4.0121320E+04;  0.0000000E+00;  3.5329133E-02;  4.0000000E+04;  0.0000000E+00;  3.9983480E+04;  2.9760040E-03;  0.0000000E+00; -1.4711144E-02;  2.1835442E+03;
  4.4093195E-01;  9.9999998E-03;  6.0027350E-02;5166; -7.5523192E-03;  0.0000000E+00; -8.9789525E-04;  1.0012466E+03;  1.0000000E-01;  1.0328596E+03;3;  7.3136725E+00;  0.0000000E+00; -2.1842848E-01;0; -1.1262102E-02;  4.0115777E+04;  0.0000000E+00;  4.9841594E-02;  4.0000000E+04;  0.0000000E+00;  3.9983957E+04;  2.7585172E-03;  0.0000000E+00; -1.4020619E-02;  2.1289043E+03;
  4.5094299E-01;  9.9999998E-03; -1.0003059E-01;5211; -7.3804003E-03;  0.0000000E+00;  1.3601484E-03;  1.0013113E+03;  1.0000000E-01;  1.0863889E+03;3;  6.7593484E+00;  0.0000000E+00;  2.3996195E-01;0; -1.2727311E-02;  4.0117121E+04;  0.0000000E+00;  8.4893897E-02;  4.0000000E+04;  0.0000000E+00;  3.9987492E+04; -1.6502438E-03;  0.0000000E+00; -1.1077067E-02;  1.6872137E+03;
  4.5094925E-01;  9.9999998E-03; -9.0028100E-02;5212; -7.4036457E-03;  0.0000000E+00;  1.2838006E-03;  1.0014017E+03;  1.0000000E-01;  1.1612510E+03;3;  6.9438162E+00;  0.0000000E+00;  2.3131359E-01;0; -1.3421515E-02;  4.0124680E+04;  0.0000000E+00;  7.5877152E-02;  4.0000000E+04;  0.0000000E+00;  3.9987555E+04; -1.2170111E-03;  0.0000000E+00; -1.2204504E-02;  1.7024036E+03;
  4.5095363E-01;  9.9999998E-03; -8.0025412E-02;5213; -7.4525084E-03;  0.0000000E+00;  1.1927172E-03;  1.0014930E+03;  1.0000000E-01;  1.2370020E+03;3;  7.1053562E+00;  0.0000000E+00;  2.1961381E-01;0; -1.3966573E-02;  4.0132223E+04;  0.0000000E+00;  6.4617872E-02;  4.0000000E+04;  0.0000000E+00;  3.9987211E+04; -7.0065469E-04;  0.0000000E+00; -1.3265919E-02;  1.7334135E+03;
  4.5095617E-01;  9.9999998E-03; -7.0022762E-02;5214; -7.5245779E-03;  0.0000000E+00;  1.0860264E-03;  1.0015839E+03;  1.0000000E-01;  1.3121603E+03;3;  7.2370849E+00;  0.0000000E+00;  2.0200621E-01;0; -1.4363216E-02;  4.0139844E+04;  0.0000000E+00;  5.2320953E-02;  4.0000000E+04;  0.0000000E+00;  3.9986934E+04; -1.1873180E-04;  0.0000000E+00; -1.4244485E-02;  1.7784011E+03;
  4.5095676E-01;  9.9999998E-03; -6.0020171E-02;5215; -7.6140785E-03;  0.0000000E+00;  9.6395420E-04;  1.0016656E+03;  1.0000000E-01;  1.3799115E+03;3;  7.3387799E+00;  0.0000000E+00;  1.7988959E-01;0; -1.4623650E-02;  4.0146867E+04;  0.0000000E+00;  4.0041145E-02;  4.0000000E+04;  0.0000000E+00;  3.9986574E+04;  5.0129835E-04;  0.0000000E+00; -1.5124949E-02;  1.8343447E+03;
  4.5095560E-01;  9.9999998E-03; -5.0017633E-02;5216; -7.7153295E-03;  0.0000000E+00;  8.2743686E-04;  1.0017394E+03;  1.0000000E-01;  1.4410455E+03;3;  7.4285231E+00;  0.0000000E+00;  1.5404186E-01;0; -1.4769321E-02;  4.0153367E+04;  0.0000000E+00;  2.8621405E-02;  4.0000000E+04;  0.0000000E+00;  3.9986043E+04;  1.1242530E-03;  0.0000000E+00; -1.5893575E-02;  1.8968494E+03;
  4.5095319E-01;  9.9999998E-03; -4.0014941E-02;5217; -7.8205643E-03;  0.0000000E+00;  6.7839347E-04;  1.0018023E+03;  1.0000000E-01;  1.4931923E+03;3;  7.4883122E+00;  0.0000000E+00;  1.2700610E-01;0; -1.4828212E-02;  4.0159062E+04;  0.0000000E+00;  1.8683832E-02;  4.0000000E+04;  0.0000000E+00;  3.9985652E+04;  1.7102353E-03;  0.0000000E+00; -1.6538447E-02;  1.9604497E+03;
  4.5095062E-01;  9.9999998E-03; -3.0011894E-02;5218; -7.9171918E-03;  0.0000000E+00;  5.1867863E-04;  1.0018547E+03;  1.0000000E-01;  1.5365491E+03;3;  7.5389934E+00;  0.0000000E+00;  9.8651141E-02;0; -1.4831387E-02;  4.0163406E+04;  0.0000000E+00;  1.0646683E-02;  4.0000000E+04;  0.0000000E+00;  3.9985109E+04;  2.2185426E-03;  0.0000000E+00; -1.7049929E-02;  2.0190116E+03;
  4.5094803E-01;  9.9999998E-03; -2.0008422E-02;5219; -7.9954620E-03;  0.0000000E+00;  3.5061498E-04;  1.0018886E+03;  1.0000000E-01;  1.5646964E+03;3;  7.5767708E+00;  0.0000000E+00;  6.6539191E-02;0; -1.4808328E-02;  4.0166727E+04;  0.0000000E+00;  4.7695078E-03;  4.0000000E+04;  0.0000000E+00;  3.9984836E+04;  2.6120942E-03;  0.0000000E+00; -1.7420422E-02;  2.0663994E+03;
  4.5094600E-01;  9.9999998E-03; -1.0004377E-02;5220; -8.0458960E-03;  0.0000000E+00;  1.7681625E-04;  1.0019093E+03;  1.0000000E-01;  1.5817823E+03;3;  7.5944939E+00;  0.0000000E+00;  3.3345118E-02;0; -1.4783622E-02;  4.0168711E+04;  0.0000000E+00;  1.1974000E-03;  4.0000000E+04;  0.0000000E+00;  3.9984625E+04;  2.8610781E-03;  0.0000000E+00; -1.7644700E-02;  2.0972773E+03;
  4.5094517E-01;  9.9999998E-03;  6.2026628E-10;5221; -8.0635976E-03;  0.0000000E+00;  4.7175450E-09;  1.0019179E+03;  1.0000000E-01;  1.5889919E+03;3;  7.6058264E+00;  0.0000000E+00;  7.3091683E-06;0; -1.4773455E-02;  4.0169320E+04;  0.0000000E+00; -1.9641793E-12;  4.0000000E+04;  0.0000000E+00;  3.9984621E+04;  2.9463149E-03;  0.0000000E+00; -1.7719770E-02;  2.1080317E+03;
  4.5094600E-01;  9.9999998E-03;  1.0004378E-02;5222; -8.0458978E-03;  0.0000000E+00; -1.7680624E-04;  1.0019092E+03;  1.0000000E-01;  1.5816836E+03;3;  7.5945153E+00;  0.0000000E+00; -3.3335660E-02;0; -1.4783595E-02;  4.0168711E+04;  0.0000000E+00;  1.1974309E-03;  4.0000000E+04;  0.0000000E+00;  3.9984625E+04;  2.8610895E-03;  0.0000000E+00; -1.7644685E-02;  2.0972832E+03;
  4.5094803E-01;  9.9999998E-03;  2.0008422E-02;5223; -7.9954611E-03;  0.0000000E+00; -3.5060683E-04;  1.0018886E+03;  1.0000000E-01;  1.5646964E+03;3;  7.5768104E+00;  0.0000000E+00; -6.6548854E-02;0; -1.4808300E-02;  4.0166727E+04;  0.0000000E+00;  4.7695907E-03;  4.0000000E+04;  0.0000000E+00;  3.9984840E+04;  2.6121072E-03;  0.0000000E+00; -1.7420407E-02;  2.0664028E+03;
  4.5095062E-01;  9.9999998E-03;  3.0011894E-02;5224; -7.9171965E-03;  0.0000000E+00; -5.1866996E-04;  1.0018547E+03;  1.0000000E-01;  1.5365491E+03;3;  7.5389814E+00;  0.0000000E+00; -9.8639712E-02;0; -1.4831377E-02;  4.0163414E+04;  0.0000000E+00;  1.0646546E-02;  4.0000000E+04;  0.0000000E+00;  3.9985109E+04;  2.2185575E-03;  0.0000000E+00; -1.7049935E-02;  2.0190052E+03;
  4.5095319E-01;  9.9999998E-03;  4.0014941E-02;5225; -7.8205690E-03;  0.0000000E+00; -6.7838782E-04;  1.0018023E+03;  1.0000000E-01;  1.4931923E+03;3;  7.4883227E+00;  0.0000000E+00; -1.2702154E-01;0; -1.4828179E-02;  4.0159062E+04;  0.0000000E+00;  1.8684648E-02;  4.0000000E+04;  0.0000000E+00;  3.9985648E+04;  1.7102583E-03;  0.0000000E+00; -1.6538437E-02;  1.9604589E+03;
  4.5095560E-01;  9.9999998E-03;  5.0017633E-02;5226; -7.7153319E-03;  0.0000000E+00; -8.2743017E-04;  1.0017394E+03;  1.0000000E-01;  1.4410455E+03;3;  7.4285793E+00;  0.0000000E+00; -1.5405336E-01;0; -1.4769261E-02;  4.0153367E+04;  0.0000000E+00;  2.8621608E-02;  4.0000000E+04;  0.0000000E+00;  3.9986043E+04;  1.1242784E-03;  0.0000000E+00; -1.5893539E-02;  1.8968402E+03;
  4.5095676E-01;  9.9999998E-03;  6.0020171E-02;5227; -7.6140803E-03;  0.0000000E+00; -9.6394779E-04;  1.0016656E+03;  1.0000000E-01;  1.3799115E+03;3;  7.3388247E+00;  0.0000000E+00; -1.7990844E-01;0; -1.4623632E-02;  4.0146867E+04;  0.0000000E+00;  4.0042561E-02;  4.0000000E+04;  0.0000000E+00;  3.9986574E+04;  5.0132157E-04;  0.0000000E+00; -1.5124953E-02;  1.8343590E+03;
  4.6094933E-01;  9.9999998E-03; -1.0001670E-01;5272; -7.5095808E-03;  0.0000000E+00;  1.4522937E-03;  1.0017081E+03;  1.0000000E-01;  1.4150709E+03;3;  6.7479115E+00;  0.0000000E+00;  1.5456505E-01;0; -1.5758617E-02;  4.0146480E+04;  0.0000000E+00;  5.0639741E-02;  4.0000000E+04;  0.0000000E+00;  3.9990070E+04; -3.7391142E-03;  0.0000000E+00; -1.2019502E-02;  1.3844574E+03;
  4.6095431E-01;  9.9999998E-03; -9.0015128E-02;5273; -7.5094211E-03;  0.0000000E+00;  1.3789237E-03;  1.0018098E+03;  1.0000000E-01;  1.4994143E+03;3;  6.9542856E+00;  0.0000000E+00;  1.6438627E-01;0; -1.6240599E-02;  4.0154859E+04;  0.0000000E+00;  4.6642855E-02;  4.0000000E+04;  0.0000000E+00;  3.9990102E+04; -2.9973246E-03;  0.0000000E+00; -1.3243274E-02;  1.4039460E+03;
  4.6095848E-01;  9.9999998E-03; -8.0013469E-02;5274; -7.5343028E-03;  0.0000000E+00;  1.2872594E-03;  1.0019131E+03;  1.0000000E-01;  1.5849427E+03;3;  7.1135874E+00;  0.0000000E+00;  1.6350797E-01;0; -1.6542999E-02;  4.0163293E+04;  0.0000000E+00;  4.0685568E-02;  4.0000000E+04;  0.0000000E+00;  3.9989891E+04; -2.1491232E-03;  0.0000000E+00; -1.4393876E-02;  1.4405707E+03;
  4.6096122E-01;  9.9999998E-03; -7.0011891E-02;5275; -7.5802966E-03;  0.0000000E+00;  1.1771622E-03;  1.0020104E+03;  1.0000000E-01;  1.6656318E+03;3;  7.2616153E+00;  0.0000000E+00;  1.5784034E-01;0; -1.6682677E-02;  4.0171453E+04;  0.0000000E+00;  3.3591006E-02;  4.0000000E+04;  0.0000000E+00;  3.9989414E+04; -1.2277161E-03;  0.0000000E+00; -1.5454961E-02;  1.4905813E+03;
  4.6096256E-01;  9.9999998E-03; -6.0010470E-02;5276; -7.6434677E-03;  0.0000000E+00;  1.0490253E-03;  1.0020994E+03;  1.0000000E-01;  1.7393087E+03;3;  7.3731098E+00;  0.0000000E+00;  1.4517345E-01;0; -1.6687326E-02;  4.0179176E+04;  0.0000000E+00;  2.6118405E-02;  4.0000000E+04;  0.0000000E+00;  3.9989105E+04; -2.7588749E-04;  0.0000000E+00; -1.6411439E-02;  1.5496720E+03;
  4.6096230E-01;  9.9999998E-03; -5.0009169E-02;5277; -7.7181719E-03;  0.0000000E+00;  9.0400234E-04;  1.0021780E+03;  1.0000000E-01;  1.8043933E+03;3;  7.4770932E+00;  0.0000000E+00;  1.3050027E-01;0; -1.6592428E-02;  4.0185973E+04;  0.0000000E+00;  1.8910125E-02;  4.0000000E+04;  0.0000000E+00;  3.9988613E+04;  6.5668410E-04;  0.0000000E+00; -1.7249113E-02;  1.6129998E+03;
  4.6096125E-01;  9.9999998E-03; -4.0007867E-02;5278; -7.7968808E-03;  0.0000000E+00;  7.4390991E-04;  1.0022458E+03;  1.0000000E-01;  1.8605892E+03;3;  7.5464816E+00;  0.0000000E+00;  1.1111419E-01;0; -1.6438268E-02;  4.0191766E+04;  0.0000000E+00;  1.2468399E-02;  4.0000000E+04;  0.0000000E+00;  3.9988164E+04;  1.5166766E-03;  0.0000000E+00; -1.7954946E-02;  1.6753508E+03;
  4.6095955E-01;  9.9999998E-03; -3.0006438E-02;5279; -7.8692352E-03;  0.0000000E+00;  5.7058333E-04;  1.0022953E+03;  1.0000000E-01;  1.9016744E+03;3;  7.6134276E+00;  0.0000000E+00;  8.7413937E-02;0; -1.6265664E-02;  4.0196488E+04;  0.0000000E+00;  7.1586818E-03;  4.0000000E+04;  0.0000000E+00;  3.9987828E+04;  2.2515769E-03;  0.0000000E+00; -1.8517241E-02;  1.7313608E+03;
  4.6095815E-01;  9.9999998E-03; -2.0004675E-02;5280; -7.9285549E-03;  0.0000000E+00;  3.8694931E-04;  1.0023345E+03;  1.0000000E-01;  1.9340686E+03;3;  7.6532755E+00;  0.0000000E+00;  6.2052853E-02;0; -1.6111884E-02;  4.0199824E+04;  0.0000000E+00;  3.2239559E-03;  4.0000000E+04;  0.0000000E+00;  3.9987430E+04;  2.8144724E-03;  0.0000000E+00; -1.8926356E-02;  1.7758864E+03;
  4.6095750E-01;  9.9999998E-03; -1.0002488E-02;5281; -7.9666963E-03;  0.0000000E+00;  1.9529532E-04;  1.0023577E+03;  1.0000000E-01;  1.9533273E+03;3;  7.6811037E+00;  0.0000000E+00;  3.2638926E-02;0; -1.6006790E-02;  4.0202074E+04;  0.0000000E+00;  8.1186084E-04;  4.0000000E+04;  0.0000000E+00;  3.9987199E+04;  3.1681603E-03;  0.0000000E+00; -1.9174950E-02;  1.8046385E+03;
  4.6095738E-01;  9.9999998E-03;  7.2186246E-10;5282; -7.9810945E-03;  0.0000000E+00;  4.9685172E-09;  1.0023655E+03;  1.0000000E-01;  1.9597469E+03;3;  7.6805954E+00;  0.0000000E+00;  1.8430444E-05;0; -1.5969520E-02;  4.0202699E+04;  0.0000000E+00; -1.5888535E-12;  4.0000000E+04;  0.0000000E+00;  3.9987133E+04;  3.2888465E-03;  0.0000000E+00; -1.9258367E-02;  1.8145736E+03;
  4.6095750E-01;  9.9999998E-03;  1.0002490E-02;5283; -7.9666963E-03;  0.0000000E+00; -1.9528458E-04;  1.0023577E+03;  1.0000000E-01;  1.9533273E+03;3;  7.6811104E+00;  0.0000000E+00; -3.2611191E-02;0; -1.6006777E-02;  4.0202074E+04;  0.0000000E+00;  8.1203930E-04;  4.0000000E+04;  0.0000000E+00;  3.9987203E+04;  3.1681699E-03;  0.0000000E+00; -1.9174946E-02;  1.8046364E+03;
  4.6095818E-01;  9.9999998E-03;  2.0004675E-02;5284; -7.9285558E-03;  0.0000000E+00; -3.8694029E-04;  1.0023345E+03;  1.0000000E-01;  1.9340686E+03;3;  7.6532965E+00;  0.0000000E+00; -6.2024929E-02;0; -1.6111864E-02;  4.0199828E+04;  0.0000000E+00;  3.2239680E-03;  4.0000000E+04;  0.0000000E+00;  3.9987426E+04;  2.8144892E-03;  0.0000000E+00; -1.8926352E-02;  1.7758937E+03;
  4.6095955E-01;  9.9999998E-03;  3.0006438E-02;5285; -7.8692334E-03;  0.0000000E+00; -5.7057425E-04;  1.0022954E+03;  1.0000000E-01;  1.9016744E+03;3;  7.6134596E+00;  0.0000000E+00; -8.7388128E-02;0; -1.6265636E-02;  4.0196488E+04;  0.0000000E+00;  7.1592648E-03;  4.0000000E+04;  0.0000000E+00;  3.9987828E+04;  2.2515990E-03;  0.0000000E+00; -1.8517235E-02;  1.7313623E+03;
  4.6096125E-01;  9.9999998E-03;  4.0007867E-02;5286; -7.7968817E-03;  0.0000000E+00; -7.4390345E-04;  1.0022458E+03;  1.0000000E-01;  1.8605892E+03;3;  7.5464983E+00;  0.0000000E+00; -1.1110513E-01;0; -1.6438248E-02;  4.0191762E+04;  0.0000000E+00;  1.2468456E-02;  4.0000000E+04;  0.0000000E+00;  3.9988160E+04;  1.5167065E-03;  0.0000000E+00; -1.7954955E-02;  1.6753549E+03;
  4.6096230E-01;  9.9999998E-03;  5.0009172E-02;5287; -7.7181710E-03;  0.0000000E+00; -9.0399693E-04;  1.0021780E+03;  1.0000000E-01;  1.8044921E+03;3;  7.4771457E+00;  0.0000000E+00; -1.3053061E-01;0; -1.6592368E-02;  4.0185973E+04;  0.0000000E+00;  1.8909575E-02;  4.0000000E+04;  0.0000000E+00;  3.9988613E+04;  6.5671833E-04;  0.0000000E+00; -1.7249087E-02;  1.6129965E+03;
  4.6096256E-01;  9.9999998E-03;  6.0010470E-02;5288; -7.6434696E-03;  0.0000000E+00; -1.0490201E-03;  1.0020994E+03;  1.0000000E-01;  1.7393087E+03;3;  7.3731766E+00;  0.0000000E+00; -1.4518663E-01;0; -1.6687274E-02;  4.0179180E+04;  0.0000000E+00;  2.6118353E-02;  4.0000000E+04;  0.0000000E+00;  3.9989105E+04; -2.7585073E-04;  0.0000000E+00; -1.6411424E-02;  1.5496656E+03;
  4.7092742E-01;  9.9999998E-03; -1.0000192E-01;5333; -7.6138787E-03;  0.0000000E+00;  1.5969598E-03;  1.0020771E+03;  1.0000000E-01;  1.7208401E+03;3;  6.7805424E+00;  0.0000000E+00;  1.3910806E-01;0; -1.7808363E-02;  4.0173949E+04;  0.0000000E+00;  1.1198246E-02;  4.0000000E+04;  0.0000000E+00;  3.9992367E+04; -4.5868149E-03;  0.0000000E+00; -1.3221549E-02;  1.1322103E+03;
  4.7092897E-01;  9.9999998E-03; -9.0001747E-02;5334; -7.5906338E-03;  0.0000000E+00;  1.5122249E-03;  1.0021808E+03;  1.0000000E-01;  1.8067635E+03;3;  6.9621115E+00;  0.0000000E+00;  1.2127815E-01;0; -1.8135868E-02;  4.0182551E+04;  0.0000000E+00;  1.2147668E-02;  4.0000000E+04;  0.0000000E+00;  3.9992293E+04; -3.6052356E-03;  0.0000000E+00; -1.4530633E-02;  1.1514546E+03;
  4.7092983E-01;  9.9999998E-03; -8.0001481E-02;5335; -7.5874710E-03;  0.0000000E+00;  1.4132167E-03;  1.0022817E+03;  1.0000000E-01;  1.8904155E+03;3;  7.1388612E+00;  0.0000000E+00;  1.2338962E-01;0; -1.8267402E-02;  4.0190988E+04;  0.0000000E+00;  1.1809250E-02;  4.0000000E+04;  0.0000000E+00;  3.9992086E+04; -2.5098475E-03;  0.0000000E+00; -1.5757555E-02;  1.1881373E+03;
  4.7093001E-01;  9.9999998E-03; -7.0001289E-02;5336; -7.6027303E-03;  0.0000000E+00;  1.2949159E-03;  1.0023779E+03;  1.0000000E-01;  1.9701169E+03;3;  7.3004174E+00;  0.0000000E+00;  1.2526187E-01;0; -1.8231619E-02;  4.0199020E+04;  0.0000000E+00;  1.0525989E-02;  4.0000000E+04;  0.0000000E+00;  3.9991855E+04; -1.3446690E-03;  0.0000000E+00; -1.6886950E-02;  1.2372150E+03;
  4.7092935E-01;  9.9999998E-03; -6.0001213E-02;5337; -7.6337112E-03;  0.0000000E+00;  1.1563633E-03;  1.0024663E+03;  1.0000000E-01;  2.0433000E+03;3;  7.4247656E+00;  0.0000000E+00;  1.2275554E-01;0; -1.8066691E-02;  4.0206707E+04;  0.0000000E+00;  8.6537693E-03;  4.0000000E+04;  0.0000000E+00;  3.9991234E+04; -1.6215231E-04;  0.0000000E+00; -1.7904539E-02;  1.2936124E+03;
  4.7092810E-01;  9.9999998E-03; -5.0001238E-02;5338; -7.6763523E-03;  0.0000000E+00;  9.9847838E-04;  1.0025444E+03;  1.0000000E-01;  2.1079895E+03;3;  7.5359387E+00;  0.0000000E+00;  1.1201219E-01;0; -1.7816950E-02;  4.0213238E+04;  0.0000000E+00;  6.5270313E-03;  4.0000000E+04;  0.0000000E+00;  3.9991031E+04;  9.7960548E-04;  0.0000000E+00; -1.8796556E-02;  1.3523689E+03;
  4.7092634E-01;  9.9999998E-03; -4.0001322E-02;5339; -7.7192863E-03;  0.0000000E+00;  8.2255329E-04;  1.0026102E+03;  1.0000000E-01;  2.1625066E+03;3;  7.6279650E+00;  0.0000000E+00;  9.4675712E-02;0; -1.7529363E-02;  4.0218996E+04;  0.0000000E+00;  4.4332272E-03;  4.0000000E+04;  0.0000000E+00;  3.9990625E+04;  2.0200568E-03;  0.0000000E+00; -1.9549420E-02;  1.4087821E+03;
  4.7092438E-01;  9.9999998E-03; -3.0001316E-02;5340; -7.7596521E-03;  0.0000000E+00;  6.3160667E-04;  1.0026616E+03;  1.0000000E-01;  2.2050732E+03;3;  7.7169151E+00;  0.0000000E+00;  7.6521270E-02;0; -1.7249262E-02;  4.0223543E+04;  0.0000000E+00;  2.5995534E-03;  4.0000000E+04;  0.0000000E+00;  3.9990141E+04;  2.9011716E-03;  0.0000000E+00; -2.0150434E-02;  1.4584690E+03;
  4.7092256E-01;  9.9999998E-03; -2.0001126E-02;5341; -7.7895792E-03;  0.0000000E+00;  4.2819788E-04;  1.0026973E+03;  1.0000000E-01;  2.2347021E+03;3;  7.7734051E+00;  0.0000000E+00;  5.1843867E-02;0; -1.7017126E-02;  4.0226629E+04;  0.0000000E+00;  1.1871572E-03;  4.0000000E+04;  0.0000000E+00;  3.9989883E+04;  3.5714128E-03;  0.0000000E+00; -2.0588540E-02;  1.4974312E+03;
  4.7092146E-01;  9.9999998E-03; -1.0000694E-02;5342; -7.8093847E-03;  0.0000000E+00;  2.1656416E-04;  1.0027222E+03;  1.0000000E-01;  2.2552446E+03;3;  7.8147140E+00;  0.0000000E+00;  2.5598798E-02;0; -1.6864447E-02;  4.0228816E+04;  0.0000000E+00;  3.0132389E-04;  4.0000000E+04;  0.0000000E+00;  3.9989711E+04;  3.9907186E-03;  0.0000000E+00; -2.0855166E-02;  1.5223326E+03;
  4.7092110E-01;  9.9999998E-03;  8.3076629E-10;5343; -7.8155072E-03;  0.0000000E+00;  4.9338493E-09;  1.0027286E+03;  1.0000000E-01;  2.2605779E+03;3;  7.8357162E+00;  0.0000000E+00;  1.3726608E-05;0; -1.6811304E-02;  4.0229227E+04;  0.0000000E+00; -1.5902128E-12;  4.0000000E+04;  0.0000000E+00;  3.9989734E+04;  4.1333986E-03;  0.0000000E+00; -2.0944702E-02;  1.5309414E+03;
  4.7092146E-01;  9.9999998E-03;  1.0000695E-02;5344; -7.8093838E-03;  0.0000000E+00; -2.1655321E-04;  1.0027221E+03;  1.0000000E-01;  2.2552446E+03;3;  7.8147292E+00;  0.0000000E+00; -2.5558038E-02;0; -1.6864447E-02;  4.0228816E+04;  0.0000000E+00;  3.0150815E-04;  4.0000000E+04;  0.0000000E+00;  3.9989711E+04;  3.9907326E-03;  0.0000000E+00; -2.0855179E-02;  1.5223379E+03;
  4.7092256E-01;  9.9999998E-03;  2.0001128E-02;5345; -7.7895760E-03;  0.0000000E+00; -4.2818795E-04;  1.0026973E+03;  1.0000000E-01;  2.2347021E+03;3;  7.7734413E+00;  0.0000000E+00; -5.1818240E-02;0; -1.7017119E-02;  4.0226629E+04;  0.0000000E+00;  1.1874711E-03;  4.0000000E+04;  0.0000000E+00;  3.9989883E+04;  3.5714307E-03;  0.0000000E+00; -2.0588549E-02;  1.4974307E+03;
  4.7092438E-01;  9.9999998E-03;  3.0001318E-02;5346; -7.7596498E-03;  0.0000000E+00; -6.3159672E-04;  1.0026616E+03;  1.0000000E-01;  2.2050732E+03;3;  7.7169256E+00;  0.0000000E+00; -7.6472998E-02;0; -1.7249221E-02;  4.0223547E+04;  0.0000000E+00;  2.6000983E-03;  4.0000000E+04;  0.0000000E+00;  3.9990141E+04;  2.9011990E-03;  0.0000000E+00; -2.0150419E-02;  1.4584677E+03;
  4.7092634E-01;  9.9999998E-03;  4.0001322E-02;5347; -7.7192858E-03;  0.0000000E+00; -8.2254555E-04;  1.0026101E+03;  1.0000000E-01;  2.1624077E+03;3;  7.6279693E+00;  0.0000000E+00; -9.4644777E-02;0; -1.7529294E-02;  4.0218996E+04;  0.0000000E+00;  4.4335723E-03;  4.0000000E+04;  0.0000000E+00;  3.9990629E+04;  2.0200927E-03;  0.0000000E+00; -1.9549387E-02;  1.4087852E+03;
  4.7092810E-01;  9.9999998E-03;  5.0001238E-02;5348; -7.6763523E-03;  0.0000000E+00; -9.9847186E-04;  1.0025444E+03;  1.0000000E-01;  2.1079895E+03;3;  7.5359735E+00;  0.0000000E+00; -1.1195758E-01;0; -1.7816924E-02;  4.0213238E+04;  0.0000000E+00;  6.5265754E-03;  4.0000000E+04;  0.0000000E+00;  3.9991031E+04;  9.7964541E-04;  0.0000000E+00; -1.8796569E-02;  1.3523622E+03;
  4.7092935E-01;  9.9999998E-03;  6.0001213E-02;5349; -7.6337103E-03;  0.0000000E+00; -1.1563542E-03;  1.0024664E+03;  1.0000000E-01;  2.0433000E+03;3;  7.4248266E+00;  0.0000000E+00; -1.2277111E-01;0; -1.8066645E-02;  4.0206707E+04;  0.0000000E+00;  8.6544119E-03;  4.0000000E+04;  0.0000000E+00;  3.9991234E+04; -1.6210688E-04;  0.0000000E+00; -1.7904539E-02;  1.2936141E+03;
  4.8087507E-01;  9.9999998E-03; -9.9989861E-02;5394; -7.6703597E-03;  0.0000000E+00;  1.8169543E-03;  1.0023580E+03;  1.0000148E-01;  1.9536237E+03;3;  6.8567815E+00;  0.0000000E+00;  1.7914575E-01;0; -1.9375861E-02;  4.0193887E+04;  0.0000000E+00; -2.9610887E-02;  4.0000000E+04;  0.0000000E+00;  3.9994086E+04; -4.6633962E-03;  0.0000000E+00; -1.4712465E-02;  9.4300104E+02;
  4.8087123E-01;  9.9999998E-03; -8.9990929E-02;5395; -7.6313773E-03;  0.0000000E+00;  1.7051712E-03;  1.0024543E+03;  1.0000148E-01;  2.0334238E+03;3;  7.0358944E+00;  0.0000000E+00;  1.5864290E-01;0; -1.9580385E-02;  4.0201801E+04;  0.0000000E+00; -2.4522759E-02;  4.0000000E+04;  0.0000000E+00;  3.9993977E+04; -3.4907847E-03;  0.0000000E+00; -1.6089600E-02;  9.5903247E+02;
  4.8086745E-01;  9.9999998E-03; -7.9991825E-02;5396; -7.6059238E-03;  0.0000000E+00;  1.5799262E-03;  1.0025458E+03;  1.0000142E-01;  2.1091748E+03;3;  7.1966281E+00;  0.0000000E+00;  1.2966383E-01;0; -1.9584619E-02;  4.0209309E+04;  0.0000000E+00; -1.9625269E-02;  4.0000000E+04;  0.0000000E+00;  3.9993895E+04; -2.2104969E-03;  0.0000000E+00; -1.7374123E-02;  9.9167395E+02;
  4.8085859E-01;  9.9999998E-03; -5.9993684E-02;5398; -7.5852736E-03;  0.0000000E+00;  1.2865235E-03;  1.0027119E+03;  1.0000145E-01;  2.2467512E+03;3;  7.5042605E+00;  0.0000000E+00;  1.1044086E-01;0; -1.9148856E-02;  4.0223574E+04;  0.0000000E+00; -1.1091579E-02;  4.0000000E+04;  0.0000000E+00;  3.9993133E+04;  4.6274517E-04;  0.0000000E+00; -1.9611601E-02;  1.0848970E+03;
  4.8085859E-01;  9.9999998E-03;  5.9993684E-02;5410; -7.5852778E-03;  0.0000000E+00; -1.2865171E-03;  1.0027119E+03;  1.0000145E-01;  2.2467512E+03;3;  7.5043020E+00;  0.0000000E+00; -1.1043433E-01;0; -1.9148802E-02;  4.0223570E+04;  0.0000000E+00; -1.1090957E-02;  4.0000000E+04;  0.0000000E+00;  3.9993133E+04;  4.6278897E-04;  0.0000000E+00; -1.9611591E-02;  1.0848943E+03;
  4.8086318E-01;  9.9999998E-03; -6.9992736E-02;5397; -7.5903237E-03;  0.0000000E+00;  1.4422404E-03;  1.0026331E+03;  1.0000142E-01;  2.1814690E+03;3;  7.3627410E+00;  0.0000000E+00;  1.1493346E-01;0; -1.9425826E-02;  4.0216781E+04;  0.0000000E+00; -1.5102125E-02;  4.0000000E+04;  0.0000000E+00;  3.9993520E+04; -8.7341422E-04;  0.0000000E+00; -1.8552411E-02;  1.0354050E+03;
  4.8085397E-01;  9.9999998E-03; -4.9994756E-02;5399; -7.5871767E-03;  0.0000000E+00;  1.1106036E-03;  1.0027837E+03;  1.0000148E-01;  2.3062063E+03;3;  7.6383448E+00;  0.0000000E+00;  1.0321906E-01;0; -1.8802997E-02;  4.0229371E+04;  0.0000000E+00; -7.6744067E-03;  4.0000000E+04;  0.0000000E+00;  3.9992855E+04;  1.7360301E-03;  0.0000000E+00; -2.0539027E-02;  1.1354691E+03;
  4.8085397E-01;  9.9999998E-03;  4.9994756E-02;5409; -7.5871754E-03;  0.0000000E+00; -1.1105927E-03;  1.0027837E+03;  1.0000148E-01;  2.3062063E+03;3;  7.6384339E+00;  0.0000000E+00; -1.0316557E-01;0; -1.8802952E-02;  4.0229367E+04;  0.0000000E+00; -7.6721483E-03;  4.0000000E+04;  0.0000000E+00;  3.9992859E+04;  1.7360699E-03;  0.0000000E+00; -2.0539021E-02;  1.1354792E+03;
  4.8084074E-01;  9.9999998E-03; -9.9993683E-03;5403; -7.5641405E-03;  0.0000000E+00;  2.3984142E-04;  1.0029380E+03;  1.0000148E-01;  2.4341038E+03;3;  8.0569239E+00;  0.0000000E+00;  2.2132413E-02;0; -1.7651264E-02;  4.0243008E+04;  0.0000000E+00; -3.0167151E-04;  4.0000000E+04;  0.0000000E+00;  3.9991895E+04;  5.0282837E-03;  0.0000000E+00; -2.2679547E-02;  1.2765227E+03;
  4.8084000E-01;  9.9999998E-03;  8.9979324E-10;5404; -7.5620445E-03;  0.0000000E+00;  6.5598376E-09;  1.0029445E+03;  1.0000145E-01;  2.4394370E+03;3;  8.0618382E+00;  0.0000000E+00;  2.8195012E-05;0; -1.7590480E-02;  4.0243641E+04;  0.0000000E+00; -1.5907388E-12;  4.0000000E+04;  0.0000000E+00;  3.9991793E+04;  5.1822118E-03;  0.0000000E+00; -2.2772692E-02;  1.2834818E+03;
  4.8084074E-01;  9.9999998E-03;  9.9993702E-03;5405; -7.5641400E-03;  0.0000000E+00; -2.3983124E-04;  1.0029379E+03;  1.0000148E-01;  2.4340051E+03;3;  8.0569201E+00;  0.0000000E+00; -2.2100082E-02;0; -1.7651256E-02;  4.0243012E+04;  0.0000000E+00; -3.0162639E-04;  4.0000000E+04;  0.0000000E+00;  3.9991895E+04;  5.0282916E-03;  0.0000000E+00; -2.2679547E-02;  1.2765233E+03;
  4.8084265E-01;  9.9999998E-03; -1.9998424E-02;5402; -7.5700334E-03;  0.0000000E+00;  4.7534608E-04;  1.0029195E+03;  1.0000151E-01;  2.4186968E+03;3;  7.9945426E+00;  0.0000000E+00;  5.3792324E-02;0; -1.7827226E-02;  4.0241273E+04;  0.0000000E+00; -1.2099593E-03;  4.0000000E+04;  0.0000000E+00;  3.9992062E+04;  4.5749363E-03;  0.0000000E+00; -2.2402162E-02;  1.2562660E+03;
  4.8084265E-01;  9.9999998E-03;  1.9998426E-02;5406; -7.5700297E-03;  0.0000000E+00; -4.7533517E-04;  1.0029195E+03;  1.0000151E-01;  2.4186968E+03;3;  7.9945898E+00;  0.0000000E+00; -5.3734187E-02;0; -1.7827183E-02;  4.0241277E+04;  0.0000000E+00; -1.2096731E-03;  4.0000000E+04;  0.0000000E+00;  3.9992062E+04;  4.5749545E-03;  0.0000000E+00; -2.2402138E-02;  1.2562566E+03;
  4.8084584E-01;  9.9999998E-03; -2.9997243E-02;5401; -7.5767604E-03;  0.0000000E+00;  7.0105935E-04;  1.0028841E+03;  1.0000148E-01;  2.3894631E+03;3;  7.8905621E+00;  0.0000000E+00;  7.3471323E-02;0; -1.8099481E-02;  4.0238340E+04;  0.0000000E+00; -2.7342339E-03;  4.0000000E+04;  0.0000000E+00;  3.9992203E+04;  3.8469783E-03;  0.0000000E+00; -2.1946460E-02;  1.2243044E+03;
  4.8084584E-01;  9.9999998E-03;  2.9997244E-02;5407; -7.5767562E-03;  0.0000000E+00; -7.0104672E-04;  1.0028841E+03;  1.0000148E-01;  2.3894631E+03;3;  7.8906012E+00;  0.0000000E+00; -7.3416539E-02;0; -1.8099444E-02;  4.0238336E+04;  0.0000000E+00; -2.7342218E-03;  4.0000000E+04;  0.0000000E+00;  3.9992203E+04;  3.8470046E-03;  0.0000000E+00; -2.1946449E-02;  1.2242954E+03;
  4.8084971E-01;  9.9999998E-03; -3.9995953E-02;5400; -7.5838435E-03;  0.0000000E+00;  9.1404800E-04;  1.0028384E+03;  1.0000148E-01;  2.3516370E+03;3;  7.7818441E+00;  0.0000000E+00;  8.8639341E-02;0; -1.8437844E-02;  4.0234402E+04;  0.0000000E+00; -4.8860405E-03;  4.0000000E+04;  0.0000000E+00;  3.9992441E+04;  2.8837284E-03;  0.0000000E+00; -2.1321572E-02;  1.1830540E+03;
  4.8084971E-01;  9.9999998E-03;  3.9995953E-02;5408; -7.5838412E-03;  0.0000000E+00; -9.1403676E-04;  1.0028384E+03;  1.0000148E-01;  2.3516370E+03;3;  7.7818832E+00;  0.0000000E+00; -8.8603839E-02;0; -1.8437810E-02;  4.0234402E+04;  0.0000000E+00; -4.8858165E-03;  4.0000000E+04;  0.0000000E+00;  3.9992441E+04;  2.8837665E-03;  0.0000000E+00; -2.1321576E-02;  1.1830549E+03;
  4.9073929E-01;  9.9999998E-03; -9.9983755E-03;5464; -7.2596488E-03;  0.0000000E+00;  2.6649708E-04;  1.0029277E+03;  1.0000206E-01;  2.4255112E+03;3;  8.3759747E+00;  0.0000000E+00;  3.0664107E-02;0; -1.8151596E-02;  4.0240117E+04;  0.0000000E+00; -9.4599609E-04;  4.0000000E+04;  0.0000000E+00;  3.9993324E+04;  6.4878995E-03;  0.0000000E+00; -2.4639497E-02;  1.0905762E+03;
  4.9073857E-01;  9.9999998E-03;  9.2545982E-10;5465; -7.2494536E-03;  0.0000000E+00;  6.9858030E-09;  1.0029335E+03;  1.0000201E-01;  2.4303506E+03;3;  8.3947268E+00;  0.0000000E+00;  4.4225715E-05;0; -1.8085092E-02;  4.0240566E+04;  0.0000000E+00; -1.4740781E-12;  4.0000000E+04;  0.0000000E+00;  3.9993258E+04;  6.6488008E-03;  0.0000000E+00; -2.4733894E-02;  1.0959227E+03;
  4.9073929E-01;  9.9999998E-03;  9.9983774E-03;5466; -7.2596488E-03;  0.0000000E+00; -2.6648506E-04;  1.0029277E+03;  1.0000206E-01;  2.4255112E+03;3;  8.3759584E+00;  0.0000000E+00; -3.0625448E-02;0; -1.8151572E-02;  4.0240121E+04;  0.0000000E+00; -9.4583794E-04;  4.0000000E+04;  0.0000000E+00;  3.9993324E+04;  6.4879064E-03;  0.0000000E+00; -2.4639478E-02;  1.0905741E+03;
  4.9074161E-01;  9.9999998E-03; -1.9996572E-02;5463; -7.2895368E-03;  0.0000000E+00;  5.2849960E-04;  1.0029137E+03;  1.0000205E-01;  2.4139561E+03;3;  8.3064976E+00;  0.0000000E+00;  6.0184877E-02;0; -1.8345449E-02;  4.0238695E+04;  0.0000000E+00; -3.7628408E-03;  4.0000000E+04;  0.0000000E+00;  3.9993473E+04;  6.0129794E-03;  0.0000000E+00; -2.4358429E-02;  1.0749424E+03;
  4.9074161E-01;  9.9999998E-03;  1.9996574E-02;5467; -7.2895363E-03;  0.0000000E+00; -5.2848976E-04;  1.0029136E+03;  1.0000205E-01;  2.4138572E+03;3;  8.3065205E+00;  0.0000000E+00; -6.0145460E-02;0; -1.8345423E-02;  4.0238695E+04;  0.0000000E+00; -3.7625073E-03;  4.0000000E+04;  0.0000000E+00;  3.9993473E+04;  6.0129957E-03;  0.0000000E+00; -2.4358420E-02;  1.0749249E+03;
  4.9074563E-01;  9.9999998E-03; -2.9994579E-02;5462; -7.3367730E-03;  0.0000000E+00;  7.8024785E-04;  1.0028874E+03;  1.0000210E-01;  2.3921294E+03;3;  8.1667595E+00;  0.0000000E+00;  8.2157180E-02;0; -1.8649699E-02;  4.0236496E+04;  0.0000000E+00; -8.3827619E-03;  4.0000000E+04;  0.0000000E+00;  3.9993562E+04;  5.2469261E-03;  0.0000000E+00; -2.3896625E-02;  1.0502139E+03;
  4.9074563E-01;  9.9999998E-03;  2.9994581E-02;5468; -7.3367711E-03;  0.0000000E+00; -7.8023720E-04;  1.0028874E+03;  1.0000210E-01;  2.3921294E+03;3;  8.1667967E+00;  0.0000000E+00; -8.2118496E-02;0; -1.8649647E-02;  4.0236500E+04;  0.0000000E+00; -8.3823595E-03;  4.0000000E+04;  0.0000000E+00;  3.9993562E+04;  5.2469545E-03;  0.0000000E+00; -2.3896601E-02;  1.0502135E+03;
  4.9075112E-01;  9.9999998E-03; -3.9992537E-02;5461; -7.3919133E-03;  0.0000000E+00;  1.0188746E-03;  1.0028495E+03;  1.0000205E-01;  2.3607229E+03;3;  8.0159559E+00;  0.0000000E+00;  1.0555504E-01;0; -1.9036613E-02;  4.0233473E+04;  0.0000000E+00; -1.4675820E-02;  4.0000000E+04;  0.0000000E+00;  3.9993871E+04;  4.2263707E-03;  0.0000000E+00; -2.3262983E-02;  1.0179766E+03;
  4.9075112E-01;  9.9999998E-03;  3.9992541E-02;5469; -7.3919147E-03;  0.0000000E+00; -1.0188626E-03;  1.0028495E+03;  1.0000205E-01;  2.3608218E+03;3;  8.0159693E+00;  0.0000000E+00; -1.0547143E-01;0; -1.9036550E-02;  4.0233473E+04;  0.0000000E+00; -1.4675684E-02;  4.0000000E+04;  0.0000000E+00;  3.9993871E+04;  4.2264042E-03;  0.0000000E+00; -2.3262955E-02;  1.0179730E+03;
  4.9075779E-01;  9.9999998E-03; -4.9990546E-02;5460; -7.4492591E-03;  0.0000000E+00;  1.2399708E-03;  1.0028056E+03;  1.0000209E-01;  2.3243784E+03;3;  7.8265743E+00;  0.0000000E+00;  1.1372630E-01;0; -1.9468967E-02;  4.0229559E+04;  0.0000000E+00; -2.2427071E-02;  4.0000000E+04;  0.0000000E+00;  3.9994105E+04;  2.9996603E-03;  0.0000000E+00; -2.2468626E-02;  9.8028845E+02;
  4.9075779E-01;  9.9999998E-03;  4.9990546E-02;5470; -7.4492577E-03;  0.0000000E+00; -1.2399605E-03;  1.0028056E+03;  1.0000209E-01;  2.3243784E+03;3;  7.8265862E+00;  0.0000000E+00; -1.1373112E-01;0; -1.9468924E-02;  4.0229559E+04;  0.0000000E+00; -2.2427471E-02;  4.0000000E+04;  0.0000000E+00;  3.9994105E+04;  2.9997022E-03;  0.0000000E+00; -2.2468626E-02;  9.8029315E+02;
  4.9076554E-01;  9.9999998E-03; -5.9988618E-02;5459; -7.4995337E-03;  0.0000000E+00;  1.4410183E-03;  1.0027529E+03;  1.0000206E-01;  2.2807253E+03;3;  7.6488123E+00;  0.0000000E+00;  1.2393054E-01;0; -1.9902006E-02;  4.0224809E+04;  0.0000000E+00; -3.1314567E-02;  4.0000000E+04;  0.0000000E+00;  3.9994375E+04;  1.6237412E-03;  0.0000000E+00; -2.1525746E-02;  9.3974921E+02;
  4.9076554E-01;  9.9999998E-03;  5.9988618E-02;5471; -7.4995332E-03;  0.0000000E+00; -1.4410099E-03;  1.0027529E+03;  1.0000206E-01;  2.2807253E+03;3;  7.6488519E+00;  0.0000000E+00; -1.2393402E-01;0; -1.9901941E-02;  4.0224809E+04;  0.0000000E+00; -3.1315353E-02;  4.0000000E+04;  0.0000000E+00;  3.9994375E+04;  1.6237888E-03;  0.0000000E+00; -2.1525729E-02;  9.3974268E+02;
  4.9077407E-01;  9.9999998E-03; -6.9986828E-02;5458; -7.5381799E-03;  0.0000000E+00;  1.6269755E-03;  1.0026892E+03;  1.0000208E-01;  2.2279861E+03;3;  7.5026641E+00;  0.0000000E+00;  1.7143042E-01;0; -2.0285860E-02;  4.0219414E+04;  0.0000000E+00; -4.0890619E-02;  4.0000000E+04;  0.0000000E+00;  3.9994699E+04;  1.6032076E-04;  0.0000000E+00; -2.0446181E-02;  8.9955066E+02;
  4.9078301E-01;  9.9999998E-03; -7.9985179E-02;5457; -7.5747436E-03;  0.0000000E+00;  1.8028679E-03;  1.0026190E+03;  1.0000210E-01;  2.1697161E+03;3;  7.3528881E+00;  0.0000000E+00;  2.1083388E-01;0; -2.0568851E-02;  4.0213656E+04;  0.0000000E+00; -5.0584048E-02;  4.0000000E+04;  0.0000000E+00;  3.9994773E+04; -1.3278635E-03;  0.0000000E+00; -1.9240988E-02;  8.6387183E+02;
  4.9079207E-01;  9.9999998E-03; -8.9983575E-02;5456; -7.6197796E-03;  0.0000000E+00;  1.9615993E-03;  1.0025457E+03;  1.0000204E-01;  2.1089771E+03;3;  7.1805944E+00;  0.0000000E+00;  2.3042199E-01;0; -2.0701187E-02;  4.0207539E+04;  0.0000000E+00; -5.9727516E-02;  4.0000000E+04;  0.0000000E+00;  3.9995141E+04; -2.7805497E-03;  0.0000000E+00; -1.7920638E-02;  8.3749805E+02;
  4.9080148E-01;  9.9999998E-03; -9.9981844E-02;5455; -7.6765674E-03;  0.0000000E+00;  2.1047369E-03;  1.0024681E+03;  1.0000208E-01;  2.0447814E+03;3;  6.9852848E+00;  0.0000000E+00;  2.4616058E-01;0; -2.0639328E-02;  4.0201273E+04;  0.0000000E+00; -6.7603260E-02;  4.0000000E+04;  0.0000000E+00;  3.9995223E+04; -4.1429680E-03;  0.0000000E+00; -1.6496360E-02;  8.2552344E+02;
  5.0071847E-01;  9.9999998E-03; -9.9978678E-02;5516; -7.6489667E-03;  0.0000000E+00;  2.4347112E-03;  1.0023832E+03;  1.0000372E-01;  1.9744624E+03;3;  7.1422000E+00;  0.0000000E+00;  3.1672710E-01;0; -2.1360978E-02;  4.0192723E+04;  0.0000000E+00; -9.8609127E-02;  4.0000000E+04;  0.0000000E+00;  3.9995504E+04; -2.8076931E-03;  0.0000000E+00; -1.8553285E-02;  7.8136798E+02;
  5.0070411E-01;  9.9999998E-03; -8.9980520E-02;5517; -7.5715091E-03;  0.0000000E+00;  2.2581206E-03;  1.0024351E+03;  1.0000387E-01;  2.0174241E+03;3;  7.3574529E+00;  0.0000000E+00;  3.0073205E-01;0; -2.1190854E-02;  4.0196926E+04;  0.0000000E+00; -8.9606658E-02;  4.0000000E+04;  0.0000000E+00;  3.9995434E+04; -1.1868783E-03;  0.0000000E+00; -2.0003976E-02;  7.9080194E+02;
  5.0069010E-01;  9.9999998E-03; -7.9982340E-02;5518; -7.5033135E-03;  0.0000000E+00;  2.0638269E-03;  1.0024839E+03;  1.0000373E-01;  2.0578181E+03;3;  7.5542116E+00;  0.0000000E+00;  2.8674060E-01;0; -2.0843102E-02;  4.0200629E+04;  0.0000000E+00; -7.7706009E-02;  4.0000000E+04;  0.0000000E+00;  3.9995176E+04;  4.9598521E-04;  0.0000000E+00; -2.1339087E-02;  8.1100885E+02;
  5.0067705E-01;  9.9999998E-03; -6.9984175E-02;5519; -7.4421279E-03;  0.0000000E+00;  1.8509628E-03;  1.0025273E+03;  1.0000388E-01;  2.0937676E+03;3;  7.7192769E+00;  0.0000000E+00;  2.4945877E-01;0; -2.0366993E-02;  4.0204598E+04;  0.0000000E+00; -6.4076491E-02;  4.0000000E+04;  0.0000000E+00;  3.9995160E+04;  2.1838332E-03;  0.0000000E+00; -2.2550825E-02;  8.3812842E+02;
  5.0066572E-01;  9.9999998E-03; -5.9986055E-02;5520; -7.3734308E-03;  0.0000000E+00;  1.6252896E-03;  1.0025672E+03;  1.0000376E-01;  2.1268530E+03;3;  7.9155831E+00;  0.0000000E+00;  2.1877427E-01;0; -1.9815750E-02;  4.0207832E+04;  0.0000000E+00; -4.9887318E-02;  4.0000000E+04;  0.0000000E+00;  3.9994859E+04;  3.8156800E-03;  0.0000000E+00; -2.3631431E-02;  8.6857623E+02;
  5.0065649E-01;  9.9999998E-03; -4.9988050E-02;5521; -7.2839167E-03;  0.0000000E+00;  1.3856454E-03;  1.0026005E+03;  1.0000374E-01;  2.1544080E+03;3;  8.0975199E+00;  0.0000000E+00;  1.5151373E-01;0; -1.9243011E-02;  4.0210773E+04;  0.0000000E+00; -3.6208466E-02;  4.0000000E+04;  0.0000000E+00;  3.9994508E+04;  5.3292140E-03;  0.0000000E+00; -2.4572225E-02;  8.9917505E+02;
  5.0064915E-01;  9.9999998E-03; -3.9990254E-02;5522; -7.1823420E-03;  0.0000000E+00;  1.1334635E-03;  1.0026274E+03;  1.0000377E-01;  2.1768269E+03;3;  8.3176565E+00;  0.0000000E+00;  1.2682036E-01;0; -1.8698966E-02;  4.0213348E+04;  0.0000000E+00; -2.3943463E-02;  4.0000000E+04;  0.0000000E+00;  3.9994422E+04;  6.6640042E-03;  0.0000000E+00; -2.5362970E-02;  9.2751337E+02;
  5.0064361E-01;  9.9999998E-03; -2.9992629E-02;5523; -7.0912414E-03;  0.0000000E+00;  8.6509087E-04;  1.0026498E+03;  1.0000386E-01;  2.1952957E+03;3;  8.4767923E+00;  0.0000000E+00;  9.8378941E-02;0; -1.8227663E-02;  4.0215297E+04;  0.0000000E+00; -1.3783618E-02;  4.0000000E+04;  0.0000000E+00;  3.9994176E+04;  7.7651269E-03;  0.0000000E+00; -2.5992790E-02;  9.5168451E+02;
  5.0063974E-01;  9.9999998E-03; -1.9995166E-02;5524; -7.0220176E-03;  0.0000000E+00;  5.8472197E-04;  1.0026659E+03;  1.0000373E-01;  2.2086287E+03;3;  8.5936670E+00;  0.0000000E+00;  7.4925616E-02;0; -1.7864794E-02;  4.0216617E+04;  0.0000000E+00; -6.2206197E-03;  4.0000000E+04;  0.0000000E+00;  3.9994176E+04;  8.5865576E-03;  0.0000000E+00; -2.6451351E-02;  9.7028625E+02;
  5.0063747E-01;  9.9999998E-03; -9.9976361E-03;5525; -6.9815819E-03;  0.0000000E+00;  2.9488275E-04;  1.0026755E+03;  1.0000381E-01;  2.2166284E+03;3;  8.6632004E+00;  0.0000000E+00;  4.0558744E-02;0; -1.7636567E-02;  4.0217383E+04;  0.0000000E+00; -1.5687019E-03;  4.0000000E+04;  0.0000000E+00;  3.9993953E+04;  9.0936618E-03;  0.0000000E+00; -2.6730230E-02;  9.8201904E+02;
  5.0063670E-01;  9.9999998E-03;  9.2097863E-10;5526; -6.9682468E-03;  0.0000000E+00;  6.5201879E-09;  1.0026783E+03;  1.0000373E-01;  2.2189985E+03;3;  8.6889925E+00;  0.0000000E+00;  3.6380276E-05;0; -1.7558694E-02;  4.0217656E+04;  0.0000000E+00; -1.3248396E-13;  4.0000000E+04;  0.0000000E+00;  3.9993926E+04;  9.2651006E-03;  0.0000000E+00; -2.6823794E-02;  9.8606030E+02;
  5.0063747E-01;  9.9999998E-03;  9.9976379E-03;5527; -6.9815824E-03;  0.0000000E+00; -2.9486939E-04;  1.0026755E+03;  1.0000381E-01;  2.2166284E+03;3;  8.6632462E+00;  0.0000000E+00; -4.0483091E-02;0; -1.7636571E-02;  4.0217383E+04;  0.0000000E+00; -1.5685890E-03;  4.0000000E+04;  0.0000000E+00;  3.9993957E+04;  9.0936674E-03;  0.0000000E+00; -2.6730239E-02;  9.8201129E+02;
  5.0063974E-01;  9.9999998E-03;  1.9995168E-02;5528; -7.0220171E-03;  0.0000000E+00; -5.8470957E-04;  1.0026659E+03;  1.0000373E-01;  2.2086287E+03;3;  8.5936775E+00;  0.0000000E+00; -7.4897669E-02;0; -1.7864794E-02;  4.0216621E+04;  0.0000000E+00; -6.2204385E-03;  4.0000000E+04;  0.0000000E+00;  3.9994176E+04;  8.5865734E-03;  0.0000000E+00; -2.6451366E-02;  9.7028741E+02;
  5.0064361E-01;  9.9999998E-03;  2.9992631E-02;5529; -7.0912400E-03;  0.0000000E+00; -8.6507743E-04;  1.0026498E+03;  1.0000386E-01;  2.1952957E+03;3;  8.4768362E+00;  0.0000000E+00; -9.8340832E-02;0; -1.8227628E-02;  4.0215297E+04;  0.0000000E+00; -1.3783388E-02;  4.0000000E+04;  0.0000000E+00;  3.9994176E+04;  7.7651646E-03;  0.0000000E+00; -2.5992792E-02;  9.5167700E+02;
  5.0064915E-01;  9.9999998E-03;  3.9990257E-02;5530; -7.1823359E-03;  0.0000000E+00; -1.1334541E-03;  1.0026274E+03;  1.0000377E-01;  2.1768269E+03;3;  8.3176861E+00;  0.0000000E+00; -1.2678467E-01;0; -1.8698916E-02;  4.0213344E+04;  0.0000000E+00; -2.3942417E-02;  4.0000000E+04;  0.0000000E+00;  3.9994422E+04;  6.6640470E-03;  0.0000000E+00; -2.5362963E-02;  9.2751227E+02;
  5.0065649E-01;  9.9999998E-03;  4.9988050E-02;5531; -7.2839069E-03;  0.0000000E+00; -1.3856365E-03;  1.0026005E+03;  1.0000374E-01;  2.1544080E+03;3;  8.0975361E+00;  0.0000000E+00; -1.5149851E-01;0; -1.9242976E-02;  4.0210773E+04;  0.0000000E+00; -3.6207404E-02;  4.0000000E+04;  0.0000000E+00;  3.9994508E+04;  5.3292583E-03;  0.0000000E+00; -2.4572235E-02;  8.9917255E+02;
  5.0066572E-01;  9.9999998E-03;  5.9986055E-02;5532; -7.3734224E-03;  0.0000000E+00; -1.6252808E-03;  1.0025672E+03;  1.0000376E-01;  2.1268530E+03;3;  7.9156013E+00;  0.0000000E+00; -2.1875693E-01;0; -1.9815695E-02;  4.0207820E+04;  0.0000000E+00; -4.9886502E-02;  4.0000000E+04;  0.0000000E+00;  3.9994859E+04;  3.8157322E-03;  0.0000000E+00; -2.3631427E-02;  8.6857513E+02;
  5.1063704E-01;  9.9999998E-03; -9.9980958E-02;5577; -7.6227612E-03;  0.0000000E+00;  2.7721624E-03;  1.0020900E+03;  1.0000619E-01;  1.7315063E+03;3;  7.2728028E+00;  0.0000000E+00;  3.2425866E-01;0; -2.0914622E-02;  4.0167191E+04;  0.0000000E+00; -1.1873499E-01;  4.0000000E+04;  0.0000000E+00;  3.9995191E+04; -7.0493246E-05;  0.0000000E+00; -2.0844128E-02;  8.0425018E+02;
  5.1061898E-01;  9.9999998E-03; -8.9982383E-02;5578; -7.5228526E-03;  0.0000000E+00;  2.5607808E-03;  1.0021099E+03;  1.0000612E-01;  1.7479996E+03;3;  7.5211110E+00;  0.0000000E+00;  3.2776368E-01;0; -2.0348063E-02;  4.0168594E+04;  0.0000000E+00; -1.1037987E-01;  4.0000000E+04;  0.0000000E+00;  3.9995000E+04;  1.9569830E-03;  0.0000000E+00; -2.2305045E-02;  8.1441858E+02;
  5.1060170E-01;  9.9999998E-03; -7.9983659E-02;5579; -7.4299681E-03;  0.0000000E+00;  2.3292033E-03;  1.0021247E+03;  1.0000617E-01;  1.7602462E+03;3;  7.7410669E+00;  0.0000000E+00;  3.1976706E-01;0; -1.9632917E-02;  4.0169957E+04;  0.0000000E+00; -9.7571023E-02;  4.0000000E+04;  0.0000000E+00;  3.9994926E+04;  4.0066950E-03;  0.0000000E+00; -2.3639612E-02;  8.3063074E+02;
  5.1058632E-01;  9.9999998E-03; -6.9984876E-02;5580; -7.3389327E-03;  0.0000000E+00;  2.0823770E-03;  1.0021382E+03;  1.0000610E-01;  1.7714064E+03;3;  7.9547210E+00;  0.0000000E+00;  2.9070914E-01;0; -1.8825440E-02;  4.0171262E+04;  0.0000000E+00; -8.1760198E-02;  4.0000000E+04;  0.0000000E+00;  3.9994715E+04;  6.0182568E-03;  0.0000000E+00; -2.4843697E-02;  8.5089685E+02;
  5.1057351E-01;  9.9999998E-03; -5.9986167E-02;5581; -7.2383308E-03;  0.0000000E+00;  1.8197700E-03;  1.0021503E+03;  1.0000613E-01;  1.7814802E+03;3;  8.1980457E+00;  0.0000000E+00;  2.7052778E-01;0; -1.7983615E-02;  4.0172242E+04;  0.0000000E+00; -6.4516135E-02;  4.0000000E+04;  0.0000000E+00;  3.9994531E+04;  7.9287523E-03;  0.0000000E+00; -2.5912367E-02;  8.7329492E+02;
  5.1056349E-01;  9.9999998E-03; -4.9987696E-02;5582; -7.1243602E-03;  0.0000000E+00;  1.5421639E-03;  1.0021589E+03;  1.0000623E-01;  1.7885911E+03;3;  8.4039373E+00;  0.0000000E+00;  2.2170119E-01;0; -1.7164152E-02;  4.0173055E+04;  0.0000000E+00; -4.7348473E-02;  4.0000000E+04;  0.0000000E+00;  3.9994281E+04;  9.6754106E-03;  0.0000000E+00; -2.6839562E-02;  8.9597638E+02;
  5.1055592E-01;  9.9999998E-03; -3.9989632E-02;5583; -7.0125344E-03;  0.0000000E+00;  1.2513541E-03;  1.0021644E+03;  1.0000616E-01;  1.7932329E+03;3;  8.5773153E+00;  0.0000000E+00;  1.6516718E-01;0; -1.6418733E-02;  4.0173816E+04;  0.0000000E+00; -3.1586137E-02;  4.0000000E+04;  0.0000000E+00;  3.9994250E+04;  1.1198112E-02;  0.0000000E+00; -2.7616844E-02;  9.1728296E+02;
  5.1055026E-01;  9.9999998E-03; -2.9991947E-02;5584; -6.9140396E-03;  0.0000000E+00;  9.4951165E-04;  1.0021703E+03;  1.0000622E-01;  1.7980724E+03;3;  8.7063990E+00;  0.0000000E+00;  1.1342224E-01;0; -1.5791744E-02;  4.0174254E+04;  0.0000000E+00; -1.8305250E-02;  4.0000000E+04;  0.0000000E+00;  3.9994078E+04;  1.2443130E-02;  0.0000000E+00; -2.8234875E-02;  9.3587372E+02;
  5.1054662E-01;  9.9999998E-03; -1.9994577E-02;5585; -6.8391059E-03;  0.0000000E+00;  6.3880964E-04;  1.0021740E+03;  1.0000621E-01;  1.8010352E+03;3;  8.7986507E+00;  0.0000000E+00;  7.6324612E-02;0; -1.5318346E-02;  4.0174750E+04;  0.0000000E+00; -8.2994560E-03;  4.0000000E+04;  0.0000000E+00;  3.9993941E+04;  1.3366167E-02;  0.0000000E+00; -2.8684514E-02;  9.5043597E+02;
  5.1054454E-01;  9.9999998E-03; -9.9973129E-03;5586; -6.7936084E-03;  0.0000000E+00;  3.2150012E-04;  1.0021750E+03;  1.0000639E-01;  1.8020228E+03;3;  8.8560133E+00;  0.0000000E+00;  4.3839090E-02;0; -1.5024085E-02;  4.0174875E+04;  0.0000000E+00; -2.0986875E-03;  4.0000000E+04;  0.0000000E+00;  3.9993836E+04;  1.3933722E-02;  0.0000000E+00; -2.8957807E-02;  9.5975073E+02;
  5.1054406E-01;  9.9999998E-03;  8.8746832E-10;5587; -6.7791855E-03;  0.0000000E+00;  5.3350626E-09;  1.0021755E+03;  1.0000618E-01;  1.8023191E+03;3;  8.8735046E+00;  0.0000000E+00;  2.0656094E-05;0; -1.4924182E-02;  4.0174938E+04;  0.0000000E+00;  1.2490628E-12;  4.0000000E+04;  0.0000000E+00;  3.9993711E+04;  1.4125366E-02;  0.0000000E+00; -2.9049547E-02;  9.6300397E+02;
  5.1054454E-01;  9.9999998E-03;  9.9973148E-03;5588; -6.7936089E-03;  0.0000000E+00; -3.2148763E-04;  1.0021751E+03;  1.0000639E-01;  1.8020228E+03;3;  8.8560600E+00;  0.0000000E+00; -4.3771170E-02;0; -1.5024086E-02;  4.0174875E+04;  0.0000000E+00; -2.0987380E-03;  4.0000000E+04;  0.0000000E+00;  3.9993836E+04;  1.3933725E-02;  0.0000000E+00; -2.8957810E-02;  9.5975543E+02;
  5.1054662E-01;  9.9999998E-03;  1.9994579E-02;5589; -6.8391119E-03;  0.0000000E+00; -6.3879753E-04;  1.0021740E+03;  1.0000621E-01;  1.8010352E+03;3;  8.7986298E+00;  0.0000000E+00; -7.6262876E-02;0; -1.5318337E-02;  4.0174750E+04;  0.0000000E+00; -8.2993163E-03;  4.0000000E+04;  0.0000000E+00;  3.9993941E+04;  1.3366180E-02;  0.0000000E+00; -2.8684517E-02;  9.5041821E+02;
  5.1055026E-01;  9.9999998E-03;  2.9991949E-02;5590; -6.9140368E-03;  0.0000000E+00; -9.4949832E-04;  1.0021703E+03;  1.0000622E-01;  1.7980724E+03;3;  8.7064409E+00;  0.0000000E+00; -1.1334077E-01;0; -1.5791718E-02;  4.0174250E+04;  0.0000000E+00; -1.8304789E-02;  4.0000000E+04;  0.0000000E+00;  3.9994078E+04;  1.2443145E-02;  0.0000000E+00; -2.8234864E-02;  9.3587158E+02;
  5.1055592E-01;  9.9999998E-03;  3.9989632E-02;5591; -7.0125298E-03;  0.0000000E+00; -1.2513431E-03;  1.0021645E+03;  1.0000611E-01;  1.7932329E+03;3;  8.5774069E+00;  0.0000000E+00; -1.6511551E-01;0; -1.6418675E-02;  4.0173816E+04;  0.0000000E+00; -3.1586576E-02;  4.0000000E+04;  0.0000000E+00;  3.9994250E+04;  1.1198143E-02;  0.0000000E+00; -2.7616818E-02;  9.1726855E+02;
  5.1056349E-01;  9.9999998E-03;  4.9987696E-02;5592; -7.1243485E-03;  0.0000000E+00; -1.5421539E-03;  1.0021589E+03;  1.0000623E-01;  1.7885911E+03;3;  8.4039755E+00;  0.0000000E+00; -2.2161728E-01;0; -1.7164085E-02;  4.0173055E+04;  0.0000000E+00; -4.7348220E-02;  4.0000000E+04;  0.0000000E+00;  3.9994285E+04;  9.6754590E-03;  0.0000000E+00; -2.6839545E-02;  8.9596912E+02;
  5.1057351E-01;  9.9999998E-03;  5.9986167E-02;5593; -7.2383280E-03;  0.0000000E+00; -1.8197593E-03;  1.0021503E+03;  1.0000613E-01;  1.7814802E+03;3;  8.1980753E+00;  0.0000000E+00; -2.7044234E-01;0; -1.7983586E-02;  4.0172242E+04;  0.0000000E+00; -6.4513817E-02;  4.0000000E+04;  0.0000000E+00;  3.9994531E+04;  7.9287980E-03;  0.0000000E+00; -2.5912384E-02;  8.7330267E+02;
  5.2056599E-01;  9.9999998E-03; -9.9988885E-02;5638; -7.6279794E-03;  0.0000000E+00;  3.0926643E-03;  1.0016180E+03;  1.0001040E-01;  1.3405051E+03;3;  7.3753419E+00;  0.0000000E+00;  2.9511079E-01;0; -1.8405395E-02;  4.0126020E+04;  0.0000000E+00; -1.2460386E-01;  4.0000000E+04;  0.0000000E+00;  3.9994117E+04;  4.9121273E-03;  0.0000000E+00; -2.3317521E-02;  8.8329181E+02;
  5.2054644E-01;  9.9999998E-03; -8.9989334E-02;5639; -7.5087771E-03;  0.0000000E+00;  2.8409599E-03;  1.0015999E+03;  1.0001049E-01;  1.3254932E+03;3;  7.6372504E+00;  0.0000000E+00;  2.9937053E-01;0; -1.7214896E-02;  4.0124656E+04;  0.0000000E+00; -1.1857533E-01;  4.0000000E+04;  0.0000000E+00;  3.9994059E+04;  7.5670998E-03;  0.0000000E+00; -2.4781996E-02;  8.9752606E+02;
  5.2052802E-01;  9.9999998E-03; -7.9989530E-02;5640; -7.3920400E-03;  0.0000000E+00;  2.5747677E-03;  1.0015795E+03;  1.0001046E-01;  1.3086047E+03;3;  7.8794699E+00;  0.0000000E+00;  2.8327566E-01;0; -1.5921392E-02;  4.0123258E+04;  0.0000000E+00; -1.0687791E-01;  4.0000000E+04;  0.0000000E+00;  3.9993844E+04;  1.0189616E-02;  0.0000000E+00; -2.6111007E-02;  9.1273352E+02;
  5.2051181E-01;  9.9999998E-03; -6.9989614E-02;5641; -7.2764680E-03;  0.0000000E+00;  2.2930761E-03;  1.0015606E+03;  1.0001037E-01;  1.2929015E+03;3;  8.1325512E+00;  0.0000000E+00;  2.7712920E-01;0; -1.4590378E-02;  4.0121859E+04;  0.0000000E+00; -9.1046982E-02;  4.0000000E+04;  0.0000000E+00;  3.9993641E+04;  1.2713379E-02;  0.0000000E+00; -2.7303757E-02;  9.2911200E+02;
  5.2049828E-01;  9.9999998E-03; -5.9989862E-02;5642; -7.1534184E-03;  0.0000000E+00;  1.9953987E-03;  1.0015419E+03;  1.0001051E-01;  1.2773958E+03;3;  8.3790150E+00;  0.0000000E+00;  2.4053943E-01;0; -1.3287172E-02;  4.0120289E+04;  0.0000000E+00; -7.2849981E-02;  4.0000000E+04;  0.0000000E+00;  3.9993539E+04;  1.5070911E-02;  0.0000000E+00; -2.8358083E-02;  9.4667670E+02;
  5.2048767E-01;  9.9999998E-03; -4.9990483E-02;5643; -7.0262547E-03;  0.0000000E+00;  1.6844942E-03;  1.0015255E+03;  1.0001035E-01;  1.2638654E+03;3;  8.5887909E+00;  0.0000000E+00;  2.1003281E-01;0; -1.2073115E-02;  4.0119008E+04;  0.0000000E+00; -5.4085162E-02;  4.0000000E+04;  0.0000000E+00;  3.9993375E+04;  1.7196715E-02;  0.0000000E+00; -2.9269829E-02;  9.6492664E+02;
  5.2047926E-01;  9.9999998E-03; -3.9991681E-02;5644; -6.9096051E-03;  0.0000000E+00;  1.3608285E-03;  1.0015084E+03;  1.0001035E-01;  1.2497422E+03;3;  8.7445326E+00;  0.0000000E+00;  1.6566990E-01;0; -1.1003321E-02;  4.0117793E+04;  0.0000000E+00; -3.6419101E-02;  4.0000000E+04;  0.0000000E+00;  3.9993188E+04;  1.9029085E-02;  0.0000000E+00; -3.0032406E-02;  9.8300342E+02;
  5.2047330E-01;  9.9999998E-03; -2.9993333E-02;5645; -6.8136174E-03;  0.0000000E+00;  1.0284878E-03;  1.0014948E+03;  1.0001040E-01;  1.2383845E+03;3;  8.8369045E+00;  0.0000000E+00;  1.1368278E-01;0; -1.0123143E-02;  4.0116973E+04;  0.0000000E+00; -2.1258252E-02;  4.0000000E+04;  0.0000000E+00;  3.9993027E+04;  2.0514930E-02;  0.0000000E+00; -3.0638073E-02;  9.9962708E+02;
  5.2046943E-01;  9.9999998E-03; -1.9995401E-02;5646; -6.7401300E-03;  0.0000000E+00;  6.8976614E-04;  1.0014863E+03;  1.0001042E-01;  1.2313724E+03;3;  8.9200344E+00;  0.0000000E+00;  6.3673459E-02;0; -9.4685685E-03;  4.0116383E+04;  0.0000000E+00; -9.6874805E-03;  4.0000000E+04;  0.0000000E+00;  3.9992848E+04;  2.1609802E-02;  0.0000000E+00; -3.1078370E-02;  1.0132572E+03;
  5.2046728E-01;  9.9999998E-03; -9.9976836E-03;5647; -6.6934465E-03;  0.0000000E+00;  3.4582044E-04;  1.0014797E+03;  1.0001042E-01;  1.2259404E+03;3;  8.9662123E+00;  0.0000000E+00;  3.0891126E-02;0; -9.0654492E-03;  4.0115934E+04;  0.0000000E+00; -2.4570124E-03;  4.0000000E+04;  0.0000000E+00;  3.9992723E+04;  2.2280507E-02;  0.0000000E+00; -3.1345956E-02;  1.0222203E+03;
  5.2046663E-01;  9.9999998E-03;  8.4464596E-10;5648; -6.6771880E-03;  0.0000000E+00;  6.3310841E-09;  1.0014786E+03;  1.0001050E-01;  1.2249529E+03;3;  8.9790201E+00;  0.0000000E+00;  3.1456217E-05;0; -8.9292899E-03;  4.0115797E+04;  0.0000000E+00;  1.1053826E-12;  4.0000000E+04;  0.0000000E+00;  3.9992828E+04;  2.2506475E-02;  0.0000000E+00; -3.1435765E-02;  1.0254380E+03;
  5.2046728E-01;  9.9999998E-03;  9.9976854E-03;5649; -6.6934465E-03;  0.0000000E+00; -3.4580936E-04;  1.0014798E+03;  1.0001042E-01;  1.2259404E+03;3;  8.9662123E+00;  0.0000000E+00; -3.0824626E-02;0; -9.0653896E-03;  4.0115934E+04;  0.0000000E+00; -2.4573132E-03;  4.0000000E+04;  0.0000000E+00;  3.9992723E+04;  2.2280540E-02;  0.0000000E+00; -3.1345930E-02;  1.0222275E+03;
  5.2046943E-01;  9.9999998E-03;  1.9995401E-02;5650; -6.7401337E-03;  0.0000000E+00; -6.8975444E-04;  1.0014863E+03;  1.0001042E-01;  1.2313724E+03;3;  8.9200287E+00;  0.0000000E+00; -6.3620321E-02;0; -9.4685499E-03;  4.0116383E+04;  0.0000000E+00; -9.6879713E-03;  4.0000000E+04;  0.0000000E+00;  3.9992848E+04;  2.1609819E-02;  0.0000000E+00; -3.1078368E-02;  1.0132401E+03;
  5.2047330E-01;  9.9999998E-03;  2.9993335E-02;5651; -6.8136156E-03;  0.0000000E+00; -1.0284741E-03;  1.0014948E+03;  1.0001040E-01;  1.2383845E+03;3;  8.8368835E+00;  0.0000000E+00; -1.1358568E-01;0; -1.0123119E-02;  4.0116977E+04;  0.0000000E+00; -2.1258326E-02;  4.0000000E+04;  0.0000000E+00;  3.9993027E+04;  2.0514945E-02;  0.0000000E+00; -3.0638063E-02;  9.9962360E+02;
  5.2047926E-01;  9.9999998E-03;  3.9991681E-02;5652; -6.9095972E-03;  0.0000000E+00; -1.3608168E-03;  1.0015083E+03;  1.0001045E-01;  1.2496434E+03;3;  8.7445507E+00;  0.0000000E+00; -1.6561481E-01;0; -1.1003340E-02;  4.0117793E+04;  0.0000000E+00; -3.6418956E-02;  4.0000000E+04;  0.0000000E+00;  3.9993188E+04;  1.9029114E-02;  0.0000000E+00; -3.0032454E-02;  9.8300317E+02;
  5.2048767E-01;  9.9999998E-03;  4.9990486E-02;5653; -7.0262486E-03;  0.0000000E+00; -1.6844847E-03;  1.0015255E+03;  1.0001035E-01;  1.2638654E+03;3;  8.5888071E+00;  0.0000000E+00; -2.1001200E-01;0; -1.2073074E-02;  4.0119012E+04;  0.0000000E+00; -5.4085445E-02;  4.0000000E+04;  0.0000000E+00;  3.9993375E+04;  1.7196769E-02;  0.0000000E+00; -2.9269842E-02;  9.6493317E+02;
  5.2049828E-01;  9.9999998E-03;  5.9989862E-02;5654; -7.1534151E-03;  0.0000000E+00; -1.9953880E-03;  1.0015419E+03;  1.0001051E-01;  1.2774945E+03;3;  8.3790417E+00;  0.0000000E+00; -2.4044438E-01;0; -1.3287088E-02;  4.0120289E+04;  0.0000000E+00; -7.2850205E-02;  4.0000000E+04;  0.0000000E+00;  3.9993539E+04;  1.5070973E-02;  0.0000000E+00; -2.8358061E-02;  9.4666394E+02;
  5.3051257E-01;  9.9999998E-03; -1.0000187E-01;5699; -7.6777823E-03;  0.0000000E+00;  3.3786097E-03;  1.0010220E+03;  1.0001730E-01;  8.4669196E+02;3;  7.4083161E+00;  0.0000000E+00;  1.9245222E-01;0; -1.2857098E-02;  4.0073582E+04;  0.0000000E+00; -1.1360034E-01;  4.0000000E+04;  0.0000000E+00;  3.9992617E+04;  1.3059003E-02;  0.0000000E+00; -2.5916101E-02;  1.0069428E+03;
  5.3049320E-01;  9.9999998E-03; -9.0001106E-02;5700; -7.5383256E-03;  0.0000000E+00;  3.0920254E-03;  1.0009706E+03;  1.0001747E-01;  8.0412531E+02;3;  7.6874518E+00;  0.0000000E+00;  1.9573557E-01;0; -1.0770977E-02;  4.0069426E+04;  0.0000000E+00; -1.1126454E-01;  4.0000000E+04;  0.0000000E+00;  3.9992559E+04;  1.6620614E-02;  0.0000000E+00; -2.7391590E-02;  1.0266289E+03;
  5.3047532E-01;  9.9999998E-03; -7.9999991E-02;5701; -7.4024415E-03;  0.0000000E+00;  2.7899328E-03;  1.0009160E+03;  1.0001741E-01;  7.5889203E+02;3;  7.9536109E+00;  0.0000000E+00;  2.0317662E-01;0; -8.6466223E-03;  4.0065398E+04;  0.0000000E+00; -1.0269681E-01;  4.0000000E+04;  0.0000000E+00;  3.9992289E+04;  2.0077806E-02;  0.0000000E+00; -2.8724428E-02;  1.0425698E+03;
  5.3045946E-01;  9.9999998E-03; -6.9998771E-02;5702; -7.2680679E-03;  0.0000000E+00;  2.4747518E-03;  1.0008651E+03;  1.0001725E-01;  7.1672034E+02;3;  8.2078800E+00;  0.0000000E+00;  1.8794864E-01;0; -6.5623000E-03;  4.0061297E+04;  0.0000000E+00; -8.9247294E-02;  4.0000000E+04;  0.0000000E+00;  3.9992152E+04;  2.3354350E-02;  0.0000000E+00; -2.9916650E-02;  1.0575331E+03;
  5.3044617E-01;  9.9999998E-03; -5.9997667E-02;5703; -7.1296361E-03;  0.0000000E+00;  2.1469877E-03;  1.0008159E+03;  1.0001735E-01;  6.7593140E+02;3;  8.4686775E+00;  0.0000000E+00;  1.7506316E-01;0; -4.5929663E-03;  4.0057551E+04;  0.0000000E+00; -7.2614357E-02;  4.0000000E+04;  0.0000000E+00;  3.9991910E+04;  2.6375152E-02;  0.0000000E+00; -3.0968118E-02;  1.0735610E+03;
  5.3043485E-01;  9.9999998E-03; -4.9997035E-02;5704; -6.9951131E-03;  0.0000000E+00;  1.8066858E-03;  1.0007732E+03;  1.0001732E-01;  6.4057440E+02;3;  8.6697254E+00;  0.0000000E+00;  1.4671296E-01;0; -2.8078910E-03;  4.0054070E+04;  0.0000000E+00; -5.4667205E-02;  4.0000000E+04;  0.0000000E+00;  3.9991840E+04;  2.9067701E-02;  0.0000000E+00; -3.1875592E-02;  1.0914620E+03;
  5.3042567E-01;  9.9999998E-03; -3.9996922E-02;5705; -6.8763713E-03;  0.0000000E+00;  1.4561964E-03;  1.0007363E+03;  1.0001732E-01;  6.1005670E+02;3;  8.8198071E+00;  0.0000000E+00;  1.1880672E-01;0; -1.2664050E-03;  4.0051305E+04;  0.0000000E+00; -3.7229031E-02;  4.0000000E+04;  0.0000000E+00;  3.9991574E+04;  3.1367224E-02;  0.0000000E+00; -3.2633629E-02;  1.1106576E+03;
  5.3041923E-01;  9.9999998E-03; -2.9997209E-02;5706; -6.7789019E-03;  0.0000000E+00;  1.0981391E-03;  1.0007074E+03;  1.0001733E-01;  5.8605743E+02;3;  8.9332447E+00;  0.0000000E+00;  8.2867421E-02;0; -1.6484410E-05;  4.0048965E+04;  0.0000000E+00; -2.1921966E-02;  4.0000000E+04;  0.0000000E+00;  3.9991434E+04;  3.3218846E-02;  0.0000000E+00; -3.3235330E-02;  1.1295721E+03;
  5.3041470E-01;  9.9999998E-03; -1.9997967E-02;5707; -6.7059109E-03;  0.0000000E+00;  7.3484750E-04;  1.0006846E+03;  1.0001739E-01;  5.6719373E+02;3;  8.9976416E+00;  0.0000000E+00;  5.1215898E-02;0;  9.0313703E-04;  4.0047391E+04;  0.0000000E+00; -1.0052783E-02;  4.0000000E+04;  0.0000000E+00;  3.9991258E+04;  3.4575786E-02;  0.0000000E+00; -3.3672649E-02;  1.1458137E+03;
  5.3041238E-01;  9.9999998E-03; -9.9989520E-03;5708; -6.6618668E-03;  0.0000000E+00;  3.6845397E-04;  1.0006729E+03;  1.0001720E-01;  5.5751501E+02;3;  9.0369425E+00;  0.0000000E+00;  2.4641655E-02;0;  1.4659725E-03;  4.0046363E+04;  0.0000000E+00; -2.5592833E-03;  4.0000000E+04;  0.0000000E+00;  3.9991113E+04;  3.5404436E-02;  0.0000000E+00; -3.3938464E-02;  1.1569067E+03;
  5.3041172E-01;  9.9999998E-03;  7.7362106E-10;5709; -6.6470648E-03;  0.0000000E+00;  6.5460037E-09;  1.0006655E+03;  1.0001738E-01;  5.5139172E+02;3;  9.0503283E+00;  0.0000000E+00;  4.2598800E-05;0;  1.6555525E-03;  4.0046109E+04;  0.0000000E+00;  1.7859539E-12;  4.0000000E+04;  0.0000000E+00;  3.9991059E+04;  3.5683256E-02;  0.0000000E+00; -3.4027703E-02;  1.1608843E+03;
  5.3041238E-01;  9.9999998E-03;  9.9989539E-03;5710; -6.6618649E-03;  0.0000000E+00; -3.6844227E-04;  1.0006729E+03;  1.0001720E-01;  5.5751501E+02;3;  9.0369272E+00;  0.0000000E+00; -2.4571415E-02;0;  1.4660284E-03;  4.0046367E+04;  0.0000000E+00; -2.5595967E-03;  4.0000000E+04;  0.0000000E+00;  3.9991109E+04;  3.5404477E-02;  0.0000000E+00; -3.3938449E-02;  1.1569158E+03;
  5.3041470E-01;  9.9999998E-03;  1.9997969E-02;5711; -6.7059137E-03;  0.0000000E+00; -7.3483516E-04;  1.0006846E+03;  1.0001739E-01;  5.6719373E+02;3;  8.9976177E+00;  0.0000000E+00; -5.1151693E-02;0;  9.0308860E-04;  4.0047391E+04;  0.0000000E+00; -1.0053160E-02;  4.0000000E+04;  0.0000000E+00;  3.9991258E+04;  3.4575742E-02;  0.0000000E+00; -3.3672653E-02;  1.1458259E+03;
  5.3041923E-01;  9.9999998E-03;  2.9997211E-02;5712; -6.7789019E-03;  0.0000000E+00; -1.0981273E-03;  1.0007074E+03;  1.0001733E-01;  5.8605743E+02;3;  8.9332485E+00;  0.0000000E+00; -8.2805514E-02;0; -1.6465783E-05;  4.0048969E+04;  0.0000000E+00; -2.1922912E-02;  4.0000000E+04;  0.0000000E+00;  3.9991434E+04;  3.3218868E-02;  0.0000000E+00; -3.3235334E-02;  1.1295878E+03;
  5.3042567E-01;  9.9999998E-03;  3.9996922E-02;5713; -6.8763648E-03;  0.0000000E+00; -1.4561869E-03;  1.0007362E+03;  1.0001726E-01;  6.0995795E+02;3;  8.8198261E+00;  0.0000000E+00; -1.1876723E-01;0; -1.2663417E-03;  4.0051312E+04;  0.0000000E+00; -3.7229747E-02;  4.0000000E+04;  0.0000000E+00;  3.9991574E+04;  3.1367283E-02;  0.0000000E+00; -3.2633625E-02;  1.1106407E+03;
  5.3043485E-01;  9.9999998E-03;  4.9997035E-02;5714; -6.9951117E-03;  0.0000000E+00; -1.8066772E-03;  1.0007733E+03;  1.0001732E-01;  6.4067316E+02;3;  8.6697235E+00;  0.0000000E+00; -1.4669378E-01;0; -2.8077718E-03;  4.0054070E+04;  0.0000000E+00; -5.4667793E-02;  4.0000000E+04;  0.0000000E+00;  3.9991840E+04;  2.9067768E-02;  0.0000000E+00; -3.1875540E-02;  1.0914546E+03;
  5.3044617E-01;  9.9999998E-03;  5.9997670E-02;5715; -7.1296315E-03;  0.0000000E+00; -2.1469793E-03;  1.0008159E+03;  1.0001728E-01;  6.7593140E+02;3;  8.4687052E+00;  0.0000000E+00; -1.7504366E-01;0; -4.5928955E-03;  4.0057543E+04;  0.0000000E+00; -7.2616071E-02;  4.0000000E+04;  0.0000000E+00;  3.9991910E+04;  2.6375223E-02;  0.0000000E+00; -3.0968118E-02;  1.0735618E+03;
  5.4048395E-01;  9.9999998E-03; -1.0001843E-01;5760; -7.7637779E-03;  0.0000000E+00;  3.6338668E-03;  1.0004023E+03;  1.0002934E-01;  3.3332382E+02;3;  7.4342990E+00;  0.0000000E+00;  6.3174203E-02;0; -3.3956785E-03;  4.0015219E+04;  0.0000000E+00; -8.4183216E-02;  4.0000000E+04;  0.0000000E+00;  3.9990855E+04;  2.5184970E-02;  0.0000000E+00; -2.8580649E-02;  1.1636013E+03;
  5.4046583E-01;  9.9999998E-03; -9.0016276E-02;5761; -7.6055513E-03;  0.0000000E+00;  3.3101470E-03;  1.0003218E+03;  1.0002936E-01;  2.6665906E+02;3;  7.7016773E+00;  0.0000000E+00;  6.3630573E-02;0; -1.2055039E-04;  4.0008941E+04;  0.0000000E+00; -8.6427137E-02;  4.0000000E+04;  0.0000000E+00;  3.9990645E+04;  2.9971808E-02;  0.0000000E+00; -3.0092359E-02;  1.1866685E+03;
  5.4044932E-01;  9.9999998E-03; -8.0013819E-02;5762; -7.4514933E-03;  0.0000000E+00;  2.9759859E-03;  1.0002400E+03;  1.0002926E-01;  1.9880914E+02;3;  7.9859366E+00;  0.0000000E+00;  7.1655758E-02;0;  3.1065904E-03;  4.0002477E+04;  0.0000000E+00; -8.2791716E-02;  4.0000000E+04;  0.0000000E+00;  3.9990438E+04;  3.4562916E-02;  0.0000000E+00; -3.1456325E-02;  1.2025146E+03;
  5.4043472E-01;  9.9999998E-03; -7.0011273E-02;5763; -7.3024328E-03;  0.0000000E+00;  2.6302710E-03;  1.0001620E+03;  1.0002947E-01;  1.3421840E+02;3;  8.2469110E+00;  0.0000000E+00;  7.5997189E-02;0;  6.1918870E-03;  3.9996348E+04;  0.0000000E+00; -7.4153475E-02;  4.0000000E+04;  0.0000000E+00;  3.9990328E+04;  3.8868275E-02;  0.0000000E+00; -3.2676388E-02;  1.2166628E+03;
  5.4042178E-01;  9.9999998E-03; -6.0008876E-02;5764; -7.1542920E-03;  0.0000000E+00;  2.2750248E-03;  1.0000896E+03;  1.0002933E-01;  7.4269485E+01;3;  8.5043869E+00;  0.0000000E+00;  7.1004368E-02;0;  9.0466924E-03;  3.9990586E+04;  0.0000000E+00; -6.1851282E-02;  4.0000000E+04;  0.0000000E+00;  3.9990094E+04;  4.2799376E-02;  0.0000000E+00; -3.3752684E-02;  1.2332130E+03;
  5.4041016E-01;  9.9999998E-03; -5.0006840E-02;5765; -7.0149563E-03;  0.0000000E+00;  1.9095882E-03;  1.0000262E+03;  1.0002938E-01;  2.1727776E+01;3;  8.7103271E+00;  0.0000000E+00;  6.1185710E-02;0;  1.1592239E-02;  3.9985516E+04;  0.0000000E+00; -4.7520723E-02;  4.0000000E+04;  0.0000000E+00;  3.9989953E+04;  4.6274208E-02;  0.0000000E+00; -3.4681968E-02;  1.2539191E+03;
  5.4040068E-01;  9.9999998E-03; -4.0005118E-02;5766; -6.8941452E-03;  0.0000000E+00;  1.5366101E-03;  9.9996686E+02;  1.0002935E-01; -2.7456007E+01;3;  8.8700199E+00;  0.0000000E+00;  5.5295542E-02;0;  1.3763513E-02;  3.9981348E+04;  0.0000000E+00; -3.2895654E-02;  4.0000000E+04;  0.0000000E+00;  3.9989621E+04;  4.9222108E-02;  0.0000000E+00; -3.5458595E-02;  1.2782325E+03;
  5.4039353E-01;  9.9999998E-03; -3.0003648E-02;5767; -6.7977207E-03;  0.0000000E+00;  1.1566844E-03;  9.9992548E+02;  1.0002936E-01; -6.1726635E+01;3;  8.9827127E+00;  0.0000000E+00;  3.8178101E-02;0;  1.5507016E-02;  3.9977984E+04;  0.0000000E+00; -1.9615987E-02;  4.0000000E+04;  0.0000000E+00;  3.9989387E+04;  5.1582281E-02;  0.0000000E+00; -3.6075264E-02;  1.3034659E+03;
  5.4038858E-01;  9.9999998E-03; -2.0002402E-02;5768; -6.7268554E-03;  0.0000000E+00;  7.7320315E-04;  9.9989374E+02;  1.0002936E-01; -8.8046875E+01;3;  9.0436220E+00;  0.0000000E+00;  2.2162981E-02;0;  1.6781326E-02;  3.9975648E+04;  0.0000000E+00; -9.0763476E-03;  4.0000000E+04;  0.0000000E+00;  3.9989246E+04;  5.3304922E-02;  0.0000000E+00; -3.6523595E-02;  1.3258894E+03;
  5.4038578E-01;  9.9999998E-03; -1.0001254E-02;5769; -6.6832015E-03;  0.0000000E+00;  3.8742364E-04;  9.9987213E+02;  1.0002940E-01; -1.0592290E+02;3;  9.0908642E+00;  0.0000000E+00;  9.6505713E-03;0;  1.7557640E-02;  3.9974145E+04;  0.0000000E+00; -2.3231576E-03;  4.0000000E+04;  0.0000000E+00;  3.9989090E+04;  5.4353878E-02;  0.0000000E+00; -3.6796238E-02;  1.3414541E+03;
  5.4038501E-01;  9.9999998E-03;  6.7449707E-10;5770; -6.6688634E-03;  0.0000000E+00;  6.0583210E-09;  9.9986548E+02;  1.0002925E-01; -1.1145361E+02;3;  9.1019697E+00;  0.0000000E+00;  2.9950093E-05;0;  1.7818592E-02;  3.9973648E+04;  0.0000000E+00;  2.6239497E-12;  4.0000000E+04;  0.0000000E+00;  3.9988996E+04;  5.4706343E-02;  0.0000000E+00; -3.6887750E-02;  1.3470758E+03;
  5.4038578E-01;  9.9999998E-03;  1.0001256E-02;5771; -6.6832001E-03;  0.0000000E+00; -3.8741191E-04;  9.9987213E+02;  1.0002940E-01; -1.0592290E+02;3;  9.0908756E+00;  0.0000000E+00; -9.5815798E-03;0;  1.7557651E-02;  3.9974141E+04;  0.0000000E+00; -2.3235404E-03;  4.0000000E+04;  0.0000000E+00;  3.9989090E+04;  5.4353885E-02;  0.0000000E+00; -3.6796235E-02;  1.3414492E+03;
  5.4038858E-01;  9.9999998E-03;  2.0002404E-02;5772; -6.7268549E-03;  0.0000000E+00; -7.7319134E-04;  9.9989374E+02;  1.0002936E-01; -8.8046875E+01;3;  9.0436049E+00;  0.0000000E+00; -2.2096861E-02;0;  1.6781401E-02;  3.9975652E+04;  0.0000000E+00; -9.0769082E-03;  4.0000000E+04;  0.0000000E+00;  3.9989246E+04;  5.3305000E-02;  0.0000000E+00; -3.6523599E-02;  1.3258854E+03;
  5.4039353E-01;  9.9999998E-03;  3.0003648E-02;5773; -6.7977197E-03;  0.0000000E+00; -1.1566737E-03;  9.9992548E+02;  1.0002931E-01; -6.1726635E+01;3;  8.9827108E+00;  0.0000000E+00; -3.8135212E-02;0;  1.5507080E-02;  3.9977988E+04;  0.0000000E+00; -1.9616788E-02;  4.0000000E+04;  0.0000000E+00;  3.9989387E+04;  5.1582336E-02;  0.0000000E+00; -3.6075257E-02;  1.3034614E+03;
  5.4040068E-01;  9.9999998E-03;  4.0005118E-02;5774; -6.8941433E-03;  0.0000000E+00; -1.5366010E-03;  9.9996692E+02;  1.0002930E-01; -2.7406626E+01;3;  8.8700352E+00;  0.0000000E+00; -5.5266205E-02;0;  1.3763547E-02;  3.9981344E+04;  0.0000000E+00; -3.2896928E-02;  4.0000000E+04;  0.0000000E+00;  3.9989613E+04;  4.9222186E-02;  0.0000000E+00; -3.5458639E-02;  1.2782280E+03;
  5.4041016E-01;  9.9999998E-03;  5.0006840E-02;5775; -7.0149545E-03;  0.0000000E+00; -1.9095786E-03;  1.0000262E+03;  1.0002938E-01;  2.1727776E+01;3;  8.7103233E+00;  0.0000000E+00; -6.1132833E-02;0;  1.1592381E-02;  3.9985516E+04;  0.0000000E+00; -4.7521211E-02;  4.0000000E+04;  0.0000000E+00;  3.9989953E+04;  4.6274319E-02;  0.0000000E+00; -3.4681939E-02;  1.2539230E+03;
  5.4042178E-01;  9.9999998E-03;  6.0008876E-02;5776; -7.1542910E-03;  0.0000000E+00; -2.2750164E-03;  1.0000896E+03;  1.0002933E-01;  7.4269485E+01;3;  8.5043287E+00;  0.0000000E+00; -7.0963070E-02;0;  9.0468228E-03;  3.9990586E+04;  0.0000000E+00; -6.1854206E-02;  4.0000000E+04;  0.0000000E+00;  3.9990094E+04;  4.2799473E-02;  0.0000000E+00; -3.3752650E-02;  1.2332244E+03;
  5.5048609E-01;  9.9999998E-03; -1.0003473E-01;5821; -7.8800889E-03;  0.0000000E+00;  3.8528272E-03;  9.9984375E+02;  1.0004845E-01; -1.2942841E+02;3;  7.4335771E+00;  0.0000000E+00; -1.0867607E-01;0;  1.0580756E-02;  3.9956449E+04;  0.0000000E+00; -3.6594119E-02;  4.0000000E+04;  0.0000000E+00;  3.9988867E+04;  4.1832395E-02;  0.0000000E+00; -3.1251639E-02;  1.3410046E+03;
  5.5047113E-01;  9.9999998E-03; -9.0031520E-02;5822; -7.6992689E-03;  0.0000000E+00;  3.4974753E-03;  9.9974359E+02;  1.0004840E-01; -2.1243839E+02;3;  7.7260642E+00;  0.0000000E+00; -8.6657725E-02;0;  1.5331648E-02;  3.9948766E+04;  0.0000000E+00; -4.3626416E-02;  4.0000000E+04;  0.0000000E+00;  3.9988656E+04;  4.8176926E-02;  0.0000000E+00; -3.2845277E-02;  1.3615593E+03;
  5.5045718E-01;  9.9999998E-03; -8.0027930E-02;5823; -7.5296448E-03;  0.0000000E+00;  3.1324027E-03;  9.9964569E+02;  1.0004842E-01; -2.9352249E+02;3;  7.9961905E+00;  0.0000000E+00; -7.3225446E-02;0;  1.9925877E-02;  3.9940734E+04;  0.0000000E+00; -4.6244796E-02;  4.0000000E+04;  0.0000000E+00;  3.9988531E+04;  5.4213695E-02;  0.0000000E+00; -3.4287818E-02;  1.3732284E+03;
  5.5044389E-01;  9.9999998E-03; -7.0024237E-02;5824; -7.3670051E-03;  0.0000000E+00;  2.7599356E-03;  9.9955042E+02;  1.0004834E-01; -3.7248322E+02;3;  8.2679434E+00;  0.0000000E+00; -5.6771349E-02;0;  2.4249494E-02;  3.9933277E+04;  0.0000000E+00; -4.4609942E-02;  4.0000000E+04;  0.0000000E+00;  3.9988414E+04;  5.9832469E-02;  0.0000000E+00; -3.5582975E-02;  1.3845643E+03;
  5.5043167E-01;  9.9999998E-03; -6.0020655E-02;5825; -7.2127935E-03;  0.0000000E+00;  2.3796400E-03;  9.9946191E+02;  1.0004846E-01; -4.4581445E+02;3;  8.5207405E+00;  0.0000000E+00; -4.7488041E-02;0;  2.8200228E-02;  3.9926395E+04;  0.0000000E+00; -3.9368618E-02;  4.0000000E+04;  0.0000000E+00;  3.9988238E+04;  6.4929821E-02;  0.0000000E+00; -3.6729593E-02;  1.4016304E+03;
  5.5042040E-01;  9.9999998E-03; -5.0017349E-02;5826; -7.0692506E-03;  0.0000000E+00;  1.9933817E-03;  9.9938123E+02;  1.0004857E-01; -5.1262738E+02;3;  8.7336950E+00;  0.0000000E+00; -3.4511261E-02;0;  3.1687699E-02;  3.9920320E+04;  0.0000000E+00; -3.1593684E-02;  4.0000000E+04;  0.0000000E+00;  3.9987875E+04;  6.9410339E-02;  0.0000000E+00; -3.7722640E-02;  1.4268552E+03;
  5.5041105E-01;  9.9999998E-03; -4.0014144E-02;5827; -6.9468874E-03;  0.0000000E+00;  1.6008649E-03;  9.9931543E+02;  1.0004835E-01; -5.6714435E+02;3;  8.8880720E+00;  0.0000000E+00; -3.0495234E-02;0;  3.4639038E-02;  3.9915234E+04;  0.0000000E+00; -2.2613229E-02;  4.0000000E+04;  0.0000000E+00;  3.9987559E+04;  7.3193699E-02;  0.0000000E+00; -3.8554661E-02;  1.4589102E+03;
  5.5040330E-01;  9.9999998E-03; -3.0010983E-02;5828; -6.8510300E-03;  0.0000000E+00;  1.2040535E-03;  9.9926562E+02;  1.0004839E-01; -6.0842712E+02;3;  9.0055008E+00;  0.0000000E+00; -2.2457160E-02;0;  3.6993504E-02;  3.9911348E+04;  0.0000000E+00; -1.3825202E-02;  4.0000000E+04;  0.0000000E+00;  3.9987141E+04;  7.6209374E-02;  0.0000000E+00; -3.9215870E-02;  1.4936014E+03;
  5.5039728E-01;  9.9999998E-03; -2.0007746E-02;5829; -6.7808521E-03;  0.0000000E+00;  8.0428732E-04;  9.9922473E+02;  1.0004836E-01; -6.4230267E+02;3;  9.0757837E+00;  0.0000000E+00; -1.6588621E-02;0;  3.8705401E-02;  3.9908371E+04;  0.0000000E+00; -6.5094628E-03;  4.0000000E+04;  0.0000000E+00;  3.9987055E+04;  7.8402273E-02;  0.0000000E+00; -3.9696872E-02;  1.5249956E+03;
  5.5039322E-01;  9.9999998E-03; -1.0004129E-02;5830; -6.7376527E-03;  0.0000000E+00;  4.0245184E-04;  9.9919977E+02;  1.0004847E-01; -6.6299347E+02;3;  9.1213589E+00;  0.0000000E+00; -1.1153995E-02;0;  3.9743502E-02;  3.9906574E+04;  0.0000000E+00; -1.6834546E-03;  4.0000000E+04;  0.0000000E+00;  3.9986848E+04;  7.9732843E-02;  0.0000000E+00; -3.9989341E-02;  1.5470020E+03;
  5.5039173E-01;  9.9999998E-03;  5.2787186E-10;5831; -6.7235772E-03;  0.0000000E+00;  5.6939089E-09;  9.9919354E+02;  1.0004861E-01; -6.6812909E+02;3;  9.1274500E+00;  0.0000000E+00;  2.2913524E-05;0;  4.0091366E-02;  3.9906066E+04;  0.0000000E+00;  3.0260655E-12;  4.0000000E+04;  0.0000000E+00;  3.9986824E+04;  8.0178872E-02;  0.0000000E+00; -4.0087506E-02;  1.5549691E+03;
  5.5039322E-01;  9.9999998E-03;  1.0004130E-02;5832; -6.7376541E-03;  0.0000000E+00; -4.0244067E-04;  9.9919983E+02;  1.0004843E-01; -6.6294409E+02;3;  9.1213522E+00;  0.0000000E+00;  1.1204829E-02;0;  3.9743539E-02;  3.9906570E+04;  0.0000000E+00; -1.6839049E-03;  4.0000000E+04;  0.0000000E+00;  3.9986848E+04;  7.9732835E-02;  0.0000000E+00; -3.9989296E-02;  1.5470046E+03;
  5.5039728E-01;  9.9999998E-03;  2.0007746E-02;5833; -6.7808530E-03;  0.0000000E+00; -8.0427661E-04;  9.9922479E+02;  1.0004843E-01; -6.4225330E+02;3;  9.0757408E+00;  0.0000000E+00;  1.6642656E-02;0;  3.8705360E-02;  3.9908371E+04;  0.0000000E+00; -6.5101990E-03;  4.0000000E+04;  0.0000000E+00;  3.9987055E+04;  7.8402258E-02;  0.0000000E+00; -3.9696898E-02;  1.5250039E+03;
  5.5040330E-01;  9.9999998E-03;  3.0010985E-02;5834; -6.8510305E-03;  0.0000000E+00; -1.2040436E-03;  9.9926562E+02;  1.0004839E-01; -6.0842712E+02;3;  9.0054808E+00;  0.0000000E+00;  2.2501227E-02;0;  3.6993429E-02;  3.9911352E+04;  0.0000000E+00; -1.3826032E-02;  4.0000000E+04;  0.0000000E+00;  3.9987141E+04;  7.6209284E-02;  0.0000000E+00; -3.9215855E-02;  1.4935983E+03;
  5.5041105E-01;  9.9999998E-03;  4.0014148E-02;5835; -6.9468869E-03;  0.0000000E+00; -1.6008543E-03;  9.9931543E+02;  1.0004835E-01; -5.6714435E+02;3;  8.8880787E+00;  0.0000000E+00;  3.0536242E-02;0;  3.4639176E-02;  3.9915234E+04;  0.0000000E+00; -2.2614297E-02;  4.0000000E+04;  0.0000000E+00;  3.9987559E+04;  7.3193826E-02;  0.0000000E+00; -3.8554650E-02;  1.4588983E+03;
  5.5042040E-01;  9.9999998E-03;  5.0017353E-02;5836; -7.0692510E-03;  0.0000000E+00; -1.9933730E-03;  9.9938135E+02;  1.0004857E-01; -5.1252863E+02;3;  8.7336731E+00;  0.0000000E+00;  3.4535911E-02;0;  3.1687763E-02;  3.9920320E+04;  0.0000000E+00; -3.1595163E-02;  4.0000000E+04;  0.0000000E+00;  3.9987875E+04;  6.9410451E-02;  0.0000000E+00; -3.7722688E-02;  1.4268604E+03;
  5.5043167E-01;  9.9999998E-03;  6.0020655E-02;5837; -7.2127921E-03;  0.0000000E+00; -2.3796316E-03;  9.9946198E+02;  1.0004842E-01; -4.4576508E+02;3;  8.5207415E+00;  0.0000000E+00;  4.7513615E-02;0;  2.8200250E-02;  3.9926391E+04;  0.0000000E+00; -3.9370105E-02;  4.0000000E+04;  0.0000000E+00;  3.9988238E+04;  6.4929843E-02;  0.0000000E+00; -3.6729593E-02;  1.4016453E+03;
  5.6052995E-01;  9.9999998E-03; -1.0004399E-01;5882; -8.0082417E-03;  0.0000000E+00;  4.0387609E-03;  9.9942670E+02;  1.0007958E-01; -4.7494943E+02;3;  7.4113612E+00;  0.0000000E+00; -2.9618147E-01;0;  2.9283993E-02;  3.9899695E+04;  0.0000000E+00;  2.5843188E-02;  4.0000000E+04;  0.0000000E+00;  3.9986980E+04;  6.3154534E-02;  0.0000000E+00; -3.3870541E-02;  1.5256884E+03;
  5.6052065E-01;  9.9999998E-03; -9.0040207E-02;5883; -7.8089437E-03;  0.0000000E+00;  3.6521286E-03;  9.9932288E+02;  1.0007951E-01; -5.6097168E+02;3;  7.7202024E+00;  0.0000000E+00; -2.6656917E-01;0;  3.5760280E-02;  3.9891395E+04;  0.0000000E+00;  1.4654876E-02;  4.0000000E+04;  0.0000000E+00;  3.9986773E+04;  7.1373202E-02;  0.0000000E+00; -3.5612922E-02;  1.5344908E+03;
  5.6051117E-01;  9.9999998E-03; -8.0036134E-02;5884; -7.6234755E-03;  0.0000000E+00;  3.2600320E-03;  9.9921985E+02;  1.0007960E-01; -6.4635193E+02;3;  7.9955087E+00;  0.0000000E+00; -2.3238462E-01;0;  4.1948386E-02;  3.9883215E+04;  0.0000000E+00;  5.2569327E-03;  4.0000000E+04;  0.0000000E+00;  3.9986793E+04;  7.9150714E-02;  0.0000000E+00; -3.7202328E-02;  1.5352758E+03;
  5.6050104E-01;  9.9999998E-03; -7.0031978E-02;5885; -7.4477503E-03;  0.0000000E+00;  2.8630879E-03;  9.9911981E+02;  1.0007960E-01; -7.2921381E+02;3;  8.2672262E+00;  0.0000000E+00; -2.0719373E-01;0;  4.7713727E-02;  3.9875492E+04;  0.0000000E+00; -1.6206307E-03;  4.0000000E+04;  0.0000000E+00;  3.9986602E+04;  8.6353175E-02;  0.0000000E+00; -3.8639449E-02;  1.5394962E+03;
  5.6049079E-01;  9.9999998E-03; -6.0027815E-02;5886; -7.2860662E-03;  0.0000000E+00;  2.4628898E-03;  9.9902856E+02;  1.0007947E-01; -8.0481659E+02;3;  8.5226288E+00;  0.0000000E+00; -1.7200169E-01;0;  5.2938450E-02;  3.9868250E+04;  0.0000000E+00; -5.6660655E-03;  4.0000000E+04;  0.0000000E+00;  3.9986406E+04;  9.2858061E-02;  0.0000000E+00; -3.9919611E-02;  1.5550632E+03;
  5.6048113E-01;  9.9999998E-03; -5.0023772E-02;5887; -7.1400264E-03;  0.0000000E+00;  2.0587484E-03;  9.9894940E+02;  1.0007939E-01; -8.7039496E+02;3;  8.7378883E+00;  0.0000000E+00; -1.4707033E-01;0;  5.7520509E-02;  3.9862020E+04;  0.0000000E+00; -7.0581385E-03;  4.0000000E+04;  0.0000000E+00;  3.9986129E+04;  9.8554291E-02;  0.0000000E+00; -4.1033782E-02;  1.5846196E+03;
  5.6047249E-01;  9.9999998E-03; -4.0019847E-02;5888; -7.0161712E-03;  0.0000000E+00;  1.6503482E-03;  9.9887946E+02;  1.0007937E-01; -9.2836859E+02;3;  8.8929987E+00;  0.0000000E+00; -1.1602984E-01;0;  6.1376158E-02;  3.9857000E+04;  0.0000000E+00; -6.3850596E-03;  4.0000000E+04;  0.0000000E+00;  3.9985852E+04;  1.0334659E-01;  0.0000000E+00; -4.1970428E-02;  1.6255659E+03;
  5.6046492E-01;  9.9999998E-03; -3.0015815E-02;5889; -6.9196057E-03;  0.0000000E+00;  1.2406308E-03;  9.9882471E+02;  1.0007945E-01; -9.7370062E+02;3;  9.0164242E+00;  0.0000000E+00; -8.7658770E-02;0;  6.4438649E-02;  3.9852879E+04;  0.0000000E+00; -4.4957078E-03;  4.0000000E+04;  0.0000000E+00;  3.9985336E+04;  1.0715510E-01;  0.0000000E+00; -4.2716451E-02;  1.6714551E+03;
  5.6045872E-01;  9.9999998E-03; -2.0011408E-02;5890; -6.8493499E-03;  0.0000000E+00;  8.2820590E-04;  9.9878345E+02;  1.0007954E-01; -1.0078725E+03;3;  9.0926170E+00;  0.0000000E+00; -6.2092811E-02;0;  6.6657826E-02;  3.9850004E+04;  0.0000000E+00; -2.3075598E-03;  4.0000000E+04;  0.0000000E+00;  3.9985020E+04;  1.0991754E-01;  0.0000000E+00; -4.3259714E-02;  1.7136244E+03;
  5.6045401E-01;  9.9999998E-03; -1.0006305E-02;5891; -6.8061738E-03;  0.0000000E+00;  4.1385167E-04;  9.9876196E+02;  1.0007961E-01; -1.0256991E+03;3;  9.1362143E+00;  0.0000000E+00; -3.0767754E-02;0;  6.7999482E-02;  3.9848230E+04;  0.0000000E+00; -6.2567671E-04;  4.0000000E+04;  0.0000000E+00;  3.9984762E+04;  1.1158943E-01;  0.0000000E+00; -4.3589946E-02;  1.7434110E+03;
  5.6045204E-01;  9.9999998E-03;  3.9941472E-10;5892; -6.7923390E-03;  0.0000000E+00;  5.4086788E-09;  9.9875165E+02;  1.0007939E-01; -1.0342421E+03;3;  9.1509047E+00;  0.0000000E+00;  2.1698304E-05;0;  6.8447970E-02;  3.9847688E+04;  0.0000000E+00;  2.9333849E-12;  4.0000000E+04;  0.0000000E+00;  3.9984723E+04;  1.1214870E-01;  0.0000000E+00; -4.3700732E-02;  1.7541632E+03;
  5.6045401E-01;  9.9999998E-03;  1.0006306E-02;5893; -6.8061752E-03;  0.0000000E+00; -4.1384072E-04;  9.9876196E+02;  1.0007961E-01; -1.0256991E+03;3;  9.1361933E+00;  0.0000000E+00;  3.0809786E-02;0;  6.7999408E-02;  3.9848230E+04;  0.0000000E+00; -6.2613771E-04;  4.0000000E+04;  0.0000000E+00;  3.9984762E+04;  1.1158943E-01;  0.0000000E+00; -4.3590024E-02;  1.7434192E+03;
  5.6045872E-01;  9.9999998E-03;  2.0011410E-02;5894; -6.8493527E-03;  0.0000000E+00; -8.2819542E-04;  9.9878339E+02;  1.0007954E-01; -1.0079219E+03;3;  9.0925589E+00;  0.0000000E+00;  6.2131304E-02;0;  6.6657826E-02;  3.9849996E+04;  0.0000000E+00; -2.3084958E-03;  4.0000000E+04;  0.0000000E+00;  3.9985023E+04;  1.0991757E-01;  0.0000000E+00; -4.3259744E-02;  1.7136283E+03;
  5.6046492E-01;  9.9999998E-03;  3.0015815E-02;5895; -6.9196052E-03;  0.0000000E+00; -1.2406211E-03;  9.9882471E+02;  1.0007945E-01; -9.7370062E+02;3;  9.0163898E+00;  0.0000000E+00;  8.7697513E-02;0;  6.4438730E-02;  3.9852879E+04;  0.0000000E+00; -4.4976892E-03;  4.0000000E+04;  0.0000000E+00;  3.9985336E+04;  1.0715519E-01;  0.0000000E+00; -4.2716462E-02;  1.6714695E+03;
  5.6047249E-01;  9.9999998E-03;  4.0019847E-02;5896; -7.0161712E-03;  0.0000000E+00; -1.6503386E-03;  9.9887946E+02;  1.0007937E-01; -9.2836859E+02;3;  8.8929873E+00;  0.0000000E+00;  1.1606316E-01;0;  6.1376229E-02;  3.9856996E+04;  0.0000000E+00; -6.3869986E-03;  4.0000000E+04;  0.0000000E+00;  3.9985852E+04;  1.0334664E-01;  0.0000000E+00; -4.1970409E-02;  1.6255631E+03;
  5.6048113E-01;  9.9999998E-03;  5.0023772E-02;5897; -7.1400274E-03;  0.0000000E+00; -2.0587393E-03;  9.9894940E+02;  1.0007939E-01; -8.7039496E+02;3;  8.7378683E+00;  0.0000000E+00;  1.4710264E-01;0;  5.7520445E-02;  3.9862020E+04;  0.0000000E+00; -7.0594759E-03;  4.0000000E+04;  0.0000000E+00;  3.9986129E+04;  9.8554254E-02;  0.0000000E+00; -4.1033808E-02;  1.5846263E+03;
  5.6049079E-01;  9.9999998E-03;  6.0027819E-02;5898; -7.2860653E-03;  0.0000000E+00; -2.4628812E-03;  9.9902850E+02;  1.0007951E-01; -8.0486597E+02;3;  8.5225763E+00;  0.0000000E+00;  1.7202805E-01;0;  5.2938469E-02;  3.9868246E+04;  0.0000000E+00; -5.6671211E-03;  4.0000000E+04;  0.0000000E+00;  3.9986406E+04;  9.2858024E-02;  0.0000000E+00; -3.9919555E-02;  1.5550599E+03;
  5.7062596E-01;  9.9999998E-03; -1.0004175E-01;5943; -8.1342822E-03;  0.0000000E+00;  4.1910275E-03;  9.9919012E+02;  1.0013086E-01; -6.7094373E+02;3;  7.4047098E+00;  0.0000000E+00; -4.9307519E-01;0;  5.2444343E-02;  3.9841926E+04;  0.0000000E+00;  9.4808742E-02;  4.0000000E+04;  0.0000000E+00;  3.9985055E+04;  8.8821761E-02;  0.0000000E+00; -3.6377419E-02;  1.7023787E+03;
  5.7062596E-01;  9.9999998E-03; -9.0037726E-02;5944; -7.9159085E-03;  0.0000000E+00;  3.7761652E-03;  9.9910114E+02;  1.0013097E-01; -7.4467004E+02;3;  7.6952672E+00;  0.0000000E+00; -4.4795907E-01;0;  6.0826603E-02;  3.9834496E+04;  0.0000000E+00;  8.1032336E-02;  4.0000000E+04;  0.0000000E+00;  3.9985102E+04;  9.9181436E-02;  0.0000000E+00; -3.8354833E-02;  1.6886107E+03;
  5.7062507E-01;  9.9999998E-03; -8.0033690E-02;5945; -7.7140094E-03;  0.0000000E+00;  3.3607425E-03;  9.9901202E+02;  1.0013099E-01; -8.1849506E+02;3;  7.9856620E+00;  0.0000000E+00; -4.0584943E-01;0;  6.8772867E-02;  3.9827344E+04;  0.0000000E+00;  6.5523721E-02;  4.0000000E+04;  0.0000000E+00;  3.9985312E+04;  1.0895115E-01;  0.0000000E+00; -4.0178284E-02;  1.6703545E+03;
  5.7062316E-01;  9.9999998E-03; -7.0029743E-02;5946; -7.5258552E-03;  0.0000000E+00;  2.9426487E-03;  9.9892596E+02;  1.0013084E-01; -8.8980164E+02;3;  8.2523537E+00;  0.0000000E+00; -3.6274201E-01;0;  7.6128714E-02;  3.9820566E+04;  0.0000000E+00;  4.9923155E-02;  4.0000000E+04;  0.0000000E+00;  3.9985168E+04;  1.1797123E-01;  0.0000000E+00; -4.1842513E-02;  1.6620448E+03;
  5.7061976E-01;  9.9999998E-03; -6.0025930E-02;5947; -7.3585813E-03;  0.0000000E+00;  2.5256635E-03;  9.9884930E+02;  1.0013077E-01; -9.5330603E+02;3;  8.5109959E+00;  0.0000000E+00; -3.1075865E-01;0;  8.2757652E-02;  3.9814430E+04;  0.0000000E+00;  3.5630602E-02;  4.0000000E+04;  0.0000000E+00;  3.9985051E+04;  1.2609348E-01;  0.0000000E+00; -4.3335821E-02;  1.6729479E+03;
  5.7061523E-01;  9.9999998E-03; -5.0022248E-02;5948; -7.2091636E-03;  0.0000000E+00;  2.1063571E-03;  9.9877850E+02;  1.0013092E-01; -1.0119710E+03;3;  8.7296820E+00;  0.0000000E+00; -2.6701936E-01;0;  8.8542491E-02;  3.9809074E+04;  0.0000000E+00;  2.3584226E-02;  4.0000000E+04;  0.0000000E+00;  3.9984715E+04;  1.3318500E-01;  0.0000000E+00; -4.4642508E-02;  1.7054482E+03;
  5.7060975E-01;  9.9999998E-03; -4.0018693E-02;5949; -7.0834318E-03;  0.0000000E+00;  1.6870244E-03;  9.9871973E+02;  1.0013068E-01; -1.0606610E+03;3;  8.8870163E+00;  0.0000000E+00; -2.0637354E-01;0;  9.3388766E-02;  3.9804965E+04;  0.0000000E+00;  1.4214023E-02;  4.0000000E+04;  0.0000000E+00;  3.9984348E+04;  1.3913353E-01;  0.0000000E+00; -4.5744758E-02;  1.7551519E+03;
  5.7060415E-01;  9.9999998E-03; -3.0015094E-02;5950; -6.9859074E-03;  0.0000000E+00;  1.2664826E-03;  9.9867078E+02;  1.0013074E-01; -1.1012524E+03;3;  9.0175343E+00;  0.0000000E+00; -1.6135451E-01;0;  9.7224981E-02;  3.9801398E+04;  0.0000000E+00;  7.5043514E-03;  4.0000000E+04;  0.0000000E+00;  3.9983855E+04;  1.4384966E-01;  0.0000000E+00; -4.6624672E-02;  1.8127223E+03;
  5.7059902E-01;  9.9999998E-03; -2.0011224E-02;5951; -6.9150892E-03;  0.0000000E+00;  8.4450125E-04;  9.9863428E+02;  1.0013067E-01; -1.1314738E+03;3;  9.0969191E+00;  0.0000000E+00; -1.0833072E-01;0;  9.9997915E-02;  3.9799082E+04;  0.0000000E+00;  3.1516303E-03;  4.0000000E+04;  0.0000000E+00;  3.9983344E+04;  1.4726387E-01;  0.0000000E+00; -4.7265954E-02;  1.8663096E+03;
  5.7059479E-01;  9.9999998E-03; -1.0006526E-02;5952; -6.8723792E-03;  0.0000000E+00;  4.2284327E-04;  9.9861438E+02;  1.0013087E-01; -1.1479670E+03;3;  9.1439486E+00;  0.0000000E+00; -5.1761527E-02;0;  1.0167168E-01;  3.9797570E+04;  0.0000000E+00;  7.5751217E-04;  4.0000000E+04;  0.0000000E+00;  3.9983086E+04;  1.4932761E-01;  0.0000000E+00; -4.7655929E-02;  1.9043701E+03;
  5.7059294E-01;  9.9999998E-03;  2.5913197E-10;5953; -6.8574902E-03;  0.0000000E+00;  5.0979874E-09;  9.9860608E+02;  1.0013071E-01; -1.1548311E+03;3;  9.1619043E+00;  0.0000000E+00;  1.5044035E-05;0;  1.0223036E-01;  3.9797164E+04;  0.0000000E+00;  1.8832917E-12;  4.0000000E+04;  0.0000000E+00;  3.9982934E+04;  1.5001707E-01;  0.0000000E+00; -4.7786716E-02;  1.9181450E+03;
  5.7059479E-01;  9.9999998E-03;  1.0006526E-02;5954; -6.8723802E-03;  0.0000000E+00; -4.2283305E-04;  9.9861426E+02;  1.0013088E-01; -1.1480659E+03;3;  9.1439476E+00;  0.0000000E+00;  5.1791944E-02;0;  1.0167167E-01;  3.9797570E+04;  0.0000000E+00;  7.5697724E-04;  4.0000000E+04;  0.0000000E+00;  3.9983086E+04;  1.4932756E-01;  0.0000000E+00; -4.7655895E-02;  1.9043728E+03;
  5.7059902E-01;  9.9999998E-03;  2.0011224E-02;5955; -6.9150911E-03;  0.0000000E+00; -8.4449101E-04;  9.9863428E+02;  1.0013067E-01; -1.1314738E+03;3;  9.0969248E+00;  0.0000000E+00;  1.0836370E-01;0;  9.9997938E-02;  3.9799082E+04;  0.0000000E+00;  3.1507558E-03;  4.0000000E+04;  0.0000000E+00;  3.9983344E+04;  1.4726387E-01;  0.0000000E+00; -4.7265936E-02;  1.8663047E+03;
  5.7060415E-01;  9.9999998E-03;  3.0015094E-02;5956; -6.9859088E-03;  0.0000000E+00; -1.2664727E-03;  9.9867078E+02;  1.0013074E-01; -1.1012524E+03;3;  9.0175266E+00;  0.0000000E+00;  1.6138585E-01;0;  9.7225197E-02;  3.9801387E+04;  0.0000000E+00;  7.5029349E-03;  4.0000000E+04;  0.0000000E+00;  3.9983855E+04;  1.4384982E-01;  0.0000000E+00; -4.6624623E-02;  1.8127159E+03;
  5.7060975E-01;  9.9999998E-03;  4.0018693E-02;5957; -7.0834323E-03;  0.0000000E+00; -1.6870153E-03;  9.9871967E+02;  1.0013068E-01; -1.0607103E+03;3;  8.8869734E+00;  0.0000000E+00;  2.0639715E-01;0;  9.3388841E-02;  3.9804969E+04;  0.0000000E+00;  1.4211837E-02;  4.0000000E+04;  0.0000000E+00;  3.9984348E+04;  1.3913363E-01;  0.0000000E+00; -4.5744792E-02;  1.7551573E+03;
  5.7061529E-01;  9.9999998E-03;  5.0022248E-02;5958; -7.2091622E-03;  0.0000000E+00; -2.1063488E-03;  9.9877844E+02;  1.0013079E-01; -1.0120204E+03;3;  8.7296381E+00;  0.0000000E+00;  2.6703528E-01;0;  8.8542864E-02;  3.9809078E+04;  0.0000000E+00;  2.3580581E-02;  4.0000000E+04;  0.0000000E+00;  3.9984715E+04;  1.3318536E-01;  0.0000000E+00; -4.4642497E-02;  1.7054486E+03;
  5.7061976E-01;  9.9999998E-03;  6.0025934E-02;5959; -7.3585799E-03;  0.0000000E+00; -2.5256556E-03;  9.9884924E+02;  1.0013077E-01; -9.5335541E+02;3;  8.5109606E+00;  0.0000000E+00;  3.1077161E-01;0;  8.2757786E-02;  3.9814434E+04;  0.0000000E+00;  3.5626449E-02;  4.0000000E+04;  0.0000000E+00;  3.9985047E+04;  1.2609357E-01;  0.0000000E+00; -4.3335784E-02;  1.6729485E+03;
  5.8074522E-01;  9.9999998E-03; -1.0003348E-01;6004; -8.2384301E-03;  0.0000000E+00;  4.3127416E-03;  9.9911957E+02;  1.0021400E-01; -7.2941119E+02;3;  7.3695436E+00;  0.0000000E+00; -7.0571530E-01;0;  7.9095908E-02;  3.9772504E+04;  0.0000000E+00;  1.5647855E-01;  4.0000000E+04;  0.0000000E+00;  3.9983352E+04;  1.1779568E-01;  0.0000000E+00; -3.8699768E-02;  1.8534175E+03;
  5.8076197E-01;  9.9999998E-03; -9.0028688E-02;6005; -8.0019943E-03;  0.0000000E+00;  3.8736525E-03;  9.9906012E+02;  1.0021414E-01; -7.7869373E+02;3;  7.6653714E+00;  0.0000000E+00; -6.4093250E-01;0;  8.9461848E-02;  3.9767457E+04;  0.0000000E+00;  1.4255174E-01;  4.0000000E+04;  0.0000000E+00;  3.9983699E+04;  1.3047443E-01;  0.0000000E+00; -4.1012585E-02;  1.8065095E+03;
  5.8077663E-01;  9.9999998E-03; -8.0024369E-02;6006; -7.7834483E-03;  0.0000000E+00;  3.4365484E-03;  9.9900208E+02;  1.0021397E-01; -8.2674176E+02;3;  7.9683294E+00;  0.0000000E+00; -5.8870590E-01;0;  9.9230833E-02;  3.9762535E+04;  0.0000000E+00;  1.2307985E-01;  4.0000000E+04;  0.0000000E+00;  3.9983996E+04;  1.4240156E-01;  0.0000000E+00; -4.3170728E-02;  1.7618551E+03;
  5.8078742E-01;  9.9999998E-03; -7.0020765E-02;6007; -7.5841621E-03;  0.0000000E+00;  3.0020408E-03;  9.9895056E+02;  1.0021388E-01; -8.6945654E+02;3;  8.2176151E+00;  0.0000000E+00; -5.1361495E-01;0;  1.0822501E-01;  3.9758367E+04;  0.0000000E+00;  1.0042091E-01;  4.0000000E+04;  0.0000000E+00;  3.9984023E+04;  1.5338317E-01;  0.0000000E+00; -4.5158155E-02;  1.7359915E+03;
  5.8079398E-01;  9.9999998E-03; -6.0017806E-02;6008; -7.4076052E-03;  0.0000000E+00;  2.5706438E-03;  9.9889911E+02;  1.0021403E-01; -9.1207263E+02;3;  8.4946260E+00;  0.0000000E+00; -4.5811531E-01;0;  1.1629182E-01;  3.9754410E+04;  0.0000000E+00;  7.6970331E-02;  4.0000000E+04;  0.0000000E+00;  3.9984105E+04;  1.6324496E-01;  0.0000000E+00; -4.6953145E-02;  1.7390597E+03;
  5.8079666E-01;  9.9999998E-03; -5.0015341E-02;6009; -7.2536776E-03;  0.0000000E+00;  2.1400615E-03;  9.9885425E+02;  1.0021371E-01; -9.4925677E+02;3;  8.6947832E+00;  0.0000000E+00; -3.7755093E-01;0;  1.2330247E-01;  3.9751207E+04;  0.0000000E+00;  5.4820545E-02;  4.0000000E+04;  0.0000000E+00;  3.9983691E+04;  1.7183334E-01;  0.0000000E+00; -4.8530858E-02;  1.7727329E+03;
  5.8079571E-01;  9.9999998E-03; -4.0013146E-02;6010; -7.1279244E-03;  0.0000000E+00;  1.7121587E-03;  9.9881616E+02;  1.0021380E-01; -9.8081140E+02;3;  8.8711061E+00;  0.0000000E+00; -3.0869031E-01;0;  1.2915455E-01;  3.9748645E+04;  0.0000000E+00;  3.5526343E-02;  4.0000000E+04;  0.0000000E+00;  3.9983215E+04;  1.7901978E-01;  0.0000000E+00; -4.9865235E-02;  1.8302924E+03;
  5.8079261E-01;  9.9999998E-03; -3.0010924E-02;6011; -7.0265317E-03;  0.0000000E+00;  1.2833900E-03;  9.9878424E+02;  1.0021389E-01; -1.0072304E+03;3;  8.9965134E+00;  0.0000000E+00; -2.3057145E-01;0;  1.3377135E-01;  3.9746730E+04;  0.0000000E+00;  2.0064410E-02;  4.0000000E+04;  0.0000000E+00;  3.9982621E+04;  1.8470313E-01;  0.0000000E+00; -5.0931782E-02;  1.8991465E+03;
  5.8078933E-01;  9.9999998E-03; -2.0008471E-02;6012; -6.9566150E-03;  0.0000000E+00;  8.5631845E-04;  9.9876160E+02;  1.0021383E-01; -1.0259952E+03;3;  9.0856113E+00;  0.0000000E+00; -1.5594134E-01;0;  1.3710375E-01;  3.9745383E+04;  0.0000000E+00;  8.9141615E-03;  4.0000000E+04;  0.0000000E+00;  3.9982172E+04;  1.8881358E-01;  0.0000000E+00; -5.1709834E-02;  1.9640316E+03;
  5.8078635E-01;  9.9999998E-03; -1.0005200E-02;6013; -6.9150501E-03;  0.0000000E+00;  4.2861426E-04;  9.9874487E+02;  1.0021370E-01; -1.0398715E+03;3;  9.1320200E+00;  0.0000000E+00; -7.9875804E-02;0;  1.3911486E-01;  3.9744547E+04;  0.0000000E+00;  2.2252665E-03;  4.0000000E+04;  0.0000000E+00;  3.9981730E+04;  1.9129784E-01;  0.0000000E+00; -5.2182995E-02;  2.0101838E+03;
  5.8078498E-01;  9.9999998E-03;  1.0954222E-10;6014; -6.9008698E-03;  0.0000000E+00;  4.6462176E-09;  9.9874017E+02;  1.0021380E-01; -1.0437231E+03;3;  9.1504507E+00;  0.0000000E+00;  9.4098705E-06;0;  1.3978592E-01;  3.9744273E+04;  0.0000000E+00;  1.2901173E-12;  4.0000000E+04;  0.0000000E+00;  3.9981762E+04;  1.9212770E-01;  0.0000000E+00; -5.2341782E-02;  2.0269121E+03;
  5.8078635E-01;  9.9999998E-03;  1.0005200E-02;6015; -6.9150529E-03;  0.0000000E+00; -4.2860486E-04;  9.9874487E+02;  1.0021370E-01; -1.0398715E+03;3;  9.1320229E+00;  0.0000000E+00;  7.9896465E-02;0;  1.3911463E-01;  3.9744543E+04;  0.0000000E+00;  2.2246465E-03;  4.0000000E+04;  0.0000000E+00;  3.9981734E+04;  1.9129764E-01;  0.0000000E+00; -5.2183006E-02;  2.0101802E+03;
  5.8078933E-01;  9.9999998E-03;  2.0008471E-02;6016; -6.9566141E-03;  0.0000000E+00; -8.5630897E-04;  9.9876154E+02;  1.0021383E-01; -1.0260447E+03;3;  9.0856228E+00;  0.0000000E+00;  1.5595937E-01;0;  1.3710400E-01;  3.9745383E+04;  0.0000000E+00;  8.9133820E-03;  4.0000000E+04;  0.0000000E+00;  3.9982172E+04;  1.8881381E-01;  0.0000000E+00; -5.1709801E-02;  1.9640214E+03;
  5.8079261E-01;  9.9999998E-03;  3.0010924E-02;6017; -7.0265341E-03;  0.0000000E+00; -1.2833808E-03;  9.9878424E+02;  1.0021389E-01; -1.0072304E+03;3;  8.9965086E+00;  0.0000000E+00;  2.3058900E-01;0;  1.3377129E-01;  3.9746730E+04;  0.0000000E+00;  2.0062640E-02;  4.0000000E+04;  0.0000000E+00;  3.9982621E+04;  1.8470313E-01;  0.0000000E+00; -5.0931841E-02;  1.8991501E+03;
  5.8079571E-01;  9.9999998E-03;  4.0013149E-02;6018; -7.1279272E-03;  0.0000000E+00; -1.7121499E-03;  9.9881616E+02;  1.0021380E-01; -9.8081140E+02;3;  8.8710728E+00;  0.0000000E+00;  3.0870986E-01;0;  1.2915476E-01;  3.9748645E+04;  0.0000000E+00;  3.5523687E-02;  4.0000000E+04;  0.0000000E+00;  3.9983215E+04;  1.7902003E-01;  0.0000000E+00; -4.9865272E-02;  1.8302932E+03;
  5.8079666E-01;  9.9999998E-03;  5.0015345E-02;6019; -7.2536767E-03;  0.0000000E+00; -2.1400533E-03;  9.9885425E+02;  1.0021371E-01; -9.4925677E+02;3;  8.6947670E+00;  0.0000000E+00;  3.7756962E-01;0;  1.2330252E-01;  3.9751207E+04;  0.0000000E+00;  5.4816730E-02;  4.0000000E+04;  0.0000000E+00;  3.9983691E+04;  1.7183343E-01;  0.0000000E+00; -4.8530906E-02;  1.7727250E+03;
  5.8079398E-01;  9.9999998E-03;  6.0017806E-02;6020; -7.4076056E-03;  0.0000000E+00; -2.5706361E-03;  9.9889911E+02;  1.0021403E-01; -9.1207263E+02;3;  8.4946232E+00;  0.0000000E+00;  4.5812392E-01;0;  1.1629215E-01;  3.9754414E+04;  0.0000000E+00;  7.6966964E-02;  4.0000000E+04;  0.0000000E+00;  3.9984105E+04;  1.6324528E-01;  0.0000000E+00; -4.6953131E-02;  1.7390690E+03;
  5.9085113E-01;  9.9999998E-03; -1.0002349E-01;6065; -8.2950834E-03;  0.0000000E+00;  4.4118557E-03;  9.9914954E+02;  1.0034835E-01; -7.0457233E+02;3;  7.2999530E+00;  0.0000000E+00; -9.0731043E-01;0;  1.0753392E-01;  3.9671816E+04;  0.0000000E+00;  1.9380447E-01;  4.0000000E+04;  0.0000000E+00;  3.9981625E+04;  1.4829831E-01;  0.0000000E+00; -4.0764384E-02;  1.9613969E+03;
  5.9087956E-01;  9.9999998E-03; -9.0019219E-02;6066; -8.0412552E-03;  0.0000000E+00;  3.9529088E-03;  9.9913501E+02;  1.0034798E-01; -7.1662140E+02;3;  7.6242499E+00;  0.0000000E+00; -8.4524566E-01;0;  1.1975965E-01;  3.9669965E+04;  0.0000000E+00;  1.8268786E-01;  4.0000000E+04;  0.0000000E+00;  3.9982266E+04;  1.6327222E-01;  0.0000000E+00; -4.3512564E-02;  1.8718674E+03;
  5.9090668E-01;  9.9999998E-03; -8.0016144E-02;6067; -7.8033414E-03;  0.0000000E+00;  3.4972075E-03;  9.9912305E+02;  1.0034810E-01; -7.2654700E+02;3;  7.9146199E+00;  0.0000000E+00; -7.5855869E-01;0;  1.3122514E-01;  3.9668625E+04;  0.0000000E+00;  1.6284379E-01;  4.0000000E+04;  0.0000000E+00;  3.9982988E+04;  1.7732920E-01;  0.0000000E+00; -4.6104066E-02;  1.7949541E+03;
  5.9093040E-01;  9.9999998E-03; -7.0013851E-02;6068; -7.5941491E-03;  0.0000000E+00;  3.0504006E-03;  9.9911371E+02;  1.0034806E-01; -7.3429987E+02;3;  8.1870766E+00;  0.0000000E+00; -6.8518698E-01;0;  1.4174339E-01;  3.9667727E+04;  0.0000000E+00;  1.3691880E-01;  4.0000000E+04;  0.0000000E+00;  3.9983234E+04;  1.9025247E-01;  0.0000000E+00; -4.8509080E-02;  1.7482396E+03;
  5.9094733E-01;  9.9999998E-03; -6.0012188E-02;6069; -7.4032391E-03;  0.0000000E+00;  2.6055144E-03;  9.9910626E+02;  1.0034783E-01; -7.4042316E+02;3;  8.4301004E+00;  0.0000000E+00; -5.8947504E-01;0;  1.5113716E-01;  3.9667191E+04;  0.0000000E+00;  1.0794644E-01;  4.0000000E+04;  0.0000000E+00;  3.9983320E+04;  2.0182928E-01;  0.0000000E+00; -5.0692130E-02;  1.7414738E+03;
  5.9095699E-01;  9.9999998E-03; -5.0010983E-02;6070; -7.2453576E-03;  0.0000000E+00;  2.1677592E-03;  9.9909558E+02;  1.0034808E-01; -7.4931183E+02;3;  8.6562824E+00;  0.0000000E+00; -5.0642717E-01;0;  1.5927315E-01;  3.9666797E+04;  0.0000000E+00;  7.8905046E-02;  4.0000000E+04;  0.0000000E+00;  3.9982992E+04;  2.1188949E-01;  0.0000000E+00; -5.2616343E-02;  1.7748610E+03;
  5.9096110E-01;  9.9999998E-03; -4.0009897E-02;6071; -7.1150851E-03;  0.0000000E+00;  1.7316628E-03;  9.9908923E+02;  1.0034766E-01; -7.5454620E+02;3;  8.8233042E+00;  0.0000000E+00; -4.0401512E-01;0;  1.6604507E-01;  3.9666879E+04;  0.0000000E+00;  5.2330721E-02;  4.0000000E+04;  0.0000000E+00;  3.9982473E+04;  2.2029132E-01;  0.0000000E+00; -5.4246239E-02;  1.8392421E+03;
  5.9096134E-01;  9.9999998E-03; -3.0008489E-02;6072; -7.0156073E-03;  0.0000000E+00;  1.2972309E-03;  9.9908063E+02;  1.0034752E-01; -7.6170648E+02;3;  8.9500237E+00;  0.0000000E+00; -3.0635718E-01;0;  1.7137741E-01;  3.9666930E+04;  0.0000000E+00;  3.0136006E-02;  4.0000000E+04;  0.0000000E+00;  3.9981816E+04;  2.2692741E-01;  0.0000000E+00; -5.5550013E-02;  1.9184940E+03;
  5.9095961E-01;  9.9999998E-03; -2.0006618E-02;6073; -6.9449688E-03;  0.0000000E+00;  8.6379808E-04;  9.9907037E+02;  1.0034764E-01; -7.7020007E+02;3;  9.0384970E+00;  0.0000000E+00; -2.0250772E-01;0;  1.7521724E-01;  3.9667152E+04;  0.0000000E+00;  1.3588899E-02;  4.0000000E+04;  0.0000000E+00;  3.9981375E+04;  2.3171805E-01;  0.0000000E+00; -5.6500804E-02;  1.9938182E+03;
  5.9095764E-01;  9.9999998E-03; -1.0003982E-02;6074; -6.9021597E-03;  0.0000000E+00;  4.3096740E-04;  9.9906958E+02;  1.0034753E-01; -7.7084204E+02;3;  9.1026688E+00;  0.0000000E+00; -1.0390552E-01;0;  1.7753252E-01;  3.9667227E+04;  0.0000000E+00;  3.4239965E-03;  4.0000000E+04;  0.0000000E+00;  3.9980742E+04;  2.3461153E-01;  0.0000000E+00; -5.7079002E-02;  2.0474949E+03;
  5.9095663E-01;  9.9999998E-03;  5.9253130E-11;6075; -6.8895486E-03;  0.0000000E+00;  4.2723109E-09;  9.9906860E+02;  1.0034761E-01; -7.7163214E+02;3;  9.1148834E+00;  0.0000000E+00;  3.4872446E-06;0;  1.7830586E-01;  3.9667250E+04;  0.0000000E+00;  1.3473599E-12;  4.0000000E+04;  0.0000000E+00;  3.9980633E+04;  2.3557881E-01;  0.0000000E+00; -5.7272933E-02;  2.0669238E+03;
  5.9095764E-01;  9.9999998E-03;  1.0003982E-02;6076; -6.9021662E-03;  0.0000000E+00; -4.3095864E-04;  9.9906970E+02;  1.0034746E-01; -7.7074329E+02;3;  9.1026649E+00;  0.0000000E+00;  1.0391448E-01;0;  1.7753252E-01;  3.9667227E+04;  0.0000000E+00;  3.4236375E-03;  4.0000000E+04;  0.0000000E+00;  3.9980746E+04;  2.3461159E-01;  0.0000000E+00; -5.7079054E-02;  2.0475028E+03;
  5.9095961E-01;  9.9999998E-03;  2.0006618E-02;6077; -6.9449730E-03;  0.0000000E+00; -8.6378906E-04;  9.9907050E+02;  1.0034756E-01; -7.7005194E+02;3;  9.0384769E+00;  0.0000000E+00;  2.0251845E-01;0;  1.7521724E-01;  3.9667152E+04;  0.0000000E+00;  1.3588143E-02;  4.0000000E+04;  0.0000000E+00;  3.9981375E+04;  2.3171811E-01;  0.0000000E+00; -5.6500860E-02;  1.9938174E+03;
  5.9096134E-01;  9.9999998E-03;  3.0008491E-02;6078; -7.0156101E-03;  0.0000000E+00; -1.2972223E-03;  9.9908069E+02;  1.0034752E-01; -7.6160773E+02;3;  8.9500074E+00;  0.0000000E+00;  3.0636954E-01;0;  1.7137754E-01;  3.9666934E+04;  0.0000000E+00;  3.0134633E-02;  4.0000000E+04;  0.0000000E+00;  3.9981816E+04;  2.2692759E-01;  0.0000000E+00; -5.5550046E-02;  1.9185090E+03;
  5.9096110E-01;  9.9999998E-03;  4.0009897E-02;6079; -7.1150861E-03;  0.0000000E+00; -1.7316545E-03;  9.9908923E+02;  1.0034766E-01; -7.5454620E+02;3;  8.8232832E+00;  0.0000000E+00;  4.0402433E-01;0;  1.6604522E-01;  3.9666875E+04;  0.0000000E+00;  5.2328501E-02;  4.0000000E+04;  0.0000000E+00;  3.9982473E+04;  2.2029153E-01;  0.0000000E+00; -5.4246306E-02;  1.8392471E+03;
  5.9095699E-01;  9.9999998E-03;  5.0010983E-02;6080; -7.2453576E-03;  0.0000000E+00; -2.1677515E-03;  9.9909558E+02;  1.0034808E-01; -7.4931183E+02;3;  8.6562548E+00;  0.0000000E+00;  5.0643599E-01;0;  1.5927330E-01;  3.9666793E+04;  0.0000000E+00;  7.8901835E-02;  4.0000000E+04;  0.0000000E+00;  3.9982988E+04;  2.1188965E-01;  0.0000000E+00; -5.2616354E-02;  1.7748680E+03;
  5.9094733E-01;  9.9999998E-03;  6.0012188E-02;6081; -7.4032359E-03;  0.0000000E+00; -2.6055067E-03;  9.9910620E+02;  1.0034789E-01; -7.4047253E+02;3;  8.4301090E+00;  0.0000000E+00;  5.8948565E-01;0;  1.5113747E-01;  3.9667188E+04;  0.0000000E+00;  1.0794510E-01;  4.0000000E+04;  0.0000000E+00;  3.9983316E+04;  2.0182958E-01;  0.0000000E+00; -5.0692108E-02;  1.7414811E+03;
  6.0091269E-01;  9.9999998E-03; -1.0001637E-01;6126; -8.2746735E-03;  0.0000000E+00;  4.5051831E-03;  9.9921289E+02;  1.0056186E-01; -6.5212933E+02;3;  7.2217026E+00;  0.0000000E+00; -1.1376792E+00;0;  1.3534592E-01;  3.9512195E+04;  0.0000000E+00;  1.9145255E-01;  4.0000000E+04;  0.0000000E+00;  3.9979812E+04;  1.7784843E-01;  0.0000000E+00; -4.2502511E-02;  2.0144197E+03;
  6.0093993E-01;  9.9999998E-03; -9.0015225E-02;6127; -7.9940297E-03;  0.0000000E+00;  4.0281094E-03;  9.9924310E+02;  1.0056183E-01; -6.2709302E+02;3;  7.5560732E+00;  0.0000000E+00; -1.0462663E+00;0;  1.4907420E-01;  3.9513746E+04;  0.0000000E+00;  1.8651859E-01;  4.0000000E+04;  0.0000000E+00;  3.9981047E+04;  1.9484843E-01;  0.0000000E+00; -4.5774240E-02;  1.8752747E+03;
  6.0096604E-01;  9.9999998E-03; -8.0015399E-02;6128; -7.7409144E-03;  0.0000000E+00;  3.5627014E-03;  9.9927924E+02;  1.0056185E-01; -5.9711859E+02;3;  7.8379560E+00;  0.0000000E+00; -9.4484627E-01;0;  1.6188252E-01;  3.9516086E+04;  0.0000000E+00;  1.7106482E-01;  4.0000000E+04;  0.0000000E+00;  3.9981953E+04;  2.1076563E-01;  0.0000000E+00; -4.8883103E-02;  1.7618164E+03;
  6.0098982E-01;  9.9999998E-03; -7.0015945E-02;6129; -7.5101140E-03;  0.0000000E+00;  3.1025109E-03;  9.9931720E+02;  1.0056146E-01; -5.6566272E+02;3;  8.1076765E+00;  0.0000000E+00; -8.2801509E-01;0;  1.7358008E-01;  3.9518758E+04;  0.0000000E+00;  1.4746395E-01;  4.0000000E+04;  0.0000000E+00;  3.9982594E+04;  2.2536263E-01;  0.0000000E+00; -5.1782556E-02;  1.6916418E+03;
  6.0101044E-01;  9.9999998E-03; -6.0016014E-02;6130; -7.3094238E-03;  0.0000000E+00;  2.6497992E-03;  9.9935321E+02;  1.0056137E-01; -5.3583643E+02;3;  8.3559494E+00;  0.0000000E+00; -7.3637742E-01;0;  1.8400478E-01;  3.9521742E+04;  0.0000000E+00;  1.1883904E-01;  4.0000000E+04;  0.0000000E+00;  3.9982719E+04;  2.3842792E-01;  0.0000000E+00; -5.4423142E-02;  1.6734968E+03;
  6.0102689E-01;  9.9999998E-03; -5.0015006E-02;6131; -7.1387170E-03;  0.0000000E+00;  2.2016910E-03;  9.9939001E+02;  1.0056134E-01; -5.0536816E+02;3;  8.5495806E+00;  0.0000000E+00; -6.1065084E-01;0;  1.9301833E-01;  3.9524988E+04;  0.0000000E+00;  8.8535346E-02;  4.0000000E+04;  0.0000000E+00;  3.9982402E+04;  2.4977387E-01;  0.0000000E+00; -5.6755543E-02;  1.7055300E+03;
  6.0103768E-01;  9.9999998E-03; -4.0012848E-02;6132; -7.0009134E-03;  0.0000000E+00;  1.7562660E-03;  9.9941492E+02;  1.0056116E-01; -4.8472678E+02;3;  8.7221184E+00;  0.0000000E+00; -5.0526518E-01;0;  2.0051071E-01;  3.9528047E+04;  0.0000000E+00;  5.9666850E-02;  4.0000000E+04;  0.0000000E+00;  3.9981828E+04;  2.5924331E-01;  0.0000000E+00; -5.8732606E-02;  1.7753972E+03;
  6.0104251E-01;  9.9999998E-03; -3.0010065E-02;6133; -6.9003641E-03;  0.0000000E+00;  1.3167204E-03;  9.9943738E+02;  1.0056099E-01; -4.6611002E+02;3;  8.8548832E+00;  0.0000000E+00; -3.7690940E-01;0;  2.0639995E-01;  3.9530441E+04;  0.0000000E+00;  3.4804035E-02;  4.0000000E+04;  0.0000000E+00;  3.9981086E+04;  2.6671341E-01;  0.0000000E+00; -6.0313471E-02;  1.8635626E+03;
  6.0104412E-01;  9.9999998E-03; -2.0006960E-02;6134; -6.8285833E-03;  0.0000000E+00;  8.7667274E-04;  9.9945184E+02;  1.0056104E-01; -4.5415976E+02;3;  8.9462671E+00;  0.0000000E+00; -2.6275730E-01;0;  2.1063662E-01;  3.9532258E+04;  0.0000000E+00;  1.5840970E-02;  4.0000000E+04;  0.0000000E+00;  3.9980504E+04;  2.7210245E-01;  0.0000000E+00; -6.1465837E-02;  1.9479208E+03;
  6.0104442E-01;  9.9999998E-03; -1.0003582E-02;6135; -6.7892419E-03;  0.0000000E+00;  4.3850430E-04;  9.9945929E+02;  1.0056102E-01; -4.4798709E+02;3;  9.0010748E+00;  0.0000000E+00; -1.2755305E-01;0;  2.1319108E-01;  3.9533742E+04;  0.0000000E+00;  4.0137027E-03;  4.0000000E+04;  0.0000000E+00;  3.9979945E+04;  2.7535754E-01;  0.0000000E+00; -6.2166464E-02;  2.0081805E+03;
  6.0104448E-01;  9.9999998E-03;  7.4173223E-11;6136; -6.7741661E-03;  0.0000000E+00;  4.2933594E-09;  9.9946356E+02;  1.0056108E-01; -4.4443164E+02;3;  9.0192432E+00;  0.0000000E+00;  1.7751935E-06;0;  2.1404368E-01;  3.9534012E+04;  0.0000000E+00;  9.4165496E-13;  4.0000000E+04;  0.0000000E+00;  3.9979738E+04;  2.7644521E-01;  0.0000000E+00; -6.2401537E-02;  2.0299669E+03;
  6.0104442E-01;  9.9999998E-03;  1.0003583E-02;6137; -6.7892461E-03;  0.0000000E+00; -4.3849609E-04;  9.9945935E+02;  1.0056102E-01; -4.4793771E+02;3;  9.0010614E+00;  0.0000000E+00;  1.2755491E-01;0;  2.1319120E-01;  3.9533742E+04;  0.0000000E+00;  4.0135882E-03;  4.0000000E+04;  0.0000000E+00;  3.9979941E+04;  2.7535763E-01;  0.0000000E+00; -6.2166438E-02;  2.0081786E+03;
  6.0104412E-01;  9.9999998E-03;  2.0006960E-02;6138; -6.8285856E-03;  0.0000000E+00; -8.7666453E-04;  9.9945190E+02;  1.0056099E-01; -4.5411038E+02;3;  8.9462614E+00;  0.0000000E+00;  2.6275504E-01;0;  2.1063656E-01;  3.9532258E+04;  0.0000000E+00;  1.5840463E-02;  4.0000000E+04;  0.0000000E+00;  3.9980500E+04;  2.7210242E-01;  0.0000000E+00; -6.1465859E-02;  1.9479230E+03;
  6.0104251E-01;  9.9999998E-03;  3.0010065E-02;6139; -6.9003645E-03;  0.0000000E+00; -1.3167126E-03;  9.9943732E+02;  1.0056105E-01; -4.6615942E+02;3;  8.8548784E+00;  0.0000000E+00;  3.7691137E-01;0;  2.0639993E-01;  3.9530441E+04;  0.0000000E+00;  3.4802519E-02;  4.0000000E+04;  0.0000000E+00;  3.9981086E+04;  2.6671338E-01;  0.0000000E+00; -6.0313452E-02;  1.8635742E+03;
  6.0103768E-01;  9.9999998E-03;  4.0012851E-02;6140; -7.0009171E-03;  0.0000000E+00; -1.7562585E-03;  9.9941498E+02;  1.0056146E-01; -4.8467740E+02;3;  8.7221098E+00;  0.0000000E+00;  5.0526905E-01;0;  2.0051068E-01;  3.9528047E+04;  0.0000000E+00;  5.9664365E-02;  4.0000000E+04;  0.0000000E+00;  3.9981828E+04;  2.5924331E-01;  0.0000000E+00; -5.8732625E-02;  1.7754122E+03;
  6.0102689E-01;  9.9999998E-03;  5.0015006E-02;6141; -7.1387151E-03;  0.0000000E+00; -2.2016841E-03;  9.9938995E+02;  1.0056129E-01; -5.0541754E+02;3;  8.5495768E+00;  0.0000000E+00;  6.1064750E-01;0;  1.9301885E-01;  3.9525004E+04;  0.0000000E+00;  8.8533156E-02;  4.0000000E+04;  0.0000000E+00;  3.9982406E+04;  2.4977440E-01;  0.0000000E+00; -5.6755535E-02;  1.7055277E+03;
  6.0101044E-01;  9.9999998E-03;  6.0016014E-02;6142; -7.3094266E-03;  0.0000000E+00; -2.6497925E-03;  9.9935327E+02;  1.0056137E-01; -5.3578705E+02;3;  8.3559246E+00;  0.0000000E+00;  7.3637521E-01;0;  1.8400523E-01;  3.9521738E+04;  0.0000000E+00;  1.1883380E-01;  4.0000000E+04;  0.0000000E+00;  3.9982719E+04;  2.3842838E-01;  0.0000000E+00; -5.4423146E-02;  1.6734962E+03;
  6.1090714E-01;  9.9999998E-03; -1.0001927E-01;6187; -8.0857240E-03;  0.0000000E+00;  4.6368302E-03;  9.9926941E+02;  1.0089583E-01; -6.0526648E+02;3;  7.0982928E+00;  0.0000000E+00; -1.3602971E+00;0;  1.5952270E-01;  3.9260422E+04;  0.0000000E+00;  1.4090309E-01;  4.0000000E+04;  0.0000000E+00;  3.9977629E+04;  2.0337227E-01;  0.0000000E+00; -4.3849573E-02;  2.0094487E+03;
  6.1092734E-01;  9.9999998E-03; -9.0020582E-02;6188; -7.7643739E-03;  0.0000000E+00;  4.1557783E-03;  9.9934180E+02;  1.0089567E-01; -5.4531757E+02;3;  7.4081054E+00;  0.0000000E+00; -1.2468241E+00;0;  1.7420092E-01;  3.9265082E+04;  0.0000000E+00;  1.4560184E-01;  4.0000000E+04;  0.0000000E+00;  3.9979180E+04;  2.2191429E-01;  0.0000000E+00; -4.7713377E-02;  1.8172487E+03;
  6.1094570E-01;  9.9999998E-03; -8.0022492E-02;6189; -7.4687223E-03;  0.0000000E+00;  3.6815770E-03;  9.9942181E+02;  1.0089529E-01; -4.7899850E+02;3;  7.6699996E+00;  0.0000000E+00; -1.0964284E+00;0;  1.8781123E-01;  3.9270531E+04;  0.0000000E+00;  1.3986515E-01;  4.0000000E+04;  0.0000000E+00;  3.9980637E+04;  2.3921372E-01;  0.0000000E+00; -5.1402498E-02;  1.6651179E+03;
  6.1096185E-01;  9.9999998E-03; -7.0024215E-02;6190; -7.1972804E-03;  0.0000000E+00;  3.2118240E-03;  9.9950226E+02;  1.0089497E-01; -4.1238315E+02;3;  7.9378791E+00;  0.0000000E+00; -1.0049889E+00;0;  2.0017657E-01;  3.9276621E+04;  0.0000000E+00;  1.2515303E-01;  4.0000000E+04;  0.0000000E+00;  3.9981367E+04;  2.5502756E-01;  0.0000000E+00; -5.4850996E-02;  1.5700328E+03;
  6.1097586E-01;  9.9999998E-03; -6.0024939E-02;6191; -6.9630095E-03;  0.0000000E+00;  2.7498347E-03;  9.9958099E+02;  1.0089485E-01; -3.4715045E+02;3;  8.1433468E+00;  0.0000000E+00; -8.5736799E-01;0;  2.1115094E-01;  3.9282934E+04;  0.0000000E+00;  1.0396908E-01;  4.0000000E+04;  0.0000000E+00;  3.9981504E+04;  2.6914403E-01;  0.0000000E+00; -5.7993088E-02;  1.5386219E+03;
  6.1098790E-01;  9.9999998E-03; -5.0024234E-02;6192; -6.7684301E-03;  0.0000000E+00;  2.2883422E-03;  9.9965338E+02;  1.0089473E-01; -2.8715219E+02;3;  8.3385181E+00;  0.0000000E+00; -7.3023516E-01;0;  2.2061336E-01;  3.9289043E+04;  0.0000000E+00;  7.9389326E-02;  4.0000000E+04;  0.0000000E+00;  3.9981324E+04;  2.8138012E-01;  0.0000000E+00; -6.0766749E-02;  1.5664500E+03;
  6.1099797E-01;  9.9999998E-03; -4.0021695E-02;6193; -6.6253264E-03;  0.0000000E+00;  1.8288865E-03;  9.9971497E+02;  1.0089454E-01; -2.3614133E+02;3;  8.4940653E+00;  0.0000000E+00; -6.0059804E-01;0;  2.2847232E-01;  3.9294727E+04;  0.0000000E+00;  5.4564964E-02;  4.0000000E+04;  0.0000000E+00;  3.9980840E+04;  2.9158893E-01;  0.0000000E+00; -6.3116610E-02;  1.6386543E+03;
  6.1100632E-01;  9.9999998E-03; -3.0017400E-02;6194; -6.5218122E-03;  0.0000000E+00;  1.3734078E-03;  9.9976495E+02;  1.0089444E-01; -1.9471042E+02;3;  8.6079159E+00;  0.0000000E+00; -4.5226160E-01;0;  2.3465204E-01;  3.9299602E+04;  0.0000000E+00;  3.2309942E-02;  4.0000000E+04;  0.0000000E+00;  3.9980020E+04;  2.9964709E-01;  0.0000000E+00; -6.4995043E-02;  1.7329097E+03;
  6.1101228E-01;  9.9999998E-03; -2.0011935E-02;6195; -6.4553539E-03;  0.0000000E+00;  9.1167702E-04;  9.9980170E+02;  1.0089423E-01; -1.6429155E+02;3;  8.6839380E+00;  0.0000000E+00; -3.1932122E-01;0;  2.3910141E-01;  3.9303461E+04;  0.0000000E+00;  1.4862746E-02;  4.0000000E+04;  0.0000000E+00;  3.9979496E+04;  3.0546522E-01;  0.0000000E+00; -6.6363819E-02;  1.8240776E+03;
  6.1101580E-01;  9.9999998E-03; -1.0006011E-02;6196; -6.4215316E-03;  0.0000000E+00;  4.5752682E-04;  9.9982593E+02;  1.0089421E-01; -1.4419336E+02;3;  8.7246990E+00;  0.0000000E+00; -1.5117954E-01;0;  2.4178424E-01;  3.9305852E+04;  0.0000000E+00;  3.7897089E-03;  4.0000000E+04;  0.0000000E+00;  3.9978809E+04;  3.0897987E-01;  0.0000000E+00; -6.7195632E-02;  1.8893616E+03;
  6.1101717E-01;  9.9999998E-03;  1.1379377E-10;6197; -6.4068539E-03;  0.0000000E+00;  4.0778199E-09;  9.9983160E+02;  1.0089427E-01; -1.3950214E+02;3;  8.7366962E+00;  0.0000000E+00; -2.2954957E-06;0;  2.4267992E-01;  3.9306605E+04;  0.0000000E+00; -4.9996496E-14;  4.0000000E+04;  0.0000000E+00;  3.9978762E+04;  3.1015471E-01;  0.0000000E+00; -6.7474790E-02;  1.9129730E+03;
  6.1101580E-01;  9.9999998E-03;  1.0006011E-02;6198; -6.4215269E-03;  0.0000000E+00; -4.5751897E-04;  9.9982593E+02;  1.0089421E-01; -1.4419336E+02;3;  8.7246981E+00;  0.0000000E+00;  1.5117553E-01;0;  2.4178408E-01;  3.9305855E+04;  0.0000000E+00;  3.7896272E-03;  4.0000000E+04;  0.0000000E+00;  3.9978812E+04;  3.0897972E-01;  0.0000000E+00; -6.7195639E-02;  1.8893563E+03;
  6.1101228E-01;  9.9999998E-03;  2.0011935E-02;6199; -6.4553539E-03;  0.0000000E+00; -9.1166934E-04;  9.9980170E+02;  1.0089423E-01; -1.6429155E+02;3;  8.6839285E+00;  0.0000000E+00;  3.1931725E-01;0;  2.3910117E-01;  3.9303465E+04;  0.0000000E+00;  1.4862197E-02;  4.0000000E+04;  0.0000000E+00;  3.9979496E+04;  3.0546504E-01;  0.0000000E+00; -6.6363871E-02;  1.8240886E+03;
  6.1100632E-01;  9.9999998E-03;  3.0017400E-02;6200; -6.5218131E-03;  0.0000000E+00; -1.3734001E-03;  9.9976495E+02;  1.0089444E-01; -1.9471042E+02;3;  8.6079435E+00;  0.0000000E+00;  4.5226237E-01;0;  2.3465255E-01;  3.9299605E+04;  0.0000000E+00;  3.2309573E-02;  4.0000000E+04;  0.0000000E+00;  3.9980020E+04;  2.9964766E-01;  0.0000000E+00; -6.4995117E-02;  1.7329233E+03;
  6.1099797E-01;  9.9999998E-03;  4.0021695E-02;6201; -6.6253310E-03;  0.0000000E+00; -1.8288795E-03;  9.9971497E+02;  1.0089454E-01; -2.3614133E+02;3;  8.4940395E+00;  0.0000000E+00;  6.0059619E-01;0;  2.2847252E-01;  3.9294723E+04;  0.0000000E+00;  5.4564070E-02;  4.0000000E+04;  0.0000000E+00;  3.9980840E+04;  2.9158914E-01;  0.0000000E+00; -6.3116625E-02;  1.6386643E+03;
  6.1098790E-01;  9.9999998E-03;  5.0024234E-02;6202; -6.7684334E-03;  0.0000000E+00; -2.2883350E-03;  9.9965338E+02;  1.0089470E-01; -2.8715219E+02;3;  8.3385324E+00;  0.0000000E+00;  7.3023653E-01;0;  2.2061403E-01;  3.9289043E+04;  0.0000000E+00;  7.9387307E-02;  4.0000000E+04;  0.0000000E+00;  3.9981324E+04;  2.8138086E-01;  0.0000000E+00; -6.0766827E-02;  1.5664639E+03;
  6.1097586E-01;  9.9999998E-03;  6.0024943E-02;6203; -6.9630137E-03;  0.0000000E+00; -2.7498275E-03;  9.9958105E+02;  1.0089481E-01; -3.4710107E+02;3;  8.1433601E+00;  0.0000000E+00;  8.5736990E-01;0;  2.1115087E-01;  3.9282934E+04;  0.0000000E+00;  1.0396492E-01;  4.0000000E+04;  0.0000000E+00;  3.9981500E+04;  2.6914403E-01;  0.0000000E+00; -5.7993159E-02;  1.5386294E+03;
  6.2084395E-01;  9.9999998E-03; -1.0002403E-01;6248; -7.4673044E-03;  0.0000000E+00;  4.9393140E-03;  9.9938086E+02;  1.0140263E-01; -5.1292340E+02;3;  6.7223082E+00;  0.0000000E+00; -1.5994307E+00;0;  1.7678362E-01;  3.8882648E+04;  0.0000000E+00;  4.3141924E-02;  4.0000000E+04;  0.0000000E+00;  3.9974680E+04;  2.2153877E-01;  0.0000000E+00; -4.4755153E-02;  1.9513816E+03;
  6.2085474E-01;  9.9999998E-03; -9.0026580E-02;6249; -7.0240251E-03;  0.0000000E+00;  4.4693346E-03;  9.9948578E+02;  1.0140219E-01; -4.2601233E+02;3;  6.9453998E+00;  0.0000000E+00; -1.4166610E+00;0;  1.9164088E-01;  3.8889551E+04;  0.0000000E+00;  6.0250506E-02;  4.0000000E+04;  0.0000000E+00;  3.9976742E+04;  2.4088730E-01;  0.0000000E+00; -4.9246408E-02;  1.7062006E+03;
  6.2086439E-01;  9.9999998E-03; -8.0029264E-02;6250; -6.5771025E-03;  0.0000000E+00;  4.0003485E-03;  9.9959821E+02;  1.0140149E-01; -3.3287921E+02;3;  7.1830182E+00;  0.0000000E+00; -1.3074267E+00;0;  2.0530967E-01;  3.8897352E+04;  0.0000000E+00;  6.8980470E-02;  4.0000000E+04;  0.0000000E+00;  3.9978352E+04;  2.5885373E-01;  0.0000000E+00; -5.3544059E-02;  1.5146831E+03;
  6.2087250E-01;  9.9999998E-03; -7.0031360E-02;6251; -6.1605843E-03;  0.0000000E+00;  3.5314807E-03;  9.9971191E+02;  1.0140128E-01; -2.3865974E+02;3;  7.3638134E+00;  0.0000000E+00; -1.1562434E+00;0;  2.1765113E-01;  3.8905902E+04;  0.0000000E+00;  6.9358073E-02;  4.0000000E+04;  0.0000000E+00;  3.9979473E+04;  2.7521315E-01;  0.0000000E+00; -5.7562020E-02;  1.3933325E+03;
  6.2087876E-01;  9.9999998E-03; -6.0032129E-02;6252; -5.7868091E-03;  0.0000000E+00;  3.0623318E-03;  9.9982538E+02;  1.0140084E-01; -1.4468716E+02;3;  7.5286932E+00;  0.0000000E+00; -1.0005016E+00;0;  2.2854826E-01;  3.8914766E+04;  0.0000000E+00;  6.2599920E-02;  4.0000000E+04;  0.0000000E+00;  3.9979875E+04;  2.8976634E-01;  0.0000000E+00; -6.1218083E-02;  1.3465571E+03;
  6.2088352E-01;  9.9999998E-03; -5.0030965E-02;6253; -5.4559717E-03;  0.0000000E+00;  2.5809954E-03;  9.9992737E+02;  1.0140058E-01; -6.0195782E+01;3;  7.6446962E+00;  0.0000000E+00; -8.1072295E-01;0;  2.3790419E-01;  3.8923348E+04;  0.0000000E+00;  5.0795276E-02;  4.0000000E+04;  0.0000000E+00;  3.9979844E+04;  3.0234239E-01;  0.0000000E+00; -6.4438201E-02;  1.3670061E+03;
  6.2088686E-01;  9.9999998E-03; -4.0027909E-02;6254; -5.1947800E-03;  0.0000000E+00;  2.0765944E-03;  1.0000164E+03;  1.0140052E-01;  1.3629234E+01;3;  7.7939024E+00;  0.0000000E+00; -6.5564048E-01;0;  2.4565099E-01;  3.8931191E+04;  0.0000000E+00;  3.6507837E-02;  4.0000000E+04;  0.0000000E+00;  3.9979359E+04;  3.1280982E-01;  0.0000000E+00; -6.7158833E-02;  1.4372091E+03;
  6.2088895E-01;  9.9999998E-03; -3.0023037E-02;6255; -5.0076572E-03;  0.0000000E+00;  1.5753376E-03;  1.0000883E+03;  1.0140011E-01;  7.3183060E+01;3;  7.8795753E+00;  0.0000000E+00; -4.9705499E-01;0;  2.5173277E-01;  3.8938051E+04;  0.0000000E+00;  2.2325587E-02;  4.0000000E+04;  0.0000000E+00;  3.9978715E+04;  3.2106099E-01;  0.0000000E+00; -6.9328204E-02;  1.5326654E+03;
  6.2089014E-01;  9.9999998E-03; -2.0016478E-02;6256; -4.8866193E-03;  0.0000000E+00;  1.0574801E-03;  1.0001405E+03;  1.0139981E-01;  1.1644106E+02;3;  7.9452934E+00;  0.0000000E+00; -3.1329086E-01;0;  2.5610757E-01;  3.8943062E+04;  0.0000000E+00;  1.0496208E-02;  4.0000000E+04;  0.0000000E+00;  3.9977848E+04;  3.2701308E-01;  0.0000000E+00; -7.0905522E-02;  1.6264688E+03;
  6.2089044E-01;  9.9999998E-03; -1.0008539E-02;6257; -4.8233741E-03;  0.0000000E+00;  5.2656193E-04;  1.0001735E+03;  1.0140011E-01;  1.4379829E+02;3;  7.9819336E+00;  0.0000000E+00; -1.7127475E-01;0;  2.5874537E-01;  3.8946180E+04;  0.0000000E+00;  2.7102283E-03;  4.0000000E+04;  0.0000000E+00;  3.9977426E+04;  3.3060795E-01;  0.0000000E+00; -7.1862563E-02;  1.6941552E+03;
  6.2089044E-01;  9.9999998E-03;  1.4848395E-10;6258; -4.8078746E-03;  0.0000000E+00;  3.5539052E-09;  1.0001862E+03;  1.0139997E-01;  1.5426712E+02;3;  7.9907928E+00;  0.0000000E+00;  2.9769510E-06;0;  2.5962692E-01;  3.8947359E+04;  0.0000000E+00; -3.1337283E-12;  4.0000000E+04;  0.0000000E+00;  3.9977266E+04;  3.3181027E-01;  0.0000000E+00; -7.2183333E-02;  1.7187921E+03;
  6.2089044E-01;  9.9999998E-03;  1.0008539E-02;6259; -4.8233727E-03;  0.0000000E+00; -5.2655442E-04;  1.0001735E+03;  1.0140011E-01;  1.4379829E+02;3;  7.9819427E+00;  0.0000000E+00;  1.7127196E-01;0;  2.5874546E-01;  3.8946168E+04;  0.0000000E+00;  2.7106665E-03;  4.0000000E+04;  0.0000000E+00;  3.9977426E+04;  3.3060810E-01;  0.0000000E+00; -7.1862631E-02;  1.6941650E+03;
  6.2089014E-01;  9.9999998E-03;  2.0016480E-02;6260; -4.8866179E-03;  0.0000000E+00; -1.0574735E-03;  1.0001405E+03;  1.0139981E-01;  1.1644106E+02;3;  7.9452920E+00;  0.0000000E+00;  3.1328568E-01;0;  2.5610721E-01;  3.8943066E+04;  0.0000000E+00;  1.0496831E-02;  4.0000000E+04;  0.0000000E+00;  3.9977848E+04;  3.2701275E-01;  0.0000000E+00; -7.0905544E-02;  1.6264752E+03;
  6.2088901E-01;  9.9999998E-03;  3.0023037E-02;6261; -5.0076311E-03;  0.0000000E+00; -1.5753333E-03;  1.0000882E+03;  1.0140017E-01;  7.3084297E+01;3;  7.8795762E+00;  0.0000000E+00;  4.9706239E-01;0;  2.5173292E-01;  3.8938047E+04;  0.0000000E+00;  2.2325674E-02;  4.0000000E+04;  0.0000000E+00;  3.9978715E+04;  3.2106110E-01;  0.0000000E+00; -6.9328196E-02;  1.5326644E+03;
  6.2088686E-01;  9.9999998E-03;  4.0027909E-02;6262; -5.1947669E-03;  0.0000000E+00; -2.0765897E-03;  1.0000164E+03;  1.0140052E-01;  1.3530471E+01;3;  7.7939100E+00;  0.0000000E+00;  6.5564275E-01;0;  2.4565089E-01;  3.8931188E+04;  0.0000000E+00;  3.6507059E-02;  4.0000000E+04;  0.0000000E+00;  3.9979359E+04;  3.1280985E-01;  0.0000000E+00; -6.7158960E-02;  1.4372063E+03;
  6.2088352E-01;  9.9999998E-03;  5.0030965E-02;6263; -5.4559754E-03;  0.0000000E+00; -2.5809896E-03;  9.9992737E+02;  1.0140058E-01; -6.0195782E+01;3;  7.6447120E+00;  0.0000000E+00;  8.1072384E-01;0;  2.3790430E-01;  3.8923348E+04;  0.0000000E+00;  5.0793108E-02;  4.0000000E+04;  0.0000000E+00;  3.9979844E+04;  3.0234253E-01;  0.0000000E+00; -6.4438239E-02;  1.3670013E+03;
  6.2087876E-01;  9.9999998E-03;  6.0032133E-02;6264; -5.7868091E-03;  0.0000000E+00; -3.0623260E-03;  9.9982538E+02;  1.0140084E-01; -1.4468716E+02;3;  7.5286994E+00;  0.0000000E+00;  1.0005039E+00;0;  2.2854802E-01;  3.8914766E+04;  0.0000000E+00;  6.2597558E-02;  4.0000000E+04;  0.0000000E+00;  3.9979879E+04;  2.8976610E-01;  0.0000000E+00; -6.1218075E-02;  1.3465562E+03;
  6.3079900E-01;  9.9999998E-03; -1.0002515E-01;6309; -3.2409262E-03;  0.0000000E+00;  6.4118207E-03;  9.9966846E+02;  1.0214076E-01; -2.7465866E+02;3;  4.1945882E+00;  0.0000000E+00; -1.9247692E+00;0;  1.8350443E-01;  3.8348973E+04;  0.0000000E+00; -8.8896692E-02;  4.0000000E+04;  0.0000000E+00;  3.9970934E+04;  2.2868145E-01;  0.0000000E+00; -4.5177005E-02;  1.8519938E+03;
  6.3081813E-01;  9.9999998E-03; -9.0026133E-02;6310; -7.8478064E-05;  0.0000000E+00;  6.4666811E-03;  9.9978882E+02;  1.0213955E-01; -1.7495787E+02;3;  3.6148553E+00;  0.0000000E+00; -1.5940191E+00;0;  1.9718118E-01;  3.8357016E+04;  0.0000000E+00; -5.7926711E-02;  4.0000000E+04;  0.0000000E+00;  3.9973195E+04;  2.4747887E-01;  0.0000000E+00; -5.0297692E-02;  1.5588126E+03;
  6.3083452E-01;  9.9999998E-03; -8.0027796E-02;6311;  3.4174931E-03;  0.0000000E+00;  6.4164912E-03;  9.9992444E+02;  1.0213891E-01; -6.2615459E+01;3;  3.3769579E+00;  0.0000000E+00; -1.2644564E+00;0;  2.0954156E-01;  3.8366586E+04;  0.0000000E+00; -3.1834781E-02;  4.0000000E+04;  0.0000000E+00;  3.9975250E+04;  2.6473784E-01;  0.0000000E+00; -5.5196293E-02;  1.3284490E+03;
  6.3084698E-01;  9.9999998E-03; -7.0029199E-02;6312;  6.7412774E-03;  0.0000000E+00;  6.1930171E-03;  1.0000599E+03;  1.0213833E-01;  4.9578804E+01;3;  3.3122857E+00;  0.0000000E+00; -9.7263753E-01;0;  2.2058028E-01;  3.8376719E+04;  0.0000000E+00; -1.2302469E-02;  4.0000000E+04;  0.0000000E+00;  3.9976426E+04;  2.8034621E-01;  0.0000000E+00; -5.9765939E-02;  1.1783080E+03;
  6.3085526E-01;  9.9999998E-03; -6.0029607E-02;6313;  9.6555380E-03;  0.0000000E+00;  5.7532652E-03;  1.0001903E+03;  1.0213739E-01;  1.5762505E+02;3;  3.3525293E+00;  0.0000000E+00; -6.8897820E-01;0;  2.3026830E-01;  3.8386922E+04;  0.0000000E+00;  2.4105709E-04;  4.0000000E+04;  0.0000000E+00;  3.9977156E+04;  2.9417738E-01;  0.0000000E+00; -6.3909076E-02;  1.1121028E+03;
  6.3085985E-01;  9.9999998E-03; -5.0028518E-02;6314;  1.2050518E-02;  0.0000000E+00;  5.1143230E-03;  1.0003125E+03;  1.0213724E-01;  2.5885666E+02;3;  3.4041030E+00;  0.0000000E+00; -4.8163691E-01;0;  2.3856863E-01;  3.8397098E+04;  0.0000000E+00;  6.4456793E-03;  4.0000000E+04;  0.0000000E+00;  3.9977074E+04;  3.0611166E-01;  0.0000000E+00; -6.7543030E-02;  1.1203624E+03;
  6.3086158E-01;  9.9999998E-03; -4.0025722E-02;6315;  1.3932327E-02;  0.0000000E+00;  4.3086354E-03;  1.0004206E+03;  1.0213652E-01;  3.4843430E+02;3;  3.5208440E+00;  0.0000000E+00; -2.5432903E-01;0;  2.4543571E-01;  3.8406414E+04;  0.0000000E+00;  7.7679986E-03;  4.0000000E+04;  0.0000000E+00;  3.9976750E+04;  3.1603622E-01;  0.0000000E+00; -7.0600517E-02;  1.1833641E+03;
  6.3086152E-01;  9.9999998E-03; -3.0021280E-02;6316;  1.5291153E-02;  0.0000000E+00;  3.3457524E-03;  1.0005089E+03;  1.0213626E-01;  4.2161737E+02;3;  3.6254711E+00;  0.0000000E+00; -2.3036800E-01;0;  2.5083435E-01;  3.8414277E+04;  0.0000000E+00;  6.0819886E-03;  4.0000000E+04;  0.0000000E+00;  3.9976020E+04;  3.2386345E-01;  0.0000000E+00; -7.3029093E-02;  1.2749614E+03;
  6.3086051E-01;  9.9999998E-03; -2.0015476E-02;6317;  1.6190570E-02;  0.0000000E+00;  2.2856002E-03;  1.0005747E+03;  1.0213589E-01;  4.7613428E+02;3;  3.7785420E+00;  0.0000000E+00; -1.5002613E-01;0;  2.5472504E-01;  3.8420277E+04;  0.0000000E+00;  3.2733721E-03;  4.0000000E+04;  0.0000000E+00;  3.9975449E+04;  3.2951474E-01;  0.0000000E+00; -7.4789695E-02;  1.3670594E+03;
  6.3085920E-01;  9.9999998E-03; -1.0008459E-02;6318;  1.6669478E-02;  0.0000000E+00;  1.1621150E-03;  1.0006178E+03;  1.0213576E-01;  5.1178757E+02;3;  3.8277249E+00;  0.0000000E+00; -6.0640913E-02;0;  2.5707924E-01;  3.8423969E+04;  0.0000000E+00;  9.0657675E-04;  4.0000000E+04;  0.0000000E+00;  3.9974844E+04;  3.3293507E-01;  0.0000000E+00; -7.5855821E-02;  1.4343422E+03;
  6.3085842E-01;  9.9999998E-03;  1.6260950E-10;6319;  1.6801480E-02;  0.0000000E+00;  4.5249906E-09;  1.0006282E+03;  1.0213578E-01;  5.2047870E+02;3;  3.8666000E+00;  0.0000000E+00;  1.2197061E-05;0;  2.5787145E-01;  3.8425379E+04;  0.0000000E+00; -7.3650608E-12;  4.0000000E+04;  0.0000000E+00;  3.9974723E+04;  3.3408406E-01;  0.0000000E+00; -7.6212615E-02;  1.4589076E+03;
  6.3085920E-01;  9.9999998E-03;  1.0008460E-02;6320;  1.6669581E-02;  0.0000000E+00; -1.1621107E-03;  1.0006177E+03;  1.0213573E-01;  5.1178757E+02;3;  3.8276651E+00;  0.0000000E+00;  6.0658406E-02;0;  2.5707948E-01;  3.8423965E+04;  0.0000000E+00;  9.0715988E-04;  4.0000000E+04;  0.0000000E+00;  3.9974840E+04;  3.3293527E-01;  0.0000000E+00; -7.5855799E-02;  1.4343500E+03;
  6.3086051E-01;  9.9999998E-03;  2.0015476E-02;6321;  1.6190596E-02;  0.0000000E+00; -2.2855937E-03;  1.0005747E+03;  1.0213578E-01;  4.7613428E+02;3;  3.7785397E+00;  0.0000000E+00;  1.5003467E-01;0;  2.5472486E-01;  3.8420273E+04;  0.0000000E+00;  3.2745241E-03;  4.0000000E+04;  0.0000000E+00;  3.9975453E+04;  3.2951462E-01;  0.0000000E+00; -7.4789762E-02;  1.3670647E+03;
  6.3086152E-01;  9.9999998E-03;  3.0021280E-02;6322;  1.5291200E-02;  0.0000000E+00; -3.3457491E-03;  1.0005089E+03;  1.0213626E-01;  4.2161737E+02;3;  3.6254554E+00;  0.0000000E+00;  2.3037727E-01;0;  2.5083399E-01;  3.8414277E+04;  0.0000000E+00;  6.0832314E-03;  4.0000000E+04;  0.0000000E+00;  3.9976020E+04;  3.2386315E-01;  0.0000000E+00; -7.3029175E-02;  1.2749662E+03;
  6.3086158E-01;  9.9999998E-03;  4.0025722E-02;6323;  1.3932456E-02;  0.0000000E+00; -4.3086428E-03;  1.0004206E+03;  1.0213652E-01;  3.4843430E+02;3;  3.5207858E+00;  0.0000000E+00;  2.5433913E-01;0;  2.4543568E-01;  3.8406418E+04;  0.0000000E+00;  7.7698571E-03;  4.0000000E+04;  0.0000000E+00;  3.9976750E+04;  3.1603622E-01;  0.0000000E+00; -7.0600539E-02;  1.1833730E+03;
  6.3085991E-01;  9.9999998E-03;  5.0028518E-02;6324;  1.2050621E-02;  0.0000000E+00; -5.1143309E-03;  1.0003125E+03;  1.0213724E-01;  2.5885666E+02;3;  3.4040823E+00;  0.0000000E+00;  4.8165858E-01;0;  2.3856884E-01;  3.8397102E+04;  0.0000000E+00;  6.4437129E-03;  4.0000000E+04;  0.0000000E+00;  3.9977074E+04;  3.0611184E-01;  0.0000000E+00; -6.7543007E-02;  1.1203602E+03;
  6.3085526E-01;  9.9999998E-03;  6.0029607E-02;6325;  9.6556973E-03;  0.0000000E+00; -5.7532853E-03;  1.0001902E+03;  1.0213742E-01;  1.5762505E+02;3;  3.3524914E+00;  0.0000000E+00;  6.8896616E-01;0;  2.3026828E-01;  3.8386922E+04;  0.0000000E+00;  2.3691342E-04;  4.0000000E+04;  0.0000000E+00;  3.9977156E+04;  2.9417747E-01;  0.0000000E+00; -6.3909188E-02;  1.1121012E+03;
  6.4084488E-01;  9.9999998E-03; -1.0000625E-01;6370;  1.5277749E-02;  0.0000000E+00;  1.1898962E-02;  1.0002012E+03;  1.0316058E-01;  1.6671118E+02;3; -7.7177329E+00;  0.0000000E+00; -3.4479430E+00;0;  1.7751364E-01;  3.7635844E+04;  0.0000000E+00; -2.3252204E-01;  4.0000000E+04;  0.0000000E+00;  3.9965805E+04;  2.2257572E-01;  0.0000000E+00; -4.5062080E-02;  1.7190223E+03;
  6.4085031E-01;  9.9999998E-03; -9.0007856E-02;6371;  1.8178457E-02;  0.0000000E+00;  1.1298893E-02;  1.0003129E+03;  1.0315883E-01;  2.5925168E+02;3; -8.4735088E+00;  0.0000000E+00; -3.2078826E+00;0;  1.8990177E-01;  3.7643594E+04;  0.0000000E+00; -1.8811959E-01;  4.0000000E+04;  0.0000000E+00;  3.9968422E+04;  2.4064034E-01;  0.0000000E+00; -5.0738569E-02;  1.3906383E+03;
  6.4085293E-01;  9.9999998E-03; -8.0010541E-02;6372;  2.0834448E-02;  0.0000000E+00;  1.0517689E-02;  1.0004404E+03;  1.0315756E-01;  3.6482886E+02;3; -9.1442728E+00;  0.0000000E+00; -2.9506392E+00;0;  2.0107584E-01;  3.7652434E+04;  0.0000000E+00; -1.4435068E-01;  4.0000000E+04;  0.0000000E+00;  3.9970551E+04;  2.5722584E-01;  0.0000000E+00; -5.6150001E-02;  1.1263721E+03;
  6.4085299E-01;  9.9999998E-03; -7.0013553E-02;6373;  2.3211310E-02;  0.0000000E+00;  9.5731467E-03;  1.0005701E+03;  1.0315657E-01;  4.7228250E+02;3; -9.8495655E+00;  0.0000000E+00; -2.6894011E+00;0;  2.1100444E-01;  3.7662195E+04;  0.0000000E+00; -1.0466100E-01;  4.0000000E+04;  0.0000000E+00;  3.9972117E+04;  2.7218068E-01;  0.0000000E+00; -6.1176240E-02;  9.4542914E+02;
  6.4085120E-01;  9.9999998E-03; -6.0015995E-02;6374;  2.5289981E-02;  0.0000000E+00;  8.4863408E-03;  1.0006997E+03;  1.0315521E-01;  5.7973615E+02;3; -1.0434179E+01;  0.0000000E+00; -2.4155025E+00;0;  2.1966809E-01;  3.7672609E+04;  0.0000000E+00; -7.1275197E-02;  4.0000000E+04;  0.0000000E+00;  3.9972922E+04;  2.8538129E-01;  0.0000000E+00; -6.5713190E-02;  8.5338837E+02;
  6.4084822E-01;  9.9999998E-03; -5.0017335E-02;6375;  2.7039045E-02;  0.0000000E+00;  7.2551649E-03;  1.0008256E+03;  1.0315417E-01;  6.8393066E+02;3; -1.1071418E+01;  0.0000000E+00; -2.1264005E+00;0;  2.2705019E-01;  3.7682855E+04;  0.0000000E+00; -4.5142669E-02;  4.0000000E+04;  0.0000000E+00;  3.9973023E+04;  2.9672515E-01;  0.0000000E+00; -6.9674976E-02;  8.4185730E+02;
  6.4084458E-01;  9.9999998E-03; -4.0017396E-02;6376;  2.8456017E-02;  0.0000000E+00;  5.9117675E-03;  1.0009345E+03;  1.0315340E-01;  7.7419965E+02;3; -1.1539160E+01;  0.0000000E+00; -1.7535410E+00;0;  2.3313159E-01;  3.7692250E+04;  0.0000000E+00; -2.6121356E-02;  4.0000000E+04;  0.0000000E+00;  3.9972727E+04;  3.0612662E-01;  0.0000000E+00; -7.2995029E-02;  8.9076361E+02;
  6.4084101E-01;  9.9999998E-03; -3.0015934E-02;6377;  2.9552715E-02;  0.0000000E+00;  4.4822772E-03;  1.0010266E+03;  1.0315263E-01;  8.5054309E+02;3; -1.1915709E+01;  0.0000000E+00; -1.3503307E+00;0;  2.3789167E-01;  3.7700457E+04;  0.0000000E+00; -1.3304044E-02;  4.0000000E+04;  0.0000000E+00;  3.9972141E+04;  3.1351507E-01;  0.0000000E+00; -7.5623401E-02;  9.7272412E+02;
  6.4083821E-01;  9.9999998E-03; -2.0013083E-02;6378;  3.0333277E-02;  0.0000000E+00;  2.9882404E-03;  1.0010945E+03;  1.0315228E-01;  9.0673895E+02;3; -1.2137196E+01;  0.0000000E+00; -9.0249282E-01;0;  2.4130972E-01;  3.7706695E+04;  0.0000000E+00; -5.4306095E-03;  4.0000000E+04;  0.0000000E+00;  3.9971520E+04;  3.1883389E-01;  0.0000000E+00; -7.7524170E-02;  1.0585760E+03;
  6.4083636E-01;  9.9999998E-03; -1.0008044E-02;6379;  3.0796990E-02;  0.0000000E+00;  1.4798582E-03;  1.0011364E+03;  1.0315170E-01;  9.4150336E+02;3; -1.2255620E+01;  0.0000000E+00; -4.8975834E-01;0;  2.4337032E-01;  3.7710711E+04;  0.0000000E+00; -1.2820229E-03;  4.0000000E+04;  0.0000000E+00;  3.9971121E+04;  3.2204387E-01;  0.0000000E+00; -7.8673534E-02;  1.1223225E+03;
  6.4083570E-01;  9.9999998E-03;  2.5553629E-10;6380;  3.0956559E-02;  0.0000000E+00;  6.5573733E-09;  1.0011506E+03;  1.0315151E-01;  9.5325610E+02;3; -1.2255115E+01;  0.0000000E+00; -1.3343324E-05;0;  2.4405849E-01;  3.7711988E+04;  0.0000000E+00; -1.2574900E-11;  4.0000000E+04;  0.0000000E+00;  3.9970766E+04;  3.2311669E-01;  0.0000000E+00; -7.9058193E-02;  1.1457791E+03;
  6.4083636E-01;  9.9999998E-03;  1.0008045E-02;6381;  3.0796990E-02;  0.0000000E+00; -1.4798460E-03;  1.0011364E+03;  1.0315170E-01;  9.4150336E+02;3; -1.2255604E+01;  0.0000000E+00;  4.8975444E-01;0;  2.4337055E-01;  3.7710711E+04;  0.0000000E+00; -1.2808380E-03;  4.0000000E+04;  0.0000000E+00;  3.9971121E+04;  3.2204413E-01;  0.0000000E+00; -7.8673586E-02;  1.1223350E+03;
  6.4083821E-01;  9.9999998E-03;  2.0013083E-02;6382;  3.0333286E-02;  0.0000000E+00; -2.9882267E-03;  1.0010945E+03;  1.0315228E-01;  9.0683771E+02;3; -1.2137226E+01;  0.0000000E+00;  9.0245503E-01;0;  2.4131003E-01;  3.7706695E+04;  0.0000000E+00; -5.4290476E-03;  4.0000000E+04;  0.0000000E+00;  3.9971520E+04;  3.1883419E-01;  0.0000000E+00; -7.7524155E-02;  1.0585765E+03;
  6.4084101E-01;  9.9999998E-03;  3.0015936E-02;6383;  2.9552732E-02;  0.0000000E+00; -4.4822637E-03;  1.0010266E+03;  1.0315263E-01;  8.5054309E+02;3; -1.1915757E+01;  0.0000000E+00;  1.3503834E+00;0;  2.3789209E-01;  3.7700457E+04;  0.0000000E+00; -1.3302057E-02;  4.0000000E+04;  0.0000000E+00;  3.9972145E+04;  3.1351551E-01;  0.0000000E+00; -7.5623423E-02;  9.7272174E+02;
  6.4084458E-01;  9.9999998E-03;  4.0017396E-02;6384;  2.8456030E-02;  0.0000000E+00; -5.9117544E-03;  1.0009346E+03;  1.0315338E-01;  7.7429840E+02;3; -1.1539171E+01;  0.0000000E+00;  1.7535573E+00;0;  2.3313174E-01;  3.7692238E+04;  0.0000000E+00; -2.6120164E-02;  4.0000000E+04;  0.0000000E+00;  3.9972727E+04;  3.0612680E-01;  0.0000000E+00; -7.2995067E-02;  8.9075446E+02;
  6.4084822E-01;  9.9999998E-03;  5.0017338E-02;6385;  2.7039068E-02;  0.0000000E+00; -7.2551523E-03;  1.0008256E+03;  1.0315417E-01;  6.8402942E+02;3; -1.1071471E+01;  0.0000000E+00;  2.1264741E+00;0;  2.2705013E-01;  3.7682855E+04;  0.0000000E+00; -4.5141250E-02;  4.0000000E+04;  0.0000000E+00;  3.9973023E+04;  2.9672518E-01;  0.0000000E+00; -6.9675066E-02;  8.4184698E+02;
  6.4085120E-01;  9.9999998E-03;  6.0015995E-02;6386;  2.5290010E-02;  0.0000000E+00; -8.4863324E-03;  1.0006997E+03;  1.0315521E-01;  5.7973615E+02;3; -1.0434234E+01;  0.0000000E+00;  2.4154828E+00;0;  2.1966848E-01;  3.7672613E+04;  0.0000000E+00; -7.1273975E-02;  4.0000000E+04;  0.0000000E+00;  3.9972922E+04;  2.8538176E-01;  0.0000000E+00; -6.5713286E-02;  8.5337738E+02;
  6.5069604E-01;  9.9999998E-03;  3.5816131E-10;6441;  3.3062156E-02;  0.0000000E+00;  6.7156676E-09;  1.0016202E+03;  1.0447160E-01;  1.3422815E+03;3; -1.5385270E+01;  0.0000000E+00; -1.6701837E-05;0;  2.1820952E-01;  3.6796312E+04;  0.0000000E+00; -2.0453868E-11;  4.0000000E+04;  0.0000000E+00;  3.9965293E+04;  2.9849055E-01;  0.0000000E+00; -8.0281034E-02;  7.9708929E+02;
  6.5069729E-01;  9.9999998E-03; -1.0005612E-02;6440;  3.2907326E-02;  0.0000000E+00;  1.4619591E-03;  1.0016083E+03;  1.0447188E-01;  1.3325040E+03;3; -1.5287264E+01;  0.0000000E+00; -4.9264917E-01;0;  2.1764567E-01;  3.6794969E+04;  0.0000000E+00; -3.3368263E-03;  4.0000000E+04;  0.0000000E+00;  3.9965445E+04;  2.9752570E-01;  0.0000000E+00; -7.9880036E-02;  7.7576532E+02;
  6.5069729E-01;  9.9999998E-03;  1.0005612E-02;6442;  3.2907329E-02;  0.0000000E+00; -1.4619436E-03;  1.0016083E+03;  1.0447188E-01;  1.3325040E+03;3; -1.5287265E+01;  0.0000000E+00;  4.9264842E-01;0;  2.1764563E-01;  3.6794969E+04;  0.0000000E+00; -3.3353162E-03;  4.0000000E+04;  0.0000000E+00;  3.9965445E+04;  2.9752573E-01;  0.0000000E+00; -7.9880103E-02;  7.7575909E+02;
  6.5070093E-01;  9.9999998E-03; -2.0009406E-02;6439;  3.2443609E-02;  0.0000000E+00;  2.8789472E-03;  1.0015685E+03;  1.0447238E-01;  1.2995173E+03;3; -1.5095091E+01;  0.0000000E+00; -9.6860796E-01;0;  2.1596068E-01;  3.6791379E+04;  0.0000000E+00; -1.3587977E-02;  4.0000000E+04;  0.0000000E+00;  3.9965902E+04;  2.9464105E-01;  0.0000000E+00; -7.8680374E-02;  7.1842450E+02;
  6.5070093E-01;  9.9999998E-03;  2.0009406E-02;6443;  3.2443620E-02;  0.0000000E+00; -2.8789320E-03;  1.0015685E+03;  1.0447238E-01;  1.2995173E+03;3; -1.5095120E+01;  0.0000000E+00;  9.6858102E-01;0;  2.1596065E-01;  3.6791379E+04;  0.0000000E+00; -1.3585353E-02;  4.0000000E+04;  0.0000000E+00;  3.9965906E+04;  2.9464108E-01;  0.0000000E+00; -7.8680426E-02;  7.1841882E+02;
  6.5070671E-01;  9.9999998E-03; -3.0010734E-02;6438;  3.1670574E-02;  0.0000000E+00;  4.2554499E-03;  1.0015056E+03;  1.0447284E-01;  1.2473707E+03;3; -1.4836673E+01;  0.0000000E+00; -1.4295100E+00;0;  2.1316367E-01;  3.6785559E+04;  0.0000000E+00; -3.1395238E-02;  4.0000000E+04;  0.0000000E+00;  3.9966352E+04;  2.8985634E-01;  0.0000000E+00; -7.6692663E-02;  6.4368329E+02;
  6.5070671E-01;  9.9999998E-03;  3.0010734E-02;6444;  3.1670582E-02;  0.0000000E+00; -4.2554336E-03;  1.0015056E+03;  1.0447284E-01;  1.2473707E+03;3; -1.4836680E+01;  0.0000000E+00;  1.4294864E+00;0;  2.1316332E-01;  3.6785559E+04;  0.0000000E+00; -3.1391576E-02;  4.0000000E+04;  0.0000000E+00;  3.9966344E+04;  2.8985602E-01;  0.0000000E+00; -7.6692700E-02;  6.4367200E+02;
  6.5071458E-01;  9.9999998E-03; -4.0010437E-02;6437;  3.0584831E-02;  0.0000000E+00;  5.5750748E-03;  1.0014252E+03;  1.0447374E-01;  1.1807061E+03;3; -1.4453029E+01;  0.0000000E+00; -1.8428900E+00;0;  2.0926480E-01;  3.6778105E+04;  0.0000000E+00; -5.7563249E-02;  4.0000000E+04;  0.0000000E+00;  3.9966832E+04;  2.8320137E-01;  0.0000000E+00; -7.3936567E-02;  5.7893536E+02;
  6.5071464E-01;  9.9999998E-03;  4.0010437E-02;6445;  3.0584846E-02;  0.0000000E+00; -5.5750581E-03;  1.0014252E+03;  1.0447374E-01;  1.1807061E+03;3; -1.4453053E+01;  0.0000000E+00;  1.8428943E+00;0;  2.0926505E-01;  3.6778109E+04;  0.0000000E+00; -5.7560906E-02;  4.0000000E+04;  0.0000000E+00;  3.9966832E+04;  2.8320163E-01;  0.0000000E+00; -7.3936589E-02;  5.7894122E+02;
  6.5072399E-01;  9.9999998E-03; -5.0008949E-02;6436;  2.9191922E-02;  0.0000000E+00;  6.8269484E-03;  1.0013263E+03;  1.0447542E-01;  1.0988319E+03;3; -1.4025040E+01;  0.0000000E+00; -2.2788858E+00;0;  2.0427543E-01;  3.6769492E+04;  0.0000000E+00; -9.2690639E-02;  4.0000000E+04;  0.0000000E+00;  3.9967070E+04;  2.7471763E-01;  0.0000000E+00; -7.0442207E-02;  5.5523676E+02;
  6.5072399E-01;  9.9999998E-03;  5.0008949E-02;6446;  2.9191939E-02;  0.0000000E+00; -6.8269391E-03;  1.0013263E+03;  1.0447542E-01;  1.0988319E+03;3; -1.4025112E+01;  0.0000000E+00;  2.2788937E+00;0;  2.0427531E-01;  3.6769500E+04;  0.0000000E+00; -9.2689015E-02;  4.0000000E+04;  0.0000000E+00;  3.9967070E+04;  2.7471754E-01;  0.0000000E+00; -7.0442230E-02;  5.5524310E+02;
  6.5073395E-01;  9.9999998E-03; -6.0006287E-02;6435;  2.7497558E-02;  0.0000000E+00;  8.0013638E-03;  1.0012233E+03;  1.0447723E-01;  1.0135010E+03;3; -1.3468967E+01;  0.0000000E+00; -2.6384349E+00;0;  1.9820140E-01;  3.6760555E+04;  0.0000000E+00; -1.3672906E-01;  4.0000000E+04;  0.0000000E+00;  3.9966906E+04;  2.6445588E-01;  0.0000000E+00; -6.6254482E-02;  5.9902942E+02;
  6.5073395E-01;  9.9999998E-03;  6.0006291E-02;6447;  2.7497580E-02;  0.0000000E+00; -8.0013527E-03;  1.0012234E+03;  1.0447721E-01;  1.0135998E+03;3; -1.3469041E+01;  0.0000000E+00;  2.6384406E+00;0;  1.9820115E-01;  3.6760555E+04;  0.0000000E+00; -1.3672858E-01;  4.0000000E+04;  0.0000000E+00;  3.9966906E+04;  2.6445577E-01;  0.0000000E+00; -6.6254623E-02;  5.9902930E+02;
  6.5074432E-01;  9.9999998E-03; -7.0002742E-02;6434;  2.5537642E-02;  0.0000000E+00;  9.1006542E-03;  1.0011150E+03;  1.0447907E-01;  9.2372589E+02;3; -1.2878205E+01;  0.0000000E+00; -3.0603406E+00;0;  1.9103771E-01;  3.6751715E+04;  0.0000000E+00; -1.8855518E-01;  4.0000000E+04;  0.0000000E+00;  3.9965879E+04;  2.5247505E-01;  0.0000000E+00; -6.1437331E-02;  7.2417004E+02;
  6.5075451E-01;  9.9999998E-03; -7.9998896E-02;6433;  2.3346212E-02;  0.0000000E+00;  1.0148500E-02;  1.0010110E+03;  1.0448122E-01;  8.3760498E+02;3; -1.2225069E+01;  0.0000000E+00; -3.3945873E+00;0;  1.8277484E-01;  3.6743523E+04;  0.0000000E+00; -2.4568896E-01;  4.0000000E+04;  0.0000000E+00;  3.9964355E+04;  2.3885085E-01;  0.0000000E+00; -5.6076009E-02;  9.3250507E+02;
  6.5076369E-01;  9.9999998E-03; -8.9995742E-02;6432;  2.0892652E-02;  0.0000000E+00;  1.1064358E-02;  1.0009190E+03;  1.0448410E-01;  7.6136035E+02;3; -1.1560877E+01;  0.0000000E+00; -3.7175901E+00;0;  1.7339149E-01;  3.6736402E+04;  0.0000000E+00; -3.0424249E-01;  4.0000000E+04;  0.0000000E+00;  3.9962051E+04;  2.2367044E-01;  0.0000000E+00; -5.0278950E-02;  1.2160713E+03;
  6.5077150E-01;  9.9999998E-03; -9.9994063E-02;6431;  1.8204819E-02;  0.0000000E+00;  1.1839987E-02;  1.0008406E+03;  1.0448702E-01;  6.9637457E+02;3; -1.0862671E+01;  0.0000000E+00; -4.0128179E+00;0;  1.6287552E-01;  3.6730906E+04;  0.0000000E+00; -3.5909671E-01;  4.0000000E+04;  0.0000000E+00;  3.9959254E+04;  2.0705183E-01;  0.0000000E+00; -4.4176307E-02;  1.5559496E+03;
  6.6054654E-01;  9.9999998E-03; -1.0001603E-02;6501;  3.3932079E-02;  0.0000000E+00;  1.3016515E-03;  1.0017496E+03;  1.0608612E-01;  1.4495374E+03;3; -1.6285074E+01;  0.0000000E+00; -4.0511683E-01;0;  1.8095335E-01;  3.5687141E+04;  0.0000000E+00; -4.7225887E-03;  4.0000000E+04;  0.0000000E+00;  3.9958043E+04;  2.6014686E-01;  0.0000000E+00; -7.9193503E-02;  4.1580148E+02;
  6.6054469E-01;  9.9999998E-03;  4.2893600E-10;6502;  3.4096148E-02;  0.0000000E+00;  6.3037118E-09;  1.0017617E+03;  1.0608586E-01;  1.4595125E+03;3; -1.6353786E+01;  0.0000000E+00;  9.6725889E-06;0;  1.8138212E-01;  3.5688184E+04;  0.0000000E+00; -2.6457187E-11;  4.0000000E+04;  0.0000000E+00;  3.9957848E+04;  2.6097938E-01;  0.0000000E+00; -7.9597265E-02;  4.3431076E+02;
  6.6054654E-01;  9.9999998E-03;  1.0001603E-02;6503;  3.3932079E-02;  0.0000000E+00; -1.3016399E-03;  1.0017495E+03;  1.0608622E-01;  1.4494386E+03;3; -1.6285139E+01;  0.0000000E+00;  4.0512052E-01;0;  1.8095358E-01;  3.5687148E+04;  0.0000000E+00; -4.7207843E-03;  4.0000000E+04;  0.0000000E+00;  3.9958043E+04;  2.6014712E-01;  0.0000000E+00; -7.9193547E-02;  4.1579922E+02;
  6.6055214E-01;  9.9999998E-03; -2.0002538E-02;6500;  3.3444569E-02;  0.0000000E+00;  2.5861450E-03;  1.0017215E+03;  1.0608685E-01;  1.4262295E+03;3; -1.6161255E+01;  0.0000000E+00; -8.3071095E-01;0;  1.7967165E-01;  3.5684152E+04;  0.0000000E+00; -1.9102871E-02;  4.0000000E+04;  0.0000000E+00;  3.9958258E+04;  2.5765565E-01;  0.0000000E+00; -7.7983998E-02;  3.6731152E+02;
  6.6055214E-01;  9.9999998E-03;  2.0002538E-02;6504;  3.3444576E-02;  0.0000000E+00; -2.5861352E-03;  1.0017215E+03;  1.0608685E-01;  1.4262295E+03;3; -1.6161245E+01;  0.0000000E+00;  8.3067846E-01;0;  1.7967173E-01;  3.5684156E+04;  0.0000000E+00; -1.9100031E-02;  4.0000000E+04;  0.0000000E+00;  3.9958258E+04;  2.5765580E-01;  0.0000000E+00; -7.7984057E-02;  3.6731219E+02;
  6.6056168E-01;  9.9999998E-03; -3.0002166E-02;6499;  3.2659054E-02;  0.0000000E+00;  3.8259260E-03;  1.0016762E+03;  1.0608841E-01;  1.3886997E+03;3; -1.5928289E+01;  0.0000000E+00; -1.3113631E+00;0;  1.7754635E-01;  3.5679340E+04;  0.0000000E+00; -4.3658871E-02;  4.0000000E+04;  0.0000000E+00;  3.9958656E+04;  2.5352168E-01;  0.0000000E+00; -7.5975336E-02;  3.0993222E+02;
  6.6056168E-01;  9.9999998E-03;  3.0002167E-02;6505;  3.2659065E-02;  0.0000000E+00; -3.8259127E-03;  1.0016761E+03;  1.0608827E-01;  1.3886997E+03;3; -1.5928336E+01;  0.0000000E+00;  1.3113372E+00;0;  1.7754665E-01;  3.5679336E+04;  0.0000000E+00; -4.3654714E-02;  4.0000000E+04;  0.0000000E+00;  3.9958656E+04;  2.5352195E-01;  0.0000000E+00; -7.5975299E-02;  3.0992001E+02;
  6.6057473E-01;  9.9999998E-03; -4.0000219E-02;6498;  3.1579174E-02;  0.0000000E+00;  5.0198813E-03;  1.0016182E+03;  1.0609008E-01;  1.3406023E+03;3; -1.5601496E+01;  0.0000000E+00; -1.7387769E+00;0;  1.7458428E-01;  3.5673336E+04;  0.0000000E+00; -7.8903206E-02;  4.0000000E+04;  0.0000000E+00;  3.9959141E+04;  2.4776508E-01;  0.0000000E+00; -7.3180795E-02;  2.7780356E+02;
  6.6057473E-01;  9.9999998E-03;  4.0000219E-02;6506;  3.1579185E-02;  0.0000000E+00; -5.0198724E-03;  1.0016182E+03;  1.0609008E-01;  1.3406023E+03;3; -1.5601507E+01;  0.0000000E+00;  1.7387321E+00;0;  1.7458405E-01;  3.5673336E+04;  0.0000000E+00; -7.8898370E-02;  4.0000000E+04;  0.0000000E+00;  3.9959145E+04;  2.4776499E-01;  0.0000000E+00; -7.3180944E-02;  2.7780872E+02;
  6.6059053E-01;  9.9999998E-03; -4.9997140E-02;6497;  3.0211009E-02;  0.0000000E+00;  6.1701238E-03;  1.0015492E+03;  1.0609205E-01;  1.2835176E+03;3; -1.5221316E+01;  0.0000000E+00; -2.1810808E+00;0;  1.7078821E-01;  3.5666773E+04;  0.0000000E+00; -1.2493942E-01;  4.0000000E+04;  0.0000000E+00;  3.9959137E+04;  2.4041146E-01;  0.0000000E+00; -6.9623247E-02;  3.0385599E+02;
  6.6059059E-01;  9.9999998E-03;  4.9997140E-02;6507;  3.0211026E-02;  0.0000000E+00; -6.1701154E-03;  1.0015491E+03;  1.0609199E-01;  1.2834188E+03;3; -1.5221345E+01;  0.0000000E+00;  2.1810427E+00;0;  1.7078844E-01;  3.5666777E+04;  0.0000000E+00; -1.2493503E-01;  4.0000000E+04;  0.0000000E+00;  3.9959137E+04;  2.4041170E-01;  0.0000000E+00; -6.9623254E-02;  3.0384540E+02;
  6.6060841E-01;  9.9999998E-03; -5.9993185E-02;6496;  2.8588759E-02;  0.0000000E+00;  7.2927256E-03;  1.0014828E+03;  1.0609499E-01;  1.2285068E+03;3; -1.4750122E+01;  0.0000000E+00; -2.5726724E+00;0;  1.6615734E-01;  3.5660008E+04;  0.0000000E+00; -1.8098989E-01;  4.0000000E+04;  0.0000000E+00;  3.9958934E+04;  2.3149699E-01;  0.0000000E+00; -6.5339662E-02;  3.9492212E+02;
  6.6060841E-01;  9.9999998E-03;  5.9993185E-02;6508;  2.8588777E-02;  0.0000000E+00; -7.2927135E-03;  1.0014828E+03;  1.0609499E-01;  1.2285068E+03;3; -1.4750157E+01;  0.0000000E+00;  2.5726721E+00;0;  1.6615763E-01;  3.5660016E+04;  0.0000000E+00; -1.8099010E-01;  4.0000000E+04;  0.0000000E+00;  3.9958934E+04;  2.3149730E-01;  0.0000000E+00; -6.5339670E-02;  3.9491418E+02;
  6.6062760E-01;  9.9999998E-03; -6.9988884E-02;6495;  2.6694469E-02;  0.0000000E+00;  8.3407778E-03;  1.0014190E+03;  1.0609844E-01;  1.1755702E+03;3; -1.4216494E+01;  0.0000000E+00; -2.9365926E+00;0;  1.6066560E-01;  3.5653730E+04;  0.0000000E+00; -2.4494632E-01;  4.0000000E+04;  0.0000000E+00;  3.9957789E+04;  2.2105193E-01;  0.0000000E+00; -6.0386330E-02;  5.4690521E+02;
  6.6064733E-01;  9.9999998E-03; -7.9984933E-02;6494;  2.4542486E-02;  0.0000000E+00;  9.3012815E-03;  1.0013657E+03;  1.0610209E-01;  1.1315221E+03;3; -1.3557262E+01;  0.0000000E+00; -3.2786200E+00;0;  1.5427765E-01;  3.5648512E+04;  0.0000000E+00; -3.1310937E-01;  4.0000000E+04;  0.0000000E+00;  3.9956172E+04;  2.0912273E-01;  0.0000000E+00; -5.4845080E-02;  7.6159943E+02;
  6.6066670E-01;  9.9999998E-03; -8.9982212E-02;6493;  2.2146188E-02;  0.0000000E+00;  1.0169558E-02;  1.0013293E+03;  1.0610646E-01;  1.1013008E+03;3; -1.2827155E+01;  0.0000000E+00; -3.5639801E+00;0;  1.4694890E-01;  3.5644602E+04;  0.0000000E+00; -3.8019019E-01;  4.0000000E+04;  0.0000000E+00;  3.9954066E+04;  1.9577408E-01;  0.0000000E+00; -4.8825182E-02;  1.0360616E+03;
  6.6068500E-01;  9.9999998E-03; -9.9981382E-02;6492;  1.9541815E-02;  0.0000000E+00;  1.0958155E-02;  1.0013123E+03;  1.0611106E-01;  1.0872765E+03;3; -1.2113511E+01;  0.0000000E+00; -3.8429394E+00;0;  1.3863419E-01;  3.5642141E+04;  0.0000000E+00; -4.3964255E-01;  4.0000000E+04;  0.0000000E+00;  3.9951387E+04;  1.8109693E-01;  0.0000000E+00; -4.2462736E-02;  1.3543599E+03;
  6.7062730E-01;  9.9999998E-03; -9.9967748E-02;6553;  2.0204784E-02;  0.0000000E+00;  9.8661575E-03;  1.0013003E+03;  1.0800669E-01;  1.0773013E+03;3; -1.2815129E+01;  0.0000000E+00; -3.4995387E+00;0;  1.0726973E-01;  3.4394031E+04;  0.0000000E+00; -4.4867405E-01;  4.0000000E+04;  0.0000000E+00;  3.9942031E+04;  1.4710997E-01;  0.0000000E+00; -3.9840244E-02;  1.0959183E+03;
  6.7059845E-01;  9.9999998E-03; -8.9967541E-02;6554;  2.2766067E-02;  0.0000000E+00;  9.1470135E-03;  1.0012376E+03;  1.0799950E-01;  1.0253522E+03;3; -1.3575858E+01;  0.0000000E+00; -3.2759287E+00;0;  1.1333069E-01;  3.4392730E+04;  0.0000000E+00; -3.9357606E-01;  4.0000000E+04;  0.0000000E+00;  3.9944266E+04;  1.5959549E-01;  0.0000000E+00; -4.6264797E-02;  8.3885651E+02;
  6.7056829E-01;  9.9999998E-03; -7.9969637E-02;6555;  2.5103159E-02;  0.0000000E+00;  8.3391359E-03;  1.0011967E+03;  1.0799278E-01;  9.9137787E+02;3; -1.4275320E+01;  0.0000000E+00; -2.9522190E+00;0;  1.1858287E-01;  3.4392895E+04;  0.0000000E+00; -3.2773954E-01;  4.0000000E+04;  0.0000000E+00;  3.9946410E+04;  1.7089866E-01;  0.0000000E+00; -5.2315783E-02;  6.1769495E+02;
  6.7053813E-01;  9.9999998E-03; -6.9973439E-02;6556;  2.7209740E-02;  0.0000000E+00;  7.4450905E-03;  1.0011799E+03;  1.0798662E-01;  9.7745239E+02;3; -1.4884433E+01;  0.0000000E+00; -2.6457028E+00;0;  1.2310140E-01;  3.4394555E+04;  0.0000000E+00; -2.5860429E-01;  4.0000000E+04;  0.0000000E+00;  3.9947902E+04;  1.8095821E-01;  0.0000000E+00; -5.7856813E-02;  4.4962961E+02;
  6.7050934E-01;  9.9999998E-03; -5.9978329E-02;6557;  2.9084643E-02;  0.0000000E+00;  6.5031080E-03;  1.0011828E+03;  1.0798125E-01;  9.7992145E+02;3; -1.5431760E+01;  0.0000000E+00; -2.3226898E+00;0;  1.2695503E-01;  3.4397641E+04;  0.0000000E+00; -1.9237313E-01;  4.0000000E+04;  0.0000000E+00;  3.9948957E+04;  1.8973748E-01;  0.0000000E+00; -6.2782459E-02;  3.3163879E+02;
  6.7048305E-01;  9.9999998E-03; -4.9983501E-02;6558;  3.0703951E-02;  0.0000000E+00;  5.5058934E-03;  1.0011987E+03;  1.0797668E-01;  9.9315558E+02;3; -1.5882064E+01;  0.0000000E+00; -1.9530796E+00;0;  1.3018513E-01;  3.4401676E+04;  0.0000000E+00; -1.3350448E-01;  4.0000000E+04;  0.0000000E+00;  3.9949277E+04;  1.9720364E-01;  0.0000000E+00; -6.7018509E-02;  2.4266415E+02;
  6.7046016E-01;  9.9999998E-03; -3.9988395E-02;6559;  3.2053109E-02;  0.0000000E+00;  4.4547855E-03;  1.0012201E+03;  1.0797307E-01;  1.0108341E+03;3; -1.6254482E+01;  0.0000000E+00; -1.5697497E+00;0;  1.3282132E-01;  3.4405988E+04;  0.0000000E+00; -8.4654771E-02;  4.0000000E+04;  0.0000000E+00;  3.9949277E+04;  2.0333868E-01;  0.0000000E+00; -7.0517369E-02;  1.6209343E+02;
  6.7044163E-01;  9.9999998E-03; -2.9992610E-02;6560;  3.3127867E-02;  0.0000000E+00;  3.3672522E-03;  1.0012485E+03;  1.0797056E-01;  1.0343396E+03;3; -1.6530857E+01;  0.0000000E+00; -1.1564776E+00;0;  1.3487846E-01;  3.4410062E+04;  0.0000000E+00; -4.6978883E-02;  4.0000000E+04;  0.0000000E+00;  3.9948965E+04;  2.0813070E-01;  0.0000000E+00; -7.3252246E-02;  8.6164307E+01;
  6.7042804E-01;  9.9999998E-03; -1.9995755E-02;6561;  3.3917610E-02;  0.0000000E+00;  2.2603793E-03;  1.0012704E+03;  1.0796814E-01;  1.0525118E+03;3; -1.6724052E+01;  0.0000000E+00; -7.7548462E-01;0;  1.3635778E-01;  3.4413473E+04;  0.0000000E+00; -2.0598851E-02;  4.0000000E+04;  0.0000000E+00;  3.9948496E+04;  2.1156819E-01;  0.0000000E+00; -7.5210415E-02;  4.2138935E+01;
  6.7041975E-01;  9.9999998E-03; -9.9981232E-03;6562;  3.4401547E-02;  0.0000000E+00;  1.1370886E-03;  1.0012876E+03;  1.0796691E-01;  1.0667336E+03;3; -1.6838614E+01;  0.0000000E+00; -3.6925626E-01;0;  1.3725077E-01;  3.4415758E+04;  0.0000000E+00; -5.0998642E-03;  4.0000000E+04;  0.0000000E+00;  3.9948266E+04;  2.1363698E-01;  0.0000000E+00; -7.6386213E-02;  6.4490913E+01;
  6.7041695E-01;  9.9999998E-03;  4.4822956E-10;6563;  3.4565799E-02;  0.0000000E+00;  8.6581471E-09;  1.0012934E+03;  1.0796670E-01;  1.0715730E+03;3; -1.6880793E+01;  0.0000000E+00;  2.3477322E-05;0;  1.3755035E-01;  3.4416504E+04;  0.0000000E+00; -3.1184142E-11;  4.0000000E+04;  0.0000000E+00;  3.9948238E+04;  2.1432872E-01;  0.0000000E+00; -7.6778360E-02;  7.9427826E+01;
  6.7041975E-01;  9.9999998E-03;  9.9981241E-03;6564;  3.4401551E-02;  0.0000000E+00; -1.1370772E-03;  1.0012877E+03;  1.0796720E-01;  1.0668324E+03;3; -1.6838606E+01;  0.0000000E+00;  3.6927360E-01;0;  1.3725069E-01;  3.4415758E+04;  0.0000000E+00; -5.0980905E-03;  4.0000000E+04;  0.0000000E+00;  3.9948266E+04;  2.1363707E-01;  0.0000000E+00; -7.6386385E-02;  6.4473412E+01;
  6.7042804E-01;  9.9999998E-03;  1.9995755E-02;6565;  3.3917613E-02;  0.0000000E+00; -2.2603692E-03;  1.0012702E+03;  1.0796822E-01;  1.0523143E+03;3; -1.6724089E+01;  0.0000000E+00;  7.7550101E-01;0;  1.3635767E-01;  3.4413473E+04;  0.0000000E+00; -2.0595400E-02;  4.0000000E+04;  0.0000000E+00;  3.9948496E+04;  2.1156813E-01;  0.0000000E+00; -7.5210467E-02;  4.2139633E+01;
  6.7044163E-01;  9.9999998E-03;  2.9992610E-02;6566;  3.3127878E-02;  0.0000000E+00; -3.3672405E-03;  1.0012486E+03;  1.0797051E-01;  1.0344384E+03;3; -1.6530903E+01;  0.0000000E+00;  1.1564292E+00;0;  1.3487844E-01;  3.4410062E+04;  0.0000000E+00; -4.6974808E-02;  4.0000000E+04;  0.0000000E+00;  3.9948965E+04;  2.0813076E-01;  0.0000000E+00; -7.3252320E-02;  8.6163658E+01;
  6.7046016E-01;  9.9999998E-03;  3.9988399E-02;6567;  3.2053120E-02;  0.0000000E+00; -4.4547715E-03;  1.0012201E+03;  1.0797307E-01;  1.0108341E+03;3; -1.6254507E+01;  0.0000000E+00;  1.5697110E+00;0;  1.3282150E-01;  3.4405988E+04;  0.0000000E+00; -8.4650204E-02;  4.0000000E+04;  0.0000000E+00;  3.9949281E+04;  2.0333885E-01;  0.0000000E+00; -7.0517339E-02;  1.6208611E+02;
  6.7048305E-01;  9.9999998E-03;  4.9983501E-02;6568;  3.0703967E-02;  0.0000000E+00; -5.5058827E-03;  1.0011988E+03;  1.0797677E-01;  9.9315558E+02;3; -1.5882102E+01;  0.0000000E+00;  1.9530969E+00;0;  1.3018486E-01;  3.4401672E+04;  0.0000000E+00; -1.3350013E-01;  4.0000000E+04;  0.0000000E+00;  3.9949277E+04;  1.9720338E-01;  0.0000000E+00; -6.7018524E-02;  2.4265651E+02;
  6.7050934E-01;  9.9999998E-03;  5.9978329E-02;6569;  2.9084664E-02;  0.0000000E+00; -6.5030959E-03;  1.0011829E+03;  1.0798122E-01;  9.8002020E+02;3; -1.5431764E+01;  0.0000000E+00;  2.3226342E+00;0;  1.2695476E-01;  3.4397641E+04;  0.0000000E+00; -1.9237120E-01;  4.0000000E+04;  0.0000000E+00;  3.9948957E+04;  1.8973744E-01;  0.0000000E+00; -6.2782668E-02;  3.3163504E+02;
  6.8065119E-01;  9.9999998E-03; -9.9961348E-02;6614;  2.0384643E-02;  0.0000000E+00;  8.7045049E-03;  1.0007240E+03;  1.1015628E-01;  5.9978448E+02;3; -1.3225166E+01;  0.0000000E+00; -3.0482688E+00;0;  7.1655065E-02;  3.3023754E+04;  0.0000000E+00; -3.7057325E-01;  4.0000000E+04;  0.0000000E+00;  3.9931602E+04;  1.0789498E-01;  0.0000000E+00; -3.6239911E-02;  7.6583008E+02;
  6.8061131E-01;  9.9999998E-03; -8.9959919E-02;6615;  2.2915618E-02;  0.0000000E+00;  8.0603193E-03;  1.0005677E+03;  1.1014520E-01;  4.7040567E+02;3; -1.3967143E+01;  0.0000000E+00; -2.8503203E+00;0;  7.5646289E-02;  3.3019016E+04;  0.0000000E+00; -3.3100146E-01;  4.0000000E+04;  0.0000000E+00;  3.9933465E+04;  1.1815033E-01;  0.0000000E+00; -4.2504042E-02;  6.1806366E+02;
  6.8056977E-01;  9.9999998E-03; -7.9960883E-02;6616;  2.5226129E-02;  0.0000000E+00;  7.3326663E-03;  1.0004397E+03;  1.1013468E-01;  3.6423599E+02;3; -1.4646832E+01;  0.0000000E+00; -2.5759568E+00;0;  7.9023845E-02;  3.3015473E+04;  0.0000000E+00; -2.7888665E-01;  4.0000000E+04;  0.0000000E+00;  3.9934906E+04;  1.2739621E-01;  0.0000000E+00; -4.8372366E-02;  5.1163354E+02;
  6.8052804E-01;  9.9999998E-03; -6.9963738E-02;6617;  2.7317900E-02;  0.0000000E+00;  6.5442324E-03;  1.0003427E+03;  1.1012568E-01;  2.8384335E+02;3; -1.5262795E+01;  0.0000000E+00; -2.3196263E+00;0;  8.1883699E-02;  3.3013848E+04;  0.0000000E+00; -2.2153358E-01;  4.0000000E+04;  0.0000000E+00;  3.9936203E+04;  1.3559818E-01;  0.0000000E+00; -5.3714480E-02;  4.5977832E+02;
  6.8048781E-01;  9.9999998E-03; -5.9968214E-02;6618;  2.9175278E-02;  0.0000000E+00;  5.7065855E-03;  1.0002715E+03;  1.1011732E-01;  2.2488216E+02;3; -1.5795255E+01;  0.0000000E+00; -2.0143397E+00;0;  8.4296480E-02;  3.3013887E+04;  0.0000000E+00; -1.6525152E-01;  4.0000000E+04;  0.0000000E+00;  3.9937020E+04;  1.4273043E-01;  0.0000000E+00; -5.8433946E-02;  4.4144366E+02;
  6.8045062E-01;  9.9999998E-03; -4.9973711E-02;6619;  3.0782551E-02;  0.0000000E+00;  4.8182677E-03;  1.0002269E+03;  1.1011066E-01;  1.8804375E+02;3; -1.6250839E+01;  0.0000000E+00; -1.6994377E+00;0;  8.6312257E-02;  3.3015133E+04;  0.0000000E+00; -1.1465942E-01;  4.0000000E+04;  0.0000000E+00;  3.9937559E+04;  1.4877929E-01;  0.0000000E+00; -6.2467031E-02;  4.2439548E+02;
  6.8041813E-01;  9.9999998E-03; -3.9979562E-02;6620;  3.2135393E-02;  0.0000000E+00;  3.8998052E-03;  1.0002023E+03;  1.1010469E-01;  1.6759991E+02;3; -1.6627319E+01;  0.0000000E+00; -1.3707591E+00;0;  8.7961815E-02;  3.3017359E+04;  0.0000000E+00; -7.2555855E-02;  4.0000000E+04;  0.0000000E+00;  3.9937535E+04;  1.5373959E-01;  0.0000000E+00; -6.5777771E-02;  3.9229672E+02;
  6.8039137E-01;  9.9999998E-03; -2.9985275E-02;6621;  3.3205707E-02;  0.0000000E+00;  2.9458348E-03;  1.0001865E+03;  1.1010028E-01;  1.5446451E+02;3; -1.6928761E+01;  0.0000000E+00; -1.0301801E+00;0;  8.9251637E-02;  3.3019781E+04;  0.0000000E+00; -4.0162608E-02;  4.0000000E+04;  0.0000000E+00;  3.9937352E+04;  1.5760289E-01;  0.0000000E+00; -6.8351254E-02;  3.4679913E+02;
  6.8037128E-01;  9.9999998E-03; -1.9990638E-02;6622;  3.3980150E-02;  0.0000000E+00;  1.9670483E-03;  1.0001852E+03;  1.1009674E-01;  1.5337813E+02;3; -1.7115150E+01;  0.0000000E+00; -6.8764520E-01;0;  9.0181172E-02;  3.3021949E+04;  0.0000000E+00; -1.7575359E-02;  4.0000000E+04;  0.0000000E+00;  3.9936961E+04;  1.6036643E-01;  0.0000000E+00; -7.0185259E-02;  2.9958633E+02;
  6.8035871E-01;  9.9999998E-03; -9.9955285E-03;6623;  3.4454960E-02;  0.0000000E+00;  9.8763616E-04;  1.0001862E+03;  1.1009508E-01;  1.5426698E+02;3; -1.7227011E+01;  0.0000000E+00; -3.4434557E-01;0;  9.0746067E-02;  3.3023523E+04;  0.0000000E+00; -4.3459623E-03;  4.0000000E+04;  0.0000000E+00;  3.9936762E+04;  1.6202910E-01;  0.0000000E+00; -7.1283035E-02;  2.6447064E+02;
  6.8035460E-01;  9.9999998E-03;  3.7376968E-10;6624;  3.4614798E-02;  0.0000000E+00;  7.6925426E-09;  1.0001844E+03;  1.1009413E-01;  1.5278555E+02;3; -1.7303459E+01;  0.0000000E+00;  1.5842168E-05;0;  9.0935655E-02;  3.3024078E+04;  0.0000000E+00; -3.4723429E-11;  4.0000000E+04;  0.0000000E+00;  3.9936680E+04;  1.6258401E-01;  0.0000000E+00; -7.1648352E-02;  2.5159741E+02;
  6.8035871E-01;  9.9999998E-03;  9.9955294E-03;6625;  3.4454960E-02;  0.0000000E+00; -9.8762382E-04;  1.0001862E+03;  1.1009508E-01;  1.5426698E+02;3; -1.7227085E+01;  0.0000000E+00;  3.4436095E-01;0;  9.0745978E-02;  3.3023523E+04;  0.0000000E+00; -4.3442422E-03;  4.0000000E+04;  0.0000000E+00;  3.9936762E+04;  1.6202900E-01;  0.0000000E+00; -7.1283020E-02;  2.6446265E+02;
  6.8037128E-01;  9.9999998E-03;  1.9990640E-02;6626;  3.3980154E-02;  0.0000000E+00; -1.9670369E-03;  1.0001852E+03;  1.1009681E-01;  1.5347688E+02;3; -1.7115238E+01;  0.0000000E+00;  6.8762565E-01;0;  9.0180986E-02;  3.3021945E+04;  0.0000000E+00; -1.7571772E-02;  4.0000000E+04;  0.0000000E+00;  3.9936965E+04;  1.6036624E-01;  0.0000000E+00; -7.0185252E-02;  2.9958398E+02;
  6.8039137E-01;  9.9999998E-03;  2.9985275E-02;6627;  3.3205722E-02;  0.0000000E+00; -2.9458229E-03;  1.0001865E+03;  1.1010028E-01;  1.5446451E+02;3; -1.6928726E+01;  0.0000000E+00;  1.0301855E+00;0;  8.9251697E-02;  3.3019781E+04;  0.0000000E+00; -4.0159386E-02;  4.0000000E+04;  0.0000000E+00;  3.9937352E+04;  1.5760294E-01;  0.0000000E+00; -6.8351239E-02;  3.4679663E+02;
  6.8041813E-01;  9.9999998E-03;  3.9979562E-02;6628;  3.2135408E-02;  0.0000000E+00; -3.8997903E-03;  1.0002023E+03;  1.1010469E-01;  1.6759991E+02;3; -1.6627396E+01;  0.0000000E+00;  1.3707749E+00;0;  8.7961696E-02;  3.3017355E+04;  0.0000000E+00; -7.2552182E-02;  4.0000000E+04;  0.0000000E+00;  3.9937535E+04;  1.5373950E-01;  0.0000000E+00; -6.5777801E-02;  3.9228494E+02;
  6.8045062E-01;  9.9999998E-03;  4.9973711E-02;6629;  3.0782569E-02;  0.0000000E+00; -4.8182542E-03;  1.0002270E+03;  1.1011063E-01;  1.8804375E+02;3; -1.6250858E+01;  0.0000000E+00;  1.6994035E+00;0;  8.6312272E-02;  3.3015137E+04;  0.0000000E+00; -1.1465539E-01;  4.0000000E+04;  0.0000000E+00;  3.9937559E+04;  1.4877933E-01;  0.0000000E+00; -6.2467061E-02;  4.2439514E+02;
  6.8048781E-01;  9.9999998E-03;  5.9968214E-02;6630;  2.9175295E-02;  0.0000000E+00; -5.7065710E-03;  1.0002715E+03;  1.1011732E-01;  2.2488216E+02;3; -1.5795259E+01;  0.0000000E+00;  2.0143585E+00;0;  8.4296726E-02;  3.3013883E+04;  0.0000000E+00; -1.6525050E-01;  4.0000000E+04;  0.0000000E+00;  3.9937020E+04;  1.4273068E-01;  0.0000000E+00; -5.8433957E-02;  4.4145190E+02;
  6.9128311E-01;  9.9999998E-03; -9.9999577E-02;6675;  2.0169932E-02;  0.0000000E+00;  7.4937651E-03;  9.9970520E+02;  1.1264547E-01; -2.4423950E+02;3; -1.3467077E+01;  0.0000000E+00; -2.5333934E+00;0;  3.2908611E-02;  3.1522277E+04;  0.0000000E+00; -1.9746825E-01;  4.0000000E+04;  0.0000000E+00;  3.9919637E+04;  6.4264312E-02;  0.0000000E+00; -3.1355701E-02;  4.2834485E+02;
  6.9122332E-01;  9.9999998E-03; -8.9993693E-02;6676;  2.2682786E-02;  0.0000000E+00;  6.9250059E-03;  9.9945819E+02;  1.1262806E-01; -4.4887527E+02;3; -1.4206591E+01;  0.0000000E+00; -2.3606672E+00;0;  3.5183124E-02;  3.1515588E+04;  0.0000000E+00; -1.8552798E-01;  4.0000000E+04;  0.0000000E+00;  3.9920770E+04;  7.2381116E-02;  0.0000000E+00; -3.7197992E-02;  4.7052643E+02;
  6.9115543E-01;  9.9999998E-03; -7.9989873E-02;6677;  2.4985874E-02;  0.0000000E+00;  6.2970943E-03;  9.9924298E+02;  1.1261085E-01; -6.2719086E+02;3; -1.4886662E+01;  0.0000000E+00; -2.1400738E+00;0;  3.7066359E-02;  3.1511018E+04;  0.0000000E+00; -1.6118987E-01;  4.0000000E+04;  0.0000000E+00;  3.9921949E+04;  7.9702497E-02;  0.0000000E+00; -4.2636137E-02;  5.3569348E+02;
  6.9108242E-01;  9.9999998E-03; -6.9987282E-02;6678;  2.7069893E-02;  0.0000000E+00;  5.6150681E-03;  9.9906689E+02;  1.1259457E-01; -7.7306305E+02;3; -1.5504411E+01;  0.0000000E+00; -1.9248632E+00;0;  3.8652379E-02;  3.1508793E+04;  0.0000000E+00; -1.3023433E-01;  4.0000000E+04;  0.0000000E+00;  3.9922719E+04;  8.6206585E-02;  0.0000000E+00; -4.7554206E-02;  6.0581061E+02;
  6.9100857E-01;  9.9999998E-03; -5.9986055E-02;6679;  2.8920950E-02;  0.0000000E+00;  4.8910091E-03;  9.9892847E+02;  1.1257912E-01; -8.8772626E+02;3; -1.6046053E+01;  0.0000000E+00; -1.6712496E+00;0;  4.0003832E-02;  3.1508621E+04;  0.0000000E+00; -9.7802624E-02;  4.0000000E+04;  0.0000000E+00;  3.9923598E+04;  9.1873154E-02;  0.0000000E+00; -5.1869322E-02;  6.5933728E+02;
  6.9093782E-01;  9.9999998E-03; -4.9986348E-02;6680;  3.0527078E-02;  0.0000000E+00;  4.1302238E-03;  9.9882764E+02;  1.1256533E-01; -9.7127930E+02;3; -1.6515450E+01;  0.0000000E+00; -1.4213696E+00;0;  4.1158289E-02;  3.1510199E+04;  0.0000000E+00; -6.7787610E-02;  4.0000000E+04;  0.0000000E+00;  3.9923969E+04;  9.6689701E-02;  0.0000000E+00; -5.5531412E-02;  6.8408887E+02;
  6.9087452E-01;  9.9999998E-03; -3.9988022E-02;6681;  3.1867955E-02;  0.0000000E+00;  3.3371269E-03;  9.9875378E+02;  1.1255291E-01; -1.0324626E+03;3; -1.6911705E+01;  0.0000000E+00; -1.1495103E+00;0;  4.2124614E-02;  3.1512748E+04;  0.0000000E+00; -4.2621102E-02;  4.0000000E+04;  0.0000000E+00;  3.9924020E+04;  1.0064193E-01;  0.0000000E+00; -5.8517314E-02;  6.7932892E+02;
  6.9082189E-01;  9.9999998E-03; -2.9990558E-02;6682;  3.2932021E-02;  0.0000000E+00;  2.5217754E-03;  9.9870691E+02;  1.1254330E-01; -1.0712762E+03;3; -1.7193054E+01;  0.0000000E+00; -8.7715995E-01;0;  4.2898867E-02;  3.1515691E+04;  0.0000000E+00; -2.3375789E-02;  4.0000000E+04;  0.0000000E+00;  3.9923844E+04;  1.0372265E-01;  0.0000000E+00; -6.0823787E-02;  6.5336572E+02;
  6.9078255E-01;  9.9999998E-03; -1.9993506E-02;6683;  3.3700533E-02;  0.0000000E+00;  1.6886167E-03;  9.9867651E+02;  1.1253632E-01; -1.0964607E+03;3; -1.7394886E+01;  0.0000000E+00; -5.9815925E-01;0;  4.3466192E-02;  3.1518209E+04;  0.0000000E+00; -1.0134161E-02;  4.0000000E+04;  0.0000000E+00;  3.9923602E+04;  1.0592476E-01;  0.0000000E+00; -6.2458571E-02;  6.1967993E+02;
  6.9075823E-01;  9.9999998E-03; -9.9966684E-03;6684;  3.4164567E-02;  0.0000000E+00;  8.4252725E-04;  9.9866016E+02;  1.1253200E-01; -1.1100405E+03;3; -1.7533266E+01;  0.0000000E+00; -2.9958290E-01;0;  4.3813884E-02;  3.1520004E+04;  0.0000000E+00; -2.4892185E-03;  4.0000000E+04;  0.0000000E+00;  3.9923309E+04;  1.0724711E-01;  0.0000000E+00; -6.3433222E-02;  5.9238855E+02;
  6.9074988E-01;  9.9999998E-03;  3.3265687E-10;6685;  3.4320675E-02;  0.0000000E+00;  5.9419936E-09;  9.9865613E+02;  1.1253030E-01; -1.1133490E+03;3; -1.7572193E+01;  0.0000000E+00; -2.4285655E-06;0;  4.3931730E-02;  3.1520648E+04;  0.0000000E+00; -3.1745873E-11;  4.0000000E+04;  0.0000000E+00;  3.9923332E+04;  1.0768870E-01;  0.0000000E+00; -6.3756965E-02;  5.8198322E+02;
  6.9075823E-01;  9.9999998E-03;  9.9966694E-03;6686;  3.4164567E-02;  0.0000000E+00; -8.4251561E-04;  9.9866003E+02;  1.1253189E-01; -1.1101393E+03;3; -1.7533268E+01;  0.0000000E+00;  2.9958743E-01;0;  4.3813832E-02;  3.1520012E+04;  0.0000000E+00; -2.4876248E-03;  4.0000000E+04;  0.0000000E+00;  3.9923309E+04;  1.0724705E-01;  0.0000000E+00; -6.3433215E-02;  5.9239142E+02;
  6.9078255E-01;  9.9999998E-03;  1.9993508E-02;6687;  3.3700537E-02;  0.0000000E+00; -1.6886068E-03;  9.9867639E+02;  1.1253625E-01; -1.0965594E+03;3; -1.7394880E+01;  0.0000000E+00;  5.9814531E-01;0;  4.3466080E-02;  3.1518213E+04;  0.0000000E+00; -1.0131335E-02;  4.0000000E+04;  0.0000000E+00;  3.9923602E+04;  1.0592472E-01;  0.0000000E+00; -6.2458638E-02;  6.1967236E+02;
  6.9082189E-01;  9.9999998E-03;  2.9990559E-02;6688;  3.2932032E-02;  0.0000000E+00; -2.5217622E-03;  9.9870679E+02;  1.1254327E-01; -1.0714244E+03;3; -1.7193045E+01;  0.0000000E+00;  8.7719345E-01;0;  4.2898852E-02;  3.1515693E+04;  0.0000000E+00; -2.3372279E-02;  4.0000000E+04;  0.0000000E+00;  3.9923848E+04;  1.0372260E-01;  0.0000000E+00; -6.0823750E-02;  6.5336493E+02;
  6.9087452E-01;  9.9999998E-03;  3.9988022E-02;6689;  3.1867974E-02;  0.0000000E+00; -3.3371164E-03;  9.9875385E+02;  1.1255290E-01; -1.0324132E+03;3; -1.6911745E+01;  0.0000000E+00;  1.1495103E+00;0;  4.2124532E-02;  3.1512752E+04;  0.0000000E+00; -4.2616233E-02;  4.0000000E+04;  0.0000000E+00;  3.9924016E+04;  1.0064194E-01;  0.0000000E+00; -5.8517411E-02;  6.7929950E+02;
  6.9093782E-01;  9.9999998E-03;  4.9986351E-02;6690;  3.0527096E-02;  0.0000000E+00; -4.1302131E-03;  9.9882764E+02;  1.1256533E-01; -9.7127930E+02;3; -1.6515446E+01;  0.0000000E+00;  1.4213243E+00;0;  4.1158218E-02;  3.1510201E+04;  0.0000000E+00; -6.7784637E-02;  4.0000000E+04;  0.0000000E+00;  3.9923969E+04;  9.6689671E-02;  0.0000000E+00; -5.5531453E-02;  6.8408655E+02;
  6.9100857E-01;  9.9999998E-03;  5.9986055E-02;6691;  2.8920965E-02;  0.0000000E+00; -4.8909988E-03;  9.9892847E+02;  1.1257912E-01; -8.8772626E+02;3; -1.6046028E+01;  0.0000000E+00;  1.6712284E+00;0;  4.0003642E-02;  3.1508623E+04;  0.0000000E+00; -9.7802125E-02;  4.0000000E+04;  0.0000000E+00;  3.9923602E+04;  9.1872998E-02;  0.0000000E+00; -5.1869355E-02;  6.5934949E+02;
  7.0346707E-01;  9.9999998E-03; -1.0016005E-01;6736;  1.9554486E-02;  0.0000000E+00;  6.1402442E-03;  9.9871631E+02;  1.1572332E-01; -1.0635229E+03;3; -1.3628335E+01;  0.0000000E+00; -1.9413471E+00;0; -8.8649495E-03;  2.9826047E+04;  0.0000000E+00;  7.6435283E-02;  4.0000000E+04;  0.0000000E+00;  3.9905434E+04;  1.5589791E-02;  0.0000000E+00; -2.4454741E-02;  7.2578955E+02;
  7.0344627E-01;  9.9999998E-03; -9.0145037E-02;6737;  2.2071924E-02;  0.0000000E+00;  5.6738579E-03;  9.9838928E+02;  1.1571142E-01; -1.3344282E+03;3; -1.4371273E+01;  0.0000000E+00; -1.7731922E+00;0; -8.0175158E-03;  2.9812621E+04;  0.0000000E+00;  5.1093977E-02;  4.0000000E+04;  0.0000000E+00;  3.9905832E+04;  2.1421578E-02;  0.0000000E+00; -2.9439094E-02;  7.9283032E+02;
  7.0341086E-01;  9.9999998E-03; -8.0131486E-02;6738;  2.4374103E-02;  0.0000000E+00;  5.1425602E-03;  9.9809308E+02;  1.1569832E-01; -1.5798528E+03;3; -1.5056507E+01;  0.0000000E+00; -1.6176771E+00;0; -7.3725246E-03;  2.9801852E+04;  0.0000000E+00;  3.4266844E-02;  4.0000000E+04;  0.0000000E+00;  3.9906445E+04;  2.6645679E-02;  0.0000000E+00; -3.4018204E-02;  8.7671436E+02;
  7.0336324E-01;  9.9999998E-03; -7.0118994E-02;6739;  2.6455576E-02;  0.0000000E+00;  4.5740814E-03;  9.9783911E+02;  1.1568467E-01; -1.7902660E+03;3; -1.5675344E+01;  0.0000000E+00; -1.4394343E+00;0; -6.8374760E-03;  2.9793943E+04;  0.0000000E+00;  2.3496436E-02;  4.0000000E+04;  0.0000000E+00;  3.9906938E+04;  3.1265359E-02;  0.0000000E+00; -3.8102835E-02;  9.5759723E+02;
  7.0330727E-01;  9.9999998E-03; -6.0106583E-02;6740;  2.8304866E-02;  0.0000000E+00;  3.9745802E-03;  9.9762604E+02;  1.1567078E-01; -1.9667544E+03;3; -1.6222092E+01;  0.0000000E+00; -1.2630039E+00;0; -6.3564889E-03;  2.9788896E+04;  0.0000000E+00;  1.6547795E-02;  4.0000000E+04;  0.0000000E+00;  3.9907512E+04;  3.5280686E-02;  0.0000000E+00; -4.1637175E-02;  1.0196492E+03;
  7.0324773E-01;  9.9999998E-03; -5.0093528E-02;6741;  2.9908260E-02;  0.0000000E+00;  3.3509149E-03;  9.9746472E+02;  1.1565778E-01; -2.1004294E+03;3; -1.6685907E+01;  0.0000000E+00; -1.0749378E+00;0; -5.9049055E-03;  2.9786387E+04;  0.0000000E+00;  1.1727915E-02;  4.0000000E+04;  0.0000000E+00;  3.9907734E+04;  3.8690735E-02;  0.0000000E+00; -4.4595640E-02;  1.0546039E+03;
  7.0318967E-01;  9.9999998E-03; -4.0079366E-02;6742;  3.1249028E-02;  0.0000000E+00;  2.7067701E-03;  9.9733862E+02;  1.1564524E-01; -2.2048706E+03;3; -1.7090580E+01;  0.0000000E+00; -8.6857694E-01;0; -5.4844990E-03;  2.9785838E+04;  0.0000000E+00;  7.9867961E-03;  4.0000000E+04;  0.0000000E+00;  3.9907824E+04;  4.1492209E-02;  0.0000000E+00; -4.6976708E-02;  1.0622714E+03;
  7.0313847E-01;  9.9999998E-03; -3.0063089E-02;6743;  3.2313894E-02;  0.0000000E+00;  2.0467078E-03;  9.9724762E+02;  1.1563516E-01; -2.2802756E+03;3; -1.7402052E+01;  0.0000000E+00; -6.6706496E-01;0; -5.1154010E-03;  2.9786439E+04;  0.0000000E+00;  4.8573376E-03;  4.0000000E+04;  0.0000000E+00;  3.9907867E+04;  4.3679379E-02;  0.0000000E+00; -4.8794780E-02;  1.0496095E+03;
  7.0309830E-01;  9.9999998E-03; -2.0044001E-02;6744;  3.3084191E-02;  0.0000000E+00;  1.3711981E-03;  9.9718719E+02;  1.1562708E-01; -2.3303481E+03;3; -1.7598135E+01;  0.0000000E+00; -4.4307008E-01;0; -4.8257560E-03;  2.9787500E+04;  0.0000000E+00;  2.3193019E-03;  4.0000000E+04;  0.0000000E+00;  3.9907488E+04;  4.5245651E-02;  0.0000000E+00; -5.0071407E-02;  1.0277876E+03;
  7.0307291E-01;  9.9999998E-03; -1.0022635E-02;6745;  3.3551697E-02;  0.0000000E+00;  6.8899890E-04;  9.9715668E+02;  1.1562194E-01; -2.3556313E+03;3; -1.7722504E+01;  0.0000000E+00; -2.3156175E-01;0; -4.6403669E-03;  2.9788412E+04;  0.0000000E+00;  6.0921360E-04;  4.0000000E+04;  0.0000000E+00;  3.9907316E+04;  4.6186935E-02;  0.0000000E+00; -5.0827302E-02;  1.0087280E+03;
  7.0306414E-01;  9.9999998E-03; -1.8521493E-11;6746;  3.3705402E-02;  0.0000000E+00;  6.1674550E-09;  9.9714557E+02;  1.1562067E-01; -2.3648164E+03;3; -1.7773497E+01;  0.0000000E+00;  1.0490767E-05;0; -4.5773424E-03;  2.9788756E+04;  0.0000000E+00; -2.5755379E-11;  4.0000000E+04;  0.0000000E+00;  3.9907367E+04;  4.6500117E-02;  0.0000000E+00; -5.1077459E-02;  1.0012476E+03;
  7.0307291E-01;  9.9999998E-03;  1.0022635E-02;6747;  3.3551700E-02;  0.0000000E+00; -6.8898726E-04;  9.9715674E+02;  1.1562190E-01; -2.3555820E+03;3; -1.7722580E+01;  0.0000000E+00;  2.3157312E-01;0; -4.6403408E-03;  2.9788410E+04;  0.0000000E+00;  6.1029557E-04;  4.0000000E+04;  0.0000000E+00;  3.9907320E+04;  4.6186969E-02;  0.0000000E+00; -5.0827309E-02;  1.0087308E+03;
  7.0309830E-01;  9.9999998E-03;  2.0044001E-02;6748;  3.3084191E-02;  0.0000000E+00; -1.3711890E-03;  9.9718719E+02;  1.1562708E-01; -2.3303481E+03;3; -1.7598125E+01;  0.0000000E+00;  4.4307062E-01;0; -4.8258901E-03;  2.9787502E+04;  0.0000000E+00;  2.3211243E-03;  4.0000000E+04;  0.0000000E+00;  3.9907488E+04;  4.5245554E-02;  0.0000000E+00; -5.0071444E-02;  1.0277792E+03;
  7.0313847E-01;  9.9999998E-03;  3.0063089E-02;6749;  3.2313902E-02;  0.0000000E+00; -2.0466980E-03;  9.9724762E+02;  1.1563516E-01; -2.2802756E+03;3; -1.7402081E+01;  0.0000000E+00;  6.6705716E-01;0; -5.1155090E-03;  2.9786439E+04;  0.0000000E+00;  4.8596472E-03;  4.0000000E+04;  0.0000000E+00;  3.9907867E+04;  4.3679304E-02;  0.0000000E+00; -4.8794813E-02;  1.0495864E+03;
  7.0318967E-01;  9.9999998E-03;  4.0079366E-02;6750;  3.1249035E-02;  0.0000000E+00; -2.7067589E-03;  9.9733862E+02;  1.1564524E-01; -2.2048706E+03;3; -1.7090761E+01;  0.0000000E+00;  8.6857474E-01;0; -5.4846592E-03;  2.9785844E+04;  0.0000000E+00;  7.9883076E-03;  4.0000000E+04;  0.0000000E+00;  3.9907824E+04;  4.1492078E-02;  0.0000000E+00; -4.6976738E-02;  1.0622773E+03;
  7.0324773E-01;  9.9999998E-03;  5.0093524E-02;6751;  2.9908268E-02;  0.0000000E+00; -3.3509063E-03;  9.9746460E+02;  1.1565779E-01; -2.1005281E+03;3; -1.6685909E+01;  0.0000000E+00;  1.0749325E+00;0; -5.9049577E-03;  2.9786393E+04;  0.0000000E+00;  1.1730281E-02;  4.0000000E+04;  0.0000000E+00;  3.9907730E+04;  3.8690735E-02;  0.0000000E+00; -4.4595692E-02;  1.0546012E+03;
  7.0330727E-01;  9.9999998E-03;  6.0106583E-02;6752;  2.8304882E-02;  0.0000000E+00; -3.9745709E-03;  9.9762598E+02;  1.1567055E-01; -1.9668531E+03;3; -1.6222113E+01;  0.0000000E+00;  1.2630092E+00;0; -6.3565858E-03;  2.9788896E+04;  0.0000000E+00;  1.6549224E-02;  4.0000000E+04;  0.0000000E+00;  3.9907516E+04;  3.5280630E-02;  0.0000000E+00; -4.1637216E-02;  1.0196481E+03;
  7.1636605E-01;  9.9999998E-03; -1.0028283E-01;6797;  1.8567437E-02;  0.0000000E+00;  4.6237330E-03;  9.9844574E+02;  1.1930953E-01; -1.2876636E+03;3; -1.3731334E+01;  0.0000000E+00; -1.2473080E+00;0; -4.6941213E-02;  2.8066039E+04;  0.0000000E+00;  3.7292287E-01;  4.0000000E+04;  0.0000000E+00;  3.9889750E+04; -3.1047275E-02;  0.0000000E+00; -1.5893940E-02;  1.5257097E+03;
  7.1640593E-01;  9.9999998E-03; -9.0261161E-02;6798;  2.1118712E-02;  0.0000000E+00;  4.2858585E-03;  9.9810303E+02;  1.1930986E-01; -1.5716053E+03;3; -1.4487638E+01;  0.0000000E+00; -1.1358725E+00;0; -4.6652187E-02;  2.8046967E+04;  0.0000000E+00;  3.1418496E-01;  4.0000000E+04;  0.0000000E+00;  3.9889582E+04; -2.7113806E-02;  0.0000000E+00; -1.9538380E-02;  1.4871223E+03;
  7.1643066E-01;  9.9999998E-03; -8.0238350E-02;6799;  2.3448026E-02;  0.0000000E+00;  3.8843555E-03;  9.9778815E+02;  1.1930965E-01; -1.8324861E+03;3; -1.5187452E+01;  0.0000000E+00; -1.0167335E+00;0; -4.6435557E-02;  2.8030057E+04;  0.0000000E+00;  2.5591552E-01;  4.0000000E+04;  0.0000000E+00;  3.9889602E+04; -2.3657130E-02;  0.0000000E+00; -2.2778429E-02;  1.4786620E+03;
  7.1644104E-01;  9.9999998E-03; -7.0214406E-02;6800;  2.5547292E-02;  0.0000000E+00;  3.4433019E-03;  9.9751117E+02;  1.1930850E-01; -2.0619604E+03;3; -1.5822709E+01;  0.0000000E+00; -9.0597725E-01;0; -4.6221264E-02;  2.8015908E+04;  0.0000000E+00;  2.0020038E-01;  4.0000000E+04;  0.0000000E+00;  3.9889762E+04; -2.0656064E-02;  0.0000000E+00; -2.5565201E-02;  1.4889667E+03;
  7.1643871E-01;  9.9999998E-03; -6.0189411E-02;6801;  2.7407395E-02;  0.0000000E+00;  2.9787582E-03;  9.9727814E+02;  1.1930582E-01; -2.2549915E+03;3; -1.6367163E+01;  0.0000000E+00; -7.7758551E-01;0; -4.5972422E-02;  2.8004641E+04;  0.0000000E+00;  1.4907378E-01;  4.0000000E+04;  0.0000000E+00;  3.9889945E+04; -1.8090542E-02;  0.0000000E+00; -2.7881881E-02;  1.5044552E+03;
  7.1642786E-01;  9.9999998E-03; -5.0163269E-02;6802;  2.9020386E-02;  0.0000000E+00;  2.5019455E-03;  9.9708746E+02;  1.1930272E-01; -2.4129619E+03;3; -1.6836773E+01;  0.0000000E+00; -6.5329587E-01;0; -4.5685593E-02;  2.7996215E+04;  0.0000000E+00;  1.0424367E-01;  4.0000000E+04;  0.0000000E+00;  3.9890008E+04; -1.5947767E-02;  0.0000000E+00; -2.9737826E-02;  1.5140948E+03;
  7.1640980E-01;  9.9999998E-03; -4.0134713E-02;6803;  3.0370915E-02;  0.0000000E+00;  2.0171183E-03;  9.9694141E+02;  1.1929891E-01; -2.5339951E+03;3; -1.7223404E+01;  0.0000000E+00; -5.2874857E-01;0; -4.5373898E-02;  2.7990543E+04;  0.0000000E+00;  6.6870645E-02;  4.0000000E+04;  0.0000000E+00;  3.9889883E+04; -1.4205735E-02;  0.0000000E+00; -3.1168163E-02;  1.5122449E+03;
  7.1638709E-01;  9.9999998E-03; -3.0103289E-02;6804;  3.1441860E-02;  0.0000000E+00;  1.5239306E-03;  9.9683179E+02;  1.1929449E-01; -2.6248071E+03;3; -1.7537907E+01;  0.0000000E+00; -4.0043193E-01;0; -4.5067705E-02;  2.7987199E+04;  0.0000000E+00;  3.7599418E-02;  4.0000000E+04;  0.0000000E+00;  3.9889773E+04; -1.2848563E-02;  0.0000000E+00; -3.2219142E-02;  1.4999646E+03;
  7.1636456E-01;  9.9999998E-03; -2.0070042E-02;6805;  3.2220080E-02;  0.0000000E+00;  1.0231575E-03;  9.9676215E+02;  1.1929078E-01; -2.6824844E+03;3; -1.7767124E+01;  0.0000000E+00; -2.7703732E-01;0; -4.4807062E-02;  2.7985652E+04;  0.0000000E+00;  1.6684070E-02;  4.0000000E+04;  0.0000000E+00;  3.9889664E+04; -1.1872048E-02;  0.0000000E+00; -3.2935012E-02;  1.4829967E+03;
  7.1634811E-01;  9.9999998E-03; -1.0035636E-02;6806;  3.2688674E-02;  0.0000000E+00;  5.1380560E-04;  9.9671820E+02;  1.1928760E-01; -2.7188782E+03;3; -1.7882109E+01;  0.0000000E+00; -1.3158199E-01;0; -4.4633325E-02;  2.7985020E+04;  0.0000000E+00;  4.1646869E-03;  4.0000000E+04;  0.0000000E+00;  3.9889648E+04; -1.1283078E-02;  0.0000000E+00; -3.3350248E-02;  1.4686680E+03;
  7.1634215E-01;  9.9999998E-03; -9.9211572E-10;6807;  3.2849275E-02;  0.0000000E+00;  5.8910037E-09;  9.9670496E+02;  1.1928634E-01; -2.7298904E+03;3; -1.7927061E+01;  0.0000000E+00;  1.5157336E-06;0; -4.4571385E-02;  2.7984904E+04;  0.0000000E+00; -1.7892823E-11;  4.0000000E+04;  0.0000000E+00;  3.9889445E+04; -1.1085214E-02;  0.0000000E+00; -3.3486169E-02;  1.4631138E+03;
  7.1634811E-01;  9.9999998E-03;  1.0035634E-02;6808;  3.2688674E-02;  0.0000000E+00; -5.1379431E-04;  9.9671826E+02;  1.1928741E-01; -2.7188289E+03;3; -1.7882120E+01;  0.0000000E+00;  1.3156280E-01;0; -4.4633389E-02;  2.7985021E+04;  0.0000000E+00;  4.1650319E-03;  4.0000000E+04;  0.0000000E+00;  3.9889645E+04; -1.1283129E-02;  0.0000000E+00; -3.3350259E-02;  1.4686587E+03;
  7.1636456E-01;  9.9999998E-03;  2.0070041E-02;6809;  3.2220088E-02;  0.0000000E+00; -1.0231478E-03;  9.9676208E+02;  1.1929079E-01; -2.6825337E+03;3; -1.7767193E+01;  0.0000000E+00;  2.7704075E-01;0; -4.4807110E-02;  2.7985660E+04;  0.0000000E+00;  1.6684920E-02;  4.0000000E+04;  0.0000000E+00;  3.9889664E+04; -1.1872072E-02;  0.0000000E+00; -3.2935038E-02;  1.4829937E+03;
  7.1638709E-01;  9.9999998E-03;  3.0103287E-02;6810;  3.1441867E-02;  0.0000000E+00; -1.5239189E-03;  9.9683185E+02;  1.1929447E-01; -2.6247578E+03;3; -1.7537952E+01;  0.0000000E+00;  4.0043795E-01;0; -4.5067780E-02;  2.7987201E+04;  0.0000000E+00;  3.7599705E-02;  4.0000000E+04;  0.0000000E+00;  3.9889773E+04; -1.2848636E-02;  0.0000000E+00; -3.2219145E-02;  1.4999680E+03;
  7.1640980E-01;  9.9999998E-03;  4.0134709E-02;6811;  3.0370921E-02;  0.0000000E+00; -2.0171087E-03;  9.9694141E+02;  1.1929891E-01; -2.5339951E+03;3; -1.7223442E+01;  0.0000000E+00;  5.2871335E-01;0; -4.5374036E-02;  2.7990541E+04;  0.0000000E+00;  6.6870473E-02;  4.0000000E+04;  0.0000000E+00;  3.9889875E+04; -1.4205796E-02;  0.0000000E+00; -3.1168239E-02;  1.5122509E+03;
  7.1642786E-01;  9.9999998E-03;  5.0163269E-02;6812;  2.9020395E-02;  0.0000000E+00; -2.5019313E-03;  9.9708734E+02;  1.1930272E-01; -2.4130605E+03;3; -1.6836773E+01;  0.0000000E+00;  6.5331864E-01;0; -4.5685649E-02;  2.7996211E+04;  0.0000000E+00;  1.0424258E-01;  4.0000000E+04;  0.0000000E+00;  3.9890008E+04; -1.5947811E-02;  0.0000000E+00; -2.9737836E-02;  1.5140802E+03;
  7.1643871E-01;  9.9999998E-03;  6.0189407E-02;6813;  2.7407400E-02;  0.0000000E+00; -2.9787468E-03;  9.9727802E+02;  1.1930583E-01; -2.2550903E+03;3; -1.6367237E+01;  0.0000000E+00;  7.7759016E-01;0; -4.5972541E-02;  2.8004633E+04;  0.0000000E+00;  1.4907388E-01;  4.0000000E+04;  0.0000000E+00;  3.9889945E+04; -1.8090671E-02;  0.0000000E+00; -2.7881868E-02;  1.5044546E+03;
  7.2845685E-01;  9.9999998E-03; -1.0028546E-01;6858;  1.7356740E-02;  0.0000000E+00;  3.0334408E-03;  9.9843854E+02;  1.2296682E-01; -1.2936379E+03;3; -1.3827969E+01;  0.0000000E+00; -5.4106313E-01;0; -7.5414620E-02;  2.6440182E+04;  0.0000000E+00;  5.6753170E-01;  4.0000000E+04;  0.0000000E+00;  3.9873820E+04; -6.8547443E-02;  0.0000000E+00; -6.8671759E-03;  2.2797742E+03;
  7.2849798E-01;  9.9999998E-03; -9.0258293E-02;6859;  1.9963272E-02;  0.0000000E+00;  2.8388274E-03;  9.9814136E+02;  1.2296658E-01; -1.5398523E+03;3; -1.4578486E+01;  0.0000000E+00; -4.6638724E-01;0; -7.4616663E-02;  2.6424967E+04;  0.0000000E+00;  4.9299675E-01;  4.0000000E+04;  0.0000000E+00;  3.9873367E+04; -6.5691657E-02;  0.0000000E+00; -8.9250077E-03;  2.1801367E+03;
  7.2852439E-01;  9.9999998E-03; -8.0230102E-02;6860;  2.2342425E-02;  0.0000000E+00;  2.5855221E-03;  9.9786877E+02;  1.2296519E-01; -1.7656724E+03;3; -1.5283152E+01;  0.0000000E+00; -4.0189013E-01;0; -7.3821679E-02;  2.6411240E+04;  0.0000000E+00;  4.0951499E-01;  4.0000000E+04;  0.0000000E+00;  3.9873195E+04; -6.3224435E-02;  0.0000000E+00; -1.0597240E-02;  2.0995557E+03;
  7.2853619E-01;  9.9999998E-03; -7.0201494E-02;6861;  2.4481537E-02;  0.0000000E+00;  2.2901441E-03;  9.9762488E+02;  1.2296373E-01; -1.9677400E+03;3; -1.5927948E+01;  0.0000000E+00; -3.4341636E-01;0; -7.2997868E-02;  2.6399686E+04;  0.0000000E+00;  3.2360899E-01;  4.0000000E+04;  0.0000000E+00;  3.9873016E+04; -6.1115004E-02;  0.0000000E+00; -1.1882860E-02;  2.0395448E+03;
  7.2853643E-01;  9.9999998E-03; -6.0172811E-02;6862;  2.6374219E-02;  0.0000000E+00;  1.9764381E-03;  9.9742297E+02;  1.2296155E-01; -2.1349939E+03;3; -1.6479866E+01;  0.0000000E+00; -2.8651965E-01;0; -7.2147995E-02;  2.6390238E+04;  0.0000000E+00;  2.4160247E-01;  4.0000000E+04;  0.0000000E+00;  3.9873113E+04; -5.9342332E-02;  0.0000000E+00; -1.2805660E-02;  1.9970585E+03;
  7.2852814E-01;  9.9999998E-03; -5.0145131E-02;6863;  2.8009074E-02;  0.0000000E+00;  1.6524378E-03;  9.9725549E+02;  1.2295843E-01; -2.2737549E+03;3; -1.6958204E+01;  0.0000000E+00; -2.3657350E-01;0; -7.1299575E-02;  2.6383195E+04;  0.0000000E+00;  1.6848573E-01;  4.0000000E+04;  0.0000000E+00;  3.9873125E+04; -5.7885885E-02;  0.0000000E+00; -1.3413689E-02;  1.9661748E+03;
  7.2851545E-01;  9.9999998E-03; -4.0118877E-02;6864;  2.9374508E-02;  0.0000000E+00;  1.3261093E-03;  9.9712573E+02;  1.2295561E-01; -2.3812578E+03;3; -1.7354195E+01;  0.0000000E+00; -1.8367007E-01;0; -7.0500150E-02;  2.6378029E+04;  0.0000000E+00;  1.0743900E-01;  4.0000000E+04;  0.0000000E+00;  3.9872867E+04; -5.6729395E-02;  0.0000000E+00; -1.3770754E-02;  1.9412878E+03;
  7.2850043E-01;  9.9999998E-03; -3.0091945E-02;6865;  3.0456752E-02;  0.0000000E+00;  9.9922006E-04;  9.9702930E+02;  1.2295299E-01; -2.4611565E+03;3; -1.7666971E+01;  0.0000000E+00; -1.3444966E-01;0; -6.9802046E-02;  2.6374713E+04;  0.0000000E+00;  5.9969027E-02;  4.0000000E+04;  0.0000000E+00;  3.9872773E+04; -5.5850767E-02;  0.0000000E+00; -1.3951278E-02;  1.9195267E+03;
  7.2848558E-01;  9.9999998E-03; -2.0063451E-02;6866;  3.1241745E-02;  0.0000000E+00;  6.7007291E-04;  9.9696295E+02;  1.2295038E-01; -2.5161177E+03;3; -1.7895649E+01;  0.0000000E+00; -9.1058679E-02;0; -6.9257185E-02;  2.6372826E+04;  0.0000000E+00;  2.6431119E-02;  4.0000000E+04;  0.0000000E+00;  3.9872629E+04; -5.5231828E-02;  0.0000000E+00; -1.4025358E-02;  1.9011765E+03;
  7.2847456E-01;  9.9999998E-03; -1.0032983E-02;6867;  3.1718150E-02;  0.0000000E+00;  3.3739532E-04;  9.9692358E+02;  1.2294806E-01; -2.5487585E+03;3; -1.8036596E+01;  0.0000000E+00; -3.9111596E-02;0; -6.8910465E-02;  2.6371975E+04;  0.0000000E+00;  6.5671420E-03;  4.0000000E+04;  0.0000000E+00;  3.9872535E+04; -5.4863062E-02;  0.0000000E+00; -1.4047401E-02;  1.8882878E+03;
  7.2847068E-01;  9.9999998E-03; -9.5610631E-10;6868;  3.1880006E-02;  0.0000000E+00;  5.1916196E-09;  9.9691028E+02;  1.2294712E-01; -2.5597705E+03;3; -1.8095455E+01;  0.0000000E+00; -5.7102716E-06;0; -6.8791546E-02;  2.6371707E+04;  0.0000000E+00; -7.7409953E-12;  4.0000000E+04;  0.0000000E+00;  3.9872457E+04; -5.4740947E-02;  0.0000000E+00; -1.4050599E-02;  1.8835549E+03;
  7.2847456E-01;  9.9999998E-03;  1.0032982E-02;6869;  3.1718150E-02;  0.0000000E+00; -3.3738508E-04;  9.9692377E+02;  1.2294836E-01; -2.5486104E+03;3; -1.8036688E+01;  0.0000000E+00;  3.9098218E-02;0; -6.8910554E-02;  2.6371975E+04;  0.0000000E+00;  6.5668863E-03;  4.0000000E+04;  0.0000000E+00;  3.9872535E+04; -5.4863155E-02;  0.0000000E+00; -1.4047403E-02;  1.8882786E+03;
  7.2848558E-01;  9.9999998E-03;  2.0063449E-02;6870;  3.1241748E-02;  0.0000000E+00; -6.7006296E-04;  9.9696289E+02;  1.2295009E-01; -2.5161670E+03;3; -1.7895613E+01;  0.0000000E+00;  9.1048010E-02;0; -6.9257326E-02;  2.6372830E+04;  0.0000000E+00;  2.6430620E-02;  4.0000000E+04;  0.0000000E+00;  3.9872629E+04; -5.5231977E-02;  0.0000000E+00; -1.4025351E-02;  1.9011656E+03;
  7.2850043E-01;  9.9999998E-03;  3.0091943E-02;6871;  3.0456759E-02;  0.0000000E+00; -9.9920970E-04;  9.9702954E+02;  1.2295303E-01; -2.4609590E+03;3; -1.7666977E+01;  0.0000000E+00;  1.3444118E-01;0; -6.9802068E-02;  2.6374713E+04;  0.0000000E+00;  5.9967544E-02;  4.0000000E+04;  0.0000000E+00;  3.9872770E+04; -5.5850774E-02;  0.0000000E+00; -1.3951293E-02;  1.9195519E+03;
  7.2851545E-01;  9.9999998E-03;  4.0118873E-02;6872;  2.9374521E-02;  0.0000000E+00; -1.3260992E-03;  9.9712573E+02;  1.2295561E-01; -2.3812578E+03;3; -1.7354233E+01;  0.0000000E+00;  1.8365555E-01;0; -7.0500247E-02;  2.6378029E+04;  0.0000000E+00;  1.0743715E-01;  4.0000000E+04;  0.0000000E+00;  3.9872859E+04; -5.6729492E-02;  0.0000000E+00; -1.3770754E-02;  1.9413002E+03;
  7.2852814E-01;  9.9999998E-03;  5.0145131E-02;6873;  2.8009081E-02;  0.0000000E+00; -1.6524262E-03;  9.9725543E+02;  1.2295842E-01; -2.2738044E+03;3; -1.6958241E+01;  0.0000000E+00;  2.3657088E-01;0; -7.1299702E-02;  2.6383189E+04;  0.0000000E+00;  1.6848455E-01;  4.0000000E+04;  0.0000000E+00;  3.9873125E+04; -5.7886023E-02;  0.0000000E+00; -1.3413679E-02;  1.9661810E+03;
  7.2853643E-01;  9.9999998E-03;  6.0172807E-02;6874;  2.6374228E-02;  0.0000000E+00; -1.9764265E-03;  9.9742297E+02;  1.2296101E-01; -2.1349939E+03;3; -1.6479885E+01;  0.0000000E+00;  2.8654155E-01;0; -7.2148122E-02;  2.6390234E+04;  0.0000000E+00;  2.4160047E-01;  4.0000000E+04;  0.0000000E+00;  3.9873113E+04; -5.9342474E-02;  0.0000000E+00; -1.2805648E-02;  1.9970474E+03;
  7.4058378E-01;  9.9999998E-03; -1.0027649E-01;6919;  1.5866889E-02;  0.0000000E+00;  1.2355706E-03;  9.9823688E+02;  1.2681291E-01; -1.4606932E+03;3; -1.3886847E+01;  0.0000000E+00;  2.3881581E-01;0; -9.6398398E-02;  2.4867652E+04;  0.0000000E+00;  6.2256932E-01;  4.0000000E+04;  0.0000000E+00;  3.9857035E+04; -9.9483036E-02;  0.0000000E+00;  3.0846337E-03;  2.8874658E+03;
  7.4064052E-01;  9.9999998E-03; -9.0243652E-02;6920;  1.8535705E-02;  0.0000000E+00;  1.1887924E-03;  9.9804175E+02;  1.2681557E-01; -1.6223671E+03;3; -1.4648986E+01;  0.0000000E+00;  2.7914599E-01;0; -9.4378635E-02;  2.4856158E+04;  0.0000000E+00;  5.5367798E-01;  4.0000000E+04;  0.0000000E+00;  3.9856602E+04; -9.7348861E-02;  0.0000000E+00;  2.9702242E-03;  2.7829622E+03;
  7.4068397E-01;  9.9999998E-03; -8.0210507E-02;6921;  2.0976407E-02;  0.0000000E+00;  1.0985518E-03;  9.9785797E+02;  1.2681848E-01; -1.7746090E+03;3; -1.5359078E+01;  0.0000000E+00;  3.0659530E-01;0; -9.2337810E-02;  2.4845309E+04;  0.0000000E+00;  4.6654773E-01;  4.0000000E+04;  0.0000000E+00;  3.9856277E+04; -9.5559120E-02;  0.0000000E+00;  3.2213088E-03;  2.6746011E+03;
  7.4071544E-01;  9.9999998E-03; -7.0177689E-02;6922;  2.3168130E-02;  0.0000000E+00;  9.7103015E-04;  9.9769421E+02;  1.2682062E-01; -1.9103082E+03;3; -1.6008524E+01;  0.0000000E+00;  3.1688005E-01;0; -9.0294600E-02;  2.4835596E+04;  0.0000000E+00;  3.7114266E-01;  4.0000000E+04;  0.0000000E+00;  3.9855965E+04; -9.4078831E-02;  0.0000000E+00;  3.7842290E-03;  2.5726125E+03;
  7.4073899E-01;  9.9999998E-03; -6.0147557E-02;6923;  2.5101880E-02;  0.0000000E+00;  8.2163571E-04;  9.9755414E+02;  1.2682426E-01; -2.0263539E+03;3; -1.6558205E+01;  0.0000000E+00;  3.3453771E-01;0; -8.8297635E-02;  2.4826947E+04;  0.0000000E+00;  2.7733120E-01;  4.0000000E+04;  0.0000000E+00;  3.9855676E+04; -9.2883624E-02;  0.0000000E+00;  4.5859884E-03;  2.4846377E+03;
  7.4075288E-01;  9.9999998E-03; -5.0120141E-02;6924;  2.6767302E-02;  0.0000000E+00;  6.6748483E-04;  9.9744379E+02;  1.2682761E-01; -2.1177583E+03;3; -1.7044781E+01;  0.0000000E+00;  3.2238859E-01;0; -8.6410530E-02;  2.4820064E+04;  0.0000000E+00;  1.9279036E-01;  4.0000000E+04;  0.0000000E+00;  3.9855434E+04; -9.1936603E-02;  0.0000000E+00;  5.5260728E-03;  2.4138652E+03;
  7.4075967E-01;  9.9999998E-03; -4.0095147E-02;6925;  2.8156959E-02;  0.0000000E+00;  5.2636216E-04;  9.9735864E+02;  1.2682945E-01; -2.1883240E+03;3; -1.7444530E+01;  0.0000000E+00;  2.9263380E-01;0; -8.4714219E-02;  2.4814777E+04;  0.0000000E+00;  1.2226782E-01;  4.0000000E+04;  0.0000000E+00;  3.9855188E+04; -9.1211885E-02;  0.0000000E+00;  6.4976662E-03;  2.3606199E+03;
  7.4076253E-01;  9.9999998E-03; -3.0072277E-02;6926;  2.9257480E-02;  0.0000000E+00;  3.9686597E-04;  9.9729633E+02;  1.2683162E-01; -2.2399272E+03;3; -1.7765844E+01;  0.0000000E+00;  2.2643010E-01;0; -8.3292224E-02;  2.4811006E+04;  0.0000000E+00;  6.7847401E-02;  4.0000000E+04;  0.0000000E+00;  3.9854934E+04; -9.0685733E-02;  0.0000000E+00;  7.3935091E-03;  2.3231294E+03;
  7.4076414E-01;  9.9999998E-03; -2.0050300E-02;6927;  3.0052250E-02;  0.0000000E+00;  2.6631713E-04;  9.9725415E+02;  1.2683226E-01; -2.2748889E+03;3; -1.8018223E+01;  0.0000000E+00;  1.1538382E-01;0; -8.2218803E-02;  2.4808266E+04;  0.0000000E+00;  2.9759740E-02;  4.0000000E+04;  0.0000000E+00;  3.9854770E+04; -9.0335213E-02;  0.0000000E+00;  8.1164101E-03;  2.2985181E+03;
  7.4076498E-01;  9.9999998E-03; -1.0026720E-02;6928;  3.0531242E-02;  0.0000000E+00;  1.3323200E-04;  9.9722894E+02;  1.2683401E-01; -2.2957773E+03;3; -1.8159365E+01;  0.0000000E+00;  5.4288190E-02;0; -8.1550412E-02;  2.4806705E+04;  0.0000000E+00;  7.3730946E-03;  4.0000000E+04;  0.0000000E+00;  3.9854445E+04; -9.0135947E-02;  0.0000000E+00;  8.5855331E-03;  2.2842520E+03;
  7.4076509E-01;  9.9999998E-03; -9.3946850E-10;6929;  3.0690838E-02;  0.0000000E+00;  4.7486828E-09;  9.9722034E+02;  1.2683393E-01; -2.3028882E+03;3; -1.8229475E+01;  0.0000000E+00; -4.2644315E-06;0; -8.1323348E-02;  2.4806215E+04;  0.0000000E+00;  4.9717379E-12;  4.0000000E+04;  0.0000000E+00;  3.9854547E+04; -9.0071157E-02;  0.0000000E+00;  8.7478058E-03;  2.2795435E+03;
  7.4076498E-01;  9.9999998E-03;  1.0026718E-02;6930;  3.0531248E-02;  0.0000000E+00; -1.3322262E-04;  9.9722894E+02;  1.2683345E-01; -2.2957773E+03;3; -1.8159355E+01;  0.0000000E+00; -5.4301888E-02;0; -8.1550471E-02;  2.4806703E+04;  0.0000000E+00;  7.3723374E-03;  4.0000000E+04;  0.0000000E+00;  3.9854445E+04; -9.0135999E-02;  0.0000000E+00;  8.5855303E-03;  2.2842612E+03;
  7.4076414E-01;  9.9999998E-03;  2.0050300E-02;6931;  3.0052256E-02;  0.0000000E+00; -2.6630706E-04;  9.9725409E+02;  1.2683213E-01; -2.2749385E+03;3; -1.8018196E+01;  0.0000000E+00; -1.1539043E-01;0; -8.2218729E-02;  2.4808268E+04;  0.0000000E+00;  2.9758113E-02;  4.0000000E+04;  0.0000000E+00;  3.9854766E+04; -9.0335138E-02;  0.0000000E+00;  8.1164092E-03;  2.2985359E+03;
  7.4076253E-01;  9.9999998E-03;  3.0072276E-02;6932;  2.9257486E-02;  0.0000000E+00; -3.9685590E-04;  9.9729633E+02;  1.2683108E-01; -2.2399272E+03;3; -1.7765854E+01;  0.0000000E+00; -2.2642824E-01;0; -8.3292343E-02;  2.4811008E+04;  0.0000000E+00;  6.7845456E-02;  4.0000000E+04;  0.0000000E+00;  3.9854934E+04; -9.0685859E-02;  0.0000000E+00;  7.3935166E-03;  2.3231211E+03;
  7.4075967E-01;  9.9999998E-03;  4.0095147E-02;6933;  2.8156966E-02;  0.0000000E+00; -5.2635244E-04;  9.9735858E+02;  1.2682910E-01; -2.1883733E+03;3; -1.7444590E+01;  0.0000000E+00; -2.9264703E-01;0; -8.4714331E-02;  2.4814781E+04;  0.0000000E+00;  1.2226574E-01;  4.0000000E+04;  0.0000000E+00;  3.9855188E+04; -9.1212004E-02;  0.0000000E+00;  6.4976742E-03;  2.3606221E+03;
  7.4075288E-01;  9.9999998E-03;  5.0120141E-02;6934;  2.6767315E-02;  0.0000000E+00; -6.6747377E-04;  9.9744385E+02;  1.2682706E-01; -2.1177090E+03;3; -1.7044746E+01;  0.0000000E+00; -3.2236731E-01;0; -8.6410604E-02;  2.4820062E+04;  0.0000000E+00;  1.9278455E-01;  4.0000000E+04;  0.0000000E+00;  3.9855434E+04; -9.1936670E-02;  0.0000000E+00;  5.5260691E-03;  2.4138835E+03;
  7.4073899E-01;  9.9999998E-03;  6.0147557E-02;6935;  2.5101887E-02;  0.0000000E+00; -8.2162709E-04;  9.9755420E+02;  1.2682375E-01; -2.0263044E+03;3; -1.6558226E+01;  0.0000000E+00; -3.3452296E-01;0; -8.8297777E-02;  2.4826951E+04;  0.0000000E+00;  2.7732766E-01;  4.0000000E+04;  0.0000000E+00;  3.9855676E+04; -9.2883758E-02;  0.0000000E+00;  4.5859800E-03;  2.4846287E+03;
  7.5349545E-01;  9.9999998E-03; -1.0029714E-01;6980;  1.4012474E-02;  0.0000000E+00; -9.3915011E-04;  9.9787512E+02;  1.3107763E-01; -1.7604352E+03;3; -1.3965446E+01;  0.0000000E+00;  1.1028175E+00;0; -1.1002386E-01;  2.3274230E+04;  0.0000000E+00;  5.1665878E-01;  4.0000000E+04;  0.0000000E+00;  3.9837773E+04; -1.2462185E-01;  0.0000000E+00;  1.4597981E-02;  3.2556724E+03;
  7.5358164E-01;  9.9999998E-03; -9.0261593E-02;6981;  1.6743904E-02;  0.0000000E+00; -8.3275186E-04;  9.9780823E+02;  1.3108484E-01; -1.8158407E+03;3; -1.4739714E+01;  0.0000000E+00;  1.1181129E+00;0; -1.0595863E-01;  2.3265893E+04;  0.0000000E+00;  4.7309992E-01;  4.0000000E+04;  0.0000000E+00;  3.9837477E+04; -1.2287083E-01;  0.0000000E+00;  1.6912200E-02;  3.1949624E+03;
  7.5364327E-01;  9.9999998E-03; -8.0225095E-02;6982;  1.9249186E-02;  0.0000000E+00; -7.5609202E-04;  9.9773560E+02;  1.3108952E-01; -1.8759868E+03;3; -1.5459394E+01;  0.0000000E+00;  1.1120069E+00;0; -1.0186680E-01;  2.3258617E+04;  0.0000000E+00;  4.0508226E-01;  4.0000000E+04;  0.0000000E+00;  3.9837078E+04; -1.2142313E-01;  0.0000000E+00;  1.9556321E-02;  3.0971018E+03;
  7.5367373E-01;  9.9999998E-03; -7.0191190E-02;6983;  2.1506401E-02;  0.0000000E+00; -7.0579839E-04;  9.9766516E+02;  1.3108894E-01; -1.9343552E+03;3; -1.6089935E+01;  0.0000000E+00;  1.1072487E+00;0; -9.7837687E-02;  2.3253398E+04;  0.0000000E+00;  3.2415655E-01;  4.0000000E+04;  0.0000000E+00;  3.9836539E+04; -1.2022536E-01;  0.0000000E+00;  2.2387665E-02;  2.9754829E+03;
  7.5367582E-01;  9.9999998E-03; -6.0161579E-02;6984;  2.3496183E-02;  0.0000000E+00; -6.7443197E-04;  9.9759814E+02;  1.3108478E-01; -1.9898596E+03;3; -1.6656315E+01;  0.0000000E+00;  1.0675297E+00;0; -9.3987614E-02;  2.3250354E+04;  0.0000000E+00;  2.4189122E-01;  4.0000000E+04;  0.0000000E+00;  3.9835887E+04; -1.1924437E-01;  0.0000000E+00;  2.5256762E-02;  2.8476799E+03;
  7.5365967E-01;  9.9999998E-03; -5.0133858E-02;6985;  2.5201913E-02;  0.0000000E+00; -6.5047818E-04;  9.9754376E+02;  1.3107777E-01; -2.0349445E+03;3; -1.7129620E+01;  0.0000000E+00;  1.0268956E+00;0; -9.0443939E-02;  2.3248898E+04;  0.0000000E+00;  1.6710208E-01;  4.0000000E+04;  0.0000000E+00;  3.9835379E+04; -1.1846267E-01;  0.0000000E+00;  2.8018726E-02;  2.7316147E+03;
  7.5363564E-01;  9.9999998E-03; -4.0106114E-02;6986;  2.6614059E-02;  0.0000000E+00; -6.1474310E-04;  9.9749683E+02;  1.3107088E-01; -2.0738074E+03;3; -1.7520779E+01;  0.0000000E+00;  9.5473057E-01;0; -8.7334782E-02;  2.3248406E+04;  0.0000000E+00;  1.0501868E-01;  4.0000000E+04;  0.0000000E+00;  3.9834875E+04; -1.1786599E-01;  0.0000000E+00;  3.0531205E-02;  2.6404746E+03;
  7.5361007E-01;  9.9999998E-03; -3.0080004E-02;6987;  2.7725920E-02;  0.0000000E+00; -5.4925348E-04;  9.9746472E+02;  1.3106421E-01; -2.1004238E+03;3; -1.7817959E+01;  0.0000000E+00;  8.5582989E-01;0; -8.4779911E-02;  2.3248426E+04;  0.0000000E+00;  5.7721429E-02;  4.0000000E+04;  0.0000000E+00;  3.9834465E+04; -1.1743411E-01;  0.0000000E+00;  3.2654203E-02;  2.5786660E+03;
  7.5358790E-01;  9.9999998E-03; -2.0055851E-02;6988;  2.8530912E-02;  0.0000000E+00; -4.3948586E-04;  9.9744244E+02;  1.3105938E-01; -2.1188923E+03;3; -1.8026245E+01;  0.0000000E+00;  6.9233084E-01;0; -8.2880139E-02;  2.3248650E+04;  0.0000000E+00;  2.5121955E-02;  4.0000000E+04;  0.0000000E+00;  3.9834129E+04; -1.1714625E-01;  0.0000000E+00;  3.4266114E-02;  2.5423455E+03;
  7.5357091E-01;  9.9999998E-03; -1.0030234E-02;6989;  2.9022498E-02;  0.0000000E+00; -2.5874726E-04;  9.9742957E+02;  1.3105533E-01; -2.1295586E+03;3; -1.8141279E+01;  0.0000000E+00;  4.0175897E-01;0; -8.1710711E-02;  2.3248945E+04;  0.0000000E+00;  6.1961142E-03;  4.0000000E+04;  0.0000000E+00;  3.9834098E+04; -1.1697948E-01;  0.0000000E+00;  3.5268765E-02;  2.5243564E+03;
  7.5356412E-01;  9.9999998E-03; -1.1502801E-09;6990;  2.9189900E-02;  0.0000000E+00;  4.6589954E-09;  9.9742578E+02;  1.3105439E-01; -2.1326697E+03;3; -1.8147738E+01;  0.0000000E+00; -5.6270383E-06;0; -8.1316210E-02;  2.3249162E+04;  0.0000000E+00;  1.8045246E-11;  4.0000000E+04;  0.0000000E+00;  3.9833906E+04; -1.1692428E-01;  0.0000000E+00;  3.5608068E-02;  2.5190593E+03;
  7.5357091E-01;  9.9999998E-03;  1.0030232E-02;6991;  2.9022500E-02;  0.0000000E+00;  2.5875730E-04;  9.9742957E+02;  1.3105533E-01; -2.1295586E+03;3; -1.8141306E+01;  0.0000000E+00; -4.0176407E-01;0; -8.1710808E-02;  2.3248945E+04;  0.0000000E+00;  6.1947345E-03;  4.0000000E+04;  0.0000000E+00;  3.9834102E+04; -1.1697962E-01;  0.0000000E+00;  3.5268813E-02;  2.5243730E+03;
  7.5358790E-01;  9.9999998E-03;  2.0055849E-02;6992;  2.8530920E-02;  0.0000000E+00;  4.3949505E-04;  9.9744244E+02;  1.3105886E-01; -2.1188923E+03;3; -1.8026274E+01;  0.0000000E+00; -6.9234353E-01;0; -8.2880273E-02;  2.3248654E+04;  0.0000000E+00;  2.5119672E-02;  4.0000000E+04;  0.0000000E+00;  3.9834133E+04; -1.1714639E-01;  0.0000000E+00;  3.4266114E-02;  2.5423159E+03;
  7.5361007E-01;  9.9999998E-03;  3.0080002E-02;6993;  2.7725924E-02;  0.0000000E+00;  5.4926303E-04;  9.9746454E+02;  1.3106437E-01; -2.1005720E+03;3; -1.7818007E+01;  0.0000000E+00; -8.5583478E-01;0; -8.4779993E-02;  2.3248428E+04;  0.0000000E+00;  5.7718068E-02;  4.0000000E+04;  0.0000000E+00;  3.9834465E+04; -1.1743421E-01;  0.0000000E+00;  3.2654222E-02;  2.5786528E+03;
  7.5363564E-01;  9.9999998E-03;  4.0106114E-02;6994;  2.6614066E-02;  0.0000000E+00;  6.1475282E-04;  9.9749689E+02;  1.3107063E-01; -2.0737581E+03;3; -1.7520802E+01;  0.0000000E+00; -9.5473623E-01;0; -8.7334774E-02;  2.3248404E+04;  0.0000000E+00;  1.0501532E-01;  4.0000000E+04;  0.0000000E+00;  3.9834871E+04; -1.1786602E-01;  0.0000000E+00;  3.0531242E-02;  2.6404753E+03;
  7.5365967E-01;  9.9999998E-03;  5.0133854E-02;6995;  2.5201919E-02;  0.0000000E+00;  6.5048644E-04;  9.9754388E+02;  1.3107724E-01; -2.0348457E+03;3; -1.7129646E+01;  0.0000000E+00; -1.0268915E+00;0; -9.0444051E-02;  2.3248895E+04;  0.0000000E+00;  1.6709846E-01;  4.0000000E+04;  0.0000000E+00;  3.9835379E+04; -1.1846280E-01;  0.0000000E+00;  2.8018750E-02;  2.7316248E+03;
  7.5367582E-01;  9.9999998E-03;  6.0161579E-02;6996;  2.3496188E-02;  0.0000000E+00;  6.7444018E-04;  9.9759821E+02;  1.3108453E-01; -1.9898102E+03;3; -1.6656382E+01;  0.0000000E+00; -1.0675484E+00;0; -9.3987674E-02;  2.3250352E+04;  0.0000000E+00;  2.4188578E-01;  4.0000000E+04;  0.0000000E+00;  3.9835891E+04; -1.1924446E-01;  0.0000000E+00;  2.5256792E-02;  2.8476804E+03;
  7.6730621E-01;  9.9999998E-03; -1.0012295E-01;7041;  1.1815026E-02;  0.0000000E+00; -3.6495153E-03;  9.9743530E+02;  1.3588756E-01; -2.1247664E+03;3; -1.4087545E+01;  0.0000000E+00;  2.1000557E+00;0; -1.0979266E-01;  2.1649641E+04;  0.0000000E+00;  2.5289547E-01;  4.0000000E+04;  0.0000000E+00;  3.9815105E+04; -1.3789898E-01;  0.0000000E+00;  2.8106326E-02;  3.3509641E+03;
  7.6747161E-01;  9.9999998E-03; -9.0096727E-02;7042;  1.4601011E-02;  0.0000000E+00; -3.4166165E-03;  9.9747717E+02;  1.3591827E-01; -2.0901006E+03;3; -1.4864801E+01;  0.0000000E+00;  2.0955675E+00;0; -1.0257591E-01;  2.1637359E+04;  0.0000000E+00;  2.4455111E-01;  4.0000000E+04;  0.0000000E+00;  3.9814836E+04; -1.3600059E-01;  0.0000000E+00;  3.3424675E-02;  3.3509426E+03;
  7.6760334E-01;  9.9999998E-03; -8.0074161E-02;7043;  1.7166205E-02;  0.0000000E+00; -3.1863183E-03;  9.9750421E+02;  1.3594277E-01; -2.0676816E+03;3; -1.5581263E+01;  0.0000000E+00;  2.0795524E+00;0; -9.5339105E-02;  2.1627086E+04;  0.0000000E+00;  2.1393731E-01;  4.0000000E+04;  0.0000000E+00;  3.9814152E+04; -1.3439406E-01;  0.0000000E+00;  3.9054960E-02;  3.2728245E+03;
  7.6770175E-01;  9.9999998E-03; -7.0055991E-02;7044;  1.9478194E-02;  0.0000000E+00; -2.9494620E-03;  9.9751013E+02;  1.3595849E-01; -2.0627930E+03;3; -1.6222139E+01;  0.0000000E+00;  2.0453789E+00;0; -8.8272773E-02;  2.1618971E+04;  0.0000000E+00;  1.7088912E-01;  4.0000000E+04;  0.0000000E+00;  3.9813168E+04; -1.3304520E-01;  0.0000000E+00;  4.4772424E-02;  3.1305698E+03;
  7.6777071E-01;  9.9999998E-03; -6.0041629E-02;7045;  2.1509925E-02;  0.0000000E+00; -2.7126330E-03;  9.9751068E+02;  1.3596937E-01; -2.0623486E+03;3; -1.6770277E+01;  0.0000000E+00;  1.9858785E+00;0; -8.1583962E-02;  2.1612717E+04;  0.0000000E+00;  1.2510723E-01;  4.0000000E+04;  0.0000000E+00;  3.9811844E+04; -1.3192929E-01;  0.0000000E+00;  5.0345331E-02;  2.9540405E+03;
  7.6781291E-01;  9.9999998E-03; -5.0029635E-02;7046;  2.3241857E-02;  0.0000000E+00; -2.4705254E-03;  9.9750653E+02;  1.3597475E-01; -2.0657559E+03;3; -1.7240578E+01;  0.0000000E+00;  1.8754698E+00;0; -7.5491510E-02;  2.1608361E+04;  0.0000000E+00;  8.3757311E-02;  4.0000000E+04;  0.0000000E+00;  3.9810648E+04; -1.3102804E-01;  0.0000000E+00;  5.5536531E-02;  2.7796287E+03;
  7.6782942E-01;  9.9999998E-03; -4.0017623E-02;7047;  2.4660742E-02;  0.0000000E+00; -2.1742112E-03;  9.9749628E+02;  1.3597478E-01; -2.0742988E+03;3; -1.7601709E+01;  0.0000000E+00;  1.6452204E+00;0; -7.0211798E-02;  2.1606041E+04;  0.0000000E+00;  5.0615445E-02;  4.0000000E+04;  0.0000000E+00;  3.9809387E+04; -1.3032462E-01;  0.0000000E+00;  6.0112823E-02;  2.6380410E+03;
  7.6782990E-01;  9.9999998E-03; -3.0007431E-02;7048;  2.5755506E-02;  0.0000000E+00; -1.7901041E-03;  9.9748914E+02;  1.3597223E-01; -2.0801750E+03;3; -1.7859949E+01;  0.0000000E+00;  1.3288773E+00;0; -6.5920934E-02;  2.1604973E+04;  0.0000000E+00;  2.6678726E-02;  4.0000000E+04;  0.0000000E+00;  3.9808758E+04; -1.2980166E-01;  0.0000000E+00;  6.3880727E-02;  2.5424053E+03;
  7.6782864E-01;  9.9999998E-03; -2.0002548E-02;7049;  2.6519235E-02;  0.0000000E+00; -1.2731195E-03;  9.9747986E+02;  1.3597007E-01; -2.0878784E+03;3; -1.8018078E+01;  0.0000000E+00;  8.3255094E-01;0; -6.2745735E-02;  2.1604230E+04;  0.0000000E+00;  1.1183482E-02;  4.0000000E+04;  0.0000000E+00;  3.9808309E+04; -1.2944257E-01;  0.0000000E+00;  6.6696838E-02;  2.4881553E+03;
  7.6782864E-01;  9.9999998E-03; -1.0001410E-02;7050;  2.6960650E-02;  0.0000000E+00; -6.5148156E-04;  9.9747986E+02;  1.3596927E-01; -2.0878784E+03;3; -1.8098917E+01;  0.0000000E+00;  3.8795584E-01;0; -6.0791567E-02;  2.1603664E+04;  0.0000000E+00;  2.6881876E-03;  4.0000000E+04;  0.0000000E+00;  3.9808199E+04; -1.2923235E-01;  0.0000000E+00;  6.8440780E-02;  2.4631272E+03;
  7.6782972E-01;  9.9999998E-03; -1.3340875E-09;7051;  2.7104756E-02;  0.0000000E+00;  5.0424109E-09;  9.9747931E+02;  1.3596959E-01; -2.0883230E+03;3; -1.8127245E+01;  0.0000000E+00; -1.5232350E-06;0; -6.0129143E-02;  2.1603357E+04;  0.0000000E+00;  3.6783573E-11;  4.0000000E+04;  0.0000000E+00;  3.9808090E+04; -1.2916303E-01;  0.0000000E+00;  6.9033884E-02;  2.4561250E+03;
  7.6782864E-01;  9.9999998E-03;  1.0001407E-02;7052;  2.6960652E-02;  0.0000000E+00;  6.5149111E-04;  9.9747998E+02;  1.3596936E-01; -2.0877798E+03;3; -1.8098930E+01;  0.0000000E+00; -3.8796270E-01;0; -6.0791597E-02;  2.1603666E+04;  0.0000000E+00;  2.6870877E-03;  4.0000000E+04;  0.0000000E+00;  3.9808199E+04; -1.2923241E-01;  0.0000000E+00;  6.8440810E-02;  2.4631230E+03;
  7.6782870E-01;  9.9999998E-03;  2.0002544E-02;7053;  2.6519239E-02;  0.0000000E+00;  1.2731306E-03;  9.9747980E+02;  1.3597031E-01; -2.0879280E+03;3; -1.8018055E+01;  0.0000000E+00; -8.3255655E-01;0; -6.2745579E-02;  2.1604225E+04;  0.0000000E+00;  1.1181362E-02;  4.0000000E+04;  0.0000000E+00;  3.9808309E+04; -1.2944248E-01;  0.0000000E+00;  6.6696905E-02;  2.4881672E+03;
  7.6782990E-01;  9.9999998E-03;  3.0007428E-02;7054;  2.5755508E-02;  0.0000000E+00;  1.7901153E-03;  9.9748914E+02;  1.3597223E-01; -2.0801750E+03;3; -1.7859968E+01;  0.0000000E+00; -1.3288813E+00;0; -6.5920927E-02;  2.1604971E+04;  0.0000000E+00;  2.6675995E-02;  4.0000000E+04;  0.0000000E+00;  3.9808758E+04; -1.2980169E-01;  0.0000000E+00;  6.3880764E-02;  2.5424021E+03;
  7.6782942E-01;  9.9999998E-03;  4.0017620E-02;7055;  2.4660747E-02;  0.0000000E+00;  2.1742217E-03;  9.9749628E+02;  1.3597478E-01; -2.0742988E+03;3; -1.7601723E+01;  0.0000000E+00; -1.6452373E+00;0; -7.0211783E-02;  2.1606041E+04;  0.0000000E+00;  5.0613929E-02;  4.0000000E+04;  0.0000000E+00;  3.9809387E+04; -1.3032460E-01;  0.0000000E+00;  6.0112823E-02;  2.6380344E+03;
  7.6781291E-01;  9.9999998E-03;  5.0029632E-02;7056;  2.3241861E-02;  0.0000000E+00;  2.4705352E-03;  9.9750641E+02;  1.3597442E-01; -2.0659041E+03;3; -1.7240602E+01;  0.0000000E+00; -1.8754854E+00;0; -7.5491607E-02;  2.1608355E+04;  0.0000000E+00;  8.3753772E-02;  4.0000000E+04;  0.0000000E+00;  3.9810652E+04; -1.3102816E-01;  0.0000000E+00;  5.5536553E-02;  2.7796069E+03;
  7.6777071E-01;  9.9999998E-03;  6.0041625E-02;7057;  2.1509930E-02;  0.0000000E+00;  2.7126421E-03;  9.9751086E+02;  1.3596959E-01; -2.0622004E+03;3; -1.6770300E+01;  0.0000000E+00; -1.9858809E+00;0; -8.1584133E-02;  2.1612715E+04;  0.0000000E+00;  1.2510465E-01;  4.0000000E+04;  0.0000000E+00;  3.9811840E+04; -1.3192953E-01;  0.0000000E+00;  5.0345398E-02;  2.9540417E+03;
  7.8138715E-01;  9.9999998E-03; -1.0002464E-01;7102;  9.3186479E-03;  0.0000000E+00; -6.8756766E-03;  9.9685211E+02;  1.4111044E-01; -2.6079556E+03;3; -1.4224111E+01;  0.0000000E+00;  3.1921074E+00;0; -7.9546794E-02;  2.0064189E+04;  0.0000000E+00; -7.5536199E-02;  4.0000000E+04;  0.0000000E+00;  3.9788562E+04; -1.2301502E-01;  0.0000000E+00;  4.3468218E-02;  3.2108765E+03;
  7.8132880E-01;  9.9999998E-03; -9.0015747E-02;7103;  1.2203068E-02;  0.0000000E+00; -6.4745597E-03;  9.9686700E+02;  1.4106898E-01; -2.5956104E+03;3; -1.5018175E+01;  0.0000000E+00;  3.1534538E+00;0; -6.9187477E-02;  2.0071127E+04;  0.0000000E+00; -4.6478521E-02;  4.0000000E+04;  0.0000000E+00;  3.9788809E+04; -1.2086397E-01;  0.0000000E+00;  5.1676486E-02;  3.2189861E+03;
  7.8126800E-01;  9.9999998E-03; -8.0021501E-02;7104;  1.4857437E-02;  0.0000000E+00; -6.0461946E-03;  9.9686542E+02;  1.4103150E-01; -2.5969436E+03;3; -1.5708782E+01;  0.0000000E+00;  3.1306837E+00;0; -5.8825057E-02;  2.0077170E+04;  0.0000000E+00; -3.1417418E-02;  4.0000000E+04;  0.0000000E+00;  3.9787945E+04; -1.1892967E-01;  0.0000000E+00;  6.0104612E-02;  3.1018489E+03;
  7.8128910E-01;  9.9999998E-03; -7.0033804E-02;7105;  1.7231276E-02;  0.0000000E+00; -5.5929925E-03;  9.9686279E+02;  1.4102709E-01; -2.5991165E+03;3; -1.6340656E+01;  0.0000000E+00;  3.0415270E+00;0; -4.8354246E-02;  2.0074758E+04;  0.0000000E+00; -2.6327780E-02;  4.0000000E+04;  0.0000000E+00;  3.9786105E+04; -1.1698011E-01;  0.0000000E+00;  6.8625867E-02;  2.8810547E+03;
  7.8131276E-01;  9.9999998E-03; -6.0043700E-02;7106;  1.9310309E-02;  0.0000000E+00; -5.1199291E-03;  9.9684949E+02;  1.4102645E-01; -2.6101284E+03;3; -1.6878948E+01;  0.0000000E+00;  2.8808303E+00;0; -3.8393304E-02;  2.0071418E+04;  0.0000000E+00; -2.4382213E-02;  4.0000000E+04;  0.0000000E+00;  3.9783789E+04; -1.1522857E-01;  0.0000000E+00;  7.6835267E-02;  2.6132729E+03;
  7.8132361E-01;  9.9999998E-03; -5.0044458E-02;7107;  2.1063128E-02;  0.0000000E+00; -4.5559546E-03;  9.9683228E+02;  1.4102356E-01; -2.6243994E+03;3; -1.7299482E+01;  0.0000000E+00;  2.6336827E+00;0; -2.9337093E-02;  2.0068914E+04;  0.0000000E+00; -2.1862363E-02;  4.0000000E+04;  0.0000000E+00;  3.9781703E+04; -1.1373055E-01;  0.0000000E+00;  8.4393457E-02;  2.3592759E+03;
  7.8132617E-01;  9.9999998E-03; -4.0037349E-02;7108;  2.2466499E-02;  0.0000000E+00; -3.8271302E-03;  9.9681342E+02;  1.4101912E-01; -2.6400039E+03;3; -1.7582621E+01;  0.0000000E+00;  2.0666718E+00;0; -2.1485105E-02;  2.0067186E+04;  0.0000000E+00; -1.7474284E-02;  4.0000000E+04;  0.0000000E+00;  3.9780133E+04; -1.1249125E-01;  0.0000000E+00;  9.1006145E-02;  2.1620730E+03;
  7.8133047E-01;  9.9999998E-03; -3.0024108E-02;7109;  2.3511373E-02;  0.0000000E+00; -2.9316724E-03;  9.9679712E+02;  1.4101592E-01; -2.6534849E+03;3; -1.7788870E+01;  0.0000000E+00;  1.5010771E+00;0; -1.5064336E-02;  2.0065340E+04;  0.0000000E+00; -1.1705698E-02;  4.0000000E+04;  0.0000000E+00;  3.9779133E+04; -1.1149864E-01;  0.0000000E+00;  9.6434303E-02;  2.0368068E+03;
  7.8133696E-01;  9.9999998E-03; -2.0010719E-02;7110;  2.4230706E-02;  0.0000000E+00; -1.9637877E-03;  9.9678595E+02;  1.4101668E-01; -2.6627683E+03;3; -1.7935938E+01;  0.0000000E+00;  9.6448821E-01;0; -1.0296367E-02;  2.0063607E+04;  0.0000000E+00; -5.8940025E-03;  4.0000000E+04;  0.0000000E+00;  3.9778562E+04; -1.1076599E-01;  0.0000000E+00;  1.0046963E-01;  1.9718567E+03;
  7.8134257E-01;  9.9999998E-03; -1.0003407E-02;7111;  2.4652634E-02;  0.0000000E+00; -9.8002865E-04;  9.9678162E+02;  1.4101587E-01; -2.6663733E+03;3; -1.8055117E+01;  0.0000000E+00;  4.6992394E-01;0; -7.3620006E-03;  2.0062396E+04;  0.0000000E+00; -1.5853520E-03;  4.0000000E+04;  0.0000000E+00;  3.9778203E+04; -1.1031532E-01;  0.0000000E+00;  1.0295332E-01;  1.9451565E+03;
  7.8134459E-01;  9.9999998E-03; -1.4645199E-09;7112;  2.4792491E-02;  0.0000000E+00;  4.9552158E-09;  9.9678021E+02;  1.4101613E-01; -2.6675090E+03;3; -1.8095766E+01;  0.0000000E+00;  1.3163585E-06;0; -6.3718632E-03;  2.0061934E+04;  0.0000000E+00;  4.7947726E-11;  4.0000000E+04;  0.0000000E+00;  3.9778207E+04; -1.1016336E-01;  0.0000000E+00;  1.0379150E-01;  1.9385771E+03;
  7.8134257E-01;  9.9999998E-03;  1.0003405E-02;7113;  2.4652632E-02;  0.0000000E+00;  9.8003692E-04;  9.9678162E+02;  1.4101629E-01; -2.6663733E+03;3; -1.8055145E+01;  0.0000000E+00; -4.6992326E-01;0; -7.3620230E-03;  2.0062406E+04;  0.0000000E+00; -1.5857038E-03;  4.0000000E+04;  0.0000000E+00;  3.9778203E+04; -1.1031534E-01;  0.0000000E+00;  1.0295331E-01;  1.9451483E+03;
  7.8133696E-01;  9.9999998E-03;  2.0010715E-02;7114;  2.4230706E-02;  0.0000000E+00;  1.9637949E-03;  9.9678589E+02;  1.4101633E-01; -2.6628179E+03;3; -1.7935938E+01;  0.0000000E+00; -9.6448123E-01;0; -1.0296285E-02;  2.0063604E+04;  0.0000000E+00; -5.8944812E-03;  4.0000000E+04;  0.0000000E+00;  3.9778559E+04; -1.1076599E-01;  0.0000000E+00;  1.0046971E-01;  1.9718521E+03;
  7.8133047E-01;  9.9999998E-03;  3.0024104E-02;7115;  2.3511373E-02;  0.0000000E+00;  2.9316808E-03;  9.9679700E+02;  1.4101581E-01; -2.6535835E+03;3; -1.7788887E+01;  0.0000000E+00; -1.5010873E+00;0; -1.5064083E-02;  2.0065340E+04;  0.0000000E+00; -1.1706536E-02;  4.0000000E+04;  0.0000000E+00;  3.9779137E+04; -1.1149859E-01;  0.0000000E+00;  9.6434504E-02;  2.0368301E+03;
  7.8132617E-01;  9.9999998E-03;  4.0037345E-02;7116;  2.2466499E-02;  0.0000000E+00;  3.8271428E-03;  9.9681335E+02;  1.4101879E-01; -2.6400532E+03;3; -1.7582636E+01;  0.0000000E+00; -2.0666928E+00;0; -2.1485008E-02;  2.0067189E+04;  0.0000000E+00; -1.7475111E-02;  4.0000000E+04;  0.0000000E+00;  3.9780133E+04; -1.1249126E-01;  0.0000000E+00;  9.1006249E-02;  2.1620720E+03;
  7.8132361E-01;  9.9999998E-03;  5.0044455E-02;7117;  2.1063134E-02;  0.0000000E+00;  4.5559686E-03;  9.9683215E+02;  1.4102346E-01; -2.6244983E+03;3; -1.7299509E+01;  0.0000000E+00; -2.6336904E+00;0; -2.9336944E-02;  2.0068914E+04;  0.0000000E+00; -2.1864384E-02;  4.0000000E+04;  0.0000000E+00;  3.9781707E+04; -1.1373049E-01;  0.0000000E+00;  8.4393546E-02;  2.3592754E+03;
  7.8131276E-01;  9.9999998E-03;  6.0043696E-02;7118;  1.9310312E-02;  0.0000000E+00;  5.1199421E-03;  9.9684961E+02;  1.4102656E-01; -2.6100295E+03;3; -1.6878956E+01;  0.0000000E+00; -2.8808284E+00;0; -3.8393065E-02;  2.0071418E+04;  0.0000000E+00; -2.4382656E-02;  4.0000000E+04;  0.0000000E+00;  3.9783793E+04; -1.1522850E-01;  0.0000000E+00;  7.6835431E-02;  2.6132969E+03;
  7.9555804E-01;  9.9999998E-03; -1.0011008E-01;7163;  6.5827891E-03;  0.0000000E+00; -1.0637787E-02;  9.9568970E+02;  1.4668520E-01; -3.5709761E+03;3; -1.4369583E+01;  0.0000000E+00;  4.3753424E+00;0;  7.7081323E-03;  1.8537164E+04;  0.0000000E+00; -3.6875299E-01;  4.0000000E+04;  0.0000000E+00;  3.9757836E+04; -5.3443961E-02;  0.0000000E+00;  6.1152093E-02;  2.9064587E+03;
  7.9552031E-01;  9.9999998E-03; -9.0111516E-02;7164;  9.5116571E-03;  0.0000000E+00; -1.0169186E-02;  9.9564893E+02;  1.4665146E-01; -3.6047527E+03;3; -1.5133237E+01;  0.0000000E+00;  4.3495164E+00;0;  2.1292489E-02;  1.8539764E+04;  0.0000000E+00; -3.1975219E-01;  4.0000000E+04;  0.0000000E+00;  3.9757344E+04; -5.1365044E-02;  0.0000000E+00;  7.2657533E-02;  2.8287854E+03;
  7.9548508E-01;  9.9999998E-03; -8.0126666E-02;7165;  1.2211193E-02;  0.0000000E+00; -9.5729399E-03;  9.9559326E+02;  1.4661758E-01; -3.6508743E+03;3; -1.5844080E+01;  0.0000000E+00;  4.2306519E+00;0;  3.5155706E-02;  1.8542303E+04;  0.0000000E+00; -2.7068874E-01;  4.0000000E+04;  0.0000000E+00;  3.9755449E+04; -4.9219713E-02;  0.0000000E+00;  8.4375419E-02;  2.5869729E+03;
  7.9545736E-01;  9.9999998E-03; -7.0141099E-02;7166;  1.4636620E-02;  0.0000000E+00; -8.8939024E-03;  9.9552478E+02;  1.4658649E-01; -3.7076130E+03;3; -1.6430740E+01;  0.0000000E+00;  4.0923386E+00;0;  4.8935670E-02;  1.8544240E+04;  0.0000000E+00; -2.2185348E-01;  4.0000000E+04;  0.0000000E+00;  3.9752910E+04; -4.7028799E-02;  0.0000000E+00;  9.5964469E-02;  2.2296755E+03;
  7.9542249E-01;  9.9999998E-03; -6.0141467E-02;7167;  1.6730681E-02;  0.0000000E+00; -8.0248863E-03;  9.9544910E+02;  1.4655516E-01; -3.7702773E+03;3; -1.6901724E+01;  0.0000000E+00;  3.7320375E+00;0;  6.2028557E-02;  1.8546631E+04;  0.0000000E+00; -1.7355004E-01;  4.0000000E+04;  0.0000000E+00;  3.9749914E+04; -4.4978827E-02;  0.0000000E+00;  1.0700738E-01;  1.8385739E+03;
  7.9535073E-01;  9.9999998E-03; -5.0119225E-02;7168;  1.8461170E-02;  0.0000000E+00; -6.8824263E-03;  9.9537469E+02;  1.4651702E-01; -3.8319539E+03;3; -1.7236044E+01;  0.0000000E+00;  3.0656450E+00;0;  7.3651820E-02;  1.8550928E+04;  0.0000000E+00; -1.2724711E-01;  4.0000000E+04;  0.0000000E+00;  3.9747188E+04; -4.3374393E-02;  0.0000000E+00;  1.1702621E-01;  1.4992136E+03;
  7.9527605E-01;  9.9999998E-03; -4.0081345E-02;7169;  1.9815274E-02;  0.0000000E+00; -5.5436362E-03;  9.9530627E+02;  1.4648180E-01; -3.8886431E+03;3; -1.7474051E+01;  0.0000000E+00;  2.3694429E+00;0;  8.3657235E-02;  1.8555221E+04;  0.0000000E+00; -8.5106201E-02;  4.0000000E+04;  0.0000000E+00;  3.9745566E+04; -4.2044941E-02;  0.0000000E+00;  1.2570217E-01;  1.2588838E+03;
  7.9521370E-01;  9.9999998E-03; -3.0051300E-02;7170;  2.0833572E-02;  0.0000000E+00; -4.1437089E-03;  9.9525677E+02;  1.4645252E-01; -3.9296294E+03;3; -1.7718744E+01;  0.0000000E+00;  1.7437969E+00;0;  9.1790572E-02;  1.8558605E+04;  0.0000000E+00; -4.9555376E-02;  4.0000000E+04;  0.0000000E+00;  3.9744430E+04; -4.0949155E-02;  0.0000000E+00;  1.3273972E-01;  1.1177242E+03;
  7.9517066E-01;  9.9999998E-03; -2.0027407E-02;7171;  2.1550190E-02;  0.0000000E+00; -2.7484959E-03;  9.9521814E+02;  1.4643233E-01; -3.9616282E+03;3; -1.7898252E+01;  0.0000000E+00;  1.1198311E+00;0;  9.7827338E-02;  1.8560646E+04;  0.0000000E+00; -2.2574013E-02;  4.0000000E+04;  0.0000000E+00;  3.9743984E+04; -4.0099002E-02;  0.0000000E+00;  1.3792634E-01;  1.0544635E+03;
  7.9514551E-01;  9.9999998E-03; -1.0010870E-02;7172;  2.1976518E-02;  0.0000000E+00; -1.3689464E-03;  9.9519788E+02;  1.4642119E-01; -3.9784180E+03;3; -1.8019571E+01;  0.0000000E+00;  5.5049121E-01;0;  1.0154010E-01;  1.8561762E+04;  0.0000000E+00; -5.7266555E-03;  4.0000000E+04;  0.0000000E+00;  3.9743941E+04; -3.9559506E-02;  0.0000000E+00;  1.4109960E-01;  1.0350161E+03;
  7.9513729E-01;  9.9999998E-03; -2.2266724E-09;7173;  2.2117630E-02;  0.0000000E+00;  1.0692353E-09;  9.9518964E+02;  1.4641747E-01; -3.9852817E+03;3; -1.8062254E+01;  0.0000000E+00; -5.4639818E-06;0;  1.0279195E-01;  1.8562191E+04;  0.0000000E+00;  4.1758409E-11;  4.0000000E+04;  0.0000000E+00;  3.9743840E+04; -3.9374840E-02;  0.0000000E+00;  1.4216679E-01;  1.0319248E+03;
  7.9514551E-01;  9.9999998E-03;  1.0010866E-02;7174;  2.1976519E-02;  0.0000000E+00;  1.3689498E-03;  9.9519788E+02;  1.4642067E-01; -3.9784180E+03;3; -1.8019611E+01;  0.0000000E+00; -5.5048078E-01;0;  1.0154000E-01;  1.8561764E+04;  0.0000000E+00; -5.7259188E-03;  4.0000000E+04;  0.0000000E+00;  3.9743945E+04; -3.9559510E-02;  0.0000000E+00;  1.4109951E-01;  1.0350148E+03;
  7.9517066E-01;  9.9999998E-03;  2.0027403E-02;7175;  2.1550193E-02;  0.0000000E+00;  2.7485010E-03;  9.9521826E+02;  1.4643250E-01; -3.9615293E+03;3; -1.7898300E+01;  0.0000000E+00; -1.1198177E+00;0;  9.7827420E-02;  1.8560645E+04;  0.0000000E+00; -2.2572998E-02;  4.0000000E+04;  0.0000000E+00;  3.9743988E+04; -4.0099028E-02;  0.0000000E+00;  1.3792644E-01;  1.0544729E+03;
  7.9521370E-01;  9.9999998E-03;  3.0051298E-02;7176;  2.0833578E-02;  0.0000000E+00;  4.1437191E-03;  9.9525696E+02;  1.4645272E-01; -3.9294812E+03;3; -1.7718832E+01;  0.0000000E+00; -1.7437580E+00;0;  9.1790602E-02;  1.8558605E+04;  0.0000000E+00; -4.9554195E-02;  4.0000000E+04;  0.0000000E+00;  3.9744430E+04; -4.0949184E-02;  0.0000000E+00;  1.3273978E-01;  1.1177067E+03;
  7.9527611E-01;  9.9999998E-03;  4.0081341E-02;7177;  1.9815274E-02;  0.0000000E+00;  5.5436515E-03;  9.9530615E+02;  1.4648174E-01; -3.8887419E+03;3; -1.7474022E+01;  0.0000000E+00; -2.3694184E+00;0;  8.3657399E-02;  1.8555223E+04;  0.0000000E+00; -8.5104786E-02;  4.0000000E+04;  0.0000000E+00;  3.9745566E+04; -4.2044755E-02;  0.0000000E+00;  1.2570216E-01;  1.2588850E+03;
  7.9535079E-01;  9.9999998E-03;  5.0119221E-02;7178;  1.8461172E-02;  0.0000000E+00;  6.8824482E-03;  9.9537482E+02;  1.4651699E-01; -3.8318552E+03;3; -1.7236090E+01;  0.0000000E+00; -3.0656583E+00;0;  7.3652111E-02;  1.8550922E+04;  0.0000000E+00; -1.2724432E-01;  4.0000000E+04;  0.0000000E+00;  3.9747180E+04; -4.3374270E-02;  0.0000000E+00;  1.1702638E-01;  1.4992327E+03;
  7.9542249E-01;  9.9999998E-03;  6.0141463E-02;7179;  1.6730681E-02;  0.0000000E+00;  8.0249077E-03;  9.9544904E+02;  1.4655495E-01; -3.7703760E+03;3; -1.6901718E+01;  0.0000000E+00; -3.7320359E+00;0;  6.2028982E-02;  1.8546627E+04;  0.0000000E+00; -1.7354877E-01;  4.0000000E+04;  0.0000000E+00;  3.9749914E+04; -4.4978619E-02;  0.0000000E+00;  1.0700760E-01;  1.8385829E+03;
  8.0983227E-01;  9.9999998E-03; -1.0028201E-01;7224;  3.7520826E-03;  0.0000000E+00; -1.4917533E-02;  9.9407782E+02;  1.5247357E-01; -4.9063716E+03;3; -1.4456943E+01;  0.0000000E+00;  5.6785269E+00;0;  1.8556893E-01;  1.7116824E+04;  0.0000000E+00; -5.7651126E-01;  4.0000000E+04;  0.0000000E+00;  3.9723391E+04;  1.0310648E-01;  0.0000000E+00;  8.2462452E-02;  2.5426128E+03;
  8.0979037E-01;  9.9999998E-03; -9.0302482E-02;7225;  6.6935574E-03;  0.0000000E+00; -1.4419581E-02;  9.9397797E+02;  1.5244679E-01; -4.9890840E+03;3; -1.5222967E+01;  0.0000000E+00;  5.5756059E+00;0;  2.0057809E-01;  1.7116936E+04;  0.0000000E+00; -5.2105516E-01;  4.0000000E+04;  0.0000000E+00;  3.9722121E+04;  1.0343597E-01;  0.0000000E+00;  9.7142115E-02;  2.3350547E+03;
  8.0977690E-01;  9.9999998E-03; -8.0316201E-02;7226;  9.4046844E-03;  0.0000000E+00; -1.3717278E-02;  9.9386969E+02;  1.5243265E-01; -5.0788091E+03;3; -1.5919829E+01;  0.0000000E+00;  5.4871349E+00;0;  2.1680042E-01;  1.7114662E+04;  0.0000000E+00; -4.5233408E-01;  4.0000000E+04;  0.0000000E+00;  3.9719309E+04;  1.0472342E-01;  0.0000000E+00;  1.1207701E-01;  1.9583837E+03;
  8.0978489E-01;  9.9999998E-03; -7.0326529E-02;7227;  1.1781851E-02;  0.0000000E+00; -1.2656573E-02;  9.9376086E+02;  1.5242766E-01; -5.1689287E+03;3; -1.6428097E+01;  0.0000000E+00;  4.9382424E+00;0;  2.3351917E-01;  1.7110746E+04;  0.0000000E+00; -3.7471110E-01;  4.0000000E+04;  0.0000000E+00;  3.9715688E+04;  1.0670011E-01;  0.0000000E+00;  1.2681906E-01;  1.4841995E+03;
  8.0959642E-01;  9.9999998E-03; -6.0303427E-02;7228;  1.3819787E-02;  0.0000000E+00; -1.1073471E-02;  9.9365222E+02;  1.5234400E-01; -5.2589497E+03;3; -1.6778431E+01;  0.0000000E+00;  4.1208639E+00;0;  2.4651815E-01;  1.7124486E+04;  0.0000000E+00; -2.9149908E-01;  4.0000000E+04;  0.0000000E+00;  3.9712516E+04;  1.0612768E-01;  0.0000000E+00;  1.4039047E-01;  1.0232209E+03;
  8.0937850E-01;  9.9999998E-03; -5.0223548E-02;7229;  1.5493318E-02;  0.0000000E+00; -9.2270188E-03;  9.9354340E+02;  1.5224946E-01; -5.3491201E+03;3; -1.7067471E+01;  0.0000000E+00;  3.3066335E+00;0;  2.5790709E-01;  1.7140619E+04;  0.0000000E+00; -2.1036546E-01;  4.0000000E+04;  0.0000000E+00;  3.9709910E+04;  1.0524467E-01;  0.0000000E+00;  1.5266243E-01;  6.5315796E+02;
  8.0917948E-01;  9.9999998E-03; -4.0151872E-02;7230;  1.6821481E-02;  0.0000000E+00; -7.3046363E-03;  9.9344867E+02;  1.5216264E-01; -5.4275859E+03;3; -1.7368149E+01;  0.0000000E+00;  2.6076081E+00;0;  2.6776671E-01;  1.7155303E+04;  0.0000000E+00; -1.3826895E-01;  4.0000000E+04;  0.0000000E+00;  3.9708422E+04;  1.0454729E-01;  0.0000000E+00;  1.6321944E-01;  3.9526944E+02;
  8.0901772E-01;  9.9999998E-03; -3.0099416E-02;7231;  1.7846247E-02;  0.0000000E+00; -5.4091536E-03;  9.9337280E+02;  1.5209156E-01; -5.4904478E+03;3; -1.7620234E+01;  0.0000000E+00;  1.9450871E+00;0;  2.7586457E-01;  1.7167076E+04;  0.0000000E+00; -7.9239056E-02;  4.0000000E+04;  0.0000000E+00;  3.9707758E+04;  1.0412126E-01;  0.0000000E+00;  1.7174332E-01;  2.3652309E+02;
  8.0890161E-01;  9.9999998E-03; -2.0059887E-02;7232;  1.8576689E-02;  0.0000000E+00; -3.5629312E-03;  9.9332056E+02;  1.5204154E-01; -5.5337056E+03;3; -1.7801418E+01;  0.0000000E+00;  1.2913014E+00;0;  2.8193247E-01;  1.7175426E+04;  0.0000000E+00; -3.5651647E-02;  4.0000000E+04;  0.0000000E+00;  3.9707500E+04;  1.0393086E-01;  0.0000000E+00;  1.7800163E-01;  1.5221758E+02;
  8.0883127E-01;  9.9999998E-03; -1.0027753E-02;7233;  1.9018758E-02;  0.0000000E+00; -1.7628787E-03;  9.9328979E+02;  1.5201107E-01; -5.5592354E+03;3; -1.7890362E+01;  0.0000000E+00;  6.6743791E-01;0;  2.8567958E-01;  1.7180361E+04;  0.0000000E+00; -8.9732511E-03;  4.0000000E+04;  0.0000000E+00;  3.9707582E+04;  1.0385892E-01;  0.0000000E+00;  1.8182068E-01;  1.2190219E+02;
  8.0880803E-01;  9.9999998E-03; -1.5161969E-09;7234;  1.9168358E-02;  0.0000000E+00; -2.1840787E-09;  9.9327820E+02;  1.5200028E-01; -5.5688154E+03;3; -1.7899265E+01;  0.0000000E+00;  8.2225688E-06;0;  2.8695166E-01;  1.7182059E+04;  0.0000000E+00;  2.4662375E-11;  4.0000000E+04;  0.0000000E+00;  3.9707566E+04;  1.0384683E-01;  0.0000000E+00;  1.8310483E-01;  1.1773632E+02;
  8.0883127E-01;  9.9999998E-03;  1.0027750E-02;7235;  1.9018758E-02;  0.0000000E+00;  1.7628762E-03;  9.9328973E+02;  1.5201074E-01; -5.5592847E+03;3; -1.7890314E+01;  0.0000000E+00; -6.6744983E-01;0;  2.8567961E-01;  1.7180357E+04;  0.0000000E+00; -8.9719100E-03;  4.0000000E+04;  0.0000000E+00;  3.9707582E+04;  1.0385894E-01;  0.0000000E+00;  1.8182066E-01;  1.2189777E+02;
  8.0890161E-01;  9.9999998E-03;  2.0059885E-02;7236;  1.8576683E-02;  0.0000000E+00;  3.5629373E-03;  9.9332056E+02;  1.5204154E-01; -5.5337056E+03;3; -1.7801437E+01;  0.0000000E+00; -1.2913526E+00;0;  2.8193289E-01;  1.7175424E+04;  0.0000000E+00; -3.5648815E-02;  4.0000000E+04;  0.0000000E+00;  3.9707500E+04;  1.0393110E-01;  0.0000000E+00;  1.7800178E-01;  1.5222704E+02;
  8.0901772E-01;  9.9999998E-03;  3.0099416E-02;7237;  1.7846251E-02;  0.0000000E+00;  5.4091616E-03;  9.9337292E+02;  1.5209179E-01; -5.4903486E+03;3; -1.7620214E+01;  0.0000000E+00; -1.9450566E+00;0;  2.7586478E-01;  1.7167072E+04;  0.0000000E+00; -7.9235688E-02;  4.0000000E+04;  0.0000000E+00;  3.9707754E+04;  1.0412136E-01;  0.0000000E+00;  1.7174342E-01;  2.3652913E+02;
  8.0917948E-01;  9.9999998E-03;  4.0151872E-02;7238;  1.6821479E-02;  0.0000000E+00;  7.3046442E-03;  9.9344861E+02;  1.5216272E-01; -5.4276353E+03;3; -1.7368174E+01;  0.0000000E+00; -2.6075852E+00;0;  2.6776713E-01;  1.7155299E+04;  0.0000000E+00; -1.3826422E-01;  4.0000000E+04;  0.0000000E+00;  3.9708422E+04;  1.0454746E-01;  0.0000000E+00;  1.6321966E-01;  3.9527130E+02;
  8.0937850E-01;  9.9999998E-03;  5.0223548E-02;7239;  1.5493316E-02;  0.0000000E+00;  9.2270328E-03;  9.9354346E+02;  1.5224946E-01; -5.3490703E+03;3; -1.7067465E+01;  0.0000000E+00; -3.3066046E+00;0;  2.5790778E-01;  1.7140617E+04;  0.0000000E+00; -2.1036212E-01;  4.0000000E+04;  0.0000000E+00;  3.9709910E+04;  1.0524509E-01;  0.0000000E+00;  1.5266268E-01;  6.5316339E+02;
  8.0959642E-01;  9.9999998E-03;  6.0303427E-02;7240;  1.3819782E-02;  0.0000000E+00;  1.1073495E-02;  9.9365210E+02;  1.5234384E-01; -5.2590488E+03;3; -1.6778410E+01;  0.0000000E+00; -4.1208453E+00;0;  2.4651848E-01;  1.7124490E+04;  0.0000000E+00; -2.9149529E-01;  4.0000000E+04;  0.0000000E+00;  3.9712520E+04;  1.0612801E-01;  0.0000000E+00;  1.4039047E-01;  1.0232179E+03;
  8.2384181E-01;  9.9999998E-03; -2.4418687E-09;7295;  1.5739106E-02;  0.0000000E+00; -4.0801114E-09;  9.9230573E+02;  1.5810952E-01; -6.3744927E+03;3; -1.7882084E+01;  0.0000000E+00; -1.1764556E-05;0;  5.9497929E-01;  1.5883320E+04;  0.0000000E+00;  2.5226544E-12;  4.0000000E+04;  0.0000000E+00;  3.9668988E+04;  3.6339331E-01;  0.0000000E+00;  2.3158598E-01;  1.5000963E+03;
  8.2385069E-01;  9.9999998E-03; -1.0046170E-02;7294;  1.5600918E-02;  0.0000000E+00; -2.3119876E-03;  9.9231152E+02;  1.5811403E-01; -6.3696533E+03;3; -1.7840805E+01;  0.0000000E+00;  8.3962393E-01;0;  5.9335363E-01;  1.5882726E+04;  0.0000000E+00; -1.0894327E-02;  4.0000000E+04;  0.0000000E+00;  3.9669082E+04;  3.6338019E-01;  0.0000000E+00;  2.2997347E-01;  1.5019449E+03;
  8.2385069E-01;  9.9999998E-03;  1.0046166E-02;7296;  1.5600928E-02;  0.0000000E+00;  2.3119799E-03;  9.9231165E+02;  1.5811464E-01; -6.3695547E+03;3; -1.7840784E+01;  0.0000000E+00; -8.3962017E-01;0;  5.9335375E-01;  1.5882729E+04;  0.0000000E+00; -1.0892834E-02;  4.0000000E+04;  0.0000000E+00;  3.9669082E+04;  3.6338016E-01;  0.0000000E+00;  2.2997357E-01;  1.5019666E+03;
  8.2387871E-01;  9.9999998E-03; -2.0090558E-02;7293;  1.5172926E-02;  0.0000000E+00; -4.6497709E-03;  9.9233160E+02;  1.5812747E-01; -6.3530122E+03;3; -1.7734356E+01;  0.0000000E+00;  1.6430908E+00;0;  5.8859491E-01;  1.5880983E+04;  0.0000000E+00; -4.3298628E-02;  4.0000000E+04;  0.0000000E+00;  3.9669066E+04;  3.6340031E-01;  0.0000000E+00;  2.2519462E-01;  1.5038007E+03;
  8.2387871E-01;  9.9999998E-03;  2.0090556E-02;7297;  1.5172935E-02;  0.0000000E+00;  4.6497704E-03;  9.9233185E+02;  1.5812826E-01; -6.3528149E+03;3; -1.7734348E+01;  0.0000000E+00; -1.6431046E+00;0;  5.8859479E-01;  1.5880983E+04;  0.0000000E+00; -4.3295238E-02;  4.0000000E+04;  0.0000000E+00;  3.9669066E+04;  3.6340022E-01;  0.0000000E+00;  2.2519459E-01;  1.5037933E+03;
  8.2393140E-01;  9.9999998E-03; -3.0134827E-02;7292;  1.4463714E-02;  0.0000000E+00; -7.0089945E-03;  9.9236438E+02;  1.5815289E-01; -6.3258525E+03;3; -1.7552483E+01;  0.0000000E+00;  2.4363823E+00;0;  5.8110797E-01;  1.5877508E+04;  0.0000000E+00; -9.6281268E-02;  4.0000000E+04;  0.0000000E+00;  3.9669238E+04;  3.6368328E-01;  0.0000000E+00;  2.1742471E-01;  1.4942543E+03;
  8.2393140E-01;  9.9999998E-03;  3.0134827E-02;7298;  1.4463716E-02;  0.0000000E+00;  7.0090024E-03;  9.9236432E+02;  1.5815300E-01; -6.3259019E+03;3; -1.7552427E+01;  0.0000000E+00; -2.4364169E+00;0;  5.8110785E-01;  1.5877510E+04;  0.0000000E+00; -9.6277423E-02;  4.0000000E+04;  0.0000000E+00;  3.9669234E+04;  3.6368296E-01;  0.0000000E+00;  2.1742491E-01;  1.4942648E+03;
  8.2401747E-01;  9.9999998E-03; -4.0185262E-02;7291;  1.3466038E-02;  0.0000000E+00; -9.3953004E-03;  9.9241919E+02;  1.5819260E-01; -6.2804717E+03;3; -1.7339500E+01;  0.0000000E+00;  3.1599286E+00;0;  5.7152903E-01;  1.5871662E+04;  0.0000000E+00; -1.6807927E-01;  4.0000000E+04;  0.0000000E+00;  3.9669875E+04;  3.6458471E-01;  0.0000000E+00;  2.0694433E-01;  1.4596433E+03;
  8.2401747E-01;  9.9999998E-03;  4.0185262E-02;7299;  1.3466039E-02;  0.0000000E+00;  9.3953228E-03;  9.9241925E+02;  1.5819253E-01; -6.2804224E+03;3; -1.7339569E+01;  0.0000000E+00; -3.1598625E+00;0;  5.7152998E-01;  1.5871654E+04;  0.0000000E+00; -1.6807443E-01;  4.0000000E+04;  0.0000000E+00;  3.9669875E+04;  3.6458555E-01;  0.0000000E+00;  2.0694445E-01;  1.4596310E+03;
  8.2413399E-01;  9.9999998E-03; -5.0251279E-02;7290;  1.2174057E-02;  0.0000000E+00; -1.1811965E-02;  9.9249042E+02;  1.5824564E-01; -6.2214619E+03;3; -1.7032343E+01;  0.0000000E+00;  3.8777330E+00;0;  5.6035388E-01;  1.5863393E+04;  0.0000000E+00; -2.5574967E-01;  4.0000000E+04;  0.0000000E+00;  3.9671355E+04;  3.6627200E-01;  0.0000000E+00;  1.9408184E-01;  1.4019730E+03;
  8.2413399E-01;  9.9999998E-03;  5.0251279E-02;7300;  1.2174060E-02;  0.0000000E+00;  1.1811987E-02;  9.9249066E+02;  1.5824606E-01; -6.2212642E+03;3; -1.7032356E+01;  0.0000000E+00; -3.8777354E+00;0;  5.6035411E-01;  1.5863393E+04;  0.0000000E+00; -2.5574169E-01;  4.0000000E+04;  0.0000000E+00;  3.9671359E+04;  3.6627242E-01;  0.0000000E+00;  1.9408172E-01;  1.4019443E+03;
  8.2429171E-01;  9.9999998E-03; -6.0339142E-02;7289;  1.0576078E-02;  0.0000000E+00; -1.4199665E-02;  9.9257617E+02;  1.5831628E-01; -6.1504033E+03;3; -1.6694035E+01;  0.0000000E+00;  4.6024475E+00;0;  5.4854256E-01;  1.5851875E+04;  0.0000000E+00; -3.5466009E-01;  4.0000000E+04;  0.0000000E+00;  3.9673930E+04;  3.6925653E-01;  0.0000000E+00;  1.7928603E-01;  1.3739802E+03;
  8.2429171E-01;  9.9999998E-03;  6.0339142E-02;7301;  1.0576082E-02;  0.0000000E+00;  1.4199694E-02;  9.9257635E+02;  1.5831661E-01; -6.1502549E+03;3; -1.6693991E+01;  0.0000000E+00; -4.6024828E+00;0;  5.4854321E-01;  1.5851874E+04;  0.0000000E+00; -3.5465249E-01;  4.0000000E+04;  0.0000000E+00;  3.9673926E+04;  3.6925697E-01;  0.0000000E+00;  1.7928621E-01;  1.3739645E+03;
  8.2447129E-01;  9.9999998E-03; -7.0419148E-02;7288;  8.6789243E-03;  0.0000000E+00; -1.6418874E-02;  9.9267877E+02;  1.5839887E-01; -6.0654185E+03;3; -1.6268976E+01;  0.0000000E+00;  5.4608426E+00;0;  5.3647238E-01;  1.5838271E+04;  0.0000000E+00; -4.5740637E-01;  4.0000000E+04;  0.0000000E+00;  3.9677305E+04;  3.7342876E-01;  0.0000000E+00;  1.6304362E-01;  1.4714156E+03;
  8.2461905E-01;  9.9999998E-03; -8.0414914E-02;7287;  6.4482773E-03;  0.0000000E+00; -1.8180752E-02;  9.9278430E+02;  1.5847503E-01; -5.9779658E+03;3; -1.5891755E+01;  0.0000000E+00;  6.3921413E+00;0;  5.2374476E-01;  1.5825741E+04;  0.0000000E+00; -5.5389380E-01;  4.0000000E+04;  0.0000000E+00;  3.9680934E+04;  3.7784934E-01;  0.0000000E+00;  1.4589542E-01;  1.7228057E+03;
  8.2473814E-01;  9.9999998E-03; -9.0391472E-02;7286;  3.8602795E-03;  0.0000000E+00; -1.9274017E-02;  9.9288263E+02;  1.5854943E-01; -5.8965371E+03;3; -1.5369758E+01;  0.0000000E+00;  6.9004250E+00;0;  5.1108265E-01;  1.5813949E+04;  0.0000000E+00; -6.3614416E-01;  4.0000000E+04;  0.0000000E+00;  3.9684031E+04;  3.8279414E-01;  0.0000000E+00;  1.2828854E-01;  2.0277230E+03;
  8.2486409E-01;  9.9999998E-03; -1.0034808E-01;7285;  9.6758362E-04;  0.0000000E+00; -1.9847821E-02;  9.9298151E+02;  1.5862569E-01; -5.8146138E+03;3; -1.4612300E+01;  0.0000000E+00;  6.9753432E+00;0;  5.0005299E-01;  1.5801862E+04;  0.0000000E+00; -6.9583225E-01;  4.0000000E+04;  0.0000000E+00;  3.9685770E+04;  3.8926640E-01;  0.0000000E+00;  1.1078659E-01;  2.2425967E+03;
  8.4188849E-01;  9.9999998E-03; -2.0331532E-09;7356;  1.1889307E-02;  0.0000000E+00; -9.7218429E-09;  9.9406915E+02;  1.6524476E-01; -4.9134961E+03;3; -1.7940565E+01;  0.0000000E+00; -1.1490550E-05;0;  1.1147853E+00;  1.4635373E+04;  0.0000000E+00; -7.0016137E-12;  4.0000000E+04;  0.0000000E+00;  3.9626891E+04;  8.2046139E-01;  0.0000000E+00;  2.9432395E-01;  3.1598538E+03;
  8.4186369E-01;  9.9999998E-03; -1.0051963E-02;7355;  1.1753953E-02;  0.0000000E+00; -3.1459096E-03;  9.9405505E+02;  1.6523704E-01; -4.9251992E+03;3; -1.7903757E+01;  0.0000000E+00;  9.1839200E-01;0;  1.1122832E+00;  1.4636167E+04;  0.0000000E+00; -1.1222508E-02;  4.0000000E+04;  0.0000000E+00;  3.9626875E+04;  8.1998181E-01;  0.0000000E+00;  2.9230139E-01;  3.1529834E+03;
  8.4186369E-01;  9.9999998E-03;  1.0051960E-02;7357;  1.1753956E-02;  0.0000000E+00;  3.1458987E-03;  9.9405505E+02;  1.6523708E-01; -4.9251992E+03;3; -1.7903751E+01;  0.0000000E+00; -9.1834807E-01;0;  1.1122826E+00;  1.4636166E+04;  0.0000000E+00; -1.1221332E-02;  4.0000000E+04;  0.0000000E+00;  3.9626875E+04;  8.1998116E-01;  0.0000000E+00;  2.9230145E-01;  3.1530034E+03;
  8.4179294E-01;  9.9999998E-03; -2.0100746E-02;7354;  1.1352438E-02;  0.0000000E+00; -6.2820115E-03;  9.9402460E+02;  1.6521777E-01; -4.9504326E+03;3; -1.7765413E+01;  0.0000000E+00;  1.8997015E+00;0;  1.1050155E+00;  1.4638361E+04;  0.0000000E+00; -4.4498555E-02;  4.0000000E+04;  0.0000000E+00;  3.9627234E+04;  8.1868130E-01;  0.0000000E+00;  2.8633422E-01;  3.1317561E+03;
  8.4179294E-01;  9.9999998E-03;  2.0100744E-02;7358;  1.1352439E-02;  0.0000000E+00;  6.2819943E-03;  9.9402460E+02;  1.6521777E-01; -4.9504326E+03;3; -1.7765364E+01;  0.0000000E+00; -1.8996897E+00;0;  1.1050154E+00;  1.4638358E+04;  0.0000000E+00; -4.4496030E-02;  4.0000000E+04;  0.0000000E+00;  3.9627234E+04;  8.1868136E-01;  0.0000000E+00;  2.8633407E-01;  3.1317856E+03;
  8.4168905E-01;  9.9999998E-03; -3.0147213E-02;7353;  1.0670941E-02;  0.0000000E+00; -9.3859723E-03;  9.9397650E+02;  1.6518897E-01; -4.9902827E+03;3; -1.7641581E+01;  0.0000000E+00;  2.7726417E+00;0;  1.0937533E+00;  1.4641326E+04;  0.0000000E+00; -9.8687500E-02;  4.0000000E+04;  0.0000000E+00;  3.9627703E+04;  8.1703627E-01;  0.0000000E+00;  2.7671713E-01;  3.0917620E+03;
  8.4168905E-01;  9.9999998E-03;  3.0147213E-02;7359;  1.0670941E-02;  0.0000000E+00;  9.3859527E-03;  9.9397632E+02;  1.6518840E-01; -4.9904307E+03;3; -1.7641481E+01;  0.0000000E+00; -2.7726235E+00;0;  1.0937526E+00;  1.4641329E+04;  0.0000000E+00; -9.8684244E-02;  4.0000000E+04;  0.0000000E+00;  3.9627711E+04;  8.1703556E-01;  0.0000000E+00;  2.7671707E-01;  3.0917673E+03;
  8.4157115E-01;  9.9999998E-03; -4.0197607E-02;7352;  9.7097373E-03;  0.0000000E+00; -1.2460146E-02;  9.9392499E+02;  1.6515902E-01; -5.0329478E+03;3; -1.7399902E+01;  0.0000000E+00;  3.5942550E+00;0;  1.0796666E+00;  1.4644117E+04;  0.0000000E+00; -1.7185731E-01;  4.0000000E+04;  0.0000000E+00;  3.9628656E+04;  8.1577843E-01;  0.0000000E+00;  2.6388815E-01;  3.0210425E+03;
  8.4157115E-01;  9.9999998E-03;  4.0197607E-02;7360;  9.7097373E-03;  0.0000000E+00;  1.2460162E-02;  9.9392499E+02;  1.6515902E-01; -5.0329478E+03;3; -1.7399904E+01;  0.0000000E+00; -3.5942471E+00;0;  1.0796671E+00;  1.4644117E+04;  0.0000000E+00; -1.7185451E-01;  4.0000000E+04;  0.0000000E+00;  3.9628648E+04;  8.1577879E-01;  0.0000000E+00;  2.6388833E-01;  3.0210669E+03;
  8.4145832E-01;  9.9999998E-03; -5.0264221E-02;7351;  8.4820939E-03;  0.0000000E+00; -1.5463169E-02;  9.9388013E+02;  1.6513279E-01; -5.0700815E+03;3; -1.7057331E+01;  0.0000000E+00;  4.4413500E+00;0;  1.0640810E+00;  1.4645819E+04;  0.0000000E+00; -2.6094460E-01;  4.0000000E+04;  0.0000000E+00;  3.9630211E+04;  8.1572402E-01;  0.0000000E+00;  2.4835698E-01;  2.9027871E+03;
  8.4145826E-01;  9.9999998E-03;  5.0264221E-02;7361;  8.4820874E-03;  0.0000000E+00;  1.5463198E-02;  9.9387988E+02;  1.6513363E-01; -5.0703286E+03;3; -1.7057371E+01;  0.0000000E+00; -4.4412642E+00;0;  1.0640812E+00;  1.4645815E+04;  0.0000000E+00; -2.6094052E-01;  4.0000000E+04;  0.0000000E+00;  3.9630215E+04;  8.1572431E-01;  0.0000000E+00;  2.4835686E-01;  2.9028086E+03;
  8.4136575E-01;  9.9999998E-03; -6.0356982E-02;7350;  6.9903275E-03;  0.0000000E+00; -1.8327454E-02;  9.9385022E+02;  1.6511674E-01; -5.0948706E+03;3; -1.6643311E+01;  0.0000000E+00;  5.3683586E+00;0;  1.0483201E+00;  1.4645675E+04;  0.0000000E+00; -3.6122864E-01;  4.0000000E+04;  0.0000000E+00;  3.9632715E+04;  8.1764710E-01;  0.0000000E+00;  2.3067291E-01;  2.7326379E+03;
  8.4136575E-01;  9.9999998E-03;  6.0356978E-02;7362;  6.9903280E-03;  0.0000000E+00;  1.8327475E-02;  9.9385016E+02;  1.6511738E-01; -5.0949199E+03;3; -1.6643278E+01;  0.0000000E+00; -5.3684273E+00;0;  1.0483198E+00;  1.4645680E+04;  0.0000000E+00; -3.6122483E-01;  4.0000000E+04;  0.0000000E+00;  3.9632715E+04;  8.1764680E-01;  0.0000000E+00;  2.3067297E-01;  2.7325996E+03;
  8.4130961E-01;  9.9999998E-03; -7.0466585E-02;7349;  5.2246833E-03;  0.0000000E+00; -2.0916665E-02;  9.9384094E+02;  1.6511706E-01; -5.1025747E+03;3; -1.6254196E+01;  0.0000000E+00;  6.3990006E+00;0;  1.0338359E+00;  1.4642997E+04;  0.0000000E+00; -4.6593463E-01;  4.0000000E+04;  0.0000000E+00;  3.9635984E+04;  8.2238495E-01;  0.0000000E+00;  2.1145089E-01;  2.5452324E+03;
  8.4128642E-01;  9.9999998E-03; -8.0535576E-02;7348;  3.1697194E-03;  0.0000000E+00; -2.3043105E-02;  9.9384521E+02;  1.6512898E-01; -5.0990190E+03;3; -1.5797948E+01;  0.0000000E+00;  7.2786565E+00;0;  1.0214875E+00;  1.4638037E+04;  0.0000000E+00; -5.6573778E-01;  4.0000000E+04;  0.0000000E+00;  3.9639672E+04;  8.3014083E-01;  0.0000000E+00;  1.9134659E-01;  2.4067605E+03;
  8.4129888E-01;  9.9999998E-03; -9.0577543E-02;7347;  8.0822024E-04;  0.0000000E+00; -2.4612663E-02;  9.9386731E+02;  1.6515599E-01; -5.0806992E+03;3; -1.5255457E+01;  0.0000000E+00;  7.9869075E+00;0;  1.0121683E+00;  1.4631062E+04;  0.0000000E+00; -6.5086585E-01;  4.0000000E+04;  0.0000000E+00;  3.9642840E+04;  8.4131068E-01;  0.0000000E+00;  1.7085765E-01;  2.3594292E+03;
  8.4134889E-01;  9.9999998E-03; -1.0059910E-01;7346; -1.8906302E-03;  0.0000000E+00; -2.5594933E-02;  9.9389294E+02;  1.6519752E-01; -5.0594648E+03;3; -1.4738857E+01;  0.0000000E+00;  8.4057446E+00;0;  1.0066006E+00;  1.4622053E+04;  0.0000000E+00; -7.1265733E-01;  4.0000000E+04;  0.0000000E+00;  3.9644852E+04;  8.5620135E-01;  0.0000000E+00;  1.5039928E-01;  2.3592444E+03;
  8.5958165E-01;  9.9999998E-03; -1.0065391E-02;7416;  8.6975330E-03;  0.0000000E+00; -4.2379908E-03;  9.9915149E+02;  1.7219493E-01; -7.0297510E+02;3; -1.8121937E+01;  0.0000000E+00;  9.7804737E-01;0;  1.7452183E+00;  1.3652047E+04;  0.0000000E+00; -8.6415140E-03;  4.0000000E+04;  0.0000000E+00;  3.9590340E+04;  1.3884661E+00;  0.0000000E+00;  3.5675219E-01;  4.6083135E+03;
  8.5959023E-01;  9.9999998E-03; -1.1062831E-09;7417;  8.8299653E-03;  0.0000000E+00; -1.8014136E-08;  9.9918182E+02;  1.7219917E-01; -6.7784058E+02;3; -1.8208433E+01;  0.0000000E+00;  2.0302359E-05;0;  1.7465559E+00;  1.3652555E+04;  0.0000000E+00;  1.5036677E-11;  4.0000000E+04;  0.0000000E+00;  3.9590215E+04;  1.3876467E+00;  0.0000000E+00;  3.5890928E-01;  4.6196387E+03;
  8.5958165E-01;  9.9999998E-03;  1.0065389E-02;7418;  8.6975293E-03;  0.0000000E+00;  4.2379606E-03;  9.9915131E+02;  1.7219542E-01; -7.0312323E+02;3; -1.8121920E+01;  0.0000000E+00; -9.7803974E-01;0;  1.7452177E+00;  1.3652048E+04;  0.0000000E+00; -8.6410306E-03;  4.0000000E+04;  0.0000000E+00;  3.9590344E+04;  1.3884655E+00;  0.0000000E+00;  3.5675216E-01;  4.6083018E+03;
  8.5955781E-01;  9.9999998E-03; -2.0125940E-02;7415;  8.2932012E-03;  0.0000000E+00; -8.4205950E-03;  9.9906433E+02;  1.7218499E-01; -7.7516876E+02;3; -1.8005917E+01;  0.0000000E+00;  1.9615102E+00;0;  1.7414228E+00;  1.3650600E+04;  0.0000000E+00; -3.4424786E-02;  4.0000000E+04;  0.0000000E+00;  3.9590523E+04;  1.3910165E+00;  0.0000000E+00;  3.5040632E-01;  4.5771729E+03;
  8.5955781E-01;  9.9999998E-03;  2.0125940E-02;7419;  8.2932087E-03;  0.0000000E+00;  8.4205829E-03;  9.9906458E+02;  1.7218493E-01; -7.7497125E+02;3; -1.8005924E+01;  0.0000000E+00; -1.9614656E+00;0;  1.7414230E+00;  1.3650598E+04;  0.0000000E+00; -3.4424163E-02;  4.0000000E+04;  0.0000000E+00;  3.9590527E+04;  1.3910167E+00;  0.0000000E+00;  3.5040629E-01;  4.5771807E+03;
  8.5952526E-01;  9.9999998E-03; -3.0180410E-02;7414;  7.6150526E-03;  0.0000000E+00; -1.2527212E-02;  9.9893182E+02;  1.7216994E-01; -8.8494073E+02;3; -1.7825018E+01;  0.0000000E+00;  2.9763830E+00;0;  1.7358508E+00;  1.3648005E+04;  0.0000000E+00; -7.6978683E-02;  4.0000000E+04;  0.0000000E+00;  3.9590926E+04;  1.3956275E+00;  0.0000000E+00;  3.4022325E-01;  4.5298262E+03;
  8.5952520E-01;  9.9999998E-03;  3.0180411E-02;7420;  7.6150578E-03;  0.0000000E+00;  1.2527203E-02;  9.9893188E+02;  1.7216986E-01; -8.8489136E+02;3; -1.7825073E+01;  0.0000000E+00; -2.9763770E+00;0;  1.7358516E+00;  1.3648003E+04;  0.0000000E+00; -7.6977015E-02;  4.0000000E+04;  0.0000000E+00;  3.9590926E+04;  1.3956283E+00;  0.0000000E+00;  3.4022328E-01;  4.5298345E+03;
  8.5949224E-01;  9.9999998E-03; -4.0233545E-02;7413;  6.6773156E-03;  0.0000000E+00; -1.6505577E-02;  9.9876324E+02;  1.7215367E-01; -1.0245876E+03;3; -1.7635685E+01;  0.0000000E+00;  3.9105084E+00;0;  1.7294704E+00;  1.3644198E+04;  0.0000000E+00; -1.3563982E-01;  4.0000000E+04;  0.0000000E+00;  3.9591414E+04;  1.4027662E+00;  0.0000000E+00;  3.2670417E-01;  4.4620503E+03;
  8.5949218E-01;  9.9999998E-03;  4.0233545E-02;7421;  6.6773193E-03;  0.0000000E+00;  1.6505590E-02;  9.9876324E+02;  1.7215377E-01; -1.0245876E+03;3; -1.7635714E+01;  0.0000000E+00; -3.9105036E+00;0;  1.7294717E+00;  1.3644200E+04;  0.0000000E+00; -1.3563780E-01;  4.0000000E+04;  0.0000000E+00;  3.9591414E+04;  1.4027671E+00;  0.0000000E+00;  3.2670459E-01;  4.4620864E+03;
  8.5946804E-01;  9.9999998E-03; -5.0293963E-02;7412;  5.4650409E-03;  0.0000000E+00; -2.0303776E-02;  9.9858179E+02;  1.7213903E-01; -1.1749501E+03;3; -1.7310766E+01;  0.0000000E+00;  4.8346977E+00;0;  1.7234452E+00;  1.3639104E+04;  0.0000000E+00; -2.0898439E-01;  4.0000000E+04;  0.0000000E+00;  3.9592523E+04;  1.4130197E+00;  0.0000000E+00;  3.1042558E-01;  4.3567515E+03;
  8.5946804E-01;  9.9999998E-03;  5.0293967E-02;7422;  5.4650418E-03;  0.0000000E+00;  2.0303788E-02;  9.9858173E+02;  1.7213923E-01; -1.1749994E+03;3; -1.7310787E+01;  0.0000000E+00; -4.8346891E+00;0;  1.7234453E+00;  1.3639101E+04;  0.0000000E+00; -2.0898184E-01;  4.0000000E+04;  0.0000000E+00;  3.9592523E+04;  1.4130199E+00;  0.0000000E+00;  3.1042537E-01;  4.3567812E+03;
  8.5946244E-01;  9.9999998E-03; -6.0372967E-02;7411;  4.0066480E-03;  0.0000000E+00; -2.3798374E-02;  9.9840277E+02;  1.7212914E-01; -1.3232385E+03;3; -1.6882320E+01;  0.0000000E+00;  5.9762464E+00;0;  1.7190657E+00;  1.3632449E+04;  0.0000000E+00; -2.9405037E-01;  4.0000000E+04;  0.0000000E+00;  3.9594023E+04;  1.4270895E+00;  0.0000000E+00;  2.9197627E-01;  4.1916768E+03;
  8.5946238E-01;  9.9999998E-03;  6.0372967E-02;7423;  4.0066512E-03;  0.0000000E+00;  2.3798399E-02;  9.9840277E+02;  1.7212899E-01; -1.3232385E+03;3; -1.6882357E+01;  0.0000000E+00; -5.9762745E+00;0;  1.7190669E+00;  1.3632449E+04;  0.0000000E+00; -2.9404789E-01;  4.0000000E+04;  0.0000000E+00;  3.9594016E+04;  1.4270905E+00;  0.0000000E+00;  2.9197639E-01;  4.1917256E+03;
  8.5949016E-01;  9.9999998E-03; -7.0481874E-02;7410;  2.3030664E-03;  0.0000000E+00; -2.6814826E-02;  9.9824329E+02;  1.7212968E-01; -1.4553796E+03;3; -1.6411236E+01;  0.0000000E+00;  7.2967806E+00;0;  1.7178876E+00;  1.3624115E+04;  0.0000000E+00; -3.8563278E-01;  4.0000000E+04;  0.0000000E+00;  3.9596426E+04;  1.4459450E+00;  0.0000000E+00;  2.7194262E-01;  3.9621338E+03;
  8.5955554E-01;  9.9999998E-03; -8.0595039E-02;7409;  3.2008503E-04;  0.0000000E+00; -2.9270079E-02;  9.9812000E+02;  1.7214184E-01; -1.5574977E+03;3; -1.5934233E+01;  0.0000000E+00;  8.4236107E+00;0;  1.7210093E+00;  1.3614014E+04;  0.0000000E+00; -4.7638530E-01;  4.0000000E+04;  0.0000000E+00;  3.9599328E+04;  1.4701213E+00;  0.0000000E+00;  2.5088796E-01;  3.7032292E+03;
  8.5965186E-01;  9.9999998E-03; -9.0681747E-02;7408; -1.9666080E-03;  0.0000000E+00; -3.1104127E-02;  9.9803046E+02;  1.7216623E-01; -1.6316664E+03;3; -1.5508347E+01;  0.0000000E+00;  9.3407631E+00;0;  1.7289177E+00;  1.3602962E+04;  0.0000000E+00; -5.5751240E-01;  4.0000000E+04;  0.0000000E+00;  3.9601969E+04;  1.4996605E+00;  0.0000000E+00;  2.2925723E-01;  3.4741714E+03;
  8.5976857E-01;  9.9999998E-03; -1.0075630E-01;7407; -4.5938008E-03;  0.0000000E+00; -3.2284793E-02;  9.9796283E+02;  1.7219637E-01; -1.6877129E+03;3; -1.4882318E+01;  0.0000000E+00;  9.9039869E+00;0;  1.7416860E+00;  1.3591535E+04;  0.0000000E+00; -6.2053502E-01;  4.0000000E+04;  0.0000000E+00;  3.9603617E+04;  1.5344291E+00;  0.0000000E+00;  2.0725693E-01;  3.3165703E+03;
  8.7730688E-01;  9.9999998E-03; -1.0076485E-02;7477;  7.8993617E-03;  0.0000000E+00; -5.9432276E-03;  1.0048257E+03;  1.7809293E-01;  3.9978813E+03;3; -1.8909723E+01;  0.0000000E+00;  3.3626342E-01;0;  2.3955114E+00;  1.2927764E+04;  0.0000000E+00; -3.9382642E-03;  4.0000000E+04;  0.0000000E+00;  3.9564109E+04;  1.9752188E+00;  0.0000000E+00;  4.2029256E-01;  5.3608662E+03;
  8.7731415E-01;  9.9999998E-03; -3.7764480E-10;7478;  8.0238767E-03;  0.0000000E+00; -2.2794826E-08;  1.0048698E+03;  1.7809427E-01;  4.0344219E+03;3; -1.9045898E+01;  0.0000000E+00;  3.7471461E-06;0;  2.3954818E+00;  1.2928916E+04;  0.0000000E+00;  4.4721751E-11;  4.0000000E+04;  0.0000000E+00;  3.9564109E+04;  1.9729712E+00;  0.0000000E+00;  4.2251056E-01;  5.3734048E+03;
  8.7730688E-01;  9.9999998E-03;  1.0076484E-02;7479;  7.8993645E-03;  0.0000000E+00;  5.9431712E-03;  1.0048256E+03;  1.7809230E-01;  3.9977825E+03;3; -1.8909706E+01;  0.0000000E+00; -3.3624274E-01;0;  2.3955112E+00;  1.2927763E+04;  0.0000000E+00; -3.9382386E-03;  4.0000000E+04;  0.0000000E+00;  3.9564105E+04;  1.9752185E+00;  0.0000000E+00;  4.2029262E-01;  5.3608755E+03;
  8.7728542E-01;  9.9999998E-03; -2.0144654E-02;7476;  7.5048804E-03;  0.0000000E+00; -1.1732217E-02;  1.0046940E+03;  1.7808890E-01;  3.8887522E+03;3; -1.8727192E+01;  0.0000000E+00;  7.5808114E-01;0;  2.3957705E+00;  1.2924239E+04;  0.0000000E+00; -1.6197039E-02;  4.0000000E+04;  0.0000000E+00;  3.9564418E+04;  1.9819753E+00;  0.0000000E+00;  4.1379514E-01;  5.3286201E+03;
  8.7728542E-01;  9.9999998E-03;  2.0144654E-02;7480;  7.5048828E-03;  0.0000000E+00;  1.1732165E-02;  1.0046939E+03;  1.7808847E-01;  3.8886533E+03;3; -1.8727200E+01;  0.0000000E+00; -7.5805312E-01;0;  2.3957701E+00;  1.2924244E+04;  0.0000000E+00; -1.6196618E-02;  4.0000000E+04;  0.0000000E+00;  3.9564418E+04;  1.9819750E+00;  0.0000000E+00;  4.1379523E-01;  5.3286182E+03;
  8.7725222E-01;  9.9999998E-03; -3.0202011E-02;7475;  6.8490915E-03;  0.0000000E+00; -1.7277880E-02;  1.0044896E+03;  1.7808142E-01;  3.7193796E+03;3; -1.8394714E+01;  0.0000000E+00;  1.2384596E+00;0;  2.3967803E+00;  1.2918644E+04;  0.0000000E+00; -3.7932739E-02;  4.0000000E+04;  0.0000000E+00;  3.9564586E+04;  1.9933410E+00;  0.0000000E+00;  4.0343928E-01;  5.2873218E+03;
  8.7725222E-01;  9.9999998E-03;  3.0202013E-02;7481;  6.8490985E-03;  0.0000000E+00;  1.7277855E-02;  1.0044896E+03;  1.7808093E-01;  3.7194785E+03;3; -1.8394756E+01;  0.0000000E+00; -1.2384268E+00;0;  2.3967805E+00;  1.2918644E+04;  0.0000000E+00; -3.7932493E-02;  4.0000000E+04;  0.0000000E+00;  3.9564590E+04;  1.9933408E+00;  0.0000000E+00;  4.0343964E-01;  5.2873169E+03;
  8.7721175E-01;  9.9999998E-03; -4.0252570E-02;7474;  5.9236716E-03;  0.0000000E+00; -2.2450671E-02;  1.0042209E+03;  1.7807153E-01;  3.4968745E+03;3; -1.7901060E+01;  0.0000000E+00;  1.9451214E+00;0;  2.3993516E+00;  1.2911305E+04;  0.0000000E+00; -7.0629783E-02;  4.0000000E+04;  0.0000000E+00;  3.9564875E+04;  2.0095315E+00;  0.0000000E+00;  3.8982022E-01;  5.2402910E+03;
  8.7721175E-01;  9.9999998E-03;  4.0252574E-02;7482;  5.9236796E-03;  0.0000000E+00;  2.2450665E-02;  1.0042210E+03;  1.7807153E-01;  3.4968745E+03;3; -1.7901058E+01;  0.0000000E+00; -1.9451085E+00;0;  2.3993521E+00;  1.2911302E+04;  0.0000000E+00; -7.0630297E-02;  4.0000000E+04;  0.0000000E+00;  3.9564879E+04;  2.0095320E+00;  0.0000000E+00;  3.8981998E-01;  5.2402739E+03;
  8.7716872E-01;  9.9999998E-03; -5.0305389E-02;7473;  4.7609778E-03;  0.0000000E+00; -2.7169686E-02;  1.0039197E+03;  1.7805982E-01;  3.2473096E+03;3; -1.7376768E+01;  0.0000000E+00;  2.9557118E+00;0;  2.4044397E+00;  1.2902585E+04;  0.0000000E+00; -1.1554129E-01;  4.0000000E+04;  0.0000000E+00;  3.9565086E+04;  2.0308530E+00;  0.0000000E+00;  3.7358660E-01;  5.1735864E+03;
  8.7716872E-01;  9.9999998E-03;  5.0305393E-02;7483;  4.7609941E-03;  0.0000000E+00;  2.7169714E-02;  1.0039197E+03;  1.7805982E-01;  3.2473096E+03;3; -1.7376759E+01;  0.0000000E+00; -2.9556942E+00;0;  2.4044378E+00;  1.2902583E+04;  0.0000000E+00; -1.1554306E-01;  4.0000000E+04;  0.0000000E+00;  3.9565082E+04;  2.0308514E+00;  0.0000000E+00;  3.7358636E-01;  5.1735698E+03;
  8.7713176E-01;  9.9999998E-03; -6.0373064E-02;7472;  3.3456783E-03;  0.0000000E+00; -3.1342935E-02;  1.0036055E+03;  1.7804648E-01;  2.9869795E+03;3; -1.6846762E+01;  0.0000000E+00;  4.2974749E+00;0;  2.4131820E+00;  1.2892844E+04;  0.0000000E+00; -1.7272344E-01;  4.0000000E+04;  0.0000000E+00;  3.9566004E+04;  2.0578151E+00;  0.0000000E+00;  3.5536695E-01;  5.0583125E+03;
  8.7713176E-01;  9.9999998E-03;  6.0373072E-02;7484;  3.3456890E-03;  0.0000000E+00;  3.1342961E-02;  1.0036054E+03;  1.7804617E-01;  2.9868809E+03;3; -1.6846788E+01;  0.0000000E+00; -4.2974448E+00;0;  2.4131813E+00;  1.2892848E+04;  0.0000000E+00; -1.7272207E-01;  4.0000000E+04;  0.0000000E+00;  3.9566012E+04;  2.0578146E+00;  0.0000000E+00;  3.5536671E-01;  5.0583423E+03;
  8.7711674E-01;  9.9999998E-03; -7.0469312E-02;7471;  1.6811721E-03;  0.0000000E+00; -3.4867976E-02;  1.0033061E+03;  1.7803645E-01;  2.7389949E+03;3; -1.6313337E+01;  0.0000000E+00;  6.1433892E+00;0;  2.4269934E+00;  1.2882153E+04;  0.0000000E+00; -2.3972763E-01;  4.0000000E+04;  0.0000000E+00;  3.9567348E+04;  2.0912762E+00;  0.0000000E+00;  3.3571708E-01;  4.8699805E+03;
  8.7714958E-01;  9.9999998E-03; -8.0586240E-02;7470; -2.7806661E-04;  0.0000000E+00; -3.7577145E-02;  1.0030477E+03;  1.7803729E-01;  2.5248840E+03;3; -1.6006456E+01;  0.0000000E+00;  8.2499466E+00;0;  2.4475806E+00;  1.2870256E+04;  0.0000000E+00; -3.1081700E-01;  4.0000000E+04;  0.0000000E+00;  3.9569430E+04;  2.1324434E+00;  0.0000000E+00;  3.1513721E-01;  4.6232642E+03;
  8.7725616E-01;  9.9999998E-03; -9.0684988E-02;7469; -2.6156136E-03;  0.0000000E+00; -3.9445817E-02;  1.0028416E+03;  1.7805541E-01;  2.3541289E+03;3; -1.5811446E+01;  0.0000000E+00;  1.0242446E+01;0;  2.4764457E+00;  1.2856825E+04;  0.0000000E+00; -3.7732559E-01;  4.0000000E+04;  0.0000000E+00;  3.9571336E+04;  2.1824224E+00;  0.0000000E+00;  2.9402316E-01;  4.3830503E+03;
  8.7740809E-01;  9.9999998E-03; -1.0076057E-01;7468; -5.3782547E-03;  0.0000000E+00; -4.0531307E-02;  1.0026837E+03;  1.7808436E-01;  2.2232725E+03;3; -1.5487774E+01;  0.0000000E+00;  1.1322168E+01;0;  2.5126910E+00;  1.2843194E+04;  0.0000000E+00; -4.2951718E-01;  4.0000000E+04;  0.0000000E+00;  3.9572230E+04;  2.2403808E+00;  0.0000000E+00;  2.7231026E-01;  4.2234058E+03;
  8.9666390E-01;  9.9999998E-03; -1.0072635E-01;7529; -2.8169681E-03;  0.0000000E+00; -4.4345628E-02;  1.0061240E+03;  1.8255797E-01;  5.0734150E+03;3; -2.2544912E+01;  0.0000000E+00; -9.1398468E+00;0;  3.2181807E+00;  1.2309629E+04;  0.0000000E+00; -1.6497299E-01;  4.0000000E+04;  0.0000000E+00;  3.9552977E+04;  2.8714564E+00;  0.0000000E+00;  3.4672421E-01;  4.4862251E+03;
  8.9655578E-01;  9.9999998E-03; -9.0663992E-02;7530;  2.5495205E-03;  0.0000000E+00; -3.9022792E-02;  1.0063821E+03;  1.8256117E-01;  5.2872275E+03;3; -2.8469772E+01;  0.0000000E+00; -1.0481101E+01;0;  3.1547418E+00;  1.2321010E+04;  0.0000000E+00; -1.4091556E-01;  4.0000000E+04;  0.0000000E+00;  3.9552582E+04;  2.7879694E+00;  0.0000000E+00;  3.6677250E-01;  4.5579502E+03;
  8.9642328E-01;  9.9999998E-03; -8.0575585E-02;7531;  8.5797179E-03;  0.0000000E+00; -3.4668311E-02;  1.0066809E+03;  1.8255924E-01;  5.5348154E+03;3; -3.0769781E+01;  0.0000000E+00; -1.0113199E+01;0;  3.0971551E+00;  1.2334210E+04;  0.0000000E+00; -1.0864943E-01;  4.0000000E+04;  0.0000000E+00;  3.9551746E+04;  2.7116458E+00;  0.0000000E+00;  3.8550934E-01;  4.7162065E+03;
  8.9628625E-01;  9.9999998E-03; -7.0459068E-02;7532;  1.4688618E-02;  0.0000000E+00; -3.1282619E-02;  1.0070201E+03;  1.8255268E-01;  5.8157832E+03;3; -3.0459871E+01;  0.0000000E+00; -9.4322071E+00;0;  3.0467939E+00;  1.2348451E+04;  0.0000000E+00; -7.5164810E-02;  4.0000000E+04;  0.0000000E+00;  3.9550613E+04;  2.6434691E+00;  0.0000000E+00;  4.0332475E-01;  4.8786821E+03;
  8.9615417E-01;  9.9999998E-03; -6.0363464E-02;7533;  2.0391287E-02;  0.0000000E+00; -2.8224222E-02;  1.0073901E+03;  1.8254226E-01;  6.1223296E+03;3; -2.9048685E+01;  0.0000000E+00; -8.6393309E+00;0;  3.0045104E+00;  1.2363033E+04;  0.0000000E+00; -4.6200283E-02;  4.0000000E+04;  0.0000000E+00;  3.9550148E+04;  2.5842297E+00;  0.0000000E+00;  4.2028058E-01;  4.9763086E+03;
  8.9603174E-01;  9.9999998E-03; -5.0298199E-02;7534;  2.5369816E-02;  0.0000000E+00; -2.4899533E-02;  1.0077661E+03;  1.8252924E-01;  6.4337153E+03;3; -2.7453812E+01;  0.0000000E+00; -7.6822615E+00;0;  2.9703059E+00;  1.2377260E+04;  0.0000000E+00; -2.4719290E-02;  4.0000000E+04;  0.0000000E+00;  3.9550398E+04;  2.5341110E+00;  0.0000000E+00;  4.3619478E-01;  5.0014634E+03;
  8.9592212E-01;  9.9999998E-03; -4.0248305E-02;7535;  2.9521409E-02;  0.0000000E+00; -2.1063646E-02;  1.0081206E+03;  1.8251587E-01;  6.7275225E+03;3; -2.6076090E+01;  0.0000000E+00; -6.5216665E+00;0;  2.9436913E+00;  1.2390347E+04;  0.0000000E+00; -1.1070664E-02;  4.0000000E+04;  0.0000000E+00;  3.9550801E+04;  2.4930506E+00;  0.0000000E+00;  4.5064059E-01;  4.9880859E+03;
  8.9583009E-01;  9.9999998E-03; -3.0199504E-02;7536;  3.2813601E-02;  0.0000000E+00; -1.6594375E-02;  1.0084279E+03;  1.8250148E-01;  6.9820234E+03;3; -2.4985216E+01;  0.0000000E+00; -5.1431613E+00;0;  2.9240251E+00;  1.2401555E+04;  0.0000000E+00; -3.8382781E-03;  4.0000000E+04;  0.0000000E+00;  3.9551121E+04;  2.4610260E+00;  0.0000000E+00;  4.6299922E-01;  4.9712114E+03;
  8.9576030E-01;  9.9999998E-03; -2.0142628E-02;7537;  3.5209063E-02;  0.0000000E+00; -1.1493103E-02;  1.0086629E+03;  1.8248886E-01;  7.1767749E+03;3; -2.4194033E+01;  0.0000000E+00; -3.5615776E+00;0;  2.9106259E+00;  1.2410106E+04;  0.0000000E+00; -8.7404047E-04;  4.0000000E+04;  0.0000000E+00;  3.9551449E+04;  2.4380746E+00;  0.0000000E+00;  4.7255144E-01;  4.9670566E+03;
  8.9571697E-01;  9.9999998E-03; -1.0075031E-02;7538;  3.6669262E-02;  0.0000000E+00; -5.8865151E-03;  1.0088110E+03;  1.8248162E-01;  7.2994331E+03;3; -2.3712849E+01;  0.0000000E+00; -1.8233742E+00;0;  2.9028795E+00;  1.2415514E+04;  0.0000000E+00; -8.7352877E-05;  4.0000000E+04;  0.0000000E+00;  3.9551594E+04;  2.4242632E+00;  0.0000000E+00;  4.7861618E-01;  4.9724258E+03;
  8.9570230E-01;  9.9999998E-03; -1.3738217E-09;7539;  3.7160538E-02;  0.0000000E+00;  2.8633378E-08;  1.0088611E+03;  1.8247901E-01;  7.3410107E+03;3; -2.3551058E+01;  0.0000000E+00;  4.1244452E-06;0;  2.9003527E+00;  1.2417359E+04;  0.0000000E+00;  5.6765384E-11;  4.0000000E+04;  0.0000000E+00;  3.9551469E+04;  2.4196534E+00;  0.0000000E+00;  4.8069927E-01;  4.9761250E+03;
  8.9571697E-01;  9.9999998E-03;  1.0075029E-02;7540;  3.6669292E-02;  0.0000000E+00;  5.8865221E-03;  1.0088110E+03;  1.8248089E-01;  7.2994331E+03;3; -2.3712826E+01;  0.0000000E+00;  1.8233714E+00;0;  2.9028788E+00;  1.2415516E+04;  0.0000000E+00; -8.7126966E-05;  4.0000000E+04;  0.0000000E+00;  3.9551594E+04;  2.4242625E+00;  0.0000000E+00;  4.7861621E-01;  4.9724536E+03;
  8.9576030E-01;  9.9999998E-03;  2.0142624E-02;7541;  3.5209168E-02;  0.0000000E+00;  1.1493083E-02;  1.0086629E+03;  1.8248901E-01;  7.1767749E+03;3; -2.4193970E+01;  0.0000000E+00;  3.5615754E+00;0;  2.9106269E+00;  1.2410106E+04;  0.0000000E+00; -8.7369105E-04;  4.0000000E+04;  0.0000000E+00;  3.9551449E+04;  2.4380753E+00;  0.0000000E+00;  4.7255155E-01;  4.9670591E+03;
  8.9583009E-01;  9.9999998E-03;  3.0199498E-02;7542;  3.2813806E-02;  0.0000000E+00;  1.6594363E-02;  1.0084279E+03;  1.8250091E-01;  6.9820234E+03;3; -2.4985132E+01;  0.0000000E+00;  5.1431479E+00;0;  2.9240248E+00;  1.2401556E+04;  0.0000000E+00; -3.8371033E-03;  4.0000000E+04;  0.0000000E+00;  3.9551121E+04;  2.4610255E+00;  0.0000000E+00;  4.6299928E-01;  4.9712095E+03;
  8.9592212E-01;  9.9999998E-03;  4.0248301E-02;7543;  2.9521562E-02;  0.0000000E+00;  2.1063562E-02;  1.0081208E+03;  1.8251498E-01;  6.7277202E+03;3; -2.6076002E+01;  0.0000000E+00;  6.5216498E+00;0;  2.9436915E+00;  1.2390348E+04;  0.0000000E+00; -1.1069733E-02;  4.0000000E+04;  0.0000000E+00;  3.9550816E+04;  2.4930508E+00;  0.0000000E+00;  4.5064077E-01;  4.9881235E+03;
  8.9603174E-01;  9.9999998E-03;  5.0298195E-02;7544;  2.5370074E-02;  0.0000000E+00;  2.4899496E-02;  1.0077662E+03;  1.8252940E-01;  6.4338140E+03;3; -2.7453714E+01;  0.0000000E+00;  7.6822190E+00;0;  2.9703054E+00;  1.2377265E+04;  0.0000000E+00; -2.4721088E-02;  4.0000000E+04;  0.0000000E+00;  3.9550395E+04;  2.5341108E+00;  0.0000000E+00;  4.3619475E-01;  5.0015054E+03;
  8.9615417E-01;  9.9999998E-03;  6.0363464E-02;7545;  2.0391703E-02;  0.0000000E+00;  2.8224120E-02;  1.0073902E+03;  1.8254282E-01;  6.1223296E+03;3; -2.9048552E+01;  0.0000000E+00;  8.6393194E+00;0;  3.0045083E+00;  1.2363033E+04;  0.0000000E+00; -4.6197716E-02;  4.0000000E+04;  0.0000000E+00;  3.9550145E+04;  2.5842276E+00;  0.0000000E+00;  4.2028075E-01;  4.9762671E+03;
  9.1540790E-01;  9.9999998E-03; -1.0069896E-01;7590;  2.1581802E-01;  0.0000000E+00; -3.9735984E-02;  1.0067789E+03;  1.8505417E-01;  5.6158159E+03;3;  1.0520134E+01;  0.0000000E+00; -1.3073634E+01;0;  3.4518881E+00;  1.1991600E+04;  0.0000000E+00;  1.5506604E-01;  4.0000000E+04;  0.0000000E+00;  3.9550512E+04;  3.0444932E+00;  0.0000000E+00;  4.0739501E-01;  3.6930876E+03;
  9.1535300E-01;  9.9999998E-03; -9.0628989E-02;7591;  2.2324881E-01;  0.0000000E+00; -3.4900054E-02;  1.0070315E+03;  1.8507889E-01;  5.8250830E+03;3;  1.5015759E+01;  0.0000000E+00; -1.2163697E+01;0;  3.3625760E+00;  1.1999244E+04;  0.0000000E+00;  1.4716426E-01;  4.0000000E+04;  0.0000000E+00;  3.9550465E+04;  2.9378290E+00;  0.0000000E+00;  4.2474702E-01;  3.6423320E+03;
  9.1526312E-01;  9.9999998E-03; -8.0537304E-02;7592;  2.3088124E-01;  0.0000000E+00; -3.0805862E-02;  1.0073325E+03;  1.8509714E-01;  6.0744443E+03;3;  1.9071360E+01;  0.0000000E+00; -1.1322124E+01;0;  3.2805724E+00;  1.2008849E+04;  0.0000000E+00;  1.2669416E-01;  4.0000000E+04;  0.0000000E+00;  3.9549867E+04;  2.8398576E+00;  0.0000000E+00;  4.4071493E-01;  3.6639529E+03;
  9.1515005E-01;  9.9999998E-03; -7.0431344E-02;7593;  2.3850802E-01;  0.0000000E+00; -2.7380388E-02;  1.0076789E+03;  1.8510897E-01;  6.3614326E+03;3;  2.2708403E+01;  0.0000000E+00; -1.0470508E+01;0;  3.2074077E+00;  1.2019930E+04;  0.0000000E+00;  1.0000817E-01;  4.0000000E+04;  0.0000000E+00;  3.9549348E+04;  2.7516453E+00;  0.0000000E+00;  4.5576245E-01;  3.6881392E+03;
  9.1502023E-01;  9.9999998E-03; -6.0330693E-02;7594;  2.4569401E-01;  0.0000000E+00; -2.4307720E-02;  1.0080510E+03;  1.8511243E-01;  6.6696543E+03;3;  2.5918509E+01;  0.0000000E+00; -9.5325432E+00;0;  3.1443319E+00;  1.2031832E+04;  0.0000000E+00;  7.2885938E-02;  4.0000000E+04;  0.0000000E+00;  3.9549555E+04;  2.6742256E+00;  0.0000000E+00;  4.7010639E-01;  3.6598721E+03;
  9.1487873E-01;  9.9999998E-03; -5.0253395E-02;7595;  2.5168508E-01;  0.0000000E+00; -2.1529866E-02;  1.0084307E+03;  1.8510891E-01;  6.9842949E+03;3;  2.8672209E+01;  0.0000000E+00; -8.4419527E+00;0;  3.0921047E+00;  1.2043865E+04;  0.0000000E+00;  4.9100757E-02;  4.0000000E+04;  0.0000000E+00;  3.9550324E+04;  2.6084409E+00;  0.0000000E+00;  4.8366371E-01;  3.5672041E+03;
  9.1473633E-01;  9.9999998E-03; -4.0198538E-02;7596;  2.5609908E-01;  0.0000000E+00; -1.8790640E-02;  1.0087861E+03;  1.8510161E-01;  7.2786904E+03;3;  3.0951433E+01;  0.0000000E+00; -7.1494980E+00;0;  3.0507638E+00;  1.2055179E+04;  0.0000000E+00;  3.0248517E-02;  4.0000000E+04;  0.0000000E+00;  3.9551594E+04;  2.5546491E+00;  0.0000000E+00;  4.9611467E-01;  3.4402183E+03;
  9.1460586E-01;  9.9999998E-03; -3.0153213E-02;7597;  2.5878602E-01;  0.0000000E+00; -1.5444222E-02;  1.0090923E+03;  1.8509330E-01;  7.5323979E+03;3;  3.2740856E+01;  0.0000000E+00; -5.6309338E+00;0;  3.0198622E+00;  1.2065028E+04;  0.0000000E+00;  1.6428908E-02;  4.0000000E+04;  0.0000000E+00;  3.9552727E+04;  2.5129433E+00;  0.0000000E+00;  5.0691885E-01;  3.3191785E+03;
  9.1450089E-01;  9.9999998E-03; -2.0107187E-02;7598;  2.6010603E-01;  0.0000000E+00; -1.1129269E-02;  1.0093294E+03;  1.8508370E-01;  7.7288262E+03;3;  3.4028469E+01;  0.0000000E+00; -3.8969197E+00;0;  2.9986353E+00;  1.2072598E+04;  0.0000000E+00;  7.1138199E-03;  4.0000000E+04;  0.0000000E+00;  3.9553664E+04;  2.4832551E+00;  0.0000000E+00;  5.1538014E-01;  3.2296841E+03;
  9.1443259E-01;  9.9999998E-03; -1.0055814E-02;7599;  2.6063389E-01;  0.0000000E+00; -5.8598183E-03;  1.0094752E+03;  1.8507709E-01;  7.8496074E+03;3;  3.4805279E+01;  0.0000000E+00; -1.9945283E+00;0;  2.9862864E+00;  1.2077449E+04;  0.0000000E+00;  1.7515965E-03;  4.0000000E+04;  0.0000000E+00;  3.9554125E+04;  2.4654827E+00;  0.0000000E+00;  5.2080375E-01;  3.1788142E+03;
  9.1440904E-01;  9.9999998E-03; -6.2669070E-10;7600;  2.6076362E-01;  0.0000000E+00;  6.7778181E-08;  1.0095263E+03;  1.8507512E-01;  7.8918750E+03;3;  3.5065048E+01;  0.0000000E+00;  2.6264541E-05;0;  2.9822402E+00;  1.2079099E+04;  0.0000000E+00;  5.0188766E-11;  4.0000000E+04;  0.0000000E+00;  3.9554250E+04;  2.4595642E+00;  0.0000000E+00;  5.2267611E-01;  3.1628022E+03;
  9.1443259E-01;  9.9999998E-03;  1.0055812E-02;7601;  2.6063403E-01;  0.0000000E+00;  5.8599706E-03;  1.0094750E+03;  1.8507747E-01;  7.8494097E+03;3;  3.4805340E+01;  0.0000000E+00;  1.9945704E+00;0;  2.9862850E+00;  1.2077446E+04;  0.0000000E+00;  1.7524869E-03;  4.0000000E+04;  0.0000000E+00;  3.9554125E+04;  2.4654810E+00;  0.0000000E+00;  5.2080387E-01;  3.1788003E+03;
  9.1450089E-01;  9.9999998E-03;  2.0107184E-02;7602;  2.6010618E-01;  0.0000000E+00;  1.1129293E-02;  1.0093294E+03;  1.8508366E-01;  7.7288262E+03;3;  3.4028534E+01;  0.0000000E+00;  3.8969438E+00;0;  2.9986334E+00;  1.2072594E+04;  0.0000000E+00;  7.1157156E-03;  4.0000000E+04;  0.0000000E+00;  3.9553664E+04;  2.4832530E+00;  0.0000000E+00;  5.1538050E-01;  3.2297117E+03;
  9.1460586E-01;  9.9999998E-03;  3.0153211E-02;7603;  2.5878608E-01;  0.0000000E+00;  1.5444156E-02;  1.0090924E+03;  1.8509306E-01;  7.5324966E+03;3;  3.2740894E+01;  0.0000000E+00;  5.6309710E+00;0;  3.0198567E+00;  1.2065030E+04;  0.0000000E+00;  1.6431268E-02;  4.0000000E+04;  0.0000000E+00;  3.9552727E+04;  2.5129380E+00;  0.0000000E+00;  5.0691861E-01;  3.3192405E+03;
  9.1473633E-01;  9.9999998E-03;  4.0198535E-02;7604;  2.5609934E-01;  0.0000000E+00;  1.8790601E-02;  1.0087860E+03;  1.8510172E-01;  7.2785918E+03;3;  3.0951521E+01;  0.0000000E+00;  7.1494799E+00;0;  3.0507603E+00;  1.2055174E+04;  0.0000000E+00;  3.0252611E-02;  4.0000000E+04;  0.0000000E+00;  3.9551590E+04;  2.5546458E+00;  0.0000000E+00;  4.9611461E-01;  3.4402581E+03;
  9.1487873E-01;  9.9999998E-03;  5.0253395E-02;7605;  2.5168544E-01;  0.0000000E+00;  2.1529775E-02;  1.0084307E+03;  1.8510960E-01;  6.9842949E+03;3;  2.8672348E+01;  0.0000000E+00;  8.4418774E+00;0;  3.0921009E+00;  1.2043862E+04;  0.0000000E+00;  4.9105603E-02;  4.0000000E+04;  0.0000000E+00;  3.9550324E+04;  2.6084373E+00;  0.0000000E+00;  4.8366359E-01;  3.5672161E+03;
  9.1502023E-01;  9.9999998E-03;  6.0330693E-02;7606;  2.4569413E-01;  0.0000000E+00;  2.4307640E-02;  1.0080511E+03;  1.8511248E-01;  6.6697529E+03;3;  2.5918566E+01;  0.0000000E+00;  9.5324802E+00;0;  3.1443326E+00;  1.2031828E+04;  0.0000000E+00;  7.2891973E-02;  4.0000000E+04;  0.0000000E+00;  3.9549551E+04;  2.6742268E+00;  0.0000000E+00;  4.7010595E-01;  3.6599084E+03;
  9.3455392E-01;  9.9999998E-03; -1.0067376E-01;7651;  3.4373769E-01;  0.0000000E+00; -8.2665168E-02;  1.0059463E+03;  1.8611990E-01;  4.9260034E+03;3;  5.6265591E+01;  0.0000000E+00; -1.3863622E+01;0;  3.1380210E+00;  1.1826047E+04;  0.0000000E+00;  5.1077127E-01;  4.0000000E+04;  0.0000000E+00;  3.9563414E+04;  2.7000375E+00;  0.0000000E+00;  4.3798354E-01;  2.7682715E+03;
  9.3461281E-01;  9.9999998E-03; -9.0615757E-02;7652;  3.3564347E-01;  0.0000000E+00; -7.6188326E-02;  1.0060875E+03;  1.8614686E-01;  5.0430278E+03;3;  5.9037594E+01;  0.0000000E+00; -1.2985559E+01;0;  3.0373912E+00;  1.1828636E+04;  0.0000000E+00;  4.9764091E-01;  4.0000000E+04;  0.0000000E+00;  3.9563484E+04;  2.5852015E+00;  0.0000000E+00;  4.5218980E-01;  2.5368420E+03;
  9.3459612E-01;  9.9999998E-03; -8.0542356E-02;7653;  3.2794401E-01;  0.0000000E+00; -6.9397859E-02;  1.0062662E+03;  1.8616983E-01;  5.1909634E+03;3;  6.0851501E+01;  0.0000000E+00; -1.2048549E+01;0;  2.9464755E+00;  1.1833029E+04;  0.0000000E+00;  4.2760092E-01;  4.0000000E+04;  0.0000000E+00;  3.9563148E+04;  2.4810014E+00;  0.0000000E+00;  4.6547401E-01;  2.1853860E+03;
  9.3451720E-01;  9.9999998E-03; -7.0449151E-02;7654;  3.2088786E-01;  0.0000000E+00; -6.2262222E-02;  1.0064810E+03;  1.8618391E-01;  5.3690190E+03;3;  6.2547436E+01;  0.0000000E+00; -1.1063545E+01;0;  2.8662755E+00;  1.1838706E+04;  0.0000000E+00;  3.2886320E-01;  4.0000000E+04;  0.0000000E+00;  3.9562805E+04;  2.3881016E+00;  0.0000000E+00;  4.7817400E-01;  1.7910721E+03;
  9.3439823E-01;  9.9999998E-03; -6.0358588E-02;7655;  3.1457582E-01;  0.0000000E+00; -5.4674972E-02;  1.0067180E+03;  1.8619464E-01;  5.5652466E+03;3;  6.3714237E+01;  0.0000000E+00; -9.9209299E+00;0;  2.7974777E+00;  1.1845239E+04;  0.0000000E+00;  2.2815633E-01;  4.0000000E+04;  0.0000000E+00;  3.9562867E+04;  2.3071029E+00;  0.0000000E+00;  4.9037480E-01;  1.4046056E+03;
  9.3425155E-01;  9.9999998E-03; -5.0276231E-02;7656;  3.0915356E-01;  0.0000000E+00; -4.6614554E-02;  1.0069692E+03;  1.8619750E-01;  5.7734233E+03;3;  6.4753822E+01;  0.0000000E+00; -8.6876068E+00;0;  2.7404816E+00;  1.1852090E+04;  0.0000000E+00;  1.4295243E-01;  4.0000000E+04;  0.0000000E+00;  3.9564293E+04;  2.2385290E+00;  0.0000000E+00;  5.0195265E-01;  1.0401477E+03;
  9.3409991E-01;  9.9999998E-03; -4.0208053E-02;7657;  3.0465198E-01;  0.0000000E+00; -3.8122732E-02;  1.0072106E+03;  1.8619786E-01;  5.9734038E+03;3;  6.5680939E+01;  0.0000000E+00; -7.2781634E+00;0;  2.6950617E+00;  1.1858610E+04;  0.0000000E+00;  8.0297157E-02;  4.0000000E+04;  0.0000000E+00;  3.9565988E+04;  2.1824803E+00;  0.0000000E+00;  5.1258135E-01;  7.0229224E+02;
  9.3396443E-01;  9.9999998E-03; -3.0152371E-02;7658;  3.0110717E-01;  0.0000000E+00; -2.9277446E-02;  1.0074194E+03;  1.8619625E-01;  6.1463247E+03;3;  6.6301895E+01;  0.0000000E+00; -5.6399431E+00;0;  2.6606650E+00;  1.1864220E+04;  0.0000000E+00;  3.9353210E-02;  4.0000000E+04;  0.0000000E+00;  3.9567988E+04;  2.1388886E+00;  0.0000000E+00;  5.2177632E-01;  4.0621680E+02;
  9.3385416E-01;  9.9999998E-03; -2.0102477E-02;7659;  2.9855248E-01;  0.0000000E+00; -2.0054461E-02;  1.0075809E+03;  1.8619211E-01;  6.2801382E+03;3;  6.6800827E+01;  0.0000000E+00; -3.8220570E+00;0;  2.6368237E+00;  1.1868575E+04;  0.0000000E+00;  1.5467031E-02;  4.0000000E+04;  0.0000000E+00;  3.9569574E+04;  2.1078587E+00;  0.0000000E+00;  5.2896512E-01;  1.7641881E+02;
  9.3378198E-01;  9.9999998E-03; -1.0052479E-02;7660;  2.9700449E-01;  0.0000000E+00; -1.0265414E-02;  1.0076808E+03;  1.8619092E-01;  6.3628955E+03;3;  6.7084099E+01;  0.0000000E+00; -1.9129139E+00;0;  2.6228766E+00;  1.1871314E+04;  0.0000000E+00;  3.5495600E-03;  4.0000000E+04;  0.0000000E+00;  3.9570648E+04;  2.0893002E+00;  0.0000000E+00;  5.3357661E-01;  3.2683395E+01;
  9.3375653E-01;  9.9999998E-03; -6.5097416E-10;7661;  2.9648486E-01;  0.0000000E+00; -1.9620305E-08;  1.0077166E+03;  1.8618950E-01;  6.3926216E+03;3;  6.7179436E+01;  0.0000000E+00;  1.7380393E-05;0;  2.6183038E+00;  1.1872272E+04;  0.0000000E+00;  3.3137586E-11;  4.0000000E+04;  0.0000000E+00;  3.9570949E+04;  2.0831342E+00;  0.0000000E+00;  5.3516954E-01;  1.9413549E+01;
  9.3378198E-01;  9.9999998E-03;  1.0052478E-02;7662;  2.9700449E-01;  0.0000000E+00;  1.0265362E-02;  1.0076806E+03;  1.8619074E-01;  6.3627969E+03;3;  6.7084122E+01;  0.0000000E+00;  1.9129673E+00;0;  2.6228766E+00;  1.1871313E+04;  0.0000000E+00;  3.5512273E-03;  4.0000000E+04;  0.0000000E+00;  3.9570648E+04;  2.0893004E+00;  0.0000000E+00;  5.3357619E-01;  3.2697620E+01;
  9.3385416E-01;  9.9999998E-03;  2.0102475E-02;7663;  2.9855242E-01;  0.0000000E+00;  2.0054329E-02;  1.0075809E+03;  1.8619210E-01;  6.2801382E+03;3;  6.6800949E+01;  0.0000000E+00;  3.8220477E+00;0;  2.6368275E+00;  1.1868575E+04;  0.0000000E+00;  1.5470493E-02;  4.0000000E+04;  0.0000000E+00;  3.9569574E+04;  2.1078627E+00;  0.0000000E+00;  5.2896476E-01;  1.7641211E+02;
  9.3396443E-01;  9.9999998E-03;  3.0152367E-02;7664;  3.0110714E-01;  0.0000000E+00;  2.9277466E-02;  1.0074194E+03;  1.8619570E-01;  6.1463247E+03;3;  6.6301796E+01;  0.0000000E+00;  5.6400232E+00;0;  2.6606641E+00;  1.1864219E+04;  0.0000000E+00;  3.9359007E-02;  4.0000000E+04;  0.0000000E+00;  3.9567984E+04;  2.1388884E+00;  0.0000000E+00;  5.2177584E-01;  4.0624655E+02;
  9.3409991E-01;  9.9999998E-03;  4.0208049E-02;7665;  3.0465189E-01;  0.0000000E+00;  3.8122647E-02;  1.0072104E+03;  1.8619788E-01;  5.9733052E+03;3;  6.5681099E+01;  0.0000000E+00;  7.2781415E+00;0;  2.6950614E+00;  1.1858610E+04;  0.0000000E+00;  8.0304064E-02;  4.0000000E+04;  0.0000000E+00;  3.9565984E+04;  2.1824803E+00;  0.0000000E+00;  5.1258117E-01;  7.0230469E+02;
  9.3425155E-01;  9.9999998E-03;  5.0276227E-02;7666;  3.0915347E-01;  0.0000000E+00;  4.6614472E-02;  1.0069691E+03;  1.8619785E-01;  5.7733242E+03;3;  6.4753845E+01;  0.0000000E+00;  8.6876059E+00;0;  2.7404809E+00;  1.1852094E+04;  0.0000000E+00;  1.4295998E-01;  4.0000000E+04;  0.0000000E+00;  3.9564297E+04;  2.2385280E+00;  0.0000000E+00;  5.0195277E-01;  1.0401431E+03;
  9.3439823E-01;  9.9999998E-03;  6.0358584E-02;7667;  3.1457570E-01;  0.0000000E+00;  5.4674797E-02;  1.0067180E+03;  1.8619511E-01;  5.5652466E+03;3;  6.3714310E+01;  0.0000000E+00;  9.9208708E+00;0;  2.7974749E+00;  1.1845242E+04;  0.0000000E+00;  2.2816482E-01;  4.0000000E+04;  0.0000000E+00;  3.9562867E+04;  2.3071008E+00;  0.0000000E+00;  4.9037412E-01;  1.4046073E+03;
  9.5312959E-01;  9.9999998E-03; -1.0052727E-01;7712;  3.5099632E-01;  0.0000000E+00; -7.2285876E-02;  1.0047251E+03;  1.8623023E-01;  3.9142605E+03;3;  6.3443943E+01;  0.0000000E+00; -1.5499866E+01;0;  2.4878492E+00;  1.1771983E+04;  0.0000000E+00;  7.3868394E-01;  4.0000000E+04;  0.0000000E+00;  3.9585633E+04;  2.0567377E+00;  0.0000000E+00;  4.3111169E-01;  4.1451782E+03;
  9.5319891E-01;  9.9999998E-03; -9.0488881E-02;7713;  3.4141213E-01;  0.0000000E+00; -6.5822154E-02;  1.0047078E+03;  1.8624204E-01;  3.8999407E+03;3;  6.4421478E+01;  0.0000000E+00; -1.3905974E+01;0;  2.3930540E+00;  1.1770390E+04;  0.0000000E+00;  7.5806475E-01;  4.0000000E+04;  0.0000000E+00;  3.9586055E+04;  1.9513080E+00;  0.0000000E+00;  4.4174588E-01;  4.0220378E+03;
  9.5319641E-01;  9.9999998E-03; -8.0443002E-02;7714;  3.3270821E-01;  0.0000000E+00; -5.9300523E-02;  1.0047031E+03;  1.8625198E-01;  3.8960894E+03;3;  6.5429092E+01;  0.0000000E+00; -1.2379361E+01;0;  2.3081856E+00;  1.1769780E+04;  0.0000000E+00;  6.7454505E-01;  4.0000000E+04;  0.0000000E+00;  3.9585582E+04;  1.8563884E+00;  0.0000000E+00;  4.5179710E-01;  3.6434917E+03;
  9.5313823E-01;  9.9999998E-03; -7.0376992E-02;7715;  3.2490700E-01;  0.0000000E+00; -5.2631326E-02;  1.0047187E+03;  1.8625872E-01;  3.9089277E+03;3;  6.6456360E+01;  0.0000000E+00; -1.0924240E+01;0;  2.2335558E+00;  1.1769929E+04;  0.0000000E+00;  5.3359592E-01;  4.0000000E+04;  0.0000000E+00;  3.9585277E+04;  1.7720879E+00;  0.0000000E+00;  4.6146774E-01;  3.2167493E+03;
  9.5303559E-01;  9.9999998E-03; -6.0297191E-02;7716;  3.1805778E-01;  0.0000000E+00; -4.5786574E-02;  1.0047474E+03;  1.8626185E-01;  3.9327278E+03;3;  6.7390114E+01;  0.0000000E+00; -9.4560070E+00;0;  2.1696868E+00;  1.1770598E+04;  0.0000000E+00;  3.7946349E-01;  4.0000000E+04;  0.0000000E+00;  3.9585527E+04;  1.6988780E+00;  0.0000000E+00;  4.7080866E-01;  2.9359878E+03;
  9.5291376E-01;  9.9999998E-03; -5.0223112E-02;7717;  3.1221473E-01;  0.0000000E+00; -3.8735066E-02;  1.0047913E+03;  1.8626349E-01;  3.9690698E+03;3;  6.8253487E+01;  0.0000000E+00; -7.9806728E+00;0;  2.1164422E+00;  1.1771480E+04;  0.0000000E+00;  2.4352761E-01;  4.0000000E+04;  0.0000000E+00;  3.9586957E+04;  1.6367623E+00;  0.0000000E+00;  4.7967994E-01;  2.9029062E+03;
  9.5279360E-01;  9.9999998E-03; -4.0157747E-02;7718;  3.0739573E-01;  0.0000000E+00; -3.1432599E-02;  1.0048421E+03;  1.8626331E-01;  4.0111387E+03;3;  6.8927032E+01;  0.0000000E+00; -6.4420109E+00;0;  2.0735126E+00;  1.1772312E+04;  0.0000000E+00;  1.4002961E-01;  4.0000000E+04;  0.0000000E+00;  3.9589211E+04;  1.5856994E+00;  0.0000000E+00;  4.8781320E-01;  3.0841819E+03;
  9.5268726E-01;  9.9999998E-03; -3.0105757E-02;7719;  3.0363992E-01;  0.0000000E+00; -2.3883194E-02;  1.0048909E+03;  1.8626156E-01;  4.0516279E+03;3;  6.9506516E+01;  0.0000000E+00; -4.9040918E+00;0;  2.0406923E+00;  1.1773114E+04;  0.0000000E+00;  7.0136435E-02;  4.0000000E+04;  0.0000000E+00;  3.9591816E+04;  1.5458608E+00;  0.0000000E+00;  4.9483162E-01;  3.3693149E+03;
  9.5260197E-01;  9.9999998E-03; -2.0065475E-02;7720;  3.0094853E-01;  0.0000000E+00; -1.6091969E-02;  1.0049330E+03;  1.8626019E-01;  4.0864883E+03;3;  6.9937897E+01;  0.0000000E+00; -3.3130581E+00;0;  2.0177314E+00;  1.1773670E+04;  0.0000000E+00;  2.8072344E-02;  4.0000000E+04;  0.0000000E+00;  3.9594070E+04;  1.5174266E+00;  0.0000000E+00;  5.0030488E-01;  3.6491851E+03;
  9.5254660E-01;  9.9999998E-03; -1.0031638E-02;7721;  2.9932922E-01;  0.0000000E+00; -8.1034768E-03;  1.0049608E+03;  1.8625960E-01;  4.1094980E+03;3;  7.0210327E+01;  0.0000000E+00; -1.6694556E+00;0;  2.0041914E+00;  1.1774022E+04;  0.0000000E+00;  6.5208217E-03;  4.0000000E+04;  0.0000000E+00;  3.9595660E+04;  1.5003858E+00;  0.0000000E+00;  5.0380552E-01;  3.8466562E+03;
  9.5252711E-01;  9.9999998E-03; -1.5766453E-09;7722;  2.9878861E-01;  0.0000000E+00; -4.7332161E-08;  1.0049693E+03;  1.8625852E-01;  4.1166084E+03;3;  7.0299339E+01;  0.0000000E+00;  3.3901233E-05;0;  1.9997320E+00;  1.1774138E+04;  0.0000000E+00;  1.6188920E-11;  4.0000000E+04;  0.0000000E+00;  3.9596148E+04;  1.4947188E+00;  0.0000000E+00;  5.0501329E-01;  3.9172390E+03;
  9.5254654E-01;  9.9999998E-03;  1.0031635E-02;7723;  2.9932919E-01;  0.0000000E+00;  8.1033884E-03;  1.0049608E+03;  1.8625970E-01;  4.1094980E+03;3;  7.0210350E+01;  0.0000000E+00;  1.6695172E+00;0;  2.0041914E+00;  1.1774024E+04;  0.0000000E+00;  6.5233135E-03;  4.0000000E+04;  0.0000000E+00;  3.9595656E+04;  1.5003861E+00;  0.0000000E+00;  5.0380528E-01;  3.8466658E+03;
  9.5260191E-01;  9.9999998E-03;  2.0065473E-02;7724;  3.0094847E-01;  0.0000000E+00;  1.6091872E-02;  1.0049330E+03;  1.8626104E-01;  4.0864883E+03;3;  6.9937988E+01;  0.0000000E+00;  3.3130863E+00;0;  2.0177324E+00;  1.1773667E+04;  0.0000000E+00;  2.8076522E-02;  4.0000000E+04;  0.0000000E+00;  3.9594070E+04;  1.5174274E+00;  0.0000000E+00;  5.0030488E-01;  3.6491799E+03;
  9.5268726E-01;  9.9999998E-03;  3.0105755E-02;7725;  3.0363983E-01;  0.0000000E+00;  2.3883080E-02;  1.0048909E+03;  1.8626156E-01;  4.0516279E+03;3;  6.9506561E+01;  0.0000000E+00;  4.9040909E+00;0;  2.0406895E+00;  1.1773109E+04;  0.0000000E+00;  7.0142582E-02;  4.0000000E+04;  0.0000000E+00;  3.9591816E+04;  1.5458585E+00;  0.0000000E+00;  4.9483109E-01;  3.3693000E+03;
  9.5279360E-01;  9.9999998E-03;  4.0157743E-02;7726;  3.0739561E-01;  0.0000000E+00;  3.1432461E-02;  1.0048420E+03;  1.8626232E-01;  4.0111387E+03;3;  6.8926949E+01;  0.0000000E+00;  6.4420381E+00;0;  2.0735114E+00;  1.1772314E+04;  0.0000000E+00;  1.4003684E-01;  4.0000000E+04;  0.0000000E+00;  3.9589211E+04;  1.5856981E+00;  0.0000000E+00;  4.8781320E-01;  3.0841416E+03;
  9.5291376E-01;  9.9999998E-03;  5.0223108E-02;7727;  3.1221461E-01;  0.0000000E+00;  3.8734965E-02;  1.0047911E+03;  1.8626374E-01;  3.9689709E+03;3;  6.8253525E+01;  0.0000000E+00;  7.9806771E+00;0;  2.1164401E+00;  1.1771483E+04;  0.0000000E+00;  2.4353594E-01;  4.0000000E+04;  0.0000000E+00;  3.9586961E+04;  1.6367602E+00;  0.0000000E+00;  4.7967973E-01;  2.9028833E+03;
  9.5303559E-01;  9.9999998E-03;  6.0297184E-02;7728;  3.1805760E-01;  0.0000000E+00;  4.5786403E-02;  1.0047473E+03;  1.8626186E-01;  3.9326292E+03;3;  6.7390305E+01;  0.0000000E+00;  9.4558496E+00;0;  2.1696861E+00;  1.1770600E+04;  0.0000000E+00;  3.7947071E-01;  4.0000000E+04;  0.0000000E+00;  3.9585527E+04;  1.6988778E+00;  0.0000000E+00;  4.7080833E-01;  2.9359878E+03;
  9.7109675E-01;  9.9999998E-03; -1.0038098E-01;7773;  3.5008422E-01;  0.0000000E+00; -5.5449370E-02;  1.0031090E+03;  1.8576179E-01;  2.5753899E+03;3;  6.5003532E+01;  0.0000000E+00; -1.6907778E+01;0;  1.7333059E+00;  1.1783425E+04;  0.0000000E+00;  6.5198761E-01;  4.0000000E+04;  0.0000000E+00;  3.9609914E+04;  1.3487085E+00;  0.0000000E+00;  3.8459739E-01;  6.7421484E+03;
  9.7138381E-01;  9.9999998E-03; -9.0356097E-02;7774;  3.4008366E-01;  0.0000000E+00; -5.0042436E-02;  1.0028868E+03;  1.8575689E-01;  2.3914180E+03;3;  6.5897934E+01;  0.0000000E+00; -1.5061022E+01;0;  1.6464134E+00;  1.1776370E+04;  0.0000000E+00;  7.0725775E-01;  4.0000000E+04;  0.0000000E+00;  3.9610781E+04;  1.2563028E+00;  0.0000000E+00;  3.9011058E-01;  6.8008408E+03;
  9.7160244E-01;  9.9999998E-03; -8.0329724E-02;7775;  3.3098575E-01;  0.0000000E+00; -4.4620134E-02;  1.0026641E+03;  1.8575236E-01;  2.2068542E+03;3;  6.6741470E+01;  0.0000000E+00; -1.3189527E+01;0;  1.5690290E+00;  1.1769903E+04;  0.0000000E+00;  6.4885676E-01;  4.0000000E+04;  0.0000000E+00;  3.9610766E+04;  1.1735495E+00;  0.0000000E+00;  3.9547947E-01;  6.6511050E+03;
  9.7173828E-01;  9.9999998E-03; -7.0289731E-02;7776;  3.2284921E-01;  0.0000000E+00; -3.9221242E-02;  1.0024438E+03;  1.8574476E-01;  2.0243645E+03;3;  6.7622513E+01;  0.0000000E+00; -1.1426377E+01;0;  1.5020144E+00;  1.1763829E+04;  0.0000000E+00;  5.2441865E-01;  4.0000000E+04;  0.0000000E+00;  3.9610555E+04;  1.1011527E+00;  0.0000000E+00;  4.0086171E-01;  6.4725571E+03;
  9.7180599E-01;  9.9999998E-03; -6.0230751E-02;7777;  3.1571895E-01;  0.0000000E+00; -3.3834752E-02;  1.0022344E+03;  1.8573914E-01;  1.8509601E+03;3;  6.8441872E+01;  0.0000000E+00; -9.7086506E+00;0;  1.4451237E+00;  1.1758066E+04;  0.0000000E+00;  3.7988806E-01;  4.0000000E+04;  0.0000000E+00;  3.9610914E+04;  1.0388811E+00;  0.0000000E+00;  4.0624258E-01;  6.4139058E+03;
  9.7182429E-01;  9.9999998E-03; -5.0171584E-02;7778;  3.0964634E-01;  0.0000000E+00; -2.8427796E-02;  1.0020466E+03;  1.8573354E-01;  1.6953309E+03;3;  6.9214706E+01;  0.0000000E+00; -8.0957708E+00;0;  1.3980731E+00;  1.1752731E+04;  0.0000000E+00;  2.4840365E-01;  4.0000000E+04;  0.0000000E+00;  3.9612406E+04;  9.8657286E-01;  0.0000000E+00;  4.1150025E-01;  6.5378721E+03;
  9.7181976E-01;  9.9999998E-03; -4.0124588E-02;7779;  3.0465472E-01;  0.0000000E+00; -2.2954438E-02;  1.0018828E+03;  1.8572801E-01;  1.5596492E+03;3;  6.9802811E+01;  0.0000000E+00; -6.4394951E+00;0;  1.3601726E+00;  1.1747827E+04;  0.0000000E+00;  1.4592642E-01;  4.0000000E+04;  0.0000000E+00;  3.9614715E+04;  9.4378465E-01;  0.0000000E+00;  4.1638795E-01;  6.8223394E+03;
  9.7180748E-01;  9.9999998E-03; -3.0089067E-02;7780;  3.0076525E-01;  0.0000000E+00; -1.7380003E-02;  1.0017495E+03;  1.8572427E-01;  1.4492473E+03;3;  7.0357109E+01;  0.0000000E+00; -4.7503724E+00;0;  1.3310156E+00;  1.1743626E+04;  0.0000000E+00;  7.4867345E-02;  4.0000000E+04;  0.0000000E+00;  3.9617680E+04;  9.1038293E-01;  0.0000000E+00;  4.2063260E-01;  7.1915317E+03;
  9.7179341E-01;  9.9999998E-03; -2.0055890E-02;7781;  2.9798084E-01;  0.0000000E+00; -1.1682573E-02;  1.0016548E+03;  1.8572135E-01;  1.3707415E+03;3;  7.0768379E+01;  0.0000000E+00; -3.1079175E+00;0;  1.3104137E+00;  1.1740368E+04;  0.0000000E+00;  3.0648282E-02;  4.0000000E+04;  0.0000000E+00;  3.9620457E+04;  8.8645613E-01;  0.0000000E+00;  4.2395762E-01;  7.5500732E+03;
  9.7178513E-01;  9.9999998E-03; -1.0025971E-02;7782;  2.9630753E-01;  0.0000000E+00; -5.8733472E-03;  1.0015960E+03;  1.8571922E-01;  1.3220581E+03;3;  7.1021141E+01;  0.0000000E+00; -1.5396188E+00;0;  1.2980773E+00;  1.1738247E+04;  0.0000000E+00;  7.2369254E-03;  4.0000000E+04;  0.0000000E+00;  3.9622520E+04;  8.7200278E-01;  0.0000000E+00;  4.2607453E-01;  7.8072871E+03;
  9.7178209E-01;  9.9999998E-03; -3.0194387E-09;7783;  2.9574975E-01;  0.0000000E+00; -4.3258197E-08;  1.0015755E+03;  1.8571830E-01;  1.3050731E+03;3;  7.1093056E+01;  0.0000000E+00;  1.5477024E-05;0;  1.2939826E+00;  1.1737548E+04;  0.0000000E+00; -4.4883894E-13;  4.0000000E+04;  0.0000000E+00;  3.9623180E+04;  8.6717898E-01;  0.0000000E+00;  4.2680365E-01;  7.9002759E+03;
  9.7178513E-01;  9.9999998E-03;  1.0025965E-02;7784;  2.9630750E-01;  0.0000000E+00;  5.8732536E-03;  1.0015963E+03;  1.8571916E-01;  1.3222555E+03;3;  7.1021156E+01;  0.0000000E+00;  1.5396622E+00;0;  1.2980777E+00;  1.1738243E+04;  0.0000000E+00;  7.2391680E-03;  4.0000000E+04;  0.0000000E+00;  3.9622516E+04;  8.7200308E-01;  0.0000000E+00;  4.2607459E-01;  7.8072876E+03;
  9.7179341E-01;  9.9999998E-03;  2.0055886E-02;7785;  2.9798079E-01;  0.0000000E+00;  1.1682491E-02;  1.0016547E+03;  1.8572077E-01;  1.3707415E+03;3;  7.0768524E+01;  0.0000000E+00;  3.1079597E+00;0;  1.3104134E+00;  1.1740371E+04;  0.0000000E+00;  3.0652976E-02;  4.0000000E+04;  0.0000000E+00;  3.9620461E+04;  8.8645577E-01;  0.0000000E+00;  4.2395759E-01;  7.5500728E+03;
  9.7180748E-01;  9.9999998E-03;  3.0089064E-02;7786;  3.0076516E-01;  0.0000000E+00;  1.7379921E-02;  1.0017495E+03;  1.8572421E-01;  1.4491486E+03;3;  7.0357231E+01;  0.0000000E+00;  4.7503529E+00;0;  1.3310151E+00;  1.1743622E+04;  0.0000000E+00;  7.4873254E-02;  4.0000000E+04;  0.0000000E+00;  3.9617680E+04;  9.1038275E-01;  0.0000000E+00;  4.2063236E-01;  7.1915112E+03;
  9.7181970E-01;  9.9999998E-03;  4.0124584E-02;7787;  3.0465460E-01;  0.0000000E+00;  2.2954375E-02;  1.0018826E+03;  1.8572763E-01;  1.5595504E+03;3;  6.9802971E+01;  0.0000000E+00;  6.4395266E+00;0;  1.3601723E+00;  1.1747826E+04;  0.0000000E+00;  1.4593236E-01;  4.0000000E+04;  0.0000000E+00;  3.9614715E+04;  9.4378436E-01;  0.0000000E+00;  4.1638786E-01;  6.8222949E+03;
  9.7182429E-01;  9.9999998E-03;  5.0171580E-02;7788;  3.0964622E-01;  0.0000000E+00;  2.8427700E-02;  1.0020465E+03;  1.8573372E-01;  1.6952322E+03;3;  6.9214882E+01;  0.0000000E+00;  8.0957394E+00;0;  1.3980712E+00;  1.1752726E+04;  0.0000000E+00;  2.4840903E-01;  4.0000000E+04;  0.0000000E+00;  3.9612402E+04;  9.8657107E-01;  0.0000000E+00;  4.1150007E-01;  6.5378740E+03;
  9.7180599E-01;  9.9999998E-03;  6.0230747E-02;7789;  3.1571880E-01;  0.0000000E+00;  3.3834703E-02;  1.0022344E+03;  1.8573880E-01;  1.8508613E+03;3;  6.8441948E+01;  0.0000000E+00;  9.7086782E+00;0;  1.4451215E+00;  1.1758056E+04;  0.0000000E+00;  3.7988985E-01;  4.0000000E+04;  0.0000000E+00;  3.9610914E+04;  1.0388794E+00;  0.0000000E+00;  4.0624219E-01;  6.4139170E+03;
  9.8965716E-01;  9.9999998E-03; -1.0028499E-01;7834;  3.4681991E-01;  0.0000000E+00; -3.7680037E-02;  1.0008135E+03;  1.8485336E-01;  6.7383887E+02;3;  6.5481644E+01;  0.0000000E+00; -1.7962244E+01;0;  1.0267668E+00;  1.1838242E+04;  0.0000000E+00;  2.2739917E-01;  4.0000000E+04;  0.0000000E+00;  3.9631629E+04;  7.2751105E-01;  0.0000000E+00;  2.9925573E-01;  9.2974932E+03;
  9.8999101E-01;  9.9999998E-03; -9.0276904E-02;7835;  3.3652055E-01;  0.0000000E+00; -3.3806276E-02;  1.0003894E+03;  1.8482986E-01;  3.2260101E+02;3;  6.6091431E+01;  0.0000000E+00; -1.5965882E+01;0;  9.6139264E-01;  1.1826571E+04;  0.0000000E+00;  2.8582683E-01;  4.0000000E+04;  0.0000000E+00;  3.9632809E+04;  6.6267157E-01;  0.0000000E+00;  2.9872110E-01;  9.4507041E+03;
  9.9020362E-01;  9.9999998E-03; -8.0263063E-02;7836;  3.2718822E-01;  0.0000000E+00; -3.0009799E-02;  9.9996429E+02;  1.8480669E-01; -2.9574215E+01;3;  6.6627716E+01;  0.0000000E+00; -1.4019968E+01;0;  9.0570688E-01;  1.1815350E+04;  0.0000000E+00;  2.7274355E-01;  4.0000000E+04;  0.0000000E+00;  3.9632723E+04;  6.0654485E-01;  0.0000000E+00;  2.9916200E-01;  9.4383721E+03;
  9.9034548E-01;  9.9999998E-03; -7.0239976E-02;7837;  3.1888258E-01;  0.0000000E+00; -2.6279278E-02;  9.9953925E+02;  1.8478699E-01; -3.8165042E+02;3;  6.7337029E+01;  0.0000000E+00; -1.2033649E+01;0;  8.5784775E-01;  1.1804443E+04;  0.0000000E+00;  2.1936116E-01;  4.0000000E+04;  0.0000000E+00;  3.9632383E+04;  5.5763423E-01;  0.0000000E+00;  3.0021352E-01;  9.3937773E+03;
  9.9043435E-01;  9.9999998E-03; -6.0208365E-02;7838;  3.1160662E-01;  0.0000000E+00; -2.2602284E-02;  9.9912463E+02;  1.8477003E-01; -7.2508624E+02;3;  6.8142288E+01;  0.0000000E+00; -1.0232348E+01;0;  8.1721318E-01;  1.1793906E+04;  0.0000000E+00;  1.5447792E-01;  4.0000000E+04;  0.0000000E+00;  3.9632602E+04;  5.1551968E-01;  0.0000000E+00;  3.0169347E-01;  9.4272256E+03;
  9.9041605E-01;  9.9999998E-03; -5.0166011E-02;7839;  3.0538160E-01;  0.0000000E+00; -1.8958747E-02;  9.9874158E+02;  1.8475769E-01; -1.0424042E+03;3;  6.8812912E+01;  0.0000000E+00; -8.5422764E+00;0;  7.8531694E-01;  1.1783959E+04;  0.0000000E+00;  9.7406477E-02;  4.0000000E+04;  0.0000000E+00;  3.9633820E+04;  4.8141521E-01;  0.0000000E+00;  3.0390176E-01;  9.5939951E+03;
  9.9035621E-01;  9.9999998E-03; -4.0115125E-02;7840;  3.0024892E-01;  0.0000000E+00; -1.5298115E-02;  9.9840503E+02;  1.8475002E-01; -1.3211621E+03;3;  6.9355515E+01;  0.0000000E+00; -6.7882462E+00;0;  7.6031297E-01;  1.1774851E+04;  0.0000000E+00;  5.4867845E-02;  4.0000000E+04;  0.0000000E+00;  3.9636051E+04;  4.5397836E-01;  0.0000000E+00;  3.0633461E-01;  9.9054219E+03;
  9.9030155E-01;  9.9999998E-03; -3.0073920E-02;7841;  2.9623294E-01;  0.0000000E+00; -1.1574630E-02;  9.9812933E+02;  1.8474329E-01; -1.5495602E+03;3;  6.9882683E+01;  0.0000000E+00; -5.1316113E+00;0;  7.4103916E-01;  1.1767071E+04;  0.0000000E+00;  2.6981024E-02;  4.0000000E+04;  0.0000000E+00;  3.9639035E+04;  4.3250248E-01;  0.0000000E+00;  3.0853671E-01;  1.0301465E+04;
  9.9026674E-01;  9.9999998E-03; -2.0045768E-02;7842;  2.9334146E-01;  0.0000000E+00; -7.7701802E-03;  9.9792542E+02;  1.8473896E-01; -1.7184641E+03;3;  7.0277016E+01;  0.0000000E+00; -3.3943918E+00;0;  7.2716421E-01;  1.1761072E+04;  0.0000000E+00;  1.0672199E-02;  4.0000000E+04;  0.0000000E+00;  3.9641961E+04;  4.1692224E-01;  0.0000000E+00;  3.1024197E-01;  1.0688170E+04;
  9.9024826E-01;  9.9999998E-03; -1.0021782E-02;7843;  2.9159701E-01;  0.0000000E+00; -3.9075771E-03;  9.9779956E+02;  1.8473789E-01; -1.8226897E+03;3;  7.0537125E+01;  0.0000000E+00; -1.7391452E+00;0;  7.1878111E-01;  1.1757270E+04;  0.0000000E+00;  2.4639128E-03;  4.0000000E+04;  0.0000000E+00;  3.9644133E+04;  4.0746093E-01;  0.0000000E+00;  3.1132016E-01;  1.0969398E+04;
  9.9024266E-01;  9.9999998E-03; -4.3536992E-09;7844;  2.9101348E-01;  0.0000000E+00; -2.4749486E-08;  9.9775488E+02;  1.8473652E-01; -1.8597194E+03;3;  7.0700272E+01;  0.0000000E+00; -1.2889523E-06;0;  7.1597385E-01;  1.1755957E+04;  0.0000000E+00; -1.7902584E-11;  4.0000000E+04;  0.0000000E+00;  3.9644895E+04;  4.0428564E-01;  0.0000000E+00;  3.1168824E-01;  1.1072054E+04;
  9.9024826E-01;  9.9999998E-03;  1.0021772E-02;7845;  2.9159701E-01;  0.0000000E+00;  3.9075296E-03;  9.9779987E+02;  1.8473804E-01; -1.8224429E+03;3;  7.0536980E+01;  0.0000000E+00;  1.7391574E+00;0;  7.1878058E-01;  1.1757269E+04;  0.0000000E+00;  2.4656483E-03;  4.0000000E+04;  0.0000000E+00;  3.9644133E+04;  4.0746075E-01;  0.0000000E+00;  3.1131983E-01;  1.0969406E+04;
  9.9026674E-01;  9.9999998E-03;  2.0045761E-02;7846;  2.9334140E-01;  0.0000000E+00;  7.7701416E-03;  9.9792554E+02;  1.8473922E-01; -1.7183654E+03;3;  7.0277237E+01;  0.0000000E+00;  3.3944082E+00;0;  7.2716415E-01;  1.1761074E+04;  0.0000000E+00;  1.0675079E-02;  4.0000000E+04;  0.0000000E+00;  3.9641965E+04;  4.1692251E-01;  0.0000000E+00;  3.1024161E-01;  1.0688150E+04;
  9.9030155E-01;  9.9999998E-03;  3.0073915E-02;7847;  2.9623288E-01;  0.0000000E+00;  1.1574594E-02;  9.9812933E+02;  1.8474329E-01; -1.5495602E+03;3;  6.9882889E+01;  0.0000000E+00;  5.1316042E+00;0;  7.4103844E-01;  1.1767069E+04;  0.0000000E+00;  2.6984297E-02;  4.0000000E+04;  0.0000000E+00;  3.9639027E+04;  4.3250182E-01;  0.0000000E+00;  3.0853659E-01;  1.0301460E+04;
  9.9035621E-01;  9.9999998E-03;  4.0115118E-02;7848;  3.0024880E-01;  0.0000000E+00;  1.5298066E-02;  9.9840485E+02;  1.8474989E-01; -1.3213102E+03;3;  6.9355461E+01;  0.0000000E+00;  6.7882261E+00;0;  7.6031232E-01;  1.1774850E+04;  0.0000000E+00;  5.4870605E-02;  4.0000000E+04;  0.0000000E+00;  3.9636047E+04;  4.5397803E-01;  0.0000000E+00;  3.0633426E-01;  9.9054199E+03;
  9.9041605E-01;  9.9999998E-03;  5.0166003E-02;7849;  3.0538145E-01;  0.0000000E+00;  1.8958714E-02;  9.9874182E+02;  1.8475762E-01; -1.0422067E+03;3;  6.8813133E+01;  0.0000000E+00;  8.5422325E+00;0;  7.8531682E-01;  1.1783956E+04;  0.0000000E+00;  9.7407632E-02;  4.0000000E+04;  0.0000000E+00;  3.9633816E+04;  4.8141518E-01;  0.0000000E+00;  3.0390164E-01;  9.5939805E+03;
  9.9043429E-01;  9.9999998E-03;  6.0208358E-02;7850;  3.1160647E-01;  0.0000000E+00;  2.2602273E-02;  9.9912512E+02;  1.8477012E-01; -7.2469128E+02;3;  6.8142426E+01;  0.0000000E+00;  1.0232312E+01;0;  8.1721377E-01;  1.1793902E+04;  0.0000000E+00;  1.5447615E-01;  4.0000000E+04;  0.0000000E+00;  3.9632598E+04;  5.1552063E-01;  0.0000000E+00;  3.0169314E-01;  9.4272461E+03;
  1.0075535E+00;  9.9999998E-03; -4.3389350E-09;7905;  2.8571123E-01;  0.0000000E+00; -2.2122268E-09;  9.9412653E+02;  1.8341039E-01; -4.8649761E+03;3;  7.0349876E+01;  0.0000000E+00; -2.4521289E-05;0;  3.7726218E-01;  1.1836604E+04;  0.0000000E+00; -2.6071478E-11;  4.0000000E+04;  0.0000000E+00;  3.9659887E+04;  2.0085812E-01;  0.0000000E+00;  1.7640407E-01;  1.3254794E+04;
  1.0075750E+00;  9.9999998E-03; -1.0005867E-02;7904;  2.8631160E-01;  0.0000000E+00; -2.1330800E-03;  9.9418311E+02;  1.8340993E-01; -4.8180742E+03;3;  7.0301201E+01;  0.0000000E+00; -1.9304132E+00;0;  3.7868845E-01;  1.1838345E+04;  0.0000000E+00; -4.2789849E-03;  4.0000000E+04;  0.0000000E+00;  3.9659152E+04;  2.0245184E-01;  0.0000000E+00;  1.7623663E-01;  1.3152647E+04;
  1.0075750E+00;  9.9999998E-03;  1.0005859E-02;7906;  2.8631154E-01;  0.0000000E+00;  2.1330677E-03;  9.9418317E+02;  1.8340962E-01; -4.8180249E+03;3;  7.0301613E+01;  0.0000000E+00;  1.9303985E+00;0;  3.7868822E-01;  1.1838342E+04;  0.0000000E+00; -4.2780191E-03;  4.0000000E+04;  0.0000000E+00;  3.9659148E+04;  2.0245187E-01;  0.0000000E+00;  1.7623633E-01;  1.3152641E+04;
  1.0076400E+00;  9.9999998E-03; -2.0019267E-02;7903;  2.8811577E-01;  0.0000000E+00; -4.2480896E-03;  9.9434973E+02;  1.8341160E-01; -4.6800835E+03;3;  7.0085091E+01;  0.0000000E+00; -3.9665906E+00;0;  3.8296074E-01;  1.1843407E+04;  0.0000000E+00; -1.7069358E-02;  4.0000000E+04;  0.0000000E+00;  3.9657098E+04;  2.0720510E-01;  0.0000000E+00;  1.7575562E-01;  1.2873110E+04;
  1.0076400E+00;  9.9999998E-03;  2.0019257E-02;7907;  2.8811571E-01;  0.0000000E+00;  4.2480770E-03;  9.9434961E+02;  1.8341105E-01; -4.6801826E+03;3;  7.0084709E+01;  0.0000000E+00;  3.9666092E+00;0;  3.8296065E-01;  1.1843398E+04;  0.0000000E+00; -1.7067881E-02;  4.0000000E+04;  0.0000000E+00;  3.9657098E+04;  2.0720498E-01;  0.0000000E+00;  1.7575566E-01;  1.2873093E+04;
  1.0077461E+00;  9.9999998E-03; -3.0049007E-02;7902;  2.9111362E-01;  0.0000000E+00; -6.3313311E-03;  9.9462067E+02;  1.8341339E-01; -4.4556455E+03;3;  6.9732742E+01;  0.0000000E+00; -6.0576797E+00;0;  3.9009413E-01;  1.1851423E+04;  0.0000000E+00; -3.8058102E-02;  4.0000000E+04;  0.0000000E+00;  3.9654180E+04;  2.1504663E-01;  0.0000000E+00;  1.7504750E-01;  1.2488732E+04;
  1.0077461E+00;  9.9999998E-03;  3.0048998E-02;7908;  2.9111353E-01;  0.0000000E+00;  6.3313236E-03;  9.9462073E+02;  1.8341328E-01; -4.4555962E+03;3;  6.9732445E+01;  0.0000000E+00;  6.0576687E+00;0;  3.9009401E-01;  1.1851417E+04;  0.0000000E+00; -3.8056325E-02;  4.0000000E+04;  0.0000000E+00;  3.9654184E+04;  2.1504648E-01;  0.0000000E+00;  1.7504753E-01;  1.2488715E+04;
  1.0078911E+00;  9.9999998E-03; -4.0102232E-02;7901;  2.9528850E-01;  0.0000000E+00; -8.3659384E-03;  9.9498596E+02;  1.8341602E-01; -4.1531045E+03;3;  6.9137978E+01;  0.0000000E+00; -8.1378765E+00;0;  4.0009809E-01;  1.1861872E+04;  0.0000000E+00; -6.6240512E-02;  4.0000000E+04;  0.0000000E+00;  3.9651383E+04;  2.2586200E-01;  0.0000000E+00;  1.7423607E-01;  1.2096205E+04;
  1.0078911E+00;  9.9999998E-03;  4.0102221E-02;7909;  2.9528838E-01;  0.0000000E+00;  8.3659384E-03;  9.9498615E+02;  1.8341619E-01; -4.1529561E+03;3;  6.9137794E+01;  0.0000000E+00;  8.1378956E+00;0;  4.0009815E-01;  1.1861867E+04;  0.0000000E+00; -6.6238418E-02;  4.0000000E+04;  0.0000000E+00;  3.9651387E+04;  2.2586194E-01;  0.0000000E+00;  1.7423619E-01;  1.2096203E+04;
  1.0080659E+00;  9.9999998E-03; -5.0164200E-02;7900;  3.0061767E-01;  0.0000000E+00; -1.0351682E-02;  9.9542139E+02;  1.8342178E-01; -3.7924045E+03;3;  6.8475121E+01;  0.0000000E+00; -1.0170958E+01;0;  4.1302109E-01;  1.1874021E+04;  0.0000000E+00; -9.9543601E-02;  4.0000000E+04;  0.0000000E+00;  3.9649293E+04;  2.3950252E-01;  0.0000000E+00;  1.7351855E-01;  1.1789591E+04;
  1.0080659E+00;  9.9999998E-03;  5.0164193E-02;7910;  3.0061752E-01;  0.0000000E+00;  1.0351675E-02;  9.9542145E+02;  1.8342209E-01; -3.7923552E+03;3;  6.8475220E+01;  0.0000000E+00;  1.0170933E+01;0;  4.1302121E-01;  1.1874021E+04;  0.0000000E+00; -9.9541880E-02;  4.0000000E+04;  0.0000000E+00;  3.9649289E+04;  2.3950264E-01;  0.0000000E+00;  1.7351855E-01;  1.1789552E+04;
  1.0082579E+00;  9.9999998E-03; -6.0214650E-02;7899;  3.0703938E-01;  0.0000000E+00; -1.2292234E-02;  9.9591327E+02;  1.8342982E-01; -3.3850012E+03;3;  6.7788887E+01;  0.0000000E+00; -1.2081161E+01;0;  4.2893332E-01;  1.1887279E+04;  0.0000000E+00; -1.3499349E-01;  4.0000000E+04;  0.0000000E+00;  3.9648363E+04;  2.5580326E-01;  0.0000000E+00;  1.7313008E-01;  1.1620843E+04;
  1.0082579E+00;  9.9999998E-03;  6.0214646E-02;7911;  3.0703929E-01;  0.0000000E+00;  1.2292222E-02;  9.9591302E+02;  1.8343021E-01; -3.3851987E+03;3;  6.7789070E+01;  0.0000000E+00;  1.2081188E+01;0;  4.2893308E-01;  1.1887271E+04;  0.0000000E+00; -1.3499573E-01;  4.0000000E+04;  0.0000000E+00;  3.9648363E+04;  2.5580317E-01;  0.0000000E+00;  1.7312993E-01;  1.1620823E+04;
  1.0083231E+00;  9.9999998E-03; -1.0026482E-01;7895;  3.4311286E-01;  0.0000000E+00; -2.0401521E-02;  9.9807312E+02;  1.8350820E-01; -1.5960314E+03;3;  6.5367638E+01;  0.0000000E+00; -1.9832987E+01;0;  5.3766686E-01;  1.1945064E+04;  0.0000000E+00; -2.6961890E-01;  4.0000000E+04;  0.0000000E+00;  3.9646891E+04;  3.5299459E-01;  0.0000000E+00;  1.8467225E-01;  1.1239398E+04;
  1.0084332E+00;  9.9999998E-03; -7.0249669E-02;7898;  3.1453088E-01;  0.0000000E+00; -1.4219940E-02;  9.9643329E+02;  1.8344189E-01; -2.9542466E+03;3;  6.7033325E+01;  0.0000000E+00; -1.4050837E+01;0;  4.4826123E-01;  1.1901169E+04;  0.0000000E+00; -1.6962162E-01;  4.0000000E+04;  0.0000000E+00;  3.9648305E+04;  2.7478799E-01;  0.0000000E+00;  1.7347324E-01;  1.1567850E+04;
  1.0085191E+00;  9.9999998E-03; -9.0267658E-02;7896;  3.3259571E-01;  0.0000000E+00; -1.8227583E-02;  9.9751508E+02;  1.8348132E-01; -2.0582314E+03;3;  6.5789238E+01;  0.0000000E+00; -1.7978235E+01;0;  5.0113797E-01;  1.1929909E+04;  0.0000000E+00; -2.3354276E-01;  4.0000000E+04;  0.0000000E+00;  3.9648383E+04;  3.2248685E-01;  0.0000000E+00;  1.7865114E-01;  1.1478745E+04;
  1.0085398E+00;  9.9999998E-03; -8.0265805E-02;7897;  3.2305947E-01;  0.0000000E+00; -1.6181335E-02;  9.9697174E+02;  1.8345915E-01; -2.5082871E+03;3;  6.6398735E+01;  0.0000000E+00; -1.6030199E+01;0;  4.7188252E-01;  1.1915368E+04;  0.0000000E+00; -2.0197314E-01;  4.0000000E+04;  0.0000000E+00;  3.9648613E+04;  2.9677746E-01;  0.0000000E+00;  1.7510505E-01;  1.1553383E+04;
  1.0263649E+00;  9.9999998E-03; -1.0017425E-02;7965;  2.8037491E-01;  0.0000000E+00; -1.6040822E-04;  9.9106140E+02;  1.8166018E-01; -7.4032329E+03;3;  6.9811279E+01;  0.0000000E+00; -2.5092089E+00;0;  3.2788661E-01;  1.1997280E+04;  0.0000000E+00; -8.6894147E-03;  4.0000000E+04;  0.0000000E+00;  3.9666145E+04;  3.1672379E-01;  0.0000000E+00;  1.1162805E-02;  1.4147841E+04;
  1.0263782E+00;  9.9999998E-03; -3.7162078E-09;7966;  2.7973315E-01;  0.0000000E+00;  1.8230850E-08;  9.9099866E+02;  1.8166019E-01; -7.4551655E+03;3;  7.0242783E+01;  0.0000000E+00; -2.0472769E-05;0;  3.2779720E-01;  1.1995421E+04;  0.0000000E+00; -2.1420076E-11;  4.0000000E+04;  0.0000000E+00;  3.9666844E+04;  3.1714854E-01;  0.0000000E+00;  1.0648673E-02;  1.4251238E+04;
  1.0263649E+00;  9.9999998E-03;  1.0017417E-02;7967;  2.8037488E-01;  0.0000000E+00;  1.6044543E-04;  9.9106134E+02;  1.8165962E-01; -7.4032822E+03;3;  6.9811783E+01;  0.0000000E+00;  2.5091457E+00;0;  3.2788673E-01;  1.1997281E+04;  0.0000000E+00; -8.6888447E-03;  4.0000000E+04;  0.0000000E+00;  3.9666141E+04;  3.1672409E-01;  0.0000000E+00;  1.1162625E-02;  1.4147840E+04;
  1.0263438E+00;  9.9999998E-03; -2.0039493E-02;7964;  2.8227207E-01;  0.0000000E+00; -3.3737734E-04;  9.9124707E+02;  1.8165998E-01; -7.2494575E+03;3;  6.9318184E+01;  0.0000000E+00; -5.0530763E+00;0;  3.2831052E-01;  1.2002808E+04;  0.0000000E+00; -3.5013687E-02;  4.0000000E+04;  0.0000000E+00;  3.9664078E+04;  3.1577212E-01;  0.0000000E+00;  1.2538416E-02;  1.3865706E+04;
  1.0263438E+00;  9.9999998E-03;  2.0039486E-02;7968;  2.8227201E-01;  0.0000000E+00;  3.3740615E-04;  9.9124701E+02;  1.8166053E-01; -7.2495068E+03;3;  6.9318253E+01;  0.0000000E+00;  5.0530353E+00;0;  3.2831061E-01;  1.2002809E+04;  0.0000000E+00; -3.5012186E-02;  4.0000000E+04;  0.0000000E+00;  3.9664074E+04;  3.1577244E-01;  0.0000000E+00;  1.2538175E-02;  1.3865671E+04;
  1.0263263E+00;  9.9999998E-03; -3.0070355E-02;7963;  2.8542683E-01;  0.0000000E+00; -5.5848790E-04;  9.9154425E+02;  1.8165870E-01; -7.0033169E+03;3;  6.8596710E+01;  0.0000000E+00; -7.6094832E+00;0;  3.2921723E-01;  1.2011634E+04;  0.0000000E+00; -7.9418547E-02;  4.0000000E+04;  0.0000000E+00;  3.9661125E+04;  3.1453064E-01;  0.0000000E+00;  1.4686576E-02;  1.3480607E+04;
  1.0263263E+00;  9.9999998E-03;  3.0070350E-02;7969;  2.8542674E-01;  0.0000000E+00;  5.5851910E-04;  9.9154413E+02;  1.8165819E-01; -7.0034155E+03;3;  6.8596443E+01;  0.0000000E+00;  7.6094265E+00;0;  3.2921711E-01;  1.2011632E+04;  0.0000000E+00; -7.9417795E-02;  4.0000000E+04;  0.0000000E+00;  3.9661125E+04;  3.1453061E-01;  0.0000000E+00;  1.4686484E-02;  1.3480569E+04;
  1.0263171E+00;  9.9999998E-03; -4.0116742E-02;7962;  2.8981557E-01;  0.0000000E+00; -8.2848012E-04;  9.9194647E+02;  1.8165857E-01; -6.6701924E+03;3;  6.8020912E+01;  0.0000000E+00; -1.0201645E+01;0;  3.3072543E-01;  1.2023281E+04;  0.0000000E+00; -1.4165075E-01;  4.0000000E+04;  0.0000000E+00;  3.9658441E+04;  3.1313261E-01;  0.0000000E+00;  1.7592821E-02;  1.3090459E+04;
  1.0263172E+00;  9.9999998E-03;  4.0116735E-02;7970;  2.8981549E-01;  0.0000000E+00;  8.2850677E-04;  9.9194659E+02;  1.8165874E-01; -6.6700938E+03;3;  6.8020691E+01;  0.0000000E+00;  1.0201650E+01;0;  3.3072549E-01;  1.2023283E+04;  0.0000000E+00; -1.4164935E-01;  4.0000000E+04;  0.0000000E+00;  3.9658441E+04;  3.1313309E-01;  0.0000000E+00;  1.7592408E-02;  1.3090399E+04;
  1.0263268E+00;  9.9999998E-03; -5.0177142E-02;7961;  2.9538259E-01;  0.0000000E+00; -1.1577616E-03;  9.9243390E+02;  1.8165727E-01; -6.2664741E+03;3;  6.7746216E+01;  0.0000000E+00; -1.2675314E+01;0;  3.3300674E-01;  1.2037103E+04;  0.0000000E+00; -2.1951120E-01;  4.0000000E+04;  0.0000000E+00;  3.9656227E+04;  3.1178805E-01;  0.0000000E+00;  2.1218682E-02;  1.2782867E+04;
  1.0263268E+00;  9.9999998E-03;  5.0177135E-02;7971;  2.9538247E-01;  0.0000000E+00;  1.1577819E-03;  9.9243402E+02;  1.8165772E-01; -6.2663750E+03;3;  6.7746742E+01;  0.0000000E+00;  1.2675220E+01;0;  3.3300680E-01;  1.2037105E+04;  0.0000000E+00; -2.1951027E-01;  4.0000000E+04;  0.0000000E+00;  3.9656219E+04;  3.1178847E-01;  0.0000000E+00;  2.1218332E-02;  1.2782861E+04;
  1.0263642E+00;  9.9999998E-03; -6.0228191E-02;7960;  3.0210993E-01;  0.0000000E+00; -1.5399852E-03;  9.9297296E+02;  1.8165833E-01; -5.8200029E+03;3;  6.7145027E+01;  0.0000000E+00; -1.5017596E+01;0;  3.3623099E-01;  1.2052395E+04;  0.0000000E+00; -3.0764216E-01;  4.0000000E+04;  0.0000000E+00;  3.9655312E+04;  3.1066582E-01;  0.0000000E+00;  2.5565168E-02;  1.2612635E+04;
  1.0263642E+00;  9.9999998E-03;  6.0228188E-02;7972;  3.0210978E-01;  0.0000000E+00;  1.5399922E-03;  9.9297284E+02;  1.8165834E-01; -5.8201016E+03;3;  6.7145012E+01;  0.0000000E+00;  1.5017566E+01;0;  3.3623099E-01;  1.2052396E+04;  0.0000000E+00; -3.0764228E-01;  4.0000000E+04;  0.0000000E+00;  3.9655316E+04;  3.1066632E-01;  0.0000000E+00;  2.5564659E-02;  1.2612641E+04;
  1.0264927E+00;  9.9999998E-03; -7.0260741E-02;7959;  3.0990484E-01;  0.0000000E+00; -1.9245290E-03;  9.9354968E+02;  1.8165766E-01; -5.3423306E+03;3;  6.6713257E+01;  0.0000000E+00; -1.7235567E+01;0;  3.4075072E-01;  1.2068796E+04;  0.0000000E+00; -3.9763501E-01;  4.0000000E+04;  0.0000000E+00;  3.9655293E+04;  3.1049138E-01;  0.0000000E+00;  3.0259337E-02;  1.2566240E+04;
  1.0267587E+00;  9.9999998E-03; -8.0279432E-02;7958;  3.1873748E-01;  0.0000000E+00; -2.2470497E-03;  9.9412134E+02;  1.8165374E-01; -4.8689014E+03;3;  6.6279457E+01;  0.0000000E+00; -1.9405361E+01;0;  3.4671348E-01;  1.2086347E+04;  0.0000000E+00; -4.7807428E-01;  4.0000000E+04;  0.0000000E+00;  3.9655535E+04;  3.1148854E-01;  0.0000000E+00;  3.5224948E-02;  1.2557746E+04;
  1.0270154E+00;  9.9999998E-03; -9.0288050E-02;7957;  3.2858989E-01;  0.0000000E+00; -2.5944433E-03;  9.9470239E+02;  1.8165167E-01; -4.3876240E+03;3;  6.5929817E+01;  0.0000000E+00; -2.1347513E+01;0;  3.5386705E-01;  1.2104661E+04;  0.0000000E+00; -5.3303373E-01;  4.0000000E+04;  0.0000000E+00;  3.9655414E+04;  3.1181240E-01;  0.0000000E+00;  4.2054664E-02;  1.2464905E+04;
  1.0273089E+00;  9.9999998E-03; -1.0030676E-01;7956;  3.3943382E-01;  0.0000000E+00; -2.9241922E-03;  9.9530023E+02;  1.8164490E-01; -3.8924749E+03;3;  6.5687325E+01;  0.0000000E+00; -2.3173864E+01;0;  3.6280251E-01;  1.2124571E+04;  0.0000000E+00; -5.4789186E-01;  4.0000000E+04;  0.0000000E+00;  3.9653680E+04;  3.1186992E-01;  0.0000000E+00;  5.0932575E-02;  1.2187646E+04;
  1.0447141E+00;  9.9999998E-03; -1.0031287E-02;8026;  2.7565381E-01;  0.0000000E+00;  1.8737618E-03;  9.8917578E+02;  1.7936549E-01; -8.9640820E+03;3;  6.8508530E+01;  0.0000000E+00; -2.9175677E+00;0;  6.5718508E-01;  1.2269349E+04;  0.0000000E+00; -9.6423337E-03;  4.0000000E+04;  0.0000000E+00;  3.9661465E+04;  8.1258529E-01;  0.0000000E+00; -1.5540020E-01;  1.3404073E+04;
  1.0447149E+00;  9.9999998E-03; -4.1235153E-09;8027;  2.7500388E-01;  0.0000000E+00;  3.5553217E-08;  9.8912305E+02;  1.7936769E-01; -9.0077666E+03;3;  6.8816193E+01;  0.0000000E+00; -4.3388642E-05;0;  6.5867925E-01;  1.2267670E+04;  0.0000000E+00; -1.0352681E-11;  4.0000000E+04;  0.0000000E+00;  3.9662086E+04;  8.1486118E-01;  0.0000000E+00; -1.5618195E-01;  1.3495476E+04;
  1.0447141E+00;  9.9999998E-03;  1.0031277E-02;8028;  2.7565375E-01;  0.0000000E+00; -1.8736796E-03;  9.8917578E+02;  1.7936549E-01; -8.9640820E+03;3;  6.8508553E+01;  0.0000000E+00;  2.9175322E+00;0;  6.5718508E-01;  1.2269347E+04;  0.0000000E+00; -9.6418234E-03;  4.0000000E+04;  0.0000000E+00;  3.9661469E+04;  8.1258518E-01;  0.0000000E+00; -1.5540008E-01;  1.3404071E+04;
  1.0447171E+00;  9.9999998E-03; -2.0065937E-02;8025;  2.7760118E-01;  0.0000000E+00;  3.7111784E-03;  9.8932959E+02;  1.7936207E-01; -8.8367285E+03;3;  6.8131012E+01;  0.0000000E+00; -5.8252587E+00;0;  6.5286082E-01;  1.2274398E+04;  0.0000000E+00; -3.8721878E-02;  4.0000000E+04;  0.0000000E+00;  3.9659578E+04;  8.0596793E-01;  0.0000000E+00; -1.5310711E-01;  1.3155112E+04;
  1.0447171E+00;  9.9999998E-03;  2.0065930E-02;8029;  2.7760109E-01;  0.0000000E+00; -3.7111086E-03;  9.8932953E+02;  1.7936182E-01; -8.8367783E+03;3;  6.8131042E+01;  0.0000000E+00;  5.8251009E+00;0;  6.5286058E-01;  1.2274399E+04;  0.0000000E+00; -3.8721353E-02;  4.0000000E+04;  0.0000000E+00;  3.9659574E+04;  8.0596775E-01;  0.0000000E+00; -1.5310715E-01;  1.3155094E+04;
  1.0447294E+00;  9.9999998E-03; -3.0110320E-02;8024;  2.8080741E-01;  0.0000000E+00;  5.4965052E-03;  9.8957544E+02;  1.7935497E-01; -8.6331104E+03;3;  6.7508018E+01;  0.0000000E+00; -8.7373886E+00;0;  6.4592218E-01;  1.2282569E+04;  0.0000000E+00; -8.7419875E-02;  4.0000000E+04;  0.0000000E+00;  3.9656891E+04;  7.9528838E-01;  0.0000000E+00; -1.4936619E-01;  1.2816939E+04;
  1.0447294E+00;  9.9999998E-03;  3.0110314E-02;8030;  2.8080735E-01;  0.0000000E+00; -5.4964456E-03;  9.8957544E+02;  1.7935519E-01; -8.6331104E+03;3;  6.7508240E+01;  0.0000000E+00;  8.7372646E+00;0;  6.4592218E-01;  1.2282571E+04;  0.0000000E+00; -8.7419003E-02;  4.0000000E+04;  0.0000000E+00;  3.9656887E+04;  7.9528856E-01;  0.0000000E+00; -1.4936639E-01;  1.2816919E+04;
  1.0447512E+00;  9.9999998E-03; -4.0169779E-02;8023;  2.8525952E-01;  0.0000000E+00;  7.2019291E-03;  9.8991296E+02;  1.7934553E-01; -8.3535742E+03;3;  6.6198700E+01;  0.0000000E+00; -1.1581187E+01;0;  6.3645709E-01;  1.2293429E+04;  0.0000000E+00; -1.5523222E-01;  4.0000000E+04;  0.0000000E+00;  3.9654609E+04;  7.8064561E-01;  0.0000000E+00; -1.4418851E-01;  1.2481340E+04;
  1.0447512E+00;  9.9999998E-03;  4.0169772E-02;8031;  2.8525940E-01;  0.0000000E+00; -7.2018742E-03;  9.8991272E+02;  1.7934562E-01; -8.3537715E+03;3;  6.6198524E+01;  0.0000000E+00;  1.1581105E+01;0;  6.3645732E-01;  1.2293424E+04;  0.0000000E+00; -1.5523089E-01;  4.0000000E+04;  0.0000000E+00;  3.9654602E+04;  7.8064609E-01;  0.0000000E+00; -1.4418876E-01;  1.2481312E+04;
  1.0447929E+00;  9.9999998E-03; -5.0246909E-02;8022;  2.9091099E-01;  0.0000000E+00;  8.8064382E-03;  9.9032281E+02;  1.7933260E-01; -8.0141611E+03;3;  6.4813492E+01;  0.0000000E+00; -1.4333714E+01;0;  6.2485933E-01;  1.2306642E+04;  0.0000000E+00; -2.4000894E-01;  4.0000000E+04;  0.0000000E+00;  3.9652910E+04;  7.6251358E-01;  0.0000000E+00; -1.3765426E-01;  1.2230781E+04;
  1.0447929E+00;  9.9999998E-03;  5.0246906E-02;8032;  2.9091084E-01;  0.0000000E+00; -8.8063888E-03;  9.9032294E+02;  1.7933244E-01; -8.0140625E+03;3;  6.4813599E+01;  0.0000000E+00;  1.4333673E+01;0;  6.2485915E-01;  1.2306641E+04;  0.0000000E+00; -2.4000737E-01;  4.0000000E+04;  0.0000000E+00;  3.9652910E+04;  7.6251382E-01;  0.0000000E+00; -1.3765468E-01;  1.2230763E+04;
  1.0448527E+00;  9.9999998E-03; -6.0321644E-02;8021;  2.9775283E-01;  0.0000000E+00;  1.0294572E-02;  9.9079431E+02;  1.7931902E-01; -7.6237075E+03;3;  6.4614731E+01;  0.0000000E+00; -1.6684814E+01;0;  6.1127305E-01;  1.2321585E+04;  0.0000000E+00; -3.3686373E-01;  4.0000000E+04;  0.0000000E+00;  3.9652004E+04;  7.4099284E-01;  0.0000000E+00; -1.2971979E-01;  1.2113499E+04;
  1.0448527E+00;  9.9999998E-03;  6.0321636E-02;8033;  2.9775271E-01;  0.0000000E+00; -1.0294533E-02;  9.9079437E+02;  1.7931892E-01; -7.6236582E+03;3;  6.4614456E+01;  0.0000000E+00;  1.6684792E+01;0;  6.1127377E-01;  1.2321585E+04;  0.0000000E+00; -3.3686230E-01;  4.0000000E+04;  0.0000000E+00;  3.9652004E+04;  7.4099386E-01;  0.0000000E+00; -1.2972012E-01;  1.2113518E+04;
  1.0449605E+00;  9.9999998E-03; -7.0377707E-02;8020;  3.0573308E-01;  0.0000000E+00;  1.1675370E-02;  9.9130328E+02;  1.7930090E-01; -7.2022041E+03;3;  6.4407463E+01;  0.0000000E+00; -1.8864252E+01;0;  5.9672463E-01;  1.2338064E+04;  0.0000000E+00; -4.3701011E-01;  4.0000000E+04;  0.0000000E+00;  3.9652285E+04;  7.1725982E-01;  0.0000000E+00; -1.2053518E-01;  1.2114357E+04;
  1.0451473E+00;  9.9999998E-03; -8.0408372E-02;8019;  3.1479248E-01;  0.0000000E+00;  1.2975779E-02;  9.9183417E+02;  1.7927761E-01; -6.7625332E+03;3;  6.4499741E+01;  0.0000000E+00; -2.1022663E+01;0;  5.8220893E-01;  1.2356201E+04;  0.0000000E+00; -5.2676868E-01;  4.0000000E+04;  0.0000000E+00;  3.9652734E+04;  6.9233310E-01;  0.0000000E+00; -1.1012419E-01;  1.2152237E+04;
  1.0454056E+00;  9.9999998E-03; -9.0425134E-02;8018;  3.2489535E-01;  0.0000000E+00;  1.4200822E-02;  9.9237854E+02;  1.7924781E-01; -6.3117041E+03;3;  6.4687164E+01;  0.0000000E+00; -2.2991072E+01;0;  5.6782258E-01;  1.2376231E+04;  0.0000000E+00; -5.8699483E-01;  4.0000000E+04;  0.0000000E+00;  3.9652781E+04;  6.6583377E-01;  0.0000000E+00; -9.8011196E-02;  1.2107641E+04;
  1.0456393E+00;  9.9999998E-03; -1.0044003E-01;8017;  3.3603761E-01;  0.0000000E+00;  1.5266809E-02;  9.9295355E+02;  1.7921779E-01; -5.8355059E+03;3;  6.4987328E+01;  0.0000000E+00; -2.4723022E+01;0;  5.5202854E-01;  1.2397623E+04;  0.0000000E+00; -5.9410137E-01;  4.0000000E+04;  0.0000000E+00;  3.9651656E+04;  6.3494980E-01;  0.0000000E+00; -8.2921289E-02;  1.1877487E+04;
  1.0633564E+00;  9.9999998E-03; -1.0042231E-02;8087;  2.7214620E-01;  0.0000000E+00;  4.0081036E-03;  9.8827881E+02;  1.7635931E-01; -9.7056807E+03;3;  6.6628510E+01;  0.0000000E+00; -3.1622901E+00;0;  1.3966874E+00;  1.2680473E+04;  0.0000000E+00; -9.2453901E-03;  4.0000000E+04;  0.0000000E+00;  3.9645809E+04;  1.7109423E+00;  0.0000000E+00; -3.1425485E-01;  1.0990221E+04;
  1.0633736E+00;  9.9999998E-03; -5.4931659E-09;8088;  2.7150840E-01;  0.0000000E+00;  5.7702426E-08;  9.8824982E+02;  1.7636028E-01; -9.7296670E+03;3;  6.6894791E+01;  0.0000000E+00; -6.1412262E-05;0;  1.4009085E+00;  1.2679446E+04;  0.0000000E+00;  2.0932880E-12;  4.0000000E+04;  0.0000000E+00;  3.9646246E+04;  1.7164315E+00;  0.0000000E+00; -3.1552309E-01;  1.1057543E+04;
  1.0633564E+00;  9.9999998E-03;  1.0042220E-02;8089;  2.7214620E-01;  0.0000000E+00; -4.0079830E-03;  9.8827881E+02;  1.7635931E-01; -9.7056807E+03;3;  6.6628563E+01;  0.0000000E+00;  3.1622031E+00;0;  1.3966863E+00;  1.2680474E+04;  0.0000000E+00; -9.2449272E-03;  4.0000000E+04;  0.0000000E+00;  3.9645812E+04;  1.7109413E+00;  0.0000000E+00; -3.1425503E-01;  1.0990216E+04;
  1.0633104E+00;  9.9999998E-03; -2.0086911E-02;8086;  2.7411491E-01;  0.0000000E+00;  7.9516834E-03;  9.8837903E+02;  1.7635760E-01; -9.6227188E+03;3;  6.6186279E+01;  0.0000000E+00; -6.4722590E+00;0;  1.3843350E+00;  1.2683575E+04;  0.0000000E+00; -3.6894280E-02;  4.0000000E+04;  0.0000000E+00;  3.9644504E+04;  1.6948497E+00;  0.0000000E+00; -3.1051475E-01;  1.0808964E+04;
  1.0633104E+00;  9.9999998E-03;  2.0086901E-02;8090;  2.7411485E-01;  0.0000000E+00; -7.9515669E-03;  9.8837891E+02;  1.7635776E-01; -9.6228174E+03;3;  6.6186363E+01;  0.0000000E+00;  6.4721432E+00;0;  1.3843360E+00;  1.2683575E+04;  0.0000000E+00; -3.6893874E-02;  4.0000000E+04;  0.0000000E+00;  3.9644504E+04;  1.6948507E+00;  0.0000000E+00; -3.1051472E-01;  1.0808946E+04;
  1.0632458E+00;  9.9999998E-03; -3.0132882E-02;8085;  2.7737945E-01;  0.0000000E+00;  1.1788343E-02;  9.8853656E+02;  1.7635359E-01; -9.4922764E+03;3;  6.5988899E+01;  0.0000000E+00; -9.8699484E+00;0;  1.3644626E+00;  1.2688745E+04;  0.0000000E+00; -8.2539305E-02;  4.0000000E+04;  0.0000000E+00;  3.9642680E+04;  1.6689012E+00;  0.0000000E+00; -3.0443862E-01;  1.0573271E+04;
  1.0632458E+00;  9.9999998E-03;  3.0132873E-02;8091;  2.7737939E-01;  0.0000000E+00; -1.1788228E-02;  9.8853662E+02;  1.7635353E-01; -9.4922266E+03;3;  6.5989143E+01;  0.0000000E+00;  9.8698120E+00;0;  1.3644634E+00;  1.2688746E+04;  0.0000000E+00; -8.2538813E-02;  4.0000000E+04;  0.0000000E+00;  3.9642672E+04;  1.6689020E+00;  0.0000000E+00; -3.0443859E-01;  1.0573262E+04;
  1.0631900E+00;  9.9999998E-03; -4.0185742E-02;8084;  2.8190339E-01;  0.0000000E+00;  1.5472573E-02;  9.8876074E+02;  1.7634386E-01; -9.3066055E+03;3;  6.5238625E+01;  0.0000000E+00; -1.2883054E+01;0;  1.3385550E+00;  1.2696063E+04;  0.0000000E+00; -1.4520454E-01;  4.0000000E+04;  0.0000000E+00;  3.9641035E+04;  1.6348650E+00;  0.0000000E+00; -2.9631004E-01;  1.0362032E+04;
  1.0631900E+00;  9.9999998E-03;  4.0185735E-02;8092;  2.8190330E-01;  0.0000000E+00; -1.5472481E-02;  9.8876099E+02;  1.7634363E-01; -9.3064082E+03;3;  6.5238548E+01;  0.0000000E+00;  1.2882787E+01;0;  1.3385563E+00;  1.2696062E+04;  0.0000000E+00; -1.4520237E-01;  4.0000000E+04;  0.0000000E+00;  3.9641031E+04;  1.6348665E+00;  0.0000000E+00; -2.9631025E-01;  1.0361965E+04;
  1.0631559E+00;  9.9999998E-03; -5.0260093E-02;8083;  2.8766203E-01;  0.0000000E+00;  1.9000301E-02;  9.8903589E+02;  1.7632844E-01; -9.0787842E+03;3;  6.4129272E+01;  0.0000000E+00; -1.5803592E+01;0;  1.3073223E+00;  1.2705512E+04;  0.0000000E+00; -2.2295301E-01;  4.0000000E+04;  0.0000000E+00;  3.9640188E+04;  1.5936005E+00;  0.0000000E+00; -2.8627831E-01;  1.0245705E+04;
  1.0631559E+00;  9.9999998E-03;  5.0260086E-02;8093;  2.8766188E-01;  0.0000000E+00; -1.9000215E-02;  9.8903583E+02;  1.7632928E-01; -9.0788330E+03;3;  6.4129402E+01;  0.0000000E+00;  1.5803497E+01;0;  1.3073237E+00;  1.2705513E+04;  0.0000000E+00; -2.2295536E-01;  4.0000000E+04;  0.0000000E+00;  3.9640199E+04;  1.5936023E+00;  0.0000000E+00; -2.8627858E-01;  1.0245695E+04;
  1.0631475E+00;  9.9999998E-03; -6.0348358E-02;8082;  2.9459852E-01;  0.0000000E+00;  2.2326117E-02;  9.8936053E+02;  1.7630778E-01; -8.8099951E+03;3;  6.3158478E+01;  0.0000000E+00; -1.8212193E+01;0;  1.2711296E+00;  1.2716773E+04;  0.0000000E+00; -3.1213224E-01;  4.0000000E+04;  0.0000000E+00;  3.9640262E+04;  1.5455370E+00;  0.0000000E+00; -2.7440742E-01;  1.0264641E+04;
  1.0631475E+00;  9.9999998E-03;  6.0348351E-02;8094;  2.9459837E-01;  0.0000000E+00; -2.2326050E-02;  9.8936053E+02;  1.7630759E-01; -8.8099951E+03;3;  6.3158852E+01;  0.0000000E+00;  1.8212141E+01;0;  1.2711323E+00;  1.2716772E+04;  0.0000000E+00; -3.1213546E-01;  4.0000000E+04;  0.0000000E+00;  3.9640258E+04;  1.5455401E+00;  0.0000000E+00; -2.7440774E-01;  1.0264648E+04;
  1.0631783E+00;  9.9999998E-03; -7.0422783E-02;8081;  3.0269894E-01;  0.0000000E+00;  2.5453253E-02;  9.8972760E+02;  1.7628105E-01; -8.5060117E+03;3;  6.2922581E+01;  0.0000000E+00; -2.0395266E+01;0;  1.2309154E+00;  1.2729764E+04;  0.0000000E+00; -4.0618443E-01;  4.0000000E+04;  0.0000000E+00;  3.9641312E+04;  1.4917156E+00;  0.0000000E+00; -2.6080015E-01;  1.0406082E+04;
  1.0632581E+00;  9.9999998E-03; -8.0473565E-02;8080;  3.1191182E-01;  0.0000000E+00;  2.8380472E-02;  9.9011926E+02;  1.7624754E-01; -8.1816924E+03;3;  6.3186710E+01;  0.0000000E+00; -2.2027760E+01;0;  1.1874964E+00;  1.2744441E+04;  0.0000000E+00; -4.9371922E-01;  4.0000000E+04;  0.0000000E+00;  3.9642715E+04;  1.4329211E+00;  0.0000000E+00; -2.4542457E-01;  1.0589918E+04;
  1.0633768E+00;  9.9999998E-03; -9.0498090E-02;8079;  3.2220554E-01;  0.0000000E+00;  3.1102821E-02;  9.9053522E+02;  1.7620988E-01; -7.8372832E+03;3;  6.3796371E+01;  0.0000000E+00; -2.3736025E+01;0;  1.1409042E+00;  1.2761032E+04;  0.0000000E+00; -5.5676734E-01;  4.0000000E+04;  0.0000000E+00;  3.9643723E+04;  1.3688619E+00;  0.0000000E+00; -2.2795767E-01;  1.0700100E+04;
  1.0635467E+00;  9.9999998E-03; -1.0050629E-01;8078;  3.3352160E-01;  0.0000000E+00;  3.3646554E-02;  9.9098993E+02;  1.7616248E-01; -7.4607417E+03;3;  6.4250046E+01;  0.0000000E+00; -2.5089985E+01;0;  1.0922897E+00;  1.2780291E+04;  0.0000000E+00; -5.7094073E-01;  4.0000000E+04;  0.0000000E+00;  3.9643547E+04;  1.3003331E+00;  0.0000000E+00; -2.0804346E-01;  1.0626863E+04;
  1.0817391E+00;  9.9999998E-03; -1.0041335E-02;8148;  2.7043846E-01;  0.0000000E+00;  6.1946982E-03;  9.8837183E+02;  1.7271295E-01; -9.6270312E+03;3;  6.3171032E+01;  0.0000000E+00; -3.8027444E+00;0;  2.4931362E+00;  1.3234563E+04;  0.0000000E+00; -8.6255623E-03;  4.0000000E+04;  0.0000000E+00;  3.9621664E+04;  2.9371219E+00;  0.0000000E+00; -4.4398573E-01;  7.2341807E+03;
  1.0817646E+00;  9.9999998E-03; -6.6813177E-09;8149;  2.6978853E-01;  0.0000000E+00;  8.1877211E-08;  9.8835889E+02;  1.7271213E-01; -9.6377363E+03;3;  6.3232395E+01;  0.0000000E+00; -4.6492518E-05;0;  2.5001702E+00;  1.3234421E+04;  0.0000000E+00;  1.2398707E-11;  4.0000000E+04;  0.0000000E+00;  3.9621785E+04;  2.9456954E+00;  0.0000000E+00; -4.4552520E-01;  7.2652437E+03;
  1.0817391E+00;  9.9999998E-03;  1.0041322E-02;8150;  2.7043846E-01;  0.0000000E+00; -6.1945431E-03;  9.8837195E+02;  1.7271262E-01; -9.6269326E+03;3;  6.3170753E+01;  0.0000000E+00;  3.8026092E+00;0;  2.4931357E+00;  1.3234563E+04;  0.0000000E+00; -8.6251721E-03;  4.0000000E+04;  0.0000000E+00;  3.9621664E+04;  2.9371209E+00;  0.0000000E+00; -4.4398513E-01;  7.2341577E+03;
  1.0816681E+00;  9.9999998E-03; -2.0085508E-02;8147;  2.7237144E-01;  0.0000000E+00;  1.2310052E-02;  9.8840363E+02;  1.7271447E-01; -9.6007363E+03;3;  6.3197330E+01;  0.0000000E+00; -7.5393953E+00;0;  2.4724598E+00;  1.3235217E+04;  0.0000000E+00; -3.4433898E-02;  4.0000000E+04;  0.0000000E+00;  3.9620922E+04;  2.9118905E+00;  0.0000000E+00; -4.3943080E-01;  7.1548042E+03;
  1.0816681E+00;  9.9999998E-03;  2.0085495E-02;8151;  2.7237141E-01;  0.0000000E+00; -1.2309900E-02;  9.8840381E+02;  1.7271398E-01; -9.6005889E+03;3;  6.3197521E+01;  0.0000000E+00;  7.5391979E+00;0;  2.4724593E+00;  1.3235215E+04;  0.0000000E+00; -3.4433406E-02;  4.0000000E+04;  0.0000000E+00;  3.9620922E+04;  2.9118905E+00;  0.0000000E+00; -4.3943116E-01;  7.1547759E+03;
  1.0815561E+00;  9.9999998E-03; -3.0137941E-02;8146;  2.7557787E-01;  0.0000000E+00;  1.8275470E-02;  9.8846539E+02;  1.7271709E-01; -9.5496240E+03;3;  6.3132973E+01;  0.0000000E+00; -1.0711233E+01;0;  2.4385095E+00;  1.3236292E+04;  0.0000000E+00; -7.7108398E-02;  4.0000000E+04;  0.0000000E+00;  3.9620184E+04;  2.8704729E+00;  0.0000000E+00; -4.3196335E-01;  7.0703218E+03;
  1.0815561E+00;  9.9999998E-03;  3.0137928E-02;8152;  2.7557781E-01;  0.0000000E+00; -1.8275321E-02;  9.8846552E+02;  1.7271702E-01; -9.5495244E+03;3;  6.3132854E+01;  0.0000000E+00;  1.0711271E+01;0;  2.4385114E+00;  1.3236292E+04;  0.0000000E+00; -7.7107534E-02;  4.0000000E+04;  0.0000000E+00;  3.9620184E+04;  2.8704753E+00;  0.0000000E+00; -4.3196395E-01;  7.0702451E+03;
  1.0814199E+00;  9.9999998E-03; -4.0205393E-02;8145;  2.8005841E-01;  0.0000000E+00;  2.4022901E-02;  9.8855310E+02;  1.7271677E-01; -9.4769980E+03;3;  6.3096104E+01;  0.0000000E+00; -1.3850509E+01;0;  2.3925486E+00;  1.3238145E+04;  0.0000000E+00; -1.3580631E-01;  4.0000000E+04;  0.0000000E+00;  3.9619980E+04;  2.8143454E+00;  0.0000000E+00; -4.2179674E-01;  7.0414980E+03;
  1.0814199E+00;  9.9999998E-03;  4.0205382E-02;8153;  2.8005829E-01;  0.0000000E+00; -2.4022771E-02;  9.8855310E+02;  1.7271703E-01; -9.4769980E+03;3;  6.3096241E+01;  0.0000000E+00;  1.3850410E+01;0;  2.3925493E+00;  1.3238146E+04;  0.0000000E+00; -1.3580540E-01;  4.0000000E+04;  0.0000000E+00;  3.9619980E+04;  2.8143458E+00;  0.0000000E+00; -4.2179653E-01;  7.0414893E+03;
  1.0812905E+00;  9.9999998E-03; -5.0270729E-02;8144;  2.8576350E-01;  0.0000000E+00;  2.9511124E-02;  9.8867609E+02;  1.7271052E-01; -9.3752070E+03;3;  6.2719429E+01;  0.0000000E+00; -1.6373039E+01;0;  2.3368347E+00;  1.3241333E+04;  0.0000000E+00; -2.0858702E-01;  4.0000000E+04;  0.0000000E+00;  3.9620645E+04;  2.7460966E+00;  0.0000000E+00; -4.0926203E-01;  7.1330405E+03;
  1.0812905E+00;  9.9999998E-03;  5.0270718E-02;8154;  2.8576338E-01;  0.0000000E+00; -2.9511008E-02;  9.8867621E+02;  1.7270988E-01; -9.3751084E+03;3;  6.2719299E+01;  0.0000000E+00;  1.6372988E+01;0;  2.3368351E+00;  1.3241326E+04;  0.0000000E+00; -2.0858487E-01;  4.0000000E+04;  0.0000000E+00;  3.9620652E+04;  2.7460978E+00;  0.0000000E+00; -4.0926272E-01;  7.1330234E+03;
  1.0811960E+00;  9.9999998E-03; -6.0341928E-02;8143;  2.9266548E-01;  0.0000000E+00;  3.4701116E-02;  9.8883167E+02;  1.7269480E-01; -9.2464199E+03;3;  6.2256321E+01;  0.0000000E+00; -1.8913322E+01;0;  2.2733386E+00;  1.3246384E+04;  0.0000000E+00; -2.9225659E-01;  4.0000000E+04;  0.0000000E+00;  3.9622156E+04;  2.6679757E+00;  0.0000000E+00; -3.9463720E-01;  7.3702422E+03;
  1.0811960E+00;  9.9999998E-03;  6.0341921E-02;8155;  2.9266536E-01;  0.0000000E+00; -3.4701001E-02;  9.8883160E+02;  1.7269485E-01; -9.2464688E+03;3;  6.2256256E+01;  0.0000000E+00;  1.8913397E+01;0;  2.2733426E+00;  1.3246383E+04;  0.0000000E+00; -2.9225555E-01;  4.0000000E+04;  0.0000000E+00;  3.9622156E+04;  2.6679800E+00;  0.0000000E+00; -3.9463723E-01;  7.3702139E+03;
  1.0811667E+00;  9.9999998E-03; -7.0411317E-02;8142;  3.0075875E-01;  0.0000000E+00;  3.9639488E-02;  9.8902026E+02;  1.7266539E-01; -9.0902383E+03;3;  6.2433643E+01;  0.0000000E+00; -2.0568541E+01;0;  2.2041640E+00;  1.3253911E+04;  0.0000000E+00; -3.8125819E-01;  4.0000000E+04;  0.0000000E+00;  3.9624816E+04;  2.5823402E+00;  0.0000000E+00; -3.7817609E-01;  7.7275718E+03;
  1.0812787E+00;  9.9999998E-03; -8.0466405E-02;8141;  3.1002218E-01;  0.0000000E+00;  4.4361390E-02;  9.8923859E+02;  1.7261273E-01; -8.9095176E+03;3;  6.3055275E+01;  0.0000000E+00; -2.2267464E+01;0;  2.1341188E+00;  1.3265862E+04;  0.0000000E+00; -4.6598163E-01;  4.0000000E+04;  0.0000000E+00;  3.9627539E+04;  2.4944355E+00;  0.0000000E+00; -3.6031666E-01;  8.1187129E+03;
  1.0814885E+00;  9.9999998E-03; -9.0503611E-02;8140;  3.2038018E-01;  0.0000000E+00;  4.8878863E-02;  9.8948370E+02;  1.7254478E-01; -8.7065332E+03;3;  6.3378418E+01;  0.0000000E+00; -2.3358919E+01;0;  2.0605397E+00;  1.3281231E+04;  0.0000000E+00; -5.3082818E-01;  4.0000000E+04;  0.0000000E+00;  3.9630102E+04;  2.4012325E+00;  0.0000000E+00; -3.4069285E-01;  8.4380391E+03;
  1.0817058E+00;  9.9999998E-03; -1.0052384E-01;8139;  3.3181623E-01;  0.0000000E+00;  5.3063389E-02;  9.8976172E+02;  1.7247471E-01; -8.4763584E+03;3;  6.4217773E+01;  0.0000000E+00; -2.4890495E+01;0;  1.9784930E+00;  1.3298266E+04;  0.0000000E+00; -5.5419606E-01;  4.0000000E+04;  0.0000000E+00;  3.9631480E+04;  2.2970388E+00;  0.0000000E+00; -3.1854582E-01;  8.5907627E+03;
  1.0994433E+00;  9.9999998E-03; -7.3763835E-09;8210;  2.7723491E-01;  0.0000000E+00;  8.0046448E-08;  9.8927747E+02;  1.6862617E-01; -8.8753838E+03;3; -1.6335989E+01;  0.0000000E+00; -5.3957301E-05;0;  3.7848976E+00;  1.3916770E+04;  0.0000000E+00;  1.3585432E-11;  4.0000000E+04;  0.0000000E+00;  3.9593344E+04;  4.3155155E+00;  0.0000000E+00; -5.3061789E-01;  2.7941189E+03;
  1.0994310E+00;  9.9999998E-03; -1.0028206E-02;8209;  2.7759451E-01;  0.0000000E+00;  8.1099765E-03;  9.8927466E+02;  1.6862579E-01; -8.8777031E+03;3; -1.4160080E+01;  0.0000000E+00; -2.2617984E+00;0;  3.7771554E+00;  1.3916637E+04;  0.0000000E+00; -6.1116433E-03;  4.0000000E+04;  0.0000000E+00;  3.9593258E+04;  4.3062472E+00;  0.0000000E+00; -5.2909172E-01;  2.7956528E+03;
  1.0994310E+00;  9.9999998E-03;  1.0028192E-02;8211;  2.7759451E-01;  0.0000000E+00; -8.1098098E-03;  9.8927472E+02;  1.6862547E-01; -8.8776543E+03;3; -1.4160384E+01;  0.0000000E+00;  2.2617867E+00;0;  3.7771614E+00;  1.3916635E+04;  0.0000000E+00; -6.1115678E-03;  4.0000000E+04;  0.0000000E+00;  3.9593266E+04;  4.3062530E+00;  0.0000000E+00; -5.2909166E-01;  2.7956335E+03;
  1.0993901E+00;  9.9999998E-03; -2.0058244E-02;8208;  2.7868527E-01;  0.0000000E+00;  1.6172573E-02;  9.8926831E+02;  1.6862547E-01; -8.8829883E+03;3; -7.2286325E+00;  0.0000000E+00; -4.0700688E+00;0;  3.7536597E+00;  1.3916109E+04;  0.0000000E+00; -2.4780979E-02;  4.0000000E+04;  0.0000000E+00;  3.9593332E+04;  4.2781906E+00;  0.0000000E+00; -5.2453077E-01;  2.8111252E+03;
  1.0993901E+00;  9.9999998E-03;  2.0058230E-02;8212;  2.7868542E-01;  0.0000000E+00; -1.6172418E-02;  9.8926831E+02;  1.6862547E-01; -8.8829883E+03;3; -7.2304444E+00;  0.0000000E+00;  4.0700736E+00;0;  3.7536623E+00;  1.3916111E+04;  0.0000000E+00; -2.4780726E-02;  4.0000000E+04;  0.0000000E+00;  3.9593332E+04;  4.2781940E+00;  0.0000000E+00; -5.2453154E-01;  2.8110918E+03;
  1.0993255E+00;  9.9999998E-03; -3.0096862E-02;8207;  2.8058401E-01;  0.0000000E+00;  2.4087515E-02;  9.8925464E+02;  1.6862279E-01; -8.8942930E+03;3;  3.7866290E+00;  0.0000000E+00; -6.2722087E+00;0;  3.7146988E+00;  1.3915388E+04;  0.0000000E+00; -5.6825072E-02;  4.0000000E+04;  0.0000000E+00;  3.9593715E+04;  4.2317410E+00;  0.0000000E+00; -5.1704222E-01;  2.8697439E+03;
  1.0993255E+00;  9.9999998E-03;  3.0096851E-02;8213;  2.8058401E-01;  0.0000000E+00; -2.4087356E-02;  9.8925482E+02;  1.6862305E-01; -8.8941455E+03;3;  3.7859449E+00;  0.0000000E+00;  6.2721615E+00;0;  3.7147017E+00;  1.3915385E+04;  0.0000000E+00; -5.6824021E-02;  4.0000000E+04;  0.0000000E+00;  3.9593715E+04;  4.2317443E+00;  0.0000000E+00; -5.1704258E-01;  2.8696616E+03;
  1.0992582E+00;  9.9999998E-03; -4.0153205E-02;8206;  2.8361946E-01;  0.0000000E+00;  3.1849187E-02;  9.8925226E+02;  1.6861548E-01; -8.8962754E+03;3;  1.6721607E+01;  0.0000000E+00; -8.9229774E+00;0;  3.6616814E+00;  1.3915152E+04;  0.0000000E+00; -1.0296184E-01;  4.0000000E+04;  0.0000000E+00;  3.9594801E+04;  4.1685100E+00;  0.0000000E+00; -5.0682861E-01;  3.0124519E+03;
  1.0992582E+00;  9.9999998E-03;  4.0153194E-02;8214;  2.8361949E-01;  0.0000000E+00; -3.1849023E-02;  9.8925201E+02;  1.6861565E-01; -8.8964727E+03;3;  1.6720625E+01;  0.0000000E+00;  8.9231014E+00;0;  3.6616855E+00;  1.3915154E+04;  0.0000000E+00; -1.0295992E-01;  4.0000000E+04;  0.0000000E+00;  3.9594801E+04;  4.1685138E+00;  0.0000000E+00; -5.0682837E-01;  3.0124155E+03;
  1.0992100E+00;  9.9999998E-03; -5.0234437E-02;8205;  2.8802007E-01;  0.0000000E+00;  3.9407216E-02;  9.8926068E+02;  1.6859895E-01; -8.8893242E+03;3;  3.0549395E+01;  0.0000000E+00; -1.0866508E+01;0;  3.5960629E+00;  1.3916434E+04;  0.0000000E+00; -1.6301644E-01;  4.0000000E+04;  0.0000000E+00;  3.9596840E+04;  4.0901818E+00;  0.0000000E+00; -4.9411893E-01;  3.2817668E+03;
  1.0992100E+00;  9.9999998E-03;  5.0234426E-02;8215;  2.8802001E-01;  0.0000000E+00; -3.9407060E-02;  9.8926086E+02;  1.6859876E-01; -8.8891768E+03;3;  3.0548763E+01;  0.0000000E+00;  1.0866452E+01;0;  3.5960658E+00;  1.3916434E+04;  0.0000000E+00; -1.6301519E-01;  4.0000000E+04;  0.0000000E+00;  3.9596840E+04;  4.0901852E+00;  0.0000000E+00; -4.9411947E-01;  3.2817729E+03;
  1.0992017E+00;  9.9999998E-03; -6.0315248E-02;8204;  2.9391998E-01;  0.0000000E+00;  4.6688516E-02;  9.8928546E+02;  1.6856927E-01; -8.8688008E+03;3;  4.2254883E+01;  0.0000000E+00; -1.3573935E+01;0;  3.5193989E+00;  1.3919512E+04;  0.0000000E+00; -2.3488557E-01;  4.0000000E+04;  0.0000000E+00;  3.9599742E+04;  3.9985902E+00;  0.0000000E+00; -4.7919136E-01;  3.7022256E+03;
  1.0992017E+00;  9.9999998E-03;  6.0315236E-02;8216;  2.9391992E-01;  0.0000000E+00; -4.6688378E-02;  9.8928540E+02;  1.6856933E-01; -8.8688506E+03;3;  4.2253986E+01;  0.0000000E+00;  1.3573785E+01;0;  3.5194049E+00;  1.3919512E+04;  0.0000000E+00; -2.3488170E-01;  4.0000000E+04;  0.0000000E+00;  3.9599742E+04;  3.9985964E+00;  0.0000000E+00; -4.7919142E-01;  3.7022229E+03;
  1.0992324E+00;  9.9999998E-03; -7.0386894E-02;8203;  3.0127120E-01;  0.0000000E+00;  5.3662363E-02;  9.8933417E+02;  1.6852978E-01; -8.8284883E+03;3;  5.0769482E+01;  0.0000000E+00; -1.5914401E+01;0;  3.4316893E+00;  1.3924451E+04;  0.0000000E+00; -3.1408572E-01;  4.0000000E+04;  0.0000000E+00;  3.9603863E+04;  3.8939128E+00;  0.0000000E+00; -4.6222359E-01;  4.2527539E+03;
  1.0992876E+00;  9.9999998E-03; -8.0445848E-02;8202;  3.0999604E-01;  0.0000000E+00;  6.0262717E-02;  9.8940002E+02;  1.6848186E-01; -8.7739648E+03;3;  5.6617821E+01;  0.0000000E+00; -1.8207426E+01;0;  3.3319919E+00;  1.3930760E+04;  0.0000000E+00; -3.9269608E-01;  4.0000000E+04;  0.0000000E+00;  3.9608289E+04;  3.7752881E+00;  0.0000000E+00; -4.4329619E-01;  4.8658110E+03;
  1.0993602E+00;  9.9999998E-03; -9.0490103E-02;8201;  3.2000491E-01;  0.0000000E+00;  6.6475116E-02;  9.8948755E+02;  1.6843341E-01; -8.7015303E+03;3;  6.0176491E+01;  0.0000000E+00; -1.9746269E+01;0;  3.2201049E+00;  1.3938138E+04;  0.0000000E+00; -4.5851117E-01;  4.0000000E+04;  0.0000000E+00;  3.9612742E+04;  3.6425483E+00;  0.0000000E+00; -4.2244333E-01;  5.4464688E+03;
  1.0994434E+00;  9.9999998E-03; -1.0052156E-01;8200;  3.3119994E-01;  0.0000000E+00;  7.2221577E-02;  9.8959338E+02;  1.6838212E-01; -8.6138984E+03;3;  6.2319633E+01;  0.0000000E+00; -2.2155079E+01;0;  3.0960598E+00;  1.3946564E+04;  0.0000000E+00; -4.9539837E-01;  4.0000000E+04;  0.0000000E+00;  3.9616324E+04;  3.4956207E+00;  0.0000000E+00; -3.9956099E-01;  5.8995381E+03;
  1.1167669E+00;  9.9999998E-03; -1.0031853E-02;8270;  4.0510637E-01;  0.0000000E+00;  8.9055970E-03;  9.9084863E+02;  1.6422957E-01; -7.5728408E+03;3; -1.5893507E+02;  0.0000000E+00;  1.2924537E-01;0;  4.9941883E+00;  1.4723444E+04;  0.0000000E+00; -5.5085350E-04;  4.0000000E+04;  0.0000000E+00;  3.9564391E+04;  5.5591402E+00;  0.0000000E+00; -5.6495190E-01;  1.8311541E+03;
  1.1167597E+00;  9.9999998E-03; -8.2626261E-09;8271;  4.0510106E-01;  0.0000000E+00;  7.3482234E-08;  9.9085516E+02;  1.6423325E-01; -7.5674653E+03;3; -1.5946088E+02;  0.0000000E+00;  1.9458461E-05;0;  5.0011044E+00;  1.4723204E+04;  0.0000000E+00;  1.6248612E-11;  4.0000000E+04;  0.0000000E+00;  3.9564129E+04;  5.5674877E+00;  0.0000000E+00; -5.6638348E-01;  1.8568292E+03;
  1.1167669E+00;  9.9999998E-03;  1.0031837E-02;8272;  4.0510604E-01;  0.0000000E+00; -8.9054471E-03;  9.9084888E+02;  1.6422948E-01; -7.5726436E+03;3; -1.5893509E+02;  0.0000000E+00; -1.2918361E-01;0;  4.9941859E+00;  1.4723445E+04;  0.0000000E+00; -5.5105402E-04;  4.0000000E+04;  0.0000000E+00;  3.9564395E+04;  5.5591378E+00;  0.0000000E+00; -5.6495178E-01;  1.8311921E+03;
  1.1167868E+00;  9.9999998E-03; -2.0066330E-02;8269;  4.0510035E-01;  0.0000000E+00;  1.7751679E-02;  9.9083398E+02;  1.6421960E-01; -7.5849717E+03;3; -1.5733046E+02;  0.0000000E+00;  1.9134338E-01;0;  4.9732838E+00;  1.4724217E+04;  0.0000000E+00; -3.0155710E-03;  4.0000000E+04;  0.0000000E+00;  3.9565031E+04;  5.5339761E+00;  0.0000000E+00; -5.6069225E-01;  1.7491287E+03;
  1.1167868E+00;  9.9999998E-03;  2.0066313E-02;8273;  4.0510049E-01;  0.0000000E+00; -1.7751534E-02;  9.9083374E+02;  1.6421923E-01; -7.5851689E+03;3; -1.5733040E+02;  0.0000000E+00; -1.9127464E-01;0;  4.9732857E+00;  1.4724215E+04;  0.0000000E+00; -3.0151620E-03;  4.0000000E+04;  0.0000000E+00;  3.9565027E+04;  5.5339775E+00;  0.0000000E+00; -5.6069195E-01;  1.7491597E+03;
  1.1168181E+00;  9.9999998E-03; -3.0109687E-02;8268;  4.0504178E-01;  0.0000000E+00;  2.6484704E-02;  9.9080804E+02;  1.6420168E-01; -7.6064229E+03;3; -1.5461293E+02;  0.0000000E+00;  1.6627182E-01;0;  4.9381876E+00;  1.4725369E+04;  0.0000000E+00; -9.5880199E-03;  4.0000000E+04;  0.0000000E+00;  3.9566270E+04;  5.4918990E+00;  0.0000000E+00; -5.5371118E-01;  1.5955034E+03;
  1.1168181E+00;  9.9999998E-03;  3.0109672E-02;8274;  4.0504178E-01;  0.0000000E+00; -2.6484570E-02;  9.9080817E+02;  1.6420217E-01; -7.6063242E+03;3; -1.5461267E+02;  0.0000000E+00; -1.6625863E-01;0;  4.9382014E+00;  1.4725362E+04;  0.0000000E+00; -9.5885284E-03;  4.0000000E+04;  0.0000000E+00;  3.9566270E+04;  5.4919124E+00;  0.0000000E+00; -5.5371100E-01;  1.5955402E+03;
  1.1168529E+00;  9.9999998E-03; -4.0170342E-02;8267;  4.0474850E-01;  0.0000000E+00;  3.5065223E-02;  9.9077515E+02;  1.6417947E-01; -7.6336455E+03;3; -1.5072134E+02;  0.0000000E+00;  1.0853609E-01;0;  4.8882418E+00;  1.4726639E+04;  0.0000000E+00; -2.3280367E-02;  4.0000000E+04;  0.0000000E+00;  3.9568195E+04;  5.4324055E+00;  0.0000000E+00; -5.4416347E-01;  1.3446281E+03;
  1.1168529E+00;  9.9999998E-03;  4.0170327E-02;8275;  4.0474814E-01;  0.0000000E+00; -3.5065092E-02;  9.9077521E+02;  1.6417962E-01; -7.6335962E+03;3; -1.5072174E+02;  0.0000000E+00; -1.0845746E-01;0;  4.8882399E+00;  1.4726638E+04;  0.0000000E+00; -2.3279883E-02;  4.0000000E+04;  0.0000000E+00;  3.9568195E+04;  5.4324036E+00;  0.0000000E+00; -5.4416353E-01;  1.3446769E+03;
  1.1168643E+00;  9.9999998E-03; -5.0251216E-02;8266;  4.0367815E-01;  0.0000000E+00;  4.3478545E-02;  9.9073956E+02;  1.6415803E-01; -7.6630898E+03;3; -1.4554994E+02;  0.0000000E+00;  1.9818157E-01;0;  4.8215075E+00;  1.4726971E+04;  0.0000000E+00; -4.7387376E-02;  4.0000000E+04;  0.0000000E+00;  3.9571449E+04;  5.3537345E+00;  0.0000000E+00; -5.3222698E-01;  9.6858258E+02;
  1.1168643E+00;  9.9999998E-03;  5.0251201E-02;8276;  4.0367830E-01;  0.0000000E+00; -4.3478426E-02;  9.9073895E+02;  1.6415785E-01; -7.6636323E+03;3; -1.4554997E+02;  0.0000000E+00; -1.9808872E-01;0;  4.8215079E+00;  1.4726973E+04;  0.0000000E+00; -4.7385667E-02;  4.0000000E+04;  0.0000000E+00;  3.9571449E+04;  5.3537350E+00;  0.0000000E+00; -5.3222704E-01;  9.6860931E+02;
  1.1167909E+00;  9.9999998E-03; -6.0352184E-02;8265;  4.0079215E-01;  0.0000000E+00;  5.1714987E-02;  9.9069061E+02;  1.6414972E-01; -7.7036431E+03;3; -1.3907881E+02;  0.0000000E+00; -9.9527434E-02;0;  4.7339673E+00;  1.4723768E+04;  0.0000000E+00; -8.5025668E-02;  4.0000000E+04;  0.0000000E+00;  3.9575762E+04;  5.2520227E+00;  0.0000000E+00; -5.1805532E-01;  4.9023282E+02;
  1.1167909E+00;  9.9999998E-03;  6.0352169E-02;8277;  4.0079194E-01;  0.0000000E+00; -5.1714864E-02;  9.9069061E+02;  1.6414972E-01; -7.7036431E+03;3; -1.3907883E+02;  0.0000000E+00;  9.9580780E-02;0;  4.7339692E+00;  1.4723765E+04;  0.0000000E+00; -8.5022181E-02;  4.0000000E+04;  0.0000000E+00;  3.9575766E+04;  5.2520242E+00;  0.0000000E+00; -5.1805514E-01;  4.9022955E+02;
  1.1167171E+00;  9.9999998E-03; -7.0442699E-02;8264;  3.9760533E-01;  0.0000000E+00;  5.9686318E-02;  9.9064612E+02;  1.6413765E-01; -7.7404487E+03;3; -1.3125436E+02;  0.0000000E+00; -9.5136231E-01;0;  4.6307764E+00;  1.4720748E+04;  0.0000000E+00; -1.3576369E-01;  4.0000000E+04;  0.0000000E+00;  3.9581145E+04;  5.1327338E+00;  0.0000000E+00; -5.0195730E-01;  5.1892468E+02;
  1.1166608E+00;  9.9999998E-03; -8.0507889E-02;8263;  3.9457223E-01;  0.0000000E+00;  6.7370757E-02;  9.9060907E+02;  1.6412060E-01; -7.7711362E+03;3; -1.2209477E+02;  0.0000000E+00; -1.8295690E+00;0;  4.5130663E+00;  1.4718491E+04;  0.0000000E+00; -1.9630724E-01;  4.0000000E+04;  0.0000000E+00;  3.9587246E+04;  4.9972320E+00;  0.0000000E+00; -4.8416570E-01;  1.2225676E+03;
  1.1166387E+00;  9.9999998E-03; -9.0552583E-02;8262;  3.9222333E-01;  0.0000000E+00;  7.4733824E-02;  9.9057452E+02;  1.6409570E-01; -7.7996978E+03;3; -1.1144747E+02;  0.0000000E+00; -2.4247005E+00;0;  4.3818130E+00;  1.4717534E+04;  0.0000000E+00; -2.6018521E-01;  4.0000000E+04;  0.0000000E+00;  3.9593238E+04;  4.8466463E+00;  0.0000000E+00; -4.6483344E-01;  2.0037697E+03;
  1.1166524E+00;  9.9999998E-03; -1.0058073E-01;8261;  3.9082873E-01;  0.0000000E+00;  8.1767768E-02;  9.9053632E+02;  1.6406506E-01; -7.8313115E+03;3; -9.8926682E+01;  0.0000000E+00; -3.3758144E+00;0;  4.2372432E+00;  1.4718098E+04;  0.0000000E+00; -3.1860539E-01;  4.0000000E+04;  0.0000000E+00;  3.9598816E+04;  4.6812477E+00;  0.0000000E+00; -4.4400436E-01;  2.7279111E+03;
  1.1335523E+00;  9.9999998E-03; -8.1831955E-09;8332;  5.6812352E-01;  0.0000000E+00;  8.3378723E-08;  9.9293146E+02;  1.5972129E-01; -5.8473228E+03;3; -1.7755301E+02;  0.0000000E+00;  3.8034275E-05;0;  5.8982983E+00;  1.5635334E+04;  0.0000000E+00;  1.8495873E-11;  4.0000000E+04;  0.0000000E+00;  3.9536645E+04;  6.4517250E+00;  0.0000000E+00; -5.5342662E-01;  6.3073525E+03;
  1.1335533E+00;  9.9999998E-03; -1.0064206E-02;8331;  5.6792301E-01;  0.0000000E+00;  7.9863528E-03;  9.9292889E+02;  1.5971941E-01; -5.8494429E+03;3; -1.7716095E+02;  0.0000000E+00;  1.2393988E+00;0;  5.8914723E+00;  1.5635167E+04;  0.0000000E+00;  6.2171053E-03;  4.0000000E+04;  0.0000000E+00;  3.9537160E+04;  6.4436049E+00;  0.0000000E+00; -5.5213267E-01;  6.2584941E+03;
  1.1335533E+00;  9.9999998E-03;  1.0064190E-02;8333;  5.6792212E-01;  0.0000000E+00; -7.9861907E-03;  9.9292908E+02;  1.5971996E-01; -5.8492949E+03;3; -1.7716092E+02;  0.0000000E+00; -1.2393439E+00;0;  5.8914685E+00;  1.5635167E+04;  0.0000000E+00;  6.2164324E-03;  4.0000000E+04;  0.0000000E+00;  3.9537160E+04;  6.4436016E+00;  0.0000000E+00; -5.5213296E-01;  6.2585156E+03;
  1.1335573E+00;  9.9999998E-03; -2.0126211E-02;8330;  5.6730157E-01;  0.0000000E+00;  1.5961749E-02;  9.9291730E+02;  1.5971588E-01; -5.8590576E+03;3; -1.7600519E+02;  0.0000000E+00;  2.4668157E+00;0;  5.8710141E+00;  1.5634844E+04;  0.0000000E+00;  2.3796063E-02;  4.0000000E+04;  0.0000000E+00;  3.9538383E+04;  6.4193096E+00;  0.0000000E+00; -5.4829550E-01;  6.1106914E+03;
  1.1335573E+00;  9.9999998E-03;  2.0126196E-02;8334;  5.6730139E-01;  0.0000000E+00; -1.5961591E-02;  9.9291742E+02;  1.5971547E-01; -5.8589590E+03;3; -1.7600517E+02;  0.0000000E+00; -2.4667492E+00;0;  5.8710146E+00;  1.5634842E+04;  0.0000000E+00;  2.3795052E-02;  4.0000000E+04;  0.0000000E+00;  3.9538379E+04;  6.4193096E+00;  0.0000000E+00; -5.4829526E-01;  6.1107324E+03;
  1.1335583E+00;  9.9999998E-03; -3.0186398E-02;8329;  5.6610614E-01;  0.0000000E+00;  2.3902031E-02;  9.9289642E+02;  1.5970841E-01; -5.8763149E+03;3; -1.7407265E+02;  0.0000000E+00;  3.6724870E+00;0;  5.8365669E+00;  1.5633991E+04;  0.0000000E+00;  4.9617060E-02;  4.0000000E+04;  0.0000000E+00;  3.9540480E+04;  6.3786273E+00;  0.0000000E+00; -5.4206043E-01;  5.8572681E+03;
  1.1335583E+00;  9.9999998E-03;  3.0186385E-02;8335;  5.6610608E-01;  0.0000000E+00; -2.3901876E-02;  9.9289661E+02;  1.5970866E-01; -5.8761670E+03;3; -1.7407285E+02;  0.0000000E+00; -3.6724179E+00;0;  5.8365722E+00;  1.5633987E+04;  0.0000000E+00;  4.9615782E-02;  4.0000000E+04;  0.0000000E+00;  3.9540477E+04;  6.3786330E+00;  0.0000000E+00; -5.4206079E-01;  5.8573237E+03;
  1.1335585E+00;  9.9999998E-03; -4.0242560E-02;8328;  5.6436008E-01;  0.0000000E+00;  3.1765770E-02;  9.9287042E+02;  1.5969923E-01; -5.8978130E+03;3; -1.7131674E+02;  0.0000000E+00;  4.8709426E+00;0;  5.7880497E+00;  1.5632728E+04;  0.0000000E+00;  7.8837521E-02;  4.0000000E+04;  0.0000000E+00;  3.9543273E+04;  6.3216782E+00;  0.0000000E+00; -5.3362840E-01;  5.4875371E+03;
  1.1335585E+00;  9.9999998E-03;  4.0242549E-02;8336;  5.6436062E-01;  0.0000000E+00; -3.1765621E-02;  9.9287048E+02;  1.5969953E-01; -5.8977637E+03;3; -1.7131686E+02;  0.0000000E+00; -4.8708692E+00;0;  5.7880530E+00;  1.5632728E+04;  0.0000000E+00;  7.8839108E-02;  4.0000000E+04;  0.0000000E+00;  3.9543266E+04;  6.3216810E+00;  0.0000000E+00; -5.3362799E-01;  5.4875449E+03;
  1.1335639E+00;  9.9999998E-03; -5.0301742E-02;8327;  5.6215823E-01;  0.0000000E+00;  3.9523803E-02;  9.9282959E+02;  1.5968654E-01; -5.9316367E+03;3; -1.6769164E+02;  0.0000000E+00;  6.0083666E+00;0;  5.7253580E+00;  1.5631238E+04;  0.0000000E+00;  1.0541685E-01;  4.0000000E+04;  0.0000000E+00;  3.9547355E+04;  6.2485895E+00;  0.0000000E+00; -5.2323145E-01;  4.9880786E+03;
  1.1335639E+00;  9.9999998E-03;  5.0301734E-02;8337;  5.6215841E-01;  0.0000000E+00; -3.9523657E-02;  9.9282959E+02;  1.5968654E-01; -5.9316367E+03;3; -1.6769157E+02;  0.0000000E+00; -6.0083222E+00;0;  5.7253618E+00;  1.5631242E+04;  0.0000000E+00;  1.0541973E-01;  4.0000000E+04;  0.0000000E+00;  3.9547355E+04;  6.2485933E+00;  0.0000000E+00; -5.2323163E-01;  4.9880474E+03;
  1.1335673E+00;  9.9999998E-03; -6.0377833E-02;8326;  5.5940533E-01;  0.0000000E+00;  4.7174718E-02;  9.9278308E+02;  1.5967110E-01; -5.9700957E+03;3; -1.6309935E+02;  0.0000000E+00;  7.1776023E+00;0;  5.6476760E+00;  1.5629146E+04;  0.0000000E+00;  1.2249232E-01;  4.0000000E+04;  0.0000000E+00;  3.9552602E+04;  6.1588020E+00;  0.0000000E+00; -5.1112610E-01;  4.3457407E+03;
  1.1335673E+00;  9.9999998E-03;  6.0377821E-02;8338;  5.5940580E-01;  0.0000000E+00; -4.7174569E-02;  9.9278320E+02;  1.5967110E-01; -5.9699971E+03;3; -1.6309944E+02;  0.0000000E+00; -7.1775246E+00;0;  5.6476808E+00;  1.5629147E+04;  0.0000000E+00;  1.2249571E-01;  4.0000000E+04;  0.0000000E+00;  3.9552602E+04;  6.1588063E+00;  0.0000000E+00; -5.1112574E-01;  4.3457622E+03;
  1.1335204E+00;  9.9999998E-03; -7.0476323E-02;8325;  5.5528051E-01;  0.0000000E+00;  5.4714844E-02;  9.9271967E+02;  1.5966457E-01; -6.0225645E+03;3; -1.5753398E+02;  0.0000000E+00;  8.2965069E+00;0;  5.5523920E+00;  1.5624238E+04;  0.0000000E+00;  1.2233019E-01;  4.0000000E+04;  0.0000000E+00;  3.9558945E+04;  6.0500021E+00;  0.0000000E+00; -4.9761018E-01;  3.5539792E+03;
  1.1333971E+00;  9.9999998E-03; -8.0562875E-02;8324;  5.4943836E-01;  0.0000000E+00;  6.2120792E-02;  9.9261926E+02;  1.5967128E-01; -6.1056147E+03;3; -1.5096935E+02;  0.0000000E+00;  9.2255926E+00;0;  5.4380231E+00;  1.5615178E+04;  0.0000000E+00;  9.7934693E-02;  4.0000000E+04;  0.0000000E+00;  3.9566148E+04;  5.9209561E+00;  0.0000000E+00; -4.8293296E-01;  2.6442632E+03;
  1.1332401E+00;  9.9999998E-03; -9.0614624E-02;8323;  5.4246849E-01;  0.0000000E+00;  6.9369808E-02;  9.9248907E+02;  1.5968329E-01; -6.2133232E+03;3; -1.4319176E+02;  0.0000000E+00;  1.0261940E+01;0;  5.3061991E+00;  1.5604211E+04;  0.0000000E+00;  4.5817852E-02;  4.0000000E+04;  0.0000000E+00;  3.9573578E+04;  5.7733707E+00;  0.0000000E+00; -4.6717167E-01;  1.6941449E+03;
  1.1331061E+00;  9.9999998E-03; -1.0064655E-01;8322;  5.3543687E-01;  0.0000000E+00;  7.6423801E-02;  9.9232892E+02;  1.5968905E-01; -6.3458315E+03;3; -1.3416862E+02;  0.0000000E+00;  1.1132956E+01;0;  5.1590238E+00;  1.5593701E+04;  0.0000000E+00; -3.4021325E-02;  4.0000000E+04;  0.0000000E+00;  3.9580789E+04;  5.6093211E+00;  0.0000000E+00; -4.5029715E-01;  8.5107526E+02;
  1.1491655E+00;  9.9999998E-03; -4.0205456E-02;8389;  7.1886301E-01;  0.0000000E+00;  2.6750987E-02;  9.9516510E+02;  1.5536281E-01; -3.9980068E+03;3; -1.7303371E+02;  0.0000000E+00;  7.6729031E+00;0;  6.2551494E+00;  1.6595742E+04;  0.0000000E+00;  1.5169875E-01;  4.0000000E+04;  0.0000000E+00;  3.9522082E+04;  6.7413521E+00;  0.0000000E+00; -4.8620257E-01;  9.0810400E+03;
  1.1491824E+00;  9.9999998E-03; -3.0152423E-02;8390;  7.2167343E-01;  0.0000000E+00;  2.0145172E-02;  9.9517712E+02;  1.5536505E-01; -3.9880488E+03;3; -1.7479950E+02;  0.0000000E+00;  5.8320494E+00;0;  6.2936459E+00;  1.6597822E+04;  0.0000000E+00;  8.9910083E-02;  4.0000000E+04;  0.0000000E+00;  3.9518484E+04;  6.7869105E+00;  0.0000000E+00; -4.9326456E-01;  9.5343408E+03;
  1.1491947E+00;  9.9999998E-03; -2.0099575E-02;8391;  7.2368944E-01;  0.0000000E+00;  1.3471659E-02;  9.9518243E+02;  1.5536648E-01; -3.9836611E+03;3; -1.7600108E+02;  0.0000000E+00;  3.9242380E+00;0;  6.3207755E+00;  1.6599320E+04;  0.0000000E+00;  4.1351929E-02;  4.0000000E+04;  0.0000000E+00;  3.9515750E+04;  6.8193312E+00;  0.0000000E+00; -4.9855575E-01;  9.8626660E+03;
  1.1492013E+00;  9.9999998E-03; -1.0048792E-02;8392;  7.2490072E-01;  0.0000000E+00;  6.7506791E-03;  9.9518378E+02;  1.5536818E-01; -3.9825757E+03;3; -1.7669388E+02;  0.0000000E+00;  1.9691645E+00;0;  6.3368897E+00;  1.6600068E+04;  0.0000000E+00;  1.0540716E-02;  4.0000000E+04;  0.0000000E+00;  3.9514129E+04;  6.8387284E+00;  0.0000000E+00; -5.0183868E-01;  1.0062576E+04;
  1.1492033E+00;  9.9999998E-03; -7.1225061E-09;8393;  7.2530222E-01;  0.0000000E+00;  5.4478740E-08;  9.9518561E+02;  1.5536889E-01; -3.9810476E+03;3; -1.7691910E+02;  0.0000000E+00;  3.6019337E-06;0;  6.3422284E+00;  1.6600297E+04;  0.0000000E+00;  1.8205265E-11;  4.0000000E+04;  0.0000000E+00;  3.9513535E+04;  6.8451791E+00;  0.0000000E+00; -5.0295073E-01;  1.0129853E+04;
  1.1492013E+00;  9.9999998E-03;  1.0048779E-02;8394;  7.2490036E-01;  0.0000000E+00; -6.7505743E-03;  9.9518384E+02;  1.5536764E-01; -3.9825264E+03;3; -1.7669392E+02;  0.0000000E+00; -1.9691461E+00;0;  6.3368940E+00;  1.6600068E+04;  0.0000000E+00;  1.0540035E-02;  4.0000000E+04;  0.0000000E+00;  3.9514133E+04;  6.8387322E+00;  0.0000000E+00; -5.0183821E-01;  1.0062578E+04;
  1.1491947E+00;  9.9999998E-03;  2.0099564E-02;8395;  7.2368985E-01;  0.0000000E+00; -1.3471544E-02;  9.9518237E+02;  1.5536684E-01; -3.9837104E+03;3; -1.7600110E+02;  0.0000000E+00; -3.9242280E+00;0;  6.3207765E+00;  1.6599320E+04;  0.0000000E+00;  4.1350655E-02;  4.0000000E+04;  0.0000000E+00;  3.9515754E+04;  6.8193321E+00;  0.0000000E+00; -4.9855563E-01;  9.8626738E+03;
  1.1491826E+00;  9.9999998E-03;  3.0152412E-02;8396;  7.2167343E-01;  0.0000000E+00; -2.0145049E-02;  9.9517725E+02;  1.5536475E-01; -3.9879504E+03;3; -1.7479939E+02;  0.0000000E+00; -5.8320103E+00;0;  6.2936463E+00;  1.6597828E+04;  0.0000000E+00;  8.9908876E-02;  4.0000000E+04;  0.0000000E+00;  3.9518473E+04;  6.7869110E+00;  0.0000000E+00; -4.9326462E-01;  9.5343623E+03;
  1.1491655E+00;  9.9999998E-03;  4.0205445E-02;8397;  7.1886337E-01;  0.0000000E+00; -2.6750859E-02;  9.9516504E+02;  1.5536302E-01; -3.9980562E+03;3; -1.7303357E+02;  0.0000000E+00; -7.6728706E+00;0;  6.2551479E+00;  1.6595746E+04;  0.0000000E+00;  1.5169737E-01;  4.0000000E+04;  0.0000000E+00;  3.9522082E+04;  6.7413507E+00;  0.0000000E+00; -4.8620269E-01;  9.0810566E+03;
  1.1491427E+00;  9.9999998E-03; -5.0261594E-02;8388;  7.1527112E-01;  0.0000000E+00;  3.3263005E-02;  9.9514435E+02;  1.5535961E-01; -4.0151616E+03;3; -1.7065056E+02;  0.0000000E+00;  9.4912329E+00;0;  6.2047343E+00;  1.6592746E+04;  0.0000000E+00;  2.1993853E-01;  4.0000000E+04;  0.0000000E+00;  3.9526805E+04;  6.6823988E+00;  0.0000000E+00; -4.7766435E-01;  8.5027607E+03;
  1.1491427E+00;  9.9999998E-03;  5.0261587E-02;8398;  7.1527189E-01;  0.0000000E+00; -3.3262867E-02;  9.9514447E+02;  1.5535969E-01; -4.0150630E+03;3; -1.7065027E+02;  0.0000000E+00; -9.4912453E+00;0;  6.2047348E+00;  1.6592742E+04;  0.0000000E+00;  2.1993674E-01;  4.0000000E+04;  0.0000000E+00;  3.9526809E+04;  6.6823993E+00;  0.0000000E+00; -4.7766453E-01;  8.5028066E+03;
  1.1490798E+00;  9.9999998E-03; -7.0404142E-02;8386;  7.0595926E-01;  0.0000000E+00;  4.5951035E-02;  9.9504083E+02;  1.5535341E-01; -4.1007812E+03;3; -1.6380365E+02;  0.0000000E+00;  1.3243126E+01;0;  6.0653448E+00;  1.6583287E+04;  0.0000000E+00;  3.3593360E-01;  4.0000000E+04;  0.0000000E+00;  3.9539559E+04;  6.5226688E+00;  0.0000000E+00; -4.5732427E-01;  6.9681665E+03;
  1.1491140E+00;  9.9999998E-03; -6.0325138E-02;8387;  7.1096206E-01;  0.0000000E+00;  3.9663430E-02;  9.9510437E+02;  1.5535641E-01; -4.0482368E+03;3; -1.6759373E+02;  0.0000000E+00;  1.1389312E+01;0;  6.1417260E+00;  1.6588631E+04;  0.0000000E+00;  2.8531778E-01;  4.0000000E+04;  0.0000000E+00;  3.9532703E+04;  6.6096754E+00;  0.0000000E+00; -4.6794960E-01;  7.7978677E+03;
  1.1491140E+00;  9.9999998E-03;  6.0325127E-02;8399;  7.1096307E-01;  0.0000000E+00; -3.9663304E-02;  9.9510431E+02;  1.5535648E-01; -4.0482861E+03;3; -1.6759375E+02;  0.0000000E+00; -1.1389278E+01;0;  6.1417313E+00;  1.6588627E+04;  0.0000000E+00;  2.8532061E-01;  4.0000000E+04;  0.0000000E+00;  3.9532707E+04;  6.6096807E+00;  0.0000000E+00; -4.6794954E-01;  7.7978740E+03;
  1.1490353E+00;  9.9999998E-03; -8.0504455E-02;8385;  7.0018929E-01;  0.0000000E+00;  5.2148178E-02;  9.9494006E+02;  1.5535067E-01; -4.1841323E+03;3; -1.5923157E+02;  0.0000000E+00;  1.5117105E+01;0;  5.9746537E+00;  1.6576158E+04;  0.0000000E+00;  3.5759938E-01;  4.0000000E+04;  0.0000000E+00;  3.9547004E+04;  6.4206724E+00;  0.0000000E+00; -4.4601890E-01;  6.0271558E+03;
  1.1489455E+00;  9.9999998E-03; -9.0607762E-02;8384;  6.9312209E-01;  0.0000000E+00;  5.8289669E-02;  9.9478607E+02;  1.5535732E-01; -4.3114531E+03;3; -1.5383557E+02;  0.0000000E+00;  1.6909845E+01;0;  5.8682365E+00;  1.6565287E+04;  0.0000000E+00;  3.3501261E-01;  4.0000000E+04;  0.0000000E+00;  3.9555301E+04;  6.3025465E+00;  0.0000000E+00; -4.3430972E-01;  5.0082373E+03;
  1.1488295E+00;  9.9999998E-03; -1.0067237E-01;8383;  6.8483680E-01;  0.0000000E+00;  6.4359367E-02;  9.9456366E+02;  1.5536693E-01; -4.4954102E+03;3; -1.4749933E+02;  0.0000000E+00;  1.8581621E+01;0;  5.7462769E+00;  1.6551854E+04;  0.0000000E+00;  2.5619227E-01;  4.0000000E+04;  0.0000000E+00;  3.9563141E+04;  6.1685047E+00;  0.0000000E+00; -4.2222771E-01;  3.9725264E+03;
  1.1641538E+00;  9.9999998E-03; -6.5193908E-09;8454;  8.7177783E-01;  0.0000000E+00;  6.6995227E-08;  9.9740216E+02;  1.5117860E-01; -2.1471711E+03;3; -1.6394968E+02;  0.0000000E+00;  1.7617187E-05;0;  6.3615670E+00;  1.7612693E+04;  0.0000000E+00;  1.4504361E-11;  4.0000000E+04;  0.0000000E+00;  3.9495137E+04;  6.7891116E+00;  0.0000000E+00; -4.2754474E-01;  1.3227734E+04;
  1.1641244E+00;  9.9999998E-03; -3.0159837E-02;8451;  8.6719090E-01;  0.0000000E+00;  1.6036969E-02;  9.9741998E+02;  1.5117729E-01; -2.1324434E+03;3; -1.6295949E+02;  0.0000000E+00;  6.9718099E+00;0;  6.3322563E+00;  1.7610609E+04;  0.0000000E+00;  9.4691262E-02;  4.0000000E+04;  0.0000000E+00;  3.9500848E+04;  6.7514071E+00;  0.0000000E+00; -4.1915101E-01;  1.2541452E+04;
  1.1641413E+00;  9.9999998E-03; -2.0107711E-02;8452;  8.6974597E-01;  0.0000000E+00;  1.0743146E-02;  9.9741284E+02;  1.5117827E-01; -2.1383044E+03;3; -1.6351886E+02;  0.0000000E+00;  4.6578732E+00;0;  6.3487101E+00;  1.7611840E+04;  0.0000000E+00;  4.2539116E-02;  4.0000000E+04;  0.0000000E+00;  3.9497594E+04;  6.7724109E+00;  0.0000000E+00; -4.2370066E-01;  1.2916743E+04;
  1.1641507E+00;  9.9999998E-03; -1.0054627E-02;8453;  8.7127149E-01;  0.0000000E+00;  5.3888024E-03;  9.9740692E+02;  1.5117793E-01; -2.1432302E+03;3; -1.6384280E+02;  0.0000000E+00;  2.3340514E+00;0;  6.3583746E+00;  1.7612502E+04;  0.0000000E+00;  1.0684548E-02;  4.0000000E+04;  0.0000000E+00;  3.9495832E+04;  6.7849402E+00;  0.0000000E+00; -4.2656574E-01;  1.3148993E+04;
  1.1641507E+00;  9.9999998E-03;  1.0054614E-02;8455;  8.7127113E-01;  0.0000000E+00; -5.3886739E-03;  9.9740704E+02;  1.5117799E-01; -2.1431318E+03;3; -1.6384309E+02;  0.0000000E+00; -2.3340464E+00;0;  6.3583770E+00;  1.7612496E+04;  0.0000000E+00;  1.0683930E-02;  4.0000000E+04;  0.0000000E+00;  3.9495836E+04;  6.7849431E+00;  0.0000000E+00; -4.2656592E-01;  1.3149057E+04;
  1.1641413E+00;  9.9999998E-03;  2.0107700E-02;8456;  8.6974621E-01;  0.0000000E+00; -1.0743012E-02;  9.9741284E+02;  1.5117817E-01; -2.1383044E+03;3; -1.6351906E+02;  0.0000000E+00; -4.6579084E+00;0;  6.3487129E+00;  1.7611844E+04;  0.0000000E+00;  4.2537954E-02;  4.0000000E+04;  0.0000000E+00;  3.9497594E+04;  6.7724133E+00;  0.0000000E+00; -4.2370036E-01;  1.2916785E+04;
  1.1641244E+00;  9.9999998E-03;  3.0159827E-02;8457;  8.6719096E-01;  0.0000000E+00; -1.6036835E-02;  9.9742004E+02;  1.5117724E-01; -2.1323450E+03;3; -1.6295950E+02;  0.0000000E+00; -6.9717798E+00;0;  6.3322549E+00;  1.7610611E+04;  0.0000000E+00;  9.4689436E-02;  4.0000000E+04;  0.0000000E+00;  3.9500852E+04;  6.7514062E+00;  0.0000000E+00; -4.1915131E-01;  1.2541477E+04;
  1.1640993E+00;  9.9999998E-03; -4.0212218E-02;8450;  8.6359930E-01;  0.0000000E+00;  2.1249035E-02;  9.9742474E+02;  1.5117691E-01; -2.1285042E+03;3; -1.6213931E+02;  0.0000000E+00;  9.2875357E+00;0;  6.3084617E+00;  1.7608744E+04;  0.0000000E+00;  1.6485855E-01;  4.0000000E+04;  0.0000000E+00;  3.9504957E+04;  6.7216849E+00;  0.0000000E+00; -4.1322330E-01;  1.2036070E+04;
  1.1640993E+00;  9.9999998E-03;  4.0212207E-02;8458;  8.6359948E-01;  0.0000000E+00; -2.1248903E-02;  9.9742450E+02;  1.5117656E-01; -2.1287012E+03;3; -1.6213939E+02;  0.0000000E+00; -9.2875290E+00;0;  6.3084669E+00;  1.7608746E+04;  0.0000000E+00;  1.6485614E-01;  4.0000000E+04;  0.0000000E+00;  3.9504953E+04;  6.7216897E+00;  0.0000000E+00; -4.1322255E-01;  1.2036089E+04;
  1.1640693E+00;  9.9999998E-03; -5.0265912E-02;8449;  8.5902655E-01;  0.0000000E+00;  2.6361799E-02;  9.9741913E+02;  1.5117666E-01; -2.1331372E+03;3; -1.6100009E+02;  0.0000000E+00;  1.1588152E+01;0;  6.2766256E+00;  1.7606074E+04;  0.0000000E+00;  2.4827634E-01;  4.0000000E+04;  0.0000000E+00;  3.9510203E+04;  6.6828866E+00;  0.0000000E+00; -4.0626076E-01;  1.1413137E+04;
  1.1640693E+00;  9.9999998E-03;  5.0265901E-02;8459;  8.5902715E-01;  0.0000000E+00; -2.6361665E-02;  9.9741907E+02;  1.5117624E-01; -2.1331865E+03;3; -1.6100017E+02;  0.0000000E+00; -1.1588206E+01;0;  6.2766204E+00;  1.7606074E+04;  0.0000000E+00;  2.4827345E-01;  4.0000000E+04;  0.0000000E+00;  3.9510195E+04;  6.6828809E+00;  0.0000000E+00; -4.0626061E-01;  1.1413144E+04;
  1.1640365E+00;  9.9999998E-03; -6.0324546E-02;8448;  8.5352790E-01;  0.0000000E+00;  3.1370491E-02;  9.9739856E+02;  1.5117519E-01; -2.1501360E+03;3; -1.5947504E+02;  0.0000000E+00;  1.3861375E+01;0;  6.2358599E+00;  1.7602473E+04;  0.0000000E+00;  3.3661523E-01;  4.0000000E+04;  0.0000000E+00;  3.9516297E+04;  6.6344905E+00;  0.0000000E+00; -3.9863038E-01;  1.0681816E+04;
  1.1640365E+00;  9.9999998E-03;  6.0324535E-02;8460;  8.5352832E-01;  0.0000000E+00; -3.1370360E-02;  9.9739868E+02;  1.5117548E-01; -2.1500376E+03;3; -1.5947507E+02;  0.0000000E+00; -1.3861330E+01;0;  6.2358608E+00;  1.7602479E+04;  0.0000000E+00;  3.3661306E-01;  4.0000000E+04;  0.0000000E+00;  3.9516301E+04;  6.6344910E+00;  0.0000000E+00; -3.9863029E-01;  1.0681793E+04;
  1.1639960E+00;  9.9999998E-03; -7.0392974E-02;8447;  8.4710741E-01;  0.0000000E+00;  3.6290422E-02;  9.9733887E+02;  1.5117468E-01; -2.1994526E+03;3; -1.5750877E+02;  0.0000000E+00;  1.6096819E+01;0;  6.1852775E+00;  1.7597268E+04;  0.0000000E+00;  4.1721043E-01;  4.0000000E+04;  0.0000000E+00;  3.9523047E+04;  6.5759816E+00;  0.0000000E+00; -3.9070424E-01;  9.8482119E+03;
  1.1639423E+00;  9.9999998E-03; -8.0475442E-02;8446;  8.3970273E-01;  0.0000000E+00;  4.1140776E-02;  9.9723633E+02;  1.5117604E-01; -2.2842407E+03;3; -1.5504037E+02;  0.0000000E+00;  1.8274139E+01;0;  6.1239295E+00;  1.7589924E+04;  0.0000000E+00;  4.7298864E-01;  4.0000000E+04;  0.0000000E+00;  3.9530664E+04;  6.5067124E+00;  0.0000000E+00; -3.8278303E-01;  8.9207480E+03;
  1.1638744E+00;  9.9999998E-03; -9.0574354E-02;8445;  8.3133876E-01;  0.0000000E+00;  4.5935139E-02;  9.9707086E+02;  1.5118054E-01; -2.4210044E+03;3; -1.5197563E+02;  0.0000000E+00;  2.0373196E+01;0;  6.0507836E+00;  1.7579555E+04;  0.0000000E+00;  4.8368540E-01;  4.0000000E+04;  0.0000000E+00;  3.9538738E+04;  6.4258409E+00;  0.0000000E+00; -3.7505719E-01;  7.9169312E+03;
  1.1637805E+00;  9.9999998E-03; -1.0067746E-01;8444;  8.2183254E-01;  0.0000000E+00;  5.0699316E-02;  9.9682196E+02;  1.5119050E-01; -2.6267415E+03;3; -1.4824582E+02;  0.0000000E+00;  2.2331053E+01;0;  5.9650035E+00;  1.7565266E+04;  0.0000000E+00;  4.2889971E-01;  4.0000000E+04;  0.0000000E+00;  3.9546844E+04;  6.3326821E+00;  0.0000000E+00; -3.6767873E-01;  6.8697559E+03;
  1.1783947E+00;  9.9999998E-03; -1.0066001E-01;8505;  9.4539267E-01;  0.0000000E+00;  3.6565993E-02;  9.9888550E+02;  1.4714070E-01; -9.2061884E+02;3; -1.3786061E+02;  0.0000000E+00;  2.5685415E+01;0;  5.8480849E+00;  1.8631139E+04;  0.0000000E+00;  4.2250085E-01;  4.0000000E+04;  0.0000000E+00;  3.9532016E+04;  6.1418743E+00;  0.0000000E+00; -2.9378954E-01;  9.3756982E+03;
  1.1784467E+00;  9.9999998E-03; -9.0582401E-02;8506;  9.5582235E-01;  0.0000000E+00;  3.3152673E-02;  9.9912756E+02;  1.4713857E-01; -7.2066882E+02;3; -1.3910530E+02;  0.0000000E+00;  2.3457355E+01;0;  5.8928924E+00;  1.8643027E+04;  0.0000000E+00;  4.4217604E-01;  4.0000000E+04;  0.0000000E+00;  3.9524508E+04;  6.1899071E+00;  0.0000000E+00; -2.9701450E-01;  1.0341529E+04;
  1.1784910E+00;  9.9999998E-03; -8.0511265E-02;8507;  9.6512556E-01;  0.0000000E+00;  2.9723102E-02;  9.9928467E+02;  1.4713809E-01; -5.9088135E+02;3; -1.3990843E+02;  0.0000000E+00;  2.1024050E+01;0;  5.9291677E+00;  1.8651377E+04;  0.0000000E+00;  4.0906110E-01;  4.0000000E+04;  0.0000000E+00;  3.9516918E+04;  6.2304816E+00;  0.0000000E+00; -3.0131379E-01;  1.1264391E+04;
  1.1785278E+00;  9.9999998E-03; -7.0447013E-02;8508;  9.7334105E-01;  0.0000000E+00;  2.6259091E-02;  9.9938214E+02;  1.4713952E-01; -5.1037964E+02;3; -1.4038770E+02;  0.0000000E+00;  1.8490643E+01;0;  5.9578109E+00;  1.8657006E+04;  0.0000000E+00;  3.4367341E-01;  4.0000000E+04;  0.0000000E+00;  3.9509887E+04;  6.2643471E+00;  0.0000000E+00; -3.0653635E-01;  1.2130062E+04;
  1.1785624E+00;  9.9999998E-03; -6.0386762E-02;8509;  9.8054796E-01;  0.0000000E+00;  2.2720976E-02;  9.9942444E+02;  1.4714073E-01; -4.7542142E+02;3; -1.4060934E+02;  0.0000000E+00;  1.5933451E+01;0;  5.9796557E+00;  1.8660732E+04;  0.0000000E+00;  2.6463780E-01;  4.0000000E+04;  0.0000000E+00;  3.9503215E+04;  6.2920480E+00;  0.0000000E+00; -3.1239220E-01;  1.2926951E+04;
  1.1785624E+00;  9.9999998E-03;  6.0386751E-02;8521;  9.8054802E-01;  0.0000000E+00; -2.2720819E-02;  9.9942432E+02;  1.4714107E-01; -4.7551987E+02;3; -1.4060948E+02;  0.0000000E+00; -1.5933490E+01;0;  5.9796581E+00;  1.8660729E+04;  0.0000000E+00;  2.6463410E-01;  4.0000000E+04;  0.0000000E+00;  3.9503219E+04;  6.2920499E+00;  0.0000000E+00; -3.1239182E-01;  1.2926935E+04;
  1.1785948E+00;  9.9999998E-03; -5.0328400E-02;8510;  9.8670775E-01;  0.0000000E+00;  1.9102206E-02;  9.9943768E+02;  1.4714217E-01; -4.6449042E+02;3; -1.4063336E+02;  0.0000000E+00;  1.3378651E+01;0;  5.9957094E+00;  1.8663215E+04;  0.0000000E+00;  1.8638726E-01;  4.0000000E+04;  0.0000000E+00;  3.9497406E+04;  6.3142223E+00;  0.0000000E+00; -3.1851286E-01;  1.3644194E+04;
  1.1785948E+00;  9.9999998E-03;  5.0328389E-02;8520;  9.8670810E-01;  0.0000000E+00; -1.9102050E-02;  9.9943750E+02;  1.4714220E-01; -4.6463812E+02;3; -1.4063350E+02;  0.0000000E+00; -1.3378644E+01;0;  5.9957094E+00;  1.8663219E+04;  0.0000000E+00;  1.8638337E-01;  4.0000000E+04;  0.0000000E+00;  3.9497402E+04;  6.3142214E+00;  0.0000000E+00; -3.1851217E-01;  1.3644179E+04;
  1.1786251E+00;  9.9999998E-03; -4.0269505E-02;8511;  9.9180728E-01;  0.0000000E+00;  1.5404863E-02;  9.9943347E+02;  1.4714324E-01; -4.6798553E+02;3; -1.4053490E+02;  0.0000000E+00;  1.0788439E+01;0;  6.0069685E+00;  1.8664990E+04;  0.0000000E+00;  1.1831160E-01;  4.0000000E+04;  0.0000000E+00;  3.9492262E+04;  6.3314142E+00;  0.0000000E+00; -3.2444549E-01;  1.4269247E+04;
  1.1786251E+00;  9.9999998E-03;  4.0269498E-02;8519;  9.9180740E-01;  0.0000000E+00; -1.5404718E-02;  9.9943353E+02;  1.4714311E-01; -4.6793628E+02;3; -1.4053488E+02;  0.0000000E+00; -1.0788501E+01;0;  6.0069728E+00;  1.8664992E+04;  0.0000000E+00;  1.1830825E-01;  4.0000000E+04;  0.0000000E+00;  3.9492258E+04;  6.3314176E+00;  0.0000000E+00; -3.2444495E-01;  1.4269245E+04;
  1.1786513E+00;  9.9999998E-03; -3.0207353E-02;8512;  9.9581838E-01;  0.0000000E+00;  1.1634264E-02;  9.9941516E+02;  1.4714308E-01; -4.8310031E+02;3; -1.4038770E+02;  0.0000000E+00;  8.1363602E+00;0;  6.0144749E+00;  1.8666223E+04;  0.0000000E+00;  6.5182269E-02;  4.0000000E+04;  0.0000000E+00;  3.9487895E+04;  6.3441868E+00;  0.0000000E+00; -3.2971200E-01;  1.4786032E+04;
  1.1786513E+00;  9.9999998E-03;  3.0207342E-02;8518;  9.9581838E-01;  0.0000000E+00; -1.1634124E-02;  9.9941516E+02;  1.4714330E-01; -4.8310031E+02;3; -1.4038782E+02;  0.0000000E+00; -8.1364202E+00;0;  6.0144787E+00;  1.8666221E+04;  0.0000000E+00;  6.5181844E-02;  4.0000000E+04;  0.0000000E+00;  3.9487895E+04;  6.3441911E+00;  0.0000000E+00; -3.2971230E-01;  1.4786044E+04;
  1.1786709E+00;  9.9999998E-03; -2.0141359E-02;8513;  9.9869382E-01;  0.0000000E+00;  7.7981008E-03;  9.9939978E+02;  1.4714244E-01; -4.9580270E+02;3; -1.4025125E+02;  0.0000000E+00;  5.4385571E+00;0;  6.0191479E+00;  1.8667059E+04;  0.0000000E+00;  2.8287649E-02;  4.0000000E+04;  0.0000000E+00;  3.9484797E+04;  6.3530102E+00;  0.0000000E+00; -3.3386225E-01;  1.5175828E+04;
  1.1786819E+00;  9.9999998E-03; -1.0071903E-02;8514;  1.0004213E+00;  0.0000000E+00;  3.9125215E-03;  9.9938544E+02;  1.4714244E-01; -5.0766824E+02;3; -1.4016214E+02;  0.0000000E+00;  2.7192953E+00;0;  6.0216913E+00;  1.8667502E+04;  0.0000000E+00;  6.9433595E-03;  4.0000000E+04;  0.0000000E+00;  3.9482746E+04;  6.3582168E+00;  0.0000000E+00; -3.3652532E-01;  1.5419567E+04;
  1.1786852E+00;  9.9999998E-03; -6.5686105E-09;8515;  1.0009965E+00;  0.0000000E+00;  6.2006158E-08;  9.9937976E+02;  1.4714307E-01; -5.1234552E+02;3; -1.4013353E+02;  0.0000000E+00; -4.2625208E-05;0;  6.0225015E+00;  1.8667617E+04;  0.0000000E+00;  6.7944999E-12;  4.0000000E+04;  0.0000000E+00;  3.9482027E+04;  6.3599448E+00;  0.0000000E+00; -3.3744335E-01;  1.5502638E+04;
  1.1786819E+00;  9.9999998E-03;  1.0071889E-02;8516;  1.0004212E+00;  0.0000000E+00; -3.9123981E-03;  9.9938538E+02;  1.4714248E-01; -5.0771747E+02;3; -1.4016212E+02;  0.0000000E+00; -2.7193432E+00;0;  6.0216885E+00;  1.8667504E+04;  0.0000000E+00;  6.9433362E-03;  4.0000000E+04;  0.0000000E+00;  3.9482750E+04;  6.3582134E+00;  0.0000000E+00; -3.3652493E-01;  1.5419564E+04;
  1.1786709E+00;  9.9999998E-03;  2.0141348E-02;8517;  9.9869347E-01;  0.0000000E+00; -7.7979723E-03;  9.9939996E+02;  1.4714251E-01; -4.9565497E+02;3; -1.4025124E+02;  0.0000000E+00; -5.4386191E+00;0;  6.0191460E+00;  1.8667059E+04;  0.0000000E+00;  2.8287580E-02;  4.0000000E+04;  0.0000000E+00;  3.9484797E+04;  6.3530083E+00;  0.0000000E+00; -3.3386216E-01;  1.5175844E+04;
  1.1928003E+00;  9.9999998E-03; -4.0336054E-02;8572;  1.0971513E+00;  0.0000000E+00;  9.0164971E-03;  1.0010297E+03;  1.4329229E-01;  8.5000470E+02;3; -1.1205302E+02;  0.0000000E+00;  1.4422497E+01;0;  5.4382405E+00;  1.9748324E+04;  0.0000000E+00;  3.7032094E-02;  4.0000000E+04;  0.0000000E+00;  3.9484285E+04;  5.6674223E+00;  0.0000000E+00; -2.2918177E-01;  1.5710562E+04;
  1.1928205E+00;  9.9999998E-03; -3.0258304E-02;8573;  1.1010706E+00;  0.0000000E+00;  6.8531153E-03;  1.0010115E+03;  1.4329433E-01;  8.3494812E+02;3; -1.1114544E+02;  0.0000000E+00;  1.0662619E+01;0;  5.4304271E+00;  1.9748660E+04;  0.0000000E+00;  1.7025407E-02;  4.0000000E+04;  0.0000000E+00;  3.9480270E+04;  5.6647677E+00;  0.0000000E+00; -2.3434070E-01;  1.6195443E+04;
  1.1928205E+00;  9.9999998E-03;  3.0258290E-02;8579;  1.1010709E+00;  0.0000000E+00; -6.8530138E-03;  1.0010115E+03;  1.4329429E-01;  8.3494812E+02;3; -1.1114539E+02;  0.0000000E+00; -1.0662620E+01;0;  5.4304328E+00;  1.9748664E+04;  0.0000000E+00;  1.7024610E-02;  4.0000000E+04;  0.0000000E+00;  3.9480273E+04;  5.6647730E+00;  0.0000000E+00; -2.3434037E-01;  1.6195456E+04;
  1.1928003E+00;  9.9999998E-03;  4.0336043E-02;8580;  1.0971512E+00;  0.0000000E+00; -9.0163890E-03;  1.0010297E+03;  1.4329229E-01;  8.5000470E+02;3; -1.1205302E+02;  0.0000000E+00; -1.4422427E+01;0;  5.4382415E+00;  1.9748320E+04;  0.0000000E+00;  3.7031136E-02;  4.0000000E+04;  0.0000000E+00;  3.9484289E+04;  5.6674223E+00;  0.0000000E+00; -2.2918104E-01;  1.5710595E+04;
  1.1927680E+00;  9.9999998E-03; -6.0468100E-02;8570;  1.0860772E+00;  0.0000000E+00;  1.3257274E-02;  1.0010390E+03;  1.4328392E-01;  8.5768164E+02;3; -1.1434197E+02;  0.0000000E+00;  2.1215012E+01;0;  5.4533834E+00;  1.9747693E+04;  0.0000000E+00;  1.1022130E-01;  4.0000000E+04;  0.0000000E+00;  3.9494375E+04;  5.6715193E+00;  0.0000000E+00; -2.1813571E-01;  1.4483858E+04;
  1.1927813E+00;  9.9999998E-03; -5.0406821E-02;8571;  1.0921457E+00;  0.0000000E+00;  1.1134778E-02;  1.0010390E+03;  1.4328907E-01;  8.5768109E+02;3; -1.1314867E+02;  0.0000000E+00;  1.8056852E+01;0;  5.4462948E+00;  1.9748059E+04;  0.0000000E+00;  6.8193853E-02;  4.0000000E+04;  0.0000000E+00;  3.9489020E+04;  5.6698723E+00;  0.0000000E+00; -2.2357751E-01;  1.5133990E+04;
  1.1928370E+00;  9.9999998E-03; -2.0176085E-02;8574;  1.1038806E+00;  0.0000000E+00;  4.6147779E-03;  1.0009951E+03;  1.4329450E-01;  8.2146619E+02;3; -1.1046780E+02;  0.0000000E+00;  7.0032239E+00;0;  5.4240336E+00;  1.9748945E+04;  0.0000000E+00;  6.1134431E-03;  4.0000000E+04;  0.0000000E+00;  3.9477148E+04;  5.6625314E+00;  0.0000000E+00; -2.3849761E-01;  1.6566516E+04;
  1.1928467E+00;  9.9999998E-03; -1.0089868E-02;8575;  1.1055603E+00;  0.0000000E+00;  2.3214489E-03;  1.0009827E+03;  1.4329565E-01;  8.1123193E+02;3; -1.1005213E+02;  0.0000000E+00;  3.4671936E+00;0;  5.4199028E+00;  1.9749018E+04;  0.0000000E+00;  1.2838284E-03;  4.0000000E+04;  0.0000000E+00;  3.9475234E+04;  5.6610999E+00;  0.0000000E+00; -2.4119703E-01;  1.6800939E+04;
  1.1928499E+00;  9.9999998E-03; -6.8668720E-09;8576;  1.1061186E+00;  0.0000000E+00;  4.6258336E-08;  1.0009777E+03;  1.4329553E-01;  8.0700043E+02;3; -1.0991182E+02;  0.0000000E+00; -2.1064307E-05;0;  5.4184823E+00;  1.9749072E+04;  0.0000000E+00;  2.9344058E-12;  4.0000000E+04;  0.0000000E+00;  3.9474426E+04;  5.6606145E+00;  0.0000000E+00; -2.4213229E-01;  1.6881250E+04;
  1.1928467E+00;  9.9999998E-03;  1.0089854E-02;8577;  1.1055607E+00;  0.0000000E+00; -2.3213390E-03;  1.0009828E+03;  1.4329545E-01;  8.1133032E+02;3; -1.1005191E+02;  0.0000000E+00; -3.4672415E+00;0;  5.4198971E+00;  1.9749023E+04;  0.0000000E+00;  1.2841842E-03;  4.0000000E+04;  0.0000000E+00;  3.9475234E+04;  5.6610942E+00;  0.0000000E+00; -2.4119693E-01;  1.6800936E+04;
  1.1928370E+00;  9.9999998E-03;  2.0176072E-02;8578;  1.1038806E+00;  0.0000000E+00; -4.6146754E-03;  1.0009950E+03;  1.4329506E-01;  8.2136780E+02;3; -1.1046789E+02;  0.0000000E+00; -7.0032859E+00;0;  5.4240313E+00;  1.9748953E+04;  0.0000000E+00;  6.1137541E-03;  4.0000000E+04;  0.0000000E+00;  3.9477148E+04;  5.6625285E+00;  0.0000000E+00; -2.3849748E-01;  1.6566551E+04;
  1.1927814E+00;  9.9999998E-03;  5.0406810E-02;8581;  1.0921457E+00;  0.0000000E+00; -1.1134678E-02;  1.0010392E+03;  1.4328928E-01;  8.5777948E+02;3; -1.1314880E+02;  0.0000000E+00; -1.8056698E+01;0;  5.4462972E+00;  1.9748059E+04;  0.0000000E+00;  6.8188533E-02;  4.0000000E+04;  0.0000000E+00;  3.9489012E+04;  5.6698742E+00;  0.0000000E+00; -2.2357710E-01;  1.5134005E+04;
  1.1927680E+00;  9.9999998E-03;  6.0468085E-02;8582;  1.0860773E+00;  0.0000000E+00; -1.3257176E-02;  1.0010391E+03;  1.4328405E-01;  8.5778003E+02;3; -1.1434203E+02;  0.0000000E+00; -2.1214981E+01;0;  5.4533815E+00;  1.9747699E+04;  0.0000000E+00;  1.1021493E-01;  4.0000000E+04;  0.0000000E+00;  3.9494371E+04;  5.6715164E+00;  0.0000000E+00; -2.1813512E-01;  1.4483845E+04;
  1.1927595E+00;  9.9999998E-03; -7.0521131E-02;8569;  1.0789406E+00;  0.0000000E+00;  1.5382608E-02;  1.0010045E+03;  1.4327699E-01;  8.2914514E+02;3; -1.1556792E+02;  0.0000000E+00;  2.3911018E+01;0;  5.4585180E+00;  1.9746752E+04;  0.0000000E+00;  1.5936723E-01;  4.0000000E+04;  0.0000000E+00;  3.9500348E+04;  5.6719661E+00;  0.0000000E+00; -2.1344814E-01;  1.3774066E+04;
  1.1927575E+00;  9.9999998E-03; -8.0568813E-02;8568;  1.0707669E+00;  0.0000000E+00;  1.7501948E-02;  1.0009326E+03;  1.4326805E-01;  7.6980811E+02;3; -1.1678399E+02;  0.0000000E+00;  2.6477396E+01;0;  5.4606624E+00;  1.9744531E+04;  0.0000000E+00;  2.0773445E-01;  4.0000000E+04;  0.0000000E+00;  3.9506465E+04;  5.6706467E+00;  0.0000000E+00; -2.0998435E-01;  1.3015573E+04;
  1.1927698E+00;  9.9999998E-03; -9.0612508E-02;8567;  1.0616472E+00;  0.0000000E+00;  1.9621123E-02;  1.0007969E+03;  1.4325728E-01;  6.5782477E+02;3; -1.1782429E+02;  0.0000000E+00;  2.8864202E+01;0;  5.4586492E+00;  1.9740801E+04;  0.0000000E+00;  2.4346405E-01;  4.0000000E+04;  0.0000000E+00;  3.9512914E+04;  5.6666946E+00;  0.0000000E+00; -2.0804533E-01;  1.2217478E+04;
  1.1927963E+00;  9.9999998E-03; -1.0065845E-01;8566;  1.0514978E+00;  0.0000000E+00;  2.1756101E-02;  1.0005843E+03;  1.4324601E-01;  4.8227298E+02;3; -1.1866293E+02;  0.0000000E+00;  3.1141487E+01;0;  5.4518185E+00;  1.9734627E+04;  0.0000000E+00;  2.5226077E-01;  4.0000000E+04;  0.0000000E+00;  3.9519594E+04;  5.6596861E+00;  0.0000000E+00; -2.0786770E-01;  1.1383896E+04;
  1.2066907E+00;  9.9999998E-03; -2.0185523E-02;8635;  1.1830273E+00;  0.0000000E+00;  2.0820857E-03;  1.0021293E+03;  1.3965669E-01;  1.7561987E+03;3; -7.8072067E+01;  0.0000000E+00;  2.9060843E+00;0;  4.6675649E+00;  2.0842307E+04;  0.0000000E+00; -1.4512060E-02;  4.0000000E+04;  0.0000000E+00;  3.9474438E+04;  4.8127742E+00;  0.0000000E+00; -1.4520936E-01;  1.7116627E+04;
  1.2066969E+00;  9.9999998E-03; -1.0094441E-02;8636;  1.1844343E+00;  0.0000000E+00;  1.0579339E-03;  1.0021194E+03;  1.3965797E-01;  1.7480375E+03;3; -7.7455193E+01;  0.0000000E+00;  1.4511368E+00;0;  4.6579714E+00;  2.0842129E+04;  0.0000000E+00; -3.8776293E-03;  4.0000000E+04;  0.0000000E+00;  3.9472633E+04;  4.8060851E+00;  0.0000000E+00; -1.4811361E-01;  1.7324773E+04;
  1.2066989E+00;  9.9999998E-03; -6.9197532E-09;8637;  1.1849006E+00;  0.0000000E+00;  6.8834282E-08;  1.0021144E+03;  1.3965861E-01;  1.7439076E+03;3; -7.7251457E+01;  0.0000000E+00;  6.1596220E-05;0;  4.6547279E+00;  2.0842025E+04;  0.0000000E+00; -1.2270730E-12;  4.0000000E+04;  0.0000000E+00;  3.9472004E+04;  4.8038497E+00;  0.0000000E+00; -1.4912175E-01;  1.7396592E+04;
  1.2066969E+00;  9.9999998E-03;  1.0094428E-02;8638;  1.1844345E+00;  0.0000000E+00; -1.0577899E-03;  1.0021195E+03;  1.3965775E-01;  1.7481359E+03;3; -7.7455124E+01;  0.0000000E+00; -1.4509653E+00;0;  4.6579671E+00;  2.0842127E+04;  0.0000000E+00; -3.8769965E-03;  4.0000000E+04;  0.0000000E+00;  3.9472629E+04;  4.8060803E+00;  0.0000000E+00; -1.4811341E-01;  1.7324809E+04;
  1.2066907E+00;  9.9999998E-03;  2.0185510E-02;8639;  1.1830274E+00;  0.0000000E+00; -2.0819476E-03;  1.0021290E+03;  1.3965669E-01;  1.7560021E+03;3; -7.8072060E+01;  0.0000000E+00; -2.9059207E+00;0;  4.6675611E+00;  2.0842309E+04;  0.0000000E+00; -1.4511354E-02;  4.0000000E+04;  0.0000000E+00;  3.9474438E+04;  4.8127699E+00;  0.0000000E+00; -1.4520906E-01;  1.7116652E+04;
  1.2066821E+00;  9.9999998E-03; -3.0272115E-02;8634;  1.1806703E+00;  0.0000000E+00;  2.9956056E-03;  1.0021428E+03;  1.3965376E-01;  1.7673099E+03;3; -7.9087799E+01;  0.0000000E+00;  5.3481359E+00;0;  4.6829562E+00;  2.0842773E+04;  0.0000000E+00; -2.9172109E-02;  4.0000000E+04;  0.0000000E+00;  3.9477234E+04;  4.8236990E+00;  0.0000000E+00; -1.4074279E-01;  1.6791412E+04;
  1.2066821E+00;  9.9999998E-03;  3.0272102E-02;8640;  1.1806701E+00;  0.0000000E+00; -2.9954202E-03;  1.0021432E+03;  1.3965355E-01;  1.7676049E+03;3; -7.9087776E+01;  0.0000000E+00; -5.3480606E+00;0;  4.6829548E+00;  2.0842771E+04;  0.0000000E+00; -2.9172219E-02;  4.0000000E+04;  0.0000000E+00;  3.9477238E+04;  4.8236971E+00;  0.0000000E+00; -1.4074232E-01;  1.6791441E+04;
  1.2066749E+00;  9.9999998E-03; -4.0354509E-02;8633;  1.1773566E+00;  0.0000000E+00;  3.5751613E-03;  1.0021580E+03;  1.3964950E-01;  1.7798958E+03;3; -8.0479103E+01;  0.0000000E+00;  1.0043921E+01;0;  4.7032347E+00;  2.0843613E+04;  0.0000000E+00; -4.4077415E-02;  4.0000000E+04;  0.0000000E+00;  3.9480727E+04;  4.8384719E+00;  0.0000000E+00; -1.3523729E-01;  1.6374157E+04;
  1.2066749E+00;  9.9999998E-03;  4.0354498E-02;8641;  1.1773568E+00;  0.0000000E+00; -3.5749660E-03;  1.0021581E+03;  1.3964894E-01;  1.7798958E+03;3; -8.0479149E+01;  0.0000000E+00; -1.0043920E+01;0;  4.7032371E+00;  2.0843619E+04;  0.0000000E+00; -4.4077996E-02;  4.0000000E+04;  0.0000000E+00;  3.9480730E+04;  4.8384738E+00;  0.0000000E+00; -1.3523686E-01;  1.6374147E+04;
  1.2066720E+00;  9.9999998E-03; -5.0432138E-02;8632;  1.1730651E+00;  0.0000000E+00;  3.5380418E-03;  1.0021708E+03;  1.3964255E-01;  1.7904164E+03;3; -8.2218468E+01;  0.0000000E+00;  1.7359612E+01;0;  4.7273273E+00;  2.0845035E+04;  0.0000000E+00; -5.5248369E-02;  4.0000000E+04;  0.0000000E+00;  3.9484852E+04;  4.8567014E+00;  0.0000000E+00; -1.2937386E-01;  1.5888744E+04;
  1.2066720E+00;  9.9999998E-03;  5.0432127E-02;8642;  1.1730647E+00;  0.0000000E+00; -3.5378281E-03;  1.0021708E+03;  1.3964255E-01;  1.7904164E+03;3; -8.2218544E+01;  0.0000000E+00; -1.7359636E+01;0;  4.7273302E+00;  2.0845035E+04;  0.0000000E+00; -5.5250678E-02;  4.0000000E+04;  0.0000000E+00;  3.9484855E+04;  4.8567038E+00;  0.0000000E+00; -1.2937349E-01;  1.5888782E+04;
  1.2066735E+00;  9.9999998E-03; -6.0503032E-02;8631;  1.1677505E+00;  0.0000000E+00;  3.0667323E-03;  1.0021759E+03;  1.3963385E-01;  1.7946440E+03;3; -8.4262360E+01;  0.0000000E+00;  2.6353817E+01;0;  4.7542129E+00;  2.0846564E+04;  0.0000000E+00; -5.9338395E-02;  4.0000000E+04;  0.0000000E+00;  3.9489316E+04;  4.8781366E+00;  0.0000000E+00; -1.2392357E-01;  1.5353449E+04;
  1.2066735E+00;  9.9999998E-03;  6.0503021E-02;8643;  1.1677504E+00;  0.0000000E+00; -3.0665388E-03;  1.0021760E+03;  1.3963355E-01;  1.7946440E+03;3; -8.4262428E+01;  0.0000000E+00; -2.6353868E+01;0;  4.7542157E+00;  2.0846568E+04;  0.0000000E+00; -5.9347242E-02;  4.0000000E+04;  0.0000000E+00;  3.9489312E+04;  4.8781390E+00;  0.0000000E+00; -1.2392323E-01;  1.5353458E+04;
  1.2066807E+00;  9.9999998E-03; -7.0560895E-02;8630;  1.1613775E+00;  0.0000000E+00;  3.0525802E-03;  1.0021531E+03;  1.3962242E-01;  1.7757656E+03;3; -8.6576355E+01;  0.0000000E+00;  3.3692955E+01;0;  4.7827544E+00;  2.0848020E+04;  0.0000000E+00; -5.4461136E-02;  4.0000000E+04;  0.0000000E+00;  3.9494074E+04;  4.9023781E+00;  0.0000000E+00; -1.1962370E-01;  1.4778369E+04;
  1.2067055E+00;  9.9999998E-03; -8.0603056E-02;8629;  1.1539720E+00;  0.0000000E+00;  3.9051396E-03;  1.0020969E+03;  1.3960816E-01;  1.7294537E+03;3; -8.9055298E+01;  0.0000000E+00;  3.7017677E+01;0;  4.8113704E+00;  2.0849287E+04;  0.0000000E+00; -4.0964343E-02;  4.0000000E+04;  0.0000000E+00;  3.9499031E+04;  4.9283895E+00;  0.0000000E+00; -1.1701930E-01;  1.4167749E+04;
  1.2067530E+00;  9.9999998E-03; -9.0635106E-02;8628;  1.1455553E+00;  0.0000000E+00;  5.1183896E-03;  1.0019880E+03;  1.3958958E-01;  1.6395840E+03;3; -9.1608253E+01;  0.0000000E+00;  3.7229630E+01;0;  4.8390589E+00;  2.0849695E+04;  0.0000000E+00; -2.1556014E-02;  4.0000000E+04;  0.0000000E+00;  3.9504363E+04;  4.9555931E+00;  0.0000000E+00; -1.1653416E-01;  1.3521463E+04;
  1.2068290E+00;  9.9999998E-03; -1.0066906E-01;8627;  1.1361924E+00;  0.0000000E+00;  6.3523422E-03;  1.0018195E+03;  1.3956685E-01;  1.5006500E+03;3; -9.4134789E+01;  0.0000000E+00;  3.7593407E+01;0;  4.8650007E+00;  2.0848918E+04;  0.0000000E+00; -1.3538427E-03;  4.0000000E+04;  0.0000000E+00;  3.9509883E+04;  4.9834509E+00;  0.0000000E+00; -1.1845000E-01;  1.2832975E+04;
  1.2202606E+00;  9.9999998E-03; -7.1896533E-09;8698;  1.2387487E+00;  0.0000000E+00;  4.7596924E-08;  1.0028053E+03;  1.3624775E-01;  2.3114502E+03;3; -4.4605267E+01;  0.0000000E+00;  9.2650997E-05;0;  3.8317053E+00;  2.1932355E+04;  0.0000000E+00; -1.2383155E-12;  4.0000000E+04;  0.0000000E+00;  3.9473621E+04;  3.8954339E+00;  0.0000000E+00; -6.3728556E-02;  1.7182875E+04;
  1.2202604E+00;  9.9999998E-03; -2.0173866E-02;8696;  1.2374147E+00;  0.0000000E+00;  1.3673083E-03;  1.0028138E+03;  1.3624458E-01;  2.3184241E+03;3; -4.5564972E+01;  0.0000000E+00;  3.2744124E+00;0;  3.8494811E+00;  2.1933213E+04;  0.0000000E+00; -2.5982521E-02;  4.0000000E+04;  0.0000000E+00;  3.9475680E+04;  3.9089403E+00;  0.0000000E+00; -5.9459168E-02;  1.6955049E+04;
  1.2202609E+00;  9.9999998E-03; -1.0088258E-02;8697;  1.2384188E+00;  0.0000000E+00;  7.2633976E-04;  1.0028082E+03;  1.3624679E-01;  2.3138074E+03;3; -4.4844322E+01;  0.0000000E+00;  1.3571825E+00;0;  3.8361568E+00;  2.1932600E+04;  0.0000000E+00; -6.6330736E-03;  4.0000000E+04;  0.0000000E+00;  3.9474137E+04;  3.8987849E+00;  0.0000000E+00; -6.2628061E-02;  1.7123977E+04;
  1.2202609E+00;  9.9999998E-03;  1.0088244E-02;8699;  1.2384189E+00;  0.0000000E+00; -7.2625367E-04;  1.0028082E+03;  1.3624679E-01;  2.3138074E+03;3; -4.4844257E+01;  0.0000000E+00; -1.3570611E+00;0;  3.8361571E+00;  2.1932602E+04;  0.0000000E+00; -6.6325073E-03;  4.0000000E+04;  0.0000000E+00;  3.9474137E+04;  3.8987851E+00;  0.0000000E+00; -6.2628016E-02;  1.7123979E+04;
  1.2202604E+00;  9.9999998E-03;  2.0173853E-02;8700;  1.2374147E+00;  0.0000000E+00; -1.3671962E-03;  1.0028140E+03;  1.3624462E-01;  2.3185222E+03;3; -4.5564987E+01;  0.0000000E+00; -3.2743456E+00;0;  3.8494833E+00;  2.1933219E+04;  0.0000000E+00; -2.5981860E-02;  4.0000000E+04;  0.0000000E+00;  3.9475676E+04;  3.9089422E+00;  0.0000000E+00; -5.9458904E-02;  1.6955064E+04;
  1.2202591E+00;  9.9999998E-03; -3.0255618E-02;8695;  1.2357206E+00;  0.0000000E+00;  1.7561812E-03;  1.0028259E+03;  1.3624023E-01;  2.3283447E+03;3; -4.6766460E+01;  0.0000000E+00;  6.3539128E+00;0;  3.8712823E+00;  2.1934246E+04;  0.0000000E+00; -5.6416601E-02;  4.0000000E+04;  0.0000000E+00;  3.9477707E+04;  3.9258721E+00;  0.0000000E+00; -5.4589752E-02;  1.6696111E+04;
  1.2202591E+00;  9.9999998E-03;  3.0255605E-02;8701;  1.2357210E+00;  0.0000000E+00; -1.7560204E-03;  1.0028259E+03;  1.3624023E-01;  2.3283447E+03;3; -4.6766434E+01;  0.0000000E+00; -6.3539767E+00;0;  3.8712814E+00;  2.1934238E+04;  0.0000000E+00; -5.6416333E-02;  4.0000000E+04;  0.0000000E+00;  3.9477703E+04;  3.9258707E+00;  0.0000000E+00; -5.4589339E-02;  1.6696129E+04;
  1.2202611E+00;  9.9999998E-03; -4.0332962E-02;8694;  1.2333047E+00;  0.0000000E+00;  1.6100128E-03;  1.0028374E+03;  1.3623343E-01;  2.3378716E+03;3; -4.8436058E+01;  0.0000000E+00;  1.0569931E+01;0;  3.9006875E+00;  2.1935953E+04;  0.0000000E+00; -9.5257938E-02;  4.0000000E+04;  0.0000000E+00;  3.9480570E+04;  3.9492719E+00;  0.0000000E+00; -4.8584566E-02;  1.6372146E+04;
  1.2202611E+00;  9.9999998E-03;  4.0332951E-02;8702;  1.2333045E+00;  0.0000000E+00; -1.6098029E-03;  1.0028373E+03;  1.3623367E-01;  2.3377734E+03;3; -4.8436062E+01;  0.0000000E+00; -1.0570028E+01;0;  3.9006836E+00;  2.1935957E+04;  0.0000000E+00; -9.5258184E-02;  4.0000000E+04;  0.0000000E+00;  3.9480574E+04;  3.9492679E+00;  0.0000000E+00; -4.8584219E-02;  1.6372168E+04;
  1.2202691E+00;  9.9999998E-03; -5.0405670E-02;8693;  1.2301238E+00;  0.0000000E+00;  6.0398725E-04;  1.0028480E+03;  1.3622484E-01;  2.3466118E+03;3; -5.0561516E+01;  0.0000000E+00;  1.5016964E+01;0;  3.9367149E+00;  2.1938561E+04;  0.0000000E+00; -1.3883922E-01;  4.0000000E+04;  0.0000000E+00;  3.9483570E+04;  3.9789102E+00;  0.0000000E+00; -4.2195406E-02;  1.6006176E+04;
  1.2202691E+00;  9.9999998E-03;  5.0405659E-02;8703;  1.2301236E+00;  0.0000000E+00; -6.0376117E-04;  1.0028480E+03;  1.3622461E-01;  2.3465137E+03;3; -5.0561497E+01;  0.0000000E+00; -1.5016936E+01;0;  3.9367135E+00;  2.1938557E+04;  0.0000000E+00; -1.3883993E-01;  4.0000000E+04;  0.0000000E+00;  3.9483570E+04;  3.9789083E+00;  0.0000000E+00; -4.2194854E-02;  1.6006201E+04;
  1.2202817E+00;  9.9999998E-03; -6.0473233E-02;8692;  1.2260971E+00;  0.0000000E+00; -1.3736393E-03;  1.0028550E+03;  1.3621339E-01;  2.3524045E+03;3; -5.3130291E+01;  0.0000000E+00;  1.8329384E+01;0;  3.9784896E+00;  2.1941635E+04;  0.0000000E+00; -1.8254556E-01;  4.0000000E+04;  0.0000000E+00;  3.9486977E+04;  4.0147777E+00;  0.0000000E+00; -3.6288131E-02;  1.5613602E+04;
  1.2202817E+00;  9.9999998E-03;  6.0473222E-02;8704;  1.2260967E+00;  0.0000000E+00;  1.3737390E-03;  1.0028548E+03;  1.3621332E-01;  2.3522080E+03;3; -5.3130318E+01;  0.0000000E+00; -1.8329357E+01;0;  3.9784920E+00;  2.1941637E+04;  0.0000000E+00; -1.8255386E-01;  4.0000000E+04;  0.0000000E+00;  3.9486977E+04;  4.0147796E+00;  0.0000000E+00; -3.6287647E-02;  1.5613596E+04;
  1.2202975E+00;  9.9999998E-03; -7.0534550E-02;8691;  1.2211304E+00;  0.0000000E+00; -4.1145626E-03;  1.0028414E+03;  1.3619968E-01;  2.3412041E+03;3; -5.6120598E+01;  0.0000000E+00;  2.1176414E+01;0;  4.0251503E+00;  2.1944971E+04;  0.0000000E+00; -2.2089580E-01;  4.0000000E+04;  0.0000000E+00;  3.9490645E+04;  4.0568743E+00;  0.0000000E+00; -3.1723738E-02;  1.5199483E+04;
  1.2203162E+00;  9.9999998E-03; -8.0587707E-02;8690;  1.2151304E+00;  0.0000000E+00; -7.0864470E-03;  1.0028060E+03;  1.3618433E-01;  2.3120291E+03;3; -5.9505280E+01;  0.0000000E+00;  2.5844740E+01;0;  4.0757651E+00;  2.1947891E+04;  0.0000000E+00; -2.4778236E-01;  4.0000000E+04;  0.0000000E+00;  3.9494262E+04;  4.1050215E+00;  0.0000000E+00; -2.9256554E-02;  1.4758360E+04;
  1.2203515E+00;  9.9999998E-03; -9.0629861E-02;8689;  1.2080661E+00;  0.0000000E+00; -9.0742568E-03;  1.0027255E+03;  1.3616659E-01;  2.2456250E+03;3; -6.3235394E+01;  0.0000000E+00;  3.3317902E+01;0;  4.1287985E+00;  2.1950068E+04;  0.0000000E+00; -2.5735900E-01;  4.0000000E+04;  0.0000000E+00;  3.9498180E+04;  4.1582112E+00;  0.0000000E+00; -2.9412959E-02;  1.4273883E+04;
  1.2204152E+00;  9.9999998E-03; -1.0066519E-01;8688;  1.1999320E+00;  0.0000000E+00; -9.2393542E-03;  1.0026018E+03;  1.3614367E-01;  2.1437588E+03;3; -6.7183731E+01;  0.0000000E+00;  3.8942364E+01;0;  4.1829910E+00;  2.1951607E+04;  0.0000000E+00; -2.4530326E-01;  4.0000000E+04;  0.0000000E+00;  3.9502770E+04;  4.2155652E+00;  0.0000000E+00; -3.2574095E-02;  1.3721898E+04;
  1.2335300E+00;  9.9999998E-03; -7.2582051E-09;8759;  1.2711487E+00;  0.0000000E+00;  5.8714587E-08;  1.0031234E+03;  1.3308045E-01;  2.5704258E+03;3; -1.4446752E+01;  0.0000000E+00; -4.4597600E-05;0;  3.0335572E+00;  2.3006410E+04;  0.0000000E+00; -1.7085168E-12;  4.0000000E+04;  0.0000000E+00;  3.9477566E+04;  3.0227060E+00;  0.0000000E+00;  1.0851230E-02;  1.6438404E+04;
  1.2335329E+00;  9.9999998E-03; -2.0158373E-02;8757;  1.2703793E+00;  0.0000000E+00;  1.3866143E-04;  1.0031236E+03;  1.3307647E-01;  2.5706213E+03;3; -1.5427996E+01;  0.0000000E+00;  5.8930378E+00;0;  3.0543230E+00;  2.3007307E+04;  0.0000000E+00; -2.5081150E-02;  4.0000000E+04;  0.0000000E+00;  3.9479109E+04;  3.0389354E+00;  0.0000000E+00;  1.5387474E-02;  1.6272839E+04;
  1.2335310E+00;  9.9999998E-03; -1.0080442E-02;8758;  1.2709575E+00;  0.0000000E+00;  1.4874524E-04;  1.0031232E+03;  1.3307966E-01;  2.5702295E+03;3; -1.4690546E+01;  0.0000000E+00;  2.8859141E+00;0;  3.0387647E+00;  2.3006582E+04;  0.0000000E+00; -6.2124250E-03;  4.0000000E+04;  0.0000000E+00;  3.9478027E+04;  3.0267475E+00;  0.0000000E+00;  1.2017328E-02;  1.6395145E+04;
  1.2335310E+00;  9.9999998E-03;  1.0080427E-02;8760;  1.2709575E+00;  0.0000000E+00; -1.4867629E-04;  1.0031231E+03;  1.3307987E-01;  2.5702295E+03;3; -1.4690643E+01;  0.0000000E+00; -2.8859344E+00;0;  3.0387626E+00;  2.3006580E+04;  0.0000000E+00; -6.2121595E-03;  4.0000000E+04;  0.0000000E+00;  3.9478027E+04;  3.0267451E+00;  0.0000000E+00;  1.2017405E-02;  1.6395133E+04;
  1.2335329E+00;  9.9999998E-03;  2.0158360E-02;8761;  1.2703793E+00;  0.0000000E+00; -1.3858180E-04;  1.0031237E+03;  1.3307646E-01;  2.5706213E+03;3; -1.5427942E+01;  0.0000000E+00; -5.8930564E+00;0;  3.0543251E+00;  2.3007305E+04;  0.0000000E+00; -2.5080739E-02;  4.0000000E+04;  0.0000000E+00;  3.9479109E+04;  3.0389373E+00;  0.0000000E+00;  1.5387663E-02;  1.6272865E+04;
  1.2335364E+00;  9.9999998E-03; -3.0232543E-02;8756;  1.2693900E+00;  0.0000000E+00; -1.9124190E-04;  1.0031280E+03;  1.3307180E-01;  2.5741523E+03;3; -1.6668346E+01;  0.0000000E+00;  8.7496500E+00;0;  3.0798879E+00;  2.3008545E+04;  0.0000000E+00; -5.7078496E-02;  4.0000000E+04;  0.0000000E+00;  3.9480539E+04;  3.0592916E+00;  0.0000000E+00;  2.0596240E-02;  1.6090448E+04;
  1.2335365E+00;  9.9999998E-03;  3.0232530E-02;8762;  1.2693901E+00;  0.0000000E+00;  1.9138287E-04;  1.0031278E+03;  1.3307168E-01;  2.5740542E+03;3; -1.6668350E+01;  0.0000000E+00; -8.7496748E+00;0;  3.0798883E+00;  2.3008547E+04;  0.0000000E+00; -5.7077862E-02;  4.0000000E+04;  0.0000000E+00;  3.9480539E+04;  3.0592918E+00;  0.0000000E+00;  2.0596534E-02;  1.6090474E+04;
  1.2335413E+00;  9.9999998E-03; -4.0302411E-02;8755;  1.2679579E+00;  0.0000000E+00; -9.5330289E-04;  1.0031347E+03;  1.3306479E-01;  2.5797427E+03;3; -1.8427517E+01;  0.0000000E+00;  1.1477023E+01;0;  3.1149292E+00;  2.3010578E+04;  0.0000000E+00; -1.0232675E-01;  4.0000000E+04;  0.0000000E+00;  3.9482406E+04;  3.0878816E+00;  0.0000000E+00;  2.7047656E-02;  1.5871329E+04;
  1.2335413E+00;  9.9999998E-03;  4.0302396E-02;8763;  1.2679578E+00;  0.0000000E+00;  9.5362758E-04;  1.0031347E+03;  1.3306475E-01;  2.5797427E+03;3; -1.8427643E+01;  0.0000000E+00; -1.1477016E+01;0;  3.1149244E+00;  2.3010578E+04;  0.0000000E+00; -1.0232811E-01;  4.0000000E+04;  0.0000000E+00;  3.9482406E+04;  3.0878766E+00;  0.0000000E+00;  2.7047958E-02;  1.5871350E+04;
  1.2335452E+00;  9.9999998E-03; -5.0367914E-02;8754;  1.2660136E+00;  0.0000000E+00; -2.2187356E-03;  1.0031428E+03;  1.3305648E-01;  2.5863147E+03;3; -2.0727198E+01;  0.0000000E+00;  1.4066263E+01;0;  3.1588891E+00;  2.3013391E+04;  0.0000000E+00; -1.5980236E-01;  4.0000000E+04;  0.0000000E+00;  3.9484555E+04;  3.1249385E+00;  0.0000000E+00;  3.3950567E-02;  1.5635123E+04;
  1.2335452E+00;  9.9999998E-03;  5.0367899E-02;8764;  1.2660136E+00;  0.0000000E+00;  2.2189673E-03;  1.0031427E+03;  1.3305637E-01;  2.5863147E+03;3; -2.0727234E+01;  0.0000000E+00; -1.4066185E+01;0;  3.1588917E+00;  2.3013387E+04;  0.0000000E+00; -1.5980141E-01;  4.0000000E+04;  0.0000000E+00;  3.9484562E+04;  3.1249409E+00;  0.0000000E+00;  3.3950903E-02;  1.5635139E+04;
  1.2335515E+00;  9.9999998E-03; -6.0428943E-02;8753;  1.2634718E+00;  0.0000000E+00; -4.0153046E-03;  1.0031447E+03;  1.3304526E-01;  2.5879810E+03;3; -2.3572430E+01;  0.0000000E+00;  1.6503448E+01;0;  3.2107832E+00;  2.3016795E+04;  0.0000000E+00; -2.2638793E-01;  4.0000000E+04;  0.0000000E+00;  3.9486629E+04;  3.1703525E+00;  0.0000000E+00;  4.0430766E-02;  1.5390824E+04;
  1.2335515E+00;  9.9999998E-03;  6.0428929E-02;8765;  1.2634718E+00;  0.0000000E+00;  4.0155570E-03;  1.0031446E+03;  1.3304538E-01;  2.5878828E+03;3; -2.3572416E+01;  0.0000000E+00; -1.6503283E+01;0;  3.2107847E+00;  2.3016791E+04;  0.0000000E+00; -2.2639409E-01;  4.0000000E+04;  0.0000000E+00;  3.9486629E+04;  3.1703534E+00;  0.0000000E+00;  4.0431220E-02;  1.5390844E+04;
  1.2335631E+00;  9.9999998E-03; -7.0486858E-02;8752;  1.2602220E+00;  0.0000000E+00; -6.3301018E-03;  1.0031425E+03;  1.3303252E-01;  2.5861140E+03;3; -2.6959929E+01;  0.0000000E+00;  1.8778114E+01;0;  3.2696288E+00;  2.3020922E+04;  0.0000000E+00; -2.9607034E-01;  4.0000000E+04;  0.0000000E+00;  3.9488781E+04;  3.2240365E+00;  0.0000000E+00;  4.5592371E-02;  1.5134878E+04;
  1.2335804E+00;  9.9999998E-03; -8.0542505E-02;8751;  1.2561334E+00;  0.0000000E+00; -9.1238432E-03;  1.0031220E+03;  1.3301679E-01;  2.5692358E+03;3; -3.0876293E+01;  0.0000000E+00;  2.0886618E+01;0;  3.3346260E+00;  2.3025164E+04;  0.0000000E+00; -3.5948795E-01;  4.0000000E+04;  0.0000000E+00;  3.9491250E+04;  3.2860398E+00;  0.0000000E+00;  4.8586104E-02;  1.4851216E+04;
  1.2336038E+00;  9.9999998E-03; -9.0595432E-02;8750;  1.2510757E+00;  0.0000000E+00; -1.2346169E-02;  1.0030818E+03;  1.3299939E-01;  2.5361689E+03;3; -3.5285084E+01;  0.0000000E+00;  2.2918633E+01;0;  3.4050486E+00;  2.3029129E+04;  0.0000000E+00; -4.0459213E-01;  4.0000000E+04;  0.0000000E+00;  3.9494168E+04;  3.3563654E+00;  0.0000000E+00;  4.8683282E-02;  1.4511794E+04;
  1.2336313E+00;  9.9999998E-03; -1.0064572E-01;8749;  1.2449267E+00;  0.0000000E+00; -1.5861658E-02;  1.0030048E+03;  1.3298017E-01;  2.4727874E+03;3; -4.0124710E+01;  0.0000000E+00;  2.5448145E+01;0;  3.4803958E+00;  2.3031574E+04;  0.0000000E+00; -4.1850084E-01;  4.0000000E+04;  0.0000000E+00;  3.9497805E+04;  3.4351134E+00;  0.0000000E+00;  4.5282457E-02;  1.4079286E+04;
  1.2465017E+00;  9.9999998E-03; -7.3090547E-09;8820;  1.2865508E+00;  0.0000000E+00;  6.7442343E-08;  1.0031566E+03;  1.3016710E-01;  2.5941125E+03;3;  1.0419102E+01;  0.0000000E+00;  4.5470224E-06;0;  2.3184938E+00;  2.4051953E+04;  0.0000000E+00; -1.2585347E-12;  4.0000000E+04;  0.0000000E+00;  3.9481984E+04;  2.2451704E+00;  0.0000000E+00;  7.3323600E-02;  1.5373766E+04;
  1.2465018E+00;  9.9999998E-03; -2.0142941E-02;8818;  1.2862695E+00;  0.0000000E+00; -1.6153117E-03;  1.0031523E+03;  1.3016345E-01;  2.5905857E+03;3;  9.6722622E+00;  0.0000000E+00;  5.0178523E+00;0;  2.3405285E+00;  2.4052430E+04;  0.0000000E+00; -1.3293767E-02;  4.0000000E+04;  0.0000000E+00;  3.9482922E+04;  2.2625399E+00;  0.0000000E+00;  7.7988707E-02;  1.5269878E+04;
  1.2465026E+00;  9.9999998E-03; -1.0072751E-02;8819;  1.2864802E+00;  0.0000000E+00; -7.6348725E-04;  1.0031564E+03;  1.3016607E-01;  2.5939163E+03;3;  1.0226530E+01;  0.0000000E+00;  2.5129399E+00;0;  2.3239732E+00;  2.4052018E+04;  0.0000000E+00; -3.0358545E-03;  4.0000000E+04;  0.0000000E+00;  3.9482371E+04;  2.2494495E+00;  0.0000000E+00;  7.4523583E-02;  1.5346051E+04;
  1.2465026E+00;  9.9999998E-03;  1.0072737E-02;8821;  1.2864802E+00;  0.0000000E+00;  7.6363003E-04;  1.0031563E+03;  1.3016602E-01;  2.5938184E+03;3;  1.0226608E+01;  0.0000000E+00; -2.5129497E+00;0;  2.3239760E+00;  2.4052021E+04;  0.0000000E+00; -3.0360089E-03;  4.0000000E+04;  0.0000000E+00;  3.9482371E+04;  2.2494524E+00;  0.0000000E+00;  7.4523672E-02;  1.5346036E+04;
  1.2465018E+00;  9.9999998E-03;  2.0142926E-02;8822;  1.2862695E+00;  0.0000000E+00;  1.6154195E-03;  1.0031523E+03;  1.3016345E-01;  2.5905857E+03;3;  9.6722889E+00;  0.0000000E+00; -5.0179181E+00;0;  2.3405256E+00;  2.4052430E+04;  0.0000000E+00; -1.3294128E-02;  4.0000000E+04;  0.0000000E+00;  3.9482922E+04;  2.2625368E+00;  0.0000000E+00;  7.7988960E-02;  1.5269893E+04;
  1.2465001E+00;  9.9999998E-03; -3.0210109E-02;8817;  1.2859035E+00;  0.0000000E+00; -2.6304361E-03;  1.0031487E+03;  1.3016014E-01;  2.5875493E+03;3;  8.6879139E+00;  0.0000000E+00;  7.5126438E+00;0;  2.3678443E+00;  2.4053314E+04;  0.0000000E+00; -3.3864699E-02;  4.0000000E+04;  0.0000000E+00;  3.9483832E+04;  2.2844727E+00;  0.0000000E+00;  8.3371632E-02;  1.5161524E+04;
  1.2465001E+00;  9.9999998E-03;  3.0210095E-02;8823;  1.2859035E+00;  0.0000000E+00;  2.6305292E-03;  1.0031488E+03;  1.3015968E-01;  2.5876472E+03;3;  8.6877975E+00;  0.0000000E+00; -7.5127335E+00;0;  2.3678434E+00;  2.4053318E+04;  0.0000000E+00; -3.3864908E-02;  4.0000000E+04;  0.0000000E+00;  3.9483840E+04;  2.2844715E+00;  0.0000000E+00;  8.3371870E-02;  1.5161492E+04;
  1.2464974E+00;  9.9999998E-03; -4.0274017E-02;8816;  1.2853578E+00;  0.0000000E+00; -3.8643049E-03;  1.0031475E+03;  1.3015436E-01;  2.5865703E+03;3;  7.2338762E+00;  0.0000000E+00;  9.9876404E+00;0;  2.4055159E+00;  2.4054791E+04;  0.0000000E+00; -6.8730406E-02;  4.0000000E+04;  0.0000000E+00;  3.9484969E+04;  2.3154140E+00;  0.0000000E+00;  9.0101942E-02;  1.5039967E+04;
  1.2464974E+00;  9.9999998E-03;  4.0274005E-02;8824;  1.2853578E+00;  0.0000000E+00;  3.8644345E-03;  1.0031475E+03;  1.3015436E-01;  2.5865703E+03;3;  7.2338276E+00;  0.0000000E+00; -9.9877014E+00;0;  2.4055181E+00;  2.4054793E+04;  0.0000000E+00; -6.8730243E-02;  4.0000000E+04;  0.0000000E+00;  3.9484973E+04;  2.3154159E+00;  0.0000000E+00;  9.0102226E-02;  1.5039950E+04;
  1.2464924E+00;  9.9999998E-03; -5.0334416E-02;8815;  1.2845829E+00;  0.0000000E+00; -5.3467448E-03;  1.0031445E+03;  1.3014734E-01;  2.5841230E+03;3;  5.2309237E+00;  0.0000000E+00;  1.2434277E+01;0;  2.4530826E+00;  2.4056895E+04;  0.0000000E+00; -1.2117643E-01;  4.0000000E+04;  0.0000000E+00;  3.9485953E+04;  2.3556602E+00;  0.0000000E+00;  9.7422346E-02;  1.4918827E+04;
  1.2464924E+00;  9.9999998E-03;  5.0334401E-02;8825;  1.2845830E+00;  0.0000000E+00;  5.3470251E-03;  1.0031447E+03;  1.3014740E-01;  2.5842209E+03;3;  5.2310719E+00;  0.0000000E+00; -1.2434198E+01;0;  2.4530814E+00;  2.4056898E+04;  0.0000000E+00; -1.2117805E-01;  4.0000000E+04;  0.0000000E+00;  3.9485953E+04;  2.3556588E+00;  0.0000000E+00;  9.7422712E-02;  1.4918865E+04;
  1.2464843E+00;  9.9999998E-03; -6.0391553E-02;8814;  1.2834996E+00;  0.0000000E+00; -7.0878402E-03;  1.0031469E+03;  1.3013946E-01;  2.5860850E+03;3;  2.5931308E+00;  0.0000000E+00;  1.4839983E+01;0;  2.5099487E+00;  2.4059787E+04;  0.0000000E+00; -1.9188087E-01;  4.0000000E+04;  0.0000000E+00;  3.9487012E+04;  2.4054921E+00;  0.0000000E+00;  1.0445655E-01;  1.4800439E+04;
  1.2464843E+00;  9.9999998E-03;  6.0391538E-02;8826;  1.2834996E+00;  0.0000000E+00;  7.0879799E-03;  1.0031472E+03;  1.3013937E-01;  2.5862808E+03;3;  2.5930798E+00;  0.0000000E+00; -1.4840065E+01;0;  2.5099456E+00;  2.4059781E+04;  0.0000000E+00; -1.9188221E-01;  4.0000000E+04;  0.0000000E+00;  3.9487004E+04;  2.4054887E+00;  0.0000000E+00;  1.0445698E-01;  1.4800458E+04;
  1.2464783E+00;  9.9999998E-03; -7.0445776E-02;8813;  1.2819991E+00;  0.0000000E+00; -9.0829162E-03;  1.0031415E+03;  1.3012891E-01;  2.5816782E+03;3; -7.6178879E-01;  0.0000000E+00;  1.7174509E+01;0;  2.5752118E+00;  2.4063484E+04;  0.0000000E+00; -2.7700317E-01;  4.0000000E+04;  0.0000000E+00;  3.9488184E+04;  2.4649043E+00;  0.0000000E+00;  1.1030737E-01;  1.4672586E+04;
  1.2464759E+00;  9.9999998E-03; -8.0499820E-02;8812;  1.2799275E+00;  0.0000000E+00; -1.1330448E-02;  1.0031384E+03;  1.3011479E-01;  2.5791316E+03;3; -4.8618050E+00;  0.0000000E+00;  1.9402143E+01;0;  2.6481981E+00;  2.4067732E+04;  0.0000000E+00; -3.6704683E-01;  4.0000000E+04;  0.0000000E+00;  3.9489625E+04;  2.5341141E+00;  0.0000000E+00;  1.1408409E-01;  1.4510308E+04;
  1.2464722E+00;  9.9999998E-03; -9.0557009E-02;8811;  1.2771175E+00;  0.0000000E+00; -1.3859080E-02;  1.0031193E+03;  1.3010049E-01;  2.5633604E+03;3; -9.6487808E+00;  0.0000000E+00;  2.1478512E+01;0;  2.7285974E+00;  2.4071793E+04;  0.0000000E+00; -4.4706362E-01;  4.0000000E+04;  0.0000000E+00;  3.9491691E+04;  2.6136587E+00;  0.0000000E+00;  1.1493871E-01;  1.4278348E+04;
  1.2464645E+00;  9.9999998E-03; -1.0061587E-01;8810;  1.2733946E+00;  0.0000000E+00; -1.6754845E-02;  1.0030908E+03;  1.3008618E-01;  2.5400471E+03;3; -1.5029695E+01;  0.0000000E+00;  2.3332569E+01;0;  2.8160026E+00;  2.4074729E+04;  0.0000000E+00; -4.9859670E-01;  4.0000000E+04;  0.0000000E+00;  3.9494703E+04;  2.7038786E+00;  0.0000000E+00;  1.1212396E-01;  1.3933336E+04;
  1.2591748E+00;  9.9999998E-03; -1.0065313E-02;8880;  1.2915190E+00;  0.0000000E+00; -1.5169708E-03;  1.0030080E+03;  1.2750854E-01;  2.4678191E+03;3;  2.1445236E+01;  0.0000000E+00;  1.8272506E+00;0;  1.7228851E+00;  2.5059180E+04;  0.0000000E+00;  1.6709024E-03;  4.0000000E+04;  0.0000000E+00;  3.9485871E+04;  1.5979235E+00;  0.0000000E+00;  1.2496161E-01;  1.4151984E+04;
  1.2591757E+00;  9.9999998E-03; -7.2429081E-09;8881;  1.2915210E+00;  0.0000000E+00;  9.4072263E-08;  1.0030126E+03;  1.2750934E-01;  2.4716328E+03;3;  2.1555174E+01;  0.0000000E+00; -1.6345899E-05;0;  1.7174497E+00;  2.5059266E+04;  0.0000000E+00; -1.2662134E-12;  4.0000000E+04;  0.0000000E+00;  3.9485602E+04;  1.5936896E+00;  0.0000000E+00;  1.2376009E-01;  1.4167146E+04;
  1.2591748E+00;  9.9999998E-03;  1.0065299E-02;8882;  1.2915190E+00;  0.0000000E+00;  1.5171859E-03;  1.0030080E+03;  1.2750883E-01;  2.4678191E+03;3;  2.1445370E+01;  0.0000000E+00; -1.8272789E+00;0;  1.7228845E+00;  2.5059180E+04;  0.0000000E+00;  1.6703135E-03;  4.0000000E+04;  0.0000000E+00;  3.9485875E+04;  1.5979229E+00;  0.0000000E+00;  1.2496167E-01;  1.4151974E+04;
  1.2591715E+00;  9.9999998E-03; -2.0128451E-02;8879;  1.2915103E+00;  0.0000000E+00; -3.0764542E-03;  1.0029990E+03;  1.2750733E-01;  2.4604851E+03;3;  2.1135992E+01;  0.0000000E+00;  3.7110543E+00;0;  1.7391565E+00;  2.5059062E+04;  0.0000000E+00;  4.6661431E-03;  4.0000000E+04;  0.0000000E+00;  3.9486180E+04;  1.6107033E+00;  0.0000000E+00;  1.2845315E-01;  1.4111836E+04;
  1.2591715E+00;  9.9999998E-03;  2.0128438E-02;8883;  1.2915103E+00;  0.0000000E+00;  3.0766372E-03;  1.0029988E+03;  1.2750743E-01;  2.4602896E+03;3;  2.1136166E+01;  0.0000000E+00; -3.7110741E+00;0;  1.7391565E+00;  2.5059066E+04;  0.0000000E+00;  4.6656961E-03;  4.0000000E+04;  0.0000000E+00;  3.9486184E+04;  1.6107032E+00;  0.0000000E+00;  1.2845330E-01;  1.4111857E+04;
  1.2591647E+00;  9.9999998E-03; -3.0189237E-02;8878;  1.2914907E+00;  0.0000000E+00; -4.7155335E-03;  1.0029808E+03;  1.2750475E-01;  2.4455237E+03;3;  2.0753876E+01;  0.0000000E+00;  5.6662540E+00;0;  1.7661304E+00;  2.5059088E+04;  0.0000000E+00;  3.3763328E-03;  4.0000000E+04;  0.0000000E+00;  3.9486648E+04;  1.6322281E+00;  0.0000000E+00;  1.3390233E-01;  1.4059592E+04;
  1.2591647E+00;  9.9999998E-03;  3.0189222E-02;8884;  1.2914907E+00;  0.0000000E+00;  4.7157132E-03;  1.0029809E+03;  1.2750478E-01;  2.4456216E+03;3;  2.0753799E+01;  0.0000000E+00; -5.6662149E+00;0;  1.7661290E+00;  2.5059090E+04;  0.0000000E+00;  3.3755244E-03;  4.0000000E+04;  0.0000000E+00;  3.9486648E+04;  1.6322265E+00;  0.0000000E+00;  1.3390255E-01;  1.4059626E+04;
  1.2591548E+00;  9.9999998E-03; -4.0248085E-02;8877;  1.2914501E+00;  0.0000000E+00; -6.4568738E-03;  1.0029615E+03;  1.2750107E-01;  2.4296833E+03;3;  2.0169634E+01;  0.0000000E+00;  7.7211351E+00;0;  1.8034837E+00;  2.5059434E+04;  0.0000000E+00; -1.0096742E-02;  4.0000000E+04;  0.0000000E+00;  3.9486910E+04;  1.6627027E+00;  0.0000000E+00;  1.4078110E-01;  1.4008932E+04;
  1.2591548E+00;  9.9999998E-03;  4.0248070E-02;8885;  1.2914501E+00;  0.0000000E+00;  6.4570066E-03;  1.0029615E+03;  1.2750107E-01;  2.4296833E+03;3;  2.0169693E+01;  0.0000000E+00; -7.7211285E+00;0;  1.8034829E+00;  2.5059436E+04;  0.0000000E+00; -1.0098789E-02;  4.0000000E+04;  0.0000000E+00;  3.9486910E+04;  1.6627016E+00;  0.0000000E+00;  1.4078131E-01;  1.4008940E+04;
  1.2591401E+00;  9.9999998E-03; -5.0305422E-02;8876;  1.2913656E+00;  0.0000000E+00; -8.3023040E-03;  1.0029395E+03;  1.2749547E-01;  2.4115950E+03;3;  1.9199835E+01;  0.0000000E+00;  9.8782024E+00;0;  1.8509022E+00;  2.5060336E+04;  0.0000000E+00; -4.3833911E-02;  4.0000000E+04;  0.0000000E+00;  3.9487309E+04;  1.7025225E+00;  0.0000000E+00;  1.4837973E-01;  1.3967394E+04;
  1.2591401E+00;  9.9999998E-03;  5.0305407E-02;8886;  1.2913656E+00;  0.0000000E+00;  8.3024343E-03;  1.0029396E+03;  1.2749554E-01;  2.4116929E+03;3;  1.9199810E+01;  0.0000000E+00; -9.8781757E+00;0;  1.8509039E+00;  2.5060338E+04;  0.0000000E+00; -4.3835353E-02;  4.0000000E+04;  0.0000000E+00;  3.9487309E+04;  1.7025236E+00;  0.0000000E+00;  1.4838028E-01;  1.3967396E+04;
  1.2591199E+00;  9.9999998E-03; -6.0361583E-02;8875;  1.2912092E+00;  0.0000000E+00; -1.0237302E-02;  1.0029240E+03;  1.2748884E-01;  2.3988882E+03;3;  1.7973747E+01;  0.0000000E+00;  1.2181331E+01;0;  1.9079765E+00;  2.5062057E+04;  0.0000000E+00; -1.0338227E-01;  4.0000000E+04;  0.0000000E+00;  3.9487570E+04;  1.7521082E+00;  0.0000000E+00;  1.5586828E-01;  1.3931050E+04;
  1.2591199E+00;  9.9999998E-03;  6.0361568E-02;8887;  1.2912092E+00;  0.0000000E+00;  1.0237377E-02;  1.0029240E+03;  1.2748884E-01;  2.3988882E+03;3;  1.7973719E+01;  0.0000000E+00; -1.2181296E+01;0;  1.9079745E+00;  2.5062053E+04;  0.0000000E+00; -1.0338467E-01;  4.0000000E+04;  0.0000000E+00;  3.9487566E+04;  1.7521060E+00;  0.0000000E+00;  1.5586855E-01;  1.3931078E+04;
  1.2590952E+00;  9.9999998E-03; -7.0416719E-02;8874;  1.2909219E+00;  0.0000000E+00; -1.2242243E-02;  1.0029200E+03;  1.2748116E-01;  2.3956692E+03;3;  1.6227650E+01;  0.0000000E+00;  1.4621581E+01;0;  1.9741890E+00;  2.5064787E+04;  0.0000000E+00; -1.8894991E-01;  4.0000000E+04;  0.0000000E+00;  3.9487949E+04;  1.8118318E+00;  0.0000000E+00;  1.6235727E-01;  1.3882566E+04;
  1.2590697E+00;  9.9999998E-03; -8.0471694E-02;8873;  1.2904325E+00;  0.0000000E+00; -1.4314526E-02;  1.0029207E+03;  1.2747113E-01;  2.3961670E+03;3;  1.3896163E+01;  0.0000000E+00;  1.7146862E+01;0;  2.0489464E+00;  2.5068230E+04;  0.0000000E+00; -2.9338050E-01;  4.0000000E+04;  0.0000000E+00;  3.9488816E+04;  1.8819884E+00;  0.0000000E+00;  1.6695805E-01;  1.3792329E+04;
  1.2590401E+00;  9.9999998E-03; -9.0528779E-02;8872;  1.2896173E+00;  0.0000000E+00; -1.6484814E-02;  1.0029267E+03;  1.2746005E-01;  2.4011650E+03;3;  1.0724574E+01;  0.0000000E+00;  1.9648930E+01;0;  2.1319847E+00;  2.5071975E+04;  0.0000000E+00; -4.0185913E-01;  4.0000000E+04;  0.0000000E+00;  3.9490531E+04;  1.9631982E+00;  0.0000000E+00;  1.6878657E-01;  1.3622604E+04;
  1.2590013E+00;  9.9999998E-03; -1.0059271E-01;8871;  1.2883089E+00;  0.0000000E+00; -1.8868275E-02;  1.0029258E+03;  1.2744841E-01;  2.4004939E+03;3;  6.4272022E+00;  0.0000000E+00;  2.1924059E+01;0;  2.2231545E+00;  2.5075113E+04;  0.0000000E+00; -4.9354061E-01;  4.0000000E+04;  0.0000000E+00;  3.9493242E+04;  2.0561619E+00;  0.0000000E+00;  1.6699275E-01;  1.3331176E+04;
  1.2715445E+00;  9.9999998E-03; -2.0117883E-02;8939;  1.2929060E+00;  0.0000000E+00; -4.0204898E-03;  1.0027205E+03;  1.2510331E-01;  2.2275544E+03;3;  2.5082169E+01;  0.0000000E+00;  2.6167421E+00;0;  1.2588558E+00;  2.6019037E+04;  0.0000000E+00;  2.3061758E-02;  4.0000000E+04;  0.0000000E+00;  3.9487559E+04;  1.0911487E+00;  0.0000000E+00;  1.6770703E-01;  1.2909877E+04;
  1.2715461E+00;  9.9999998E-03; -1.0059571E-02;8940;  1.2928267E+00;  0.0000000E+00; -1.9954951E-03;  1.0027446E+03;  1.2510380E-01;  2.2472710E+03;3;  2.5203487E+01;  0.0000000E+00;  1.2871146E+00;0;  1.2438066E+00;  2.6019727E+04;  0.0000000E+00;  6.4264950E-03;  4.0000000E+04;  0.0000000E+00;  3.9487512E+04;  1.0795676E+00;  0.0000000E+00;  1.6423908E-01;  1.2932115E+04;
  1.2715470E+00;  9.9999998E-03; -7.1556876E-09;8941;  1.2928011E+00;  0.0000000E+00;  1.0990681E-07;  1.0027515E+03;  1.2510450E-01;  2.2529321E+03;3;  2.5241503E+01;  0.0000000E+00;  6.4771230E-06;0;  1.2387662E+00;  2.6020072E+04;  0.0000000E+00;  1.5814267E-12;  4.0000000E+04;  0.0000000E+00;  3.9487383E+04;  1.0757165E+00;  0.0000000E+00;  1.6304970E-01;  1.2940818E+04;
  1.2715461E+00;  9.9999998E-03;  1.0059558E-02;8942;  1.2928267E+00;  0.0000000E+00;  1.9957414E-03;  1.0027446E+03;  1.2510385E-01;  2.2473687E+03;3;  2.5203421E+01;  0.0000000E+00; -1.2871019E+00;0;  1.2438070E+00;  2.6019734E+04;  0.0000000E+00;  6.4260080E-03;  4.0000000E+04;  0.0000000E+00;  3.9487512E+04;  1.0795678E+00;  0.0000000E+00;  1.6423920E-01;  1.2932122E+04;
  1.2715445E+00;  9.9999998E-03;  2.0117868E-02;8943;  1.2929060E+00;  0.0000000E+00;  4.0206932E-03;  1.0027205E+03;  1.2510331E-01;  2.2275544E+03;3;  2.5081451E+01;  0.0000000E+00; -2.6167409E+00;0;  1.2588547E+00;  2.6019039E+04;  0.0000000E+00;  2.3060756E-02;  4.0000000E+04;  0.0000000E+00;  3.9487562E+04;  1.0911477E+00;  0.0000000E+00;  1.6770707E-01;  1.2909876E+04;
  1.2715398E+00;  9.9999998E-03; -3.0173978E-02;8938;  1.2930356E+00;  0.0000000E+00; -6.0992669E-03;  1.0026877E+03;  1.2510066E-01;  2.2007136E+03;3;  2.4862015E+01;  0.0000000E+00;  4.0380702E+00;0;  1.2838477E+00;  2.6017980E+04;  0.0000000E+00;  4.2436734E-02;  4.0000000E+04;  0.0000000E+00;  3.9487742E+04;  1.1107042E+00;  0.0000000E+00;  1.7314354E-01;  1.2883930E+04;
  1.2715398E+00;  9.9999998E-03;  3.0173963E-02;8944;  1.2930356E+00;  0.0000000E+00;  6.0994644E-03;  1.0026876E+03;  1.2510064E-01;  2.2006160E+03;3;  2.4862070E+01;  0.0000000E+00; -4.0380979E+00;0;  1.2838471E+00;  2.6017984E+04;  0.0000000E+00;  4.2435151E-02;  4.0000000E+04;  0.0000000E+00;  3.9487742E+04;  1.1107033E+00;  0.0000000E+00;  1.7314376E-01;  1.2883951E+04;
  1.2715318E+00;  9.9999998E-03; -4.0228091E-02;8937;  1.2932103E+00;  0.0000000E+00; -8.2445787E-03;  1.0026417E+03;  1.2509674E-01;  2.1630391E+03;3;  2.4545040E+01;  0.0000000E+00;  5.5743551E+00;0;  1.3185701E+00;  2.6017229E+04;  0.0000000E+00;  5.3636618E-02;  4.0000000E+04;  0.0000000E+00;  3.9487758E+04;  1.1385111E+00;  0.0000000E+00;  1.8005909E-01;  1.2863847E+04;
  1.2715318E+00;  9.9999998E-03;  4.0228076E-02;8945;  1.2932103E+00;  0.0000000E+00;  8.2448060E-03;  1.0026417E+03;  1.2509674E-01;  2.1630391E+03;3;  2.4545231E+01;  0.0000000E+00; -5.5742607E+00;0;  1.3185692E+00;  2.6017236E+04;  0.0000000E+00;  5.3634889E-02;  4.0000000E+04;  0.0000000E+00;  3.9487758E+04;  1.1385098E+00;  0.0000000E+00;  1.8005948E-01;  1.2863874E+04;
  1.2715182E+00;  9.9999998E-03; -5.0280925E-02;8936;  1.2934153E+00;  0.0000000E+00; -1.0450138E-02;  1.0026039E+03;  1.2509294E-01;  2.1321018E+03;3;  2.4057287E+01;  0.0000000E+00;  7.2785640E+00;0;  1.3628223E+00;  2.6016752E+04;  0.0000000E+00;  4.4641878E-02;  4.0000000E+04;  0.0000000E+00;  3.9487863E+04;  1.1750240E+00;  0.0000000E+00;  1.8779826E-01;  1.2852753E+04;
  1.2715182E+00;  9.9999998E-03;  5.0280910E-02;8946;  1.2934152E+00;  0.0000000E+00;  1.0450379E-02;  1.0026039E+03;  1.2509297E-01;  2.1321018E+03;3;  2.4058102E+01;  0.0000000E+00; -7.2785749E+00;0;  1.3628222E+00;  2.6016754E+04;  0.0000000E+00;  4.4637721E-02;  4.0000000E+04;  0.0000000E+00;  3.9487863E+04;  1.1750239E+00;  0.0000000E+00;  1.8779829E-01;  1.2852775E+04;
  1.2714952E+00;  9.9999998E-03; -6.0335264E-02;8935;  1.2936368E+00;  0.0000000E+00; -1.2691204E-02;  1.0025668E+03;  1.2508748E-01;  2.1017534E+03;3;  2.3466574E+01;  0.0000000E+00;  9.1708326E+00;0;  1.4164453E+00;  2.6017164E+04;  0.0000000E+00;  5.4223342E-03;  4.0000000E+04;  0.0000000E+00;  3.9487684E+04;  1.2208633E+00;  0.0000000E+00;  1.9558191E-01;  1.2843951E+04;
  1.2714952E+00;  9.9999998E-03;  6.0335249E-02;8947;  1.2936368E+00;  0.0000000E+00;  1.2691331E-02;  1.0025669E+03;  1.2508731E-01;  2.1018511E+03;3;  2.3466671E+01;  0.0000000E+00; -9.1709518E+00;0;  1.4164468E+00;  2.6017152E+04;  0.0000000E+00;  5.4179649E-03;  4.0000000E+04;  0.0000000E+00;  3.9487691E+04;  1.2208647E+00;  0.0000000E+00;  1.9558220E-01;  1.2843941E+04;
  1.2714643E+00;  9.9999998E-03; -7.0393018E-02;8934;  1.2938534E+00;  0.0000000E+00; -1.4942397E-02;  1.0025444E+03;  1.2508062E-01;  2.0834136E+03;3;  2.2548998E+01;  0.0000000E+00;  1.1267664E+01;0;  1.4790957E+00;  2.6018561E+04;  0.0000000E+00; -6.8690322E-02;  4.0000000E+04;  0.0000000E+00;  3.9487977E+04;  1.2765231E+00;  0.0000000E+00;  2.0257257E-01;  1.2819034E+04;
  1.2714264E+00;  9.9999998E-03; -8.0453396E-02;8933;  1.2940458E+00;  0.0000000E+00; -1.7190389E-02;  1.0025462E+03;  1.2507203E-01;  2.0848914E+03;3;  2.1430775E+01;  0.0000000E+00;  1.3589794E+01;0;  1.5504508E+00;  2.6021076E+04;  0.0000000E+00; -1.7444918E-01;  4.0000000E+04;  0.0000000E+00;  3.9488703E+04;  1.3425586E+00;  0.0000000E+00;  2.0789216E-01;  1.2750227E+04;
  1.2713817E+00;  9.9999998E-03; -9.0515360E-02;8932;  1.2941768E+00;  0.0000000E+00; -1.9459954E-02;  1.0025616E+03;  1.2506379E-01;  2.0975972E+03;3;  1.9873610E+01;  0.0000000E+00;  1.6087418E+01;0;  1.6302161E+00;  2.6024324E+04;  0.0000000E+00; -2.9962331E-01;  4.0000000E+04;  0.0000000E+00;  3.9490105E+04;  1.4195603E+00;  0.0000000E+00;  2.1065584E-01;  1.2602688E+04;
  1.2713286E+00;  9.9999998E-03; -1.0058051E-01;8931;  1.2942166E+00;  0.0000000E+00; -2.1838268E-02;  1.0025962E+03;  1.2505455E-01;  2.1258267E+03;3;  1.7777765E+01;  0.0000000E+00;  1.8645119E+01;0;  1.7181139E+00;  2.6027857E+04;  0.0000000E+00; -4.2405206E-01;  4.0000000E+04;  0.0000000E+00;  3.9492859E+04;  1.5081348E+00;  0.0000000E+00;  2.0997910E-01;  1.2338896E+04;
  1.2836683E+00;  9.9999998E-03; -1.0056793E-02;8999;  1.2927895E+00;  0.0000000E+00; -2.2663202E-03;  1.0024058E+03;  1.2293773E-01;  1.9653550E+03;3;  2.7159702E+01;  0.0000000E+00;  9.5231915E-01;0;  8.7795913E-01;  2.6928771E+04;  0.0000000E+00;  9.9811144E-03;  4.0000000E+04;  0.0000000E+00;  3.9486680E+04;  6.8416166E-01;  0.0000000E+00;  1.9379748E-01;  1.1736331E+04;
  1.2836679E+00;  9.9999998E-03; -7.2181363E-09;9000;  1.2927474E+00;  0.0000000E+00;  1.1459151E-07;  1.0024198E+03;  1.2293858E-01;  1.9768469E+03;3;  2.7179647E+01;  0.0000000E+00;  9.9880153E-06;0;  8.7348706E-01;  2.6929230E+04;  0.0000000E+00;  1.9025480E-12;  4.0000000E+04;  0.0000000E+00;  3.9486457E+04;  6.8084598E-01;  0.0000000E+00;  1.9264108E-01;  1.1745934E+04;
  1.2836683E+00;  9.9999998E-03;  1.0056779E-02;9001;  1.2927895E+00;  0.0000000E+00;  2.2665588E-03;  1.0024056E+03;  1.2293784E-01;  1.9652577E+03;3;  2.7159725E+01;  0.0000000E+00; -9.5228392E-01;0;  8.7795883E-01;  2.6928770E+04;  0.0000000E+00;  9.9803125E-03;  4.0000000E+04;  0.0000000E+00;  3.9486684E+04;  6.8416107E-01;  0.0000000E+00;  1.9379778E-01;  1.1736324E+04;
  1.2836689E+00;  9.9999998E-03; -2.0112412E-02;8998;  1.2929106E+00;  0.0000000E+00; -4.5633228E-03;  1.0023715E+03;  1.2293665E-01;  1.9374050E+03;3;  2.7072344E+01;  0.0000000E+00;  1.9590358E+00;0;  8.9135373E-01;  2.6927252E+04;  0.0000000E+00;  3.6991980E-02;  4.0000000E+04;  0.0000000E+00;  3.9486684E+04;  6.9418180E-01;  0.0000000E+00;  1.9717190E-01;  1.1710994E+04;
  1.2836689E+00;  9.9999998E-03;  2.0112397E-02;9002;  1.2929106E+00;  0.0000000E+00;  4.5635263E-03;  1.0023713E+03;  1.2293679E-01;  1.9372102E+03;3;  2.7072590E+01;  0.0000000E+00; -1.9590555E+00;0;  8.9135355E-01;  2.6927258E+04;  0.0000000E+00;  3.6990959E-02;  4.0000000E+04;  0.0000000E+00;  3.9486688E+04;  6.9418162E-01;  0.0000000E+00;  1.9717194E-01;  1.1710994E+04;
  1.2836680E+00;  9.9999998E-03; -3.0165879E-02;8997;  1.2931126E+00;  0.0000000E+00; -6.9132946E-03;  1.0023151E+03;  1.2293475E-01;  1.8913413E+03;3;  2.6960247E+01;  0.0000000E+00;  3.0268834E+00;0;  9.1359890E-01;  2.6925139E+04;  0.0000000E+00;  7.2706394E-02;  4.0000000E+04;  0.0000000E+00;  3.9486980E+04;  7.1111751E-01;  0.0000000E+00;  2.0248139E-01;  1.1677913E+04;
  1.2836680E+00;  9.9999998E-03;  3.0165864E-02;9003;  1.2931126E+00;  0.0000000E+00;  6.9135171E-03;  1.0023154E+03;  1.2293479E-01;  1.8915361E+03;3;  2.6960384E+01;  0.0000000E+00; -3.0268660E+00;0;  9.1359937E-01;  2.6925146E+04;  0.0000000E+00;  7.2704308E-02;  4.0000000E+04;  0.0000000E+00;  3.9486980E+04;  7.1111798E-01;  0.0000000E+00;  2.0248137E-01;  1.1677934E+04;
  1.2836653E+00;  9.9999998E-03; -4.0217627E-02;8996;  1.2933912E+00;  0.0000000E+00; -9.3219122E-03;  1.0022470E+03;  1.2293109E-01;  1.8356376E+03;3;  2.6750834E+01;  0.0000000E+00;  4.2151818E+00;0;  9.4454950E-01;  2.6922861E+04;  0.0000000E+00;  1.0477670E-01;  4.0000000E+04;  0.0000000E+00;  3.9487219E+04;  7.3527253E-01;  0.0000000E+00;  2.0927699E-01;  1.1644896E+04;
  1.2836653E+00;  9.9999998E-03;  4.0217612E-02;9004;  1.2933912E+00;  0.0000000E+00;  9.3221115E-03;  1.0022470E+03;  1.2293109E-01;  1.8356376E+03;3;  2.6749954E+01;  0.0000000E+00; -4.2151346E+00;0;  9.4455022E-01;  2.6922861E+04;  0.0000000E+00;  1.0477433E-01;  4.0000000E+04;  0.0000000E+00;  3.9487219E+04;  7.3527336E-01;  0.0000000E+00;  2.0927685E-01;  1.1644907E+04;
  1.2836571E+00;  9.9999998E-03; -5.0268862E-02;8995;  1.2937406E+00;  0.0000000E+00; -1.1775310E-02;  1.0021803E+03;  1.2292629E-01;  1.7812015E+03;3;  2.6449471E+01;  0.0000000E+00;  5.5447826E+00;0;  9.8410356E-01;  2.6920887E+04;  0.0000000E+00;  1.1908871E-01;  4.0000000E+04;  0.0000000E+00;  3.9487238E+04;  7.6714629E-01;  0.0000000E+00;  2.1695724E-01;  1.1614655E+04;
  1.2836571E+00;  9.9999998E-03;  5.0268847E-02;9005;  1.2937406E+00;  0.0000000E+00;  1.1775569E-02;  1.0021804E+03;  1.2292630E-01;  1.7812015E+03;3;  2.6449570E+01;  0.0000000E+00; -5.5446734E+00;0;  9.8410356E-01;  2.6920896E+04;  0.0000000E+00;  1.1908957E-01;  4.0000000E+04;  0.0000000E+00;  3.9487234E+04;  7.6714599E-01;  0.0000000E+00;  2.1695758E-01;  1.1614657E+04;
  1.2836412E+00;  9.9999998E-03; -6.0321543E-02;8994;  1.2941538E+00;  0.0000000E+00; -1.4254122E-02;  1.0021246E+03;  1.2292205E-01;  1.7357275E+03;3;  2.6028944E+01;  0.0000000E+00;  7.0659966E+00;0;  1.0321177E+00;  2.6919846E+04;  0.0000000E+00;  1.0281645E-01;  4.0000000E+04;  0.0000000E+00;  3.9487348E+04;  8.0730331E-01;  0.0000000E+00;  2.2481443E-01;  1.1581771E+04;
  1.2836412E+00;  9.9999998E-03;  6.0321528E-02;9006;  1.2941538E+00;  0.0000000E+00;  1.4254361E-02;  1.0021247E+03;  1.2292206E-01;  1.7357275E+03;3;  2.6029158E+01;  0.0000000E+00; -7.0660534E+00;0;  1.0321178E+00;  2.6919857E+04;  0.0000000E+00;  1.0281892E-01;  4.0000000E+04;  0.0000000E+00;  3.9487340E+04;  8.0730331E-01;  0.0000000E+00;  2.2481450E-01;  1.1581796E+04;
  1.2836164E+00;  9.9999998E-03; -7.0378102E-02;8993;  1.2946367E+00;  0.0000000E+00; -1.6746538E-02;  1.0020900E+03;  1.2291591E-01;  1.7073967E+03;3;  2.5533157E+01;  0.0000000E+00;  8.7309265E+00;0;  1.0884452E+00;  2.6919959E+04;  0.0000000E+00;  4.7715623E-02;  4.0000000E+04;  0.0000000E+00;  3.9487723E+04;  8.5638183E-01;  0.0000000E+00;  2.3206341E-01;  1.1532204E+04;
  1.2835779E+00;  9.9999998E-03; -8.0442041E-02;8992;  1.2951684E+00;  0.0000000E+00; -1.9250939E-02;  1.0020769E+03;  1.2290812E-01;  1.6966975E+03;3;  2.4798216E+01;  0.0000000E+00;  1.0622929E+01;0;  1.1530545E+00;  2.6921479E+04;  0.0000000E+00; -4.7200717E-02;  4.0000000E+04;  0.0000000E+00;  3.9488543E+04;  9.1519463E-01;  0.0000000E+00;  2.3785979E-01;  1.1444279E+04;
  1.2835258E+00;  9.9999998E-03; -9.0515770E-02;8991;  1.2957577E+00;  0.0000000E+00; -2.1808285E-02;  1.0021038E+03;  1.2290183E-01;  1.7187257E+03;3;  2.3833860E+01;  0.0000000E+00;  1.2668635E+01;0;  1.2257656E+00;  2.6924211E+04;  0.0000000E+00; -1.7416979E-01;  4.0000000E+04;  0.0000000E+00;  3.9490129E+04;  9.8443514E-01;  0.0000000E+00;  2.4133049E-01;  1.1289727E+04;
  1.2834649E+00;  9.9999998E-03; -1.0059300E-01;8990;  1.2964138E+00;  0.0000000E+00; -2.4505531E-02;  1.0021572E+03;  1.2289413E-01;  1.7623783E+03;3;  2.2622459E+01;  0.0000000E+00;  1.4814174E+01;0;  1.3061090E+00;  2.6927967E+04;  0.0000000E+00; -3.1647626E-01;  4.0000000E+04;  0.0000000E+00;  3.9492770E+04;  1.0645308E+00;  0.0000000E+00;  2.4157810E-01;  1.1039485E+04;
  1.2955765E+00;  9.9999998E-03; -1.0057037E-02;9058;  1.2920328E+00;  0.0000000E+00; -2.3979512E-03;  1.0020077E+03;  1.2099485E-01;  1.6358003E+03;3;  2.8381721E+01;  0.0000000E+00;  7.6939273E-01;0;  6.0981214E-01;  2.7781271E+04;  0.0000000E+00;  1.1503667E-02;  4.0000000E+04;  0.0000000E+00;  3.9483266E+04;  3.9476332E-01;  0.0000000E+00;  2.1504880E-01;  1.0565223E+04;
  1.2955744E+00;  9.9999998E-03; -7.2847866E-09;9059;  1.2919830E+00;  0.0000000E+00;  1.2334513E-07;  1.0020259E+03;  1.2099589E-01;  1.6506615E+03;3;  2.8358353E+01;  0.0000000E+00;  2.0588050E-05;0;  6.0596901E-01;  2.7782027E+04;  0.0000000E+00;  2.5608944E-12;  4.0000000E+04;  0.0000000E+00;  3.9482984E+04;  3.9201671E-01;  0.0000000E+00;  2.1395229E-01;  1.0582444E+04;
  1.2955765E+00;  9.9999998E-03;  1.0057023E-02;9060;  1.2920328E+00;  0.0000000E+00;  2.3981805E-03;  1.0020077E+03;  1.2099485E-01;  1.6358003E+03;3;  2.8381794E+01;  0.0000000E+00; -7.6939094E-01;0;  6.0981214E-01;  2.7781262E+04;  0.0000000E+00;  1.1502663E-02;  4.0000000E+04;  0.0000000E+00;  3.9483270E+04;  3.9476332E-01;  0.0000000E+00;  2.1504879E-01;  1.0565207E+04;
  1.2955821E+00;  9.9999998E-03; -2.0112759E-02;9057;  1.2921770E+00;  0.0000000E+00; -4.8287511E-03;  1.0019597E+03;  1.2099338E-01;  1.5966562E+03;3;  2.8382133E+01;  0.0000000E+00;  1.5634041E+00;0;  6.2132221E-01;  2.7779059E+04;  0.0000000E+00;  4.3223180E-02;  4.0000000E+04;  0.0000000E+00;  3.9483648E+04;  4.0307158E-01;  0.0000000E+00;  2.1825062E-01;  1.0516889E+04;
  1.2955821E+00;  9.9999998E-03;  2.0112744E-02;9061;  1.2921770E+00;  0.0000000E+00;  4.8289970E-03;  1.0019597E+03;  1.2099338E-01;  1.5966562E+03;3;  2.8382339E+01;  0.0000000E+00; -1.5634375E+00;0;  6.2132168E-01;  2.7779066E+04;  0.0000000E+00;  4.3221831E-02;  4.0000000E+04;  0.0000000E+00;  3.9483648E+04;  4.0307134E-01;  0.0000000E+00;  2.1825032E-01;  1.0516897E+04;
  1.2955902E+00;  9.9999998E-03; -3.0166131E-02;9056;  1.2924203E+00;  0.0000000E+00; -7.3159379E-03;  1.0018875E+03;  1.2099077E-01;  1.5377949E+03;3;  2.8310488E+01;  0.0000000E+00;  2.4047027E+00;0;  6.4043504E-01;  2.7776061E+04;  0.0000000E+00;  8.7183885E-02;  4.0000000E+04;  0.0000000E+00;  3.9484070E+04;  4.1713303E-01;  0.0000000E+00;  2.2330202E-01;  1.0445838E+04;
  1.2955902E+00;  9.9999998E-03;  3.0166116E-02;9062;  1.2924201E+00;  0.0000000E+00;  7.3161521E-03;  1.0018875E+03;  1.2099077E-01;  1.5377949E+03;3;  2.8311548E+01;  0.0000000E+00; -2.4047480E+00;0;  6.4043432E-01;  2.7776070E+04;  0.0000000E+00;  8.7181941E-02;  4.0000000E+04;  0.0000000E+00;  3.9484070E+04;  4.1713214E-01;  0.0000000E+00;  2.2330217E-01;  1.0445857E+04;
  1.2955970E+00;  9.9999998E-03; -4.0217791E-02;9055;  1.2927566E+00;  0.0000000E+00; -9.8635703E-03;  1.0018027E+03;  1.2098698E-01;  1.4687358E+03;3;  2.8175262E+01;  0.0000000E+00;  3.3701918E+00;0;  6.6709501E-01;  2.7772514E+04;  0.0000000E+00;  1.3145807E-01;  4.0000000E+04;  0.0000000E+00;  3.9484633E+04;  4.3730187E-01;  0.0000000E+00;  2.2979313E-01;  1.0361606E+04;
  1.2955971E+00;  9.9999998E-03;  4.0217776E-02;9063;  1.2927566E+00;  0.0000000E+00;  9.8637855E-03;  1.0018027E+03;  1.2098698E-01;  1.4687358E+03;3;  2.8175316E+01;  0.0000000E+00; -3.3701801E+00;0;  6.6709578E-01;  2.7772516E+04;  0.0000000E+00;  1.3145626E-01;  4.0000000E+04;  0.0000000E+00;  3.9484637E+04;  4.3730226E-01;  0.0000000E+00;  2.2979350E-01;  1.0361612E+04;
  1.2955984E+00;  9.9999998E-03; -5.0269723E-02;9054;  1.2931937E+00;  0.0000000E+00; -1.2468982E-02;  1.0017156E+03;  1.2098287E-01;  1.3977365E+03;3;  2.7965435E+01;  0.0000000E+00;  4.4406047E+00;0;  7.0125473E-01;  2.7769182E+04;  0.0000000E+00;  1.6212797E-01;  4.0000000E+04;  0.0000000E+00;  3.9485312E+04;  4.6407145E-01;  0.0000000E+00;  2.3718327E-01;  1.0271297E+04;
  1.2955984E+00;  9.9999998E-03;  5.0269708E-02;9064;  1.2931937E+00;  0.0000000E+00;  1.2469210E-02;  1.0017155E+03;  1.2098292E-01;  1.3977365E+03;3;  2.7964663E+01;  0.0000000E+00; -4.4404202E+00;0;  7.0125496E-01;  2.7769186E+04;  0.0000000E+00;  1.6212724E-01;  4.0000000E+04;  0.0000000E+00;  3.9485312E+04;  4.6407166E-01;  0.0000000E+00;  2.3718329E-01;  1.0271327E+04;
  1.2955908E+00;  9.9999998E-03; -6.0323939E-02;9053;  1.2937326E+00;  0.0000000E+00; -1.5123432E-02;  1.0016423E+03;  1.2097833E-01;  1.3381036E+03;3;  2.7662365E+01;  0.0000000E+00;  5.6326818E+00;0;  7.4285257E-01;  2.7766566E+04;  0.0000000E+00;  1.6580975E-01;  4.0000000E+04;  0.0000000E+00;  3.9486102E+04;  4.9802256E-01;  0.0000000E+00;  2.4483004E-01;  1.0176511E+04;
  1.2955908E+00;  9.9999998E-03;  6.0323924E-02;9065;  1.2937326E+00;  0.0000000E+00;  1.5123683E-02;  1.0016423E+03;  1.2097833E-01;  1.3381036E+03;3;  2.7662741E+01;  0.0000000E+00; -5.6325769E+00;0;  7.4285233E-01;  2.7766562E+04;  0.0000000E+00;  1.6581085E-01;  4.0000000E+04;  0.0000000E+00;  3.9486102E+04;  4.9802205E-01;  0.0000000E+00;  2.4483030E-01;  1.0176524E+04;
  1.2955725E+00;  9.9999998E-03; -7.0382878E-02;9052;  1.2943679E+00;  0.0000000E+00; -1.7815325E-02;  1.0015923E+03;  1.2097294E-01;  1.2974137E+03;3;  2.7254332E+01;  0.0000000E+00;  7.0349746E+00;0;  7.9179513E-01;  2.7765424E+04;  0.0000000E+00;  1.3239357E-01;  4.0000000E+04;  0.0000000E+00;  3.9486930E+04;  5.3978020E-01;  0.0000000E+00;  2.5201491E-01;  1.0071663E+04;
  1.2955422E+00;  9.9999998E-03; -8.0448106E-02;9051;  1.2951242E+00;  0.0000000E+00; -2.0550419E-02;  1.0015719E+03;  1.2096592E-01;  1.2807175E+03;3;  2.6850677E+01;  0.0000000E+00;  8.5529919E+00;0;  8.4798586E-01;  2.7766049E+04;  0.0000000E+00;  5.7358716E-02;  4.0000000E+04;  0.0000000E+00;  3.9488203E+04;  5.9003264E-01;  0.0000000E+00;  2.5795320E-01;  9.9433643E+03;
  1.2954942E+00;  9.9999998E-03; -9.0523370E-02;9050;  1.2960175E+00;  0.0000000E+00; -2.3377247E-02;  1.0016038E+03;  1.2096056E-01;  1.3066658E+03;3;  2.6239443E+01;  0.0000000E+00;  1.0199903E+01;0;  9.1138899E-01;  2.7768479E+04;  0.0000000E+00; -5.6592572E-02;  4.0000000E+04;  0.0000000E+00;  3.9490109E+04;  6.4958960E-01;  0.0000000E+00;  2.6179942E-01;  9.7724990E+03;
  1.2954252E+00;  9.9999998E-03; -1.0061215E-01;9049;  1.2970847E+00;  0.0000000E+00; -2.6385216E-02;  1.0016782E+03;  1.2095493E-01;  1.3673939E+03;3;  2.5452589E+01;  0.0000000E+00;  1.1893089E+01;0;  9.8185438E-01;  2.7772275E+04;  0.0000000E+00; -1.9847955E-01;  4.0000000E+04;  0.0000000E+00;  3.9492711E+04;  7.1920007E-01;  0.0000000E+00;  2.6265430E-01;  9.5395498E+03;
  1.3073182E+00;  9.9999998E-03; -1.0059707E-02;9117;  1.2909100E+00;  0.0000000E+00; -2.4540233E-03;  1.0015402E+03;  1.1925742E-01;  1.2509608E+03;3;  2.9138647E+01;  0.0000000E+00;  6.4820153E-01;0;  4.2062783E-01;  2.8574152E+04;  0.0000000E+00;  1.0693196E-02;  4.0000000E+04;  0.0000000E+00;  3.9477418E+04;  1.9134088E-01;  0.0000000E+00;  2.2928695E-01;  9.3829150E+03;
  1.3073153E+00;  9.9999998E-03; -7.5309394E-09;9118;  1.2908587E+00;  0.0000000E+00;  1.2707591E-07;  1.0015591E+03;  1.1925790E-01;  1.2663567E+03;3;  2.9177807E+01;  0.0000000E+00;  4.9460443E-05;0;  4.1739255E-01;  2.8575074E+04;  0.0000000E+00;  5.4453755E-12;  4.0000000E+04;  0.0000000E+00;  3.9477008E+04;  1.8910761E-01;  0.0000000E+00;  2.2828493E-01;  9.4122178E+03;
  1.3073182E+00;  9.9999998E-03;  1.0059692E-02;9119;  1.2909100E+00;  0.0000000E+00;  2.4542587E-03;  1.0015402E+03;  1.1925748E-01;  1.2509608E+03;3;  2.9138897E+01;  0.0000000E+00; -6.4818341E-01;0;  4.2062813E-01;  2.8574148E+04;  0.0000000E+00;  1.0692440E-02;  4.0000000E+04;  0.0000000E+00;  3.9477414E+04;  1.9134091E-01;  0.0000000E+00;  2.2928721E-01;  9.3829004E+03;
  1.3073386E+00;  9.9999998E-03; -3.0173978E-02;9115;  1.2913132E+00;  0.0000000E+00; -7.4805366E-03;  1.0014042E+03;  1.1925298E-01;  1.1404783E+03;3;  2.9035450E+01;  0.0000000E+00;  2.0767243E+00;0;  4.4640696E-01;  2.8567494E+04;  0.0000000E+00;  8.3192743E-02;  4.0000000E+04;  0.0000000E+00;  3.9479152E+04;  2.0955685E-01;  0.0000000E+00;  2.3685010E-01;  9.1712031E+03;
  1.3073268E+00;  9.9999998E-03; -2.0117732E-02;9116;  1.2910601E+00;  0.0000000E+00; -4.9393992E-03;  1.0014871E+03;  1.1925590E-01;  1.2078712E+03;3;  2.9075144E+01;  0.0000000E+00;  1.3297335E+00;0;  4.3031037E-01;  2.8571400E+04;  0.0000000E+00;  4.0554136E-02;  4.0000000E+04;  0.0000000E+00;  3.9478062E+04;  1.9809255E-01;  0.0000000E+00;  2.3221780E-01;  9.2990234E+03;
  1.3073268E+00;  9.9999998E-03;  2.0117717E-02;9120;  1.2910601E+00;  0.0000000E+00;  4.9396511E-03;  1.0014871E+03;  1.1925590E-01;  1.2078712E+03;3;  2.9075436E+01;  0.0000000E+00; -1.3297246E+00;0;  4.3031019E-01;  2.8571398E+04;  0.0000000E+00;  4.0552411E-02;  4.0000000E+04;  0.0000000E+00;  3.9478062E+04;  1.9809270E-01;  0.0000000E+00;  2.3221751E-01;  9.2990107E+03;
  1.3073386E+00;  9.9999998E-03;  3.0173963E-02;9121;  1.2913132E+00;  0.0000000E+00;  7.4807820E-03;  1.0014039E+03;  1.1925295E-01;  1.1402847E+03;3;  2.9035694E+01;  0.0000000E+00; -2.0767410E+00;0;  4.4640672E-01;  2.8567492E+04;  0.0000000E+00;  8.3191760E-02;  4.0000000E+04;  0.0000000E+00;  3.9479156E+04;  2.0955651E-01;  0.0000000E+00;  2.3685020E-01;  9.1712021E+03;
  1.3073503E+00;  9.9999998E-03; -4.0229052E-02;9114;  1.2916750E+00;  0.0000000E+00; -1.0093309E-02;  1.0013099E+03;  1.1924960E-01;  1.0638878E+03;3;  2.8912041E+01;  0.0000000E+00;  2.8853834E+00;0;  4.6887386E-01;  2.8562895E+04;  0.0000000E+00;  1.2889382E-01;  4.0000000E+04;  0.0000000E+00;  3.9480660E+04;  2.2604924E-01;  0.0000000E+00;  2.4282461E-01;  9.0139727E+03;
  1.3073503E+00;  9.9999998E-03;  4.0229037E-02;9122;  1.2916750E+00;  0.0000000E+00;  1.0093523E-02;  1.0013098E+03;  1.1924952E-01;  1.0638878E+03;3;  2.8912386E+01;  0.0000000E+00; -2.8853943E+00;0;  4.6887413E-01;  2.8562891E+04;  0.0000000E+00;  1.2889236E-01;  4.0000000E+04;  0.0000000E+00;  3.9480660E+04;  2.2604947E-01;  0.0000000E+00;  2.4282466E-01;  9.0139590E+03;
  1.3073587E+00;  9.9999998E-03; -5.0284524E-02;9113;  1.2921518E+00;  0.0000000E+00; -1.2772749E-02;  1.0012124E+03;  1.1924553E-01;  9.8468439E+02;3;  2.8863560E+01;  0.0000000E+00;  3.8098011E+00;0;  4.9765509E-01;  2.8558377E+04;  0.0000000E+00;  1.6605392E-01;  4.0000000E+04;  0.0000000E+00;  3.9482027E+04;  2.4798962E-01;  0.0000000E+00;  2.4966547E-01;  8.8422139E+03;
  1.3073587E+00;  9.9999998E-03;  5.0284509E-02;9123;  1.2921518E+00;  0.0000000E+00;  1.2772964E-02;  1.0012125E+03;  1.1924554E-01;  9.8478119E+02;3;  2.8863853E+01;  0.0000000E+00; -3.8097458E+00;0;  4.9765515E-01;  2.8558371E+04;  0.0000000E+00;  1.6605422E-01;  4.0000000E+04;  0.0000000E+00;  3.9482027E+04;  2.4798992E-01;  0.0000000E+00;  2.4966523E-01;  8.8422158E+03;
  1.3073592E+00;  9.9999998E-03; -6.0342189E-02;9112;  1.2927681E+00;  0.0000000E+00; -1.5523673E-02;  1.0011317E+03;  1.1924115E-01;  9.1913544E+02;3;  2.8799572E+01;  0.0000000E+00;  4.7900538E+00;0;  5.3272235E-01;  2.8554846E+04;  0.0000000E+00;  1.8295272E-01;  4.0000000E+04;  0.0000000E+00;  3.9483613E+04;  2.7592075E-01;  0.0000000E+00;  2.5680161E-01;  8.6681904E+03;
  1.3073592E+00;  9.9999998E-03;  6.0342174E-02;9124;  1.2927681E+00;  0.0000000E+00;  1.5523939E-02;  1.0011315E+03;  1.1924116E-01;  9.1903864E+02;3;  2.8799866E+01;  0.0000000E+00; -4.7899823E+00;0;  5.3272247E-01;  2.8554844E+04;  0.0000000E+00;  1.8295351E-01;  4.0000000E+04;  0.0000000E+00;  3.9483613E+04;  2.7592075E-01;  0.0000000E+00;  2.5680175E-01;  8.6682100E+03;
  1.3073473E+00;  9.9999998E-03; -7.0404612E-02;9111;  1.2935320E+00;  0.0000000E+00; -1.8362928E-02;  1.0010759E+03;  1.1923573E-01;  8.7392230E+02;3;  2.8524754E+01;  0.0000000E+00;  5.8155212E+00;0;  5.7404912E-01;  2.8552867E+04;  0.0000000E+00;  1.6946419E-01;  4.0000000E+04;  0.0000000E+00;  3.9485172E+04;  3.1046712E-01;  0.0000000E+00;  2.6358202E-01;  8.4982363E+03;
  1.3073198E+00;  9.9999998E-03; -8.0475107E-02;9110;  1.2944331E+00;  0.0000000E+00; -2.1295333E-02;  1.0010662E+03;  1.1923139E-01;  8.6598975E+02;3;  2.8116558E+01;  0.0000000E+00;  7.0528655E+00;0;  6.2157857E-01;  2.8552730E+04;  0.0000000E+00;  1.1865927E-01;  4.0000000E+04;  0.0000000E+00;  3.9486930E+04;  3.5229439E-01;  0.0000000E+00;  2.6928416E-01;  8.3303262E+03;
  1.3072780E+00;  9.9999998E-03; -9.0554707E-02;9109;  1.2955415E+00;  0.0000000E+00; -2.4367817E-02;  1.0011116E+03;  1.1922731E-01;  9.0289044E+02;3;  2.7754757E+01;  0.0000000E+00;  8.3007956E+00;0;  6.7512172E-01;  2.8555277E+04;  0.0000000E+00;  2.8576607E-02;  4.0000000E+04;  0.0000000E+00;  3.9488754E+04;  4.0199971E-01;  0.0000000E+00;  2.7312201E-01;  8.1548550E+03;
  1.3072150E+00;  9.9999998E-03; -1.0064372E-01;9108;  1.2968981E+00;  0.0000000E+00; -2.7656941E-02;  1.0012103E+03;  1.1922333E-01;  9.8307916E+02;3;  2.7241083E+01;  0.0000000E+00;  9.5841866E+00;0;  7.3453355E-01;  2.8560215E+04;  0.0000000E+00; -9.5908850E-02;  4.0000000E+04;  0.0000000E+00;  3.9491223E+04;  4.6029222E-01;  0.0000000E+00;  2.7424136E-01;  7.9630225E+03;
  1.3189102E+00;  9.9999998E-03; -1.0064257E-02;9175;  1.2895484E+00;  0.0000000E+00; -2.4611484E-03;  1.0010085E+03;  1.1771093E-01;  8.1615778E+02;3;  2.9917170E+01;  0.0000000E+00;  5.8047825E-01;0;  2.9158688E-01;  2.9304670E+04;  0.0000000E+00;  7.8978892E-03;  4.0000000E+04;  0.0000000E+00;  3.9469398E+04;  5.4034136E-02;  0.0000000E+00;  2.3755273E-01;  8.1474658E+03;
  1.3189071E+00;  9.9999998E-03; -7.9097804E-09;9176;  1.2894964E+00;  0.0000000E+00;  1.1981567E-07;  1.0010288E+03;  1.1771137E-01;  8.3255902E+02;3;  2.9954887E+01;  0.0000000E+00;  8.5038710E-07;0;  2.8891814E-01;  2.9305682E+04;  0.0000000E+00;  3.5262808E-12;  4.0000000E+04;  0.0000000E+00;  3.9469094E+04;  5.2241698E-02;  0.0000000E+00;  2.3667645E-01;  8.1897900E+03;
  1.3189102E+00;  9.9999998E-03;  1.0064241E-02;9177;  1.2895484E+00;  0.0000000E+00;  2.4613910E-03;  1.0010084E+03;  1.1771091E-01;  8.1606134E+02;3;  2.9917370E+01;  0.0000000E+00; -5.8043933E-01;0;  2.9158720E-01;  2.9304676E+04;  0.0000000E+00;  7.8973835E-03;  4.0000000E+04;  0.0000000E+00;  3.9469398E+04;  5.4034241E-02;  0.0000000E+00;  2.3755296E-01;  8.1474614E+03;
  1.3189186E+00;  9.9999998E-03; -2.0127306E-02;9174;  1.2897054E+00;  0.0000000E+00; -4.9515348E-03;  1.0009531E+03;  1.1770932E-01;  7.7129590E+02;3;  2.9862930E+01;  0.0000000E+00;  1.2326819E+00;0;  2.9958740E-01;  2.9301604E+04;  0.0000000E+00;  3.0216122E-02;  4.0000000E+04;  0.0000000E+00;  3.9470461E+04;  5.9468988E-02;  0.0000000E+00;  2.4011841E-01;  8.0257168E+03;
  1.3189186E+00;  9.9999998E-03;  2.0127289E-02;9178;  1.2897053E+00;  0.0000000E+00;  4.9517774E-03;  1.0009531E+03;  1.1770961E-01;  7.7129590E+02;3;  2.9862976E+01;  0.0000000E+00; -1.2326310E+00;0;  2.9958713E-01;  2.9301604E+04;  0.0000000E+00;  3.0214969E-02;  4.0000000E+04;  0.0000000E+00;  3.9470461E+04;  5.9468787E-02;  0.0000000E+00;  2.4011834E-01;  8.0257300E+03;
  1.3189309E+00;  9.9999998E-03; -3.0189319E-02;9173;  1.2899710E+00;  0.0000000E+00; -7.5000753E-03;  1.0008761E+03;  1.1770681E-01;  7.0897180E+02;3;  2.9809809E+01;  0.0000000E+00;  1.9019010E+00;0;  3.1288493E-01;  2.9297152E+04;  0.0000000E+00;  6.2961228E-02;  4.0000000E+04;  0.0000000E+00;  3.9472332E+04;  6.8701655E-02;  0.0000000E+00;  2.4418329E-01;  7.8386406E+03;
  1.3189310E+00;  9.9999998E-03;  3.0189302E-02;9179;  1.2899710E+00;  0.0000000E+00;  7.5003132E-03;  1.0008762E+03;  1.1770680E-01;  7.0906830E+02;3;  2.9809973E+01;  0.0000000E+00; -1.9018815E+00;0;  3.1288505E-01;  2.9297152E+04;  0.0000000E+00;  6.2959760E-02;  4.0000000E+04;  0.0000000E+00;  3.9472328E+04;  6.8701603E-02;  0.0000000E+00;  2.4418344E-01;  7.8386465E+03;
  1.3189431E+00;  9.9999998E-03; -4.0250245E-02;9172;  1.2903578E+00;  0.0000000E+00; -1.0128374E-02;  1.0007899E+03;  1.1770405E-01;  6.3922003E+02;3;  2.9710249E+01;  0.0000000E+00;  2.6176524E+00;0;  3.3145136E-01;  2.9292084E+04;  0.0000000E+00;  9.9931359E-02;  4.0000000E+04;  0.0000000E+00;  3.9474559E+04;  8.2009532E-02;  0.0000000E+00;  2.4944183E-01;  7.6075674E+03;
  1.3189431E+00;  9.9999998E-03;  4.0250231E-02;9180;  1.2903578E+00;  0.0000000E+00;  1.0128641E-02;  1.0007899E+03;  1.1770411E-01;  6.3922003E+02;3;  2.9710360E+01;  0.0000000E+00; -2.6176119E+00;0;  3.3145148E-01;  2.9292084E+04;  0.0000000E+00;  9.9929325E-02;  4.0000000E+04;  0.0000000E+00;  3.9474555E+04;  8.2009546E-02;  0.0000000E+00;  2.4944194E-01;  7.6075879E+03;
  1.3189534E+00;  9.9999998E-03; -5.0311569E-02;9171;  1.2908776E+00;  0.0000000E+00; -1.2853660E-02;  1.0006958E+03;  1.1769984E-01;  5.6310211E+02;3;  2.9573008E+01;  0.0000000E+00;  3.3711424E+00;0;  3.5523087E-01;  2.9287096E+04;  0.0000000E+00;  1.3342415E-01;  4.0000000E+04;  0.0000000E+00;  3.9476844E+04;  9.9744432E-02;  0.0000000E+00;  2.5548643E-01;  7.3572363E+03;
  1.3189534E+00;  9.9999998E-03;  5.0311554E-02;9181;  1.2908776E+00;  0.0000000E+00;  1.2853919E-02;  1.0006958E+03;  1.1769984E-01;  5.6310211E+02;3;  2.9572044E+01;  0.0000000E+00; -3.3710647E+00;0;  3.5523075E-01;  2.9287100E+04;  0.0000000E+00;  1.3342278E-01;  4.0000000E+04;  0.0000000E+00;  3.9476848E+04;  9.9744484E-02;  0.0000000E+00;  2.5548628E-01;  7.3572446E+03;
  1.3189563E+00;  9.9999998E-03; -6.0374714E-02;9170;  1.2915365E+00;  0.0000000E+00; -1.5670996E-02;  1.0006238E+03;  1.1769549E-01;  5.0483304E+02;3;  2.9379004E+01;  0.0000000E+00;  4.1878252E+00;0;  3.8419509E-01;  2.9283328E+04;  0.0000000E+00;  1.5501401E-01;  4.0000000E+04;  0.0000000E+00;  3.9479199E+04;  1.2237512E-01;  0.0000000E+00;  2.6181999E-01;  7.1122021E+03;
  1.3189563E+00;  9.9999998E-03;  6.0374696E-02;9182;  1.2915365E+00;  0.0000000E+00;  1.5671236E-02;  1.0006237E+03;  1.1769561E-01;  5.0473657E+02;3;  2.9379400E+01;  0.0000000E+00; -4.1878128E+00;0;  3.8419503E-01;  2.9283332E+04;  0.0000000E+00;  1.5501432E-01;  4.0000000E+04;  0.0000000E+00;  3.9479199E+04;  1.2237497E-01;  0.0000000E+00;  2.6182005E-01;  7.1121953E+03;
  1.3189483E+00;  9.9999998E-03; -7.0441328E-02;9169;  1.2923659E+00;  0.0000000E+00; -1.8593740E-02;  1.0005897E+03;  1.1769224E-01;  4.7714709E+02;3;  2.9300638E+01;  0.0000000E+00;  5.1022053E+00;0;  4.1829306E-01;  2.9281326E+04;  0.0000000E+00;  1.5617035E-01;  4.0000000E+04;  0.0000000E+00;  3.9481613E+04;  1.5042512E-01;  0.0000000E+00;  2.6786795E-01;  6.8913486E+03;
  1.3189257E+00;  9.9999998E-03; -8.0514573E-02;9168;  1.2934014E+00;  0.0000000E+00; -2.1657554E-02;  1.0005978E+03;  1.1768824E-01;  4.8380731E+02;3;  2.9040285E+01;  0.0000000E+00;  6.0268393E+00;0;  4.5745957E-01;  2.9281889E+04;  0.0000000E+00;  1.2913029E-01;  4.0000000E+04;  0.0000000E+00;  3.9483441E+04;  1.8447571E-01;  0.0000000E+00;  2.7298388E-01;  6.7053252E+03;
  1.3188862E+00;  9.9999998E-03; -9.0596974E-02;9167;  1.2946661E+00;  0.0000000E+00; -2.4894938E-02;  1.0006646E+03;  1.1768571E-01;  5.3783893E+02;3;  2.8733902E+01;  0.0000000E+00;  6.8913651E+00;0;  5.0155884E-01;  2.9285525E+04;  0.0000000E+00;  6.8456762E-02;  4.0000000E+04;  0.0000000E+00;  3.9485398E+04;  2.2510397E-01;  0.0000000E+00;  2.7645487E-01;  6.5567954E+03;
  1.3188304E+00;  9.9999998E-03; -1.0068856E-01;9166;  1.2962534E+00;  0.0000000E+00; -2.8387194E-02;  1.0008036E+03;  1.1768327E-01;  6.5033911E+02;3;  2.8450865E+01;  0.0000000E+00;  7.7496834E+00;0;  5.5031860E-01;  2.9292582E+04;  0.0000000E+00; -2.6761426E-02;  4.0000000E+04;  0.0000000E+00;  3.9487062E+04;  2.7280912E-01;  0.0000000E+00;  2.7750951E-01;  6.4461426E+03;
  1.3303633E+00;  9.9999998E-03; -1.0069919E-02;9232;  1.2879843E+00;  0.0000000E+00; -2.4424947E-03;  1.0004205E+03;  1.1633897E-01;  3.3892419E+02;3;  3.0626028E+01;  0.0000000E+00;  5.5883199E-01;0;  2.0556395E-01;  2.9972133E+04;  0.0000000E+00;  3.9245738E-03;  4.0000000E+04;  0.0000000E+00;  3.9459672E+04; -3.5111096E-02;  0.0000000E+00;  2.4067505E-01;  6.8325083E+03;
  1.3303604E+00;  9.9999998E-03; -8.2927691E-09;9233;  1.2879287E+00;  0.0000000E+00;  1.2064650E-07;  1.0004385E+03;  1.1633930E-01;  3.5343073E+02;3;  3.0613760E+01;  0.0000000E+00;  1.0052291E-05;0;  2.0339906E-01;  2.9973027E+04;  0.0000000E+00;  3.9749892E-12;  4.0000000E+04;  0.0000000E+00;  3.9459160E+04; -3.6550619E-02;  0.0000000E+00;  2.3994969E-01;  6.8849937E+03;
  1.3303633E+00;  9.9999998E-03;  1.0069902E-02;9234;  1.2879843E+00;  0.0000000E+00;  2.4427406E-03;  1.0004205E+03;  1.1633897E-01;  3.3892419E+02;3;  3.0626120E+01;  0.0000000E+00; -5.5880147E-01;0;  2.0556358E-01;  2.9972137E+04;  0.0000000E+00;  3.9243172E-03;  4.0000000E+04;  0.0000000E+00;  3.9459672E+04; -3.5111193E-02;  0.0000000E+00;  2.4067476E-01;  6.8325176E+03;
  1.3303847E+00;  9.9999998E-03; -3.0207520E-02;9230;  1.2884380E+00;  0.0000000E+00; -7.4740415E-03;  1.0003122E+03;  1.1633540E-01;  2.5159718E+02;3;  3.0535292E+01;  0.0000000E+00;  1.8107742E+00;0;  2.2283202E-01;  2.9965057E+04;  0.0000000E+00;  3.2529239E-02;  4.0000000E+04;  0.0000000E+00;  3.9463453E+04; -2.3343161E-02;  0.0000000E+00;  2.4617518E-01;  6.4491450E+03;
  1.3303713E+00;  9.9999998E-03; -2.0139202E-02;9231;  1.2881521E+00;  0.0000000E+00; -4.9251122E-03;  1.0003770E+03;  1.1633771E-01;  3.0376273E+02;3;  3.0602234E+01;  0.0000000E+00;  1.1655896E+00;0;  2.1205261E-01;  2.9969244E+04;  0.0000000E+00;  1.5227701E-02;  4.0000000E+04;  0.0000000E+00;  3.9461121E+04; -3.0747706E-02;  0.0000000E+00;  2.4280033E-01;  6.6813047E+03;
  1.3303713E+00;  9.9999998E-03;  2.0139186E-02;9235;  1.2881522E+00;  0.0000000E+00;  4.9253581E-03;  1.0003770E+03;  1.1633771E-01;  3.0376273E+02;3;  3.0602451E+01;  0.0000000E+00; -1.1655107E+00;0;  2.1205255E-01;  2.9969244E+04;  0.0000000E+00;  1.5226826E-02;  4.0000000E+04;  0.0000000E+00;  3.9461121E+04; -3.0747719E-02;  0.0000000E+00;  2.4280028E-01;  6.6812998E+03;
  1.3303847E+00;  9.9999998E-03;  3.0207502E-02;9236;  1.2884381E+00;  0.0000000E+00;  7.4742739E-03;  1.0003121E+03;  1.1633515E-01;  2.5150111E+02;3;  3.0535536E+01;  0.0000000E+00; -1.8107622E+00;0;  2.2283190E-01;  2.9965057E+04;  0.0000000E+00;  3.2528467E-02;  4.0000000E+04;  0.0000000E+00;  3.9463457E+04; -2.3343099E-02;  0.0000000E+00;  2.4617501E-01;  6.4491514E+03;
  1.3303998E+00;  9.9999998E-03; -4.0274918E-02;9229;  1.2888528E+00;  0.0000000E+00; -1.0106402E-02;  1.0002390E+03;  1.1633214E-01;  1.9251538E+02;3;  3.0468563E+01;  0.0000000E+00;  2.4708889E+00;0;  2.3787606E-01;  2.9960473E+04;  0.0000000E+00;  5.3609215E-02;  4.0000000E+04;  0.0000000E+00;  3.9466246E+04; -1.2674206E-02;  0.0000000E+00;  2.5055027E-01;  6.1644731E+03;
  1.3303998E+00;  9.9999998E-03;  4.0274899E-02;9237;  1.2888528E+00;  0.0000000E+00;  1.0106629E-02;  1.0002388E+03;  1.1633243E-01;  1.9241931E+02;3;  3.0468882E+01;  0.0000000E+00; -2.4709184E+00;0;  2.3787610E-01;  2.9960473E+04;  0.0000000E+00;  5.3606682E-02;  4.0000000E+04;  0.0000000E+00;  3.9466254E+04; -1.2674109E-02;  0.0000000E+00;  2.5055021E-01;  6.1644702E+03;
  1.3304125E+00;  9.9999998E-03; -5.0342459E-02;9228;  1.2894127E+00;  0.0000000E+00; -1.2829757E-02;  1.0001791E+03;  1.1632900E-01;  1.4428973E+02;3;  3.0330292E+01;  0.0000000E+00;  3.1040709E+00;0;  2.5715035E-01;  2.9956137E+04;  0.0000000E+00;  7.5363353E-02;  4.0000000E+04;  0.0000000E+00;  3.9469438E+04;  1.5628033E-03;  0.0000000E+00;  2.5558755E-01;  5.8618994E+03;
  1.3304125E+00;  9.9999998E-03;  5.0342441E-02;9238;  1.2894129E+00;  0.0000000E+00;  1.2829958E-02;  1.0001791E+03;  1.1632900E-01;  1.4428973E+02;3;  3.0330475E+01;  0.0000000E+00; -3.1040604E+00;0;  2.5715044E-01;  2.9956135E+04;  0.0000000E+00;  7.5363167E-02;  4.0000000E+04;  0.0000000E+00;  3.9469438E+04;  1.5628078E-03;  0.0000000E+00;  2.5558764E-01;  5.8618916E+03;
  1.3304189E+00;  9.9999998E-03; -6.0411360E-02;9227;  1.2901342E+00;  0.0000000E+00; -1.5670545E-02;  1.0001369E+03;  1.1632572E-01;  1.1028242E+02;3;  3.0101843E+01;  0.0000000E+00;  3.7875521E+00;0;  2.8061128E-01;  2.9953400E+04;  0.0000000E+00;  9.3513995E-02;  4.0000000E+04;  0.0000000E+00;  3.9472402E+04;  1.9741889E-02;  0.0000000E+00;  2.6086938E-01;  5.5772656E+03;
  1.3304189E+00;  9.9999998E-03;  6.0411341E-02;9239;  1.2901342E+00;  0.0000000E+00;  1.5670748E-02;  1.0001370E+03;  1.1632609E-01;  1.1037849E+02;3;  3.0102070E+01;  0.0000000E+00; -3.7875342E+00;0;  2.8061116E-01;  2.9953402E+04;  0.0000000E+00;  9.3514636E-02;  4.0000000E+04;  0.0000000E+00;  3.9472402E+04;  1.9741908E-02;  0.0000000E+00;  2.6086923E-01;  5.5772603E+03;
  1.3304164E+00;  9.9999998E-03; -7.0482783E-02;9226;  1.2910360E+00;  0.0000000E+00; -1.8629445E-02;  1.0001340E+03;  1.1632267E-01;  1.0797697E+02;3;  2.9896547E+01;  0.0000000E+00;  4.5339494E+00;0;  3.0818981E-01;  2.9952990E+04;  0.0000000E+00;  1.0227890E-01;  4.0000000E+04;  0.0000000E+00;  3.9474973E+04;  4.2285085E-02;  0.0000000E+00;  2.6590472E-01;  5.3417246E+03;
  1.3304031E+00;  9.9999998E-03; -8.0558062E-02;9225;  1.2921802E+00;  0.0000000E+00; -2.1744959E-02;  1.0001824E+03;  1.1631913E-01;  1.4698012E+02;3;  2.9833406E+01;  0.0000000E+00;  5.1820202E+00;0;  3.3978304E-01;  2.9955746E+04;  0.0000000E+00;  9.4568953E-02;  4.0000000E+04;  0.0000000E+00;  3.9476949E+04;  6.9645248E-02;  0.0000000E+00;  2.7013779E-01;  5.1782729E+03;
  1.3303350E+00;  9.9999998E-03; -1.0072269E-01;9223;  1.2953339E+00;  0.0000000E+00; -2.8626246E-02;  1.0004820E+03;  1.1631566E-01;  3.8840305E+02;3;  2.9398333E+01;  0.0000000E+00;  6.3848619E+00;0;  4.1431138E-01;  2.9973457E+04;  0.0000000E+00; -3.0504614E-03;  4.0000000E+04;  0.0000000E+00;  3.9478676E+04;  1.4061648E-01;  0.0000000E+00;  2.7369490E-01;  5.1216938E+03;
  1.3303756E+00;  9.9999998E-03; -9.0638079E-02;9224;  1.2935821E+00;  0.0000000E+00; -2.5063116E-02;  1.0002935E+03;  1.1631679E-01;  2.3651569E+02;3;  2.9497402E+01;  0.0000000E+00;  5.8496480E+00;0;  3.7524348E-01;  2.9962445E+04;  0.0000000E+00;  6.2848479E-02;  4.0000000E+04;  0.0000000E+00;  3.9478332E+04;  1.0228938E-01;  0.0000000E+00;  2.7295411E-01;  5.1017583E+03;
  1.3417336E+00;  9.9999998E-03; -1.0074408E-01;9280;  1.2942855E+00;  0.0000000E+00; -2.8415436E-02;  1.0002653E+03;  1.1510440E-01;  2.1270567E+02;3;  2.9937435E+01;  0.0000000E+00;  5.3161826E+00;0;  3.1443188E-01;  3.0605789E+04;  0.0000000E+00; -3.3321135E-02;  4.0000000E+04;  0.0000000E+00;  3.9464590E+04;  5.0394960E-02;  0.0000000E+00;  2.6403692E-01;  4.1094048E+03;
  1.3416947E+00;  9.9999998E-03; -1.0075160E-02;9289;  1.2862445E+00;  0.0000000E+00; -2.4288702E-03;  9.9981598E+02;  1.1512782E-01; -1.4755827E+02;3;  3.1171171E+01;  0.0000000E+00;  5.9667176E-01;0;  1.4840868E-01;  3.0578424E+04;  0.0000000E+00; -2.8843142E-04;  4.0000000E+04;  0.0000000E+00;  3.9447730E+04; -9.0875730E-02;  0.0000000E+00;  2.3928441E-01;  5.4457568E+03;
  1.3416919E+00;  9.9999998E-03; -8.5056451E-09;9290;  1.2861863E+00;  0.0000000E+00;  1.1906615E-07;  9.9982391E+02;  1.1512800E-01; -1.4120107E+02;3;  3.1179829E+01;  0.0000000E+00; -1.4098240E-05;0;  1.4667766E-01;  3.0579143E+04;  0.0000000E+00;  1.7681329E-12;  4.0000000E+04;  0.0000000E+00;  3.9447090E+04; -9.2049658E-02;  0.0000000E+00;  2.3872732E-01;  5.5027056E+03;
  1.3416947E+00;  9.9999998E-03;  1.0075144E-02;9291;  1.2862445E+00;  0.0000000E+00;  2.4291081E-03;  9.9981604E+02;  1.1512781E-01; -1.4751047E+02;3;  3.1171120E+01;  0.0000000E+00; -5.9664512E-01;0;  1.4840865E-01;  3.0578430E+04;  0.0000000E+00; -2.8847673E-04;  4.0000000E+04;  0.0000000E+00;  3.9447734E+04; -9.0875812E-02;  0.0000000E+00;  2.3928446E-01;  5.4457354E+03;
  1.3417180E+00;  9.9999998E-03; -3.0224521E-02;9287;  1.2867275E+00;  0.0000000E+00; -7.4457414E-03;  9.9975330E+02;  1.1512481E-01; -1.9784161E+02;3;  3.1195267E+01;  0.0000000E+00;  1.7277479E+00;0;  1.6221631E-01;  3.0573227E+04;  0.0000000E+00; -6.4928015E-04;  4.0000000E+04;  0.0000000E+00;  3.9452137E+04; -8.1301503E-02;  0.0000000E+00;  2.4351782E-01;  5.0330005E+03;
  1.3417038E+00;  9.9999998E-03; -2.0150108E-02;9288;  1.2864206E+00;  0.0000000E+00; -4.9041887E-03;  9.9978845E+02;  1.1512651E-01; -1.6964110E+02;3;  3.1183046E+01;  0.0000000E+00;  1.1911174E+00;0;  1.5359345E-01;  3.0576264E+04;  0.0000000E+00; -8.2796608E-04;  4.0000000E+04;  0.0000000E+00;  3.9449480E+04; -8.7325424E-02;  0.0000000E+00;  2.4091887E-01;  5.2819360E+03;
  1.3417038E+00;  9.9999998E-03;  2.0150091E-02;9292;  1.2864207E+00;  0.0000000E+00;  4.9044448E-03;  9.9978839E+02;  1.1512653E-01; -1.6968889E+02;3;  3.1181313E+01;  0.0000000E+00; -1.1910590E+00;0;  1.5359375E-01;  3.0576264E+04;  0.0000000E+00; -8.2800555E-04;  4.0000000E+04;  0.0000000E+00;  3.9449477E+04; -8.7325402E-02;  0.0000000E+00;  2.4091916E-01;  5.2819204E+03;
  1.3417180E+00;  9.9999998E-03;  3.0224502E-02;9293;  1.2867277E+00;  0.0000000E+00;  7.4459962E-03;  9.9975336E+02;  1.1512475E-01; -1.9779381E+02;3;  3.1195539E+01;  0.0000000E+00; -1.7277116E+00;0;  1.6221623E-01;  3.0573236E+04;  0.0000000E+00; -6.4963312E-04;  4.0000000E+04;  0.0000000E+00;  3.9452137E+04; -8.1301510E-02;  0.0000000E+00;  2.4351774E-01;  5.0329941E+03;
  1.3417560E+00;  9.9999998E-03; -9.0670586E-02;9281;  1.2923704E+00;  0.0000000E+00; -2.4906592E-02;  1.0000282E+03;  1.1510681E-01;  2.2656504E+01;3;  3.0274363E+01;  0.0000000E+00;  4.9593406E+00;0;  2.8355518E-01;  3.0589404E+04;  0.0000000E+00;  1.5554644E-02;  4.0000000E+04;  0.0000000E+00;  3.9465781E+04;  1.9819956E-02;  0.0000000E+00;  2.6373523E-01;  3.9175281E+03;
  1.3417341E+00;  9.9999998E-03; -4.0298190E-02;9286;  1.2871764E+00;  0.0000000E+00; -1.0052403E-02;  9.9971741E+02;  1.1512195E-01; -2.2661514E+02;3;  3.1190742E+01;  0.0000000E+00;  2.3227425E+00;0;  1.7425150E-01;  3.0570143E+04;  0.0000000E+00;  1.6756745E-03;  4.0000000E+04;  0.0000000E+00;  3.9455414E+04; -7.2637618E-02;  0.0000000E+00;  2.4688911E-01;  4.7330439E+03;
  1.3417341E+00;  9.9999998E-03;  4.0298171E-02;9294;  1.2871764E+00;  0.0000000E+00;  1.0052641E-02;  9.9971716E+02;  1.1512183E-01; -2.2680634E+02;3;  3.1191236E+01;  0.0000000E+00; -2.3226960E+00;0;  1.7425135E-01;  3.0570143E+04;  0.0000000E+00;  1.6742850E-03;  4.0000000E+04;  0.0000000E+00;  3.9455414E+04; -7.2637670E-02;  0.0000000E+00;  2.4688902E-01;  4.7330557E+03;
  1.3417486E+00;  9.9999998E-03; -5.0371617E-02;9285;  1.2877902E+00;  0.0000000E+00; -1.2750093E-02;  9.9969061E+02;  1.1511870E-01; -2.4812302E+02;3;  3.1051575E+01;  0.0000000E+00;  2.8665175E+00;0;  1.8966191E-01;  3.0568043E+04;  0.0000000E+00;  7.3830206E-03;  4.0000000E+04;  0.0000000E+00;  3.9458969E+04; -6.1103567E-02;  0.0000000E+00;  2.5076547E-01;  4.4242607E+03;
  1.3417486E+00;  9.9999998E-03;  5.0371598E-02;9295;  1.2877902E+00;  0.0000000E+00;  1.2750341E-02;  9.9969061E+02;  1.1511850E-01; -2.4812302E+02;3;  3.1051874E+01;  0.0000000E+00; -2.8665478E+00;0;  1.8966188E-01;  3.0568039E+04;  0.0000000E+00;  7.3809982E-03;  4.0000000E+04;  0.0000000E+00;  3.9458973E+04; -6.1103534E-02;  0.0000000E+00;  2.5076541E-01;  4.4242446E+03;
  1.3417600E+00;  9.9999998E-03; -6.0445670E-02;9284;  1.2885836E+00;  0.0000000E+00; -1.5556066E-02;  9.9969879E+02;  1.1511562E-01; -2.4152551E+02;3;  3.0875370E+01;  0.0000000E+00;  3.4467916E+00;0;  2.0839021E-01;  3.0567943E+04;  0.0000000E+00;  1.6405115E-02;  4.0000000E+04;  0.0000000E+00;  3.9461961E+04; -4.6420604E-02;  0.0000000E+00;  2.5481081E-01;  4.1511167E+03;
  1.3417600E+00;  9.9999998E-03;  6.0445651E-02;9296;  1.2885836E+00;  0.0000000E+00;  1.5556325E-02;  9.9969885E+02;  1.1511558E-01; -2.4147772E+02;3;  3.0874134E+01;  0.0000000E+00; -3.4466972E+00;0;  2.0838988E-01;  3.0567943E+04;  0.0000000E+00;  1.6403928E-02;  4.0000000E+04;  0.0000000E+00;  3.9461965E+04; -4.6420600E-02;  0.0000000E+00;  2.5481048E-01;  4.1511245E+03;
  1.3417667E+00;  9.9999998E-03; -7.0520192E-02;9283;  1.2895832E+00;  0.0000000E+00; -1.8498162E-02;  9.9974878E+02;  1.1511251E-01; -2.0146980E+02;3;  3.0636446E+01;  0.0000000E+00;  3.9907439E+00;0;  2.3035721E-01;  3.0570975E+04;  0.0000000E+00;  2.6261007E-02;  4.0000000E+04;  0.0000000E+00;  3.9464434E+04; -2.8269868E-02;  0.0000000E+00;  2.5862709E-01;  3.9548333E+03;
  1.3417660E+00;  9.9999998E-03; -8.0595292E-02;9282;  1.2908196E+00;  0.0000000E+00; -2.1607967E-02;  9.9985162E+02;  1.1510950E-01; -1.1896999E+02;3;  3.0358591E+01;  0.0000000E+00;  4.5291781E+00;0;  2.5546148E-01;  3.0577852E+04;  0.0000000E+00;  3.0679611E-02;  4.0000000E+04;  0.0000000E+00;  3.9465770E+04; -6.3038077E-03;  0.0000000E+00;  2.6176530E-01;  3.8691990E+03;
  1.3529143E+00;  9.9999998E-03; -8.6826173E-09;9346;  1.2842785E+00;  0.0000000E+00;  1.2049533E-07;  9.9923279E+02;  1.1406153E-01; -6.1183105E+02;3;  3.1981730E+01;  0.0000000E+00; -6.9608031E-06;0;  1.0797140E-01;  3.1128336E+04;  0.0000000E+00; -5.4209735E-13;  4.0000000E+04;  0.0000000E+00;  3.9432496E+04; -1.2548749E-01;  0.0000000E+00;  2.3345889E-01;  4.0940667E+03;
  1.3529319E+00;  9.9999998E-03; -2.0158587E-02;9344;  1.2845240E+00;  0.0000000E+00; -4.8933537E-03;  9.9922375E+02;  1.1405983E-01; -6.1900256E+02;3;  3.1958117E+01;  0.0000000E+00;  1.1372906E+00;0;  1.1344987E-01;  3.1127061E+04;  0.0000000E+00; -1.5004507E-02;  4.0000000E+04;  0.0000000E+00;  3.9435020E+04; -1.2151453E-01;  0.0000000E+00;  2.3496440E-01;  3.8851797E+03;
  1.3529192E+00;  9.9999998E-03; -1.0079576E-02;9345;  1.2843369E+00;  0.0000000E+00; -2.4443055E-03;  9.9923071E+02;  1.1406112E-01; -6.1344556E+02;3;  3.1996792E+01;  0.0000000E+00;  6.2816179E-01;0;  1.0934083E-01;  3.1127973E+04;  0.0000000E+00; -3.9899745E-03;  4.0000000E+04;  0.0000000E+00;  3.9433254E+04; -1.2450051E-01;  0.0000000E+00;  2.3384134E-01;  4.0396831E+03;
  1.3529192E+00;  9.9999998E-03;  1.0079559E-02;9347;  1.2843369E+00;  0.0000000E+00;  2.4445567E-03;  9.9923077E+02;  1.1406112E-01; -6.1339801E+02;3;  3.1996815E+01;  0.0000000E+00; -6.2816572E-01;0;  1.0934080E-01;  3.1127977E+04;  0.0000000E+00; -3.9898851E-03;  4.0000000E+04;  0.0000000E+00;  3.9433250E+04; -1.2450056E-01;  0.0000000E+00;  2.3384136E-01;  4.0396819E+03;
  1.3529319E+00;  9.9999998E-03;  2.0158570E-02;9348;  1.2845240E+00;  0.0000000E+00;  4.8936093E-03;  9.9922382E+02;  1.1405977E-01; -6.1895508E+02;3;  3.1958231E+01;  0.0000000E+00; -1.1372384E+00;0;  1.1344989E-01;  3.1127061E+04;  0.0000000E+00; -1.5004472E-02;  4.0000000E+04;  0.0000000E+00;  3.9435020E+04; -1.2151455E-01;  0.0000000E+00;  2.3496445E-01;  3.8851704E+03;
  1.3529495E+00;  9.9999998E-03; -3.0237239E-02;9343;  1.2848573E+00;  0.0000000E+00; -7.3789158E-03;  9.9922522E+02;  1.1405822E-01; -6.1785590E+02;3;  3.1901066E+01;  0.0000000E+00;  1.6098752E+00;0;  1.2028849E-01;  3.1126211E+04;  0.0000000E+00; -3.0244984E-02;  4.0000000E+04;  0.0000000E+00;  3.9437715E+04; -1.1646052E-01;  0.0000000E+00;  2.3674901E-01;  3.6551528E+03;
  1.3529494E+00;  9.9999998E-03;  3.0237220E-02;9349;  1.2848574E+00;  0.0000000E+00;  7.3791705E-03;  9.9922510E+02;  1.1405824E-01; -6.1795099E+02;3;  3.1899429E+01;  0.0000000E+00; -1.6097981E+00;0;  1.2028825E-01;  3.1126213E+04;  0.0000000E+00; -3.0245315E-02;  4.0000000E+04;  0.0000000E+00;  3.9437715E+04; -1.1646068E-01;  0.0000000E+00;  2.3674893E-01;  3.6551460E+03;
  1.3529691E+00;  9.9999998E-03; -4.0315218E-02;9342;  1.2853520E+00;  0.0000000E+00; -9.9316025E-03;  9.9923755E+02;  1.1405568E-01; -6.0801056E+02;3;  3.1810747E+01;  0.0000000E+00;  2.0840597E+00;0;  1.2983078E-01;  3.1125979E+04;  0.0000000E+00; -4.5460299E-02;  4.0000000E+04;  0.0000000E+00;  3.9440977E+04; -1.0922617E-01;  0.0000000E+00;  2.3905694E-01;  3.3874014E+03;
  1.3529691E+00;  9.9999998E-03;  4.0315200E-02;9350;  1.2853520E+00;  0.0000000E+00;  9.9318586E-03;  9.9923755E+02;  1.1405568E-01; -6.0801056E+02;3;  3.1811182E+01;  0.0000000E+00; -2.0840564E+00;0;  1.2983035E-01;  3.1125979E+04;  0.0000000E+00; -4.5461535E-02;  4.0000000E+04;  0.0000000E+00;  3.9440977E+04; -1.0922609E-01;  0.0000000E+00;  2.3905644E-01;  3.3873999E+03;
  1.3529903E+00;  9.9999998E-03; -5.0392449E-02;9341;  1.2860293E+00;  0.0000000E+00; -1.2575272E-02;  9.9927222E+02;  1.1405335E-01; -5.8034113E+02;3;  3.1758974E+01;  0.0000000E+00;  2.5795105E+00;0;  1.4202943E-01;  3.1127477E+04;  0.0000000E+00; -5.5968605E-02;  4.0000000E+04;  0.0000000E+00;  3.9444180E+04; -9.9658869E-02;  0.0000000E+00;  2.4168830E-01;  3.1282825E+03;
  1.3529903E+00;  9.9999998E-03;  5.0392430E-02;9351;  1.2860293E+00;  0.0000000E+00;  1.2575506E-02;  9.9927228E+02;  1.1405337E-01; -5.8029364E+02;3;  3.1759342E+01;  0.0000000E+00; -2.5795417E+00;0;  1.4202908E-01;  3.1127482E+04;  0.0000000E+00; -5.5968832E-02;  4.0000000E+04;  0.0000000E+00;  3.9444180E+04; -9.9659011E-02;  0.0000000E+00;  2.4168809E-01;  3.1282710E+03;
  1.3530120E+00;  9.9999998E-03; -6.0468890E-02;9340;  1.2869055E+00;  0.0000000E+00; -1.5323198E-02;  9.9934137E+02;  1.1404979E-01; -5.2520026E+02;3;  3.1579075E+01;  0.0000000E+00;  3.0723009E+00;0;  1.5682971E-01;  3.1131689E+04;  0.0000000E+00; -5.8413621E-02;  4.0000000E+04;  0.0000000E+00;  3.9446809E+04; -8.7563276E-02;  0.0000000E+00;  2.4439299E-01;  2.9275427E+03;
  1.3530120E+00;  9.9999998E-03;  6.0468871E-02;9352;  1.2869056E+00;  0.0000000E+00;  1.5323446E-02;  9.9934131E+02;  1.1404964E-01; -5.2524774E+02;3;  3.1579569E+01;  0.0000000E+00; -3.0723133E+00;0;  1.5682951E-01;  3.1131689E+04;  0.0000000E+00; -5.8417510E-02;  4.0000000E+04;  0.0000000E+00;  3.9446801E+04; -8.7563284E-02;  0.0000000E+00;  2.4439278E-01;  2.9275176E+03;
  1.3530315E+00;  9.9999998E-03; -7.0543908E-02;9339;  1.2880076E+00;  0.0000000E+00; -1.8203428E-02;  9.9946002E+02;  1.1404616E-01; -4.3056458E+02;3;  3.1325548E+01;  0.0000000E+00;  3.5055032E+00;0;  1.7416844E-01;  3.1140000E+04;  0.0000000E+00; -5.4856006E-02;  4.0000000E+04;  0.0000000E+00;  3.9448332E+04; -7.2710238E-02;  0.0000000E+00;  2.4687868E-01;  2.8323901E+03;
  1.3530463E+00;  9.9999998E-03; -8.0616437E-02;9338;  1.2893708E+00;  0.0000000E+00; -2.1231949E-02;  9.9963684E+02;  1.1404309E-01; -2.8959146E+02;3;  3.1040382E+01;  0.0000000E+00;  3.9311960E+00;0;  1.9396774E-01;  3.1152672E+04;  0.0000000E+00; -5.6451235E-02;  4.0000000E+04;  0.0000000E+00;  3.9448488E+04; -5.4857012E-02;  0.0000000E+00;  2.4882476E-01;  2.8803254E+03;
  1.3530515E+00;  9.9999998E-03; -9.0684287E-02;9337;  1.2910552E+00;  0.0000000E+00; -2.4403639E-02;  9.9987427E+02;  1.1404038E-01; -1.0023743E+02;3;  3.0926790E+01;  0.0000000E+00;  4.2806430E+00;0;  2.1612133E-01;  3.1170221E+04;  0.0000000E+00; -7.3652290E-02;  4.0000000E+04;  0.0000000E+00;  3.9446707E+04; -3.3790555E-02;  0.0000000E+00;  2.4991189E-01;  3.0925254E+03;
  1.3530442E+00;  9.9999998E-03; -1.0074563E-01;9336;  1.2931345E+00;  0.0000000E+00; -2.7734205E-02;  1.0001603E+03;  1.1403736E-01;  1.2785194E+02;3;  3.0689529E+01;  0.0000000E+00;  4.4236817E+00;0;  2.4043889E-01;  3.1192035E+04;  0.0000000E+00; -9.7477861E-02;  4.0000000E+04;  0.0000000E+00;  3.9443301E+04; -9.4294082E-03;  0.0000000E+00;  2.4986830E-01;  3.4661729E+03;
  1.3640651E+00;  9.9999998E-03; -1.0082610E-02;9400;  1.2822599E+00;  0.0000000E+00; -2.4161802E-03;  9.9874597E+02;  1.1312745E-01; -9.9356445E+02;3;  3.2816399E+01;  0.0000000E+00;  4.3073422E-01;0;  8.0702394E-02;  3.1628105E+04;  0.0000000E+00; -6.7847366E-03;  4.0000000E+04;  0.0000000E+00;  3.9415008E+04; -1.4397831E-01;  0.0000000E+00;  2.2468071E-01;  2.7064307E+03;
  1.3640572E+00;  9.9999998E-03; -8.7629228E-09;9401;  1.2821865E+00;  0.0000000E+00;  1.2190991E-07;  9.9873956E+02;  1.1312763E-01; -9.9866974E+02;3;  3.2863476E+01;  0.0000000E+00; -1.4130561E-05;0;  7.9619139E-02;  3.1627746E+04;  0.0000000E+00; -4.2247330E-12;  4.0000000E+04;  0.0000000E+00;  3.9414625E+04; -1.4484951E-01;  0.0000000E+00;  2.2446865E-01;  2.7503740E+03;
  1.3640651E+00;  9.9999998E-03;  1.0082592E-02;9402;  1.2822599E+00;  0.0000000E+00;  2.4164212E-03;  9.9874597E+02;  1.1312745E-01; -9.9356445E+02;3;  3.2818455E+01;  0.0000000E+00; -4.3084398E-01;0;  8.0702543E-02;  3.1628102E+04;  0.0000000E+00; -6.7841103E-03;  4.0000000E+04;  0.0000000E+00;  3.9415004E+04; -1.4397815E-01;  0.0000000E+00;  2.2468069E-01;  2.7064302E+03;
  1.3640842E+00;  9.9999998E-03; -2.0164134E-02;9399;  1.2824746E+00;  0.0000000E+00; -4.8182057E-03;  9.9876001E+02;  1.1312524E-01; -9.8245490E+02;3;  3.2751434E+01;  0.0000000E+00;  9.6106398E-01;0;  8.3952576E-02;  3.1628912E+04;  0.0000000E+00; -2.5755115E-02;  4.0000000E+04;  0.0000000E+00;  3.9416695E+04; -1.4134933E-01;  0.0000000E+00;  2.2530191E-01;  2.5841013E+03;
  1.3640842E+00;  9.9999998E-03;  2.0164117E-02;9403;  1.2824746E+00;  0.0000000E+00;  4.8184502E-03;  9.9876013E+02;  1.1312513E-01; -9.8236047E+02;3;  3.2751602E+01;  0.0000000E+00; -9.6106356E-01;0;  8.3952591E-02;  3.1628918E+04;  0.0000000E+00; -2.5755052E-02;  4.0000000E+04;  0.0000000E+00;  3.9416695E+04; -1.4134938E-01;  0.0000000E+00;  2.2530197E-01;  2.5840999E+03;
  1.3641104E+00;  9.9999998E-03; -3.0245233E-02;9398;  1.2828481E+00;  0.0000000E+00; -7.2344407E-03;  9.9879803E+02;  1.1312293E-01; -9.5231024E+02;3;  3.2672897E+01;  0.0000000E+00;  1.4224921E+00;0;  8.9356661E-02;  3.1631041E+04;  0.0000000E+00; -5.2943397E-02;  4.0000000E+04;  0.0000000E+00;  3.9419156E+04; -1.3692357E-01;  0.0000000E+00;  2.2628023E-01;  2.4095176E+03;
  1.3641104E+00;  9.9999998E-03;  3.0245215E-02;9404;  1.2828481E+00;  0.0000000E+00;  7.2346870E-03;  9.9879803E+02;  1.1312263E-01; -9.5231024E+02;3;  3.2673168E+01;  0.0000000E+00; -1.4224764E+00;0;  8.9356452E-02;  3.1631037E+04;  0.0000000E+00; -5.2942865E-02;  4.0000000E+04;  0.0000000E+00;  3.9419160E+04; -1.3692378E-01;  0.0000000E+00;  2.2628023E-01;  2.4094993E+03;
  1.3641417E+00;  9.9999998E-03; -4.0325876E-02;9397;  1.2833987E+00;  0.0000000E+00; -9.7090555E-03;  9.9886102E+02;  1.1311963E-01; -9.0237720E+02;3;  3.2562080E+01;  0.0000000E+00;  1.8456874E+00;0;  9.6883580E-02;  3.1634875E+04;  0.0000000E+00; -8.2604073E-02;  4.0000000E+04;  0.0000000E+00;  3.9421617E+04; -1.3063927E-01;  0.0000000E+00;  2.2752285E-01;  2.2215488E+03;
  1.3641417E+00;  9.9999998E-03;  4.0325858E-02;9405;  1.2833987E+00;  0.0000000E+00;  9.7093116E-03;  9.9886096E+02;  1.1311965E-01; -9.0242444E+02;3;  3.2562241E+01;  0.0000000E+00; -1.8456410E+00;0;  9.6883297E-02;  3.1634871E+04;  0.0000000E+00; -8.2604140E-02;  4.0000000E+04;  0.0000000E+00;  3.9421617E+04; -1.3063943E-01;  0.0000000E+00;  2.2752273E-01;  2.2215425E+03;
  1.3641779E+00;  9.9999998E-03; -5.0404768E-02;9396;  1.2841461E+00;  0.0000000E+00; -1.2264476E-02;  9.9895685E+02;  1.1311584E-01; -8.2642450E+02;3;  3.2428341E+01;  0.0000000E+00;  2.2588868E+00;0;  1.0649004E-01;  3.1641467E+04;  0.0000000E+00; -1.0904403E-01;  4.0000000E+04;  0.0000000E+00;  3.9423996E+04; -1.2240709E-01;  0.0000000E+00;  2.2889712E-01;  2.0673508E+03;
  1.3641779E+00;  9.9999998E-03;  5.0404750E-02;9406;  1.2841461E+00;  0.0000000E+00;  1.2264719E-02;  9.9895679E+02;  1.1311581E-01; -8.2647174E+02;3;  3.2428692E+01;  0.0000000E+00; -2.2588723E+00;0;  1.0648983E-01;  3.1641463E+04;  0.0000000E+00; -1.0904295E-01;  4.0000000E+04;  0.0000000E+00;  3.9423996E+04; -1.2240721E-01;  0.0000000E+00;  2.2889704E-01;  2.0673506E+03;
  1.3642163E+00;  9.9999998E-03; -6.0481481E-02;9395;  1.2851156E+00;  0.0000000E+00; -1.4922870E-02;  9.9910309E+02;  1.1311239E-01; -7.1057300E+02;3;  3.2295143E+01;  0.0000000E+00;  2.6424801E+00;0;  1.1813942E-01;  3.1651572E+04;  0.0000000E+00; -1.3024707E-01;  4.0000000E+04;  0.0000000E+00;  3.9425422E+04; -1.1210646E-01;  0.0000000E+00;  2.3024587E-01;  1.9966061E+03;
  1.3642162E+00;  9.9999998E-03;  6.0481463E-02;9407;  1.2851156E+00;  0.0000000E+00;  1.4923111E-02;  9.9910303E+02;  1.1311238E-01; -7.1062024E+02;3;  3.2295589E+01;  0.0000000E+00; -2.6425257E+00;0;  1.1813929E-01;  3.1651572E+04;  0.0000000E+00; -1.3025051E-01;  4.0000000E+04;  0.0000000E+00;  3.9425426E+04; -1.1210648E-01;  0.0000000E+00;  2.3024577E-01;  1.9966002E+03;
  1.3642534E+00;  9.9999998E-03; -7.0553824E-02;9394;  1.2863362E+00;  0.0000000E+00; -1.7695354E-02;  9.9928992E+02;  1.1310804E-01; -5.6252386E+02;3;  3.2083801E+01;  0.0000000E+00;  2.9902735E+00;0;  1.3179785E-01;  3.1666016E+04;  0.0000000E+00; -1.5084408E-01;  4.0000000E+04;  0.0000000E+00;  3.9425414E+04; -9.9605665E-02;  0.0000000E+00;  2.3140351E-01;  2.0526062E+03;
  1.3642830E+00;  9.9999998E-03; -8.0620117E-02;9393;  1.2878386E+00;  0.0000000E+00; -2.0573271E-02;  9.9953363E+02;  1.1310499E-01; -3.6943719E+02;3;  3.1805008E+01;  0.0000000E+00;  3.3091207E+00;0;  1.4742970E-01;  3.1684773E+04;  0.0000000E+00; -1.7296633E-01;  4.0000000E+04;  0.0000000E+00;  3.9423551E+04; -8.4800743E-02;  0.0000000E+00;  2.3223044E-01;  2.2645923E+03;
  1.3642989E+00;  9.9999998E-03; -9.0677842E-02;9392;  1.2896709E+00;  0.0000000E+00; -2.3551352E-02;  9.9981720E+02;  1.1310207E-01; -1.4481755E+02;3;  3.1496151E+01;  0.0000000E+00;  3.5555584E+00;0;  1.6495854E-01;  3.1707611E+04;  0.0000000E+00; -1.8482433E-01;  4.0000000E+04;  0.0000000E+00;  3.9419906E+04; -6.7670077E-02;  0.0000000E+00;  2.3262861E-01;  2.6408765E+03;
  1.3642950E+00;  9.9999998E-03; -1.0072658E-01;9391;  1.2919139E+00;  0.0000000E+00; -2.6578678E-02;  1.0001281E+03;  1.1309985E-01;  1.0151891E+02;3;  3.1400274E+01;  0.0000000E+00;  3.7009344E+00;0;  1.8422455E-01;  3.1733027E+04;  0.0000000E+00; -1.4160895E-01;  4.0000000E+04;  0.0000000E+00;  3.9414402E+04; -4.8339214E-02;  0.0000000E+00;  2.3256376E-01;  3.1636570E+03;
  1.3751489E+00;  9.9999998E-03; -9.0248369E-09;9455;  1.2799658E+00;  0.0000000E+00;  1.1954738E-07;  9.9837360E+02;  1.1230931E-01; -1.2790721E+03;3;  3.3581600E+01;  0.0000000E+00;  6.0650473E-06;0;  5.6696922E-02;  3.2085891E+04;  0.0000000E+00; -6.2842028E-12;  4.0000000E+04;  0.0000000E+00;  3.9391562E+04; -1.5532382E-01;  0.0000000E+00;  2.1202074E-01;  1.5908298E+03;
  1.3751618E+00;  9.9999998E-03; -1.0084728E-02;9454;  1.2800487E+00;  0.0000000E+00; -2.3068073E-03;  9.9839099E+02;  1.1230893E-01; -1.2653729E+03;3;  3.3571365E+01;  0.0000000E+00;  3.6055610E-01;0;  5.7551444E-02;  3.2086725E+04;  0.0000000E+00; -9.1246320E-03;  4.0000000E+04;  0.0000000E+00;  3.9391914E+04; -1.5451998E-01;  0.0000000E+00;  2.1207142E-01;  1.5639005E+03;
  1.3751618E+00;  9.9999998E-03;  1.0084709E-02;9456;  1.2800487E+00;  0.0000000E+00;  2.3070504E-03;  9.9839105E+02;  1.1230891E-01; -1.2653260E+03;3;  3.3571503E+01;  0.0000000E+00; -3.6058223E-01;0;  5.7551175E-02;  3.2086725E+04;  0.0000000E+00; -9.1242557E-03;  4.0000000E+04;  0.0000000E+00;  3.9391914E+04; -1.5452005E-01;  0.0000000E+00;  2.1207123E-01;  1.5639064E+03;
  1.3751926E+00;  9.9999998E-03; -2.0167727E-02;9453;  1.2803030E+00;  0.0000000E+00; -4.6372181E-03;  9.9843634E+02;  1.1230654E-01; -1.2296743E+03;3;  3.3521214E+01;  0.0000000E+00;  7.1869498E-01;0;  6.0117796E-02;  3.2090088E+04;  0.0000000E+00; -3.5184361E-02;  4.0000000E+04;  0.0000000E+00;  3.9393082E+04; -1.5210120E-01;  0.0000000E+00;  2.1221900E-01;  1.4929308E+03;
  1.3751926E+00;  9.9999998E-03;  2.0167708E-02;9457;  1.2803030E+00;  0.0000000E+00;  4.6374644E-03;  9.9843634E+02;  1.1230654E-01; -1.2296743E+03;3;  3.3521263E+01;  0.0000000E+00; -7.1872485E-01;0;  6.0117707E-02;  3.2090088E+04;  0.0000000E+00; -3.5183962E-02;  4.0000000E+04;  0.0000000E+00;  3.9393082E+04; -1.5210134E-01;  0.0000000E+00;  2.1221904E-01;  1.4929407E+03;
  1.3752338E+00;  9.9999998E-03; -3.0249458E-02;9452;  1.2807271E+00;  0.0000000E+00; -6.9838287E-03;  9.9851251E+02;  1.1230352E-01; -1.1697355E+03;3;  3.3416103E+01;  0.0000000E+00;  1.1752440E+00;0;  6.4380243E-02;  3.2095682E+04;  0.0000000E+00; -7.4564844E-02;  4.0000000E+04;  0.0000000E+00;  3.9394469E+04; -1.4805496E-01;  0.0000000E+00;  2.1243520E-01;  1.4036338E+03;
  1.3752338E+00;  9.9999998E-03;  3.0249439E-02;9458;  1.2807271E+00;  0.0000000E+00;  6.9840844E-03;  9.9851251E+02;  1.1230352E-01; -1.1697355E+03;3;  3.3416378E+01;  0.0000000E+00; -1.1752220E+00;0;  6.4379945E-02;  3.2095686E+04;  0.0000000E+00; -7.4564576E-02;  4.0000000E+04;  0.0000000E+00;  3.9394469E+04; -1.4805517E-01;  0.0000000E+00;  2.1243511E-01;  1.4036163E+03;
  1.3752822E+00;  9.9999998E-03; -4.0330142E-02;9451;  1.2813423E+00;  0.0000000E+00; -9.3626883E-03;  9.9863306E+02;  1.1230015E-01; -1.0749230E+03;3;  3.3302628E+01;  0.0000000E+00;  1.5702342E+00;0;  7.0309743E-02;  3.2104098E+04;  0.0000000E+00; -1.2229626E-01;  4.0000000E+04;  0.0000000E+00;  3.9395977E+04; -1.4235984E-01;  0.0000000E+00;  2.1266958E-01;  1.3330209E+03;
  1.3752822E+00;  9.9999998E-03;  4.0330123E-02;9459;  1.2813423E+00;  0.0000000E+00;  9.3629528E-03;  9.9863318E+02;  1.1230031E-01; -1.0747823E+03;3;  3.3300838E+01;  0.0000000E+00; -1.5701125E+00;0;  7.0309728E-02;  3.2104090E+04;  0.0000000E+00; -1.2229504E-01;  4.0000000E+04;  0.0000000E+00;  3.9395977E+04; -1.4235993E-01;  0.0000000E+00;  2.1266966E-01;  1.3330105E+03;
  1.3753349E+00;  9.9999998E-03; -5.0408475E-02;9450;  1.2821728E+00;  0.0000000E+00; -1.1807526E-02;  9.9879242E+02;  1.1229648E-01; -9.4955573E+02;3;  3.3148357E+01;  0.0000000E+00;  1.9192611E+00;0;  7.7880755E-02;  3.2116359E+04;  0.0000000E+00; -1.7396192E-01;  4.0000000E+04;  0.0000000E+00;  3.9396531E+04; -1.3498324E-01;  0.0000000E+00;  2.1286400E-01;  1.3235800E+03;
  1.3753349E+00;  9.9999998E-03;  5.0408456E-02;9460;  1.2821729E+00;  0.0000000E+00;  1.1807783E-02;  9.9879236E+02;  1.1229659E-01; -9.4960260E+02;3;  3.3146690E+01;  0.0000000E+00; -1.9191356E+00;0;  7.7880800E-02;  3.2116359E+04;  0.0000000E+00; -1.7396358E-01;  4.0000000E+04;  0.0000000E+00;  3.9396531E+04; -1.3498330E-01;  0.0000000E+00;  2.1286410E-01;  1.3235621E+03;
  1.3753872E+00;  9.9999998E-03; -6.0482640E-02;9449;  1.2832431E+00;  0.0000000E+00; -1.4330398E-02;  9.9900372E+02;  1.1229328E-01; -7.8337726E+02;3;  3.2964024E+01;  0.0000000E+00;  2.2394078E+00;0;  8.7083653E-02;  3.2132188E+04;  0.0000000E+00; -2.2839111E-01;  4.0000000E+04;  0.0000000E+00;  3.9396332E+04; -1.2589343E-01;  0.0000000E+00;  2.1297708E-01;  1.4149912E+03;
  1.3753872E+00;  9.9999998E-03;  6.0482621E-02;9461;  1.2832432E+00;  0.0000000E+00;  1.4330643E-02;  9.9900397E+02;  1.1229314E-01; -7.8318982E+02;3;  3.2964375E+01;  0.0000000E+00; -2.2394011E+00;0;  8.7083831E-02;  3.2132189E+04;  0.0000000E+00; -2.2839488E-01;  4.0000000E+04;  0.0000000E+00;  3.9396332E+04; -1.2589359E-01;  0.0000000E+00;  2.1297742E-01;  1.4149794E+03;
  1.3754343E+00;  9.9999998E-03; -7.0550375E-02;9448;  1.2845855E+00;  0.0000000E+00; -1.6929328E-02;  9.9925165E+02;  1.1228978E-01; -5.8839178E+02;3;  3.2770554E+01;  0.0000000E+00;  2.5200918E+00;0;  9.7917736E-02;  3.2151842E+04;  0.0000000E+00; -2.8062689E-01;  4.0000000E+04;  0.0000000E+00;  3.9394504E+04; -1.1509718E-01;  0.0000000E+00;  2.1301492E-01;  1.6352296E+03;
  1.3754673E+00;  9.9999998E-03; -8.0609329E-02;9447;  1.2862324E+00;  0.0000000E+00; -1.9594772E-02;  9.9952759E+02;  1.1228541E-01; -3.7144418E+02;3;  3.2486374E+01;  0.0000000E+00;  2.7797680E+00;0;  1.1038082E-01;  3.2175123E+04;  0.0000000E+00; -3.1152299E-01;  4.0000000E+04;  0.0000000E+00;  3.9390684E+04; -1.0265657E-01;  0.0000000E+00;  2.1303739E-01;  1.9967936E+03;
  1.3754789E+00;  9.9999998E-03; -9.0658285E-02;9446;  1.2882341E+00;  0.0000000E+00; -2.2293422E-02;  9.9982965E+02;  1.1228278E-01; -1.3393623E+02;3;  3.2232304E+01;  0.0000000E+00;  2.9701698E+00;0;  1.2442090E-01;  3.2200697E+04;  0.0000000E+00; -2.7416000E-01;  4.0000000E+04;  0.0000000E+00;  3.9385223E+04; -8.8738061E-02;  0.0000000E+00;  2.1315897E-01;  2.4920447E+03;
  1.3754623E+00;  9.9999998E-03; -1.0069723E-01;9445;  1.2906433E+00;  0.0000000E+00; -2.4956236E-02;  1.0001388E+03;  1.1228159E-01;  1.0909982E+02;3;  3.1999372E+01;  0.0000000E+00;  3.1467538E+00;0;  1.3990197E-01;  3.2227133E+04;  0.0000000E+00; -7.7220887E-02;  4.0000000E+04;  0.0000000E+00;  3.9378285E+04; -7.3637731E-02;  0.0000000E+00;  2.1353970E-01;  3.0996926E+03;
  1.3862218E+00;  9.9999998E-03; -9.3277235E-09;9508;  1.2776829E+00;  0.0000000E+00;  1.2265407E-07;  9.9820282E+02;  1.1159722E-01; -1.4013336E+03;3;  3.4249905E+01;  0.0000000E+00; -3.3200486E-06;0;  3.6331668E-02;  3.2510215E+04;  0.0000000E+00; -8.9812706E-12;  4.0000000E+04;  0.0000000E+00;  3.9361609E+04; -1.6003300E-01;  0.0000000E+00;  1.9636467E-01;  7.2679761E+02;
  1.3862385E+00;  9.9999998E-03; -1.0087191E-02;9507;  1.2777746E+00;  0.0000000E+00; -2.1844003E-03;  9.9822388E+02;  1.1159558E-01; -1.3848623E+03;3;  3.4231766E+01;  0.0000000E+00;  3.2288045E-01;0;  3.7002876E-02;  3.2511971E+04;  0.0000000E+00; -1.3405321E-02;  4.0000000E+04;  0.0000000E+00;  3.9361809E+04; -1.5926802E-01;  0.0000000E+00;  1.9627090E-01;  7.2066602E+02;
  1.3862385E+00;  9.9999998E-03;  1.0087173E-02;9509;  1.2777746E+00;  0.0000000E+00;  2.1846478E-03;  9.9822394E+02;  1.1159568E-01; -1.3848158E+03;3;  3.4231693E+01;  0.0000000E+00; -3.2287017E-01;0;  3.7002951E-02;  3.2511971E+04;  0.0000000E+00; -1.3405013E-02;  4.0000000E+04;  0.0000000E+00;  3.9361809E+04; -1.5926789E-01;  0.0000000E+00;  1.9627084E-01;  7.2066638E+02;
  1.3862777E+00;  9.9999998E-03; -2.0171147E-02;9506;  1.2780550E+00;  0.0000000E+00; -4.3813363E-03;  9.9829041E+02;  1.1159337E-01; -1.3329529E+03;3;  3.4190201E+01;  0.0000000E+00;  6.3492125E-01;0;  3.9022684E-02;  3.2517396E+04;  0.0000000E+00; -5.2459389E-02;  4.0000000E+04;  0.0000000E+00;  3.9362285E+04; -1.5697625E-01;  0.0000000E+00;  1.9599894E-01;  7.1147668E+02;
  1.3862777E+00;  9.9999998E-03;  2.0171128E-02;9510;  1.2780550E+00;  0.0000000E+00;  4.3815896E-03;  9.9829041E+02;  1.1159325E-01; -1.3329529E+03;3;  3.4190224E+01;  0.0000000E+00; -6.3493168E-01;0;  3.9022669E-02;  3.2517393E+04;  0.0000000E+00; -5.2458882E-02;  4.0000000E+04;  0.0000000E+00;  3.9362281E+04; -1.5697624E-01;  0.0000000E+00;  1.9599891E-01;  7.1147510E+02;
  1.3863287E+00;  9.9999998E-03; -3.0251471E-02;9505;  1.2785358E+00;  0.0000000E+00; -6.6083600E-03;  9.9840320E+02;  1.1159050E-01; -1.2449724E+03;3;  3.4117481E+01;  0.0000000E+00;  9.2344058E-01;0;  4.2379946E-02;  3.2525998E+04;  0.0000000E+00; -1.1381523E-01;  4.0000000E+04;  0.0000000E+00;  3.9362586E+04; -1.5317008E-01;  0.0000000E+00;  1.9555002E-01;  7.2284778E+02;
  1.3863287E+00;  9.9999998E-03;  3.0251451E-02;9511;  1.2785358E+00;  0.0000000E+00;  6.6086194E-03;  9.9840320E+02;  1.1159035E-01; -1.2449724E+03;3;  3.4115646E+01;  0.0000000E+00; -9.2333406E-01;0;  4.2380363E-02;  3.2526002E+04;  0.0000000E+00; -1.1381461E-01;  4.0000000E+04;  0.0000000E+00;  3.9362590E+04; -1.5316986E-01;  0.0000000E+00;  1.9555022E-01;  7.2284082E+02;
  1.3863871E+00;  9.9999998E-03; -4.0329646E-02;9504;  1.2792288E+00;  0.0000000E+00; -8.8750133E-03;  9.9856073E+02;  1.1158700E-01; -1.1220939E+03;3;  3.3988358E+01;  0.0000000E+00;  1.2367418E+00;0;  4.7054917E-02;  3.2538662E+04;  0.0000000E+00; -1.9290002E-01;  4.0000000E+04;  0.0000000E+00;  3.9362430E+04; -1.4787078E-01;  0.0000000E+00;  1.9492570E-01;  7.8536426E+02;
  1.3863871E+00;  9.9999998E-03;  4.0329628E-02;9512;  1.2792288E+00;  0.0000000E+00;  8.8752722E-03;  9.9856073E+02;  1.1158700E-01; -1.1220939E+03;3;  3.3988708E+01;  0.0000000E+00; -1.2367574E+00;0;  4.7054648E-02;  3.2538658E+04;  0.0000000E+00; -1.9289820E-01;  4.0000000E+04;  0.0000000E+00;  3.9362434E+04; -1.4787076E-01;  0.0000000E+00;  1.9492541E-01;  7.8535388E+02;
  1.3864499E+00;  9.9999998E-03; -5.0404657E-02;9503;  1.2801528E+00;  0.0000000E+00; -1.1181191E-02;  9.9876306E+02;  1.1158307E-01; -9.6428046E+02;3;  3.3831707E+01;  0.0000000E+00;  1.5555856E+00;0;  5.3037360E-02;  3.2555166E+04;  0.0000000E+00; -2.8465298E-01;  4.0000000E+04;  0.0000000E+00;  3.9361527E+04; -1.4111628E-01;  0.0000000E+00;  1.9415364E-01;  9.2807257E+02;
  1.3864499E+00;  9.9999998E-03;  5.0404638E-02;9513;  1.2801528E+00;  0.0000000E+00;  1.1181453E-02;  9.9876318E+02;  1.1158296E-01; -9.6418750E+02;3;  3.3832081E+01;  0.0000000E+00; -1.5555592E+00;0;  5.3037375E-02;  3.2555170E+04;  0.0000000E+00; -2.8465149E-01;  4.0000000E+04;  0.0000000E+00;  3.9361527E+04; -1.4111619E-01;  0.0000000E+00;  1.9415356E-01;  9.2806616E+02;
  1.3865100E+00;  9.9999998E-03; -6.0474537E-02;9502;  1.2813369E+00;  0.0000000E+00; -1.3529769E-02;  9.9901074E+02;  1.1157981E-01; -7.7117230E+02;3;  3.3637356E+01;  0.0000000E+00;  1.8214821E+00;0;  6.0345218E-02;  3.2575168E+04;  0.0000000E+00; -3.7925559E-01;  4.0000000E+04;  0.0000000E+00;  3.9359164E+04; -1.3299051E-01;  0.0000000E+00;  1.9333573E-01;  1.1699572E+03;
  1.3865100E+00;  9.9999998E-03;  6.0474515E-02;9514;  1.2813369E+00;  0.0000000E+00;  1.3530023E-02;  9.9901080E+02;  1.1157982E-01; -7.7112579E+02;3;  3.3637768E+01;  0.0000000E+00; -1.8214986E+00;0;  6.0345292E-02;  3.2575162E+04;  0.0000000E+00; -3.7925389E-01;  4.0000000E+04;  0.0000000E+00;  3.9359164E+04; -1.3299042E-01;  0.0000000E+00;  1.9333571E-01;  1.1699506E+03;
  1.3865588E+00;  9.9999998E-03; -7.0536755E-02;9501;  1.2828114E+00;  0.0000000E+00; -1.5913937E-02;  9.9928485E+02;  1.1157700E-01; -5.5745923E+02;3;  3.3415199E+01;  0.0000000E+00;  2.0472639E+00;0;  6.9011472E-02;  3.2598107E+04;  0.0000000E+00; -4.5073441E-01;  4.0000000E+04;  0.0000000E+00;  3.9355305E+04; -1.2363669E-01;  0.0000000E+00;  1.9264816E-01;  1.5184178E+03;
  1.3865465E+00;  9.9999998E-03; -1.0066509E-01;9498;  1.2893769E+00;  0.0000000E+00; -2.2886483E-02;  1.0001342E+03;  1.1157269E-01;  1.0463502E+02;3;  3.2671310E+01;  0.0000000E+00;  2.5830133E+00;0;  1.0307403E-01;  3.2672908E+04;  0.0000000E+00;  2.3891494E-01;  4.0000000E+04;  0.0000000E+00;  3.9336371E+04; -9.0901226E-02;  0.0000000E+00;  1.9397525E-01;  3.1508525E+03;
  1.3865854E+00;  9.9999998E-03; -8.0589458E-02;9500;  1.2846136E+00;  0.0000000E+00; -1.8310877E-02;  9.9957635E+02;  1.1157499E-01; -3.3024942E+02;3;  3.3177052E+01;  0.0000000E+00;  2.2378047E+00;0;  7.9062335E-02;  3.2623088E+04;  0.0000000E+00; -4.4487497E-01;  4.0000000E+04;  0.0000000E+00;  3.9350113E+04; -1.1327394E-01;  0.0000000E+00;  1.9233628E-01;  1.9686642E+03;
  1.3865818E+00;  9.9999998E-03; -9.0632357E-02;9499;  1.2867829E+00;  0.0000000E+00; -2.0666732E-02;  9.9986206E+02;  1.1157308E-01; -1.0751258E+02;3;  3.2916660E+01;  0.0000000E+00;  2.3936701E+00;0;  9.0462632E-02;  3.2648621E+04;  0.0000000E+00; -2.6545945E-01;  4.0000000E+04;  0.0000000E+00;  3.9343445E+04; -1.0222226E-01;  0.0000000E+00;  1.9268489E-01;  2.5094031E+03;
  1.3972845E+00;  9.9999998E-03; -1.0086335E-02;9559;  1.2755009E+00;  0.0000000E+00; -2.0380309E-03;  9.9820215E+02;  1.1097635E-01; -1.3881951E+03;3;  3.4834499E+01;  0.0000000E+00;  2.6032874E-01;0;  1.7565414E-02;  3.2906469E+04;  0.0000000E+00; -2.2353694E-02;  4.0000000E+04;  0.0000000E+00;  3.9323262E+04; -1.6009557E-01;  0.0000000E+00;  1.7766099E-01;  2.3157491E+02;
  1.3972645E+00;  9.9999998E-03; -9.5358565E-09;9560;  1.2753984E+00;  0.0000000E+00;  1.2532985E-07;  9.9817371E+02;  1.1097784E-01; -1.4101748E+03;3;  3.4847202E+01;  0.0000000E+00;  9.4580464E-06;0;  1.7050669E-02;  3.2904148E+04;  0.0000000E+00; -7.3899315E-12;  4.0000000E+04;  0.0000000E+00;  3.9323422E+04; -1.6082181E-01;  0.0000000E+00;  1.7787248E-01;  2.1752292E+02;
  1.3972845E+00;  9.9999998E-03;  1.0086316E-02;9561;  1.2755009E+00;  0.0000000E+00;  2.0382835E-03;  9.9820209E+02;  1.1097630E-01; -1.3882411E+03;3;  3.4834435E+01;  0.0000000E+00; -2.6034221E-01;0;  1.7565414E-02;  3.2906465E+04;  0.0000000E+00; -2.2352962E-02;  4.0000000E+04;  0.0000000E+00;  3.9323262E+04; -1.6009560E-01;  0.0000000E+00;  1.7766102E-01;  2.3157043E+02;
  1.3973325E+00;  9.9999998E-03; -2.0169538E-02;9558;  1.2758123E+00;  0.0000000E+00; -4.0845592E-03;  9.9828229E+02;  1.1097398E-01; -1.3262339E+03;3;  3.4785389E+01;  0.0000000E+00;  5.2082038E-01;0;  1.9119784E-02;  3.2913438E+04;  0.0000000E+00; -8.7430477E-02;  4.0000000E+04;  0.0000000E+00;  3.9322832E+04; -1.5793055E-01;  0.0000000E+00;  1.7705034E-01;  2.8410956E+02;
  1.3973325E+00;  9.9999998E-03;  2.0169519E-02;9562;  1.2758123E+00;  0.0000000E+00;  4.0848055E-03;  9.9828223E+02;  1.1097399E-01; -1.3262799E+03;3;  3.4787861E+01;  0.0000000E+00; -5.2086890E-01;0;  1.9119591E-02;  3.2913438E+04;  0.0000000E+00; -8.7428570E-02;  4.0000000E+04;  0.0000000E+00;  3.9322832E+04; -1.5793069E-01;  0.0000000E+00;  1.7705028E-01;  2.8410263E+02;
  1.3973917E+00;  9.9999998E-03; -3.0248828E-02;9557;  1.2763432E+00;  0.0000000E+00; -6.1462820E-03;  9.9842365E+02;  1.1097242E-01; -1.2170499E+03;3;  3.4707386E+01;  0.0000000E+00;  7.6987839E-01;0;  2.1722734E-02;  3.2924656E+04;  0.0000000E+00; -1.8987195E-01;  4.0000000E+04;  0.0000000E+00;  3.9321949E+04; -1.5436713E-01;  0.0000000E+00;  1.7608987E-01;  3.9421411E+02;
  1.3973917E+00;  9.9999998E-03;  3.0248810E-02;9563;  1.2763431E+00;  0.0000000E+00;  6.1465362E-03;  9.9842365E+02;  1.1097242E-01; -1.2170499E+03;3;  3.4707527E+01;  0.0000000E+00; -7.6990247E-01;0;  2.1722555E-02;  3.2924652E+04;  0.0000000E+00; -1.8986870E-01;  4.0000000E+04;  0.0000000E+00;  3.9321953E+04; -1.5436733E-01;  0.0000000E+00;  1.7608988E-01;  3.9420865E+02;
  1.3974590E+00;  9.9999998E-03; -4.0324014E-02;9556;  1.2771095E+00;  0.0000000E+00; -8.2300697E-03;  9.9861194E+02;  1.1096990E-01; -1.0716094E+03;3;  3.4609104E+01;  0.0000000E+00;  9.7328275E-01;0;  2.5364354E-02;  3.2939906E+04;  0.0000000E+00; -3.1978244E-01;  4.0000000E+04;  0.0000000E+00;  3.9320367E+04; -1.4947440E-01;  0.0000000E+00;  1.7483875E-01;  5.7551166E+02;
  1.3974590E+00;  9.9999998E-03;  4.0323995E-02;9564;  1.2771096E+00;  0.0000000E+00;  8.2303230E-03;  9.9861206E+02;  1.1097012E-01; -1.0715173E+03;3;  3.4609425E+01;  0.0000000E+00; -9.7329569E-01;0;  2.5364056E-02;  3.2939906E+04;  0.0000000E+00; -3.1977814E-01;  4.0000000E+04;  0.0000000E+00;  3.9320371E+04; -1.4947464E-01;  0.0000000E+00;  1.7483869E-01;  5.7550958E+02;
  1.3975290E+00;  9.9999998E-03; -5.0395247E-02;9555;  1.2781368E+00;  0.0000000E+00; -1.0354391E-02;  9.9883716E+02;  1.1096710E-01; -8.9765735E+02;3;  3.4465855E+01;  0.0000000E+00;  1.1391978E+00;0;  3.0060872E-02;  3.2959035E+04;  0.0000000E+00; -4.6174544E-01;  4.0000000E+04;  0.0000000E+00;  3.9317742E+04; -1.4337158E-01;  0.0000000E+00;  1.7343245E-01;  8.3457428E+02;
  1.3975290E+00;  9.9999998E-03;  5.0395228E-02;9565;  1.2781368E+00;  0.0000000E+00;  1.0354659E-02;  9.9883716E+02;  1.1096710E-01; -8.9765735E+02;3;  3.4466293E+01;  0.0000000E+00; -1.1391711E+00;0;  3.0060679E-02;  3.2959039E+04;  0.0000000E+00; -4.6174315E-01;  4.0000000E+04;  0.0000000E+00;  3.9317738E+04; -1.4337175E-01;  0.0000000E+00;  1.7343242E-01;  8.3457684E+02;
  1.3975925E+00;  9.9999998E-03; -6.0461897E-02;9554;  1.2794418E+00;  0.0000000E+00; -1.2494870E-02;  9.9908679E+02;  1.1096382E-01; -7.0491455E+02;3;  3.4265694E+01;  0.0000000E+00;  1.3662699E+00;0;  3.5854608E-02;  3.2980777E+04;  0.0000000E+00; -5.8443815E-01;  4.0000000E+04;  0.0000000E+00;  3.9313840E+04; -1.3625042E-01;  0.0000000E+00;  1.7210503E-01;  1.1696947E+03;
  1.3975925E+00;  9.9999998E-03;  6.0461879E-02;9566;  1.2794417E+00;  0.0000000E+00;  1.2495138E-02;  9.9908679E+02;  1.1096382E-01; -7.0491455E+02;3;  3.4264053E+01;  0.0000000E+00; -1.3661431E+00;0;  3.5854593E-02;  3.2980781E+04;  0.0000000E+00; -5.8443749E-01;  4.0000000E+04;  0.0000000E+00;  3.9313840E+04; -1.3625044E-01;  0.0000000E+00;  1.7210503E-01;  1.1696914E+03;
  1.3975766E+00;  9.9999998E-03; -1.0064383E-01;9550;  1.2881639E+00;  0.0000000E+00; -2.0126222E-02;  1.0000442E+03;  1.1095724E-01;  3.4139717E+01;3;  3.3326954E+01;  0.0000000E+00;  2.4793069E+00;0;  7.0548721E-02;  3.3069508E+04;  0.0000000E+00;  1.0721626E+00;  4.0000000E+04;  0.0000000E+00;  3.9290543E+04; -1.0406419E-01;  0.0000000E+00;  1.7461291E-01;  3.2995422E+03;
  1.3976306E+00;  9.9999998E-03; -9.0610720E-02;9551;  1.2853559E+00;  0.0000000E+00; -1.8636053E-02;  9.9985138E+02;  1.1095812E-01; -1.1469805E+02;3;  3.3545078E+01;  0.0000000E+00;  1.8763528E+00;0;  6.0266688E-02;  3.3050453E+04;  0.0000000E+00;  1.2818129E-02;  4.0000000E+04;  0.0000000E+00;  3.9296398E+04; -1.1182635E-01;  0.0000000E+00;  1.7209303E-01;  2.5642590E+03;
  1.3976499E+00;  9.9999998E-03; -8.0571033E-02;9552;  1.2830120E+00;  0.0000000E+00; -1.6694712E-02;  9.9961780E+02;  1.1095940E-01; -2.9499814E+02;3;  3.3786289E+01;  0.0000000E+00;  1.7124907E+00;0;  5.0961532E-02;  3.3028066E+04;  0.0000000E+00; -4.7985303E-01;  4.0000000E+04;  0.0000000E+00;  3.9302664E+04; -1.2008882E-01;  0.0000000E+00;  1.7105035E-01;  2.0285706E+03;
  1.3976364E+00;  9.9999998E-03; -7.0521131E-02;9553;  1.2810549E+00;  0.0000000E+00; -1.4619761E-02;  9.9935443E+02;  1.1096136E-01; -4.9831033E+02;3;  3.4037407E+01;  0.0000000E+00;  1.5613137E+00;0;  4.2809039E-02;  3.3004305E+04;  0.0000000E+00; -6.2565333E-01;  4.0000000E+04;  0.0000000E+00;  3.9308781E+04; -1.2837435E-01;  0.0000000E+00;  1.7118339E-01;  1.5708888E+03;
  1.4082561E+00;  9.9999998E-03; -9.4634993E-09;9610;  1.2731793E+00;  0.0000000E+00;  1.2954912E-07;  9.9827814E+02;  1.1044669E-01; -1.3149004E+03;3;  3.5382076E+01;  0.0000000E+00; -5.3457916E-06;0; -1.8972009E-03;  3.3268316E+04;  0.0000000E+00; -8.8508645E-12;  4.0000000E+04;  0.0000000E+00;  3.9275664E+04; -1.5898633E-01;  0.0000000E+00;  1.5708913E-01;  4.6007534E+01;
  1.4082786E+00;  9.9999998E-03; -1.0084267E-02;9609;  1.2732924E+00;  0.0000000E+00; -1.8605170E-03;  9.9830713E+02;  1.1044597E-01; -1.2927478E+03;3;  3.5366001E+01;  0.0000000E+00;  1.9802494E-01;0; -1.5204698E-03;  3.3271051E+04;  0.0000000E+00; -3.7094120E-02;  4.0000000E+04;  0.0000000E+00;  3.9275316E+04; -1.5831973E-01;  0.0000000E+00;  1.5679926E-01;  7.7415932E+01;
  1.4082786E+00;  9.9999998E-03;  1.0084248E-02;9611;  1.2732924E+00;  0.0000000E+00;  1.8607728E-03;  9.9830713E+02;  1.1044597E-01; -1.2927478E+03;3;  3.5366001E+01;  0.0000000E+00; -1.9804803E-01;0; -1.5207082E-03;  3.3271055E+04;  0.0000000E+00; -3.7093129E-02;  4.0000000E+04;  0.0000000E+00;  3.9275316E+04; -1.5831992E-01;  0.0000000E+00;  1.5679921E-01;  7.7414543E+01;
  1.4083328E+00;  9.9999998E-03; -2.0165702E-02;9608;  1.2736365E+00;  0.0000000E+00; -3.7265096E-03;  9.9838977E+02;  1.1044369E-01; -1.2295454E+03;3;  3.5321110E+01;  0.0000000E+00;  3.9092845E-01;0; -3.7194788E-04;  3.3279000E+04;  0.0000000E+00; -1.4379615E-01;  4.0000000E+04;  0.0000000E+00;  3.9274328E+04; -1.5634501E-01;  0.0000000E+00;  1.5597306E-01;  1.8275911E+02;
  1.4083328E+00;  9.9999998E-03;  2.0165684E-02;9612;  1.2736365E+00;  0.0000000E+00;  3.7267599E-03;  9.9838977E+02;  1.1044369E-01; -1.2295454E+03;3;  3.5321205E+01;  0.0000000E+00; -3.9095977E-01;0; -3.7181377E-04;  3.3279004E+04;  0.0000000E+00; -1.4379472E-01;  4.0000000E+04;  0.0000000E+00;  3.9274328E+04; -1.5634483E-01;  0.0000000E+00;  1.5597302E-01;  1.8276366E+02;
  1.4084022E+00;  9.9999998E-03; -3.0243089E-02;9607;  1.2742218E+00;  0.0000000E+00; -5.5977320E-03;  9.9852509E+02;  1.1044077E-01; -1.1261462E+03;3;  3.5238342E+01;  0.0000000E+00;  5.8046764E-01;0;  1.5705973E-03;  3.3291508E+04;  0.0000000E+00; -3.0559802E-01;  4.0000000E+04;  0.0000000E+00;  3.9272516E+04; -1.5313084E-01;  0.0000000E+00;  1.5470144E-01;  3.6317105E+02;
  1.4084022E+00;  9.9999998E-03;  3.0243071E-02;9613;  1.2742218E+00;  0.0000000E+00;  5.5979844E-03;  9.9852509E+02;  1.1044077E-01; -1.1261462E+03;3;  3.5238575E+01;  0.0000000E+00; -5.8046228E-01;0;  1.5705079E-03;  3.3291508E+04;  0.0000000E+00; -3.0559570E-01;  4.0000000E+04;  0.0000000E+00;  3.9272516E+04; -1.5313086E-01;  0.0000000E+00;  1.5470137E-01;  3.6316486E+02;
  1.4084830E+00;  9.9999998E-03; -4.0317155E-02;9606;  1.2750609E+00;  0.0000000E+00; -7.4688550E-03;  9.9870874E+02;  1.1043777E-01; -9.8584399E+02;3;  3.5121098E+01;  0.0000000E+00;  7.5841230E-01;0;  4.3178946E-03;  3.3307742E+04;  0.0000000E+00; -4.9752200E-01;  4.0000000E+04;  0.0000000E+00;  3.9269574E+04; -1.4879559E-01;  0.0000000E+00;  1.5311348E-01;  6.1355115E+02;
  1.4084830E+00;  9.9999998E-03;  4.0317137E-02;9614;  1.2750609E+00;  0.0000000E+00;  7.4691121E-03;  9.9870868E+02;  1.1043779E-01; -9.8588953E+02;3;  3.5121387E+01;  0.0000000E+00; -7.5838447E-01;0;  4.3178499E-03;  3.3307746E+04;  0.0000000E+00; -4.9751708E-01;  4.0000000E+04;  0.0000000E+00;  3.9269574E+04; -1.4879565E-01;  0.0000000E+00;  1.5311350E-01;  6.1355048E+02;
  1.4085658E+00;  9.9999998E-03; -5.0387900E-02;9605;  1.2761761E+00;  0.0000000E+00; -9.3318811E-03;  9.9892078E+02;  1.1043500E-01; -8.2386011E+02;3;  3.5003479E+01;  0.0000000E+00;  8.7467718E-01;0;  7.9108775E-03;  3.3327070E+04;  0.0000000E+00; -6.7739606E-01;  4.0000000E+04;  0.0000000E+00;  3.9265793E+04; -1.4353764E-01;  0.0000000E+00;  1.5144852E-01;  9.2138226E+02;
  1.4085658E+00;  9.9999998E-03;  5.0387882E-02;9615;  1.2761761E+00;  0.0000000E+00;  9.3321474E-03;  9.9892084E+02;  1.1043528E-01; -8.2381458E+02;3;  3.5001595E+01;  0.0000000E+00; -8.7455428E-01;0;  7.9109967E-03;  3.3327066E+04;  0.0000000E+00; -6.7739415E-01;  4.0000000E+04;  0.0000000E+00;  3.9265793E+04; -1.4353763E-01;  0.0000000E+00;  1.5144862E-01;  9.2137836E+02;
  1.4086368E+00;  9.9999998E-03; -6.0454529E-02;9604;  1.2776003E+00;  0.0000000E+00; -1.1199916E-02;  9.9915198E+02;  1.1043264E-01; -6.4730811E+02;3;  3.4827602E+01;  0.0000000E+00;  9.5147550E-01;0;  1.2420565E-02;  3.3347992E+04;  0.0000000E+00; -7.7312678E-01;  4.0000000E+04;  0.0000000E+00;  3.9260941E+04; -1.3763279E-01;  0.0000000E+00;  1.5005335E-01;  1.2673907E+03;
  1.4086368E+00;  9.9999998E-03;  6.0454510E-02;9616;  1.2776003E+00;  0.0000000E+00;  1.1200180E-02;  9.9915186E+02;  1.1043267E-01; -6.4744464E+02;3;  3.4825783E+01;  0.0000000E+00; -9.5135611E-01;0;  1.2420580E-02;  3.3347992E+04;  0.0000000E+00; -7.7312529E-01;  4.0000000E+04;  0.0000000E+00;  3.9260941E+04; -1.3763274E-01;  0.0000000E+00;  1.5005332E-01;  1.2673793E+03;
  1.4085532E+00;  9.9999998E-03; -1.0064825E-01;9600;  1.2870135E+00;  0.0000000E+00; -1.6822239E-02;  9.9985052E+02;  1.1042944E-01; -1.1412066E+02;3;  3.3876606E+01;  0.0000000E+00;  2.3478813E+00;0;  4.0109225E-02;  3.3414785E+04;  0.0000000E+00;  2.8201280E+00;  4.0000000E+04;  0.0000000E+00;  3.9242648E+04; -1.1567392E-01;  0.0000000E+00;  1.5578315E-01;  3.8024951E+03;
  1.4086421E+00;  9.9999998E-03; -9.0607166E-02;9601;  1.2840087E+00;  0.0000000E+00; -1.6068174E-02;  9.9974426E+02;  1.1042991E-01; -1.9523326E+02;3;  3.4148647E+01;  0.0000000E+00;  1.7523582E+00;0;  3.1947583E-02;  3.3404168E+04;  0.0000000E+00;  8.7249339E-01;  4.0000000E+04;  0.0000000E+00;  3.9245363E+04; -1.1997369E-01;  0.0000000E+00;  1.5192127E-01;  2.6735046E+03;
  1.4086826E+00;  9.9999998E-03; -8.0564544E-02;9602;  1.2814651E+00;  0.0000000E+00; -1.4720684E-02;  9.9958252E+02;  1.1043038E-01; -3.1865625E+02;3;  3.4359554E+01;  0.0000000E+00;  1.2992766E+00;0;  2.4459362E-02;  3.3388395E+04;  0.0000000E+00; -1.9747455E-01;  4.0000000E+04;  0.0000000E+00;  3.9250105E+04; -1.2539485E-01;  0.0000000E+00;  1.4985421E-01;  2.0568796E+03;
  1.4086791E+00;  9.9999998E-03; -7.0513926E-02;9603;  1.2793525E+00;  0.0000000E+00; -1.3025036E-02;  9.9938080E+02;  1.1043074E-01; -4.7261758E+02;3;  3.4591145E+01;  0.0000000E+00;  1.1127189E+00;0;  1.7926052E-02;  3.3369176E+04;  0.0000000E+00; -6.6983068E-01;  4.0000000E+04;  0.0000000E+00;  3.9255742E+04; -1.3144046E-01;  0.0000000E+00;  1.4936651E-01;  1.6367478E+03;
  1.4192128E+00;  9.9999998E-03; -1.0086071E-02;9657;  1.2712008E+00;  0.0000000E+00; -1.6505063E-03;  9.9844550E+02;  1.0999075E-01; -1.1723439E+03;3;  3.5845505E+01;  0.0000000E+00;  1.3922726E-01;0; -2.0669758E-02;  3.3605875E+04;  0.0000000E+00; -5.4781713E-02;  4.0000000E+04;  0.0000000E+00;  3.9218238E+04; -1.5503453E-01;  0.0000000E+00;  1.3436477E-01;  1.7160330E+02;
  1.4191854E+00;  9.9999998E-03; -9.5486179E-09;9658;  1.2710774E+00;  0.0000000E+00;  1.3266069E-07;  9.9841663E+02;  1.0999133E-01; -1.1941853E+03;3;  3.5862156E+01;  0.0000000E+00; -2.8327107E-05;0; -2.0919427E-02;  3.3603258E+04;  0.0000000E+00; -1.0150266E-11;  4.0000000E+04;  0.0000000E+00;  3.9218520E+04; -1.5561086E-01;  0.0000000E+00;  1.3469143E-01;  1.3475648E+02;
  1.4192128E+00;  9.9999998E-03;  1.0086052E-02;9659;  1.2712008E+00;  0.0000000E+00;  1.6507682E-03;  9.9844550E+02;  1.0999075E-01; -1.1723439E+03;3;  3.5845470E+01;  0.0000000E+00; -1.3923037E-01;0; -2.0669669E-02;  3.3605871E+04;  0.0000000E+00; -5.4780293E-02;  4.0000000E+04;  0.0000000E+00;  3.9218238E+04; -1.5503454E-01;  0.0000000E+00;  1.3436487E-01;  1.7160269E+02;
  1.4192803E+00;  9.9999998E-03; -2.0169912E-02;9656;  1.2715758E+00;  0.0000000E+00; -3.2993709E-03;  9.9852515E+02;  1.0998919E-01; -1.1121973E+03;3;  3.5799683E+01;  0.0000000E+00;  2.7349153E-01;0; -1.9894227E-02;  3.3613461E+04;  0.0000000E+00; -2.0835011E-01;  4.0000000E+04;  0.0000000E+00;  3.9216680E+04; -1.5334156E-01;  0.0000000E+00;  1.3344733E-01;  2.9332660E+02;
  1.4192803E+00;  9.9999998E-03;  2.0169891E-02;9660;  1.2715759E+00;  0.0000000E+00;  3.2996279E-03;  9.9852502E+02;  1.0998929E-01; -1.1122872E+03;3;  3.5799828E+01;  0.0000000E+00; -2.7349260E-01;0; -1.9894272E-02;  3.3613457E+04;  0.0000000E+00; -2.0834790E-01;  4.0000000E+04;  0.0000000E+00;  3.9216680E+04; -1.5334158E-01;  0.0000000E+00;  1.3344730E-01;  2.9332175E+02;
  1.4193643E+00;  9.9999998E-03; -3.0250762E-02;9655;  1.2722149E+00;  0.0000000E+00; -4.9444134E-03;  9.9864990E+02;  1.0998679E-01; -1.0180172E+03;3;  3.5721439E+01;  0.0000000E+00;  3.9406252E-01;0; -1.8544957E-02;  3.3625402E+04;  0.0000000E+00; -4.2806157E-01;  4.0000000E+04;  0.0000000E+00;  3.9214238E+04; -1.5062937E-01;  0.0000000E+00;  1.3208441E-01;  4.9640173E+02;
  1.4193643E+00;  9.9999998E-03;  3.0250741E-02;9661;  1.2722149E+00;  0.0000000E+00;  4.9446682E-03;  9.9864990E+02;  1.0998679E-01; -1.0180172E+03;3;  3.5721550E+01;  0.0000000E+00; -3.9406234E-01;0; -1.8545195E-02;  3.3625395E+04;  0.0000000E+00; -4.2805836E-01;  4.0000000E+04;  0.0000000E+00;  3.9214238E+04; -1.5062954E-01;  0.0000000E+00;  1.3208434E-01;  4.9639920E+02;
  1.4194189E+00;  9.9999998E-03; -1.0069565E-01;9648;  1.2859070E+00;  0.0000000E+00; -1.3563229E-02;  9.9951251E+02;  1.0997831E-01; -3.6756921E+02;3;  3.4381859E+01;  0.0000000E+00;  1.9945143E+00;0;  1.0484159E-02;  3.3709891E+04;  0.0000000E+00;  5.9313707E+00;  4.0000000E+04;  0.0000000E+00;  3.9194281E+04; -1.2722127E-01;  0.0000000E+00;  1.3770543E-01;  5.1030894E+03;
  1.4194561E+00;  9.9999998E-03; -4.0327922E-02;9654;  1.2731298E+00;  0.0000000E+00; -6.5739253E-03;  9.9880414E+02;  1.0998353E-01; -9.0160266E+02;3;  3.5603992E+01;  0.0000000E+00;  5.1748073E-01;0; -1.6586363E-02;  3.3640570E+04;  0.0000000E+00; -6.5776968E-01;  4.0000000E+04;  0.0000000E+00;  3.9210738E+04; -1.4706422E-01;  0.0000000E+00;  1.3047786E-01;  7.5602429E+02;
  1.4194561E+00;  9.9999998E-03;  4.0327903E-02;9662;  1.2731298E+00;  0.0000000E+00;  6.5741790E-03;  9.9880420E+02;  1.0998349E-01; -9.0155768E+02;3;  3.5604141E+01;  0.0000000E+00; -5.1747066E-01;0; -1.6586497E-02;  3.3640574E+04;  0.0000000E+00; -6.5776592E-01;  4.0000000E+04;  0.0000000E+00;  3.9210742E+04; -1.4706434E-01;  0.0000000E+00;  1.3047785E-01;  7.5601587E+02;
  1.4195566E+00;  9.9999998E-03; -9.0636566E-02;9649;  1.2827713E+00;  0.0000000E+00; -1.3064746E-02;  9.9946527E+02;  1.0997649E-01; -4.0309476E+02;3;  3.4678967E+01;  0.0000000E+00;  1.6051288E+00;0;  4.3584704E-03;  3.3708230E+04;  0.0000000E+00;  2.7280862E+00;  4.0000000E+04;  0.0000000E+00;  3.9192477E+04; -1.2808505E-01;  0.0000000E+00;  1.3244352E-01;  3.1825786E+03;
  1.4195433E+00;  9.9999998E-03; -5.0399240E-02;9653;  1.2743384E+00;  0.0000000E+00; -8.1692589E-03;  9.9898199E+02;  1.0998175E-01; -7.6742480E+02;3;  3.5452847E+01;  0.0000000E+00;  6.3254976E-01;0; -1.3957933E-02;  3.3657586E+04;  0.0000000E+00; -8.1088346E-01;  4.0000000E+04;  0.0000000E+00;  3.9206625E+04; -1.4290565E-01;  0.0000000E+00;  1.2894772E-01;  1.0393634E+03;
  1.4195433E+00;  9.9999998E-03;  5.0399221E-02;9663;  1.2743385E+00;  0.0000000E+00;  8.1695225E-03;  9.9898206E+02;  1.0998173E-01; -7.6737988E+02;3;  3.5453358E+01;  0.0000000E+00; -6.3256419E-01;0; -1.3958201E-02;  3.3657582E+04;  0.0000000E+00; -8.1087726E-01;  4.0000000E+04;  0.0000000E+00;  3.9206629E+04; -1.4290583E-01;  0.0000000E+00;  1.2894763E-01;  1.0393632E+03;
  1.4196293E+00;  9.9999998E-03; -8.0582820E-02;9650;  1.2800440E+00;  0.0000000E+00; -1.2359370E-02;  9.9940503E+02;  1.0997742E-01; -4.4848251E+02;3;  3.4915710E+01;  0.0000000E+00;  1.1223103E+00;0; -1.3422817E-03;  3.3701395E+04;  0.0000000E+00;  7.5036812E-01;  4.0000000E+04;  0.0000000E+00;  3.9194062E+04; -1.3060082E-01;  0.0000000E+00;  1.2925854E-01;  2.1380974E+03;
  1.4196112E+00;  9.9999998E-03; -6.0465474E-02;9652;  1.2758659E+00;  0.0000000E+00; -9.7065968E-03;  9.9914917E+02;  1.0997957E-01; -6.4137732E+02;3;  3.5303085E+01;  0.0000000E+00;  7.0612705E-01;0; -1.0582924E-02;  3.3674680E+04;  0.0000000E+00; -7.5756776E-01;  4.0000000E+04;  0.0000000E+00;  3.9201914E+04; -1.3849248E-01;  0.0000000E+00;  1.2790956E-01;  1.3213474E+03;
  1.4196112E+00;  9.9999998E-03;  6.0465455E-02;9664;  1.2758659E+00;  0.0000000E+00;  9.7068595E-03;  9.9914917E+02;  1.0997957E-01; -6.4137732E+02;3;  3.5303463E+01;  0.0000000E+00; -7.0611745E-01;0; -1.0583118E-02;  3.3674676E+04;  0.0000000E+00; -7.5756186E-01;  4.0000000E+04;  0.0000000E+00;  3.9201914E+04; -1.3849249E-01;  0.0000000E+00;  1.2790938E-01;  1.3213419E+03;
  1.4196444E+00;  9.9999998E-03; -7.0526764E-02;9651;  1.2777508E+00;  0.0000000E+00; -1.1172109E-02;  9.9929669E+02;  1.0997816E-01; -5.3015393E+02;3;  3.5115234E+01;  0.0000000E+00;  7.5399357E-01;0; -6.3792914E-03;  3.3689809E+04;  0.0000000E+00; -3.1614304E-01;  4.0000000E+04;  0.0000000E+00;  3.9197559E+04; -1.3423589E-01;  0.0000000E+00;  1.2785660E-01;  1.6307102E+03;
  1.4301087E+00;  9.9999998E-03; -1.0099617E-02;9704;  1.2692544E+00;  0.0000000E+00; -1.4054648E-03;  9.9858569E+02;  1.0960390E-01; -1.0518081E+03;3;  3.6283356E+01;  0.0000000E+00;  7.8626394E-02;0; -4.0170126E-02;  3.3910848E+04;  0.0000000E+00; -6.7067906E-02;  4.0000000E+04;  0.0000000E+00;  3.9152543E+04; -1.5120982E-01;  0.0000000E+00;  1.1103969E-01;  4.0072940E+02;
  1.4300817E+00;  9.9999998E-03; -9.6040678E-09;9705;  1.2691200E+00;  0.0000000E+00;  1.3134544E-07;  9.9857214E+02;  1.0960406E-01; -1.0619094E+03;3;  3.6298637E+01;  0.0000000E+00; -6.8172812E-07;0; -4.0314347E-02;  3.3908820E+04;  0.0000000E+00; -7.9913550E-12;  4.0000000E+04;  0.0000000E+00;  3.9153262E+04; -1.5165968E-01;  0.0000000E+00;  1.1134534E-01;  3.6674261E+02;
  1.4301087E+00;  9.9999998E-03;  1.0099598E-02;9706;  1.2692544E+00;  0.0000000E+00;  1.4057299E-03;  9.9858575E+02;  1.0960387E-01; -1.0517638E+03;3;  3.6283424E+01;  0.0000000E+00; -7.8657113E-02;0; -4.0169977E-02;  3.3910848E+04;  0.0000000E+00; -6.7066066E-02;  4.0000000E+04;  0.0000000E+00;  3.9152543E+04; -1.5120965E-01;  0.0000000E+00;  1.1103968E-01;  4.0072784E+02;
  1.4301778E+00;  9.9999998E-03; -2.0187717E-02;9703;  1.2696615E+00;  0.0000000E+00; -2.8035948E-03;  9.9863812E+02;  1.0960212E-01; -1.0127491E+03;3;  3.6237354E+01;  0.0000000E+00;  1.5741710E-01;0; -3.9711967E-02;  3.3916777E+04;  0.0000000E+00; -2.4685988E-01;  4.0000000E+04;  0.0000000E+00;  3.9150836E+04; -1.4990258E-01;  0.0000000E+00;  1.1019062E-01;  5.0670926E+02;
  1.4301778E+00;  9.9999998E-03;  2.0187696E-02;9707;  1.2696615E+00;  0.0000000E+00;  2.8038586E-03;  9.9863812E+02;  1.0960212E-01; -1.0127491E+03;3;  3.6235081E+01;  0.0000000E+00; -1.5742511E-01;0; -3.9711982E-02;  3.3916777E+04;  0.0000000E+00; -2.4685542E-01;  4.0000000E+04;  0.0000000E+00;  3.9150836E+04; -1.4990257E-01;  0.0000000E+00;  1.1019059E-01;  5.0671091E+02;
  1.4302644E+00;  9.9999998E-03; -3.0270075E-02;9702;  1.2703520E+00;  0.0000000E+00; -4.1856845E-03;  9.9872186E+02;  1.0959990E-01; -9.5036279E+02;3;  3.6155636E+01;  0.0000000E+00;  2.3518783E-01;0; -3.8881153E-02;  3.3926215E+04;  0.0000000E+00; -4.7844934E-01;  4.0000000E+04;  0.0000000E+00;  3.9148332E+04; -1.4785844E-01;  0.0000000E+00;  1.0897729E-01;  6.7806989E+02;
  1.4302644E+00;  9.9999998E-03;  3.0270055E-02;9708;  1.2703520E+00;  0.0000000E+00;  4.1859443E-03;  9.9872186E+02;  1.0959990E-01; -9.5036279E+02;3;  3.6155773E+01;  0.0000000E+00; -2.3519894E-01;0; -3.8881138E-02;  3.3926219E+04;  0.0000000E+00; -4.7844550E-01;  4.0000000E+04;  0.0000000E+00;  3.9148332E+04; -1.4785850E-01;  0.0000000E+00;  1.0897736E-01;  6.7807007E+02;
  1.4303547E+00;  9.9999998E-03; -4.0348042E-02;9701;  1.2713388E+00;  0.0000000E+00; -5.5397619E-03;  9.9882135E+02;  1.0959724E-01; -8.7624347E+02;3;  3.6043453E+01;  0.0000000E+00;  3.0381146E-01;0; -3.7623078E-02;  3.3937605E+04;  0.0000000E+00; -6.6040170E-01;  4.0000000E+04;  0.0000000E+00;  3.9145051E+04; -1.4528053E-01;  0.0000000E+00;  1.0765745E-01;  8.7949670E+02;
  1.4303547E+00;  9.9999998E-03;  4.0348023E-02;9709;  1.2713389E+00;  0.0000000E+00;  5.5400184E-03;  9.9882135E+02;  1.0959724E-01; -8.7624347E+02;3;  3.6043671E+01;  0.0000000E+00; -3.0384734E-01;0; -3.7623070E-02;  3.3937598E+04;  0.0000000E+00; -6.6039771E-01;  4.0000000E+04;  0.0000000E+00;  3.9145051E+04; -1.4528050E-01;  0.0000000E+00;  1.0765743E-01;  8.7949237E+02;
  1.4304367E+00;  9.9999998E-03; -5.0421841E-02;9700;  1.2726386E+00;  0.0000000E+00; -6.8463334E-03;  9.9891779E+02;  1.0959500E-01; -8.0449969E+02;3;  3.5899422E+01;  0.0000000E+00;  3.6609524E-01;0; -3.5873801E-02;  3.3949094E+04;  0.0000000E+00; -6.4636439E-01;  4.0000000E+04;  0.0000000E+00;  3.9141496E+04; -1.4246176E-01;  0.0000000E+00;  1.0658796E-01;  1.0756548E+03;
  1.4304367E+00;  9.9999998E-03;  5.0421823E-02;9710;  1.2726386E+00;  0.0000000E+00;  6.8465951E-03;  9.9891785E+02;  1.0959499E-01; -8.0445526E+02;3;  3.5899773E+01;  0.0000000E+00; -3.6610299E-01;0; -3.5873830E-02;  3.3949094E+04;  0.0000000E+00; -6.4634895E-01;  4.0000000E+04;  0.0000000E+00;  3.9141492E+04; -1.4246179E-01;  0.0000000E+00;  1.0658796E-01;  1.0756530E+03;
  1.4304949E+00;  9.9999998E-03; -6.0493134E-02;9699;  1.2742718E+00;  0.0000000E+00; -8.0720168E-03;  9.9899268E+02;  1.0959326E-01; -7.4874518E+02;3;  3.5726994E+01;  0.0000000E+00;  4.5215407E-01;0; -3.3559553E-02;  3.3958773E+04;  0.0000000E+00; -2.4224381E-01;  4.0000000E+04;  0.0000000E+00;  3.9138109E+04; -1.3977873E-01;  0.0000000E+00;  1.0621918E-01;  1.2915359E+03;
  1.4304949E+00;  9.9999998E-03;  6.0493115E-02;9711;  1.2742720E+00;  0.0000000E+00;  8.0722794E-03;  9.9899261E+02;  1.0959316E-01; -7.4878955E+02;3;  3.5727489E+01;  0.0000000E+00; -4.5214444E-01;0; -3.3559702E-02;  3.3958766E+04;  0.0000000E+00; -2.4223351E-01;  4.0000000E+04;  0.0000000E+00;  3.9138109E+04; -1.3977893E-01;  0.0000000E+00;  1.0621922E-01;  1.2915334E+03;
  1.4305056E+00;  9.9999998E-03; -7.0563868E-02;9698;  1.2763025E+00;  0.0000000E+00; -9.0259621E-03;  9.9903503E+02;  1.0959151E-01; -7.1723425E+02;3;  3.5562141E+01;  0.0000000E+00;  7.0709455E-01;0; -3.0622005E-02;  3.3965426E+04;  0.0000000E+00;  7.9769474E-01;  4.0000000E+04;  0.0000000E+00;  3.9135672E+04; -1.3763924E-01;  0.0000000E+00;  1.0701723E-01;  1.7169135E+03;
  1.4304529E+00;  9.9999998E-03; -8.0634303E-02;9697;  1.2787567E+00;  0.0000000E+00; -9.6548432E-03;  9.9905719E+02;  1.0959136E-01; -7.0084790E+02;3;  3.5394627E+01;  0.0000000E+00;  9.8648787E-01;0; -2.7109772E-02;  3.3968281E+04;  0.0000000E+00;  2.7675123E+00;  4.0000000E+04;  0.0000000E+00;  3.9135391E+04; -1.3651301E-01;  0.0000000E+00;  1.0940324E-01;  2.6917620E+03;
  1.4301281E+00;  9.9999998E-03; -1.0079735E-01;9695;  1.2848386E+00;  0.0000000E+00; -1.0601607E-02;  9.9915863E+02;  1.0959587E-01; -6.2571362E+02;3;  3.4857388E+01;  0.0000000E+00;  1.5239651E+00;0; -1.9003056E-02;  3.3966055E+04;  0.0000000E+00;  1.0745218E+01;  4.0000000E+04;  0.0000000E+00;  3.9144547E+04; -1.3946062E-01;  0.0000000E+00;  1.2045757E-01;  7.2792720E+03;
  1.4303277E+00;  9.9999998E-03; -9.0709418E-02;9696;  1.2816012E+00;  0.0000000E+00; -1.0133915E-02;  9.9908789E+02;  1.0959312E-01; -6.7814539E+02;3;  3.5131165E+01;  0.0000000E+00;  1.2862041E+00;0; -2.3164831E-02;  3.3968012E+04;  0.0000000E+00;  5.9826612E+00;  4.0000000E+04;  0.0000000E+00;  3.9137992E+04; -1.3694909E-01;  0.0000000E+00;  1.1378426E-01;  4.4917354E+03;
  1.4409502E+00;  9.9999998E-03; -9.4971035E-09;9751;  1.2673197E+00;  0.0000000E+00;  1.3306185E-07;  9.9863379E+02;  1.0927463E-01; -1.0003740E+03;3;  3.6688667E+01;  0.0000000E+00;  1.6957521E-05;0; -6.0262904E-02;  3.4182895E+04;  0.0000000E+00; -6.6832633E-12;  4.0000000E+04;  0.0000000E+00;  3.9080531E+04; -1.4801514E-01;  0.0000000E+00;  8.7752238E-02;  6.0763965E+02;
  1.4409707E+00;  9.9999998E-03; -1.0106411E-02;9750;  1.2674643E+00;  0.0000000E+00; -1.1240364E-03;  9.9864142E+02;  1.0927447E-01; -9.9475671E+02;3;  3.6676071E+01;  0.0000000E+00;  2.5006101E-02;0; -6.0205847E-02;  3.4184070E+04;  0.0000000E+00; -6.0872436E-02;  4.0000000E+04;  0.0000000E+00;  3.9079938E+04; -1.4772607E-01;  0.0000000E+00;  8.7520227E-02;  6.3217896E+02;
  1.4409707E+00;  9.9999998E-03;  1.0106391E-02;9752;  1.2674643E+00;  0.0000000E+00;  1.1243036E-03;  9.9864142E+02;  1.0927447E-01; -9.9475671E+02;3;  3.6676136E+01;  0.0000000E+00; -2.5016323E-02;0; -6.0205795E-02;  3.4184070E+04;  0.0000000E+00; -6.0869887E-02;  4.0000000E+04;  0.0000000E+00;  3.9079938E+04; -1.4772606E-01;  0.0000000E+00;  8.7520264E-02;  6.3217804E+02;
  1.4410293E+00;  9.9999998E-03; -2.0198464E-02;9749;  1.2678999E+00;  0.0000000E+00; -2.2362901E-03;  9.9865479E+02;  1.0927273E-01; -9.8489349E+02;3;  3.6627884E+01;  0.0000000E+00;  5.2778117E-02;0; -6.0024977E-02;  3.4187145E+04;  0.0000000E+00; -2.0723733E-01;  4.0000000E+04;  0.0000000E+00;  3.9078422E+04; -1.4690064E-01;  0.0000000E+00;  8.6875662E-02;  6.9850006E+02;
  1.4410293E+00;  9.9999998E-03;  2.0198444E-02;9753;  1.2678999E+00;  0.0000000E+00;  2.2365565E-03;  9.9865479E+02;  1.0927273E-01; -9.8489349E+02;3;  3.6630299E+01;  0.0000000E+00; -5.2805543E-02;0; -6.0025156E-02;  3.4187145E+04;  0.0000000E+00; -2.0723246E-01;  4.0000000E+04;  0.0000000E+00;  3.9078422E+04; -1.4690092E-01;  0.0000000E+00;  8.6875767E-02;  6.9850378E+02;
  1.4411076E+00;  9.9999998E-03; -3.0285396E-02;9748;  1.2686362E+00;  0.0000000E+00; -3.3272309E-03;  9.9868408E+02;  1.0927199E-01; -9.6330890E+02;3;  3.6550014E+01;  0.0000000E+00;  7.4289486E-02;0; -5.9667915E-02;  3.4191660E+04;  0.0000000E+00; -3.4358677E-01;  4.0000000E+04;  0.0000000E+00;  3.9076328E+04; -1.4566897E-01;  0.0000000E+00;  8.6001053E-02;  7.9383710E+02;
  1.4411076E+00;  9.9999998E-03;  3.0285377E-02;9754;  1.2686362E+00;  0.0000000E+00;  3.3274926E-03;  9.9868408E+02;  1.0927199E-01; -9.6330890E+02;3;  3.6550209E+01;  0.0000000E+00; -7.4318506E-02;0; -5.9668124E-02;  3.4191664E+04;  0.0000000E+00; -3.4358314E-01;  4.0000000E+04;  0.0000000E+00;  3.9076328E+04; -1.4566912E-01;  0.0000000E+00;  8.6000994E-02;  7.9383331E+02;
  1.4411888E+00;  9.9999998E-03; -4.0368911E-02;9747;  1.2696842E+00;  0.0000000E+00; -4.3824795E-03;  9.9870728E+02;  1.0927102E-01; -9.4621918E+02;3;  3.6441959E+01;  0.0000000E+00;  9.2216231E-02;0; -5.9074812E-02;  3.4196344E+04;  0.0000000E+00; -3.1739622E-01;  4.0000000E+04;  0.0000000E+00;  3.9073934E+04; -1.4425461E-01;  0.0000000E+00;  8.5179798E-02;  8.9585248E+02;
  1.4411888E+00;  9.9999998E-03;  4.0368892E-02;9755;  1.2696843E+00;  0.0000000E+00;  4.3827416E-03;  9.9870728E+02;  1.0927102E-01; -9.4621918E+02;3;  3.6442238E+01;  0.0000000E+00; -9.2243984E-02;0; -5.9075020E-02;  3.4196344E+04;  0.0000000E+00; -3.1738958E-01;  4.0000000E+04;  0.0000000E+00;  3.9073938E+04; -1.4425482E-01;  0.0000000E+00;  8.5179798E-02;  8.9585364E+02;
  1.4412527E+00;  9.9999998E-03; -5.0450966E-02;9746;  1.2710637E+00;  0.0000000E+00; -5.3699431E-03;  9.9870947E+02;  1.0927002E-01; -9.4451355E+02;3;  3.6309860E+01;  0.0000000E+00;  1.2499011E-01;0; -5.8171824E-02;  3.4199730E+04;  0.0000000E+00;  7.8271657E-02;  4.0000000E+04;  0.0000000E+00;  3.9071863E+04; -1.4296113E-01;  0.0000000E+00;  8.4789306E-02;  1.0398802E+03;
  1.4412527E+00;  9.9999998E-03;  5.0450943E-02;9756;  1.2710638E+00;  0.0000000E+00;  5.3702025E-03;  9.9870947E+02;  1.0927002E-01; -9.4451355E+02;3;  3.6310116E+01;  0.0000000E+00; -1.2501684E-01;0; -5.8171749E-02;  3.4199742E+04;  0.0000000E+00;  7.8288190E-02;  4.0000000E+04;  0.0000000E+00;  3.9071867E+04; -1.4296108E-01;  0.0000000E+00;  8.4789336E-02;  1.0398840E+03;
  1.4407129E+00;  9.9999998E-03; -1.0096275E-01;9741;  1.2838140E+00;  0.0000000E+00; -7.9044653E-03;  9.9892896E+02;  1.0927247E-01; -7.8452734E+02;3;  3.5258778E+01;  0.0000000E+00;  1.0445679E+00;0; -4.8763588E-02;  3.4200586E+04;  0.0000000E+00;  1.7033169E+01;  4.0000000E+04;  0.0000000E+00;  3.9090680E+04; -1.5260838E-01;  0.0000000E+00;  1.0384479E-01;  9.8108213E+03;
  1.4409425E+00;  9.9999998E-03; -9.0828858E-02;9742;  1.2804748E+00;  0.0000000E+00; -7.4650678E-03;  9.9879309E+02;  1.0927007E-01; -8.8376630E+02;3;  3.5528858E+01;  0.0000000E+00;  9.2245501E-01;0; -5.0964192E-02;  3.4200277E+04;  0.0000000E+00;  1.0804855E+01;  4.0000000E+04;  0.0000000E+00;  3.9081723E+04; -1.4690152E-01;  0.0000000E+00;  9.5937327E-02;  6.4708228E+03;
  1.4412750E+00;  9.9999998E-03; -6.0535002E-02;9745;  1.2728314E+00;  0.0000000E+00; -6.1274460E-03;  9.9869171E+02;  1.0926802E-01; -9.5748132E+02;3;  3.6175621E+01;  0.0000000E+00;  3.0633736E-01;0; -5.6877844E-02;  3.4201172E+04;  0.0000000E+00;  1.0951258E+00;  4.0000000E+04;  0.0000000E+00;  3.9070824E+04; -1.4211228E-01;  0.0000000E+00;  8.5234441E-02;  1.4260000E+03;
  1.4412750E+00;  9.9999998E-03;  6.0534984E-02;9757;  1.2728314E+00;  0.0000000E+00;  6.1277044E-03;  9.9869165E+02;  1.0926805E-01; -9.5752484E+02;3;  3.6175915E+01;  0.0000000E+00; -3.0631834E-01;0; -5.6877933E-02;  3.4201172E+04;  0.0000000E+00;  1.0951451E+00;  4.0000000E+04;  0.0000000E+00;  3.9070824E+04; -1.4211242E-01;  0.0000000E+00;  8.5234486E-02;  1.4260017E+03;
  1.4411246E+00;  9.9999998E-03; -8.0720164E-02;9743;  1.2775402E+00;  0.0000000E+00; -7.0608347E-03;  9.9869733E+02;  1.0926808E-01; -9.5359772E+02;3;  3.5789108E+01;  0.0000000E+00;  7.2456455E-01;0; -5.3189322E-02;  3.4200266E+04;  0.0000000E+00;  6.1645522E+00;  4.0000000E+04;  0.0000000E+00;  3.9075047E+04; -1.4357182E-01;  0.0000000E+00;  9.0382501E-02;  3.9902820E+03;
  1.4412360E+00;  9.9999998E-03; -7.0624061E-02;9744;  1.2749953E+00;  0.0000000E+00; -6.6459868E-03;  9.9867706E+02;  1.0926757E-01; -9.6826971E+02;3;  3.6003922E+01;  0.0000000E+00;  5.3185594E-01;0; -5.5197410E-02;  3.4201066E+04;  0.0000000E+00;  3.0200324E+00;  4.0000000E+04;  0.0000000E+00;  3.9071516E+04; -1.4214234E-01;  0.0000000E+00;  8.6944930E-02;  2.3458550E+03;
  1.4517903E+00;  9.9999998E-03; -9.4116688E-09;9795;  1.2656536E+00;  0.0000000E+00;  1.3438597E-07;  9.9851648E+02;  1.0899577E-01; -1.0677300E+03;3;  3.7046795E+01;  0.0000000E+00; -3.1366944E-06;0; -8.0951490E-02;  3.4420098E+04;  0.0000000E+00; -6.3710599E-12;  4.0000000E+04;  0.0000000E+00;  3.9002012E+04; -1.4550030E-01;  0.0000000E+00;  6.4548813E-02;  7.1009039E+02;
  1.4518056E+00;  9.9999998E-03; -1.0104296E-02;9794;  1.2658058E+00;  0.0000000E+00; -8.1220403E-04;  9.9850946E+02;  1.0899611E-01; -1.0727650E+03;3;  3.7033230E+01;  0.0000000E+00; -1.0544568E-02;0; -8.0985688E-02;  3.4419859E+04;  0.0000000E+00; -2.0030748E-02;  4.0000000E+04;  0.0000000E+00;  3.9001602E+04; -1.4539658E-01;  0.0000000E+00;  6.4410888E-02;  7.1585394E+02;
  1.4518056E+00;  9.9999998E-03;  1.0104276E-02;9796;  1.2658058E+00;  0.0000000E+00;  8.1247150E-04;  9.9850946E+02;  1.0899611E-01; -1.0727650E+03;3;  3.7033356E+01;  0.0000000E+00;  1.0570869E-02;0; -8.0985598E-02;  3.4419867E+04;  0.0000000E+00; -2.0027637E-02;  4.0000000E+04;  0.0000000E+00;  3.9001605E+04; -1.4539647E-01;  0.0000000E+00;  6.4410873E-02;  7.1585193E+02;
  1.4518462E+00;  9.9999998E-03; -2.0198058E-02;9793;  1.2662629E+00;  0.0000000E+00; -1.6146209E-03;  9.9848676E+02;  1.0899547E-01; -1.0890354E+03;3;  3.6982471E+01;  0.0000000E+00; -3.8680855E-02;0; -8.1074879E-02;  3.4419574E+04;  0.0000000E+00; -2.8691255E-02;  4.0000000E+04;  0.0000000E+00;  3.9000887E+04; -1.4512748E-01;  0.0000000E+00;  6.4052597E-02;  7.2726709E+02;
  1.4518464E+00;  9.9999998E-03;  2.0198040E-02;9797;  1.2662628E+00;  0.0000000E+00;  1.6148878E-03;  9.9848682E+02;  1.0899545E-01; -1.0889924E+03;3;  3.6982750E+01;  0.0000000E+00;  3.8659304E-02;0; -8.1074998E-02;  3.4419566E+04;  0.0000000E+00; -2.8689997E-02;  4.0000000E+04;  0.0000000E+00;  3.9000891E+04; -1.4512761E-01;  0.0000000E+00;  6.4052612E-02;  7.2725568E+02;
  1.4518991E+00;  9.9999998E-03; -3.0289726E-02;9792;  1.2670333E+00;  0.0000000E+00; -2.3892343E-03;  9.9844812E+02;  1.0899508E-01; -1.1167334E+03;3;  3.6904427E+01;  0.0000000E+00; -6.8991289E-02;0; -8.1178032E-02;  3.4418543E+04;  0.0000000E+00;  1.0141996E-01;  4.0000000E+04;  0.0000000E+00;  3.8999816E+04; -1.4482203E-01;  0.0000000E+00;  6.3643999E-02;  7.4944202E+02;
  1.4518991E+00;  9.9999998E-03;  3.0289708E-02;9798;  1.2670332E+00;  0.0000000E+00;  2.3895006E-03;  9.9844806E+02;  1.0899509E-01; -1.1167764E+03;3;  3.6904568E+01;  0.0000000E+00;  6.8953753E-02;0; -8.1177875E-02;  3.4418547E+04;  0.0000000E+00;  1.0142882E-01;  4.0000000E+04;  0.0000000E+00;  3.8999812E+04; -1.4482191E-01;  0.0000000E+00;  6.3644037E-02;  7.4944672E+02;
  1.4519426E+00;  9.9999998E-03; -4.0384844E-02;9791;  1.2681383E+00;  0.0000000E+00; -3.0958999E-03;  9.9840167E+02;  1.0899419E-01; -1.1500629E+03;3;  3.6808949E+01;  0.0000000E+00; -6.9045693E-02;0; -8.1222750E-02;  3.4417043E+04;  0.0000000E+00;  5.6071430E-01;  4.0000000E+04;  0.0000000E+00;  3.8999141E+04; -1.4468051E-01;  0.0000000E+00;  6.3457765E-02;  8.5761237E+02;
  1.4519426E+00;  9.9999998E-03;  4.0384822E-02;9799;  1.2681383E+00;  0.0000000E+00;  3.0961635E-03;  9.9840167E+02;  1.0899419E-01; -1.1500629E+03;3;  3.6809151E+01;  0.0000000E+00;  6.9006220E-02;0; -8.1222899E-02;  3.4417051E+04;  0.0000000E+00;  5.6073219E-01;  4.0000000E+04;  0.0000000E+00;  3.8999141E+04; -1.4468063E-01;  0.0000000E+00;  6.3457735E-02;  8.5761865E+02;
  1.4519536E+00;  9.9999998E-03; -5.0485197E-02;9790;  1.2696234E+00;  0.0000000E+00; -3.6278050E-03;  9.9836212E+02;  1.0899369E-01; -1.1785190E+03;3;  3.6707397E+01;  0.0000000E+00;  1.9395474E-02;0; -8.1116252E-02;  3.4415406E+04;  0.0000000E+00;  1.5971422E+00;  4.0000000E+04;  0.0000000E+00;  3.8999562E+04; -1.4492421E-01;  0.0000000E+00;  6.3807957E-02;  1.2511490E+03;
  1.4519536E+00;  9.9999998E-03;  5.0485179E-02;9800;  1.2696235E+00;  0.0000000E+00;  3.6280737E-03;  9.9836218E+02;  1.0899368E-01; -1.1784762E+03;3;  3.6705452E+01;  0.0000000E+00; -1.9335121E-02;0; -8.1116013E-02;  3.4415402E+04;  0.0000000E+00;  1.5971545E+00;  4.0000000E+04;  0.0000000E+00;  3.8999570E+04; -1.4492401E-01;  0.0000000E+00;  6.3808002E-02;  1.2511509E+03;
  1.4512787E+00;  9.9999998E-03; -1.0120147E-01;9785;  1.2828250E+00;  0.0000000E+00; -5.2349204E-03;  9.9869910E+02;  1.0899601E-01; -9.3712500E+02;3;  3.5681000E+01;  0.0000000E+00;  5.0863004E-01;0; -7.9240762E-02;  3.4415605E+04;  0.0000000E+00;  2.2983900E+01;  4.0000000E+04;  0.0000000E+00;  3.9025832E+04; -1.6644989E-01;  0.0000000E+00;  8.7209128E-02;  1.1576650E+04;
  1.4519136E+00;  9.9999998E-03; -6.0593024E-02;9789;  1.2714926E+00;  0.0000000E+00; -4.0246053E-03;  9.9835895E+02;  1.0899299E-01; -1.1808710E+03;3;  3.6574142E+01;  0.0000000E+00;  1.2900040E-01;0; -8.0826923E-02;  3.4414695E+04;  0.0000000E+00;  3.4896491E+00;  4.0000000E+04;  0.0000000E+00;  3.9001562E+04; -1.4591134E-01;  0.0000000E+00;  6.5084413E-02;  2.1270168E+03;
  1.4519136E+00;  9.9999998E-03;  6.0593005E-02;9801;  1.2714926E+00;  0.0000000E+00;  4.0248660E-03;  9.9835889E+02;  1.0899302E-01; -1.1809139E+03;3;  3.6574356E+01;  0.0000000E+00; -1.2898336E-01;0; -8.0826990E-02;  3.4414691E+04;  0.0000000E+00;  3.4896705E+00;  4.0000000E+04;  0.0000000E+00;  3.9001562E+04; -1.4591140E-01;  0.0000000E+00;  6.5084405E-02;  2.1270315E+03;
  1.4514756E+00;  9.9999998E-03; -9.1012828E-02;9786;  1.2793961E+00;  0.0000000E+00; -4.9373424E-03;  9.9865039E+02;  1.0899464E-01; -9.7188611E+02;3;  3.5935165E+01;  0.0000000E+00;  4.5752922E-01;0; -7.9372525E-02;  3.4419199E+04;  0.0000000E+00;  1.6412411E+01;  4.0000000E+04;  0.0000000E+00;  3.9019219E+04; -1.5791786E-01;  0.0000000E+00;  7.8545332E-02;  8.3920117E+03;
  1.4516593E+00;  9.9999998E-03; -8.0854595E-02;9787;  1.2763778E+00;  0.0000000E+00; -4.6463395E-03;  9.9853485E+02;  1.0899387E-01; -1.0547468E+03;3;  3.6182583E+01;  0.0000000E+00;  3.5897166E-01;0; -7.9811372E-02;  3.4418316E+04;  0.0000000E+00;  1.0780412E+01;  4.0000000E+04;  0.0000000E+00;  3.9011559E+04; -1.5191625E-01;  0.0000000E+00;  7.2104879E-02;  5.6677285E+03;
  1.4518143E+00;  9.9999998E-03; -7.0714191E-02;9788;  1.2737426E+00;  0.0000000E+00; -4.3496857E-03;  9.9842004E+02;  1.0899360E-01; -1.1370961E+03;3;  3.6402950E+01;  0.0000000E+00;  2.5052348E-01;0; -8.0367990E-02;  3.4415656E+04;  0.0000000E+00;  6.4904666E+00;  4.0000000E+04;  0.0000000E+00;  3.9005582E+04; -1.4808300E-01;  0.0000000E+00;  6.7715012E-02;  3.5815601E+03;
  1.4625492E+00;  9.9999998E-03; -9.2321137E-09;9837;  1.2640878E+00;  0.0000000E+00;  1.3491835E-07;  9.9819238E+02;  1.0876243E-01; -1.2768287E+03;3;  3.7359016E+01;  0.0000000E+00;  1.1891127E-05;0; -1.0259583E-01;  3.4620688E+04;  0.0000000E+00; -6.9036764E-12;  4.0000000E+04;  0.0000000E+00;  3.8919523E+04; -1.4494970E-01;  0.0000000E+00;  4.2353876E-02;  5.9213977E+02;
  1.4625548E+00;  9.9999998E-03; -1.0103599E-02;9836;  1.2642448E+00;  0.0000000E+00; -4.6891486E-04;  9.9818524E+02;  1.0876292E-01; -1.2818679E+03;3;  3.7344208E+01;  0.0000000E+00; -5.1272705E-02;0; -1.0272443E-01;  3.4620145E+04;  0.0000000E+00;  6.6454619E-02;  4.0000000E+04;  0.0000000E+00;  3.8919457E+04; -1.4504696E-01;  0.0000000E+00;  4.2322531E-02;  5.8230756E+02;
  1.4625548E+00;  9.9999998E-03;  1.0103581E-02;9838;  1.2642448E+00;  0.0000000E+00;  4.6918352E-04;  9.9818530E+02;  1.0876287E-01; -1.2818258E+03;3;  3.7344276E+01;  0.0000000E+00;  5.1273480E-02;0; -1.0272449E-01;  3.4620129E+04;  0.0000000E+00;  6.6456549E-02;  4.0000000E+04;  0.0000000E+00;  3.8919453E+04; -1.4504696E-01;  0.0000000E+00;  4.2322472E-02;  5.8227325E+02;
  1.4625666E+00;  9.9999998E-03; -2.0199094E-02;9835;  1.2647188E+00;  0.0000000E+00; -9.2343753E-04;  9.9816693E+02;  1.0876251E-01; -1.2947654E+03;3;  3.7298397E+01;  0.0000000E+00; -1.0819578E-01;0; -1.0309424E-01;  3.4618883E+04;  0.0000000E+00;  3.3237615E-01;  4.0000000E+04;  0.0000000E+00;  3.8919965E+04; -1.4537217E-01;  0.0000000E+00;  4.2277925E-02;  5.7439331E+02;
  1.4625666E+00;  9.9999998E-03;  2.0199075E-02;9839;  1.2647188E+00;  0.0000000E+00;  9.2370424E-04;  9.9816693E+02;  1.0876251E-01; -1.2947654E+03;3;  3.7298515E+01;  0.0000000E+00;  1.0817039E-01;0; -1.0309404E-01;  3.4618887E+04;  0.0000000E+00;  3.3238122E-01;  4.0000000E+04;  0.0000000E+00;  3.8919969E+04; -1.4537199E-01;  0.0000000E+00;  4.2277943E-02;  5.7439612E+02;
  1.4625726E+00;  9.9999998E-03; -3.0298339E-02;9834;  1.2655344E+00;  0.0000000E+00; -1.3127185E-03;  9.9815302E+02;  1.0876247E-01; -1.3045607E+03;3;  3.7233124E+01;  0.0000000E+00; -1.3728815E-01;0; -1.0363015E-01;  3.4617738E+04;  0.0000000E+00;  9.4135815E-01;  4.0000000E+04;  0.0000000E+00;  3.8920965E+04; -1.4598656E-01;  0.0000000E+00;  4.2356409E-02;  6.9107001E+02;
  1.4625726E+00;  9.9999998E-03;  3.0298321E-02;9840;  1.2655344E+00;  0.0000000E+00;  1.3129840E-03;  9.9815295E+02;  1.0876247E-01; -1.3046028E+03;3;  3.7233215E+01;  0.0000000E+00;  1.3726936E-01;0; -1.0363007E-01;  3.4617738E+04;  0.0000000E+00;  9.4136786E-01;  4.0000000E+04;  0.0000000E+00;  3.8920969E+04; -1.4598650E-01;  0.0000000E+00;  4.2356424E-02;  6.9107343E+02;
  1.4625583E+00;  9.9999998E-03; -4.0416423E-02;9833;  1.2667212E+00;  0.0000000E+00; -1.5918241E-03;  9.9815704E+02;  1.0876229E-01; -1.3017737E+03;3;  3.7154663E+01;  0.0000000E+00; -1.4174652E-01;0; -1.0425530E-01;  3.4617648E+04;  0.0000000E+00;  2.0567756E+00;  4.0000000E+04;  0.0000000E+00;  3.8922625E+04; -1.4701469E-01;  0.0000000E+00;  4.2759389E-02;  1.1111476E+03;
  1.4625583E+00;  9.9999998E-03;  4.0416405E-02;9841;  1.2667214E+00;  0.0000000E+00;  1.5920895E-03;  9.9815704E+02;  1.0876229E-01; -1.3017737E+03;3;  3.7154945E+01;  0.0000000E+00;  1.4169295E-01;0; -1.0425548E-01;  3.4617656E+04;  0.0000000E+00;  2.0567915E+00;  4.0000000E+04;  0.0000000E+00;  3.8922625E+04; -1.4701487E-01;  0.0000000E+00;  4.2759396E-02;  1.1111543E+03;
  1.4625109E+00;  9.9999998E-03; -5.0552525E-02;9832;  1.2682856E+00;  0.0000000E+00; -1.7957586E-03;  9.9820264E+02;  1.0876184E-01; -1.2696759E+03;3;  3.7055054E+01;  0.0000000E+00; -1.2923297E-01;0; -1.0493188E-01;  3.4619273E+04;  0.0000000E+00;  3.8870177E+00;  4.0000000E+04;  0.0000000E+00;  3.8925262E+04; -1.4871326E-01;  0.0000000E+00;  4.3781377E-02;  1.9079979E+03;
  1.4625109E+00;  9.9999998E-03;  5.0552502E-02;9842;  1.2682858E+00;  0.0000000E+00;  1.7960225E-03;  9.9820264E+02;  1.0876184E-01; -1.2696759E+03;3;  3.7057674E+01;  0.0000000E+00;  1.2902769E-01;0; -1.0493234E-01;  3.4619266E+04;  0.0000000E+00;  3.8870611E+00;  4.0000000E+04;  0.0000000E+00;  3.8925262E+04; -1.4871375E-01;  0.0000000E+00;  4.3781415E-02;  1.9080156E+03;
  1.4624263E+00;  9.9999998E-03; -6.0701754E-02;9831;  1.2702310E+00;  0.0000000E+00; -1.9458277E-03;  9.9829578E+02;  1.0876186E-01; -1.2040511E+03;3;  3.6924038E+01;  0.0000000E+00; -1.1680770E-01;0; -1.0564797E-01;  3.4622754E+04;  0.0000000E+00;  6.6520181E+00;  4.0000000E+04;  0.0000000E+00;  3.8929438E+04; -1.5140207E-01;  0.0000000E+00;  4.5754109E-02;  3.1279285E+03;
  1.4624263E+00;  9.9999998E-03;  6.0701732E-02;9843;  1.2702310E+00;  0.0000000E+00;  1.9460885E-03;  9.9829572E+02;  1.0876180E-01; -1.2040933E+03;3;  3.6924309E+01;  0.0000000E+00;  1.1678793E-01;0; -1.0564798E-01;  3.4622750E+04;  0.0000000E+00;  6.6520748E+00;  4.0000000E+04;  0.0000000E+00;  3.8929438E+04; -1.5140225E-01;  0.0000000E+00;  4.5754265E-02;  3.1279507E+03;
  1.4618332E+00;  9.9999998E-03; -1.0147255E-01;9827;  1.2818599E+00;  0.0000000E+00; -2.3678581E-03;  9.9855249E+02;  1.0876387E-01; -1.0237794E+03;3;  3.6073326E+01;  0.0000000E+00; -8.1776433E-02;0; -1.1031710E-01;  3.4622062E+04;  0.0000000E+00;  2.5969206E+01;  4.0000000E+04;  0.0000000E+00;  3.8948316E+04; -1.7988749E-01;  0.0000000E+00;  6.9570385E-02;  1.1617933E+04;
  1.4620004E+00;  9.9999998E-03; -9.1250002E-02;9828;  1.2783568E+00;  0.0000000E+00; -2.2896254E-03;  9.9861005E+02;  1.0876246E-01; -9.8280017E+02;3;  3.6330067E+01;  0.0000000E+00; -9.8235302E-02;0; -1.0863119E-01;  3.4628477E+04;  0.0000000E+00;  2.0654284E+01;  4.0000000E+04;  0.0000000E+00;  3.8946258E+04; -1.6945663E-01;  0.0000000E+00;  6.0825445E-02;  9.2538379E+03;
  1.4621580E+00;  9.9999998E-03; -8.1050836E-02;9829;  1.2752702E+00;  0.0000000E+00; -2.1853040E-03;  9.9856049E+02;  1.0876227E-01; -1.0175307E+03;3;  3.6558941E+01;  0.0000000E+00; -1.0899552E-01;0; -1.0734513E-01;  3.4630691E+04;  0.0000000E+00;  1.5210685E+01;  4.0000000E+04;  0.0000000E+00;  3.8940758E+04; -1.6134018E-01;  0.0000000E+00;  5.3995050E-02;  6.8735396E+03;
  1.4623058E+00;  9.9999998E-03; -7.0864514E-02;9830;  1.2725592E+00;  0.0000000E+00; -2.0720512E-03;  9.9843561E+02;  1.0876184E-01; -1.1055002E+03;3;  3.6758808E+01;  0.0000000E+00; -1.2220535E-01;0; -1.0641791E-01;  3.4627227E+04;  0.0000000E+00;  1.0471912E+01;  4.0000000E+04;  0.0000000E+00;  3.8935000E+04; -1.5546362E-01;  0.0000000E+00;  4.9045708E-02;  4.8020962E+03;
  1.4731457E+00;  9.9999998E-03; -9.3191659E-09;9876;  1.2626398E+00;  0.0000000E+00;  1.3302282E-07;  9.9807190E+02;  1.0856675E-01; -1.3348024E+03;3;  3.7632820E+01;  0.0000000E+00;  4.7832727E-06;0; -1.2530582E-01;  3.4815027E+04;  0.0000000E+00; -4.5343980E-12;  4.0000000E+04;  0.0000000E+00;  3.8834945E+04; -1.4698587E-01;  0.0000000E+00;  2.1680053E-02;  4.3109695E+02;
  1.4731312E+00;  9.9999998E-03; -2.0212788E-02;9874;  1.2633357E+00;  0.0000000E+00; -8.7808650E-05;  9.9812115E+02;  1.0856643E-01; -1.3007559E+03;3;  3.7584686E+01;  0.0000000E+00; -1.5199244E-01;0; -1.2604263E-01;  3.4816797E+04;  0.0000000E+00;  8.6836505E-01;  4.0000000E+04;  0.0000000E+00;  3.8837520E+04; -1.4795183E-01;  0.0000000E+00;  2.1909200E-02;  4.9542923E+02;
  1.4731426E+00;  9.9999998E-03; -1.0110211E-02;9875;  1.2628105E+00;  0.0000000E+00; -7.6154480E-05;  9.9808240E+02;  1.0856678E-01; -1.3275481E+03;3;  3.7617115E+01;  0.0000000E+00; -9.1607787E-02;0; -1.2550135E-01;  3.4815375E+04;  0.0000000E+00;  1.9708525E-01;  4.0000000E+04;  0.0000000E+00;  3.8835695E+04; -1.4723380E-01;  0.0000000E+00;  2.1732448E-02;  4.1953293E+02;
  1.4731426E+00;  9.9999998E-03;  1.0110192E-02;9877;  1.2628105E+00;  0.0000000E+00;  7.6421602E-05;  9.9808240E+02;  1.0856689E-01; -1.3275481E+03;3;  3.7617222E+01;  0.0000000E+00;  9.1608614E-02;0; -1.2550128E-01;  3.4815367E+04;  0.0000000E+00;  1.9708839E-01;  4.0000000E+04;  0.0000000E+00;  3.8835695E+04; -1.4723377E-01;  0.0000000E+00;  2.1732492E-02;  4.1953757E+02;
  1.4731312E+00;  9.9999998E-03;  2.0212770E-02;9878;  1.2633357E+00;  0.0000000E+00;  8.8079862E-05;  9.9812122E+02;  1.0856646E-01; -1.3007146E+03;3;  3.7582649E+01;  0.0000000E+00;  1.5204665E-01;0; -1.2604195E-01;  3.4816793E+04;  0.0000000E+00;  8.6836964E-01;  4.0000000E+04;  0.0000000E+00;  3.8837520E+04; -1.4795116E-01;  0.0000000E+00;  2.1909205E-02;  4.9541946E+02;
  1.4731061E+00;  9.9999998E-03; -3.0335752E-02;9873;  1.2642195E+00;  0.0000000E+00; -4.5238168E-05;  9.9819128E+02;  1.0856684E-01; -1.2522485E+03;3;  3.7525402E+01;  0.0000000E+00; -1.9574448E-01;0; -1.2692845E-01;  3.4819273E+04;  0.0000000E+00;  2.0773194E+00;  4.0000000E+04;  0.0000000E+00;  3.8840660E+04; -1.4923196E-01;  0.0000000E+00;  2.2303503E-02;  8.7806836E+02;
  1.4731063E+00;  9.9999998E-03;  3.0335737E-02;9879;  1.2642196E+00;  0.0000000E+00;  4.5501758E-05;  9.9819135E+02;  1.0856681E-01; -1.2522072E+03;3;  3.7525616E+01;  0.0000000E+00;  1.9565821E-01;0; -1.2692866E-01;  3.4819262E+04;  0.0000000E+00;  2.0773008E+00;  4.0000000E+04;  0.0000000E+00;  3.8840660E+04; -1.4923213E-01;  0.0000000E+00;  2.2303483E-02;  8.7804797E+02;
  1.4730650E+00;  9.9999998E-03; -4.0495664E-02;9872;  1.2654672E+00;  0.0000000E+00;  1.9033994E-05;  9.9826874E+02;  1.0856676E-01; -1.1987399E+03;3;  3.7446636E+01;  0.0000000E+00; -2.3745123E-01;0; -1.2814620E-01;  3.4822113E+04;  0.0000000E+00;  3.8144495E+00;  4.0000000E+04;  0.0000000E+00;  3.8844125E+04; -1.5124011E-01;  0.0000000E+00;  2.3093916E-02;  1.5486625E+03;
  1.4730650E+00;  9.9999998E-03;  4.0495645E-02;9880;  1.2654672E+00;  0.0000000E+00; -1.8766959E-05;  9.9826874E+02;  1.0856675E-01; -1.1987399E+03;3;  3.7446758E+01;  0.0000000E+00;  2.3742570E-01;0; -1.2814642E-01;  3.4822102E+04;  0.0000000E+00;  3.8144329E+00;  4.0000000E+04;  0.0000000E+00;  3.8844125E+04; -1.5124035E-01;  0.0000000E+00;  2.3093920E-02;  1.5486566E+03;
  1.4730024E+00;  9.9999998E-03; -5.0682992E-02;9871;  1.2670897E+00;  0.0000000E+00;  9.9035969E-05;  9.9835419E+02;  1.0856780E-01; -1.1396987E+03;3;  3.7346302E+01;  0.0000000E+00; -2.9078990E-01;0; -1.2963073E-01;  3.4825211E+04;  0.0000000E+00;  6.1263404E+00;  4.0000000E+04;  0.0000000E+00;  3.8847207E+04; -1.5415585E-01;  0.0000000E+00;  2.4525126E-02;  2.4709153E+03;
  1.4730024E+00;  9.9999998E-03;  5.0682969E-02;9881;  1.2670897E+00;  0.0000000E+00; -9.8768120E-05;  9.9835419E+02;  1.0856780E-01; -1.1396987E+03;3;  3.7346600E+01;  0.0000000E+00;  2.9073724E-01;0; -1.2963076E-01;  3.4825207E+04;  0.0000000E+00;  6.1263971E+00;  4.0000000E+04;  0.0000000E+00;  3.8847207E+04; -1.5415592E-01;  0.0000000E+00;  2.4525169E-02;  2.4709351E+03;
  1.4728017E+00;  9.9999998E-03; -7.1065590E-02;9869;  1.2714757E+00;  0.0000000E+00;  2.7375811E-04;  9.9860876E+02;  1.0856790E-01; -9.6379205E+02;3;  3.7073715E+01;  0.0000000E+00; -4.2002693E-01;0; -1.3316929E-01;  3.4833797E+04;  0.0000000E+00;  1.3065803E+01;  4.0000000E+04;  0.0000000E+00;  3.8857402E+04; -1.6363339E-01;  0.0000000E+00;  3.0464102E-02;  5.2085381E+03;
  1.4729140E+00;  9.9999998E-03; -6.0869738E-02;9870;  1.2690907E+00;  0.0000000E+00;  1.8536171E-04;  9.9847931E+02;  1.0856803E-01; -1.0532451E+03;3;  3.7224884E+01;  0.0000000E+00; -3.5524049E-01;0; -1.3131373E-01;  3.4829492E+04;  0.0000000E+00;  9.2588167E+00;  4.0000000E+04;  0.0000000E+00;  3.8852074E+04; -1.5819786E-01;  0.0000000E+00;  2.6884144E-02;  3.7084456E+03;
  1.4729140E+00;  9.9999998E-03;  6.0869720E-02;9882;  1.2690907E+00;  0.0000000E+00; -1.8508955E-04;  9.9847937E+02;  1.0856813E-01; -1.0532039E+03;3;  3.7225372E+01;  0.0000000E+00;  3.5511023E-01;0; -1.3131395E-01;  3.4829484E+04;  0.0000000E+00;  9.2588091E+00;  4.0000000E+04;  0.0000000E+00;  3.8852070E+04; -1.5819810E-01;  0.0000000E+00;  2.6884146E-02;  3.7084465E+03;
  1.4723889E+00;  9.9999998E-03; -1.0172673E-01;9866;  1.2809521E+00;  0.0000000E+00;  7.0967490E-04;  9.9859070E+02;  1.0856879E-01; -9.7709558E+02;3;  3.6405193E+01;  0.0000000E+00; -5.2533406E-01;0; -1.4058983E-01;  3.4826535E+04;  0.0000000E+00;  2.3707510E+01;  4.0000000E+04;  0.0000000E+00;  3.8863152E+04; -1.9058610E-01;  0.0000000E+00;  4.9996272E-02;  9.5762979E+03;
  1.4725343E+00;  9.9999998E-03; -9.1498345E-02;9867;  1.2773886E+00;  0.0000000E+00;  5.1382341E-04;  9.9868726E+02;  1.0856751E-01; -9.0988898E+02;3;  3.6659294E+01;  0.0000000E+00; -5.2622885E-01;0; -1.3778591E-01;  3.4832848E+04;  0.0000000E+00;  2.0965319E+01;  4.0000000E+04;  0.0000000E+00;  3.8864242E+04; -1.7985323E-01;  0.0000000E+00;  4.2067319E-02;  8.3843203E+03;
  1.4726728E+00;  9.9999998E-03; -8.1278317E-02;9868;  1.2742418E+00;  0.0000000E+00;  3.7832957E-04;  9.9868652E+02;  1.0856724E-01; -9.1013690E+02;3;  3.6878479E+01;  0.0000000E+00; -4.7566482E-01;0; -1.3528669E-01;  3.4835508E+04;  0.0000000E+00;  1.7115604E+01;  4.0000000E+04;  0.0000000E+00;  3.8861660E+04; -1.7078194E-01;  0.0000000E+00;  3.5495255E-02;  6.8205654E+03;
  1.4836588E+00;  9.9999998E-03; -2.0262251E-02;9910;  1.2622211E+00;  0.0000000E+00;  6.8439613E-04;  9.9830249E+02;  1.0840371E-01; -1.1501736E+03;3;  3.7824993E+01;  0.0000000E+00; -1.4523087E-01;0; -1.4903773E-01;  3.5010594E+04;  0.0000000E+00;  1.3253800E+00;  4.0000000E+04;  0.0000000E+00;  3.8754727E+04; -1.5196663E-01;  0.0000000E+00;  2.9288970E-03;  4.7082037E+02;
  1.4836763E+00;  9.9999998E-03; -1.0132529E-02;9911;  1.2616839E+00;  0.0000000E+00;  3.4160900E-04;  9.9823834E+02;  1.0840428E-01; -1.1936257E+03;3;  3.7855251E+01;  0.0000000E+00; -7.0779026E-02;0; -1.4824930E-01;  3.5008723E+04;  0.0000000E+00;  3.1743324E-01;  4.0000000E+04;  0.0000000E+00;  3.8751344E+04; -1.5088113E-01;  0.0000000E+00;  2.6318226E-03;  2.4970212E+02;
  1.4836817E+00;  9.9999998E-03; -9.5627097E-09;9912;  1.2615054E+00;  0.0000000E+00;  1.3297827E-07;  9.9821948E+02;  1.0840382E-01; -1.2063738E+03;3;  3.7865185E+01;  0.0000000E+00;  4.4703484E-06;0; -1.4798082E-01;  3.5008332E+04;  0.0000000E+00; -5.1437413E-12;  4.0000000E+04;  0.0000000E+00;  3.8750312E+04; -1.5052335E-01;  0.0000000E+00;  2.5425288E-03;  2.5418340E+02;
  1.4836763E+00;  9.9999998E-03;  1.0132510E-02;9913;  1.2616841E+00;  0.0000000E+00; -3.4134282E-04;  9.9823834E+02;  1.0840372E-01; -1.1936257E+03;3;  3.7855385E+01;  0.0000000E+00;  7.0782959E-02;0; -1.4824924E-01;  3.5008719E+04;  0.0000000E+00;  3.1743687E-01;  4.0000000E+04;  0.0000000E+00;  3.8751340E+04; -1.5088108E-01;  0.0000000E+00;  2.6318410E-03;  2.4970081E+02;
  1.4836588E+00;  9.9999998E-03;  2.0262232E-02;9914;  1.2622211E+00;  0.0000000E+00; -6.8412820E-04;  9.9830249E+02;  1.0840371E-01; -1.1501736E+03;3;  3.7825127E+01;  0.0000000E+00;  1.4523950E-01;0; -1.4903785E-01;  3.5010598E+04;  0.0000000E+00;  1.3253843E+00;  4.0000000E+04;  0.0000000E+00;  3.8754727E+04; -1.5196678E-01;  0.0000000E+00;  2.9289303E-03;  4.7082071E+02;
  1.4836283E+00;  9.9999998E-03; -3.0425556E-02;9909;  1.2631239E+00;  0.0000000E+00;  1.0279921E-03;  9.9838721E+02;  1.0840399E-01; -1.0928546E+03;3;  3.7775478E+01;  0.0000000E+00; -2.2860920E-01;0; -1.5031387E-01;  3.5012930E+04;  0.0000000E+00;  2.8787227E+00;  4.0000000E+04;  0.0000000E+00;  3.8758961E+04; -1.5383318E-01;  0.0000000E+00;  3.5193176E-03;  9.8722504E+02;
  1.4836282E+00;  9.9999998E-03;  3.0425534E-02;9915;  1.2631239E+00;  0.0000000E+00; -1.0277237E-03;  9.9838721E+02;  1.0840399E-01; -1.0928546E+03;3;  3.7775871E+01;  0.0000000E+00;  2.2861563E-01;0; -1.5031394E-01;  3.5012941E+04;  0.0000000E+00;  2.8787763E+00;  4.0000000E+04;  0.0000000E+00;  3.8758961E+04; -1.5383331E-01;  0.0000000E+00;  3.5193781E-03;  9.8724445E+02;
  1.4835218E+00;  9.9999998E-03; -5.0847575E-02;9907;  1.2660450E+00;  0.0000000E+00;  1.7379624E-03;  9.9851947E+02;  1.0840412E-01; -1.0034563E+03;3;  3.7606064E+01;  0.0000000E+00; -4.0440464E-01;0; -1.5418911E-01;  3.5016500E+04;  0.0000000E+00;  6.9056001E+00;  4.0000000E+04;  0.0000000E+00;  3.8765602E+04; -1.6034152E-01;  0.0000000E+00;  6.1524101E-03;  2.4363994E+03;
  1.4835832E+00;  9.9999998E-03; -4.0630095E-02;9908;  1.2643976E+00;  0.0000000E+00;  1.3791205E-03;  9.9845673E+02;  1.0840403E-01; -1.0458600E+03;3;  3.7700912E+01;  0.0000000E+00; -3.1354779E-01;0; -1.5205349E-01;  3.5015098E+04;  0.0000000E+00;  4.7341762E+00;  4.0000000E+04;  0.0000000E+00;  3.8762512E+04; -1.5658894E-01;  0.0000000E+00;  4.5354483E-03;  1.6480554E+03;
  1.4835832E+00;  9.9999998E-03;  4.0630072E-02;9916;  1.2643977E+00;  0.0000000E+00; -1.3788523E-03;  9.9845673E+02;  1.0840414E-01; -1.0458601E+03;3;  3.7701305E+01;  0.0000000E+00;  3.1355318E-01;0; -1.5205358E-01;  3.5015117E+04;  0.0000000E+00;  4.7342467E+00;  4.0000000E+04;  0.0000000E+00;  3.8762516E+04; -1.5658909E-01;  0.0000000E+00;  4.5355163E-03;  1.6480710E+03;
  1.4835218E+00;  9.9999998E-03;  5.0847553E-02;9917;  1.2660451E+00;  0.0000000E+00; -1.7376969E-03;  9.9851947E+02;  1.0840412E-01; -1.0034563E+03;3;  3.7606468E+01;  0.0000000E+00;  4.0433812E-01;0; -1.5418912E-01;  3.5016512E+04;  0.0000000E+00;  6.9056802E+00;  4.0000000E+04;  0.0000000E+00;  3.8765602E+04; -1.6034159E-01;  0.0000000E+00;  6.1524613E-03;  2.4364207E+03;
  1.4834421E+00;  9.9999998E-03; -6.1067212E-02;9906;  1.2680715E+00;  0.0000000E+00;  2.1020253E-03;  9.9858209E+02;  1.0840457E-01; -9.6119952E+02;3;  3.7486885E+01;  0.0000000E+00; -5.0352466E-01;0; -1.5660548E-01;  3.5017734E+04;  0.0000000E+00;  9.3687220E+00;  4.0000000E+04;  0.0000000E+00;  3.8769090E+04; -1.6518016E-01;  0.0000000E+00;  8.5746814E-03;  3.3381582E+03;
  1.4834421E+00;  9.9999998E-03;  6.1067194E-02;9918;  1.2680715E+00;  0.0000000E+00; -2.1017599E-03;  9.9858209E+02;  1.0840457E-01; -9.6119952E+02;3;  3.7487301E+01;  0.0000000E+00;  5.0346559E-01;0; -1.5660542E-01;  3.5017738E+04;  0.0000000E+00;  9.3687630E+00;  4.0000000E+04;  0.0000000E+00;  3.8769090E+04; -1.6518015E-01;  0.0000000E+00;  8.5747205E-03;  3.3381672E+03;
  1.4833446E+00;  9.9999998E-03; -7.1291134E-02;9905;  1.2704864E+00;  0.0000000E+00;  2.4752191E-03;  9.9862854E+02;  1.0840455E-01; -9.2987488E+02;3;  3.7337528E+01;  0.0000000E+00; -6.0880172E-01;0; -1.5917702E-01;  3.5018023E+04;  0.0000000E+00;  1.1831635E+01;  4.0000000E+04;  0.0000000E+00;  3.8771930E+04; -1.7116667E-01;  0.0000000E+00;  1.1989658E-02;  4.2588135E+03;
  1.4832305E+00;  9.9999998E-03; -8.1514508E-02;9904;  1.2732925E+00;  0.0000000E+00;  2.8740114E-03;  9.9866541E+02;  1.0840447E-01; -9.0511700E+02;3;  3.7150677E+01;  0.0000000E+00; -7.0238996E-01;0; -1.6185135E-01;  3.5018418E+04;  0.0000000E+00;  1.3966804E+01;  4.0000000E+04;  0.0000000E+00;  3.8774199E+04; -1.7834520E-01;  0.0000000E+00;  1.6493862E-02;  5.0895972E+03;
  1.4831058E+00;  9.9999998E-03; -9.1735527E-02;9903;  1.2764935E+00;  0.0000000E+00;  3.3138148E-03;  9.9866229E+02;  1.0840504E-01; -9.0745746E+02;3;  3.6937096E+01;  0.0000000E+00; -7.8841943E-01;0; -1.6461927E-01;  3.5016707E+04;  0.0000000E+00;  1.5212009E+01;  4.0000000E+04;  0.0000000E+00;  3.8774969E+04; -1.8663883E-01;  0.0000000E+00;  2.2019573E-02;  5.6478491E+03;
  1.4829686E+00;  9.9999998E-03; -1.0195035E-01;9902;  1.2801397E+00;  0.0000000E+00;  3.8344273E-03;  9.9866333E+02;  1.0840515E-01; -9.0703186E+02;3;  3.6732937E+01;  0.0000000E+00; -8.5815841E-01;0; -1.6713221E-01;  3.5017629E+04;  0.0000000E+00;  1.5053517E+01;  4.0000000E+04;  0.0000000E+00;  3.8774121E+04; -1.9526964E-01;  0.0000000E+00;  2.8137434E-02;  5.7555767E+03;
  1.4941229E+00;  9.9999998E-03; -4.0781517E-02;9942;  1.2634500E+00;  0.0000000E+00;  2.5691530E-03;  9.9859698E+02;  1.0826983E-01; -9.2923907E+02;3;  3.7950024E+01;  0.0000000E+00; -4.0279779E-01;0; -1.7477493E-01;  3.5187871E+04;  0.0000000E+00;  3.8826044E+00;  4.0000000E+04;  0.0000000E+00;  3.8679273E+04; -1.6191299E-01;  0.0000000E+00; -1.2861932E-02;  1.2802831E+03;
  1.4941690E+00;  9.9999998E-03; -3.0562028E-02;9943;  1.2621640E+00;  0.0000000E+00;  1.9211542E-03;  9.9852258E+02;  1.0826989E-01; -9.7840460E+02;3;  3.8025497E+01;  0.0000000E+00; -2.9687849E-01;0; -1.7281434E-01;  3.5186180E+04;  0.0000000E+00;  2.4524033E+00;  4.0000000E+04;  0.0000000E+00;  3.8675281E+04; -1.5891014E-01;  0.0000000E+00; -1.3904200E-02;  8.0887207E+02;
  1.4942009E+00;  9.9999998E-03; -2.0358432E-02;9944;  1.2612493E+00;  0.0000000E+00;  1.2774962E-03;  9.9844867E+02;  1.0826933E-01; -1.0272770E+03;3;  3.8076977E+01;  0.0000000E+00; -1.9543520E-01;0; -1.7135410E-01;  3.5184590E+04;  0.0000000E+00;  1.1931093E+00;  4.0000000E+04;  0.0000000E+00;  3.8671246E+04; -1.5678771E-01;  0.0000000E+00; -1.4566391E-02;  4.0752365E+02;
  1.4942197E+00;  9.9999998E-03; -1.0177165E-02;9945;  1.2607020E+00;  0.0000000E+00;  6.3803361E-04;  9.9839014E+02;  1.0826907E-01; -1.0659913E+03;3;  3.8108738E+01;  0.0000000E+00; -9.6993417E-02;0; -1.7046747E-01;  3.5183059E+04;  0.0000000E+00;  3.0305004E-01;  4.0000000E+04;  0.0000000E+00;  3.8668270E+04; -1.5553881E-01;  0.0000000E+00; -1.4928651E-02;  1.3994205E+02;
  1.4942256E+00;  9.9999998E-03; -1.0554803E-08;9946;  1.2605194E+00;  0.0000000E+00;  1.3293031E-07;  9.9836816E+02;  1.0826924E-01; -1.0805406E+03;3;  3.8118607E+01;  0.0000000E+00;  7.8678131E-06;0; -1.7017345E-01;  3.5182773E+04;  0.0000000E+00; -3.9137361E-12;  4.0000000E+04;  0.0000000E+00;  3.8666996E+04; -1.5513037E-01;  0.0000000E+00; -1.5043082E-02;  7.6030128E+01;
  1.4942197E+00;  9.9999998E-03;  1.0177146E-02;9947;  1.2607020E+00;  0.0000000E+00; -6.3776638E-04;  9.9839014E+02;  1.0826919E-01; -1.0659913E+03;3;  3.8108807E+01;  0.0000000E+00;  9.7013235E-02;0; -1.7046733E-01;  3.5183047E+04;  0.0000000E+00;  3.0305475E-01;  4.0000000E+04;  0.0000000E+00;  3.8668270E+04; -1.5553869E-01;  0.0000000E+00; -1.4928639E-02;  1.3994801E+02;
  1.4942009E+00;  9.9999998E-03;  2.0358412E-02;9948;  1.2612493E+00;  0.0000000E+00; -1.2772275E-03;  9.9844867E+02;  1.0826933E-01; -1.0272770E+03;3;  3.8077065E+01;  0.0000000E+00;  1.9547898E-01;0; -1.7135414E-01;  3.5184590E+04;  0.0000000E+00;  1.1931258E+00;  4.0000000E+04;  0.0000000E+00;  3.8671246E+04; -1.5678778E-01;  0.0000000E+00; -1.4566362E-02;  4.0752844E+02;
  1.4941690E+00;  9.9999998E-03;  3.0562006E-02;9949;  1.2621640E+00;  0.0000000E+00; -1.9208844E-03;  9.9852258E+02;  1.0826989E-01; -9.7840460E+02;3;  3.8025730E+01;  0.0000000E+00;  2.9689872E-01;0; -1.7281422E-01;  3.5186180E+04;  0.0000000E+00;  2.4524348E+00;  4.0000000E+04;  0.0000000E+00;  3.8675277E+04; -1.5891007E-01;  0.0000000E+00; -1.3904153E-02;  8.0887683E+02;
  1.4941229E+00;  9.9999998E-03;  4.0781494E-02;9950;  1.2634500E+00;  0.0000000E+00; -2.5688866E-03;  9.9859692E+02;  1.0826989E-01; -9.2927856E+02;3;  3.7950081E+01;  0.0000000E+00;  4.0280414E-01;0; -1.7477459E-01;  3.5187883E+04;  0.0000000E+00;  3.8826208E+00;  4.0000000E+04;  0.0000000E+00;  3.8679273E+04; -1.6191269E-01;  0.0000000E+00; -1.2861886E-02;  1.2802780E+03;
  1.4937786E+00;  9.9999998E-03; -8.1707381E-02;9938;  1.2725930E+00;  0.0000000E+00;  5.2768136E-03;  9.9892767E+02;  1.0826928E-01; -7.1077069E+02;3;  3.7404388E+01;  0.0000000E+00; -8.6445290E-01;0; -1.8247572E-01;  3.5203621E+04;  0.0000000E+00;  6.9305038E+00;  4.0000000E+04;  0.0000000E+00;  3.8687375E+04; -1.7936946E-01;  0.0000000E+00; -3.1062511E-03;  2.5581152E+03;
  1.4938900E+00;  9.9999998E-03; -7.1479574E-02;9939;  1.2696586E+00;  0.0000000E+00;  4.5660734E-03;  9.9880621E+02;  1.0826970E-01; -7.9104913E+02;3;  3.7564682E+01;  0.0000000E+00; -7.4190712E-01;0; -1.8138295E-01;  3.5195926E+04;  0.0000000E+00;  7.0170670E+00;  4.0000000E+04;  0.0000000E+00;  3.8686559E+04; -1.7491060E-01;  0.0000000E+00; -6.4723478E-03;  2.4708215E+03;
  1.4939851E+00;  9.9999998E-03; -6.1247107E-02;9940;  1.2671766E+00;  0.0000000E+00;  3.8837299E-03;  9.9871863E+02;  1.0826949E-01; -8.4892926E+02;3;  3.7735882E+01;  0.0000000E+00; -6.3223648E-01;0; -1.7942378E-01;  3.5191262E+04;  0.0000000E+00;  6.3582954E+00;  4.0000000E+04;  0.0000000E+00;  3.8684828E+04; -1.7019613E-01;  0.0000000E+00; -9.2276474E-03;  2.1725193E+03;
  1.4940622E+00;  9.9999998E-03; -5.1012933E-02;9941;  1.2651139E+00;  0.0000000E+00;  3.2225945E-03;  9.9865680E+02;  1.0826997E-01; -8.8972546E+02;3;  3.7854256E+01;  0.0000000E+00; -5.1451933E-01;0; -1.7709503E-01;  3.5189344E+04;  0.0000000E+00;  5.2355165E+00;  4.0000000E+04;  0.0000000E+00;  3.8682305E+04; -1.6575551E-01;  0.0000000E+00; -1.1339515E-02;  1.7508750E+03;
  1.4940622E+00;  9.9999998E-03;  5.1012918E-02;9951;  1.2651139E+00;  0.0000000E+00; -3.2223298E-03;  9.9865680E+02;  1.0827000E-01; -8.8972546E+02;3;  3.7854588E+01;  0.0000000E+00;  5.1447427E-01;0; -1.7709495E-01;  3.5189344E+04;  0.0000000E+00;  5.2354231E+00;  4.0000000E+04;  0.0000000E+00;  3.8682301E+04; -1.6575548E-01;  0.0000000E+00; -1.1339474E-02;  1.7508490E+03;
  1.4939851E+00;  9.9999998E-03;  6.1247084E-02;9952;  1.2671766E+00;  0.0000000E+00; -3.8834610E-03;  9.9871863E+02;  1.0826949E-01; -8.4892926E+02;3;  3.7736225E+01;  0.0000000E+00;  6.3216376E-01;0; -1.7942373E-01;  3.5191270E+04;  0.0000000E+00;  6.3583384E+00;  4.0000000E+04;  0.0000000E+00;  3.8684820E+04; -1.7019613E-01;  0.0000000E+00; -9.2276055E-03;  2.1725286E+03;
  1.4935265E+00;  9.9999998E-03; -1.0212871E-01;9936;  1.2798003E+00;  0.0000000E+00;  6.8677119E-03;  9.9918890E+02;  1.0826929E-01; -5.3791449E+02;3;  3.7055489E+01;  0.0000000E+00; -1.0878271E+00;0; -1.8202896E-01;  3.5221660E+04;  0.0000000E+00;  3.7897530E+00;  4.0000000E+04;  0.0000000E+00;  3.8687809E+04; -1.8615577E-01;  0.0000000E+00;  4.1268053E-03;  1.8519041E+03;
  1.4936553E+00;  9.9999998E-03; -9.1928080E-02;9937;  1.2759809E+00;  0.0000000E+00;  6.0464949E-03;  9.9905334E+02;  1.0826938E-01; -6.2762335E+02;3;  3.7224468E+01;  0.0000000E+00; -9.6999788E-01;0; -1.8262728E-01;  3.5213156E+04;  0.0000000E+00;  5.7994981E+00;  4.0000000E+04;  0.0000000E+00;  3.8686883E+04; -1.8320918E-01;  0.0000000E+00;  5.8189948E-04;  2.3401147E+03;
  1.5047307E+00;  9.9999998E-03; -1.0235329E-02;9976;  1.2600436E+00;  0.0000000E+00;  9.1462687E-04;  9.9890381E+02;  1.0815685E-01; -7.0852759E+02;3;  3.8346603E+01;  0.0000000E+00; -1.2228596E-01;0; -1.8796808E-01;  3.5366535E+04;  0.0000000E+00;  1.0152080E-01;  4.0000000E+04;  0.0000000E+00;  3.8587270E+04; -1.5713224E-01;  0.0000000E+00; -3.0835833E-02;  3.5751276E+02;
  1.5047370E+00;  9.9999998E-03; -1.0291783E-08;9977;  1.2598529E+00;  0.0000000E+00;  1.3184952E-07;  9.9889069E+02;  1.0815696E-01; -7.1699261E+02;3;  3.8357449E+01;  0.0000000E+00; -1.9669533E-06;0; -1.8778203E-01;  3.5366016E+04;  0.0000000E+00; -1.3384673E-12;  4.0000000E+04;  0.0000000E+00;  3.8586832E+04; -1.5683602E-01;  0.0000000E+00; -3.0946020E-02;  3.4285376E+02;
  1.5047307E+00;  9.9999998E-03;  1.0235310E-02;9978;  1.2600436E+00;  0.0000000E+00; -9.1436214E-04;  9.9890381E+02;  1.0815685E-01; -7.0852759E+02;3;  3.8346668E+01;  0.0000000E+00;  1.2231714E-01;0; -1.8796811E-01;  3.5366527E+04;  0.0000000E+00;  1.0152266E-01;  4.0000000E+04;  0.0000000E+00;  3.8587266E+04; -1.5713230E-01;  0.0000000E+00; -3.0835811E-02;  3.5750449E+02;
  1.5042052E+00;  9.9999998E-03; -9.2061281E-02;9968;  1.2757860E+00;  0.0000000E+00;  8.5815713E-03;  9.9963818E+02;  1.0815518E-01; -2.3414038E+02;3;  3.7496815E+01;  0.0000000E+00; -1.1510379E+00;0; -1.8854286E-01;  3.5400984E+04;  0.0000000E+00; -1.9600719E+00;  4.0000000E+04;  0.0000000E+00;  3.8608203E+04; -1.6661030E-01;  0.0000000E+00; -2.1932555E-02;  6.4483929E+02;
  1.5043170E+00;  9.9999998E-03; -8.1853315E-02;9969;  1.2722886E+00;  0.0000000E+00;  7.5452169E-03;  9.9947040E+02;  1.0815527E-01; -3.4263449E+02;3;  3.7656666E+01;  0.0000000E+00; -1.0244682E+00;0; -1.9169535E-01;  3.5390961E+04;  0.0000000E+00; -4.7455707E-01;  4.0000000E+04;  0.0000000E+00;  3.8606027E+04; -1.6838528E-01;  0.0000000E+00; -2.3310071E-02;  7.2322058E+02;
  1.5044166E+00;  9.9999998E-03; -7.1627885E-02;9970;  1.2692741E+00;  0.0000000E+00;  6.5311547E-03;  9.9936206E+02;  1.0815554E-01; -4.1264603E+02;3;  3.7813187E+01;  0.0000000E+00; -8.8984120E-01;0; -1.9302240E-01;  3.5384242E+04;  0.0000000E+00;  8.1748819E-01;  4.0000000E+04;  0.0000000E+00;  3.8604945E+04; -1.6808259E-01;  0.0000000E+00; -2.4939807E-02;  8.8014575E+02;
  1.5045052E+00;  9.9999998E-03; -6.1389938E-02;9971;  1.2666866E+00;  0.0000000E+00;  5.5580540E-03;  9.9925513E+02;  1.0815584E-01; -4.8171207E+02;3;  3.7965611E+01;  0.0000000E+00; -7.6241690E-01;0; -1.9342990E-01;  3.5377125E+04;  0.0000000E+00;  1.6477698E+00;  4.0000000E+04;  0.0000000E+00;  3.8603914E+04; -1.6687065E-01;  0.0000000E+00; -2.6559247E-02;  9.8219208E+02;
  1.5045792E+00;  9.9999998E-03; -5.1146403E-02;9972;  1.2645456E+00;  0.0000000E+00;  4.6131201E-03;  9.9916412E+02;  1.0815641E-01; -5.4047803E+02;3;  3.8091282E+01;  0.0000000E+00; -6.3112563E-01;0; -1.9274797E-01;  3.5372500E+04;  0.0000000E+00;  1.9365077E+00;  4.0000000E+04;  0.0000000E+00;  3.8601867E+04; -1.6477908E-01;  0.0000000E+00; -2.7968887E-02;  9.6405829E+02;
  1.5046370E+00;  9.9999998E-03; -4.0903840E-02;9973;  1.2628481E+00;  0.0000000E+00;  3.6767973E-03;  9.9910187E+02;  1.0815657E-01; -5.8063434E+02;3;  3.8187828E+01;  0.0000000E+00; -4.9913985E-01;0; -1.9120832E-01;  3.5370477E+04;  0.0000000E+00;  1.7471237E+00;  4.0000000E+04;  0.0000000E+00;  3.8598840E+04; -1.6212372E-01;  0.0000000E+00; -2.9084593E-02;  8.3302942E+02;
  1.5046802E+00;  9.9999998E-03; -3.0672519E-02;9974;  1.2615498E+00;  0.0000000E+00;  2.7492722E-03;  9.9903754E+02;  1.0815704E-01; -6.2214960E+02;3;  3.8261761E+01;  0.0000000E+00; -3.7071207E-01;0; -1.8961081E-01;  3.5369871E+04;  0.0000000E+00;  1.1770961E+00;  4.0000000E+04;  0.0000000E+00;  3.8594445E+04; -1.5968926E-01;  0.0000000E+00; -2.9921550E-02;  6.2624152E+02;
  1.5047117E+00;  9.9999998E-03; -2.0454286E-02;9975;  1.2606133E+00;  0.0000000E+00;  1.8300853E-03;  9.9895880E+02;  1.0815680E-01; -6.7299835E+02;3;  3.8315403E+01;  0.0000000E+00; -2.4539337E-01;0; -1.8854016E-01;  3.5367988E+04;  0.0000000E+00;  5.1511687E-01;  4.0000000E+04;  0.0000000E+00;  3.8590051E+04; -1.5804033E-01;  0.0000000E+00; -3.0499831E-02;  4.4280533E+02;
  1.5047117E+00;  9.9999998E-03;  2.0454265E-02;9979;  1.2606133E+00;  0.0000000E+00; -1.8298203E-03;  9.9895880E+02;  1.0815680E-01; -6.7299835E+02;3;  3.8315498E+01;  0.0000000E+00;  2.4542093E-01;0; -1.8854025E-01;  3.5367988E+04;  0.0000000E+00;  5.1513195E-01;  4.0000000E+04;  0.0000000E+00;  3.8590051E+04; -1.5804048E-01;  0.0000000E+00; -3.0499766E-02;  4.4280295E+02;
  1.5046802E+00;  9.9999998E-03;  3.0672500E-02;9980;  1.2615498E+00;  0.0000000E+00; -2.7490053E-03;  9.9903754E+02;  1.0815704E-01; -6.2214960E+02;3;  3.8261848E+01;  0.0000000E+00;  3.7070799E-01;0; -1.8961094E-01;  3.5369871E+04;  0.0000000E+00;  1.1770877E+00;  4.0000000E+04;  0.0000000E+00;  3.8594445E+04; -1.5968947E-01;  0.0000000E+00; -2.9921478E-02;  6.2624188E+02;
  1.5046370E+00;  9.9999998E-03;  4.0903814E-02;9981;  1.2628483E+00;  0.0000000E+00; -3.6765251E-03;  9.9910193E+02;  1.0815654E-01; -5.8059583E+02;3;  3.8188526E+01;  0.0000000E+00;  4.9908835E-01;0; -1.9120848E-01;  3.5370477E+04;  0.0000000E+00;  1.7471983E+00;  4.0000000E+04;  0.0000000E+00;  3.8598840E+04; -1.6212399E-01;  0.0000000E+00; -2.9084492E-02;  8.3304224E+02;
  1.5045792E+00;  9.9999998E-03;  5.1146384E-02;9982;  1.2645456E+00;  0.0000000E+00; -4.6128491E-03;  9.9916412E+02;  1.0815641E-01; -5.4047797E+02;3;  3.8091011E+01;  0.0000000E+00;  6.3111544E-01;0; -1.9274791E-01;  3.5372496E+04;  0.0000000E+00;  1.9364824E+00;  4.0000000E+04;  0.0000000E+00;  3.8601871E+04; -1.6477908E-01;  0.0000000E+00; -2.7968828E-02;  9.6409723E+02;
  1.5045052E+00;  9.9999998E-03;  6.1389919E-02;9983;  1.2666866E+00;  0.0000000E+00; -5.5577816E-03;  9.9925513E+02;  1.0815584E-01; -4.8171207E+02;3;  3.7964314E+01;  0.0000000E+00;  7.6245016E-01;0; -1.9342828E-01;  3.5377125E+04;  0.0000000E+00;  1.6478004E+00;  4.0000000E+04;  0.0000000E+00;  3.8603914E+04; -1.6686912E-01;  0.0000000E+00; -2.6559163E-02;  9.8219525E+02;
  1.5147486E+00;  9.9999998E-03; -9.2159592E-02;9995;  1.2758181E+00;  0.0000000E+00;  1.0877195E-02;  1.0002056E+03;  1.0806190E-01;  1.2976085E+02;3;  3.7728107E+01;  0.0000000E+00; -1.3299308E+00;0; -1.8353504E-01;  3.5571090E+04;  0.0000000E+00; -1.5795774E+00;  4.0000000E+04;  0.0000000E+00;  3.8534156E+04; -1.3824002E-01;  0.0000000E+00; -4.5295019E-02;  1.0403145E+03;
  1.5148538E+00;  9.9999998E-03; -8.1969552E-02;9996;  1.2722772E+00;  0.0000000E+00;  9.6182730E-03;  9.9998383E+02;  1.0806145E-01; -1.0190194E+01;3;  3.7875160E+01;  0.0000000E+00; -1.1893917E+00;0; -1.8905863E-01;  3.5561980E+04;  0.0000000E+00; -2.7772272E+00;  4.0000000E+04;  0.0000000E+00;  3.8526867E+04; -1.4507696E-01;  0.0000000E+00; -4.3981675E-02;  1.0105864E+03;
  1.5149488E+00;  9.9999998E-03; -7.1761481E-02;9997;  1.2691430E+00;  0.0000000E+00;  8.3702030E-03;  9.9979059E+02;  1.0806064E-01; -1.3206589E+02;3;  3.8029434E+01;  0.0000000E+00; -1.0479636E+00;0; -1.9393875E-01;  3.5553020E+04;  0.0000000E+00; -2.8689666E+00;  4.0000000E+04;  0.0000000E+00;  3.8522062E+04; -1.5039805E-01;  0.0000000E+00; -4.3540705E-02;  9.6738776E+02;
  1.5150317E+00;  9.9999998E-03; -6.1535213E-02;9998;  1.2664589E+00;  0.0000000E+00;  7.1520335E-03;  9.9965027E+02;  1.0805984E-01; -2.2055394E+02;3;  3.8172504E+01;  0.0000000E+00; -8.9924449E-01;0; -1.9736895E-01;  3.5545812E+04;  0.0000000E+00; -2.3924122E+00;  4.0000000E+04;  0.0000000E+00;  3.8519402E+04; -1.5374723E-01;  0.0000000E+00; -4.3621726E-02;  9.2003552E+02;
  1.5150317E+00;  9.9999998E-03;  6.1535187E-02;10010;  1.2664590E+00;  0.0000000E+00; -7.1517210E-03;  9.9965051E+02;  1.0805995E-01; -2.2036601E+02;3;  3.8171631E+01;  0.0000000E+00;  8.9923501E-01;0; -1.9736528E-01;  3.5545785E+04;  0.0000000E+00; -2.3923593E+00;  4.0000000E+04;  0.0000000E+00;  3.8519398E+04; -1.5374376E-01;  0.0000000E+00; -4.3621533E-02;  9.2007349E+02;
  1.5151019E+00;  9.9999998E-03; -5.1292308E-02;9999;  1.2642392E+00;  0.0000000E+00;  5.9430092E-03;  9.9955084E+02;  1.0805909E-01; -2.8319870E+02;3;  3.8294636E+01;  0.0000000E+00; -7.4682629E-01;0; -1.9906554E-01;  3.5540016E+04;  0.0000000E+00; -1.6972870E+00;  4.0000000E+04;  0.0000000E+00;  3.8518105E+04; -1.5515350E-01;  0.0000000E+00; -4.3912031E-02;  8.9154895E+02;
  1.5151019E+00;  9.9999998E-03;  5.1292289E-02;10009;  1.2642392E+00;  0.0000000E+00; -5.9427284E-03;  9.9955090E+02;  1.0805906E-01; -2.8316110E+02;3;  3.8293781E+01;  0.0000000E+00;  7.4684942E-01;0; -1.9906358E-01;  3.5540012E+04;  0.0000000E+00; -1.6973269E+00;  4.0000000E+04;  0.0000000E+00;  3.8518105E+04; -1.5515167E-01;  0.0000000E+00; -4.3911923E-02;  8.9155890E+02;
  1.5151590E+00;  9.9999998E-03; -4.1039992E-02;10000;  1.2624557E+00;  0.0000000E+00;  4.7328197E-03;  9.9947540E+02;  1.0805903E-01; -3.3069064E+02;3;  3.8393429E+01;  0.0000000E+00; -5.9427899E-01;0; -1.9964366E-01;  3.5535676E+04;  0.0000000E+00; -1.0452760E+00;  4.0000000E+04;  0.0000000E+00;  3.8516742E+04; -1.5537556E-01;  0.0000000E+00; -4.4268098E-02;  8.6909204E+02;
  1.5151590E+00;  9.9999998E-03;  4.1039973E-02;10008;  1.2624557E+00;  0.0000000E+00; -4.7325427E-03;  9.9947552E+02;  1.0805907E-01; -3.3061551E+02;3;  3.8393341E+01;  0.0000000E+00;  5.9430259E-01;0; -1.9964167E-01;  3.5535672E+04;  0.0000000E+00; -1.0452715E+00;  4.0000000E+04;  0.0000000E+00;  3.8516742E+04; -1.5537368E-01;  0.0000000E+00; -4.4267993E-02;  8.6906262E+02;
  1.5152339E+00;  9.9999998E-03; -2.0544626E-02;10002;  1.2600855E+00;  0.0000000E+00;  2.3520608E-03;  9.9933118E+02;  1.0805924E-01; -4.2154324E+02;3;  3.8527256E+01;  0.0000000E+00; -2.9460445E-01;0; -2.0000663E-01;  3.5529773E+04;  0.0000000E+00; -3.6846477E-01;  4.0000000E+04;  0.0000000E+00;  3.8511754E+04; -1.5505354E-01;  0.0000000E+00; -4.4953089E-02;  7.8245776E+02;
  1.5152520E+00;  9.9999998E-03; -1.0285413E-02;10003;  1.2594923E+00;  0.0000000E+00;  1.1748808E-03;  9.9930646E+02;  1.0805906E-01; -4.3711423E+02;3;  3.8560055E+01;  0.0000000E+00; -1.4707869E-01;0; -2.0005247E-01;  3.5528570E+04;  0.0000000E+00; -1.3456926E-01;  4.0000000E+04;  0.0000000E+00;  3.8510875E+04; -1.5489617E-01;  0.0000000E+00; -4.5156296E-02;  7.6652020E+02;
  1.5152520E+00;  9.9999998E-03;  1.0285393E-02;10005;  1.2594923E+00;  0.0000000E+00; -1.1746207E-03;  9.9930646E+02;  1.0805908E-01; -4.3711423E+02;3;  3.8560547E+01;  0.0000000E+00;  1.4709443E-01;0; -2.0005253E-01;  3.5528582E+04;  0.0000000E+00; -1.3456593E-01;  4.0000000E+04;  0.0000000E+00;  3.8510875E+04; -1.5489629E-01;  0.0000000E+00; -4.5156240E-02;  7.6645959E+02;
  1.5152339E+00;  9.9999998E-03;  2.0544607E-02;10006;  1.2600855E+00;  0.0000000E+00; -2.3517972E-03;  9.9933118E+02;  1.0805924E-01; -4.2154324E+02;3;  3.8527252E+01;  0.0000000E+00;  2.9466641E-01;0; -2.0000659E-01;  3.5529766E+04;  0.0000000E+00; -3.6846048E-01;  4.0000000E+04;  0.0000000E+00;  3.8511750E+04; -1.5505353E-01;  0.0000000E+00; -4.4953067E-02;  7.8246582E+02;
  1.5152029E+00;  9.9999998E-03; -3.0788211E-02;10001;  1.2610714E+00;  0.0000000E+00;  3.5350192E-03;  9.9939911E+02;  1.0805906E-01; -3.7874509E+02;3;  3.8471745E+01;  0.0000000E+00; -4.4335064E-01;0; -1.9990909E-01;  3.5532285E+04;  0.0000000E+00; -5.9829319E-01;  4.0000000E+04;  0.0000000E+00;  3.8514488E+04; -1.5526952E-01;  0.0000000E+00; -4.4639573E-02;  8.3219153E+02;
  1.5152029E+00;  9.9999998E-03;  3.0788193E-02;10007;  1.2610714E+00;  0.0000000E+00; -3.5347557E-03;  9.9939911E+02;  1.0805906E-01; -3.7874509E+02;3;  3.8471844E+01;  0.0000000E+00;  4.4337243E-01;0; -1.9990912E-01;  3.5532293E+04;  0.0000000E+00; -5.9828269E-01;  4.0000000E+04;  0.0000000E+00;  3.8514488E+04; -1.5526958E-01;  0.0000000E+00; -4.4639535E-02;  8.3219037E+02;
  1.5152580E+00;  9.9999998E-03; -9.5910169E-09;10004;  1.2592938E+00;  0.0000000E+00;  1.2995027E-07;  9.9930768E+02;  1.0805900E-01; -4.3631903E+02;3;  3.8573631E+01;  0.0000000E+00;  6.5565109E-07;0; -2.0006928E-01;  3.5528398E+04;  0.0000000E+00;  1.8424498E-12;  4.0000000E+04;  0.0000000E+00;  3.8511020E+04; -1.5484241E-01;  0.0000000E+00; -4.5226868E-02;  7.7115637E+02;
  1.5252701E+00;  9.9999998E-03; -9.2187501E-02;10017;  1.2757086E+00;  0.0000000E+00;  1.2803838E-02;  1.0009545E+03;  1.0798149E-01;  5.8685614E+02;3;  3.7961720E+01;  0.0000000E+00; -1.5647427E+00;0; -1.7652312E-01;  3.5725641E+04;  0.0000000E+00;  1.2426449E+01;  4.0000000E+04;  0.0000000E+00;  3.8479523E+04; -1.0775618E-01;  0.0000000E+00; -6.8766929E-02;  2.6541160E+03;
  1.5253789E+00;  9.9999998E-03; -8.2023561E-02;10018;  1.2721624E+00;  0.0000000E+00;  1.1425458E-02;  1.0005253E+03;  1.0798179E-01;  3.2291376E+02;3;  3.8064541E+01;  0.0000000E+00; -1.3807261E+00;0; -1.8305209E-01;  3.5712293E+04;  0.0000000E+00;  6.2787542E+00;  4.0000000E+04;  0.0000000E+00;  3.8461262E+04; -1.1818185E-01;  0.0000000E+00; -6.4870246E-02;  1.7767716E+03;
  1.5254751E+00;  9.9999998E-03; -7.1840398E-02;10019;  1.2690016E+00;  0.0000000E+00;  1.0019621E-02;  1.0001818E+03;  1.0798174E-01;  1.1171435E+02;3;  3.8198174E+01;  0.0000000E+00; -1.2131493E+00;0; -1.8947621E-01;  3.5700035E+04;  0.0000000E+00;  2.4586997E+00;  4.0000000E+04;  0.0000000E+00;  3.8448008E+04; -1.2726693E-01;  0.0000000E+00; -6.2209275E-02;  1.3407739E+03;
  1.5255588E+00;  9.9999998E-03; -6.1640210E-02;10020;  1.2662506E+00;  0.0000000E+00;  8.6118337E-03;  9.9990100E+02;  1.0798132E-01; -6.0825794E+01;3;  3.8330074E+01;  0.0000000E+00; -1.0414606E+00;0; -1.9518143E-01;  3.5688633E+04;  0.0000000E+00;  2.6479387E-01;  4.0000000E+04;  0.0000000E+00;  3.8438523E+04; -1.3471614E-01;  0.0000000E+00; -6.0465291E-02;  1.1716863E+03;
  1.5255588E+00;  9.9999998E-03;  6.1640184E-02;10032;  1.2662506E+00;  0.0000000E+00; -8.6115599E-03;  9.9990100E+02;  1.0798132E-01; -6.0825794E+01;3;  3.8330307E+01;  0.0000000E+00;  1.0414636E+00;0; -1.9518147E-01;  3.5688652E+04;  0.0000000E+00;  2.6479724E-01;  4.0000000E+04;  0.0000000E+00;  3.8438523E+04; -1.3471630E-01;  0.0000000E+00; -6.0465176E-02;  1.1716869E+03;
  1.5256290E+00;  9.9999998E-03; -5.1415808E-02;10021;  1.2639560E+00;  0.0000000E+00;  7.1806042E-03;  9.9972272E+02;  1.0798084E-01; -1.7032620E+02;3;  3.8454021E+01;  0.0000000E+00; -8.6826462E-01;0; -1.9915563E-01;  3.5679824E+04;  0.0000000E+00; -7.8908914E-01;  4.0000000E+04;  0.0000000E+00;  3.8434480E+04; -1.3987085E-01;  0.0000000E+00; -5.9284784E-02;  1.1555968E+03;
  1.5256290E+00;  9.9999998E-03;  5.1415771E-02;10031;  1.2639560E+00;  0.0000000E+00; -7.1803541E-03;  9.9972266E+02;  1.0798086E-01; -1.7036281E+02;3;  3.8454075E+01;  0.0000000E+00;  8.6819786E-01;0; -1.9915569E-01;  3.5679809E+04;  0.0000000E+00; -7.8902090E-01;  4.0000000E+04;  0.0000000E+00;  3.8434496E+04; -1.3987097E-01;  0.0000000E+00; -5.9284713E-02;  1.1555498E+03;
  1.5256858E+00;  9.9999998E-03; -4.1165788E-02;10022;  1.2620817E+00;  0.0000000E+00;  5.7182317E-03;  9.9963470E+02;  1.0798056E-01; -2.2437257E+02;3;  3.8557777E+01;  0.0000000E+00; -6.9265020E-01;0; -2.0207661E-01;  3.5673375E+04;  0.0000000E+00; -1.0432193E+00;  4.0000000E+04;  0.0000000E+00;  3.8434254E+04; -1.4356397E-01;  0.0000000E+00; -5.8512643E-02;  1.2048405E+03;
  1.5256858E+00;  9.9999998E-03;  4.1165773E-02;10030;  1.2620819E+00;  0.0000000E+00; -5.7179770E-03;  9.9963470E+02;  1.0798056E-01; -2.2437257E+02;3;  3.8558022E+01;  0.0000000E+00;  6.9257152E-01;0; -2.0207663E-01;  3.5673383E+04;  0.0000000E+00; -1.0432411E+00;  4.0000000E+04;  0.0000000E+00;  3.8434254E+04; -1.4356405E-01;  0.0000000E+00; -5.8512580E-02;  1.2048362E+03;
  1.5257293E+00;  9.9999998E-03; -3.0893767E-02;10023;  1.2606047E+00;  0.0000000E+00;  4.2677624E-03;  9.9959821E+02;  1.0798021E-01; -2.4674998E+02;3;  3.8641117E+01;  0.0000000E+00; -5.1821584E-01;0; -2.0459108E-01;  3.5668531E+04;  0.0000000E+00; -8.2674992E-01;  4.0000000E+04;  0.0000000E+00;  3.8436551E+04; -1.4646666E-01;  0.0000000E+00; -5.8124427E-02;  1.2776429E+03;
  1.5257293E+00;  9.9999998E-03;  3.0893743E-02;10029;  1.2606047E+00;  0.0000000E+00; -4.2675035E-03;  9.9959821E+02;  1.0798021E-01; -2.4674998E+02;3;  3.8641273E+01;  0.0000000E+00;  5.1824307E-01;0; -2.0459111E-01;  3.5668543E+04;  0.0000000E+00; -8.2673049E-01;  4.0000000E+04;  0.0000000E+00;  3.8436551E+04; -1.4646675E-01;  0.0000000E+00; -5.8124367E-02;  1.2776426E+03;
  1.5257608E+00;  9.9999998E-03; -2.0612445E-02;10024;  1.2595319E+00;  0.0000000E+00;  2.8377168E-03;  9.9956763E+02;  1.0798085E-01; -2.6550717E+02;3;  3.8700912E+01;  0.0000000E+00; -3.4495652E-01;0; -2.0667143E-01;  3.5664488E+04;  0.0000000E+00; -4.6615225E-01;  4.0000000E+04;  0.0000000E+00;  3.8438262E+04; -1.4870051E-01;  0.0000000E+00; -5.7970926E-02;  1.3404912E+03;
  1.5257797E+00;  9.9999998E-03; -1.0321193E-02;10025;  1.2588810E+00;  0.0000000E+00;  1.4181024E-03;  9.9955328E+02;  1.0798053E-01; -2.7431512E+02;3;  3.8738598E+01;  0.0000000E+00; -1.7242169E-01;0; -2.0802811E-01;  3.5661617E+04;  0.0000000E+00; -1.4896472E-01;  4.0000000E+04;  0.0000000E+00;  3.8440059E+04; -1.5010521E-01;  0.0000000E+00; -5.7922903E-02;  1.3906144E+03;
  1.5257859E+00;  9.9999998E-03; -1.0158825E-08;10026;  1.2586617E+00;  0.0000000E+00;  1.2763927E-07;  9.9955823E+02;  1.0798027E-01; -2.7127310E+02;3;  3.8750244E+01;  0.0000000E+00;  2.6226044E-05;0; -2.0850495E-01;  3.5660957E+04;  0.0000000E+00; -2.7247325E-12;  4.0000000E+04;  0.0000000E+00;  3.8441156E+04; -1.5059103E-01;  0.0000000E+00; -5.7913922E-02;  1.4198838E+03;
  1.5257797E+00;  9.9999998E-03;  1.0321174E-02;10027;  1.2588810E+00;  0.0000000E+00; -1.4178458E-03;  9.9955334E+02;  1.0798053E-01; -2.7427850E+02;3;  3.8739311E+01;  0.0000000E+00;  1.7243207E-01;0; -2.0802827E-01;  3.5661613E+04;  0.0000000E+00; -1.4896491E-01;  4.0000000E+04;  0.0000000E+00;  3.8440062E+04; -1.5010537E-01;  0.0000000E+00; -5.7922900E-02;  1.3906105E+03;
  1.5257608E+00;  9.9999998E-03;  2.0612422E-02;10028;  1.2595319E+00;  0.0000000E+00; -2.8374642E-03;  9.9956757E+02;  1.0798086E-01; -2.6554376E+02;3;  3.8700855E+01;  0.0000000E+00;  3.4495878E-01;0; -2.0667143E-01;  3.5664504E+04;  0.0000000E+00; -4.6613663E-01;  4.0000000E+04;  0.0000000E+00;  3.8438262E+04; -1.4870057E-01;  0.0000000E+00; -5.7970870E-02;  1.3404415E+03;
  1.5361458E+00;  9.9999998E-03; -5.1448505E-02;10036;  1.2634094E+00;  0.0000000E+00;  8.2222130E-03;  9.9998340E+02;  1.0791633E-01; -9.9477806E+00;3;  3.8584465E+01;  0.0000000E+00; -1.0112273E+00;0; -2.0006508E-01;  3.5800312E+04;  0.0000000E+00;  7.7794046E+00;  4.0000000E+04;  0.0000000E+00;  3.8367680E+04; -1.2608919E-01;  0.0000000E+00; -7.3975898E-02;  2.1333740E+03;
  1.5361458E+00;  9.9999998E-03;  5.1448494E-02;10046;  1.2634094E+00;  0.0000000E+00; -8.2219550E-03;  9.9998340E+02;  1.0791633E-01; -9.9477806E+00;3;  3.8583416E+01;  0.0000000E+00;  1.0111836E+00;0; -2.0006305E-01;  3.5800297E+04;  0.0000000E+00;  7.7795086E+00;  4.0000000E+04;  0.0000000E+00;  3.8367680E+04; -1.2608720E-01;  0.0000000E+00; -7.3975846E-02;  2.1333823E+03;
  1.5362055E+00;  9.9999998E-03; -4.1219357E-02;10037;  1.2614671E+00;  0.0000000E+00;  6.5754433E-03;  9.9977722E+02;  1.0791581E-01; -1.3325867E+02;3;  3.8689804E+01;  0.0000000E+00; -8.0572844E-01;0; -2.0461874E-01;  3.5789605E+04;  0.0000000E+00;  4.7551546E+00;  4.0000000E+04;  0.0000000E+00;  3.8363066E+04; -1.3275316E-01;  0.0000000E+00; -7.1865574E-02;  1.9226899E+03;
  1.5362055E+00;  9.9999998E-03;  4.1219342E-02;10045;  1.2614672E+00;  0.0000000E+00; -6.5751881E-03;  9.9977722E+02;  1.0791581E-01; -1.3325867E+02;3;  3.8689842E+01;  0.0000000E+00;  8.0567920E-01;0; -2.0461875E-01;  3.5789605E+04;  0.0000000E+00;  4.7552166E+00;  4.0000000E+04;  0.0000000E+00;  3.8363066E+04; -1.3275325E-01;  0.0000000E+00; -7.1865499E-02;  1.9227109E+03;
  1.5362509E+00;  9.9999998E-03; -3.0952271E-02;10038;  1.2599272E+00;  0.0000000E+00;  4.9195392E-03;  9.9970911E+02;  1.0791630E-01; -1.7395061E+02;3;  3.8774590E+01;  0.0000000E+00; -6.0258138E-01;0; -2.0866387E-01;  3.5782020E+04;  0.0000000E+00;  2.5399883E+00;  4.0000000E+04;  0.0000000E+00;  3.8365617E+04; -1.3819481E-01;  0.0000000E+00; -7.0469052E-02;  1.9349003E+03;
  1.5362825E+00;  9.9999998E-03; -2.0644609E-02;10039;  1.2588089E+00;  0.0000000E+00;  3.2670854E-03;  9.9972742E+02;  1.0791668E-01; -1.6299431E+02;3;  3.8839165E+01;  0.0000000E+00; -4.0090722E-01;0; -2.1188775E-01;  3.5777227E+04;  0.0000000E+00;  1.0348558E+00;  4.0000000E+04;  0.0000000E+00;  3.8372016E+04; -1.4225678E-01;  0.0000000E+00; -6.9630973E-02;  2.0628967E+03;
  1.5363014E+00;  9.9999998E-03; -1.0319652E-02;10040;  1.2581345E+00;  0.0000000E+00;  1.6292530E-03;  9.9974915E+02;  1.0791652E-01; -1.5001323E+02;3;  3.8875839E+01;  0.0000000E+00; -2.0006084E-01;0; -2.1391036E-01;  3.5774332E+04;  0.0000000E+00;  2.3246506E-01;  4.0000000E+04;  0.0000000E+00;  3.8376609E+04; -1.4470544E-01;  0.0000000E+00; -6.9204912E-02;  2.1656477E+03;
  1.5363077E+00;  9.9999998E-03; -9.2696251E-09;10041;  1.2579111E+00;  0.0000000E+00;  1.2481620E-07;  9.9975275E+02;  1.0791671E-01; -1.4783675E+02;3;  3.8888794E+01;  0.0000000E+00;  3.1590462E-05;0; -2.1457264E-01;  3.5773254E+04;  0.0000000E+00;  8.0306022E-12;  4.0000000E+04;  0.0000000E+00;  3.8377660E+04; -1.4549686E-01;  0.0000000E+00; -6.9075778E-02;  2.1962278E+03;
  1.5363014E+00;  9.9999998E-03;  1.0319640E-02;10042;  1.2581345E+00;  0.0000000E+00; -1.6290037E-03;  9.9974915E+02;  1.0791647E-01; -1.5001323E+02;3;  3.8875553E+01;  0.0000000E+00;  2.0011306E-01;0; -2.1391045E-01;  3.5774305E+04;  0.0000000E+00;  2.3248479E-01;  4.0000000E+04;  0.0000000E+00;  3.8376613E+04; -1.4470550E-01;  0.0000000E+00; -6.9204941E-02;  2.1656753E+03;
  1.5362825E+00;  9.9999998E-03;  2.0644577E-02;10043;  1.2588089E+00;  0.0000000E+00; -3.2668312E-03;  9.9972742E+02;  1.0791630E-01; -1.6299431E+02;3;  3.8839035E+01;  0.0000000E+00;  4.0091133E-01;0; -2.1188784E-01;  3.5777227E+04;  0.0000000E+00;  1.0348079E+00;  4.0000000E+04;  0.0000000E+00;  3.8372012E+04; -1.4225689E-01;  0.0000000E+00; -6.9630951E-02;  2.0629204E+03;
  1.5362509E+00;  9.9999998E-03;  3.0952254E-02;10044;  1.2599272E+00;  0.0000000E+00; -4.9192896E-03;  9.9970911E+02;  1.0791630E-01; -1.7395061E+02;3;  3.8774742E+01;  0.0000000E+00;  6.0253167E-01;0; -2.0866404E-01;  3.5782016E+04;  0.0000000E+00;  2.5400097E+00;  4.0000000E+04;  0.0000000E+00;  3.8365613E+04; -1.3819499E-01;  0.0000000E+00; -7.0469052E-02;  1.9349048E+03;
  3.0720436E-03;  9.9999998E-03;  7.0010938E-02;2484; -3.7994215E-03;  0.0000000E+00;  8.5124469E-05;  9.8320636E+02;  1.0000000E-01; -1.3913236E+04;3;  4.6536137E+01;  0.0000000E+00;  9.7187924E-01;0; -1.0152684E-01;  3.8692730E+04;  0.0000000E+00;  4.2142125E-04;  4.0000000E+04;  0.0000000E+00;  3.9990875E+04; -1.0386272E-01;  0.0000000E+00;  2.3358797E-03;  2.5510475E+02;
  3.0926501E-03;  9.9999998E-03;  8.0019332E-02;2485; -3.8259870E-03;  0.0000000E+00;  1.0858880E-04;  9.8307507E+02;  1.0000000E-01; -1.4021974E+04;3;  4.8288883E+01;  0.0000000E+00;  1.0936083E+00;0; -1.0236141E-01;  3.8681840E+04;  0.0000000E+00; -1.9426984E-03;  4.0000000E+04;  0.0000000E+00;  3.9991801E+04; -1.0472588E-01;  0.0000000E+00;  2.3644685E-03;  3.7642020E+02;
  3.1144363E-03;  9.9999998E-03;  9.0029232E-02;2486; -3.8655396E-03;  0.0000000E+00;  1.3733711E-04;  9.8293213E+02;  1.0000000E-01; -1.4140391E+04;3;  5.0292397E+01;  0.0000000E+00;  1.1815693E+00;0; -1.0328861E-01;  3.8669738E+04;  0.0000000E+00; -7.6152189E-03;  4.0000000E+04;  0.0000000E+00;  3.9992762E+04; -1.0559107E-01;  0.0000000E+00;  2.3024671E-03;  5.3403900E+02;
  3.1367005E-03;  9.9999998E-03;  1.0003947E-01;2487; -3.9149807E-03;  0.0000000E+00;  1.7080954E-04;  9.8278137E+02;  1.0000000E-01; -1.4265325E+04;3;  5.2509865E+01;  0.0000000E+00;  1.2108382E+00;0; -1.0424402E-01;  3.8656863E+04;  0.0000000E+00; -1.8496878E-02;  4.0000000E+04;  0.0000000E+00;  3.9994043E+04; -1.0639899E-01;  0.0000000E+00;  2.1549698E-03;  7.1767853E+02;
  3.1580618E-03;  9.9999998E-03;  1.1004806E-01;2488; -3.9682239E-03;  0.0000000E+00;  2.0797500E-04;  9.8263342E+02;  1.0000000E-01; -1.4387890E+04;3;  5.4879135E+01;  0.0000000E+00;  1.1532007E+00;0; -1.0513935E-01;  3.8644008E+04;  0.0000000E+00; -3.6674522E-02;  4.0000000E+04;  0.0000000E+00;  3.9995258E+04; -1.0708080E-01;  0.0000000E+00;  1.9414522E-03;  9.1648639E+02;
  3.1765108E-03;  9.9999998E-03;  1.2005291E-01;2489; -4.0162811E-03;  0.0000000E+00;  2.4751062E-04;  9.8249274E+02;  1.0000000E-01; -1.4504430E+04;3;  5.7427773E+01;  0.0000000E+00;  9.7973484E-01;0; -1.0586640E-01;  3.8632066E+04;  0.0000000E+00; -6.4089656E-02;  4.0000000E+04;  0.0000000E+00;  3.9997395E+04; -1.0756022E-01;  0.0000000E+00;  1.6938235E-03;  1.1231122E+03;
  3.1896033E-03;  9.9999998E-03;  1.3005283E-01;2490; -4.0483279E-03;  0.0000000E+00;  2.8804559E-04;  9.8237781E+02;  1.0000000E-01; -1.4599637E+04;3;  6.0125614E+01;  0.0000000E+00;  6.6296339E-01;0; -1.0630573E-01;  3.8621730E+04;  0.0000000E+00; -1.0210446E-01;  4.0000000E+04;  0.0000000E+00;  3.9998977E+04; -1.0775783E-01;  0.0000000E+00;  1.4520956E-03;  1.3370270E+03;
  3.1942688E-03;  9.9999998E-03;  1.4004757E-01;2491; -4.0525626E-03;  0.0000000E+00;  3.2963307E-04;  9.8230621E+02;  1.0000000E-01; -1.4658943E+04;3;  6.2996658E+01;  0.0000000E+00;  1.8756215E-01;0; -1.0633717E-01;  3.8614930E+04;  0.0000000E+00; -1.5102507E-01;  4.0000000E+04;  0.0000000E+00;  4.0000449E+04; -1.0759528E-01;  0.0000000E+00;  1.2581032E-03;  1.5665238E+03;
  3.1871032E-03;  9.9999998E-03;  1.5003899E-01;2492; -4.0177200E-03;  0.0000000E+00;  3.7435102E-04;  9.8230103E+02;  1.0000000E-01; -1.4663289E+04;3;  6.6053925E+01;  0.0000000E+00; -4.5492750E-01;0; -1.0585172E-01;  3.8612688E+04;  0.0000000E+00; -2.0988496E-01;  4.0000000E+04;  0.0000000E+00;  4.0002719E+04; -1.0699910E-01;  0.0000000E+00;  1.1473780E-03;  1.8274272E+03;
  3.1640786E-03;  9.9999998E-03;  1.6002792E-01;2493; -3.9349580E-03;  0.0000000E+00;  4.2334705E-04;  9.8238617E+02;  1.0000000E-01; -1.4592723E+04;3;  6.9273796E+01;  0.0000000E+00; -1.3157686E+00;0; -1.0476437E-01;  3.8617293E+04;  0.0000000E+00; -2.7681682E-01;  4.0000000E+04;  0.0000000E+00;  4.0004973E+04; -1.0590425E-01;  0.0000000E+00;  1.1398760E-03;  2.1363303E+03;
  3.1196414E-03;  9.9999998E-03;  1.7001402E-01;2494; -3.7984233E-03;  0.0000000E+00;  4.8108643E-04;  9.8258563E+02;  1.0000000E-01; -1.4427493E+04;3;  7.2556801E+01;  0.0000000E+00; -2.4579499E+00;0; -1.0301930E-01;  3.8629789E+04;  0.0000000E+00; -3.4880114E-01;  4.0000000E+04;  0.0000000E+00;  4.0007852E+04; -1.0425290E-01;  0.0000000E+00;  1.2335919E-03;  2.5040767E+03;
  3.0470602E-03;  9.9999998E-03;  1.7999759E-01;2495; -3.6078359E-03;  0.0000000E+00;  5.4876774E-04;  9.8292206E+02;  1.0000000E-01; -1.4148735E+04;3;  7.5676369E+01;  0.0000000E+00; -3.9825199E+00;0; -1.0059319E-01;  3.8652449E+04;  0.0000000E+00; -4.2144766E-01;  4.0000000E+04;  0.0000000E+00;  4.0011363E+04; -1.0199615E-01;  0.0000000E+00;  1.4029628E-03;  2.9302681E+03;
  2.9400543E-03;  9.9999998E-03;  1.8997939E-01;2496; -3.3681693E-03;  0.0000000E+00;  6.2845106E-04;  9.8341040E+02;  1.0000000E-01; -1.3744154E+04;3;  7.8300858E+01;  0.0000000E+00; -5.9471469E+00;0; -9.7495511E-02;  3.8686391E+04;  0.0000000E+00; -4.8908332E-01;  4.0000000E+04;  0.0000000E+00;  4.0015410E+04; -9.9096552E-02;  0.0000000E+00;  1.6010387E-03;  3.3978047E+03;
  2.7922110E-03;  9.9999998E-03;  1.9996026E-01;2497; -3.0901562E-03;  0.0000000E+00;  7.2073744E-04;  9.8406403E+02;  1.0000000E-01; -1.3202639E+04;3;  7.9932358E+01;  0.0000000E+00; -8.3399162E+00;0; -9.3764193E-02;  3.8732719E+04;  0.0000000E+00; -5.4534477E-01;  4.0000000E+04;  0.0000000E+00;  4.0019688E+04; -9.5529869E-02;  0.0000000E+00;  1.7656757E-03;  3.8690898E+03;
  2.6003732E-03;  9.9999998E-03;  2.0993997E-01;2498; -2.7897037E-03;  0.0000000E+00;  8.2363456E-04;  9.8488910E+02;  1.0000000E-01; -1.2519103E+04;3;  7.9963783E+01;  0.0000000E+00; -1.1045500E+01;0; -8.9462072E-02;  3.8791926E+04;  0.0000000E+00; -5.8434147E-01;  4.0000000E+04;  0.0000000E+00;  4.0023477E+04; -9.1291144E-02;  0.0000000E+00;  1.8290719E-03;  4.2846079E+03;
  2.3625973E-03;  9.9999998E-03;  2.1991824E-01;2499; -2.4854729E-03;  0.0000000E+00;  9.3351194E-04;  9.8587103E+02;  1.0000000E-01; -1.1705595E+04;3;  7.7863480E+01;  0.0000000E+00; -1.3863436E+01;0; -8.4665887E-02;  3.8864457E+04;  0.0000000E+00; -6.0205615E-01;  4.0000000E+04;  0.0000000E+00;  4.0026324E+04; -8.6395137E-02;  0.0000000E+00;  1.7292497E-03;  4.5682402E+03;
  2.0827027E-03;  9.9999998E-03;  2.2989526E-01;2500; -2.1966628E-03;  0.0000000E+00;  1.0451213E-03;  9.8699255E+02;  1.0000000E-01; -1.0776436E+04;3;  7.3171349E+01;  0.0000000E+00; -1.6547638E+01;0; -7.9460368E-02;  3.8949250E+04;  0.0000000E+00; -5.9755623E-01;  4.0000000E+04;  0.0000000E+00;  4.0027863E+04; -8.0882177E-02;  0.0000000E+00;  1.4218128E-03;  4.6388325E+03;
  1.2847458E-02;  9.9999998E-03;  7.0015699E-02;2544; -5.2905027E-03;  0.0000000E+00;  1.2322146E-04;  9.8598370E+02;  1.0000000E-01; -1.1612215E+04;3;  4.9642515E+00;  0.0000000E+00;  9.3978757E-01;0; -1.0716100E-01;  3.8905570E+04;  0.0000000E+00;  9.6112060E-05;  4.0000000E+04;  0.0000000E+00;  3.9990641E+04; -1.0992508E-01;  0.0000000E+00;  2.7640781E-03;  5.4288292E+01;
  1.2865452E-02;  9.9999998E-03;  8.0023438E-02;2545; -5.3366525E-03;  0.0000000E+00;  1.5854693E-04;  9.8585254E+02;  1.0000000E-01; -1.1720903E+04;3;  6.6065369E+00;  0.0000000E+00;  1.0804572E+00;0; -1.0809255E-01;  3.8894332E+04;  0.0000000E+00; -2.3886119E-03;  4.0000000E+04;  0.0000000E+00;  3.9991859E+04; -1.1088003E-01;  0.0000000E+00;  2.7874785E-03;  1.9823463E+02;
  1.2885347E-02;  9.9999998E-03;  9.0032347E-02;2546; -5.4001114E-03;  0.0000000E+00;  1.9918018E-04;  9.8570020E+02;  1.0000000E-01; -1.1847122E+04;3;  8.4915848E+00;  0.0000000E+00;  1.1866049E+00;0; -1.0915095E-01;  3.8881484E+04;  0.0000000E+00; -8.8477777E-03;  4.0000000E+04;  0.0000000E+00;  3.9993465E+04; -1.1184387E-01;  0.0000000E+00;  2.6929250E-03;  3.7103558E+02;
  1.2906723E-02;  9.9999998E-03;  1.0004144E-01;2547; -5.4770396E-03;  0.0000000E+00;  2.4347457E-04;  9.8553815E+02;  1.0000000E-01; -1.1981390E+04;3;  1.0515862E+01;  0.0000000E+00;  1.2316985E+00;0; -1.1027008E-01;  3.8867633E+04;  0.0000000E+00; -2.1818111E-02;  4.0000000E+04;  0.0000000E+00;  3.9994906E+04; -1.1275692E-01;  0.0000000E+00;  2.4868378E-03;  5.5726410E+02;
  1.2928809E-02;  9.9999998E-03;  1.1004930E-01;2548; -5.5597262E-03;  0.0000000E+00;  2.8872766E-04;  9.8536810E+02;  1.0000000E-01; -1.2122225E+04;3;  1.2676064E+01;  0.0000000E+00;  1.1841004E+00;0; -1.1135677E-01;  3.8853156E+04;  0.0000000E+00; -4.4177324E-02;  4.0000000E+04;  0.0000000E+00;  3.9996230E+04; -1.1355086E-01;  0.0000000E+00;  2.1940903E-03;  7.4237152E+02;
  1.2950307E-02;  9.9999998E-03;  1.2005465E-01;2549; -5.6371419E-03;  0.0000000E+00;  3.3190960E-04;  9.8519916E+02;  1.0000000E-01; -1.2262221E+04;3;  1.4975080E+01;  0.0000000E+00;  1.0107785E+00;0; -1.1229444E-01;  3.8839062E+04;  0.0000000E+00; -7.8689314E-02;  4.0000000E+04;  0.0000000E+00;  3.9997371E+04; -1.1414992E-01;  0.0000000E+00;  1.8554834E-03;  9.1832275E+02;
  1.2969108E-02;  9.9999998E-03;  1.3005660E-01;2550; -5.6957318E-03;  0.0000000E+00;  3.7075550E-04;  9.8504236E+02;  1.0000000E-01; -1.2392144E+04;3;  1.7469221E+01;  0.0000000E+00;  6.8482608E-01;0; -1.1295285E-01;  3.8825988E+04;  0.0000000E+00; -1.2738912E-01;  4.0000000E+04;  0.0000000E+00;  3.9998297E+04; -1.1447517E-01;  0.0000000E+00;  1.5223166E-03;  1.0879728E+03;
  1.2982303E-02;  9.9999998E-03;  1.4005540E-01;2551; -5.7208450E-03;  0.0000000E+00;  4.0437825E-04;  9.8491663E+02;  1.0000000E-01; -1.2496288E+04;3;  2.0224344E+01;  0.0000000E+00;  1.8742985E-01;0; -1.1319937E-01;  3.8815477E+04;  0.0000000E+00; -1.9085297E-01;  4.0000000E+04;  0.0000000E+00;  3.9999199E+04; -1.1444800E-01;  0.0000000E+00;  1.2486259E-03;  1.2670569E+03;
  1.2986290E-02;  9.9999998E-03;  1.5005159E-01;2552; -5.6981598E-03;  0.0000000E+00;  4.3492834E-04;  9.8484131E+02;  1.0000000E-01; -1.2558706E+04;3;  2.3347786E+01;  0.0000000E+00; -4.9172896E-01;0; -1.1291259E-01;  3.8808258E+04;  0.0000000E+00; -2.6769736E-01;  4.0000000E+04;  0.0000000E+00;  4.0000883E+04; -1.1399385E-01;  0.0000000E+00;  1.0812673E-03;  1.4810947E+03;
  1.2976984E-02;  9.9999998E-03;  1.6004623E-01;2553; -5.6157312E-03;  0.0000000E+00;  4.6564208E-04;  9.8483777E+02;  1.0000000E-01; -1.2561620E+04;3;  2.6914080E+01;  0.0000000E+00; -1.3913605E+00;0; -1.1199558E-01;  3.8806367E+04;  0.0000000E+00; -3.5477412E-01;  4.0000000E+04;  0.0000000E+00;  4.0003355E+04; -1.1304383E-01;  0.0000000E+00;  1.0482551E-03;  1.7564299E+03;
  1.2949843E-02;  9.9999998E-03;  1.7004034E-01;2554; -5.4658679E-03;  0.0000000E+00;  5.0108682E-04;  9.8493652E+02;  1.0000000E-01; -1.2479795E+04;3;  3.0863993E+01;  0.0000000E+00; -2.5800309E+00;0; -1.1038385E-01;  3.8811434E+04;  0.0000000E+00; -4.4695118E-01;  4.0000000E+04;  0.0000000E+00;  4.0006020E+04; -1.1153499E-01;  0.0000000E+00;  1.1511426E-03;  2.1136230E+03;
  1.2898089E-02;  9.9999998E-03;  1.8003294E-01;2555; -5.2457713E-03;  0.0000000E+00;  5.4636336E-04;  9.8514996E+02;  1.0000000E-01; -1.2302961E+04;3;  3.5138325E+01;  0.0000000E+00; -4.1316433E+00;0; -1.0804686E-01;  3.8824781E+04;  0.0000000E+00; -5.3709686E-01;  4.0000000E+04;  0.0000000E+00;  4.0009555E+04; -1.0940938E-01;  0.0000000E+00;  1.3625172E-03;  2.5606006E+03;
  1.2815202E-02;  9.9999998E-03;  1.9002324E-01;2556; -4.9590669E-03;  0.0000000E+00;  6.0708425E-04;  9.8550037E+02;  1.0000000E-01; -1.2012647E+04;3;  3.9432247E+01;  0.0000000E+00; -6.0748191E+00;0; -1.0499004E-01;  3.8847766E+04;  0.0000000E+00; -6.1661834E-01;  4.0000000E+04;  0.0000000E+00;  4.0013840E+04; -1.0661814E-01;  0.0000000E+00;  1.6281079E-03;  3.0857161E+03;
  1.2695159E-02;  9.9999998E-03;  2.0001110E-01;2557; -4.6168617E-03;  0.0000000E+00;  6.8426138E-04;  9.8599750E+02;  1.0000000E-01; -1.1600808E+04;3;  4.3315559E+01;  0.0000000E+00; -8.3697901E+00;0; -1.0124844E-01;  3.8881598E+04;  0.0000000E+00; -6.7670542E-01;  4.0000000E+04;  0.0000000E+00;  4.0018805E+04; -1.0312237E-01;  0.0000000E+00;  1.8739246E-03;  3.6522993E+03;
  1.2534214E-02;  9.9999998E-03;  2.0999588E-01;2558; -4.2363801E-03;  0.0000000E+00;  7.7654852E-04;  9.8664722E+02;  1.0000000E-01; -1.1062552E+04;3;  4.6189178E+01;  0.0000000E+00; -1.0862871E+01;0; -9.6882872E-02;  3.8927043E+04;  0.0000000E+00; -7.1022254E-01;  4.0000000E+04;  0.0000000E+00;  4.0023645E+04; -9.8900035E-02;  0.0000000E+00;  2.0171606E-03;  4.1961831E+03;
  1.2329497E-02;  9.9999998E-03;  2.1997608E-01;2559; -3.8390083E-03;  0.0000000E+00;  8.7875727E-04;  9.8744543E+02;  1.0000000E-01; -1.0401236E+04;3;  4.7395042E+01;  0.0000000E+00; -1.3321399E+01;0; -9.1969639E-02;  3.8984477E+04;  0.0000000E+00; -7.1374881E-01;  4.0000000E+04;  0.0000000E+00;  4.0027957E+04; -9.3949549E-02;  0.0000000E+00;  1.9799077E-03;  4.6290386E+03;
  1.2081183E-02;  9.9999998E-03;  2.2995080E-01;2560; -3.4479683E-03;  0.0000000E+00;  9.8138349E-04;  9.8837030E+02;  1.0000000E-01; -9.6349863E+03;3;  4.6385323E+01;  0.0000000E+00; -1.5529645E+01;0; -8.6590171E-02;  3.9053332E+04;  0.0000000E+00; -6.8896645E-01;  4.0000000E+04;  0.0000000E+00;  4.0030477E+04; -8.8293701E-02;  0.0000000E+00;  1.7035332E-03;  4.8509595E+03;
  2.2599593E-02;  9.9999998E-03;  7.0017248E-02;2605; -7.0240907E-03;  0.0000000E+00;  1.6401397E-04;  9.8948132E+02;  1.0000000E-01; -8.7145186E+03;3; -3.3907253E+01;  0.0000000E+00;  8.3163226E-01;0; -1.0937618E-01;  3.9176996E+04;  0.0000000E+00; -1.1319299E-03;  4.0000000E+04;  0.0000000E+00;  3.9992086E+04; -1.1255243E-01;  0.0000000E+00;  3.1762465E-03;  1.1714650E+02;
  2.2615185E-02;  9.9999998E-03;  8.0022797E-02;2606; -7.0921369E-03;  0.0000000E+00;  2.1317853E-04;  9.8934705E+02;  1.0000000E-01; -8.8257754E+03;3; -3.2414474E+01;  0.0000000E+00;  9.7185731E-01;0; -1.1038037E-01;  3.9165441E+04;  0.0000000E+00; -3.5549358E-03;  4.0000000E+04;  0.0000000E+00;  3.9993719E+04; -1.1357427E-01;  0.0000000E+00;  3.1938909E-03;  5.1135769E+01;
  2.2633202E-02;  9.9999998E-03;  9.0028122E-02;2607; -7.1821488E-03;  0.0000000E+00;  2.6740378E-04;  9.8919592E+02;  1.0000000E-01; -8.9509570E+03;3; -3.0798611E+01;  0.0000000E+00;  1.0794100E+00;0; -1.1155071E-01;  3.9152293E+04;  0.0000000E+00; -1.0161521E-02;  4.0000000E+04;  0.0000000E+00;  3.9994430E+04; -1.1461326E-01;  0.0000000E+00;  3.0625504E-03;  2.3625349E+02;
  2.2653513E-02;  9.9999998E-03;  1.0003282E-01;2608; -7.2889989E-03;  0.0000000E+00;  3.2339265E-04;  9.8902283E+02;  1.0000000E-01; -9.0943604E+03;3; -2.9070467E+01;  0.0000000E+00;  1.1279323E+00;0; -1.1282209E-01;  3.9137672E+04;  0.0000000E+00; -2.3913676E-02;  4.0000000E+04;  0.0000000E+00;  3.9995965E+04; -1.1561226E-01;  0.0000000E+00;  2.7901679E-03;  4.1654416E+02;
  2.2675969E-02;  9.9999998E-03;  1.1003681E-01;2609; -7.4033746E-03;  0.0000000E+00;  3.7679804E-04;  9.8883575E+02;  1.0000000E-01; -9.2493682E+03;3; -2.7281038E+01;  0.0000000E+00;  1.0875294E+00;0; -1.1409785E-01;  3.9122145E+04;  0.0000000E+00; -4.8268795E-02;  4.0000000E+04;  0.0000000E+00;  3.9997125E+04; -1.1650553E-01;  0.0000000E+00;  2.4076824E-03;  5.7270093E+02;
  2.2699527E-02;  9.9999998E-03;  1.2004004E-01;2610; -7.5118667E-03;  0.0000000E+00;  4.2292065E-04;  9.8863812E+02;  1.0000000E-01; -9.4131162E+03;3; -2.5386089E+01;  0.0000000E+00;  9.2717314E-01;0; -1.1525563E-01;  3.9105953E+04;  0.0000000E+00; -8.6649492E-02;  4.0000000E+04;  0.0000000E+00;  3.9997938E+04; -1.1722146E-01;  0.0000000E+00;  1.9658285E-03;  6.9619299E+02;
  2.2722960E-02;  9.9999998E-03;  1.3004206E-01;2611; -7.5982893E-03;  0.0000000E+00;  4.5808795E-04;  9.8844141E+02;  1.0000000E-01; -9.5760752E+03;3; -2.3310371E+01;  0.0000000E+00;  6.2098455E-01;0; -1.1615647E-01;  3.9090121E+04;  0.0000000E+00; -1.4169425E-01;  4.0000000E+04;  0.0000000E+00;  3.9998238E+04; -1.1768500E-01;  0.0000000E+00;  1.5285225E-03;  7.9523053E+02;
  2.2743516E-02;  9.9999998E-03;  1.4004284E-01;2612; -7.6448941E-03;  0.0000000E+00;  4.8085008E-04;  9.8825983E+02;  1.0000000E-01; -9.7264902E+03;3; -2.0914425E+01;  0.0000000E+00;  1.5209936E-01;0; -1.1665707E-01;  3.9075508E+04;  0.0000000E+00; -2.1432891E-01;  4.0000000E+04;  0.0000000E+00;  3.9998281E+04; -1.1782049E-01;  0.0000000E+00;  1.1634144E-03;  8.9639032E+02;
  2.2757739E-02;  9.9999998E-03;  1.5004282E-01;2613; -7.6344754E-03;  0.0000000E+00;  4.9319339E-04;  9.8810858E+02;  1.0000000E-01; -9.8518203E+03;3; -1.8012917E+01;  0.0000000E+00; -4.8919809E-01;0; -1.1662482E-01;  3.9063199E+04;  0.0000000E+00; -3.0294484E-01;  4.0000000E+04;  0.0000000E+00;  3.9999473E+04; -1.1755489E-01;  0.0000000E+00;  9.3007385E-04;  1.0374088E+03;
  2.2761758E-02;  9.9999998E-03;  1.6004260E-01;2614; -7.5523937E-03;  0.0000000E+00;  4.9913517E-04;  9.8801080E+02;  1.0000000E-01; -9.9328057E+03;3; -1.4472700E+01;  0.0000000E+00; -1.3328216E+00;0; -1.1595283E-01;  3.9054656E+04;  0.0000000E+00; -4.0337753E-01;  4.0000000E+04;  0.0000000E+00;  4.0000688E+04; -1.1681872E-01;  0.0000000E+00;  8.6588605E-04;  1.2531244E+03;
  2.2750987E-02;  9.9999998E-03;  1.7004313E-01;2615; -7.3884213E-03;  0.0000000E+00;  5.0478760E-04;  9.8799347E+02;  1.0000000E-01; -9.9471758E+03;3; -1.0243436E+01;  0.0000000E+00; -2.4326613E+00;0; -1.1456749E-01;  3.9051160E+04;  0.0000000E+00; -5.0875950E-01;  4.0000000E+04;  0.0000000E+00;  4.0003094E+04; -1.1554442E-01;  0.0000000E+00;  9.7693678E-04;  1.5703156E+03;
  2.2719333E-02;  9.9999998E-03;  1.8004484E-01;2616; -7.1378998E-03;  0.0000000E+00;  5.1730569E-04;  9.8806879E+02;  1.0000000E-01; -9.8848066E+03;3; -5.2988873E+00;  0.0000000E+00; -3.8463695E+00;0; -1.1243159E-01;  3.9053938E+04;  0.0000000E+00; -6.0974467E-01;  4.0000000E+04;  0.0000000E+00;  4.0006270E+04; -1.1366641E-01;  0.0000000E+00;  1.2348242E-03;  2.0060356E+03;
  2.2659792E-02;  9.9999998E-03;  1.9004688E-01;2617; -6.8028863E-03;  0.0000000E+00;  5.4582453E-04;  9.8825842E+02;  1.0000000E-01; -9.7276758E+03;3;  1.5695974E-01;  0.0000000E+00; -5.5819516E+00;0; -1.0954402E-01;  3.9064414E+04;  0.0000000E+00; -6.9550902E-01;  4.0000000E+04;  0.0000000E+00;  4.0010988E+04; -1.1112267E-01;  0.0000000E+00;  1.5786475E-03;  2.5599944E+03;
  2.2565281E-02;  9.9999998E-03;  2.0004737E-01;2618; -6.3934112E-03;  0.0000000E+00;  5.9561135E-04;  9.8857361E+02;  1.0000000E-01; -9.4665469E+03;3;  5.7629051E+00;  0.0000000E+00; -7.5672054E+00;0; -1.0593618E-01;  3.9083633E+04;  0.0000000E+00; -7.5552189E-01;  4.0000000E+04;  0.0000000E+00;  4.0016512E+04; -1.0785867E-01;  0.0000000E+00;  1.9224952E-03;  3.2025388E+03;
  2.2430945E-02;  9.9999998E-03;  2.1004467E-01;2619; -5.9262300E-03;  0.0000000E+00;  6.7133922E-04;  9.8901947E+02;  1.0000000E-01; -9.0971748E+03;3;  1.0979379E+01;  0.0000000E+00; -9.6089640E+00;0; -1.0166543E-01;  3.9112418E+04;  0.0000000E+00; -7.8201616E-01;  4.0000000E+04;  0.0000000E+00;  4.0022324E+04; -1.0383295E-01;  0.0000000E+00;  2.1675122E-03;  3.8680205E+03;
  2.2253865E-02;  9.9999998E-03;  2.2003640E-01;2620; -5.4247077E-03;  0.0000000E+00;  7.6918158E-04;  9.8959210E+02;  1.0000000E-01; -8.6227686E+03;3;  1.5142532E+01;  0.0000000E+00; -1.1454870E+01;0; -9.6805170E-02;  3.9151336E+04;  0.0000000E+00; -7.7246428E-01;  4.0000000E+04;  0.0000000E+00;  4.0027574E+04; -9.9023081E-02;  0.0000000E+00;  2.2179116E-03;  4.4571147E+03;
  2.2031933E-02;  9.9999998E-03;  2.3002020E-01;2621; -4.9162037E-03;  0.0000000E+00;  8.7817799E-04;  9.9027777E+02;  1.0000000E-01; -8.0546855E+03;3;  1.7584393E+01;  0.0000000E+00; -1.2889376E+01;0; -9.1433868E-02;  3.9200500E+04;  0.0000000E+00; -7.3115557E-01;  4.0000000E+04;  0.0000000E+00;  4.0031414E+04; -9.3431994E-02;  0.0000000E+00;  1.9981235E-03;  4.8506768E+03;
  3.2351643E-02;  9.9999998E-03;  7.0018113E-02;2666; -8.7917764E-03;  0.0000000E+00;  2.0138196E-04;  9.9328229E+02;  1.0000000E-01; -5.5655215E+03;3; -6.1836525E+01;  0.0000000E+00;  6.7278993E-01;0; -1.0822907E-01;  3.9475664E+04;  0.0000000E+00; -2.6655784E-03;  4.0000000E+04;  0.0000000E+00;  3.9993492E+04; -1.1178060E-01;  0.0000000E+00;  3.5515246E-03;  2.2569505E+02;
  3.2365277E-02;  9.9999998E-03;  8.0021463E-02;2667; -8.8831289E-03;  0.0000000E+00;  2.6616620E-04;  9.9315283E+02;  1.0000000E-01; -5.6727285E+03;3; -6.0577190E+01;  0.0000000E+00;  7.9912221E-01;0; -1.0927226E-01;  3.9464113E+04;  0.0000000E+00; -4.8273085E-03;  4.0000000E+04;  0.0000000E+00;  3.9995105E+04; -1.1283685E-01;  0.0000000E+00;  3.5645859E-03;  3.4401421E+01;
  3.2381915E-02;  9.9999998E-03;  9.0023600E-02;2668; -9.0007614E-03;  0.0000000E+00;  3.3526396E-04;  9.9299603E+02;  1.0000000E-01; -5.8026509E+03;3; -5.9220417E+01;  0.0000000E+00;  8.9614129E-01;0; -1.1052530E-01;  3.9450781E+04;  0.0000000E+00; -1.0903098E-02;  4.0000000E+04;  0.0000000E+00;  3.9996902E+04; -1.1391986E-01;  0.0000000E+00;  3.3945562E-03;  1.6108556E+02;
  3.2401718E-02;  9.9999998E-03;  1.0002442E-01;2669; -9.1385273E-03;  0.0000000E+00;  4.0354481E-04;  9.9282098E+02;  1.0000000E-01; -5.9476836E+03;3; -5.7872204E+01;  0.0000000E+00;  9.4020373E-01;0; -1.1192621E-01;  3.9435652E+04;  0.0000000E+00; -2.3959238E-02;  4.0000000E+04;  0.0000000E+00;  3.9997391E+04; -1.1497724E-01;  0.0000000E+00;  3.0510270E-03;  3.2779462E+02;
  3.2424886E-02;  9.9999998E-03;  1.1002446E-01;2670; -9.2852870E-03;  0.0000000E+00;  4.6573143E-04;  9.9262012E+02;  1.0000000E-01; -6.1140986E+03;3; -5.6506531E+01;  0.0000000E+00;  9.0787834E-01;0; -1.1337786E-01;  3.9419098E+04;  0.0000000E+00; -4.7661189E-02;  4.0000000E+04;  0.0000000E+00;  3.9998891E+04; -1.1594950E-01;  0.0000000E+00;  2.5716429E-03;  4.4251617E+02;
  3.2450810E-02;  9.9999998E-03;  1.2002419E-01;2671; -9.4253719E-03;  0.0000000E+00;  5.1464851E-04;  9.9239764E+02;  1.0000000E-01; -6.2983896E+03;3; -5.5086960E+01;  0.0000000E+00;  7.7093548E-01;0; -1.1475316E-01;  3.9401246E+04;  0.0000000E+00; -8.5709780E-02;  4.0000000E+04;  0.0000000E+00;  3.9999016E+04; -1.1677126E-01;  0.0000000E+00;  2.0180955E-03;  4.9656158E+02;
  3.2478731E-02;  9.9999998E-03;  1.3002414E-01;2672; -9.5399441E-03;  0.0000000E+00;  5.4432068E-04;  9.9216254E+02;  1.0000000E-01; -6.4931992E+03;3; -5.3513912E+01;  0.0000000E+00;  5.0466782E-01;0; -1.1590628E-01;  3.9383145E+04;  0.0000000E+00; -1.4102647E-01;  4.0000000E+04;  0.0000000E+00;  3.9998371E+04; -1.1737426E-01;  0.0000000E+00;  1.4679785E-03;  5.0720050E+02;
  3.2506604E-02;  9.9999998E-03;  1.4002450E-01;2673; -9.6087586E-03;  0.0000000E+00;  5.5374025E-04;  9.9192645E+02;  1.0000000E-01; -6.6887983E+03;3; -5.1611870E+01;  0.0000000E+00;  9.7590521E-02;0; -1.1668542E-01;  3.9364984E+04;  0.0000000E+00; -2.1474838E-01;  4.0000000E+04;  0.0000000E+00;  3.9997883E+04; -1.1768902E-01;  0.0000000E+00;  1.0036011E-03;  5.2140997E+02;
  3.2531042E-02;  9.9999998E-03;  1.5002555E-01;2674; -9.6120937E-03;  0.0000000E+00;  5.4624060E-04;  9.9170282E+02;  1.0000000E-01; -6.8740771E+03;3; -4.9155556E+01;  0.0000000E+00; -4.5289764E-01;0; -1.1694847E-01;  3.9348039E+04;  0.0000000E+00; -3.0511177E-01;  4.0000000E+04;  0.0000000E+00;  3.9997531E+04; -1.1764672E-01;  0.0000000E+00;  6.9824932E-04;  5.9238953E+02;
  3.2547779E-02;  9.9999998E-03;  1.6002794E-01;2675; -9.5329676E-03;  0.0000000E+00;  5.2728713E-04;  9.9151660E+02;  1.0000000E-01; -7.0283442E+03;3; -4.5972240E+01;  0.0000000E+00; -1.1597686E+00;0; -1.1657973E-01;  3.9332855E+04;  0.0000000E+00; -4.0722376E-01;  4.0000000E+04;  0.0000000E+00;  3.9997973E+04; -1.1717935E-01;  0.0000000E+00;  5.9961405E-04;  7.4324829E+02;
  3.2552149E-02;  9.9999998E-03;  1.7003229E-01;2676; -9.3589304E-03;  0.0000000E+00;  5.0335226E-04;  9.9138135E+02;  1.0000000E-01; -7.1403906E+03;3; -4.1877777E+01;  0.0000000E+00; -2.0561271E+00;0; -1.1549786E-01;  3.9320758E+04;  0.0000000E+00; -5.1313525E-01;  4.0000000E+04;  0.0000000E+00;  3.9999410E+04; -1.1621688E-01;  0.0000000E+00;  7.1901461E-04;  9.8727203E+02;
  3.2538466E-02;  9.9999998E-03;  1.8003899E-01;2677; -9.0836557E-03;  0.0000000E+00;  4.8273199E-04;  9.9131958E+02;  1.0000000E-01; -7.1915498E+03;3; -3.6835838E+01;  0.0000000E+00; -3.1747997E+00;0; -1.1365925E-01;  3.9312699E+04;  0.0000000E+00; -6.1234683E-01;  4.0000000E+04;  0.0000000E+00;  4.0002566E+04; -1.1468692E-01;  0.0000000E+00;  1.0276721E-03;  1.3584789E+03;
  3.2499779E-02;  9.9999998E-03;  1.9004770E-01;2678; -8.7076705E-03;  0.0000000E+00;  4.7565435E-04;  9.9134399E+02;  1.0000000E-01; -7.1713525E+03;3; -3.0921503E+01;  0.0000000E+00; -4.5058331E+00;0; -1.1105721E-01;  3.9310113E+04;  0.0000000E+00; -6.9317716E-01;  4.0000000E+04;  0.0000000E+00;  4.0007059E+04; -1.1251603E-01;  0.0000000E+00;  1.4588179E-03;  1.8893058E+03;
  3.2430016E-02;  9.9999998E-03;  2.0005712E-01;2679; -8.2403142E-03;  0.0000000E+00;  4.9054110E-04;  9.9146887E+02;  1.0000000E-01; -7.0678989E+03;3; -2.4427891E+01;  0.0000000E+00; -5.9526958E+00;0; -1.0771771E-01;  3.9313812E+04;  0.0000000E+00; -7.4494576E-01;  4.0000000E+04;  0.0000000E+00;  4.0012996E+04; -1.0963310E-01;  0.0000000E+00;  1.9153957E-03;  2.5707107E+03;
  3.2322329E-02;  9.9999998E-03;  2.1006434E-01;2680; -7.6970733E-03;  0.0000000E+00;  5.3870794E-04;  9.9170294E+02;  1.0000000E-01; -6.8739785E+03;3; -1.7834307E+01;  0.0000000E+00; -7.2927241E+00;0; -1.0369359E-01;  3.9325086E+04;  0.0000000E+00; -7.6068246E-01;  4.0000000E+04;  0.0000000E+00;  4.0019574E+04; -1.0597640E-01;  0.0000000E+00;  2.2828167E-03;  3.3373909E+03;
  3.2172635E-02;  9.9999998E-03;  2.2006667E-01;2681; -7.1012373E-03;  0.0000000E+00;  6.2465662E-04;  9.9203589E+02;  1.0000000E-01; -6.5981343E+03;3; -1.1714195E+01;  0.0000000E+00; -8.2493944E+00;0; -9.9053562E-02;  3.9344504E+04;  0.0000000E+00; -7.3962998E-01;  4.0000000E+04;  0.0000000E+00;  4.0025930E+04; -1.0149997E-01;  0.0000000E+00;  2.4464102E-03;  4.0766748E+03;
  3.1977504E-02;  9.9999998E-03;  2.3006073E-01;2682; -6.4811283E-03;  0.0000000E+00;  7.3691917E-04;  9.9246606E+02;  1.0000000E-01; -6.2417002E+03;3; -6.7879601E+00;  0.0000000E+00; -8.6171513E+00;0; -9.3871944E-02;  3.9372195E+04;  0.0000000E+00; -6.8868935E-01;  4.0000000E+04;  0.0000000E+00;  4.0031008E+04; -9.6183613E-02;  0.0000000E+00;  2.3116712E-03;  4.6475146E+03;
  4.2118207E-02;  9.9999998E-03;  7.0017390E-02;2727; -1.0426067E-02;  0.0000000E+00;  2.3120758E-04;  9.9700342E+02;  1.0000000E-01; -2.4825964E+03;3; -7.5348976E+01;  0.0000000E+00;  5.0100875E-01;0; -1.0406411E-01;  3.9771387E+04;  0.0000000E+00; -3.5937738E-03;  4.0000000E+04;  0.0000000E+00;  3.9995969E+04; -1.0793366E-01;  0.0000000E+00;  3.8695447E-03;  2.5058560E+02;
  4.2130511E-02;  9.9999998E-03;  8.0019549E-02;2728; -1.0540827E-02;  0.0000000E+00;  3.1339255E-04;  9.9687885E+02;  1.0000000E-01; -2.5858035E+03;3; -7.4328148E+01;  0.0000000E+00;  6.0613650E-01;0; -1.0510243E-01;  3.9760074E+04;  0.0000000E+00; -5.2360487E-03;  4.0000000E+04;  0.0000000E+00;  3.9997699E+04; -1.0898376E-01;  0.0000000E+00;  3.8813185E-03;  3.6898445E+01;
  4.2146143E-02;  9.9999998E-03;  9.0019874E-02;2729; -1.0686110E-02;  0.0000000E+00;  3.9899000E-04;  9.9673083E+02;  1.0000000E-01; -2.7084172E+03;3; -7.3297813E+01;  0.0000000E+00;  6.8707770E-01;0; -1.0639731E-01;  3.9746695E+04;  0.0000000E+00; -1.0133164E-02;  4.0000000E+04;  0.0000000E+00;  3.9999109E+04; -1.1007099E-01;  0.0000000E+00;  3.6736766E-03;  1.6418423E+02;
  4.2166159E-02;  9.9999998E-03;  1.0001821E-01;2730; -1.0854435E-02;  0.0000000E+00;  4.8088748E-04;  9.9655182E+02;  1.0000000E-01; -2.8567588E+03;3; -7.2291908E+01;  0.0000000E+00;  7.2432631E-01;0; -1.0789220E-01;  3.9731562E+04;  0.0000000E+00; -2.1116037E-02;  4.0000000E+04;  0.0000000E+00;  4.0000242E+04; -1.1115010E-01;  0.0000000E+00;  3.2578968E-03;  3.1155597E+02;
  4.2190723E-02;  9.9999998E-03;  1.1001500E-01;2731; -1.1033123E-02;  0.0000000E+00;  5.5195694E-04;  9.9634241E+02;  1.0000000E-01; -3.0302354E+03;3; -7.1336441E+01;  0.0000000E+00;  6.9901633E-01;0; -1.0949095E-01;  3.9714484E+04;  0.0000000E+00; -4.1618660E-02;  4.0000000E+04;  0.0000000E+00;  4.0000871E+04; -1.1216985E-01;  0.0000000E+00;  2.6788935E-03;  3.7606198E+02;
  4.2219475E-02;  9.9999998E-03;  1.2001096E-01;2732; -1.1204153E-02;  0.0000000E+00;  6.0226663E-04;  9.9610059E+02;  1.0000000E-01; -3.2305752E+03;3; -7.0374199E+01;  0.0000000E+00;  5.8756900E-01;0; -1.1106439E-01;  3.9695812E+04;  0.0000000E+00; -7.5118735E-02;  4.0000000E+04;  0.0000000E+00;  4.0000398E+04; -1.1307453E-01;  0.0000000E+00;  2.0101406E-03;  3.4900098E+02;
  4.2251974E-02;  9.9999998E-03;  1.3000742E-01;2733; -1.1346566E-02;  0.0000000E+00;  6.2563573E-04;  9.9583514E+02;  1.0000000E-01; -3.4505198E+03;3; -6.9306473E+01;  0.0000000E+00;  3.7264323E-01;0; -1.1246182E-01;  3.9675945E+04;  0.0000000E+00; -1.2431221E-01;  4.0000000E+04;  0.0000000E+00;  3.9998379E+04; -1.1380555E-01;  0.0000000E+00;  1.3437263E-03;  2.7013742E+02;
  4.2286742E-02;  9.9999998E-03;  1.4000557E-01;2734; -1.1438161E-02;  0.0000000E+00;  6.2191673E-04;  9.9555359E+02;  1.0000000E-01; -3.6837476E+03;3; -6.7941704E+01;  0.0000000E+00;  4.7259200E-02;0; -1.1352431E-01;  3.9655086E+04;  0.0000000E+00; -1.9011526E-01;  4.0000000E+04;  0.0000000E+00;  3.9997434E+04; -1.1430153E-01;  0.0000000E+00;  7.7722274E-04;  2.7505099E+02;
  4.2320739E-02;  9.9999998E-03;  1.5000612E-01;2735; -1.1457505E-02;  0.0000000E+00;  5.9475086E-04;  9.9526965E+02;  1.0000000E-01; -3.9190002E+03;3; -6.6049019E+01;  0.0000000E+00; -3.8827309E-01;0; -1.1410248E-01;  3.9633992E+04;  0.0000000E+00; -2.7042225E-01;  4.0000000E+04;  0.0000000E+00;  3.9995656E+04; -1.1450071E-01;  0.0000000E+00;  3.9822361E-04;  4.1399277E+02;
  4.2349566E-02;  9.9999998E-03;  1.6000918E-01;2736; -1.1385883E-02;  0.0000000E+00;  5.5106852E-04;  9.9499829E+02;  1.0000000E-01; -4.1438335E+03;3; -6.3389500E+01;  0.0000000E+00; -9.2765057E-01;0; -1.1407341E-01;  3.9612949E+04;  0.0000000E+00; -3.5968766E-01;  4.0000000E+04;  0.0000000E+00;  3.9995168E+04; -1.1433875E-01;  0.0000000E+00;  2.6533750E-04;  5.5735883E+02;
  4.2368259E-02;  9.9999998E-03;  1.7001599E-01;2737; -1.1209324E-02;  0.0000000E+00;  4.9850740E-04;  9.9476074E+02;  1.0000000E-01; -4.3406182E+03;3; -5.9788433E+01;  0.0000000E+00; -1.5724226E+00;0; -1.1334962E-01;  3.9593051E+04;  0.0000000E+00; -4.4947463E-01;  4.0000000E+04;  0.0000000E+00;  3.9995637E+04; -1.1374527E-01;  0.0000000E+00;  3.9565618E-04;  6.5366986E+02;
  4.2370692E-02;  9.9999998E-03;  1.8002622E-01;2738; -1.0920037E-02;  0.0000000E+00;  4.4580115E-04;  9.9457019E+02;  1.0000000E-01; -4.4984902E+03;3; -5.5126049E+01;  0.0000000E+00; -2.3235698E+00;0; -1.1188203E-01;  3.9575270E+04;  0.0000000E+00; -5.2942306E-01;  4.0000000E+04;  0.0000000E+00;  3.9998242E+04; -1.1264271E-01;  0.0000000E+00;  7.6067902E-04;  7.9283502E+02;
  4.2349983E-02;  9.9999998E-03;  1.9003882E-01;2739; -1.0517129E-02;  0.0000000E+00;  4.0507619E-04;  9.9444220E+02;  1.0000000E-01; -4.6045117E+03;3; -4.9437046E+01;  0.0000000E+00; -3.1397195E+00;0; -1.0965905E-01;  3.9560148E+04;  0.0000000E+00; -5.8890522E-01;  4.0000000E+04;  0.0000000E+00;  4.0002703E+04; -1.1094742E-01;  0.0000000E+00;  1.2883582E-03;  1.1673301E+03;
  4.2299993E-02;  9.9999998E-03;  2.0005257E-01;2740; -1.0008594E-02;  0.0000000E+00;  3.8768150E-04;  9.9438715E+02;  1.0000000E-01; -4.6501401E+03;3; -4.2923157E+01;  0.0000000E+00; -3.8964081E+00;0; -1.0670096E-01;  3.9549059E+04;  0.0000000E+00; -6.1936885E-01;  4.0000000E+04;  0.0000000E+00;  4.0009188E+04; -1.0857189E-01;  0.0000000E+00;  1.8709294E-03;  1.8315704E+03;
  4.2215612E-02;  9.9999998E-03;  2.1006556E-01;2741; -9.4083147E-03;  0.0000000E+00;  4.0775302E-04;  9.9441296E+02;  1.0000000E-01; -4.6287578E+03;3; -3.5967331E+01;  0.0000000E+00; -4.3589101E+00;0; -1.0305416E-01;  3.9542965E+04;  0.0000000E+00; -6.1677378E-01;  4.0000000E+04;  0.0000000E+00;  4.0016711E+04; -1.0543251E-01;  0.0000000E+00;  2.3783485E-03;  2.6825540E+03;
  4.2091217E-02;  9.9999998E-03;  2.2007400E-01;2742; -8.7393234E-03;  0.0000000E+00;  4.7112111E-04;  9.9451636E+02;  1.0000000E-01; -4.5430815E+03;3; -2.9101000E+01;  0.0000000E+00; -4.2574410E+00;0; -9.8782592E-02;  3.9542844E+04;  0.0000000E+00; -5.8386213E-01;  4.0000000E+04;  0.0000000E+00;  4.0024094E+04; -1.0145959E-01;  0.0000000E+00;  2.6770043E-03;  3.5674268E+03;
  4.1922253E-02;  9.9999998E-03;  2.3007441E-01;2743; -8.0286469E-03;  0.0000000E+00;  5.8001210E-04;  9.9469312E+02;  1.0000000E-01; -4.3966660E+03;3; -2.2959337E+01;  0.0000000E+00; -3.4033704E+00;0; -9.3955331E-02;  3.9549570E+04;  0.0000000E+00; -5.3071207E-01;  4.0000000E+04;  0.0000000E+00;  4.0030363E+04; -9.6607618E-02;  0.0000000E+00;  2.6522879E-03;  4.3143862E+03;
  5.1909093E-02;  9.9999998E-03;  7.0015728E-02;2788; -1.1814876E-02;  0.0000000E+00;  2.4864660E-04;  1.0003423E+03;  1.0000000E-01;  2.8364630E+02;3; -7.5427017E+01;  0.0000000E+00;  3.4239519E-01;0; -9.7462863E-02;  4.0038914E+04;  0.0000000E+00; -3.2985311E-03;  4.0000000E+04;  0.0000000E+00;  3.9999125E+04; -1.0157423E-01;  0.0000000E+00;  4.1113626E-03;  1.8422557E+02;
  5.1921345E-02;  9.9999998E-03;  8.0017492E-02;2789; -1.1951981E-02;  0.0000000E+00;  3.5047921E-04;  1.0002264E+03;  1.0000000E-01;  1.8755025E+02;3; -7.4641037E+01;  0.0000000E+00;  4.2445269E-01;0; -9.8442696E-02;  4.0027883E+04;  0.0000000E+00; -4.0900819E-03;  4.0000000E+04;  0.0000000E+00;  4.0000816E+04; -1.0256994E-01;  0.0000000E+00;  4.1272449E-03;  5.0613766E+01;
  5.1937360E-02;  9.9999998E-03;  9.0017013E-02;2790; -1.2124174E-02;  0.0000000E+00;  4.5670156E-04;  1.0000873E+03;  1.0000000E-01;  7.2393013E+01;3; -7.3893883E+01;  0.0000000E+00;  4.8986265E-01;0; -9.9726439E-02;  4.0015105E+04;  0.0000000E+00; -7.2269514E-03;  4.0000000E+04;  0.0000000E+00;  4.0001871E+04; -1.0361277E-01;  0.0000000E+00;  3.8863278E-03;  2.5294417E+02;
  5.1957987E-02;  9.9999998E-03;  1.0001410E-01;2791; -1.2321899E-02;  0.0000000E+00;  5.5518089E-04;  9.9991003E+02;  1.0000000E-01; -7.4516411E+01;3; -7.3195190E+01;  0.0000000E+00;  5.2129132E-01;0; -1.0126558E-01;  4.0000324E+04;  0.0000000E+00; -1.5034183E-02;  4.0000000E+04;  0.0000000E+00;  4.0003203E+04; -1.0466707E-01;  0.0000000E+00;  3.4014911E-03;  3.7781833E+02;
  5.1984500E-02;  9.9999998E-03;  1.1000872E-01;2792; -1.2530995E-02;  0.0000000E+00;  6.3733984E-04;  9.9969769E+02;  1.0000000E-01; -2.5046205E+02;3; -7.2584595E+01;  0.0000000E+00;  5.0449449E-01;0; -1.0296655E-01;  3.9983395E+04;  0.0000000E+00; -3.0328622E-02;  4.0000000E+04;  0.0000000E+00;  4.0003113E+04; -1.0569186E-01;  0.0000000E+00;  2.7253071E-03;  3.8765247E+02;
  5.2016824E-02;  9.9999998E-03;  1.2000148E-01;2793; -1.2731501E-02;  0.0000000E+00;  6.9067429E-04;  9.9944763E+02;  1.0000000E-01; -4.5761670E+02;3; -7.2015366E+01;  0.0000000E+00;  4.2220679E-01;0; -1.0470002E-01;  3.9964633E+04;  0.0000000E+00; -5.5878583E-02;  4.0000000E+04;  0.0000000E+00;  4.0002023E+04; -1.0664359E-01;  0.0000000E+00;  1.9435633E-03;  2.7107834E+02;
  5.2054141E-02;  9.9999998E-03;  1.2999441E-01;2794; -1.2900715E-02;  0.0000000E+00;  7.0902176E-04;  9.9916473E+02;  1.0000000E-01; -6.9198041E+02;3; -7.1388954E+01;  0.0000000E+00;  2.6221681E-01;0; -1.0631289E-01;  3.9943777E+04;  0.0000000E+00; -9.3588218E-02;  4.0000000E+04;  0.0000000E+00;  3.9999867E+04; -1.0747618E-01;  0.0000000E+00;  1.1632930E-03;  1.3522029E+02;
  5.2095227E-02;  9.9999998E-03;  1.3998948E-01;2795; -1.3014590E-02;  0.0000000E+00;  6.8969879E-04;  9.9885101E+02;  1.0000000E-01; -9.5192371E+02;3; -7.0510979E+01;  0.0000000E+00;  1.7076354E-02;0; -1.0764219E-01;  3.9921355E+04;  0.0000000E+00; -1.4354946E-01;  4.0000000E+04;  0.0000000E+00;  3.9996461E+04; -1.0813966E-01;  0.0000000E+00;  4.9747294E-04;  3.6958972E+02;
  5.2137520E-02;  9.9999998E-03;  1.4998826E-01;2796; -1.3051608E-02;  0.0000000E+00;  6.4075465E-04;  9.9851971E+02;  1.0000000E-01; -1.2263850E+03;3; -6.9168289E+01;  0.0000000E+00; -3.0636752E-01;0; -1.0853262E-01;  3.9897262E+04;  0.0000000E+00; -2.0288193E-01;  4.0000000E+04;  0.0000000E+00;  3.9994586E+04; -1.0858080E-01;  0.0000000E+00;  4.8172271E-05;  6.7926569E+02;
  5.2176494E-02;  9.9999998E-03;  1.5999110E-01;2797; -1.2992381E-02;  0.0000000E+00;  5.7071075E-04;  9.9818469E+02;  1.0000000E-01; -1.5039575E+03;3; -6.7130409E+01;  0.0000000E+00; -6.8357301E-01;0; -1.0885596E-01;  3.9871875E+04;  0.0000000E+00; -2.6519194E-01;  4.0000000E+04;  0.0000000E+00;  3.9992246E+04; -1.0874116E-01;  0.0000000E+00; -1.1479194E-04;  8.9563489E+02;
  5.2206948E-02;  9.9999998E-03;  1.6999833E-01;2798; -1.2822255E-02;  0.0000000E+00;  4.8825613E-04;  9.9786096E+02;  1.0000000E-01; -1.7721475E+03;3; -6.4201149E+01;  0.0000000E+00; -1.0821708E+00;0; -1.0852057E-01;  3.9845656E+04;  0.0000000E+00; -3.2185644E-01;  4.0000000E+04;  0.0000000E+00;  3.9992098E+04; -1.0855243E-01;  0.0000000E+00;  3.1868702E-05;  9.2641248E+02;
  5.2222520E-02;  9.9999998E-03;  1.8001078E-01;2799; -1.2532052E-02;  0.0000000E+00;  4.0403663E-04;  9.9756134E+02;  1.0000000E-01; -2.0203873E+03;3; -6.0251522E+01;  0.0000000E+00; -1.4633664E+00;0; -1.0747296E-01;  3.9819090E+04;  0.0000000E+00; -3.6370558E-01;  4.0000000E+04;  0.0000000E+00;  3.9994145E+04; -1.0793354E-01;  0.0000000E+00;  4.6057373E-04;  7.3650623E+02;
  5.2216034E-02;  9.9999998E-03;  1.9002646E-01;2800; -1.2119634E-02;  0.0000000E+00;  3.3122941E-04;  9.9730219E+02;  1.0000000E-01; -2.2350972E+03;3; -5.5287487E+01;  0.0000000E+00; -1.7504482E+00;0; -1.0569649E-01;  3.9793227E+04;  0.0000000E+00; -3.8308957E-01;  4.0000000E+04;  0.0000000E+00;  3.9998723E+04; -1.0679100E-01;  0.0000000E+00;  1.0945103E-03;  5.4891815E+02;
  5.2181009E-02;  9.9999998E-03;  2.0004335E-01;2801; -1.1590318E-02;  0.0000000E+00;  2.8508584E-04;  9.9709003E+02;  1.0000000E-01; -2.4108455E+03;3; -4.9437641E+01;  0.0000000E+00; -1.7852556E+00;0; -1.0320649E-01;  3.9768934E+04;  0.0000000E+00; -3.7601766E-01;  4.0000000E+04;  0.0000000E+00;  4.0005418E+04; -1.0502169E-01;  0.0000000E+00;  1.8152085E-03;  1.0582797E+03;
  5.2113298E-02;  9.9999998E-03;  2.1005911E-01;2802; -1.0957871E-02;  0.0000000E+00;  2.7982332E-04;  9.9693213E+02;  1.0000000E-01; -2.5416565E+03;3; -4.3004902E+01;  0.0000000E+00; -1.3195580E+00;0; -1.0004334E-01;  3.9747172E+04;  0.0000000E+00; -3.4397197E-01;  4.0000000E+04;  0.0000000E+00;  4.0013746E+04; -1.0252005E-01;  0.0000000E+00;  2.4767071E-03;  2.0077266E+03;
  5.2009095E-02;  9.9999998E-03;  2.2007117E-01;2803; -1.0242507E-02;  0.0000000E+00;  3.2461170E-04;  9.9682574E+02;  1.0000000E-01; -2.6298022E+03;3; -3.6420662E+01;  0.0000000E+00; -8.7040626E-02;0; -9.6263833E-02;  3.9729324E+04;  0.0000000E+00; -2.9531783E-01;  4.0000000E+04;  0.0000000E+00;  4.0021906E+04; -9.9190183E-02;  0.0000000E+00;  2.9263466E-03;  3.0484800E+03;
  5.1863242E-02;  9.9999998E-03;  2.3007523E-01;2804; -9.4668316E-03;  0.0000000E+00;  4.3082543E-04;  9.9677374E+02;  1.0000000E-01; -2.6729121E+03;3; -3.0241730E+01;  0.0000000E+00;  2.0733681E+00;0; -9.1931351E-02;  3.9716461E+04;  0.0000000E+00; -2.4477340E-01;  4.0000000E+04;  0.0000000E+00;  4.0029293E+04; -9.4961032E-02;  0.0000000E+00;  3.0296789E-03;  3.9680623E+03;
  6.1731584E-02;  9.9999998E-03;  7.0013583E-02;2849; -1.2904334E-02;  0.0000000E+00;  2.4805075E-04;  1.0030818E+03;  1.0000000E-01;  2.5532117E+03;3; -6.5830536E+01;  0.0000000E+00;  2.1204610E-01;0; -8.9186206E-02;  4.0259336E+04;  0.0000000E+00; -1.9226955E-03;  4.0000000E+04;  0.0000000E+00;  4.0002043E+04; -9.3446568E-02;  0.0000000E+00;  4.2603607E-03;  3.1049908E+01;
  6.1745174E-02;  9.9999998E-03;  8.0015585E-02;2850; -1.3063123E-02;  0.0000000E+00;  3.7482384E-04;  1.0029791E+03;  1.0000000E-01;  2.4681770E+03;3; -6.5262733E+01;  0.0000000E+00;  2.7428162E-01;0; -9.0047427E-02;  4.0249199E+04;  0.0000000E+00; -1.5430500E-03;  4.0000000E+04;  0.0000000E+00;  4.0004191E+04; -9.4334751E-02;  0.0000000E+00;  4.2873221E-03;  2.2092221E+02;
  6.1763261E-02;  9.9999998E-03;  9.0014949E-02;2851; -1.3262236E-02;  0.0000000E+00;  5.1197672E-04;  1.0028488E+03;  1.0000000E-01;  2.3601309E+03;3; -6.4743797E+01;  0.0000000E+00;  3.2931867E-01;0; -9.1256715E-02;  4.0237367E+04;  0.0000000E+00; -2.4581267E-03;  4.0000000E+04;  0.0000000E+00;  4.0005395E+04; -9.5277280E-02;  0.0000000E+00;  4.0205657E-03;  4.2452765E+02;
  6.1786424E-02;  9.9999998E-03;  1.0001127E-01;2852; -1.3491402E-02;  0.0000000E+00;  6.3951971E-04;  1.0026846E+03;  1.0000000E-01;  2.2241345E+03;3; -6.4317184E+01;  0.0000000E+00;  3.6253992E-01;0; -9.2776038E-02;  4.0223398E+04;  0.0000000E+00; -6.3393996E-03;  4.0000000E+04;  0.0000000E+00;  4.0006180E+04; -9.6250489E-02;  0.0000000E+00;  3.4744528E-03;  5.2653778E+02;
  6.1815366E-02;  9.9999998E-03;  1.1000448E-01;2853; -1.3731654E-02;  0.0000000E+00;  7.3949900E-04;  1.0024811E+03;  1.0000000E-01;  2.0555469E+03;3; -6.3987129E+01;  0.0000000E+00;  3.5647559E-01;0; -9.4518431E-02;  4.0207566E+04;  0.0000000E+00; -1.5150233E-02;  4.0000000E+04;  0.0000000E+00;  4.0005621E+04; -9.7227626E-02;  0.0000000E+00;  2.7091934E-03;  4.8282404E+02;
  6.1850946E-02;  9.9999998E-03;  1.1999492E-01;2854; -1.3959387E-02;  0.0000000E+00;  7.9662749E-04;  1.0022336E+03;  1.0000000E-01;  1.8505156E+03;3; -6.3709663E+01;  0.0000000E+00;  2.9933804E-01;0; -9.6356742E-02;  4.0189531E+04;  0.0000000E+00; -3.0616781E-02;  4.0000000E+04;  0.0000000E+00;  4.0003949E+04; -9.8179668E-02;  0.0000000E+00;  1.8229267E-03;  2.7538174E+02;
  6.1892875E-02;  9.9999998E-03;  1.2998448E-01;2855; -1.4149678E-02;  0.0000000E+00;  8.0144493E-04;  1.0019425E+03;  1.0000000E-01;  1.6093372E+03;3; -6.3388824E+01;  0.0000000E+00;  1.8132800E-01;0; -9.8136827E-02;  4.0169082E+04;  0.0000000E+00; -5.3403549E-02;  4.0000000E+04;  0.0000000E+00;  4.0000727E+04; -9.9074312E-02;  0.0000000E+00;  9.3748613E-04;  1.1725572E+02;
  6.1939325E-02;  9.9999998E-03;  1.3997662E-01;2856; -1.4282019E-02;  0.0000000E+00;  7.6149090E-04;  1.0016133E+03;  1.0000000E-01;  1.3366536E+03;3; -6.2888935E+01;  0.0000000E+00;  6.1097834E-03;0; -9.9694580E-02;  4.0146086E+04;  0.0000000E+00; -8.2204603E-02;  4.0000000E+04;  0.0000000E+00;  3.9997164E+04; -9.9875659E-02;  0.0000000E+00;  1.8107712E-04;  5.5280127E+02;
  6.1987758E-02;  9.9999998E-03;  1.4997345E-01;2857; -1.4334936E-02;  0.0000000E+00;  6.8564538E-04;  1.0012538E+03;  1.0000000E-01;  1.0387854E+03;3; -6.2013428E+01;  0.0000000E+00; -2.2122319E-01;0; -1.0087179E-01;  4.0120594E+04;  0.0000000E+00; -1.1287034E-01;  4.0000000E+04;  0.0000000E+00;  3.9992867E+04; -1.0054165E-01;  0.0000000E+00; -3.3014087E-04;  9.9795410E+02;
  6.2033884E-02;  9.9999998E-03;  1.5997541E-01;2858; -1.4290364E-02;  0.0000000E+00;  5.8589334E-04;  1.0008741E+03;  1.0000000E-01;  7.2422644E+02;3; -6.0556240E+01;  0.0000000E+00; -4.5947334E-01;0; -1.0153686E-01;  4.0092309E+04;  0.0000000E+00; -1.3782804E-01;  4.0000000E+04;  0.0000000E+00;  3.9990359E+04; -1.0102180E-01;  0.0000000E+00; -5.1506760E-04;  1.3191316E+03;
  6.2072184E-02;  9.9999998E-03;  1.6998261E-01;2859; -1.4133884E-02;  0.0000000E+00;  4.7252284E-04;  1.0004914E+03;  1.0000000E-01;  4.0709961E+02;3; -5.8353260E+01;  0.0000000E+00; -6.4484733E-01;0; -1.0159486E-01;  4.0061672E+04;  0.0000000E+00; -1.4822687E-01;  4.0000000E+04;  0.0000000E+00;  3.9989332E+04; -1.0125101E-01;  0.0000000E+00; -3.4385023E-04;  1.4019224E+03;
  6.2096544E-02;  9.9999998E-03;  1.7999543E-01;2860; -1.3855533E-02;  0.0000000E+00;  3.5785060E-04;  1.0001093E+03;  1.0000000E-01;  9.0466576E+01;3; -5.5268330E+01;  0.0000000E+00; -6.9897431E-01;0; -1.0098915E-01;  4.0028746E+04;  0.0000000E+00; -1.3666196E-01;  4.0000000E+04;  0.0000000E+00;  3.9990988E+04; -1.0114630E-01;  0.0000000E+00;  1.5715088E-04;  1.1636046E+03;
  6.2099624E-02;  9.9999998E-03;  1.9001332E-01;2861; -1.3451539E-02;  0.0000000E+00;  2.5537342E-04;  9.9974652E+02;  1.0000000E-01; -2.1001875E+02;3; -5.1300156E+01;  0.0000000E+00; -5.0652933E-01;0; -9.9699065E-02;  3.9994133E+04;  0.0000000E+00; -9.9662147E-02;  4.0000000E+04;  0.0000000E+00;  3.9995527E+04; -1.0060543E-01;  0.0000000E+00;  9.0636138E-04;  5.7449023E+02;
  6.2074725E-02;  9.9999998E-03;  2.0003296E-01;2862; -1.2923663E-02;  0.0000000E+00;  1.8487601E-04;  9.9940747E+02;  1.0000000E-01; -4.9089969E+02;3; -4.6527840E+01;  0.0000000E+00;  1.2711112E-01;0; -9.7736150E-02;  3.9958773E+04;  0.0000000E+00; -3.9522916E-02;  4.0000000E+04;  0.0000000E+00;  4.0002543E+04; -9.9510342E-02;  0.0000000E+00;  1.7741910E-03;  3.5624487E+02;
  6.2018048E-02;  9.9999998E-03;  2.1005133E-01;2863; -1.2283596E-02;  0.0000000E+00;  1.6054098E-04;  9.9909644E+02;  1.0000000E-01; -7.4857141E+02;3; -4.1172894E+01;  0.0000000E+00;  1.4705095E+00;0; -9.5134944E-02;  3.9923855E+04;  0.0000000E+00;  3.4564596E-02;  4.0000000E+04;  0.0000000E+00;  4.0011500E+04; -9.7733557E-02;  0.0000000E+00;  2.5986105E-03;  1.4842823E+03;
  6.1927788E-02;  9.9999998E-03;  2.2006588E-01;2864; -1.1547225E-02;  0.0000000E+00;  1.9752423E-04;  9.9881567E+02;  1.0000000E-01; -9.8120679E+02;3; -3.5578617E+01;  0.0000000E+00;  3.7972102E+00;0; -9.1944560E-02;  3.9890793E+04;  0.0000000E+00;  1.0638171E-01;  4.0000000E+04;  0.0000000E+00;  4.0020352E+04; -9.5153004E-02;  0.0000000E+00;  3.2084417E-03;  2.6838408E+03;
  6.1799768E-02;  9.9999998E-03;  2.3007239E-01;2865; -1.0736662E-02;  0.0000000E+00;  3.0505695E-04;  9.9856488E+02;  1.0000000E-01; -1.1889540E+03;3; -3.0197763E+01;  0.0000000E+00;  7.2129436E+00;0; -8.8218473E-02;  3.9860934E+04;  0.0000000E+00;  1.5416911E-01;  4.0000000E+04;  0.0000000E+00;  4.0029090E+04; -9.1668800E-02;  0.0000000E+00;  3.4503236E-03;  3.7536938E+03;
  7.1592577E-02;  9.9999998E-03;  7.0010878E-02;2910; -1.3694026E-02;  0.0000000E+00;  2.2694278E-04;  1.0051043E+03;  1.0000000E-01;  4.2288188E+03;3; -5.1267326E+01;  0.0000000E+00;  1.1827561E-01;0; -8.0103725E-02;  4.0421770E+04;  0.0000000E+00; -3.5681762E-04;  4.0000000E+04;  0.0000000E+00;  4.0005160E+04; -8.4407158E-02;  0.0000000E+00;  4.3034325E-03;  1.9464124E+02;
  7.1608365E-02;  9.9999998E-03;  8.0013722E-02;2911; -1.3881235E-02;  0.0000000E+00;  4.0223732E-04;  1.0050186E+03;  1.0000000E-01;  4.1578081E+03;3; -5.0898956E+01;  0.0000000E+00;  1.7265178E-01;0; -8.0783568E-02;  4.0412938E+04;  0.0000000E+00;  1.3167395E-03;  4.0000000E+04;  0.0000000E+00;  4.0007145E+04; -8.5132718E-02;  0.0000000E+00;  4.3491479E-03;  4.6157965E+02;
  7.1629398E-02;  9.9999998E-03;  9.0013549E-02;2912; -1.4114222E-02;  0.0000000E+00;  5.8655645E-04;  1.0049080E+03;  1.0000000E-01;  4.0661565E+03;3; -5.0589859E+01;  0.0000000E+00;  2.2179560E-01;0; -8.1850283E-02;  4.0402555E+04;  0.0000000E+00;  2.8183891E-03;  4.0000000E+04;  0.0000000E+00;  4.0008793E+04; -8.5916847E-02;  0.0000000E+00;  4.0665637E-03;  6.6578363E+02;
  7.1656294E-02;  9.9999998E-03;  1.0000953E-01;2913; -1.4374513E-02;  0.0000000E+00;  7.4517389E-04;  1.0047629E+03;  1.0000000E-01;  3.9459624E+03;3; -5.0355587E+01;  0.0000000E+00;  2.4748725E-01;0; -8.3278276E-02;  4.0390457E+04;  0.0000000E+00;  3.1692993E-03;  4.0000000E+04;  0.0000000E+00;  4.0009387E+04; -8.6749494E-02;  0.0000000E+00;  3.4712206E-03;  7.4700317E+02;
  7.1689039E-02;  9.9999998E-03;  1.1000134E-01;2914; -1.4637932E-02;  0.0000000E+00;  8.5359690E-04;  1.0045781E+03;  1.0000000E-01;  3.7928804E+03;3; -5.0200546E+01;  0.0000000E+00;  2.4148108E-01;0; -8.4990047E-02;  4.0376379E+04;  0.0000000E+00;  1.3265035E-03;  4.0000000E+04;  0.0000000E+00;  4.0008449E+04; -8.7620616E-02;  0.0000000E+00;  2.6305688E-03;  6.5526056E+02;
  7.1727671E-02;  9.9999998E-03;  1.1998974E-01;2915; -1.4881833E-02;  0.0000000E+00;  9.0246258E-04;  1.0043448E+03;  1.0000000E-01;  3.5996018E+03;3; -5.0094418E+01;  0.0000000E+00;  2.0002738E-01;0; -8.6863160E-02;  4.0360086E+04;  0.0000000E+00; -3.2661068E-03;  4.0000000E+04;  0.0000000E+00;  4.0005992E+04; -8.8517621E-02;  0.0000000E+00;  1.6544616E-03;  3.6804117E+02;
  7.1772411E-02;  9.9999998E-03;  1.2997675E-01;2916; -1.5086330E-02;  0.0000000E+00;  8.9118886E-04;  1.0040652E+03;  1.0000000E-01;  3.3679048E+03;3; -4.9977890E+01;  0.0000000E+00;  1.1851539E-01;0; -8.8745408E-02;  4.0341180E+04;  0.0000000E+00; -9.8384386E-03;  4.0000000E+04;  0.0000000E+00;  4.0002113E+04; -8.9424267E-02;  0.0000000E+00;  6.7886093E-04;  9.6425880E+01;
  7.1821824E-02;  9.9999998E-03;  1.3996591E-01;2917; -1.5229630E-02;  0.0000000E+00;  8.2459091E-04;  1.0037370E+03;  1.0000000E-01;  3.0960112E+03;3; -4.9731087E+01;  0.0000000E+00;  9.0763916E-04;0; -9.0473831E-02;  4.0319254E+04;  0.0000000E+00; -1.5381032E-02;  4.0000000E+04;  0.0000000E+00;  3.9996980E+04; -9.0320125E-02;  0.0000000E+00; -1.5370421E-04;  6.6697107E+02;
  7.1873195E-02;  9.9999998E-03;  1.4996076E-01;2918; -1.5295747E-02;  0.0000000E+00;  7.1952800E-04;  1.0033705E+03;  1.0000000E-01;  2.7924148E+03;3; -4.9211906E+01;  0.0000000E+00; -1.4706209E-01;0; -9.1890037E-02;  4.0293914E+04;  0.0000000E+00; -1.4087172E-02;  4.0000000E+04;  0.0000000E+00;  3.9992520E+04; -9.1176316E-02;  0.0000000E+00; -7.1372092E-04;  1.2334943E+03;
  7.1922444E-02;  9.9999998E-03;  1.5996198E-01;2919; -1.5267109E-02;  0.0000000E+00;  5.8967108E-04;  1.0029704E+03;  1.0000000E-01;  2.4609675E+03;3; -4.8246498E+01;  0.0000000E+00; -2.7484205E-01;0; -9.2861012E-02;  4.0264652E+04;  0.0000000E+00;  2.8697401E-03;  4.0000000E+04;  0.0000000E+00;  3.9988836E+04; -9.1951936E-02;  0.0000000E+00; -9.0907532E-04;  1.6582245E+03;
  7.1964294E-02;  9.9999998E-03;  1.6996895E-01;2920; -1.5130456E-02;  0.0000000E+00;  4.4721633E-04;  1.0025481E+03;  1.0000000E-01;  2.1110515E+03;3; -4.6697071E+01;  0.0000000E+00; -2.9225513E-01;0; -9.3290128E-02;  4.0231477E+04;  0.0000000E+00;  4.4734571E-02;  4.0000000E+04;  0.0000000E+00;  3.9987520E+04; -9.2586964E-02;  0.0000000E+00; -7.0316048E-04;  1.8129028E+03;
  7.1992464E-02;  9.9999998E-03;  1.7998178E-01;2921; -1.4874893E-02;  0.0000000E+00;  3.0538088E-04;  1.0021173E+03;  1.0000000E-01;  1.7541232E+03;3; -4.4478741E+01;  0.0000000E+00; -8.4226310E-02;0; -9.3119130E-02;  4.0194266E+04;  0.0000000E+00;  1.1720500E-01;  4.0000000E+04;  0.0000000E+00;  3.9988809E+04; -9.2997760E-02;  0.0000000E+00; -1.2137116E-04;  1.6108887E+03;
  7.2000809E-02;  9.9999998E-03;  1.9000079E-01;2922; -1.4494595E-02;  0.0000000E+00;  1.7980959E-04;  1.0016803E+03;  1.0000000E-01;  1.3920594E+03;3; -4.1555065E+01;  0.0000000E+00;  5.0312608E-01;0; -9.2324995E-02;  4.0153547E+04;  0.0000000E+00;  2.1959861E-01;  4.0000000E+04;  0.0000000E+00;  3.9993281E+04; -9.3074165E-02;  0.0000000E+00;  7.4916717E-04;  1.0437917E+03;
  7.1981817E-02;  9.9999998E-03;  2.0002265E-01;2923; -1.3989283E-02;  0.0000000E+00;  8.9494351E-05;  1.0012473E+03;  1.0000000E-01;  1.0333535E+03;3; -3.7994232E+01;  0.0000000E+00;  1.7019484E+00;0; -9.0917133E-02;  4.0109977E+04;  0.0000000E+00;  3.4315661E-01;  4.0000000E+04;  0.0000000E+00;  4.0000699E+04; -9.2684790E-02;  0.0000000E+00;  1.7676555E-03;  4.9335202E+02;
  7.1931891E-02;  9.9999998E-03;  2.1004392E-01;2924; -1.3364027E-02;  0.0000000E+00;  5.5355114E-05;  1.0008206E+03;  1.0000000E-01;  6.7978326E+02;3; -3.3946301E+01;  0.0000000E+00;  3.8133140E+00;0; -8.8925093E-02;  4.0064602E+04;  0.0000000E+00;  4.7007918E-01;  4.0000000E+04;  0.0000000E+00;  4.0010078E+04; -9.1682263E-02;  0.0000000E+00;  2.7571700E-03;  1.3764572E+03;
  7.1850143E-02;  9.9999998E-03;  2.2006075E-01;2925; -1.2633509E-02;  0.0000000E+00;  9.0176887E-05;  1.0004000E+03;  1.0000000E-01;  3.3144742E+02;3; -2.9669722E+01;  0.0000000E+00;  7.1119494E+00;0; -8.6388953E-02;  4.0019309E+04;  0.0000000E+00;  5.7377291E-01;  4.0000000E+04;  0.0000000E+00;  4.0020480E+04; -8.9918211E-02;  0.0000000E+00;  3.5292602E-03;  2.6414265E+03;
  7.1734697E-02;  9.9999998E-03;  2.3006946E-01;2926; -1.1814098E-02;  0.0000000E+00;  2.0662737E-04;  9.9998944E+02;  1.0000000E-01; -8.7404938E+00;3; -2.5524618E+01;  0.0000000E+00;  1.1666699E+01;0; -8.3351925E-02;  3.9975605E+04;  0.0000000E+00;  6.2539393E-01;  4.0000000E+04;  0.0000000E+00;  4.0029586E+04; -8.7265126E-02;  0.0000000E+00;  3.9131991E-03;  3.8011824E+03;
  8.1500612E-02;  9.9999998E-03;  7.0008025E-02;2971; -1.4226009E-02;  0.0000000E+00;  1.9205311E-04;  1.0063775E+03;  1.0000000E-01;  5.2836035E+03;3; -3.5884724E+01;  0.0000000E+00;  6.3107848E-02;0; -7.1105734E-02;  4.0522742E+04;  0.0000000E+00;  2.7162972E-04;  4.0000000E+04;  0.0000000E+00;  4.0007977E+04; -7.5338498E-02;  0.0000000E+00;  4.2327619E-03;  4.7025912E+02;
  8.1518531E-02;  9.9999998E-03;  8.0011658E-02;2972; -1.4442557E-02;  0.0000000E+00;  4.1251007E-04;  1.0063134E+03;  1.0000000E-01;  5.2305684E+03;3; -3.5668991E+01;  0.0000000E+00;  1.0202496E-01;0; -7.1548119E-02;  4.0515652E+04;  0.0000000E+00;  3.0234146E-03;  4.0000000E+04;  0.0000000E+00;  4.0010391E+04; -7.5852506E-02;  0.0000000E+00;  4.3043871E-03;  7.5047754E+02;
  8.1542388E-02;  9.9999998E-03;  9.0012237E-02;2973; -1.4701475E-02;  0.0000000E+00;  6.3706766E-04;  1.0062269E+03;  1.0000000E-01;  5.1588662E+03;3; -3.5493896E+01;  0.0000000E+00;  1.3507169E-01;0; -7.2407335E-02;  4.0507320E+04;  0.0000000E+00;  6.7284512E-03;  4.0000000E+04;  0.0000000E+00;  4.0012008E+04; -7.6424971E-02;  0.0000000E+00;  4.0176343E-03;  9.5554083E+02;
  8.1572361E-02;  9.9999998E-03;  1.0000826E-01;2974; -1.4981508E-02;  0.0000000E+00;  8.1596896E-04;  1.0061116E+03;  1.0000000E-01;  5.0633628E+03;3; -3.5377678E+01;  0.0000000E+00;  1.5140171E-01;0; -7.3671877E-02;  4.0497809E+04;  0.0000000E+00;  1.1079389E-02;  4.0000000E+04;  0.0000000E+00;  4.0012605E+04; -7.7060588E-02;  0.0000000E+00;  3.3887068E-03;  1.0193101E+03;
  8.1607871E-02;  9.9999998E-03;  1.0999911E-01;2975; -1.5259822E-02;  0.0000000E+00;  9.3057711E-04;  1.0059578E+03;  1.0000000E-01;  4.9359590E+03;3; -3.5324726E+01;  0.0000000E+00;  1.4633667E-01;0; -7.5274363E-02;  4.0486340E+04;  0.0000000E+00;  1.5906867E-02;  4.0000000E+04;  0.0000000E+00;  4.0011383E+04; -7.7765696E-02;  0.0000000E+00;  2.4913319E-03;  8.8693585E+02;
  8.1647828E-02;  9.9999998E-03;  1.1998557E-01;2976; -1.5516520E-02;  0.0000000E+00;  9.7545818E-04;  1.0057551E+03;  1.0000000E-01;  4.7679639E+03;3; -3.5322548E+01;  0.0000000E+00;  1.2014232E-01;0; -7.7101149E-02;  4.0472918E+04;  0.0000000E+00;  2.1753931E-02;  4.0000000E+04;  0.0000000E+00;  4.0008281E+04; -7.8546941E-02;  0.0000000E+00;  1.4457902E-03;  5.3418201E+02;
  8.1691891E-02;  9.9999998E-03;  1.2997030E-01;2977; -1.5729500E-02;  0.0000000E+00;  9.4856753E-04;  1.0054999E+03;  1.0000000E-01;  4.5566118E+03;3; -3.5321316E+01;  0.0000000E+00;  7.1399435E-02;0; -7.9006515E-02;  4.0456785E+04;  0.0000000E+00;  3.0762734E-02;  4.0000000E+04;  0.0000000E+00;  4.0004105E+04; -7.9407081E-02;  0.0000000E+00;  4.0056603E-04;  4.7520905E+01;
  8.1739806E-02;  9.9999998E-03;  1.3995689E-01;2978; -1.5882358E-02;  0.0000000E+00;  8.6105318E-04;  1.0051953E+03;  1.0000000E-01;  4.3041748E+03;3; -3.5239590E+01;  0.0000000E+00; -2.1594651E-03;0; -8.0830388E-02;  4.0437363E+04;  0.0000000E+00;  4.7592521E-02;  4.0000000E+04;  0.0000000E+00;  3.9998430E+04; -8.0341615E-02;  0.0000000E+00; -4.8877060E-04;  6.9461798E+02;
  8.1789121E-02;  9.9999998E-03;  1.4994946E-01;2979; -1.5959062E-02;  0.0000000E+00;  7.2869653E-04;  1.0048408E+03;  1.0000000E-01;  4.0104546E+03;3; -3.4966774E+01;  0.0000000E+00; -8.8974535E-02;0; -8.2417488E-02;  4.0413965E+04;  0.0000000E+00;  7.9771720E-02;  4.0000000E+04;  0.0000000E+00;  3.9992516E+04; -8.1336871E-02;  0.0000000E+00; -1.0806144E-03;  1.3633848E+03;
  8.1837334E-02;  9.9999998E-03;  1.5995018E-01;2980; -1.5947357E-02;  0.0000000E+00;  5.7184981E-04;  1.0044460E+03;  1.0000000E-01;  3.6834514E+03;3; -3.4381760E+01;  0.0000000E+00; -1.3467024E-01;0; -8.3633997E-02;  4.0385645E+04;  0.0000000E+00;  1.3708459E-01;  4.0000000E+04;  0.0000000E+00;  3.9988340E+04; -8.2361415E-02;  0.0000000E+00; -1.2725814E-03;  1.8768408E+03;
  8.1878863E-02;  9.9999998E-03;  1.6995738E-01;2981; -1.5835382E-02;  0.0000000E+00;  4.0469956E-04;  1.0040148E+03;  1.0000000E-01;  3.3262268E+03;3; -3.3379063E+01;  0.0000000E+00; -3.0645980E-02;0; -8.4383823E-02;  4.0352027E+04;  0.0000000E+00;  2.2901900E-01;  4.0000000E+04;  0.0000000E+00;  3.9986281E+04; -8.3362266E-02;  0.0000000E+00; -1.0215564E-03;  2.0968967E+03;
  8.1908152E-02;  9.9999998E-03;  1.7997056E-01;2982; -1.5612032E-02;  0.0000000E+00;  2.4292430E-04;  1.0035598E+03;  1.0000000E-01;  2.9491511E+03;3; -3.1899490E+01;  0.0000000E+00;  3.6830780E-01;0; -8.4608868E-02;  4.0312898E+04;  0.0000000E+00;  3.6011058E-01;  4.0000000E+04;  0.0000000E+00;  3.9987414E+04; -8.4255867E-02;  0.0000000E+00; -3.5300109E-04;  1.9417484E+03;
  8.1918329E-02;  9.9999998E-03;  1.8999007E-01;2983; -1.5269229E-02;  0.0000000E+00;  1.0149151E-04;  1.0030813E+03;  1.0000000E-01;  2.5528167E+03;3; -2.9919275E+01;  0.0000000E+00;  1.2544158E+00;0; -8.4288634E-02;  4.0268480E+04;  0.0000000E+00;  5.2693081E-01;  4.0000000E+04;  0.0000000E+00;  3.9992367E+04; -8.4928423E-02;  0.0000000E+00;  6.3979055E-04;  1.4453450E+03;
  8.1901915E-02;  9.9999998E-03;  2.0001355E-01;2984; -1.4802827E-02;  0.0000000E+00;  7.1056292E-07;  1.0025861E+03;  1.0000000E-01;  2.1424580E+03;3; -2.7482256E+01;  0.0000000E+00;  2.8992133E+00;0; -8.3431378E-02;  4.0219281E+04;  0.0000000E+00;  7.1566528E-01;  4.0000000E+04;  0.0000000E+00;  4.0000383E+04; -8.5237332E-02;  0.0000000E+00;  1.8059524E-03;  1.0400913E+03;
  8.1855863E-02;  9.9999998E-03;  2.1003711E-01;2985; -1.4211992E-02;  0.0000000E+00; -3.5804071E-05;  1.0020732E+03;  1.0000000E-01;  1.7175811E+03;3; -2.4691063E+01;  0.0000000E+00;  5.6362629E+00;0; -8.2062148E-02;  4.0166535E+04;  0.0000000E+00;  9.0010446E-01;  4.0000000E+04;  0.0000000E+00;  4.0010488E+04; -8.5017741E-02;  0.0000000E+00;  2.9555913E-03;  1.7084221E+03;
  8.1778549E-02;  9.9999998E-03;  2.2005619E-01;2986; -1.3509487E-02;  0.0000000E+00;  3.9037027E-06;  1.0015533E+03;  1.0000000E-01;  1.2868772E+03;3; -2.1756168E+01;  0.0000000E+00;  9.7590332E+00;0; -8.0216467E-02;  4.0111758E+04;  0.0000000E+00;  1.0481218E+00;  4.0000000E+04;  0.0000000E+00;  4.0021457E+04; -8.4101550E-02;  0.0000000E+00;  3.8850806E-03;  2.9518623E+03;
  8.1671171E-02;  9.9999998E-03;  2.3006687E-01;2987; -1.2704927E-02;  0.0000000E+00;  1.3714991E-04;  1.0010189E+03;  1.0000000E-01;  8.4412427E+02;3; -1.8941559E+01;  0.0000000E+00;  1.5292437E+01;0; -7.7927485E-02;  4.0057168E+04;  0.0000000E+00;  1.1318016E+00;  4.0000000E+04;  0.0000000E+00;  4.0031508E+04; -8.2335770E-02;  0.0000000E+00;  4.4082846E-03;  4.1565845E+03;
  9.1463223E-02;  9.9999998E-03;  7.0006050E-02;3032; -1.4539445E-02;  0.0000000E+00;  1.0022881E-04;  1.0069282E+03;  1.0000000E-01;  5.7398872E+03;3; -2.2453215E+01;  0.0000000E+00;  2.0543026E-02;0; -6.3012883E-02;  4.0564457E+04;  0.0000000E+00; -7.5129513E-04;  4.0000000E+04;  0.0000000E+00;  4.0011043E+04; -6.7061611E-02;  0.0000000E+00;  4.0487307E-03;  7.6855615E+02;
  9.1481507E-02;  9.9999998E-03;  8.0010071E-02;3033; -1.4773801E-02;  0.0000000E+00;  3.4769790E-04;  1.0068979E+03;  1.0000000E-01;  5.7148013E+03;3; -2.2342281E+01;  0.0000000E+00;  4.5404568E-02;0; -6.3172057E-02;  4.0559594E+04;  0.0000000E+00;  2.5381807E-03;  4.0000000E+04;  0.0000000E+00;  4.0013309E+04; -6.7323737E-02;  0.0000000E+00;  4.1516819E-03;  1.0605718E+03;
  9.1505319E-02;  9.9999998E-03;  9.0011187E-02;3034; -1.5047424E-02;  0.0000000E+00;  6.0089631E-04;  1.0068460E+03;  1.0000000E-01;  5.6717407E+03;3; -2.2254938E+01;  0.0000000E+00;  6.5843143E-02;0; -6.3765809E-02;  4.0554062E+04;  0.0000000E+00;  7.8120884E-03;  4.0000000E+04;  0.0000000E+00;  4.0014715E+04; -6.7638703E-02;  0.0000000E+00;  3.8728905E-03;  1.2671604E+03;
  9.1534413E-02;  9.9999998E-03;  1.0000739E-01;3035; -1.5341150E-02;  0.0000000E+00;  8.0483250E-04;  1.0067702E+03;  1.0000000E-01;  5.6090264E+03;3; -2.2215475E+01;  0.0000000E+00;  7.8165010E-02;0; -6.4797714E-02;  4.0547715E+04;  0.0000000E+00;  1.5391015E-02;  4.0000000E+04;  0.0000000E+00;  4.0015309E+04; -6.8026096E-02;  0.0000000E+00;  3.2283850E-03;  1.3173796E+03;
  9.1567852E-02;  9.9999998E-03;  1.0999769E-01;3036; -1.5629390E-02;  0.0000000E+00;  9.3127234E-04;  1.0066555E+03;  1.0000000E-01;  5.5139180E+03;3; -2.2219322E+01;  0.0000000E+00;  7.6554306E-02;0; -6.6213198E-02;  4.0540062E+04;  0.0000000E+00;  2.5872989E-02;  4.0000000E+04;  0.0000000E+00;  4.0013770E+04; -6.8509668E-02;  0.0000000E+00;  2.2964673E-03;  1.1522311E+03;
  9.1604114E-02;  9.9999998E-03;  1.1998264E-01;3037; -1.5894361E-02;  0.0000000E+00;  9.7554439E-04;  1.0064960E+03;  1.0000000E-01;  5.3817739E+03;3; -2.2266352E+01;  0.0000000E+00;  6.2391844E-02;0; -6.7909278E-02;  4.0530711E+04;  0.0000000E+00;  4.0729083E-02;  4.0000000E+04;  0.0000000E+00;  4.0010797E+04; -6.9115132E-02;  0.0000000E+00;  1.2058569E-03;  7.4655658E+02;
  9.1642559E-02;  9.9999998E-03;  1.2996495E-01;3038; -1.6118439E-02;  0.0000000E+00;  9.4421784E-04;  1.0062871E+03;  1.0000000E-01;  5.2087417E+03;3; -2.2328138E+01;  0.0000000E+00;  3.6309399E-02;0; -6.9749109E-02;  4.0518672E+04;  0.0000000E+00;  6.3202411E-02;  4.0000000E+04;  0.0000000E+00;  4.0005332E+04; -6.9864653E-02;  0.0000000E+00;  1.1554269E-04;  1.5043369E+02;
  9.1683403E-02;  9.9999998E-03;  1.3994901E-01;3039; -1.6282344E-02;  0.0000000E+00;  8.4529637E-04;  1.0060223E+03;  1.0000000E-01;  4.9893896E+03;3; -2.2340801E+01;  0.0000000E+00; -2.3415785E-03;0; -7.1580097E-02;  4.0503094E+04;  0.0000000E+00;  9.9221490E-02;  4.0000000E+04;  0.0000000E+00;  3.9999082E+04; -7.0772134E-02;  0.0000000E+00; -8.0796564E-04;  6.4904706E+02;
  9.1726638E-02;  9.9999998E-03;  1.4993937E-01;3040; -1.6373858E-02;  0.0000000E+00;  6.9608400E-04;  1.0057018E+03;  1.0000000E-01;  4.7239160E+03;3; -2.2228334E+01;  0.0000000E+00; -4.5325715E-02;0; -7.3250107E-02;  4.0483117E+04;  0.0000000E+00;  1.5762150E-01;  4.0000000E+04;  0.0000000E+00;  3.9992988E+04; -7.1837693E-02;  0.0000000E+00; -1.4124148E-03;  1.3962222E+03;
  9.1770008E-02;  9.9999998E-03;  1.5993962E-01;3041; -1.6381849E-02;  0.0000000E+00;  5.1877787E-04;  1.0053334E+03;  1.0000000E-01;  4.4186406E+03;3; -2.1909607E+01;  0.0000000E+00; -3.4705132E-02;0; -7.4629217E-02;  4.0457684E+04;  0.0000000E+00;  2.4866126E-01;  4.0000000E+04;  0.0000000E+00;  3.9988160E+04; -7.3042773E-02;  0.0000000E+00; -1.5864464E-03;  1.9776365E+03;
  9.1809295E-02;  9.9999998E-03;  1.6994797E-01;3042; -1.6299555E-02;  0.0000000E+00;  3.3505654E-04;  1.0049217E+03;  1.0000000E-01;  4.0775144E+03;3; -2.1316139E+01;  0.0000000E+00;  1.4883091E-01;0; -7.5622849E-02;  4.0425684E+04;  0.0000000E+00;  3.8144341E-01;  4.0000000E+04;  0.0000000E+00;  3.9986000E+04; -7.4341141E-02;  0.0000000E+00; -1.2817088E-03;  2.2469812E+03;
  9.1838092E-02;  9.9999998E-03;  1.7996205E-01;3043; -1.6116552E-02;  0.0000000E+00;  1.6206907E-04;  1.0044692E+03;  1.0000000E-01;  3.7026113E+03;3; -2.0408226E+01;  0.0000000E+00;  6.7460555E-01;0; -7.6178275E-02;  4.0386879E+04;  0.0000000E+00;  5.6020331E-01;  4.0000000E+04;  0.0000000E+00;  3.9987418E+04; -7.5653426E-02;  0.0000000E+00; -5.2484847E-04;  2.1286072E+03;
  9.1849484E-02;  9.9999998E-03;  1.8998212E-01;3044; -1.5821924E-02;  0.0000000E+00;  1.3587924E-05;  1.0039781E+03;  1.0000000E-01;  3.2958081E+03;3; -1.9176643E+01;  0.0000000E+00;  1.7697510E+00;0; -7.6279074E-02;  4.0340828E+04;  0.0000000E+00;  7.8074205E-01;  4.0000000E+04;  0.0000000E+00;  3.9992457E+04; -7.6864302E-02;  0.0000000E+00;  5.8522850E-04;  1.7009366E+03;
  9.1834940E-02;  9.9999998E-03;  2.0000644E-01;3045; -1.5405947E-02;  0.0000000E+00; -8.8166438E-05;  1.0034526E+03;  1.0000000E-01;  2.8604624E+03;3; -1.7655794E+01;  0.0000000E+00;  3.7471464E+00;0; -7.5936131E-02;  4.0288684E+04;  0.0000000E+00;  1.0261178E+00;  4.0000000E+04;  0.0000000E+00;  4.0001176E+04; -7.7825628E-02;  0.0000000E+00;  1.8894954E-03;  1.4709137E+03;
  9.1789484E-02;  9.9999998E-03;  2.1003120E-01;3046; -1.4867151E-02;  0.0000000E+00; -1.2269836E-04;  1.0028884E+03;  1.0000000E-01;  2.3929199E+03;3; -1.5927283E+01;  0.0000000E+00;  6.9743285E+00;0; -7.5177222E-02;  4.0230840E+04;  0.0000000E+00;  1.2702706E+00;  4.0000000E+04;  0.0000000E+00;  4.0012047E+04; -7.8364536E-02;  0.0000000E+00;  3.1873153E-03;  2.2037451E+03;
  9.1715612E-02;  9.9999998E-03;  2.2005118E-01;3047; -1.4207955E-02;  0.0000000E+00; -6.8502508E-05;  1.0022936E+03;  1.0000000E-01;  1.9001931E+03;3; -1.4143198E+01;  0.0000000E+00;  1.1758157E+01;0; -7.4033432E-02;  4.0169574E+04;  0.0000000E+00;  1.4882091E+00;  4.0000000E+04;  0.0000000E+00;  4.0023777E+04; -7.8296296E-02;  0.0000000E+00;  4.2628665E-03;  3.4989470E+03;
  9.1612205E-02;  9.9999998E-03;  2.3006293E-01;3048; -1.3436215E-02;  0.0000000E+00;  9.0301779E-05;  1.0016663E+03;  1.0000000E-01;  1.3805042E+03;3; -1.2522297E+01;  0.0000000E+00;  1.8100267E+01;0; -7.2531581E-02;  4.0106906E+04;  0.0000000E+00;  1.6627855E+00;  4.0000000E+04;  0.0000000E+00;  4.0034664E+04; -7.7448532E-02;  0.0000000E+00;  4.9169539E-03;  4.7867432E+03;
  1.0142262E-01;  9.9999998E-03;  7.0003688E-02;3093; -1.4692490E-02;  0.0000000E+00; -4.6817211E-05;  1.0068445E+03;  1.0000000E-01;  5.6705557E+03;3; -1.2389210E+01;  0.0000000E+00; -6.0115573E-03;0; -5.6517512E-02;  4.0553273E+04;  0.0000000E+00; -3.2743237E-03;  4.0000000E+04;  0.0000000E+00;  4.0013426E+04; -6.0282718E-02;  0.0000000E+00;  3.7652061E-03;  1.0596555E+03;
  1.0144136E-01;  9.9999998E-03;  8.0007546E-02;3094; -1.4925110E-02;  0.0000000E+00;  1.8382561E-04;  1.0068477E+03;  1.0000000E-01;  5.6732222E+03;3; -1.2330802E+01;  0.0000000E+00;  3.3120285E-03;0; -5.6359723E-02;  4.0551348E+04;  0.0000000E+00; -1.4909485E-04;  4.0000000E+04;  0.0000000E+00;  4.0015762E+04; -6.0261436E-02;  0.0000000E+00;  3.9017135E-03;  1.3624678E+03;
  1.0146578E-01;  9.9999998E-03;  9.0008885E-02;3095; -1.5203730E-02;  0.0000000E+00;  4.5593115E-04;  1.0068406E+03;  1.0000000E-01;  5.6672964E+03;3; -1.2296738E+01;  0.0000000E+00;  1.7818052E-02;0; -5.6638736E-02;  4.0549441E+04;  0.0000000E+00;  5.7744286E-03;  4.0000000E+04;  0.0000000E+00;  4.0017371E+04; -6.0280122E-02;  0.0000000E+00;  3.6413840E-03;  1.5716584E+03;
  1.0149525E-01;  9.9999998E-03;  1.0000532E-01;3096; -1.5502184E-02;  0.0000000E+00;  6.8453193E-04;  1.0068110E+03;  1.0000000E-01;  5.6428032E+03;3; -1.2290452E+01;  0.0000000E+00;  2.7485758E-02;0; -5.7373080E-02;  4.0547016E+04;  0.0000000E+00;  1.5386892E-02;  4.0000000E+04;  0.0000000E+00;  4.0017578E+04; -6.0372211E-02;  0.0000000E+00;  2.9991311E-03;  1.6123977E+03;
  1.0152827E-01;  9.9999998E-03;  1.0999551E-01;3097; -1.5795955E-02;  0.0000000E+00;  8.3121686E-04;  1.0067555E+03;  1.0000000E-01;  5.5967798E+03;3; -1.2318639E+01;  0.0000000E+00;  2.8650597E-02;0; -5.8522899E-02;  4.0544082E+04;  0.0000000E+00;  2.9954739E-02;  4.0000000E+04;  0.0000000E+00;  4.0015961E+04; -6.0578711E-02;  0.0000000E+00;  2.0558143E-03;  1.4223953E+03;
  1.0156309E-01;  9.9999998E-03;  1.1997981E-01;3098; -1.6066842E-02;  0.0000000E+00;  8.8274881E-04;  1.0066565E+03;  1.0000000E-01;  5.5148071E+03;3; -1.2378090E+01;  0.0000000E+00;  2.5162373E-02;0; -5.9998240E-02;  4.0539625E+04;  0.0000000E+00;  5.1675331E-02;  4.0000000E+04;  0.0000000E+00;  4.0012469E+04; -6.0944103E-02;  0.0000000E+00;  9.4586145E-04;  9.7550568E+02;
  1.0159815E-01;  9.9999998E-03;  1.2996033E-01;3099; -1.6301613E-02;  0.0000000E+00;  8.5402420E-04;  1.0065045E+03;  1.0000000E-01;  5.3888848E+03;3; -1.2448873E+01;  0.0000000E+00;  1.4561650E-02;0; -6.1674654E-02;  4.0532934E+04;  0.0000000E+00;  8.4535472E-02;  4.0000000E+04;  0.0000000E+00;  4.0006691E+04; -6.1510790E-02;  0.0000000E+00; -1.6386363E-04;  3.1709207E+02;
  1.0163406E-01;  9.9999998E-03;  1.3994205E-01;3100; -1.6482972E-02;  0.0000000E+00;  7.5605127E-04;  1.0062981E+03;  1.0000000E-01;  5.2178276E+03;3; -1.2497656E+01;  0.0000000E+00; -2.1527172E-03;0; -6.3409537E-02;  4.0523016E+04;  0.0000000E+00;  1.3515773E-01;  4.0000000E+04;  0.0000000E+00;  4.0000430E+04; -6.2311400E-02;  0.0000000E+00; -1.0981401E-03;  5.5645221E+02;
  1.0167212E-01;  9.9999998E-03;  1.4993031E-01;3101; -1.6596450E-02;  0.0000000E+00;  6.0370658E-04;  1.0060362E+03;  1.0000000E-01;  5.0008462E+03;3; -1.2472870E+01;  0.0000000E+00; -1.7572531E-02;0; -6.5058090E-02;  4.0508109E+04;  0.0000000E+00;  2.1286571E-01;  4.0000000E+04;  0.0000000E+00;  3.9993957E+04; -6.3362241E-02;  0.0000000E+00; -1.6958490E-03;  1.3565667E+03;
  1.0171194E-01;  9.9999998E-03;  1.5992996E-01;3102; -1.6632238E-02;  0.0000000E+00;  4.1965552E-04;  1.0057202E+03;  1.0000000E-01;  4.7391250E+03;3; -1.2323889E+01;  0.0000000E+00;  2.8140906E-02;0; -6.6496275E-02;  4.0487094E+04;  0.0000000E+00;  3.2772395E-01;  4.0000000E+04;  0.0000000E+00;  3.9988578E+04; -6.4657748E-02;  0.0000000E+00; -1.8385242E-03;  1.9841340E+03;
  1.0175002E-01;  9.9999998E-03;  1.6994070E-01;3103; -1.6586183E-02;  0.0000000E+00;  2.2971896E-04;  1.0053481E+03;  1.0000000E-01;  4.4307881E+03;3; -1.2005942E+01;  0.0000000E+00;  2.6035595E-01;0; -6.7636602E-02;  4.0458793E+04;  0.0000000E+00;  4.8784968E-01;  4.0000000E+04;  0.0000000E+00;  3.9986445E+04; -6.6161647E-02;  0.0000000E+00; -1.4749529E-03;  2.2830742E+03;
  1.0177912E-01;  9.9999998E-03;  1.7995657E-01;3104; -1.6451199E-02;  0.0000000E+00;  5.6305544E-05;  1.0049220E+03;  1.0000000E-01;  4.0778105E+03;3; -1.1499524E+01;  0.0000000E+00;  8.6376041E-01;0; -6.8434618E-02;  4.0422121E+04;  0.0000000E+00;  6.9780427E-01;  4.0000000E+04;  0.0000000E+00;  3.9988008E+04; -6.7801423E-02;  0.0000000E+00; -6.3319836E-04;  2.1818987E+03;
  1.0179140E-01;  9.9999998E-03;  1.8997703E-01;3105; -1.6211970E-02;  0.0000000E+00; -8.8126588E-05;  1.0044459E+03;  1.0000000E-01;  3.6833525E+03;3; -1.0806915E+01;  0.0000000E+00;  2.0987267E+00;0; -6.8881005E-02;  4.0376945E+04;  0.0000000E+00;  9.5356631E-01;  4.0000000E+04;  0.0000000E+00;  3.9993555E+04; -6.9464631E-02;  0.0000000E+00;  5.8362668E-04;  1.8063176E+03;
  1.0177880E-01;  9.9999998E-03;  2.0000148E-01;3106; -1.5856300E-02;  0.0000000E+00; -1.8361883E-04;  1.0039136E+03;  1.0000000E-01;  3.2423774E+03;3; -9.9583454E+00;  0.0000000E+00;  4.3122582E+00;0; -6.8994507E-02;  4.0323594E+04;  0.0000000E+00;  1.2422593E+00;  4.0000000E+04;  0.0000000E+00;  4.0002910E+04; -7.1004905E-02;  0.0000000E+00;  2.0103955E-03;  1.7675859E+03;
  1.0173620E-01;  9.9999998E-03;  2.1002498E-01;3107; -1.5381338E-02;  0.0000000E+00; -2.1107761E-04;  1.0033254E+03;  1.0000000E-01;  2.7549839E+03;3; -9.0296936E+00;  0.0000000E+00;  7.9074645E+00;0; -6.8809800E-02;  4.0263180E+04;  0.0000000E+00;  1.5515155E+00;  4.0000000E+04;  0.0000000E+00;  4.0015012E+04; -7.2247945E-02;  0.0000000E+00;  3.4381433E-03;  2.7034451E+03;
  1.0166132E-01;  9.9999998E-03;  2.2004420E-01;3108; -1.4782112E-02;  0.0000000E+00; -1.4395709E-04;  1.0026818E+03;  1.0000000E-01;  2.2217644E+03;3; -8.1372967E+00;  0.0000000E+00;  1.3207516E+01;0; -6.8362549E-02;  4.0197547E+04;  0.0000000E+00;  1.8782519E+00;  4.0000000E+04;  0.0000000E+00;  4.0027305E+04; -7.3004425E-02;  0.0000000E+00;  4.6418733E-03;  4.1664556E+03;
  1.0156275E-01;  9.9999998E-03;  2.3005405E-01;3109; -1.4055482E-02;  0.0000000E+00;  4.6183559E-05;  1.0019907E+03;  1.0000000E-01;  1.6492373E+03;3; -7.4569535E+00;  0.0000000E+00;  2.0209667E+01;0; -6.7665860E-02;  4.0129199E+04;  0.0000000E+00;  2.2281101E+00;  4.0000000E+04;  0.0000000E+00;  4.0038457E+04; -7.3079608E-02;  0.0000000E+00;  5.4137479E-03;  5.6355747E+03;
  1.1134643E-01;  9.9999998E-03;  6.9998562E-02;3154; -1.4776046E-02;  0.0000000E+00; -2.0763895E-04;  1.0062394E+03;  1.0000000E-01;  5.1692363E+03;3; -5.8128581E+00;  0.0000000E+00; -2.3233525E-02;0; -5.2017920E-02;  4.0499574E+04;  0.0000000E+00; -6.3778418E-03;  4.0000000E+04;  0.0000000E+00;  4.0014777E+04; -5.5427019E-02;  0.0000000E+00;  3.4090970E-03;  1.3148726E+03;
  1.1136810E-01;  9.9999998E-03;  8.0001988E-02;3155; -1.4993500E-02;  0.0000000E+00; -2.0365967E-05;  1.0062824E+03;  1.0000000E-01;  5.2048896E+03;3; -5.7848659E+00;  0.0000000E+00; -2.2747064E-02;0; -5.1526971E-02;  4.0500801E+04;  0.0000000E+00; -4.0569203E-03;  4.0000000E+04;  0.0000000E+00;  4.0017488E+04; -5.5104237E-02;  0.0000000E+00;  3.5772654E-03;  1.6281595E+03;
  1.1139592E-01;  9.9999998E-03;  9.0003274E-02;3156; -1.5259656E-02;  0.0000000E+00;  2.3114485E-04;  1.0063284E+03;  1.0000000E-01;  5.2429136E+03;3; -5.7727561E+00;  0.0000000E+00; -1.6435003E-02;0; -5.1458411E-02;  4.0502812E+04;  0.0000000E+00;  1.5222366E-03;  4.0000000E+04;  0.0000000E+00;  4.0019379E+04; -5.4800637E-02;  0.0000000E+00;  3.3422273E-03;  1.8414045E+03;
  1.1142910E-01;  9.9999998E-03;  1.0000009E-01;3157; -1.5553453E-02;  0.0000000E+00;  4.7440856E-04;  1.0063563E+03;  1.0000000E-01;  5.2660239E+03;3; -5.7787395E+00;  0.0000000E+00; -8.4615638E-03;0; -5.1845714E-02;  4.0505352E+04;  0.0000000E+00;  1.1750243E-02;  4.0000000E+04;  0.0000000E+00;  4.0019398E+04; -5.4562934E-02;  0.0000000E+00;  2.7172193E-03;  1.8768362E+03;
  1.1146583E-01;  9.9999998E-03;  1.0999072E-01;3158; -1.5845608E-02;  0.0000000E+00;  6.4063485E-04;  1.0063660E+03;  1.0000000E-01;  5.2741226E+03;3; -5.8066015E+00;  0.0000000E+00; -1.8796081E-03;0; -5.2663524E-02;  4.0507734E+04;  0.0000000E+00;  2.8467298E-02;  4.0000000E+04;  0.0000000E+00;  4.0017867E+04; -5.4447077E-02;  0.0000000E+00;  1.7835544E-03;  1.6695374E+03;
  1.1150368E-01;  9.9999998E-03;  1.1997502E-01;3159; -1.6118722E-02;  0.0000000E+00;  7.0855446E-04;  1.0063361E+03;  1.0000000E-01;  5.2493330E+03;3; -5.8540087E+00;  0.0000000E+00;  2.9461640E-03;0; -5.3837173E-02;  4.0509410E+04;  0.0000000E+00;  5.4431122E-02;  4.0000000E+04;  0.0000000E+00;  4.0013793E+04; -5.4515693E-02;  0.0000000E+00;  6.7852001E-04;  1.1923596E+03;
  1.1154076E-01;  9.9999998E-03;  1.2995496E-01;3160; -1.6359467E-02;  0.0000000E+00;  6.8855548E-04;  1.0062620E+03;  1.0000000E-01;  5.1880015E+03;3; -5.9085226E+00;  0.0000000E+00;  1.1809848E-03;0; -5.5256505E-02;  4.0509246E+04;  0.0000000E+00;  9.4037540E-02;  4.0000000E+04;  0.0000000E+00;  4.0008016E+04; -5.4830220E-02;  0.0000000E+00; -4.2628552E-04;  4.8847015E+02;
  1.1157747E-01;  9.9999998E-03;  1.3993524E-01;3161; -1.6553974E-02;  0.0000000E+00;  5.9534924E-04;  1.0061326E+03;  1.0000000E-01;  5.0807451E+03;3; -5.9529948E+00;  0.0000000E+00; -3.4261150E-03;0; -5.6791726E-02;  4.0505867E+04;  0.0000000E+00;  1.5400042E-01;  4.0000000E+04;  0.0000000E+00;  4.0001551E+04; -5.5442337E-02;  0.0000000E+00; -1.3493884E-03;  4.4743237E+02;
  1.1161433E-01;  9.9999998E-03;  1.4992151E-01;3162; -1.6692549E-02;  0.0000000E+00;  4.4955916E-04;  1.0059437E+03;  1.0000000E-01;  4.9242065E+03;3; -5.9615116E+00;  0.0000000E+00; -3.7544114E-03;0; -5.8309782E-02;  4.0497660E+04;  0.0000000E+00;  2.4320279E-01;  4.0000000E+04;  0.0000000E+00;  3.9994047E+04; -5.6386959E-02;  0.0000000E+00; -1.9228231E-03;  1.2761775E+03;
  1.1165430E-01;  9.9999998E-03;  1.5992071E-01;3163; -1.6764561E-02;  0.0000000E+00;  2.7159022E-04;  1.0056990E+03;  1.0000000E-01;  4.7214468E+03;3; -5.9039884E+00;  0.0000000E+00;  6.0768221E-02;0; -5.9695914E-02;  4.0482730E+04;  0.0000000E+00;  3.7061265E-01;  4.0000000E+04;  0.0000000E+00;  3.9989039E+04; -5.7672143E-02;  0.0000000E+00; -2.0237705E-03;  1.9312041E+03;
  1.1169453E-01;  9.9999998E-03;  1.6993470E-01;3164; -1.6763667E-02;  0.0000000E+00;  8.8250170E-05;  1.0053918E+03;  1.0000000E-01;  4.4670342E+03;3; -5.7557907E+00;  0.0000000E+00;  3.1935531E-01;0; -6.0875390E-02;  4.0459820E+04;  0.0000000E+00;  5.4348779E-01;  4.0000000E+04;  0.0000000E+00;  3.9987070E+04; -5.9274971E-02;  0.0000000E+00; -1.6004181E-03;  2.2405933E+03;
  1.1172663E-01;  9.9999998E-03;  1.7995344E-01;3165; -1.6683316E-02;  0.0000000E+00; -7.5224852E-05;  1.0050189E+03;  1.0000000E-01;  4.1581045E+03;3; -5.5081606E+00;  0.0000000E+00;  9.6963179E-01;0; -6.1814617E-02;  4.0427316E+04;  0.0000000E+00;  7.6579618E-01;  4.0000000E+04;  0.0000000E+00;  3.9988801E+04; -6.1132781E-02;  0.0000000E+00; -6.8183756E-04;  2.1333608E+03;
  1.1174254E-01;  9.9999998E-03;  1.8997489E-01;3166; -1.6505139E-02;  0.0000000E+00; -2.0810710E-04;  1.0045763E+03;  1.0000000E-01;  3.7913989E+03;3; -5.1693897E+00;  0.0000000E+00;  2.2922492E+00;0; -6.2516734E-02;  4.0384820E+04;  0.0000000E+00;  1.0362129E+00;  4.0000000E+04;  0.0000000E+00;  3.9995230E+04; -6.3143089E-02;  0.0000000E+00;  6.2635803E-04;  1.7862986E+03;
  1.1173221E-01;  9.9999998E-03;  1.9999823E-01;3167; -1.6217511E-02;  0.0000000E+00; -2.9402899E-04;  1.0040607E+03;  1.0000000E-01;  3.3641519E+03;3; -4.7781878E+00;  0.0000000E+00;  4.6680012E+00;0; -6.3015036E-02;  4.0332367E+04;  0.0000000E+00;  1.3549795E+00;  4.0000000E+04;  0.0000000E+00;  4.0005098E+04; -6.5169677E-02;  0.0000000E+00;  2.1546381E-03;  1.9520978E+03;
  1.1169356E-01;  9.9999998E-03;  2.1001859E-01;3168; -1.5810700E-02;  0.0000000E+00; -3.0656662E-04;  1.0034687E+03;  1.0000000E-01;  2.8736965E+03;3; -4.3996234E+00;  0.0000000E+00;  8.5354948E+00;0; -6.3354015E-02;  4.0271016E+04;  0.0000000E+00;  1.7365285E+00;  4.0000000E+04;  0.0000000E+00;  4.0018105E+04; -6.7042775E-02;  0.0000000E+00;  3.6887589E-03;  3.1587783E+03;
  1.1162308E-01;  9.9999998E-03;  2.2003317E-01;3169; -1.5284420E-02;  0.0000000E+00; -2.2970265E-04;  1.0028035E+03;  1.0000000E-01;  2.3226011E+03;3; -4.1315041E+00;  0.0000000E+00;  1.4232439E+01;0; -6.3576147E-02;  4.0202668E+04;  0.0000000E+00;  2.2148499E+00;  4.0000000E+04;  0.0000000E+00;  4.0031793E+04; -6.8573825E-02;  0.0000000E+00;  4.9976790E-03;  4.8754727E+03;
  1.1152384E-01;  9.9999998E-03;  2.3003872E-01;3170; -1.4624466E-02;  0.0000000E+00; -2.6777034E-05;  1.0020653E+03;  1.0000000E-01;  1.7110627E+03;3; -4.1101193E+00;  0.0000000E+00;  2.1747036E+01;0; -6.3691579E-02;  4.0130125E+04;  0.0000000E+00;  2.8318694E+00;  4.0000000E+04;  0.0000000E+00;  4.0043477E+04; -6.9560379E-02;  0.0000000E+00;  5.8688018E-03;  6.6385508E+03;
  1.2124636E-01;  9.9999998E-03;  6.9989383E-02;3215; -1.4887718E-02;  0.0000000E+00; -3.3506125E-04;  1.0052419E+03;  1.0000000E-01;  4.3428896E+03;3; -2.0786092E+00;  0.0000000E+00; -3.1681243E-02;0; -4.9605422E-02;  4.0414309E+04;  0.0000000E+00; -9.0080639E-03;  4.0000000E+04;  0.0000000E+00;  4.0015645E+04; -5.2620657E-02;  0.0000000E+00;  3.0152348E-03;  1.5084989E+03;
  1.2127230E-01;  9.9999998E-03;  7.9992473E-02;3216; -1.5082533E-02;  0.0000000E+00; -1.9104911E-04;  1.0053346E+03;  1.0000000E-01;  4.4196279E+03;3; -2.0676501E+00;  0.0000000E+00; -3.5801828E-02;0; -4.8786376E-02;  4.0419324E+04;  0.0000000E+00; -7.9088658E-03;  4.0000000E+04;  0.0000000E+00;  4.0018590E+04; -5.1995598E-02;  0.0000000E+00;  3.2092233E-03;  1.8328075E+03;
  1.2130545E-01;  9.9999998E-03;  8.9994065E-02;3217; -1.5322571E-02;  0.0000000E+00;  1.5776752E-05;  1.0054331E+03;  1.0000000E-01;  4.5012061E+03;3; -2.0638101E+00;  0.0000000E+00; -3.6294460E-02;0; -4.8359565E-02;  4.0425562E+04;  0.0000000E+00; -3.5574997E-03;  4.0000000E+04;  0.0000000E+00;  4.0019781E+04; -5.1361356E-02;  0.0000000E+00;  3.0017917E-03;  2.0522151E+03;
  1.2134410E-01;  9.9999998E-03;  9.9991605E-02;3218; -1.5594596E-02;  0.0000000E+00;  2.3579074E-04;  1.0055281E+03;  1.0000000E-01;  4.5799199E+03;3; -2.0716221E+00;  0.0000000E+00; -3.2319065E-02;0; -4.8371423E-02;  4.0433430E+04;  0.0000000E+00;  5.8151251E-03;  4.0000000E+04;  0.0000000E+00;  4.0020477E+04; -5.0775941E-02;  0.0000000E+00;  2.4045189E-03;  2.0866545E+03;
  1.2138621E-01;  9.9999998E-03;  1.0998292E-01;3219; -1.5873151E-02;  0.0000000E+00;  4.0769510E-04;  1.0056097E+03;  1.0000000E-01;  4.6475723E+03;3; -2.0907257E+00;  0.0000000E+00; -2.3157341E-02;0; -4.8811927E-02;  4.0441922E+04;  0.0000000E+00;  2.2525160E-02;  4.0000000E+04;  0.0000000E+00;  4.0019004E+04; -5.0309315E-02;  0.0000000E+00;  1.4973873E-03;  1.8692563E+03;
  1.2142942E-01;  9.9999998E-03;  1.1996780E-01;3220; -1.6139312E-02;  0.0000000E+00;  4.8771279E-04;  1.0056629E+03;  1.0000000E-01;  4.6916206E+03;3; -2.1221833E+00;  0.0000000E+00; -1.2659291E-02;0; -4.9621705E-02;  4.0450375E+04;  0.0000000E+00;  4.9768187E-02;  4.0000000E+04;  0.0000000E+00;  4.0015031E+04; -5.0039444E-02;  0.0000000E+00;  4.1773776E-04;  1.3719391E+03;
  1.2147137E-01;  9.9999998E-03;  1.2994805E-01;3221; -1.6378751E-02;  0.0000000E+00;  4.7767002E-04;  1.0056746E+03;  1.0000000E-01;  4.7012993E+03;3; -2.1533000E+00;  0.0000000E+00; -1.0310655E-02;0; -5.0706342E-02;  4.0457676E+04;  0.0000000E+00;  9.2108324E-02;  4.0000000E+04;  0.0000000E+00;  4.0008902E+04; -5.0045229E-02;  0.0000000E+00; -6.6111301E-04;  6.3610291E+02;
  1.2151054E-01;  9.9999998E-03;  1.3992745E-01;3222; -1.6582910E-02;  0.0000000E+00;  3.9467585E-04;  1.0056357E+03;  1.0000000E-01;  4.6691025E+03;3; -2.1841326E+00;  0.0000000E+00; -7.3070559E-03;0; -5.1951662E-02;  4.0461965E+04;  0.0000000E+00;  1.5588558E-01;  4.0000000E+04;  0.0000000E+00;  4.0001391E+04; -5.0397620E-02;  0.0000000E+00; -1.5540433E-03;  3.4788449E+02;
  1.2154940E-01;  9.9999998E-03;  1.4991251E-01;3223; -1.6743077E-02;  0.0000000E+00;  2.5944377E-04;  1.0055444E+03;  1.0000000E-01;  4.5934502E+03;3; -2.1986561E+00;  0.0000000E+00;  2.0181682E-04;0; -5.3237647E-02;  4.0461531E+04;  0.0000000E+00;  2.4880555E-01;  4.0000000E+04;  0.0000000E+00;  3.9994902E+04; -5.1148448E-02;  0.0000000E+00; -2.0891994E-03;  1.1864636E+03;
  1.2159138E-01;  9.9999998E-03;  1.5991110E-01;3224; -1.6849948E-02;  0.0000000E+00;  9.4141149E-05;  1.0053873E+03;  1.0000000E-01;  4.4632812E+03;3; -2.1818871E+00;  0.0000000E+00;  7.1561188E-02;0; -5.4465577E-02;  4.0454156E+04;  0.0000000E+00;  3.7814382E-01;  4.0000000E+04;  0.0000000E+00;  3.9989570E+04; -5.2323010E-02;  0.0000000E+00; -2.1425663E-03;  1.8560774E+03;
  1.2163638E-01;  9.9999998E-03;  1.6992903E-01;3225; -1.6897818E-02;  0.0000000E+00; -7.2289011E-05;  1.0051615E+03;  1.0000000E-01;  4.2762246E+03;3; -2.1247692E+00;  0.0000000E+00;  3.4174535E-01;0; -5.5576939E-02;  4.0438215E+04;  0.0000000E+00;  5.5001467E-01;  4.0000000E+04;  0.0000000E+00;  3.9987312E+04; -5.3914089E-02;  0.0000000E+00; -1.6628515E-03;  2.1613687E+03;
  1.2167507E-01;  9.9999998E-03;  1.7995232E-01;3226; -1.6873160E-02;  0.0000000E+00; -2.2012476E-04;  1.0048590E+03;  1.0000000E-01;  4.0255652E+03;3; -2.0289917E+00;  0.0000000E+00;  1.0192529E+00;0; -5.6553498E-02;  4.0411520E+04;  0.0000000E+00;  7.6729178E-01;  4.0000000E+04;  0.0000000E+00;  3.9989578E+04; -5.5874038E-02;  0.0000000E+00; -6.7945785E-04;  2.0264954E+03;
  1.2169810E-01;  9.9999998E-03;  1.8997583E-01;3227; -1.6758595E-02;  0.0000000E+00; -3.4026772E-04;  1.0044738E+03;  1.0000000E-01;  3.7064631E+03;3; -1.9093329E+00;  0.0000000E+00;  2.3957460E+00;0; -5.7416540E-02;  4.0373277E+04;  0.0000000E+00;  1.0339224E+00;  4.0000000E+04;  0.0000000E+00;  3.9996465E+04; -5.8117151E-02;  0.0000000E+00;  7.0061116E-04;  1.6779835E+03;
  1.2169481E-01;  9.9999998E-03;  1.9999750E-01;3228; -1.6541278E-02;  0.0000000E+00; -4.1313094E-04;  1.0039979E+03;  1.0000000E-01;  3.3122026E+03;3; -1.8079706E+00;  0.0000000E+00;  4.8793774E+00;0; -5.8217712E-02;  4.0323426E+04;  0.0000000E+00;  1.3699350E+00;  4.0000000E+04;  0.0000000E+00;  4.0007676E+04; -6.0522970E-02;  0.0000000E+00;  2.3052597E-03;  2.0441575E+03;
  1.2165997E-01;  9.9999998E-03;  2.1001297E-01;3229; -1.6212534E-02;  0.0000000E+00; -4.1792582E-04;  1.0034240E+03;  1.0000000E-01;  2.8366604E+03;3; -1.7841138E+00;  0.0000000E+00;  8.9420815E+00;0; -5.9019819E-02;  4.0262793E+04;  0.0000000E+00;  1.8263069E+00;  4.0000000E+04;  0.0000000E+00;  4.0021348E+04; -6.2937170E-02;  0.0000000E+00;  3.9173509E-03;  3.5350042E+03;
  1.2159826E-01;  9.9999998E-03;  2.2002034E-01;3230; -1.5764711E-02;  0.0000000E+00; -3.3179042E-04;  1.0027463E+03;  1.0000000E-01;  2.2752937E+03;3; -1.9093137E+00;  0.0000000E+00;  1.4938441E+01;0; -5.9872136E-02;  4.0193234E+04;  0.0000000E+00;  2.4864330E+00;  4.0000000E+04;  0.0000000E+00;  4.0036125E+04; -6.5176740E-02;  0.0000000E+00;  5.3046062E-03;  5.5461650E+03;
  1.2150602E-01;  9.9999998E-03;  2.3001692E-01;3231; -1.5185193E-02;  0.0000000E+00; -1.2807548E-04;  1.0019758E+03;  1.0000000E-01;  1.6368920E+03;3; -2.2834051E+00;  0.0000000E+00;  2.2851444E+01;0; -6.0787916E-02;  4.0117441E+04;  0.0000000E+00;  3.4439244E+00;  4.0000000E+04;  0.0000000E+00;  4.0048598E+04; -6.7041583E-02;  0.0000000E+00;  6.2536686E-03;  7.6975356E+03;
  1.3113841E-01;  9.9999998E-03;  6.9976024E-02;3276; -1.5104811E-02;  0.0000000E+00; -4.0603650E-04;  1.0039900E+03;  1.0000000E-01;  3.3055854E+03;3; -2.9049608E-01;  0.0000000E+00; -3.4328144E-02;0; -4.9119804E-02;  4.0309699E+04;  0.0000000E+00; -1.0758710E-02;  4.0000000E+04;  0.0000000E+00;  4.0015777E+04; -5.1742315E-02;  0.0000000E+00;  2.6225098E-03;  1.6189725E+03;
  1.3116899E-01;  9.9999998E-03;  7.9979479E-02;3277; -1.5275776E-02;  0.0000000E+00; -2.9204367E-04;  1.0041301E+03;  1.0000000E-01;  3.4217305E+03;3; -2.8834873E-01;  0.0000000E+00; -3.9816890E-02;0; -4.7997911E-02;  4.0318195E+04;  0.0000000E+00; -1.1001074E-02;  4.0000000E+04;  0.0000000E+00;  4.0018547E+04; -5.0831426E-02;  0.0000000E+00;  2.8335145E-03;  1.9558589E+03;
  1.3120802E-01;  9.9999998E-03;  8.9981630E-02;3278; -1.5482540E-02;  0.0000000E+00; -1.3148568E-04;  1.0042863E+03;  1.0000000E-01;  3.5511094E+03;3; -2.8736719E-01;  0.0000000E+00; -4.4697076E-02;0; -4.7224622E-02;  4.0329172E+04;  0.0000000E+00; -8.5183950E-03;  4.0000000E+04;  0.0000000E+00;  4.0020688E+04; -4.9876370E-02;  0.0000000E+00;  2.6517457E-03;  2.1843228E+03;
  1.3125241E-01;  9.9999998E-03;  9.9980421E-02;3279; -1.5720623E-02;  0.0000000E+00;  5.1240029E-05;  1.0044529E+03;  1.0000000E-01;  3.6890808E+03;3; -2.9279888E-01;  0.0000000E+00; -4.4210229E-02;0; -4.6856325E-02;  4.0342344E+04;  0.0000000E+00; -1.3754453E-03;  4.0000000E+04;  0.0000000E+00;  4.0020777E+04; -4.8943941E-02;  0.0000000E+00;  2.0876145E-03;  2.2226782E+03;
  1.3129911E-01;  9.9999998E-03;  1.0997291E-01;3280; -1.5969435E-02;  0.0000000E+00;  2.0138598E-04;  1.0046130E+03;  1.0000000E-01;  3.8218179E+03;3; -3.0522063E-01;  0.0000000E+00; -3.6928423E-02;0; -4.6896785E-02;  4.0357309E+04;  0.0000000E+00;  1.3062940E-02;  4.0000000E+04;  0.0000000E+00;  4.0018895E+04; -4.8115451E-02;  0.0000000E+00;  1.2186649E-03;  2.0025680E+03;
  1.3134627E-01;  9.9999998E-03;  1.1995881E-01;3281; -1.6213220E-02;  0.0000000E+00;  2.7729161E-04;  1.0047557E+03;  1.0000000E-01;  3.9400366E+03;3; -3.2327986E-01;  0.0000000E+00; -2.6453950E-02;0; -4.7302760E-02;  4.0373117E+04;  0.0000000E+00;  3.8307045E-02;  4.0000000E+04;  0.0000000E+00;  4.0014750E+04; -4.7482532E-02;  0.0000000E+00;  1.7976962E-04;  1.4950449E+03;
  1.3139166E-01;  9.9999998E-03;  1.2993981E-01;3282; -1.6440287E-02;  0.0000000E+00;  2.7062497E-04;  1.0048636E+03;  1.0000000E-01;  4.0294170E+03;3; -3.4204057E-01;  0.0000000E+00; -1.9243388E-02;0; -4.7996096E-02;  4.0388219E+04;  0.0000000E+00;  7.8956664E-02;  4.0000000E+04;  0.0000000E+00;  4.0008977E+04; -4.7139335E-02;  0.0000000E+00; -8.5676042E-04;  7.3921271E+02;
  1.3143414E-01;  9.9999998E-03;  1.3991933E-01;3283; -1.6644415E-02;  0.0000000E+00;  1.9515575E-04;  1.0049287E+03;  1.0000000E-01;  4.0833413E+03;3; -3.5888544E-01;  0.0000000E+00; -1.3656272E-02;0; -4.8878387E-02;  4.0401051E+04;  0.0000000E+00;  1.4076050E-01;  4.0000000E+04;  0.0000000E+00;  4.0001953E+04; -4.7173236E-02;  0.0000000E+00; -1.7051507E-03;  2.6919022E+02;
  1.3147664E-01;  9.9999998E-03;  1.4990382E-01;3284; -1.6817683E-02;  0.0000000E+00;  7.0332935E-05;  1.0049404E+03;  1.0000000E-01;  4.0930200E+03;3; -3.6961946E-01;  0.0000000E+00; -3.2703436E-03;0; -4.9846344E-02;  4.0409410E+04;  0.0000000E+00;  2.2996281E-01;  4.0000000E+04;  0.0000000E+00;  3.9994969E+04; -4.7653340E-02;  0.0000000E+00; -2.1930055E-03;  1.1125747E+03;
  1.3152041E-01;  9.9999998E-03;  1.5990163E-01;3285; -1.6953189E-02;  0.0000000E+00; -7.9178360E-05;  1.0048855E+03;  1.0000000E-01;  4.0475891E+03;3; -3.6855245E-01;  0.0000000E+00;  6.9972247E-02;0; -5.0822668E-02;  4.0410805E+04;  0.0000000E+00;  3.5209113E-01;  4.0000000E+04;  0.0000000E+00;  3.9989922E+04; -4.8624489E-02;  0.0000000E+00; -2.1981800E-03;  1.7912461E+03;
  1.3157180E-01;  9.9999998E-03;  1.6992350E-01;3286; -1.7043011E-02;  0.0000000E+00; -2.2840720E-04;  1.0047615E+03;  1.0000000E-01;  3.9447773E+03;3; -3.5604435E-01;  0.0000000E+00;  3.4720233E-01;0; -5.1767092E-02;  4.0402758E+04;  0.0000000E+00;  5.1123816E-01;  4.0000000E+04;  0.0000000E+00;  3.9987762E+04; -5.0097059E-02;  0.0000000E+00; -1.6700330E-03;  2.0858538E+03;
  1.3161795E-01;  9.9999998E-03;  1.7995337E-01;3287; -1.7069742E-02;  0.0000000E+00; -3.6624528E-04;  1.0045487E+03;  1.0000000E-01;  3.7684861E+03;3; -3.4141022E-01;  0.0000000E+00;  1.0344226E+00;0; -5.2683290E-02;  4.0383324E+04;  0.0000000E+00;  7.0938838E-01;  4.0000000E+04;  0.0000000E+00;  3.9990316E+04; -5.2045785E-02;  0.0000000E+00; -6.3750567E-04;  1.9076936E+03;
  1.3165040E-01;  9.9999998E-03;  1.8998055E-01;3288; -1.7017310E-02;  0.0000000E+00; -4.7610418E-04;  1.0042385E+03;  1.0000000E-01;  3.5115056E+03;3; -3.5197023E-01;  0.0000000E+00;  2.4355698E+00;0; -5.3614136E-02;  4.0351184E+04;  0.0000000E+00;  9.5728660E-01;  4.0000000E+04;  0.0000000E+00;  3.9997578E+04; -5.4405618E-02;  0.0000000E+00;  7.9148251E-04;  1.5135342E+03;
  1.3166004E-01;  9.9999998E-03;  2.0000130E-01;3289; -1.6872715E-02;  0.0000000E+00; -5.3995999E-04;  1.0038174E+03;  1.0000000E-01;  3.1626760E+03;3; -4.3007585E-01;  0.0000000E+00;  4.9783034E+00;0; -5.4633606E-02;  4.0305492E+04;  0.0000000E+00;  1.2961074E+00;  4.0000000E+04;  0.0000000E+00;  4.0009629E+04; -5.7077482E-02;  0.0000000E+00;  2.4438759E-03;  2.0334618E+03;
  1.3163815E-01;  9.9999998E-03;  2.1001114E-01;3290; -1.6624255E-02;  0.0000000E+00; -5.3478236E-04;  1.0032769E+03;  1.0000000E-01;  2.7148862E+03;3; -6.2390959E-01;  0.0000000E+00;  9.1661596E+00;0; -5.5826858E-02;  4.0246980E+04;  0.0000000E+00;  1.8165963E+00;  4.0000000E+04;  0.0000000E+00;  4.0024000E+04; -5.9929803E-02;  0.0000000E+00;  4.1029453E-03;  3.7714355E+03;
  1.3158491E-01;  9.9999998E-03;  2.2000964E-01;3291; -1.6263163E-02;  0.0000000E+00; -4.4847859E-04;  1.0026057E+03;  1.0000000E-01;  2.1587537E+03;3; -9.7495061E-01;  0.0000000E+00;  1.5383485E+01;0; -5.7262424E-02;  4.0177180E+04;  0.0000000E+00;  2.6586497E+00;  4.0000000E+04;  0.0000000E+00;  4.0039621E+04; -6.2800527E-02;  0.0000000E+00;  5.5381032E-03;  6.0692168E+03;
  1.3150074E-01;  9.9999998E-03;  2.2999547E-01;3292; -1.5779357E-02;  0.0000000E+00; -2.6199684E-04;  1.0018135E+03;  1.0000000E-01;  1.5024761E+03;3; -1.5288566E+00;  0.0000000E+00;  2.3609472E+01;0; -5.8961935E-02;  4.0099453E+04;  0.0000000E+00;  3.9825602E+00;  4.0000000E+04;  0.0000000E+00;  4.0053281E+04; -6.5500863E-02;  0.0000000E+00;  6.5389276E-03;  8.6585059E+03;
  1.4104088E-01;  9.9999998E-03;  6.9956772E-02;3337; -1.5473686E-02;  0.0000000E+00; -4.1682992E-04;  1.0026290E+03;  1.0000000E-01;  2.1781113E+03;3;  3.8315541E-01;  0.0000000E+00; -3.3413596E-02;0; -5.0192483E-02;  4.0197223E+04;  0.0000000E+00; -1.2367398E-02;  4.0000000E+04;  0.0000000E+00;  4.0014750E+04; -5.2461870E-02;  0.0000000E+00;  2.2693889E-03;  1.6301458E+03;
  1.4107545E-01;  9.9999998E-03;  7.9960980E-02;3338; -1.5620662E-02;  0.0000000E+00; -3.2318116E-04;  1.0028134E+03;  1.0000000E-01;  2.3308970E+03;3;  3.8231063E-01;  0.0000000E+00; -4.0383592E-02;0; -4.8809700E-02;  4.0209270E+04;  0.0000000E+00; -1.3787420E-02;  4.0000000E+04;  0.0000000E+00;  4.0017680E+04; -5.1296871E-02;  0.0000000E+00;  2.4871696E-03;  1.9815320E+03;
  1.4111747E-01;  9.9999998E-03;  8.9964673E-02;3339; -1.5797526E-02;  0.0000000E+00; -1.9053962E-04;  1.0030251E+03;  1.0000000E-01;  2.5062996E+03;3;  3.7933761E-01;  0.0000000E+00; -4.4633199E-02;0; -4.7722682E-02;  4.0224578E+04;  0.0000000E+00; -1.3472385E-02;  4.0000000E+04;  0.0000000E+00;  4.0019539E+04; -5.0048888E-02;  0.0000000E+00;  2.3262051E-03;  2.2229263E+03;
  1.4116488E-01;  9.9999998E-03;  9.9965148E-02;3340; -1.5992345E-02;  0.0000000E+00; -4.6786408E-05;  1.0032585E+03;  1.0000000E-01;  2.6995779E+03;3;  3.7529802E-01;  0.0000000E+00; -4.5592140E-02;0; -4.6992201E-02;  4.0243008E+04;  0.0000000E+00; -9.6528810E-03;  4.0000000E+04;  0.0000000E+00;  4.0020312E+04; -4.8788570E-02;  0.0000000E+00;  1.7963691E-03;  2.2709587E+03;
  1.4121430E-01;  9.9999998E-03;  1.0996003E-01;3341; -1.6197922E-02;  0.0000000E+00;  6.9492300E-05;  1.0034973E+03;  1.0000000E-01;  2.8973997E+03;3;  3.6766163E-01;  0.0000000E+00; -4.1864391E-02;0; -4.6634048E-02;  4.0264305E+04;  0.0000000E+00;  3.2185667E-04;  4.0000000E+04;  0.0000000E+00;  4.0018699E+04; -4.7605973E-02;  0.0000000E+00;  9.7192463E-04;  2.0563972E+03;
  1.4126283E-01;  9.9999998E-03;  1.1994785E-01;3342; -1.6402751E-02;  0.0000000E+00;  1.2337214E-04;  1.0037326E+03;  1.0000000E-01;  3.0923569E+03;3;  3.5578933E-01;  0.0000000E+00; -3.3115346E-02;0; -4.6620004E-02;  4.0287227E+04;  0.0000000E+00;  2.0067906E-02;  4.0000000E+04;  0.0000000E+00;  4.0014859E+04; -4.6603620E-02;  0.0000000E+00; -1.6382446E-05;  1.5493085E+03;
  1.4130926E-01;  9.9999998E-03;  1.2993024E-01;3343; -1.6602807E-02;  0.0000000E+00;  1.0922747E-04;  1.0039415E+03;  1.0000000E-01;  3.2653892E+03;3;  3.4522465E-01;  0.0000000E+00; -2.6247321E-02;0; -4.6888519E-02;  4.0310555E+04;  0.0000000E+00;  5.4120470E-02;  4.0000000E+04;  0.0000000E+00;  4.0008762E+04; -4.5888741E-02;  0.0000000E+00; -9.9977734E-04;  7.8518097E+02;
  1.4135300E-01;  9.9999998E-03;  1.3991088E-01;3344; -1.6791550E-02;  0.0000000E+00;  3.4218454E-05;  1.0041122E+03;  1.0000000E-01;  3.4068171E+03;3;  3.3418331E-01;  0.0000000E+00; -1.9800035E-02;0; -4.7357537E-02;  4.0332141E+04;  0.0000000E+00;  1.0765433E-01;  4.0000000E+04;  0.0000000E+00;  4.0001656E+04; -4.5562685E-02;  0.0000000E+00; -1.7948519E-03;  2.0734341E+02;
  1.4139614E-01;  9.9999998E-03;  1.4989567E-01;3345; -1.6963804E-02;  0.0000000E+00; -8.3122410E-05;  1.0042366E+03;  1.0000000E-01;  3.5099255E+03;3;  3.2491702E-01;  0.0000000E+00; -8.3895214E-03;0; -4.7944069E-02;  4.0349688E+04;  0.0000000E+00;  1.8572237E-01;  4.0000000E+04;  0.0000000E+00;  3.9994605E+04; -4.5711622E-02;  0.0000000E+00; -2.2324473E-03;  1.0714352E+03;
  1.4144251E-01;  9.9999998E-03;  1.5989414E-01;3346; -1.7114958E-02;  0.0000000E+00; -2.2003148E-04;  1.0042954E+03;  1.0000000E-01;  3.5587141E+03;3;  3.2173520E-01;  0.0000000E+00;  6.7196518E-02;0; -4.8593298E-02;  4.0360367E+04;  0.0000000E+00;  2.9244396E-01;  4.0000000E+04;  0.0000000E+00;  3.9989578E+04; -4.6399090E-02;  0.0000000E+00; -2.1942076E-03;  1.7605157E+03;
  1.4149739E-01;  9.9999998E-03;  1.6991928E-01;3347; -1.7234763E-02;  0.0000000E+00; -3.6129003E-04;  1.0042801E+03;  1.0000000E-01;  3.5459739E+03;3;  3.1531411E-01;  0.0000000E+00;  3.4429565E-01;0; -4.9288526E-02;  4.0361422E+04;  0.0000000E+00;  4.2946270E-01;  4.0000000E+04;  0.0000000E+00;  3.9987129E+04; -4.7658604E-02;  0.0000000E+00; -1.6299232E-03;  2.0474613E+03;
  1.4155452E-01;  9.9999998E-03;  1.7995791E-01;3348; -1.7306620E-02;  0.0000000E+00; -4.9310434E-04;  1.0041714E+03;  1.0000000E-01;  3.4560010E+03;3;  2.8568143E-01;  0.0000000E+00;  1.0279597E+00;0; -5.0056491E-02;  4.0350570E+04;  0.0000000E+00;  5.9792686E-01;  4.0000000E+04;  0.0000000E+00;  3.9989914E+04; -4.9488846E-02;  0.0000000E+00; -5.6764425E-04;  1.8229685E+03;
  1.4159735E-01;  9.9999998E-03;  1.8999007E-01;3349; -1.7313287E-02;  0.0000000E+00; -5.9861888E-04;  1.0039514E+03;  1.0000000E-01;  3.2736853E+03;3;  1.9494735E-01;  0.0000000E+00;  2.4271002E+00;0; -5.0968047E-02;  4.0325676E+04;  0.0000000E+00;  8.1469899E-01;  4.0000000E+04;  0.0000000E+00;  3.9997633E+04; -5.1852129E-02;  0.0000000E+00;  8.8408327E-04;  1.3181069E+03;
  1.4162102E-01;  9.9999998E-03;  2.0001082E-01;3350; -1.7239258E-02;  0.0000000E+00; -6.5685372E-04;  1.0036017E+03;  1.0000000E-01;  2.9840144E+03;3; -1.0169157E-03;  0.0000000E+00;  4.9825630E+00;0; -5.2123215E-02;  4.0285637E+04;  0.0000000E+00;  1.1385114E+00;  4.0000000E+04;  0.0000000E+00;  4.0010035E+04; -5.4676186E-02;  0.0000000E+00;  2.5529701E-03;  1.8781729E+03;
  1.4161977E-01;  9.9999998E-03;  2.1001531E-01;3351; -1.7070664E-02;  0.0000000E+00; -6.4589700E-04;  1.0031087E+03;  1.0000000E-01;  2.5755320E+03;3; -3.3403447E-01;  0.0000000E+00;  9.2225895E+00;0; -5.3632576E-02;  4.0230750E+04;  0.0000000E+00;  1.6936543E+00;  4.0000000E+04;  0.0000000E+00;  4.0025395E+04; -5.7858214E-02;  0.0000000E+00;  4.2256364E-03;  3.7854548E+03;
  1.4158291E-01;  9.9999998E-03;  2.2000572E-01;3352; -1.6800946E-02;  0.0000000E+00; -5.6374638E-04;  1.0024604E+03;  1.0000000E-01;  2.0383621E+03;3; -8.0535674E-01;  0.0000000E+00;  1.5571624E+01;0; -5.5593286E-02;  4.0162402E+04;  0.0000000E+00;  2.6748574E+00;  4.0000000E+04;  0.0000000E+00;  4.0041449E+04; -6.1269905E-02;  0.0000000E+00;  5.6766188E-03;  6.3094199E+03;
  1.4151023E-01;  9.9999998E-03;  2.2998148E-01;3353; -1.6415372E-02;  0.0000000E+00; -3.9236830E-04;  1.0016592E+03;  1.0000000E-01;  1.3745784E+03;3; -1.3920192E+00;  0.0000000E+00;  2.4059557E+01;0; -5.8047198E-02;  4.0083250E+04;  0.0000000E+00;  4.3191562E+00;  4.0000000E+04;  0.0000000E+00;  4.0056172E+04; -6.4749405E-02;  0.0000000E+00;  6.7022061E-03;  9.3096191E+03;
  1.5097292E-01;  9.9999998E-03;  6.9950663E-02;3398; -1.6012099E-02;  0.0000000E+00; -3.7943281E-04;  1.0012937E+03;  1.0000000E-01;  1.0717722E+03;3;  5.5907309E-01;  0.0000000E+00; -3.2221269E-02;0; -5.2301325E-02;  4.0088727E+04;  0.0000000E+00; -1.5429186E-02;  4.0000000E+04;  0.0000000E+00;  4.0013125E+04; -5.4292485E-02;  0.0000000E+00;  1.9911604E-03;  1.5374331E+03;
  1.5101427E-01;  9.9999998E-03;  7.9948932E-02;3399; -1.6134951E-02;  0.0000000E+00; -2.9453929E-04;  1.0015133E+03;  1.0000000E-01;  1.2537917E+03;3;  5.5574077E-01;  0.0000000E+00; -3.7324138E-02;0; -5.0716236E-02;  4.0103500E+04;  0.0000000E+00; -1.7616818E-02;  4.0000000E+04;  0.0000000E+00;  4.0016242E+04; -5.2920833E-02;  0.0000000E+00;  2.2045968E-03;  1.9034895E+03;
  1.5105930E-01;  9.9999998E-03;  8.9946844E-02;3400; -1.6274881E-02;  0.0000000E+00; -1.8465464E-04;  1.0017743E+03;  1.0000000E-01;  1.4699832E+03;3;  5.5023259E-01;  0.0000000E+00; -4.1019790E-02;0; -4.9365766E-02;  4.0122238E+04;  0.0000000E+00; -1.9337283E-02;  4.0000000E+04;  0.0000000E+00;  4.0018250E+04; -5.1423993E-02;  0.0000000E+00;  2.0582273E-03;  2.1597100E+03;
  1.5110764E-01;  9.9999998E-03;  9.9944413E-02;3401; -1.6424246E-02;  0.0000000E+00; -7.1087008E-05;  1.0020651E+03;  1.0000000E-01;  1.7109640E+03;3;  5.4559398E-01;  0.0000000E+00; -4.2821810E-02;0; -4.8312966E-02;  4.0145375E+04;  0.0000000E+00; -1.9448413E-02;  4.0000000E+04;  0.0000000E+00;  4.0019320E+04; -4.9874179E-02;  0.0000000E+00;  1.5612125E-03;  2.2225593E+03;
  1.5115523E-01;  9.9999998E-03;  1.0994028E-01;3402; -1.6577652E-02;  0.0000000E+00;  9.7925304E-06;  1.0023770E+03;  1.0000000E-01;  1.9693270E+03;3;  5.3665268E-01;  0.0000000E+00; -3.8158566E-02;0; -4.7581449E-02;  4.0172168E+04;  0.0000000E+00; -1.5741872E-02;  4.0000000E+04;  0.0000000E+00;  4.0017641E+04; -4.8365232E-02;  0.0000000E+00;  7.8378135E-04;  2.0223542E+03;
  1.5119950E-01;  9.9999998E-03;  1.1993109E-01;3403; -1.6732836E-02;  0.0000000E+00;  3.7810059E-05;  1.0026940E+03;  1.0000000E-01;  2.2319368E+03;3;  5.2624583E-01;  0.0000000E+00; -3.1279813E-02;0; -4.7156721E-02;  4.0201777E+04;  0.0000000E+00; -4.8940023E-03;  4.0000000E+04;  0.0000000E+00;  4.0013969E+04; -4.7007583E-02;  0.0000000E+00; -1.4913912E-04;  1.5277382E+03;
  1.5124115E-01;  9.9999998E-03;  1.2991633E-01;3404; -1.6887581E-02;  0.0000000E+00;  6.0740426E-06;  1.0030012E+03;  1.0000000E-01;  2.4864482E+03;3;  5.1554430E-01;  0.0000000E+00; -2.4081493E-02;0; -4.6992466E-02;  4.0232629E+04;  0.0000000E+00;  1.7352857E-02;  4.0000000E+04;  0.0000000E+00;  4.0008098E+04; -4.5918349E-02;  0.0000000E+00; -1.0741160E-03;  7.6903760E+02;
  1.5128033E-01;  9.9999998E-03;  1.3989978E-01;3405; -1.7042030E-02;  0.0000000E+00; -7.5865246E-05;  1.0032764E+03;  1.0000000E-01;  2.7144912E+03;3;  5.0855458E-01;  0.0000000E+00; -2.0576876E-02;0; -4.7024451E-02;  4.0262566E+04;  0.0000000E+00;  5.5725034E-02;  4.0000000E+04;  0.0000000E+00;  4.0001012E+04; -4.5211129E-02;  0.0000000E+00; -1.8133214E-03;  1.7146643E+02;
  1.5131989E-01;  9.9999998E-03;  1.4988679E-01;3406; -1.7199473E-02;  0.0000000E+00; -1.8913866E-04;  1.0035098E+03;  1.0000000E-01;  2.9078684E+03;3;  5.0491112E-01;  0.0000000E+00; -1.1775302E-02;0; -4.7192160E-02;  4.0289105E+04;  0.0000000E+00;  1.1472449E-01;  4.0000000E+04;  0.0000000E+00;  3.9994082E+04; -4.4988036E-02;  0.0000000E+00; -2.2041244E-03;  1.0745165E+03;
  1.5136577E-01;  9.9999998E-03;  1.5988728E-01;3407; -1.7353859E-02;  0.0000000E+00; -3.2019566E-04;  1.0036865E+03;  1.0000000E-01;  3.0542346E+03;3;  5.0007820E-01;  0.0000000E+00;  6.4153887E-02;0; -4.7463648E-02;  4.0309406E+04;  0.0000000E+00;  1.9771898E-01;  4.0000000E+04;  0.0000000E+00;  3.9988613E+04; -4.5331195E-02;  0.0000000E+00; -2.1324526E-03;  1.7776599E+03;
  1.5142334E-01;  9.9999998E-03;  1.6991659E-01;3408; -1.7493602E-02;  0.0000000E+00; -4.5810506E-04;  1.0037859E+03;  1.0000000E-01;  3.1365039E+03;3;  4.8277068E-01;  0.0000000E+00;  3.3617771E-01;0; -4.7846723E-02;  4.0320180E+04;  0.0000000E+00;  3.0462646E-01;  4.0000000E+04;  0.0000000E+00;  3.9986414E+04; -4.6297953E-02;  0.0000000E+00; -1.5487697E-03;  2.0702476E+03;
  1.5148379E-01;  9.9999998E-03;  1.7996447E-01;3409; -1.7602427E-02;  0.0000000E+00; -5.8794499E-04;  1.0037881E+03;  1.0000000E-01;  3.1383804E+03;3;  4.2274627E-01;  0.0000000E+00;  1.0050459E+00;0; -4.8396103E-02;  4.0318734E+04;  0.0000000E+00;  4.3607926E-01;  4.0000000E+04;  0.0000000E+00;  3.9989004E+04; -4.7915675E-02;  0.0000000E+00; -4.8042840E-04;  1.8178800E+03;
  1.5153801E-01;  9.9999998E-03;  1.9000414E-01;3410; -1.7662153E-02;  0.0000000E+00; -6.9221441E-04;  1.0036700E+03;  1.0000000E-01;  3.0406055E+03;3;  2.7156889E-01;  0.0000000E+00;  2.3768952E+00;0; -4.9210172E-02;  4.0302375E+04;  0.0000000E+00;  6.1172616E-01;  4.0000000E+04;  0.0000000E+00;  3.9996551E+04; -5.0174944E-02;  0.0000000E+00;  9.6477219E-04;  1.1455651E+03;
  1.5158179E-01;  9.9999998E-03;  2.0002608E-01;3411; -1.7654726E-02;  0.0000000E+00; -7.4846996E-04;  1.0034077E+03;  1.0000000E-01;  2.8231301E+03;3; -1.6880084E-02;  0.0000000E+00;  4.8955359E+00;0; -5.0419524E-02;  4.0269570E+04;  0.0000000E+00;  8.9881450E-01;  4.0000000E+04;  0.0000000E+00;  4.0008832E+04; -5.3036295E-02;  0.0000000E+00;  2.6167708E-03;  1.5296210E+03;
  1.5159127E-01;  9.9999998E-03;  2.1002692E-01;3412; -1.7563535E-02;  0.0000000E+00; -7.3788781E-04;  1.0029788E+03;  1.0000000E-01;  2.4678809E+03;3; -4.5633745E-01;  0.0000000E+00;  9.1025209E+00;0; -5.2168913E-02;  4.0219945E+04;  0.0000000E+00;  1.4420087E+00;  4.0000000E+04;  0.0000000E+00;  4.0024414E+04; -5.6436948E-02;  0.0000000E+00;  4.2680348E-03;  3.4973582E+03;
  1.5157741E-01;  9.9999998E-03;  2.2001398E-01;3413; -1.7381487E-02;  0.0000000E+00; -6.5529725E-04;  1.0023651E+03;  1.0000000E-01;  1.9593521E+03;3; -1.0048219E+00;  0.0000000E+00;  1.5461334E+01;0; -5.4585643E-02;  4.0154137E+04;  0.0000000E+00;  2.4746265E+00;  4.0000000E+04;  0.0000000E+00;  4.0041406E+04; -6.0288440E-02;  0.0000000E+00;  5.7027959E-03;  6.1312876E+03;
  1.5154226E-01;  9.9999998E-03;  2.2998224E-01;3414; -1.7098758E-02;  0.0000000E+00; -4.9711374E-04;  1.0015701E+03;  1.0000000E-01;  1.3008027E+03;3; -1.5536083E+00;  0.0000000E+00;  2.4092318E+01;0; -5.7748929E-02;  4.0074559E+04;  0.0000000E+00;  4.3059659E+00;  4.0000000E+04;  0.0000000E+00;  4.0057051E+04; -6.4473122E-02;  0.0000000E+00;  6.7241932E-03;  9.4092607E+03;
  1.6100180E-01;  9.9999998E-03;  6.9980159E-02;3459; -1.6711259E-02;  0.0000000E+00; -3.1512690E-04;  1.0001075E+03;  1.0000000E-01;  8.9083900E+01;3;  5.9209716E-01;  0.0000000E+00; -2.7840801E-02;0; -5.4847546E-02;  3.9994016E+04;  0.0000000E+00; -2.1474652E-02;  4.0000000E+04;  0.0000000E+00;  4.0010824E+04; -5.6663666E-02;  0.0000000E+00;  1.8161192E-03;  1.3500551E+03;
  1.6104555E-01;  9.9999998E-03;  7.9977095E-02;3460; -1.6805086E-02;  0.0000000E+00; -2.3543650E-04;  1.0003494E+03;  1.0000000E-01;  2.8947330E+02;3;  5.8753729E-01;  0.0000000E+00; -3.2804813E-02;0; -5.3128686E-02;  4.0010234E+04;  0.0000000E+00; -2.3675816E-02;  4.0000000E+04;  0.0000000E+00;  4.0014031E+04; -5.5143628E-02;  0.0000000E+00;  2.0149413E-03;  1.7317664E+03;
  1.6109125E-01;  9.9999998E-03;  8.9972310E-02;3461; -1.6901216E-02;  0.0000000E+00; -1.4487799E-04;  1.0006409E+03;  1.0000000E-01;  5.3094794E+02;3;  5.8040768E-01;  0.0000000E+00; -3.4842018E-02;0; -5.1580559E-02;  4.0031391E+04;  0.0000000E+00; -2.6627770E-02;  4.0000000E+04;  0.0000000E+00;  4.0016609E+04; -5.3456564E-02;  0.0000000E+00;  1.8760040E-03;  2.0063512E+03;
  1.6113541E-01;  9.9999998E-03;  9.9965066E-02;3462; -1.6995702E-02;  0.0000000E+00; -6.2394232E-05;  1.0009763E+03;  1.0000000E-01;  8.0886603E+02;3;  5.6997353E-01;  0.0000000E+00; -3.0789297E-02;0; -5.0264377E-02;  4.0057469E+04;  0.0000000E+00; -3.0349987E-02;  4.0000000E+04;  0.0000000E+00;  4.0017379E+04; -5.1672559E-02;  0.0000000E+00;  1.4081815E-03;  2.0890908E+03;
  1.6117448E-01;  9.9999998E-03;  1.0995448E-01;3463; -1.7085120E-02;  0.0000000E+00; -1.8453195E-05;  1.0013439E+03;  1.0000000E-01;  1.1133512E+03;3;  5.5877608E-01;  0.0000000E+00; -2.6285978E-02;0; -4.9208313E-02;  4.0088559E+04;  0.0000000E+00; -3.3757415E-02;  4.0000000E+04;  0.0000000E+00;  4.0016707E+04; -4.9885824E-02;  0.0000000E+00;  6.7750941E-04;  1.9099729E+03;
  1.6120623E-01;  9.9999998E-03;  1.1993915E-01;3464; -1.7177531E-02;  0.0000000E+00; -1.5900527E-05;  1.0017272E+03;  1.0000000E-01;  1.4309719E+03;3;  5.5254763E-01;  0.0000000E+00; -2.6348947E-02;0; -4.8407827E-02;  4.0123340E+04;  0.0000000E+00; -3.4452252E-02;  4.0000000E+04;  0.0000000E+00;  4.0012871E+04; -4.8209544E-02;  0.0000000E+00; -1.9828245E-04;  1.4372271E+03;
  1.6123182E-01;  9.9999998E-03;  1.2991947E-01;3465; -1.7280456E-02;  0.0000000E+00; -5.6098761E-05;  1.0021134E+03;  1.0000000E-01;  1.7509628E+03;3;  5.4716849E-01;  0.0000000E+00; -2.5630577E-02;0; -4.7831066E-02;  4.0160367E+04;  0.0000000E+00; -2.8873039E-02;  4.0000000E+04;  0.0000000E+00;  4.0006867E+04; -4.6767298E-02;  0.0000000E+00; -1.0637667E-03;  6.9764752E+02;
  1.6125387E-01;  9.9999998E-03;  1.3989983E-01;3466; -1.7398126E-02;  0.0000000E+00; -1.3536630E-04;  1.0024862E+03;  1.0000000E-01;  2.0597937E+03;3;  5.4275942E-01;  0.0000000E+00; -2.4106398E-02;0; -4.7431517E-02;  4.0197832E+04;  0.0000000E+00; -1.2714310E-02;  4.0000000E+04;  0.0000000E+00;  3.9999887E+04; -4.5681767E-02;  0.0000000E+00; -1.7497502E-03;  2.1384842E+02;
  1.6128045E-01;  9.9999998E-03;  1.4988594E-01;3467; -1.7531645E-02;  0.0000000E+00; -2.4479569E-04;  1.0028217E+03;  1.0000000E-01;  2.3377117E+03;3;  5.3896421E-01;  0.0000000E+00; -1.5176287E-02;0; -4.7171127E-02;  4.0232602E+04;  0.0000000E+00;  1.8635692E-02;  4.0000000E+04;  0.0000000E+00;  3.9992824E+04; -4.5068875E-02;  0.0000000E+00; -2.1022507E-03;  1.1290439E+03;
  1.6131723E-01;  9.9999998E-03;  1.5988733E-01;3468; -1.7677031E-02;  0.0000000E+00; -3.7293570E-04;  1.0031058E+03;  1.0000000E-01;  2.5730630E+03;3;  5.3245842E-01;  0.0000000E+00;  5.9801418E-02;0; -4.7040377E-02;  4.0261809E+04;  0.0000000E+00;  6.8880409E-02;  4.0000000E+04;  0.0000000E+00;  3.9987309E+04; -4.5028709E-02;  0.0000000E+00; -2.0116679E-03;  1.8483167E+03;
  1.6136588E-01;  9.9999998E-03;  1.6992030E-01;3469; -1.7824851E-02;  0.0000000E+00; -5.0921680E-04;  1.0033192E+03;  1.0000000E-01;  2.7498481E+03;3;  5.0550026E-01;  0.0000000E+00;  3.2287872E-01;0; -4.7071666E-02;  4.0282195E+04;  0.0000000E+00;  1.3825838E-01;  4.0000000E+04;  0.0000000E+00;  3.9985027E+04; -4.5641974E-02;  0.0000000E+00; -1.4296920E-03;  2.1666064E+03;
  1.6142265E-01;  9.9999998E-03;  1.7997529E-01;3470; -1.7960075E-02;  0.0000000E+00; -6.3886849E-04;  1.0034349E+03;  1.0000000E-01;  2.8457466E+03;3;  4.1648790E-01;  0.0000000E+00;  9.6652079E-01;0; -4.7347657E-02;  4.0290387E+04;  0.0000000E+00;  2.2771879E-01;  4.0000000E+04;  0.0000000E+00;  3.9987238E+04; -4.6964701E-02;  0.0000000E+00; -3.8295705E-04;  1.9313997E+03;
  1.6148756E-01;  9.9999998E-03;  1.9002122E-01;3471; -1.8064175E-02;  0.0000000E+00; -7.4386905E-04;  1.0034232E+03;  1.0000000E-01;  2.8360679E+03;3;  2.0723659E-01;  0.0000000E+00;  2.2859402E+00;0; -4.7996540E-02;  4.0283422E+04;  0.0000000E+00;  3.5538563E-01;  4.0000000E+04;  0.0000000E+00;  3.9994336E+04; -4.9019564E-02;  0.0000000E+00;  1.0230257E-03;  1.1351149E+03;
  1.6152024E-01;  9.9999998E-03;  2.0004246E-01;3472; -1.8115729E-02;  0.0000000E+00; -8.0314477E-04;  1.0032584E+03;  1.0000000E-01;  2.6994792E+03;3; -1.7130911E-01;  0.0000000E+00;  4.7138653E+00;0; -4.9184788E-02;  4.0259188E+04;  0.0000000E+00;  5.8553696E-01;  4.0000000E+04;  0.0000000E+00;  4.0005930E+04; -5.1806886E-02;  0.0000000E+00;  2.6220963E-03;  9.7525647E+02;
  1.6154040E-01;  9.9999998E-03;  2.1004687E-01;3473; -1.8097732E-02;  0.0000000E+00; -7.9551921E-04;  1.0029085E+03;  1.0000000E-01;  2.4096108E+03;3; -7.1959519E-01;  0.0000000E+00;  8.7868795E+00;0; -5.1088665E-02;  4.0216441E+04;  0.0000000E+00;  1.0603890E+00;  4.0000000E+04;  0.0000000E+00;  4.0021320E+04; -5.5305704E-02;  0.0000000E+00;  4.2170393E-03;  2.8642112E+03;
  1.6156159E-01;  9.9999998E-03;  2.2003683E-01;3474; -1.7999198E-02;  0.0000000E+00; -7.0904498E-04;  1.0023482E+03;  1.0000000E-01;  1.9454265E+03;3; -1.3564345E+00;  0.0000000E+00;  1.4995098E+01;0; -5.3873569E-02;  4.0155309E+04;  0.0000000E+00;  2.0240347E+00;  4.0000000E+04;  0.0000000E+00;  4.0038180E+04; -5.9476864E-02;  0.0000000E+00;  5.6032967E-03;  5.4410190E+03;
  1.6158137E-01;  9.9999998E-03;  2.3000595E-01;3475; -1.7812964E-02;  0.0000000E+00; -5.4578815E-04;  1.0015743E+03;  1.0000000E-01;  1.3042594E+03;3; -1.8923613E+00;  0.0000000E+00;  2.3544443E+01;0; -5.7665695E-02;  4.0077105E+04;  0.0000000E+00;  3.8282645E+00;  4.0000000E+04;  0.0000000E+00;  4.0054406E+04; -6.4262681E-02;  0.0000000E+00;  6.5969853E-03;  8.7392314E+03;
  1.7104384E-01;  9.9999998E-03;  7.0038512E-02;3520; -1.7528767E-02;  0.0000000E+00; -2.5408983E-04;  9.9918835E+02;  1.0000000E-01; -6.7242542E+02;3;  6.1415225E-01;  0.0000000E+00; -2.0727314E-02;0; -5.7156753E-02;  3.9921855E+04;  0.0000000E+00; -3.0508054E-02;  4.0000000E+04;  0.0000000E+00;  4.0007945E+04; -5.8922473E-02;  0.0000000E+00;  1.7657193E-03;  1.0738676E+03;
  1.7108637E-01;  9.9999998E-03;  8.0038682E-02;3521; -1.7582744E-02;  0.0000000E+00; -1.8953749E-04;  9.9942773E+02;  1.0000000E-01; -4.7411005E+02;3;  6.0666198E-01;  0.0000000E+00; -2.3131389E-02;0; -5.5390522E-02;  3.9937742E+04;  0.0000000E+00; -3.1691637E-02;  4.0000000E+04;  0.0000000E+00;  4.0011152E+04; -5.7333045E-02;  0.0000000E+00;  1.9425241E-03;  1.4694788E+03;
  1.7113379E-01;  9.9999998E-03;  9.0034187E-02;3522; -1.7627288E-02;  0.0000000E+00; -1.2277398E-04;  9.9972308E+02;  1.0000000E-01; -2.2942561E+02;3;  5.9899718E-01;  0.0000000E+00; -2.5857635E-02;0; -5.3731747E-02;  3.9959219E+04;  0.0000000E+00; -3.4353126E-02;  4.0000000E+04;  0.0000000E+00;  4.0013961E+04; -5.5537775E-02;  0.0000000E+00;  1.8060300E-03;  1.7641715E+03;
  1.7118280E-01;  9.9999998E-03;  1.0002532E-01;3523; -1.7663594E-02;  0.0000000E+00; -6.2811989E-05;  1.0000748E+03;  1.0000000E-01;  6.1924175E+01;3;  5.9119940E-01;  0.0000000E+00; -2.8645586E-02;0; -5.2237209E-02;  3.9986414E+04;  0.0000000E+00; -4.0127613E-02;  4.0000000E+04;  0.0000000E+00;  4.0015105E+04; -5.3601082E-02;  0.0000000E+00;  1.3638717E-03;  1.8726534E+03;
  1.7122877E-01;  9.9999998E-03;  1.1001205E-01;3524; -1.7696735E-02;  0.0000000E+00; -2.5937934E-05;  1.0004716E+03;  1.0000000E-01;  3.9070499E+02;3;  5.8375126E-01;  0.0000000E+00; -3.0183583E-02;0; -5.0936211E-02;  4.0019293E+04;  0.0000000E+00; -4.9762890E-02;  4.0000000E+04;  0.0000000E+00;  4.0014203E+04; -5.1613033E-02;  0.0000000E+00;  6.7682087E-04;  1.7247914E+03;
  1.7126533E-01;  9.9999998E-03;  1.1999370E-01;3525; -1.7734285E-02;  0.0000000E+00; -2.4807634E-05;  1.0008976E+03;  1.0000000E-01;  7.4358392E+02;3;  5.7699144E-01;  0.0000000E+00; -3.0657532E-02;0; -4.9828842E-02;  4.0057152E+04;  0.0000000E+00; -6.2662832E-02;  4.0000000E+04;  0.0000000E+00;  4.0010633E+04; -4.9684249E-02;  0.0000000E+00; -1.4459205E-04;  1.2879696E+03;
  1.7128733E-01;  9.9999998E-03;  1.2997134E-01;3526; -1.7784750E-02;  0.0000000E+00; -6.4393920E-05;  1.0013398E+03;  1.0000000E-01;  1.1099933E+03;3;  5.7115805E-01;  0.0000000E+00; -3.0079389E-02;0; -4.8892833E-02;  4.0098488E+04;  0.0000000E+00; -7.6732002E-02;  4.0000000E+04;  0.0000000E+00;  4.0005473E+04; -4.7938637E-02;  0.0000000E+00; -9.5419743E-04;  5.8874927E+02;
  1.7129967E-01;  9.9999998E-03;  1.3994871E-01;3527; -1.7856339E-02;  0.0000000E+00; -1.4151214E-04;  1.0017788E+03;  1.0000000E-01;  1.4737361E+03;3;  5.6642604E-01;  0.0000000E+00; -2.8654136E-02;0; -4.8099287E-02;  4.0141008E+04;  0.0000000E+00; -8.8447072E-02;  4.0000000E+04;  0.0000000E+00;  3.9998918E+04; -4.6505623E-02;  0.0000000E+00; -1.5936646E-03;  3.3091006E+02;
  1.7131150E-01;  9.9999998E-03;  1.4993010E-01;3528; -1.7954104E-02;  0.0000000E+00; -2.4760270E-04;  1.0022007E+03;  1.0000000E-01;  1.8232571E+03;3;  5.6249082E-01;  0.0000000E+00; -1.9427927E-02;0; -4.7431208E-02;  4.0182441E+04;  0.0000000E+00; -9.2784472E-02;  4.0000000E+04;  0.0000000E+00;  3.9991859E+04; -4.5511838E-02;  0.0000000E+00; -1.9193684E-03;  1.2246111E+03;
  1.7133091E-01;  9.9999998E-03;  1.5992431E-01;3529; -1.8077871E-02;  0.0000000E+00; -3.7337799E-04;  1.0025790E+03;  1.0000000E-01;  2.1367297E+03;3;  5.5381817E-01;  0.0000000E+00;  5.2931495E-02;0; -4.6900369E-02;  4.0219188E+04;  0.0000000E+00; -8.4287003E-02;  4.0000000E+04;  0.0000000E+00;  3.9986207E+04; -4.5073062E-02;  0.0000000E+00; -1.8273079E-03;  1.9629220E+03;
  1.7136206E-01;  9.9999998E-03;  1.6994315E-01;3530; -1.8220983E-02;  0.0000000E+00; -5.0815922E-04;  1.0028921E+03;  1.0000000E-01;  2.3960803E+03;3;  5.1655811E-01;  0.0000000E+00;  3.0253223E-01;0; -4.6562150E-02;  4.0248191E+04;  0.0000000E+00; -5.9480179E-02;  4.0000000E+04;  0.0000000E+00;  3.9983176E+04; -4.5289986E-02;  0.0000000E+00; -1.2721642E-03;  2.3316721E+03;
  1.7139411E-01;  9.9999998E-03;  1.7998919E-01;3531; -1.8369781E-02;  0.0000000E+00; -6.3748535E-04;  1.0031136E+03;  1.0000000E-01;  2.5795813E+03;3;  3.9885306E-01;  0.0000000E+00;  9.1047162E-01;0; -4.6525817E-02;  4.0265664E+04;  0.0000000E+00; -1.4984307E-02;  4.0000000E+04;  0.0000000E+00;  3.9984945E+04; -4.6246506E-02;  0.0000000E+00; -2.7931185E-04;  2.1726909E+03;
  1.7141166E-01;  9.9999998E-03;  1.9003150E-01;3532; -1.8504599E-02;  0.0000000E+00; -7.4358343E-04;  1.0032111E+03;  1.0000000E-01;  2.6602705E+03;3;  1.3091239E-01;  0.0000000E+00;  2.1540515E+00;0; -4.6952475E-02;  4.0268500E+04;  0.0000000E+00;  6.3041553E-02;  4.0000000E+04;  0.0000000E+00;  3.9990945E+04; -4.8003633E-02;  0.0000000E+00;  1.0511579E-03;  1.4163308E+03;
  1.7143081E-01;  9.9999998E-03;  2.0006016E-01;3533; -1.8605052E-02;  0.0000000E+00; -8.0449885E-04;  1.0031485E+03;  1.0000000E-01;  2.6085188E+03;3; -3.4416875E-01;  0.0000000E+00;  4.4405479E+00;0; -4.8036769E-02;  4.0253668E+04;  0.0000000E+00;  2.2241284E-01;  4.0000000E+04;  0.0000000E+00;  4.0001453E+04; -5.0599590E-02;  0.0000000E+00;  2.5628228E-03;  3.5553183E+02;
  1.7146643E-01;  9.9999998E-03;  2.1007323E-01;3534; -1.8650791E-02;  0.0000000E+00; -7.9685240E-04;  1.0028886E+03;  1.0000000E-01;  2.3931174E+03;3; -1.0232182E+00;  0.0000000E+00;  8.2770214E+00;0; -4.9990106E-02;  4.0219871E+04;  0.0000000E+00;  5.7913506E-01;  4.0000000E+04;  0.0000000E+00;  4.0015633E+04; -5.4057516E-02;  0.0000000E+00;  4.0674093E-03;  1.9119822E+03;
  1.7152281E-01;  9.9999998E-03;  2.2007322E-01;3535; -1.8631987E-02;  0.0000000E+00; -7.0791366E-04;  1.0024029E+03;  1.0000000E-01;  1.9907585E+03;3; -1.8030299E+00;  0.0000000E+00;  1.4144745E+01;0; -5.3021841E-02;  4.0165797E+04;  0.0000000E+00;  1.3506163E+00;  4.0000000E+04;  0.0000000E+00;  4.0031137E+04; -5.8395833E-02;  0.0000000E+00;  5.3739925E-03;  4.2356582E+03;
  1.7159487E-01;  9.9999998E-03;  2.3005480E-01;3536; -1.8535001E-02;  0.0000000E+00; -5.2858610E-04;  1.0016651E+03;  1.0000000E-01;  1.3795165E+03;3; -2.4483490E+00;  0.0000000E+00;  2.2259869E+01;0; -5.7304263E-02;  4.0091574E+04;  0.0000000E+00;  2.8760254E+00;  4.0000000E+04;  0.0000000E+00;  4.0046477E+04; -6.3625827E-02;  0.0000000E+00;  6.3215629E-03;  7.1981177E+03;
  1.8116653E-01;  9.9999998E-03;  7.0081182E-02;3581; -1.8427953E-02;  0.0000000E+00; -2.1282086E-04;  9.9860150E+02;  1.0000000E-01; -1.1586339E+03;3;  6.4131528E-01;  0.0000000E+00; -2.0052813E-02;0; -5.8557700E-02;  3.9877434E+04;  0.0000000E+00; -3.9182562E-02;  4.0000000E+04;  0.0000000E+00;  4.0004695E+04; -6.0405713E-02;  0.0000000E+00;  1.8480131E-03;  7.1509137E+02;
  1.8116479E-01;  9.9999998E-03;  8.0084540E-02;3582; -1.8443443E-02;  0.0000000E+00; -1.5055428E-04;  9.9880621E+02;  1.0000000E-01; -9.8900909E+02;3;  6.3375205E-01;  0.0000000E+00; -2.4480438E-02;0; -5.6850977E-02;  3.9890785E+04;  0.0000000E+00; -3.7941363E-02;  4.0000000E+04;  0.0000000E+00;  4.0007891E+04; -5.8849435E-02;  0.0000000E+00;  1.9984597E-03;  1.1155337E+03;
  1.8117836E-01;  9.9999998E-03;  9.0081453E-02;3583; -1.8441232E-02;  0.0000000E+00; -8.3658801E-05;  9.9908221E+02;  1.0000000E-01; -7.6037354E+02;3;  6.2549829E-01;  0.0000000E+00; -2.8605012E-02;0; -5.5189151E-02;  3.9910098E+04;  0.0000000E+00; -3.8061757E-02;  4.0000000E+04;  0.0000000E+00;  4.0010781E+04; -5.7051424E-02;  0.0000000E+00;  1.8622718E-03;  1.4264907E+03;
  1.8120602E-01;  9.9999998E-03;  1.0007271E-01;3584; -1.8424733E-02;  0.0000000E+00; -2.4297109E-05;  9.9941803E+02;  1.0000000E-01; -4.8215921E+02;3;  6.1701393E-01;  0.0000000E+00; -3.2609344E-02;0; -5.3622220E-02;  3.9935863E+04;  0.0000000E+00; -4.3011006E-02;  4.0000000E+04;  0.0000000E+00;  4.0011961E+04; -5.5066738E-02;  0.0000000E+00;  1.4445183E-03;  1.5624116E+03;
  1.8123935E-01;  9.9999998E-03;  1.1005898E-01;3585; -1.8400509E-02;  0.0000000E+00;  1.3257219E-05;  9.9981079E+02;  1.0000000E-01; -1.5673631E+02;3;  6.0883927E-01;  0.0000000E+00; -3.4938827E-02;0; -5.2177314E-02;  3.9968121E+04;  0.0000000E+00; -5.5888169E-02;  4.0000000E+04;  0.0000000E+00;  4.0011582E+04; -5.2977003E-02;  0.0000000E+00;  7.9968886E-04;  1.4534447E+03;
  1.8126951E-01;  9.9999998E-03;  1.2004071E-01;3586; -1.8378604E-02;  0.0000000E+00;  1.5951940E-05;  1.0002465E+03;  1.0000000E-01;  2.0414238E+02;3;  6.0141033E-01;  0.0000000E+00; -3.6062289E-02;0; -5.0857238E-02;  4.0006301E+04;  0.0000000E+00; -7.8739978E-02;  4.0000000E+04;  0.0000000E+00;  4.0008719E+04; -5.0886698E-02;  0.0000000E+00;  2.9459005E-05;  1.0664526E+03;
  1.8129230E-01;  9.9999998E-03;  1.3001865E-01;3587; -1.8370943E-02;  0.0000000E+00; -2.0710018E-05;  1.0007122E+03;  1.0000000E-01;  5.9000800E+02;3;  5.9504354E-01;  0.0000000E+00; -3.5871584E-02;0; -4.9647637E-02;  4.0048934E+04;  0.0000000E+00; -1.1196382E-01;  4.0000000E+04;  0.0000000E+00;  4.0003832E+04; -4.8916794E-02;  0.0000000E+00; -7.3084224E-04;  4.3537784E+02;
  1.8130830E-01;  9.9999998E-03;  1.3999461E-01;3588; -1.8389197E-02;  0.0000000E+00; -9.4024290E-05;  1.0011878E+03;  1.0000000E-01;  9.8407092E+02;3;  5.9003270E-01;  0.0000000E+00; -3.4638803E-02;0; -4.8531692E-02;  4.0094105E+04;  0.0000000E+00; -1.5361233E-01;  4.0000000E+04;  0.0000000E+00;  3.9997348E+04; -4.7196660E-02;  0.0000000E+00; -1.3350331E-03;  4.8768811E+02;
  1.8131772E-01;  9.9999998E-03;  1.4997257E-01;3589; -1.8441947E-02;  0.0000000E+00; -1.9583089E-04;  1.0016610E+03;  1.0000000E-01;  1.3761586E+03;3;  5.8579087E-01;  0.0000000E+00; -2.5977449E-02;0; -4.7507711E-02;  4.0139410E+04;  0.0000000E+00; -1.9857335E-01;  4.0000000E+04;  0.0000000E+00;  3.9990570E+04; -4.5857292E-02;  0.0000000E+00; -1.6504172E-03;  1.3555581E+03;
  1.8132377E-01;  9.9999998E-03;  1.5995961E-01;3590; -1.8532716E-02;  0.0000000E+00; -3.1734095E-04;  1.0021071E+03;  1.0000000E-01;  1.7457284E+03;3;  5.7521242E-01;  0.0000000E+00;  4.1564111E-02;0; -4.6605006E-02;  4.0181660E+04;  0.0000000E+00; -2.3837924E-01;  4.0000000E+04;  0.0000000E+00;  3.9984637E+04; -4.5025777E-02;  0.0000000E+00; -1.5792277E-03;  2.1098518E+03;
  1.8132944E-01;  9.9999998E-03;  1.6996466E-01;3591; -1.8658211E-02;  0.0000000E+00; -4.4830670E-04;  1.0025004E+03;  1.0000000E-01;  2.0715464E+03;3;  5.2859151E-01;  0.0000000E+00;  2.7302927E-01;0; -4.5899544E-02;  4.0217539E+04;  0.0000000E+00; -2.6317501E-01;  4.0000000E+04;  0.0000000E+00;  3.9981746E+04; -4.4820521E-02;  0.0000000E+00; -1.0790220E-03;  2.5448298E+03;
  1.8132575E-01;  9.9999998E-03;  1.7999154E-01;3592; -1.8806845E-02;  0.0000000E+00; -5.7548453E-04;  1.0028137E+03;  1.0000000E-01;  2.3310945E+03;3;  3.8553509E-01;  0.0000000E+00;  8.3541435E-01;0; -4.5524742E-02;  4.0243012E+04;  0.0000000E+00; -2.6440552E-01;  4.0000000E+04;  0.0000000E+00;  3.9982258E+04; -4.5351245E-02;  0.0000000E+00; -1.7349795E-04;  2.5034919E+03;
  1.8130949E-01;  9.9999998E-03;  1.9003503E-01;3593; -1.8960787E-02;  0.0000000E+00; -6.8274944E-04;  1.0030089E+03;  1.0000000E-01;  2.4928677E+03;3;  6.3007556E-02;  0.0000000E+00;  1.9848803E+00;0; -4.5668837E-02;  4.0255129E+04;  0.0000000E+00; -2.3379104E-01;  4.0000000E+04;  0.0000000E+00;  3.9986805E+04; -4.6716448E-02;  0.0000000E+00;  1.0476126E-03;  1.9129127E+03;
  1.8131746E-01;  9.9999998E-03;  2.0007586E-01;3594; -1.9099483E-02;  0.0000000E+00; -7.4658496E-04;  1.0030464E+03;  1.0000000E-01;  2.5238792E+03;3; -5.0971985E-01;  0.0000000E+00;  4.0884271E+00;0; -4.6555459E-02;  4.0250535E+04;  0.0000000E+00; -1.4784312E-01;  4.0000000E+04;  0.0000000E+00;  3.9995781E+04; -4.8993092E-02;  0.0000000E+00;  2.4376342E-03;  7.9951617E+02;
  1.8136369E-01;  9.9999998E-03;  2.1010239E-01;3595; -1.9201383E-02;  0.0000000E+00; -7.3960924E-04;  1.0028889E+03;  1.0000000E-01;  2.3934138E+03;3; -1.3428867E+00;  0.0000000E+00;  7.6032724E+00;0; -4.8429485E-02;  4.0226934E+04;  0.0000000E+00;  6.4917736E-02;  4.0000000E+04;  0.0000000E+00;  4.0007723E+04; -5.2249141E-02;  0.0000000E+00;  3.8196573E-03;  7.5223755E+02;
  1.8144602E-01;  9.9999998E-03;  2.2011811E-01;3596; -1.9247871E-02;  0.0000000E+00; -6.4132962E-04;  1.0024921E+03;  1.0000000E-01;  2.0646331E+03;3; -2.3451383E+00;  0.0000000E+00;  1.2945340E+01;0; -5.1537372E-02;  4.0182586E+04;  0.0000000E+00;  5.5804467E-01;  4.0000000E+04;  0.0000000E+00;  4.0021398E+04; -5.6560367E-02;  0.0000000E+00;  5.0229952E-03;  2.6325168E+03;
  1.8155640E-01;  9.9999998E-03;  2.3012087E-01;3597; -1.9224867E-02;  0.0000000E+00; -4.4478942E-04;  1.0018185E+03;  1.0000000E-01;  1.5066240E+03;3; -3.3003128E+00;  0.0000000E+00;  2.0245884E+01;0; -5.6099303E-02;  4.0116055E+04;  0.0000000E+00;  1.5947117E+00;  4.0000000E+04;  0.0000000E+00;  4.0034410E+04; -6.2012181E-02;  0.0000000E+00;  5.9128781E-03;  4.8935967E+03;
  1.9134152E-01;  9.9999998E-03;  7.0095234E-02;3642; -1.9380759E-02;  0.0000000E+00; -1.6296117E-04;  9.9839215E+02;  1.0000000E-01; -1.3320610E+03;3;  6.7012030E-01;  0.0000000E+00; -1.8996635E-02;0; -5.8322147E-02;  3.9864109E+04;  0.0000000E+00; -4.1266754E-02;  4.0000000E+04;  0.0000000E+00;  4.0001184E+04; -6.0383588E-02;  0.0000000E+00;  2.0614399E-03;  3.0149582E+02;
  1.9131199E-01;  9.9999998E-03;  8.0100350E-02;3643; -1.9363228E-02;  0.0000000E+00; -9.3849601E-05;  9.9853625E+02;  1.0000000E-01; -1.2127064E+03;3;  6.6182715E-01;  0.0000000E+00; -2.4937494E-02;0; -5.6815807E-02;  3.9872391E+04;  0.0000000E+00; -3.6365472E-02;  4.0000000E+04;  0.0000000E+00;  4.0004473E+04; -5.8999915E-02;  0.0000000E+00;  2.1841081E-03;  6.9026196E+02;
  1.9128412E-01;  9.9999998E-03;  9.0099856E-02;3644; -1.9316608E-02;  0.0000000E+00; -1.8112847E-05;  9.9875031E+02;  1.0000000E-01; -1.0353287E+03;3;  6.5265226E-01;  0.0000000E+00; -3.1402834E-02;0; -5.5293266E-02;  3.9886793E+04;  0.0000000E+00; -3.1564042E-02;  4.0000000E+04;  0.0000000E+00;  4.0007023E+04; -5.7341788E-02;  0.0000000E+00;  2.0485213E-03;  1.0097658E+03;
  1.9126482E-01;  9.9999998E-03;  1.0009392E-01;3645; -1.9246526E-02;  0.0000000E+00;  5.0593997E-05;  9.9903302E+02;  1.0000000E-01; -8.0111316E+02;3;  6.4326501E-01;  0.0000000E+00; -3.7273224E-02;0; -5.3793591E-02;  3.9908207E+04;  0.0000000E+00; -3.1838786E-02;  4.0000000E+04;  0.0000000E+00;  4.0008621E+04; -5.5449314E-02;  0.0000000E+00;  1.6557240E-03;  1.1721545E+03;
  1.9125792E-01;  9.9999998E-03;  1.1008276E-01;3646; -1.9163202E-02;  0.0000000E+00;  9.3720046E-05;  9.9938184E+02;  1.0000000E-01; -5.1213367E+02;3;  6.3412040E-01;  0.0000000E+00; -4.1197140E-02;0; -5.2339125E-02;  3.9936605E+04;  0.0000000E+00; -4.2855516E-02;  4.0000000E+04;  0.0000000E+00;  4.0008367E+04; -5.3391814E-02;  0.0000000E+00;  1.0526874E-03;  1.1063824E+03;
  1.9126159E-01;  9.9999998E-03;  1.2006706E-01;3647; -1.9079102E-02;  0.0000000E+00;  1.0212910E-04;  9.9979016E+02;  1.0000000E-01; -1.7387163E+02;3;  6.2584692E-01;  0.0000000E+00; -4.2822924E-02;0; -5.0932478E-02;  3.9971840E+04;  0.0000000E+00; -6.9980092E-02;  4.0000000E+04;  0.0000000E+00;  4.0005992E+04; -5.1263083E-02;  0.0000000E+00;  3.3060537E-04;  7.7789801E+02;
  1.9126818E-01;  9.9999998E-03;  1.3004744E-01;3648; -1.9009084E-02;  0.0000000E+00;  7.1038725E-05;  1.0002405E+03;  1.0000000E-01;  1.9920424E+02;3;  6.1880308E-01;  0.0000000E+00; -4.3415345E-02;0; -4.9563240E-02;  4.0012602E+04;  0.0000000E+00; -1.1704599E-01;  4.0000000E+04;  0.0000000E+00;  4.0001816E+04; -4.9175326E-02;  0.0000000E+00; -3.8791285E-04;  2.4621625E+02;
  1.9127181E-01;  9.9999998E-03;  1.4002532E-01;3649; -1.8967913E-02;  0.0000000E+00;  3.5508017E-06;  1.0007178E+03;  1.0000000E-01;  5.9474860E+02;3;  6.1322027E-01;  0.0000000E+00; -4.2551715E-02;0; -4.8222266E-02;  4.0057285E+04;  0.0000000E+00; -1.8481089E-01;  4.0000000E+04;  0.0000000E+00;  3.9995691E+04; -4.7252133E-02;  0.0000000E+00; -9.7013381E-04;  6.5284302E+02;
  1.9126958E-01;  9.9999998E-03;  1.5000345E-01;3650; -1.8967923E-02;  0.0000000E+00; -9.2197137E-05;  1.0012087E+03;  1.0000000E-01;  1.0014532E+03;3;  6.0878545E-01;  0.0000000E+00; -3.4841824E-02;0; -4.6918634E-02;  4.0103699E+04;  0.0000000E+00; -2.6912099E-01;  4.0000000E+04;  0.0000000E+00;  3.9989230E+04; -4.5624569E-02;  0.0000000E+00; -1.2940641E-03;  1.4956670E+03;
  1.9126216E-01;  9.9999998E-03;  1.5998681E-01;3651; -1.9016553E-02;  0.0000000E+00; -2.0721869E-04;  1.0016888E+03;  1.0000000E-01;  1.3991703E+03;3;  5.9669697E-01;  0.0000000E+00;  2.5566854E-02;0; -4.5694117E-02;  4.0148703E+04;  0.0000000E+00; -3.5828537E-01;  4.0000000E+04;  0.0000000E+00;  3.9983754E+04; -4.4426031E-02;  0.0000000E+00; -1.2680867E-03;  2.2591577E+03;
  1.9124843E-01;  9.9999998E-03;  1.6998149E-01;3652; -1.9113997E-02;  0.0000000E+00; -3.3214409E-04;  1.0021326E+03;  1.0000000E-01;  1.7667649E+03;3;  5.4384363E-01;  0.0000000E+00;  2.3481937E-01;0; -4.4641223E-02;  4.0188828E+04;  0.0000000E+00; -4.3415734E-01;  4.0000000E+04;  0.0000000E+00;  3.9979777E+04; -4.3789547E-02;  0.0000000E+00; -8.5167686E-04;  2.7607930E+03;
  1.9122681E-01;  9.9999998E-03;  1.7999458E-01;3653; -1.9251764E-02;  0.0000000E+00; -4.5545044E-04;  1.0025155E+03;  1.0000000E-01;  2.0840891E+03;3;  3.8212711E-01;  0.0000000E+00;  7.4527234E-01;0; -4.3910947E-02;  4.0220848E+04;  0.0000000E+00; -4.8052296E-01;  4.0000000E+04;  0.0000000E+00;  3.9979562E+04; -4.3846272E-02;  0.0000000E+00; -6.4676278E-05;  2.8509148E+03;
  1.9119866E-01;  9.9999998E-03;  1.9003277E-01;3654; -1.9413428E-02;  0.0000000E+00; -5.6193536E-04;  1.0027942E+03;  1.0000000E-01;  2.3148975E+03;3;  1.5784554E-02;  0.0000000E+00;  1.7894828E+00;0; -4.3713305E-02;  4.0241145E+04;  0.0000000E+00; -4.9229714E-01;  4.0000000E+04;  0.0000000E+00;  3.9982957E+04; -4.4726472E-02;  0.0000000E+00;  1.0131657E-03;  2.4610906E+03;
  1.9119364E-01;  9.9999998E-03;  2.0008308E-01;3655; -1.9577688E-02;  0.0000000E+00; -6.2854995E-04;  1.0029301E+03;  1.0000000E-01;  2.4275857E+03;3; -6.4671570E-01;  0.0000000E+00;  3.6911244E+00;0; -4.4300061E-02;  4.0246473E+04;  0.0000000E+00; -4.7079065E-01;  4.0000000E+04;  0.0000000E+00;  3.9989570E+04; -4.6549007E-02;  0.0000000E+00;  2.2489461E-03;  1.6442087E+03;
  1.9124225E-01;  9.9999998E-03;  2.1012159E-01;3656; -1.9720770E-02;  0.0000000E+00; -6.2574708E-04;  1.0028807E+03;  1.0000000E-01;  2.3865991E+03;3; -1.6452330E+00;  0.0000000E+00;  6.8421235E+00;0; -4.5943409E-02;  4.0234445E+04;  0.0000000E+00; -3.9531559E-01;  4.0000000E+04;  0.0000000E+00;  3.9999391E+04; -4.9422782E-02;  0.0000000E+00;  3.4793715E-03;  5.6876288E+02;
  1.9133341E-01;  9.9999998E-03;  2.2015618E-01;3657; -1.9820333E-02;  0.0000000E+00; -5.3110241E-04;  1.0025901E+03;  1.0000000E-01;  2.1459146E+03;3; -2.9376905E+00;  0.0000000E+00;  1.1551702E+01;0; -4.8929930E-02;  4.0202078E+04;  0.0000000E+00; -1.9620427E-01;  4.0000000E+04;  0.0000000E+00;  4.0009543E+04; -5.3483903E-02;  0.0000000E+00;  4.5539746E-03;  9.4668634E+02;
  1.9145910E-01;  9.9999998E-03;  2.3018207E-01;3658; -1.9853767E-02;  0.0000000E+00; -3.3700667E-04;  1.0020034E+03;  1.0000000E-01;  1.6598049E+03;3; -4.3989725E+00;  0.0000000E+00;  1.7779718E+01;0; -5.3521052E-02;  4.0147223E+04;  0.0000000E+00;  2.7135450E-01;  4.0000000E+04;  0.0000000E+00;  4.0017887E+04; -5.8883727E-02;  0.0000000E+00;  5.3626732E-03;  2.2293394E+03;
  2.0152734E-01;  9.9999998E-03;  7.0076115E-02;3703; -2.0336675E-02;  0.0000000E+00; -1.0935401E-04;  9.9857141E+02;  1.0000000E-01; -1.1835714E+03;3;  6.9954860E-01;  0.0000000E+00; -1.8525392E-02;0; -5.5762406E-02;  3.9881871E+04;  0.0000000E+00; -3.1580161E-02;  4.0000000E+04;  0.0000000E+00;  3.9997902E+04; -5.8153044E-02;  0.0000000E+00;  2.3906382E-03;  1.4883521E+02;
  2.0147943E-01;  9.9999998E-03;  8.0088809E-02;3704; -2.0296069E-02;  0.0000000E+00; -3.5254317E-05;  9.9862671E+02;  1.0000000E-01; -1.1377456E+03;3;  6.9124830E-01;  0.0000000E+00; -2.3686988E-02;0; -5.4598112E-02;  3.9883395E+04;  0.0000000E+00; -2.2114184E-02;  4.0000000E+04;  0.0000000E+00;  4.0000977E+04; -5.7085529E-02;  0.0000000E+00;  2.4874171E-03;  2.3134747E+02;
  2.0142575E-01;  9.9999998E-03;  9.0094849E-02;3705; -2.0211913E-02;  0.0000000E+00;  5.6518504E-05;  9.9874908E+02;  1.0000000E-01; -1.0363657E+03;3;  6.8198323E-01;  0.0000000E+00; -3.0485917E-02;0; -5.3369321E-02;  3.9890672E+04;  0.0000000E+00; -1.0590488E-02;  4.0000000E+04;  0.0000000E+00;  4.0003457E+04; -5.5725317E-02;  0.0000000E+00;  2.3559984E-03;  5.4897723E+02;
  2.0137163E-01;  9.9999998E-03;  1.0009462E-01;3706; -2.0090841E-02;  0.0000000E+00;  1.4964705E-04;  9.9894568E+02;  1.0000000E-01; -8.7350616E+02;3;  6.7042261E-01;  0.0000000E+00; -4.0692367E-02;0; -5.2098885E-02;  3.9904812E+04;  0.0000000E+00; -2.5506718E-03;  4.0000000E+04;  0.0000000E+00;  4.0005109E+04; -5.4090820E-02;  0.0000000E+00;  1.9919341E-03;  7.3316620E+02;
  2.0132340E-01;  9.9999998E-03;  1.1008846E-01;3707; -1.9949760E-02;  0.0000000E+00;  2.0877410E-04;  9.9921136E+02;  1.0000000E-01; -6.5336426E+02;3;  6.5974450E-01;  0.0000000E+00; -4.8209500E-02;0; -5.0796036E-02;  3.9926148E+04;  0.0000000E+00; -5.5927723E-03;  4.0000000E+04;  0.0000000E+00;  4.0005301E+04; -5.2228890E-02;  0.0000000E+00;  1.4328533E-03;  7.1079224E+02;
  2.0128414E-01;  9.9999998E-03;  1.2007768E-01;3708; -1.9803323E-02;  0.0000000E+00;  2.2738409E-04;  9.9954547E+02;  1.0000000E-01; -3.7658194E+02;3;  6.5014482E-01;  0.0000000E+00; -5.2135918E-02;0; -4.9456012E-02;  3.9954926E+04;  0.0000000E+00; -2.8375946E-02;  4.0000000E+04;  0.0000000E+00;  4.0003305E+04; -5.0213344E-02;  0.0000000E+00;  7.5733440E-04;  4.4292099E+02;
  2.0125461E-01;  9.9999998E-03;  1.3006239E-01;3709; -1.9669199E-02;  0.0000000E+00;  2.0501549E-04;  9.9993573E+02;  1.0000000E-01; -5.3233063E+01;3;  6.4205551E-01;  0.0000000E+00; -5.3517558E-02;0; -4.8066806E-02;  3.9990473E+04;  0.0000000E+00; -7.8905456E-02;  4.0000000E+04;  0.0000000E+00;  3.9999488E+04; -4.8140448E-02;  0.0000000E+00;  7.3641488E-05;  1.3283167E+02;
  2.0123348E-01;  9.9999998E-03;  1.4004387E-01;3710; -1.9565661E-02;  0.0000000E+00;  1.4528105E-04;  1.0003755E+03;  1.0000000E-01;  3.1110233E+02;3;  6.3584661E-01;  0.0000000E+00; -5.3243652E-02;0; -4.6622530E-02;  4.0031137E+04;  0.0000000E+00; -1.6198614E-01;  4.0000000E+04;  0.0000000E+00;  3.9993953E+04; -4.6123069E-02;  0.0000000E+00; -4.9946015E-04;  8.0915765E+02;
  2.0121388E-01;  9.9999998E-03;  1.5002403E-01;3711; -1.9508423E-02;  0.0000000E+00;  5.6650028E-05;  1.0008442E+03;  1.0000000E-01;  6.9933826E+02;3;  6.3105768E-01;  0.0000000E+00; -4.6918616E-02;0; -4.5138761E-02;  4.0075129E+04;  0.0000000E+00; -2.7613595E-01;  4.0000000E+04;  0.0000000E+00;  3.9988008E+04; -4.4287827E-02;  0.0000000E+00; -8.5093593E-04;  1.6125188E+03;
  2.0119004E-01;  9.9999998E-03;  1.6000654E-01;3712; -1.9508360E-02;  0.0000000E+00; -5.0657389E-05;  1.0013183E+03;  1.0000000E-01;  1.0922161E+03;3;  6.1863226E-01;  0.0000000E+00;  5.0511337E-03;0; -4.3666083E-02;  4.0119688E+04;  0.0000000E+00; -4.0783826E-01;  4.0000000E+04;  0.0000000E+00;  3.9982684E+04; -4.2770948E-02;  0.0000000E+00; -8.9513388E-04;  2.3696450E+03;
  2.0115872E-01;  9.9999998E-03;  1.6999640E-01;3713; -1.9569119E-02;  0.0000000E+00; -1.6787605E-04;  1.0017831E+03;  1.0000000E-01;  1.4772915E+03;3;  5.6328005E-01;  0.0000000E+00;  1.8917838E-01;0; -4.2307451E-02;  4.0161602E+04;  0.0000000E+00; -5.3095496E-01;  4.0000000E+04;  0.0000000E+00;  3.9978730E+04; -4.1715965E-02;  0.0000000E+00; -5.9148628E-04;  2.9239895E+03;
  2.0112304E-01;  9.9999998E-03;  1.7999968E-01;3714; -1.9685624E-02;  0.0000000E+00; -2.8486014E-04;  1.0022057E+03;  1.0000000E-01;  1.8274052E+03;3;  3.9257023E-01;  0.0000000E+00;  6.4479196E-01;0; -4.1225195E-02;  4.0197402E+04;  0.0000000E+00; -6.1990672E-01;  4.0000000E+04;  0.0000000E+00;  3.9977582E+04; -4.1271407E-02;  0.0000000E+00;  4.6210705E-05;  3.1352671E+03;
  2.0108625E-01;  9.9999998E-03;  1.9002646E-01;3715; -1.9843325E-02;  0.0000000E+00; -3.8905154E-04;  1.0025518E+03;  1.0000000E-01;  2.1141130E+03;3; -6.6919229E-04;  0.0000000E+00;  1.5801238E+00;0; -4.0643018E-02;  4.0224254E+04;  0.0000000E+00; -6.6810352E-01;  4.0000000E+04;  0.0000000E+00;  3.9979867E+04; -4.1592408E-02;  0.0000000E+00;  9.4939047E-04;  2.9325486E+03;
  2.0106456E-01;  9.9999998E-03;  2.0007782E-01;3716; -2.0020964E-02;  0.0000000E+00; -4.6087467E-04;  1.0027752E+03;  1.0000000E-01;  2.2991943E+03;3; -7.3147857E-01;  0.0000000E+00;  3.2817266E+00;0; -4.0837120E-02;  4.0239020E+04;  0.0000000E+00; -6.9449043E-01;  4.0000000E+04;  0.0000000E+00;  3.9984277E+04; -4.2838402E-02;  0.0000000E+00;  2.0012818E-03;  2.3853823E+03;
  2.0110583E-01;  9.9999998E-03;  2.1011972E-01;3717; -2.0192895E-02;  0.0000000E+00; -4.6889257E-04;  1.0028361E+03;  1.0000000E-01;  2.3496619E+03;3; -1.8795174E+00;  0.0000000E+00;  6.0824161E+00;0; -4.2099457E-02;  4.0238320E+04;  0.0000000E+00; -7.2160530E-01;  4.0000000E+04;  0.0000000E+00;  3.9991484E+04; -4.5153681E-02;  0.0000000E+00;  3.0542244E-03;  1.6161715E+03;
  2.0119601E-01;  9.9999998E-03;  2.2016366E-01;3718; -2.0329999E-02;  0.0000000E+00; -3.9117693E-04;  1.0026712E+03;  1.0000000E-01;  2.2130732E+03;3; -3.4754233E+00;  0.0000000E+00;  1.0212613E+01;0; -4.4752583E-02;  4.0219574E+04;  0.0000000E+00; -7.5839710E-01;  4.0000000E+04;  0.0000000E+00;  3.9998008E+04; -4.8728172E-02;  0.0000000E+00;  3.9755893E-03;  9.6308258E+02;
  2.0132165E-01;  9.9999998E-03;  2.3020242E-01;3719; -2.0400926E-02;  0.0000000E+00; -2.3807344E-04;  1.0022109E+03;  1.0000000E-01;  1.8317506E+03;3; -5.5064468E+00;  0.0000000E+00;  1.5513653E+01;0; -4.9118709E-02;  4.0179520E+04;  0.0000000E+00; -7.7578843E-01;  4.0000000E+04;  0.0000000E+00;  4.0002594E+04; -5.3770982E-02;  0.0000000E+00;  4.6522724E-03;  6.7523480E+02;
  2.1172738E-01;  9.9999998E-03;  7.0011638E-02;3764; -2.1248426E-02;  0.0000000E+00; -4.3978260E-05;  9.9908875E+02;  1.0000000E-01; -7.5494159E+02;3;  7.2807688E-01;  0.0000000E+00; -1.8037496E-02;0; -5.0287895E-02;  3.9927082E+04;  0.0000000E+00; -9.0589989E-03;  4.0000000E+04;  0.0000000E+00;  3.9994766E+04; -5.3095609E-02;  0.0000000E+00;  2.8077131E-03;  5.6899945E+02;
  2.1171820E-01;  9.9999998E-03;  8.0022201E-02;3765; -2.1201791E-02;  0.0000000E+00;  2.8641391E-05;  9.9905591E+02;  1.0000000E-01; -7.8215070E+02;3;  7.2022480E-01;  0.0000000E+00; -2.3124309E-02;0; -4.9564622E-02;  3.9921719E+04;  0.0000000E+00;  5.0155213E-03;  4.0000000E+04;  0.0000000E+00;  3.9997363E+04; -5.2449577E-02;  0.0000000E+00;  2.8849540E-03;  2.3850873E+02;
  2.1167499E-01;  9.9999998E-03;  9.0031326E-02;3766; -2.1096820E-02;  0.0000000E+00;  1.2731514E-04;  9.9907513E+02;  1.0000000E-01; -7.6624994E+02;3;  7.1079302E-01;  0.0000000E+00; -3.1328853E-02;0; -4.8760626E-02;  3.9920707E+04;  0.0000000E+00;  2.3669597E-02;  4.0000000E+04;  0.0000000E+00;  3.9999938E+04; -5.1526636E-02;  0.0000000E+00;  2.7660087E-03;  7.5981285E+01;
  2.1159454E-01;  9.9999998E-03;  1.0004175E-01;3767; -2.0937314E-02;  0.0000000E+00;  2.3572240E-04;  9.9915613E+02;  1.0000000E-01; -6.9914075E+02;3;  7.0117068E-01;  0.0000000E+00; -3.8648810E-02;0; -4.7878455E-02;  3.9925621E+04;  0.0000000E+00;  4.2214036E-02;  4.0000000E+04;  0.0000000E+00;  4.0001418E+04; -5.0317608E-02;  0.0000000E+00;  2.4391529E-03;  2.7698535E+02;
  2.1148361E-01;  9.9999998E-03;  1.1005544E-01;3768; -2.0736542E-02;  0.0000000E+00;  3.2984954E-04;  9.9930804E+02;  1.0000000E-01; -5.7326776E+02;3;  6.8908840E-01;  0.0000000E+00; -4.8624855E-02;0; -4.6905350E-02;  3.9937305E+04;  0.0000000E+00;  5.2537102E-02;  4.0000000E+04;  0.0000000E+00;  4.0002125E+04; -4.8834216E-02;  0.0000000E+00;  1.9288663E-03;  3.0487747E+02;
  2.1137278E-01;  9.9999998E-03;  1.2006532E-01;3769; -2.0521726E-02;  0.0000000E+00;  3.8105980E-04;  9.9952948E+02;  1.0000000E-01; -3.8981613E+02;3;  6.7464983E-01;  0.0000000E+00; -6.0779613E-02;0; -4.5809153E-02;  3.9956547E+04;  0.0000000E+00;  4.3613475E-02;  4.0000000E+04;  0.0000000E+00;  4.0000398E+04; -4.7108635E-02;  0.0000000E+00;  1.2994816E-03;  1.1484286E+02;
  2.1128675E-01;  9.9999998E-03;  1.3006440E-01;3770; -2.0323336E-02;  0.0000000E+00;  3.7257644E-04;  9.9981909E+02;  1.0000000E-01; -1.4987230E+02;3;  6.6449171E-01;  0.0000000E+00; -6.5088108E-02;0; -4.4562124E-02;  3.9983316E+04;  0.0000000E+00;  3.4064851E-03;  4.0000000E+04;  0.0000000E+00;  3.9997000E+04; -4.5207094E-02;  0.0000000E+00;  6.4497034E-04;  3.3412830E+02;
  2.1122015E-01;  9.9999998E-03;  1.4005582E-01;3771; -2.0156763E-02;  0.0000000E+00;  3.2247228E-04;  1.0001705E+03;  1.0000000E-01;  1.4123058E+02;3;  6.5711862E-01;  0.0000000E+00; -6.6083945E-02;0; -4.3160960E-02;  4.0016484E+04;  0.0000000E+00; -7.7989228E-02;  4.0000000E+04;  0.0000000E+00;  3.9992496E+04; -4.3229837E-02;  0.0000000E+00;  6.8876827E-05;  9.5618494E+02;
  2.1116680E-01;  9.9999998E-03;  1.5004130E-01;3772; -2.0040298E-02;  0.0000000E+00;  2.4212660E-04;  1.0005739E+03;  1.0000000E-01;  4.7544333E+02;3;  6.5195930E-01;  0.0000000E+00; -6.1951734E-02;0; -4.1623827E-02;  4.0054473E+04;  0.0000000E+00; -2.0384206E-01;  4.0000000E+04;  0.0000000E+00;  3.9987043E+04; -4.1295171E-02;  0.0000000E+00; -3.2865800E-04;  1.6881431E+03;
  2.1112061E-01;  9.9999998E-03;  1.6002476E-01;3773; -1.9987945E-02;  0.0000000E+00;  1.4285644E-04;  1.0010077E+03;  1.0000000E-01;  8.3484058E+02;3;  6.3996148E-01;  0.0000000E+00; -1.9671483E-02;0; -4.0003378E-02;  4.0095062E+04;  0.0000000E+00; -3.6205059E-01;  4.0000000E+04;  0.0000000E+00;  3.9981727E+04; -3.9536539E-02;  0.0000000E+00; -4.6683926E-04;  2.4116101E+03;
  2.1107507E-01;  9.9999998E-03;  1.7001092E-01;3774; -2.0006357E-02;  0.0000000E+00;  3.3826720E-05;  1.0014539E+03;  1.0000000E-01;  1.2045092E+03;3;  5.8649695E-01;  0.0000000E+00;  1.3837934E-01;0; -3.8406804E-02;  4.0135375E+04;  0.0000000E+00; -5.2158695E-01;  4.0000000E+04;  0.0000000E+00;  3.9977820E+04; -3.8103506E-02;  0.0000000E+00; -3.0329870E-04;  2.9916543E+03;
  2.1102796E-01;  9.9999998E-03;  1.8000633E-01;3775; -2.0093085E-02;  0.0000000E+00; -7.6311539E-05;  1.0018821E+03;  1.0000000E-01;  1.5593633E+03;3;  4.1716626E-01;  0.0000000E+00;  5.3848857E-01;0; -3.7002396E-02;  4.0172641E+04;  0.0000000E+00; -6.4787668E-01;  4.0000000E+04;  0.0000000E+00;  3.9975895E+04; -3.7158903E-02;  0.0000000E+00;  1.5650611E-04;  3.2979033E+03;
  2.1098551E-01;  9.9999998E-03;  1.9001815E-01;3776; -2.0236243E-02;  0.0000000E+00; -1.7817756E-04;  1.0022698E+03;  1.0000000E-01;  1.8805394E+03;3;  1.7928559E-02;  0.0000000E+00;  1.3696225E+00;0; -3.6019579E-02;  4.0203805E+04;  0.0000000E+00; -7.2823352E-01;  4.0000000E+04;  0.0000000E+00;  3.9976812E+04; -3.6876906E-02;  0.0000000E+00;  8.5732900E-04;  3.2493196E+03;
  2.1095225E-01;  9.9999998E-03;  2.0005624E-01;3777; -2.0414555E-02;  0.0000000E+00; -2.5727926E-04;  1.0025717E+03;  1.0000000E-01;  2.1306064E+03;3; -7.4794137E-01;  0.0000000E+00;  2.8895073E+00;0; -3.5752852E-02;  4.0226043E+04;  0.0000000E+00; -7.8739500E-01;  4.0000000E+04;  0.0000000E+00;  3.9980098E+04; -3.7452050E-02;  0.0000000E+00;  1.6991975E-03;  2.9004451E+03;
  2.1097365E-01;  9.9999998E-03;  2.1009551E-01;3778; -2.0600807E-02;  0.0000000E+00; -2.9018536E-04;  1.0027352E+03;  1.0000000E-01;  2.2661086E+03;3; -2.0007954E+00;  0.0000000E+00;  5.3902321E+00;0; -3.6518220E-02;  4.0236059E+04;  0.0000000E+00; -8.7450743E-01;  4.0000000E+04;  0.0000000E+00;  3.9985383E+04; -3.9067034E-02;  0.0000000E+00;  2.5488124E-03;  2.3788872E+03;
  2.1105267E-01;  9.9999998E-03;  2.2013399E-01;3779; -2.0762233E-02;  0.0000000E+00; -2.5401771E-04;  1.0027122E+03;  1.0000000E-01;  2.2469487E+03;3; -3.8337641E+00;  0.0000000E+00;  9.0964375E+00;0; -3.8664643E-02;  4.0230926E+04;  0.0000000E+00; -1.0488478E+00;  4.0000000E+04;  0.0000000E+00;  3.9990004E+04; -4.1943345E-02;  0.0000000E+00;  3.2787018E-03;  1.9377570E+03;
  2.1117237E-01;  9.9999998E-03;  2.3017099E-01;3780; -2.0859431E-02;  0.0000000E+00; -1.5429387E-04;  1.0024274E+03;  1.0000000E-01;  2.0110049E+03;3; -6.3353076E+00;  0.0000000E+00;  1.3874121E+01;0; -4.2559303E-02;  4.0206840E+04;  0.0000000E+00; -1.3705823E+00;  4.0000000E+04;  0.0000000E+00;  3.9992328E+04; -4.6336666E-02;  0.0000000E+00;  3.7773619E-03;  1.8837024E+03;
  2.2174434E-01;  9.9999998E-03;  6.9983192E-02;3825; -2.2066738E-02;  0.0000000E+00;  3.1574404E-05;  9.9984253E+02;  1.0000000E-01; -1.3046544E+02;3;  7.5537753E-01;  0.0000000E+00; -1.7763387E-02;0; -4.1649520E-02;  3.9990715E+04;  0.0000000E+00;  2.2592941E-02;  4.0000000E+04;  0.0000000E+00;  3.9992320E+04; -4.4914655E-02;  0.0000000E+00;  3.2651362E-03;  9.4619965E+02;
  2.2177924E-01;  9.9999998E-03;  7.9987511E-02;3826; -2.2022376E-02;  0.0000000E+00;  1.0615757E-04;  9.9973157E+02;  1.0000000E-01; -2.2241347E+02;3;  7.4791545E-01;  0.0000000E+00; -2.4534889E-02;0; -4.1424196E-02;  3.9979652E+04;  0.0000000E+00;  3.9950889E-02;  4.0000000E+04;  0.0000000E+00;  3.9994625E+04; -4.4752404E-02;  0.0000000E+00;  3.3282090E-03;  6.6343451E+02;
  2.2178945E-01;  9.9999998E-03;  8.9987829E-02;3827; -2.1911971E-02;  0.0000000E+00;  2.0442756E-04;  9.9965717E+02;  1.0000000E-01; -2.8404135E+02;3;  7.3926032E-01;  0.0000000E+00; -3.1377826E-02;0; -4.1100457E-02;  3.9971504E+04;  0.0000000E+00;  6.4058334E-02;  4.0000000E+04;  0.0000000E+00;  3.9996695E+04; -4.4330981E-02;  0.0000000E+00;  3.2305217E-03;  3.8719138E+02;
  2.2176710E-01;  9.9999998E-03;  9.9987440E-02;3828; -2.1735176E-02;  0.0000000E+00;  3.1556518E-04;  9.9963092E+02;  1.0000000E-01; -3.0576913E+02;3;  7.2901583E-01;  0.0000000E+00; -3.9557587E-02;0; -4.0665597E-02;  3.9967539E+04;  0.0000000E+00;  9.2525996E-02;  4.0000000E+04;  0.0000000E+00;  3.9998289E+04; -4.3619614E-02;  0.0000000E+00;  2.9540190E-03;  2.1421916E+02;
  2.2170262E-01;  9.9999998E-03;  1.0999023E-01;3829; -2.1500027E-02;  0.0000000E+00;  4.2931613E-04;  9.9965436E+02;  1.0000000E-01; -2.8636227E+02;3;  7.1808898E-01;  0.0000000E+00; -4.8903324E-02;0; -4.0100075E-02;  3.9968719E+04;  0.0000000E+00;  1.1880691E-01;  4.0000000E+04;  0.0000000E+00;  3.9998848E+04; -4.2609207E-02;  0.0000000E+00;  2.5091330E-03;  2.0151122E+02;
  2.2159064E-01;  9.9999998E-03;  1.2000081E-01;3830; -2.1230388E-02;  0.0000000E+00;  5.1505695E-04;  9.9974146E+02;  1.0000000E-01; -2.1421617E+02;3;  7.0540279E-01;  0.0000000E+00; -5.9542436E-02;0; -3.9373465E-02;  3.9976715E+04;  0.0000000E+00;  1.3148992E-01;  4.0000000E+04;  0.0000000E+00;  3.9997824E+04; -4.1311536E-02;  0.0000000E+00;  1.9380717E-03;  3.0683835E+02;
  2.2143443E-01;  9.9999998E-03;  1.3002253E-01;3831; -2.0956868E-02;  0.0000000E+00;  5.5230095E-04;  9.9989880E+02;  1.0000000E-01; -8.3849480E+01;3;  6.9159496E-01;  0.0000000E+00; -7.0808060E-02;0; -3.8450152E-02;  3.9991801E+04;  0.0000000E+00;  1.1539977E-01;  4.0000000E+04;  0.0000000E+00;  3.9995410E+04; -3.9761394E-02;  0.0000000E+00;  1.3112440E-03;  6.0532001E+02;
  2.2128232E-01;  9.9999998E-03;  1.4004341E-01;3832; -2.0721594E-02;  0.0000000E+00;  5.2444451E-04;  1.0001247E+03;  1.0000000E-01;  1.0330572E+02;3;  6.7824507E-01;  0.0000000E+00; -8.0923587E-02;0; -3.7278734E-02;  4.0014129E+04;  0.0000000E+00;  5.5402238E-02;  4.0000000E+04;  0.0000000E+00;  3.9991188E+04; -3.7999138E-02;  0.0000000E+00;  7.2040263E-04;  1.1041000E+03;
  2.2116949E-01;  9.9999998E-03;  1.5004700E-01;3833; -2.0545423E-02;  0.0000000E+00;  4.5373710E-04;  1.0004188E+03;  1.0000000E-01;  3.4695316E+02;3;  6.7189997E-01;  0.0000000E+00; -7.9253428E-02;0; -3.5847500E-02;  4.0042812E+04;  0.0000000E+00; -5.8018863E-02;  4.0000000E+04;  0.0000000E+00;  3.9986535E+04; -3.6106959E-02;  0.0000000E+00;  2.5945969E-04;  1.7296016E+03;
  2.2108409E-01;  9.9999998E-03;  1.6003765E-01;3834; -2.0439561E-02;  0.0000000E+00;  3.6114809E-04;  1.0007704E+03;  1.0000000E-01;  6.3820416E+02;3;  6.6142184E-01;  0.0000000E+00; -4.7177460E-02;0; -3.4211595E-02;  4.0076156E+04;  0.0000000E+00; -2.1850754E-01;  4.0000000E+04;  0.0000000E+00;  3.9981707E+04; -3.4216829E-02;  0.0000000E+00;  5.2332034E-06;  2.3834976E+03;
  2.2101443E-01;  9.9999998E-03;  1.7002386E-01;3835; -2.0412166E-02;  0.0000000E+00;  2.5861835E-04;  1.0011560E+03;  1.0000000E-01;  9.5770129E+02;3;  6.1372089E-01;  0.0000000E+00;  8.0849513E-02;0; -3.2477982E-02;  4.0111824E+04;  0.0000000E+00; -3.9583278E-01;  4.0000000E+04;  0.0000000E+00;  3.9977512E+04; -3.2481860E-02;  0.0000000E+00;  3.8790422E-06;  2.9525037E+03;
  2.2095348E-01;  9.9999998E-03;  1.8001330E-01;3836; -2.0463288E-02;  0.0000000E+00;  1.5329849E-04;  1.0015613E+03;  1.0000000E-01;  1.2934943E+03;3;  4.5727864E-01;  0.0000000E+00;  4.1767821E-01;0; -3.0814527E-02;  4.0147441E+04;  0.0000000E+00; -5.4985583E-01;  4.0000000E+04;  0.0000000E+00;  3.9975305E+04; -3.1075105E-02;  0.0000000E+00;  2.6057826E-04;  3.3180972E+03;
  2.2090194E-01;  9.9999998E-03;  1.9001301E-01;3837; -2.0582894E-02;  0.0000000E+00;  5.1915267E-05;  1.0019543E+03;  1.0000000E-01;  1.6191147E+03;3;  7.5708523E-02;  0.0000000E+00;  1.1297013E+00;0; -2.9454295E-02;  4.0180031E+04;  0.0000000E+00; -6.5944153E-01;  4.0000000E+04;  0.0000000E+00;  3.9975293E+04; -3.0189946E-02;  0.0000000E+00;  7.3565153E-04;  3.3899631E+03;
  2.2086529E-01;  9.9999998E-03;  2.0003118E-01;3838; -2.0751005E-02;  0.0000000E+00; -3.5218865E-05;  1.0023051E+03;  1.0000000E-01;  1.9096744E+03;3; -6.8160051E-01;  0.0000000E+00;  2.4459000E+00;0; -2.8697124E-02;  4.0207195E+04;  0.0000000E+00; -7.4451953E-01;  4.0000000E+04;  0.0000000E+00;  3.9977461E+04; -3.0043408E-02;  0.0000000E+00;  1.3462846E-03;  3.1770417E+03;
  2.2086407E-01;  9.9999998E-03;  2.1006115E-01;3839; -2.0938553E-02;  0.0000000E+00; -9.3089926E-05;  1.0025632E+03;  1.0000000E-01;  2.1235942E+03;3; -1.9712961E+00;  0.0000000E+00;  4.6300535E+00;0; -2.8890593E-02;  4.0225863E+04;  0.0000000E+00; -8.6125749E-01;  4.0000000E+04;  0.0000000E+00;  3.9981105E+04; -3.0865017E-02;  0.0000000E+00;  1.9744243E-03;  2.8078914E+03;
  2.2092336E-01;  9.9999998E-03;  2.2008841E-01;3840; -2.1108905E-02;  0.0000000E+00; -9.6504606E-05;  1.0026819E+03;  1.0000000E-01;  2.2219619E+03;3; -3.9350116E+00;  0.0000000E+00;  7.9097319E+00;0; -3.0392723E-02;  4.0233156E+04;  0.0000000E+00; -1.0877701E+00;  4.0000000E+04;  0.0000000E+00;  3.9985289E+04; -3.2890994E-02;  0.0000000E+00;  2.4982712E-03;  2.4479888E+03;
  2.2103408E-01;  9.9999998E-03;  2.3011640E-01;3841; -2.1220068E-02;  0.0000000E+00; -3.3978449E-05;  1.0025909E+03;  1.0000000E-01;  2.1465071E+03;3; -6.7234278E+00;  0.0000000E+00;  1.2262136E+01;0; -3.3573836E-02;  4.0224676E+04;  0.0000000E+00; -1.5408770E+00;  4.0000000E+04;  0.0000000E+00;  3.9988207E+04; -3.6400557E-02;  0.0000000E+00;  2.8267195E-03;  2.4655254E+03;
  2.3166238E-01;  9.9999998E-03;  6.9983803E-02;3886; -2.2778509E-02;  0.0000000E+00;  1.2817694E-04;  1.0007129E+03;  1.0000000E-01;  5.9060052E+02;3;  7.7999389E-01;  0.0000000E+00; -1.5685773E-02;0; -2.9693492E-02;  4.0063605E+04;  0.0000000E+00;  5.7975028E-02;  4.0000000E+04;  0.0000000E+00;  3.9990281E+04; -3.3412121E-02;  0.0000000E+00;  3.7186290E-03;  1.2884946E+03;
  2.3172276E-01;  9.9999998E-03;  7.9985790E-02;3887; -2.2742307E-02;  0.0000000E+00;  2.0145986E-04;  1.0005504E+03;  1.0000000E-01;  4.5598706E+02;3;  7.7326638E-01;  0.0000000E+00; -2.3827750E-02;0; -3.0013964E-02;  4.0048637E+04;  0.0000000E+00;  7.6109909E-02;  4.0000000E+04;  0.0000000E+00;  3.9992062E+04; -3.3787187E-02;  0.0000000E+00;  3.7732227E-03;  1.0499440E+03;
  2.3176596E-01;  9.9999998E-03;  8.9981556E-02;3888; -2.2632729E-02;  0.0000000E+00;  2.9148167E-04;  1.0004055E+03;  1.0000000E-01;  3.3589172E+02;3;  7.6532990E-01;  0.0000000E+00; -3.1507328E-02;0; -3.0223781E-02;  4.0034797E+04;  0.0000000E+00;  1.0187130E-01;  4.0000000E+04;  0.0000000E+00;  3.9994059E+04; -3.3927284E-02;  0.0000000E+00;  3.7035036E-03;  7.9248169E+02;
  2.3178780E-01;  9.9999998E-03;  9.9973656E-02;3889; -2.2447474E-02;  0.0000000E+00;  3.9896334E-04;  1.0002867E+03;  1.0000000E-01;  2.3752412E+02;3;  7.5533873E-01;  0.0000000E+00; -4.1037619E-02;0; -3.0289654E-02;  4.0023500E+04;  0.0000000E+00;  1.3610657E-01;  4.0000000E+04;  0.0000000E+00;  3.9995520E+04; -3.3774775E-02;  0.0000000E+00;  3.4851201E-03;  5.9600787E+02;
  2.3177806E-01;  9.9999998E-03;  1.0996608E-01;3890; -2.2192465E-02;  0.0000000E+00;  5.1626394E-04;  1.0001993E+03;  1.0000000E-01;  1.6513112E+02;3;  7.4518245E-01;  0.0000000E+00; -5.1013619E-02;0; -3.0181041E-02;  4.0015766E+04;  0.0000000E+00;  1.7566477E-01;  4.0000000E+04;  0.0000000E+00;  3.9996441E+04; -3.3295847E-02;  0.0000000E+00;  3.1148063E-03;  5.2965924E+02;
  2.3172462E-01;  9.9999998E-03;  1.1996312E-01;3891; -2.1888537E-02;  0.0000000E+00;  6.2208762E-04;  1.0001546E+03;  1.0000000E-01;  1.2809514E+02;3;  7.3384029E-01;  0.0000000E+00; -6.1063848E-02;0; -2.9865105E-02;  4.0012566E+04;  0.0000000E+00;  2.1161747E-01;  4.0000000E+04;  0.0000000E+00;  3.9995602E+04; -3.2479580E-02;  0.0000000E+00;  2.6144751E-03;  6.1647906E+02;
  2.3161730E-01;  9.9999998E-03;  1.2996870E-01;3892; -2.1564899E-02;  0.0000000E+00;  6.9445645E-04;  1.0001645E+03;  1.0000000E-01;  1.3629243E+02;3;  7.2143489E-01;  0.0000000E+00; -7.2296105E-02;0; -2.9308708E-02;  4.0015402E+04;  0.0000000E+00;  2.2889653E-01;  4.0000000E+04;  0.0000000E+00;  3.9993566E+04; -3.1339303E-02;  0.0000000E+00;  2.0305947E-03;  8.5813116E+02;
  2.3145330E-01;  9.9999998E-03;  1.3999078E-01;3893; -2.1259012E-02;  0.0000000E+00;  7.1585266E-04;  1.0002432E+03;  1.0000000E-01;  2.0147577E+02;3;  7.0792174E-01;  0.0000000E+00; -8.4455788E-02;0; -2.8481500E-02;  4.0024867E+04;  0.0000000E+00;  2.0832895E-01;  4.0000000E+04;  0.0000000E+00;  3.9990363E+04; -2.9910922E-02;  0.0000000E+00;  1.4294217E-03;  1.2508088E+03;
  2.3126736E-01;  9.9999998E-03;  1.5002130E-01;3894; -2.1012697E-02;  0.0000000E+00;  6.7674933E-04;  1.0003975E+03;  1.0000000E-01;  3.2937338E+02;3;  6.9273764E-01;  0.0000000E+00; -9.6644327E-02;0; -2.7339246E-02;  4.0041488E+04;  0.0000000E+00;  1.3246039E-01;  4.0000000E+04;  0.0000000E+00;  3.9986305E+04; -2.8232098E-02;  0.0000000E+00;  8.9285144E-04;  1.7571288E+03;
  2.3111556E-01;  9.9999998E-03;  1.6003452E-01;3895; -2.0852173E-02;  0.0000000E+00;  5.9361290E-04;  1.0006255E+03;  1.0000000E-01;  5.1820752E+02;3;  6.8230605E-01;  0.0000000E+00; -7.7964969E-02;0; -2.5861021E-02;  4.0064578E+04;  0.0000000E+00; -1.7855210E-03;  4.0000000E+04;  0.0000000E+00;  3.9981980E+04; -2.6364502E-02;  0.0000000E+00;  5.0348119E-04;  2.3115066E+03;
  2.3100004E-01;  9.9999998E-03;  1.7003007E-01;3896; -2.0777794E-02;  0.0000000E+00;  4.9457530E-04;  1.0009216E+03;  1.0000000E-01;  7.6353394E+02;3;  6.4317077E-01;  0.0000000E+00;  1.8103484E-02;0; -2.4133436E-02;  4.0092516E+04;  0.0000000E+00; -1.7180577E-01;  4.0000000E+04;  0.0000000E+00;  3.9978105E+04; -2.4449632E-02;  0.0000000E+00;  3.1619528E-04;  2.8307996E+03;
  2.3091246E-01;  9.9999998E-03;  1.8001883E-01;3897; -2.0789310E-02;  0.0000000E+00;  3.9110539E-04;  1.0012623E+03;  1.0000000E-01;  1.0457976E+03;3;  5.0942934E-01;  0.0000000E+00;  2.8558707E-01;0; -2.2317460E-02;  4.0123129E+04;  0.0000000E+00; -3.3816960E-01;  4.0000000E+04;  0.0000000E+00;  3.9975449E+04; -2.2666635E-02;  0.0000000E+00;  3.4917446E-04;  3.2159377E+03;
  2.3084491E-01;  9.9999998E-03;  1.9001068E-01;3898; -2.0878356E-02;  0.0000000E+00;  2.8779721E-04;  1.0016294E+03;  1.0000000E-01;  1.3498877E+03;3;  1.6748981E-01;  0.0000000E+00;  8.6626267E-01;0; -2.0648593E-02;  4.0154355E+04;  0.0000000E+00; -4.7273877E-01;  4.0000000E+04;  0.0000000E+00;  3.9974582E+04; -2.1228367E-02;  0.0000000E+00;  5.7977438E-04;  3.3723982E+03;
  2.3079954E-01;  9.9999998E-03;  2.0001292E-01;3899; -2.1026736E-02;  0.0000000E+00;  1.9174996E-04;  1.0019941E+03;  1.0000000E-01;  1.6521014E+03;3; -5.3528833E-01;  0.0000000E+00;  1.9569206E+00;0; -1.9429056E-02;  4.0183488E+04;  0.0000000E+00; -5.8412844E-01;  4.0000000E+04;  0.0000000E+00;  3.9976105E+04; -2.0372394E-02;  0.0000000E+00;  9.4333844E-04;  3.2628345E+03;
  2.3078541E-01;  9.9999998E-03;  2.1002805E-01;3900; -2.1207470E-02;  0.0000000E+00;  1.1541833E-04;  1.0023198E+03;  1.0000000E-01;  1.9219209E+03;3; -1.7761842E+00;  0.0000000E+00;  3.7948823E+00;0; -1.9020874E-02;  4.0208090E+04;  0.0000000E+00; -7.2038305E-01;  4.0000000E+04;  0.0000000E+00;  3.9979059E+04; -2.0359553E-02;  0.0000000E+00;  1.3386792E-03;  2.9667632E+03;
  2.3082450E-01;  9.9999998E-03;  2.2004487E-01;3901; -2.1382326E-02;  0.0000000E+00;  9.0045527E-05;  1.0025604E+03;  1.0000000E-01;  2.1212239E+03;3; -3.7371490E+00;  0.0000000E+00;  6.6059065E+00;0; -1.9788561E-02;  4.0225363E+04;  0.0000000E+00; -9.5752704E-01;  4.0000000E+04;  0.0000000E+00;  3.9983102E+04; -2.1453155E-02;  0.0000000E+00;  1.6645942E-03;  2.6033655E+03;
  2.3091738E-01;  9.9999998E-03;  2.3006317E-01;3902; -2.1503627E-02;  0.0000000E+00;  1.5395434E-04;  1.0026525E+03;  1.0000000E-01;  2.1975674E+03;3; -6.6122570E+00;  0.0000000E+00;  1.0483343E+01;0; -2.2044273E-02;  4.0230852E+04;  0.0000000E+00; -1.4207822E+00;  4.0000000E+04;  0.0000000E+00;  3.9986922E+04; -2.3942940E-02;  0.0000000E+00;  1.8986672E-03;  2.4851868E+03;
  2.4154800E-01;  9.9999998E-03;  6.9992237E-02;3947; -2.3378383E-02;  0.0000000E+00;  2.4893633E-04;  1.0015880E+03;  1.0000000E-01;  1.3156171E+03;3;  8.0378836E-01;  0.0000000E+00; -1.4854074E-02;0; -1.4412201E-02;  4.0137141E+04;  0.0000000E+00;  9.0795174E-02;  4.0000000E+04;  0.0000000E+00;  3.9988277E+04; -1.8533569E-02;  0.0000000E+00;  4.1213678E-03;  1.6156826E+03;
  2.4162053E-01;  9.9999998E-03;  7.9995289E-02;3948; -2.3352562E-02;  0.0000000E+00;  3.0833168E-04;  1.0014008E+03;  1.0000000E-01;  1.1604609E+03;3;  7.9777610E-01;  0.0000000E+00; -2.2069396E-02;0; -1.5300347E-02;  4.0120555E+04;  0.0000000E+00;  1.0716524E-01;  4.0000000E+04;  0.0000000E+00;  3.9989664E+04; -1.9475468E-02;  0.0000000E+00;  4.1751214E-03;  1.4174858E+03;
  2.4168132E-01;  9.9999998E-03;  8.9991629E-02;3949; -2.3250300E-02;  0.0000000E+00;  3.8062592E-04;  1.0012139E+03;  1.0000000E-01;  1.0056999E+03;3;  7.8979319E-01;  0.0000000E+00; -3.1775136E-02;0; -1.6072780E-02;  4.0103422E+04;  0.0000000E+00;  1.3036723E-01;  4.0000000E+04;  0.0000000E+00;  3.9991488E+04; -2.0214329E-02;  0.0000000E+00;  4.1415477E-03;  1.1752280E+03;
  2.4172691E-01;  9.9999998E-03;  9.9983029E-02;3950; -2.3065144E-02;  0.0000000E+00;  4.7499890E-04;  1.0010319E+03;  1.0000000E-01;  8.5488934E+02;3;  7.8146714E-01;  0.0000000E+00; -4.1622587E-02;0; -1.6680367E-02;  4.0086828E+04;  0.0000000E+00;  1.6449203E-01;  4.0000000E+04;  0.0000000E+00;  3.9993117E+04; -2.0669434E-02;  0.0000000E+00;  3.9890660E-03;  9.6121136E+02;
  2.4175242E-01;  9.9999998E-03;  1.0997150E-01;3951; -2.2802778E-02;  0.0000000E+00;  5.8591797E-04;  1.0008580E+03;  1.0000000E-01;  7.1089343E+02;3;  7.7047712E-01;  0.0000000E+00; -5.2125409E-02;0; -1.7075302E-02;  4.0071797E+04;  0.0000000E+00;  2.1066883E-01;  4.0000000E+04;  0.0000000E+00;  3.9994250E+04; -2.0775659E-02;  0.0000000E+00;  3.7003562E-03;  8.4757269E+02;
  2.4174841E-01;  9.9999998E-03;  1.1995956E-01;3952; -2.2476001E-02;  0.0000000E+00;  7.0410635E-04;  1.0007035E+03;  1.0000000E-01;  5.8279828E+02;3;  7.5835067E-01;  0.0000000E+00; -6.3786320E-02;0; -1.7216595E-02;  4.0059367E+04;  0.0000000E+00;  2.6446310E-01;  4.0000000E+04;  0.0000000E+00;  3.9993969E+04; -2.0493960E-02;  0.0000000E+00;  3.2773651E-03;  8.7924792E+02;
  2.4169901E-01;  9.9999998E-03;  1.2995303E-01;3953; -2.2114895E-02;  0.0000000E+00;  8.0460263E-04;  1.0005847E+03;  1.0000000E-01;  4.8433194E+02;3;  7.4708831E-01;  0.0000000E+00; -7.5733788E-02;0; -1.7074613E-02;  4.0050969E+04;  0.0000000E+00;  3.1412292E-01;  4.0000000E+04;  0.0000000E+00;  3.9992637E+04; -1.9817436E-02;  0.0000000E+00;  2.7428230E-03;  1.0607858E+03;
  2.4159425E-01;  9.9999998E-03;  1.3995670E-01;3954; -2.1758631E-02;  0.0000000E+00;  8.6591142E-04;  1.0005171E+03;  1.0000000E-01;  4.2843228E+02;3;  7.3457843E-01;  0.0000000E+00; -9.0434752E-02;0; -1.6618339E-02;  4.0048008E+04;  0.0000000E+00;  3.4074670E-01;  4.0000000E+04;  0.0000000E+00;  3.9990168E+04; -1.8759353E-02;  0.0000000E+00;  2.1410130E-03;  1.3734087E+03;
  2.4143049E-01;  9.9999998E-03;  1.4997663E-01;3955; -2.1448616E-02;  0.0000000E+00;  8.7355450E-04;  1.0005183E+03;  1.0000000E-01;  4.2941992E+02;3;  7.2133744E-01;  0.0000000E+00; -1.0460890E-01;0; -1.5822003E-02;  4.0051391E+04;  0.0000000E+00;  3.2166663E-01;  4.0000000E+04;  0.0000000E+00;  3.9986594E+04; -1.7357156E-02;  0.0000000E+00;  1.5351531E-03;  1.7796034E+03;
  2.4123886E-01;  9.9999998E-03;  1.6000341E-01;3956; -2.1221209E-02;  0.0000000E+00;  8.2690077E-04;  1.0006000E+03;  1.0000000E-01;  4.9707233E+02;3;  7.0480382E-01;  0.0000000E+00; -1.0798777E-01;0; -1.4646648E-02;  4.0061961E+04;  0.0000000E+00;  2.4091391E-01;  4.0000000E+04;  0.0000000E+00;  3.9982844E+04; -1.5649496E-02;  0.0000000E+00;  1.0028473E-03;  2.2293735E+03;
  2.4106586E-01;  9.9999998E-03;  1.7001738E-01;3957; -2.1099424E-02;  0.0000000E+00;  7.3696044E-04;  1.0007697E+03;  1.0000000E-01;  6.3761157E+02;3;  6.7383647E-01;  0.0000000E+00; -4.8181038E-02;0; -1.3095595E-02;  4.0079375E+04;  0.0000000E+00;  1.0630163E-01;  4.0000000E+04;  0.0000000E+00;  3.9979203E+04; -1.3710782E-02;  0.0000000E+00;  6.1518693E-04;  2.6699089E+03;
  2.4092929E-01;  9.9999998E-03;  1.8001580E-01;3958; -2.1070654E-02;  0.0000000E+00;  6.3550606E-04;  1.0010138E+03;  1.0000000E-01;  8.3987744E+02;3;  5.6931365E-01;  0.0000000E+00;  1.4915034E-01;0; -1.1284459E-02;  4.0102348E+04;  0.0000000E+00; -5.1245317E-02;  4.0000000E+04;  0.0000000E+00;  3.9976496E+04; -1.1694596E-02;  0.0000000E+00;  4.1013662E-04;  3.0345088E+03;
  2.4082972E-01;  9.9999998E-03;  1.9000700E-01;3959; -2.1126557E-02;  0.0000000E+00;  5.3315295E-04;  1.0013184E+03;  1.0000000E-01;  1.0922159E+03;3;  2.8672540E-01;  0.0000000E+00;  5.9733206E-01;0; -9.4290972E-03;  4.0128922E+04;  0.0000000E+00; -2.0158188E-01;  4.0000000E+04;  0.0000000E+00;  3.9975145E+04; -9.8146247E-03;  0.0000000E+00;  3.8552791E-04;  3.2361873E+03;
  2.4076222E-01;  9.9999998E-03;  2.0000093E-01;3960; -2.1251094E-02;  0.0000000E+00;  4.3410590E-04;  1.0016649E+03;  1.0000000E-01;  1.3793190E+03;3; -3.2047909E-01;  0.0000000E+00;  1.4579140E+00;0; -7.8319386E-03;  4.0157215E+04;  0.0000000E+00; -3.4096777E-01;  4.0000000E+04;  0.0000000E+00;  3.9975949E+04; -8.3296197E-03;  0.0000000E+00;  4.9768074E-04;  3.2060808E+03;
  2.4073569E-01;  9.9999998E-03;  2.1000199E-01;3961; -2.1420464E-02;  0.0000000E+00;  3.4792803E-04;  1.0020202E+03;  1.0000000E-01;  1.6737303E+03;3; -1.4348292E+00;  0.0000000E+00;  2.9351833E+00;0; -6.8499907E-03;  4.0184676E+04;  0.0000000E+00; -5.0062865E-01;  4.0000000E+04;  0.0000000E+00;  3.9978508E+04; -7.5144074E-03;  0.0000000E+00;  6.6441658E-04;  2.9415049E+03;
  2.4075925E-01;  9.9999998E-03;  2.2000970E-01;3962; -2.1596571E-02;  0.0000000E+00;  3.1180339E-04;  1.0023471E+03;  1.0000000E-01;  1.9445375E+03;3; -3.2614424E+00;  0.0000000E+00;  5.2374997E+00;0; -6.8498957E-03;  4.0208586E+04;  0.0000000E+00; -7.4268997E-01;  4.0000000E+04;  0.0000000E+00;  3.9982695E+04; -7.6630414E-03;  0.0000000E+00;  8.1314560E-04;  2.5375933E+03;
  2.4083799E-01;  9.9999998E-03;  2.3002107E-01;3963; -2.1728512E-02;  0.0000000E+00;  3.8834283E-04;  1.0025870E+03;  1.0000000E-01;  2.1433467E+03;3; -6.0136652E+00;  0.0000000E+00;  8.5183716E+00;0; -8.0652256E-03;  4.0225008E+04;  0.0000000E+00; -1.1862036E+00;  4.0000000E+04;  0.0000000E+00;  3.9987289E+04; -9.0750530E-03;  0.0000000E+00;  1.0098278E-03;  2.2453657E+03;
  2.5143418E-01;  9.9999998E-03;  7.0001230E-02;4008; -2.3862906E-02;  0.0000000E+00;  3.7414784E-04;  1.0023835E+03;  1.0000000E-01;  1.9747588E+03;3;  8.2353526E-01;  0.0000000E+00; -1.5262637E-02;0;  3.9673294E-03;  4.0204215E+04;  0.0000000E+00;  1.1428899E-01;  4.0000000E+04;  0.0000000E+00;  3.9986113E+04; -4.5735502E-04;  0.0000000E+00;  4.4246842E-03;  1.9405083E+03;
  2.5150830E-01;  9.9999998E-03;  8.0006473E-02;4009; -2.3850759E-02;  0.0000000E+00;  4.1092862E-04;  1.0022001E+03;  1.0000000E-01;  1.8227632E+03;3;  8.1806809E-01;  0.0000000E+00; -2.2142900E-02;0;  2.5244416E-03;  4.0188246E+04;  0.0000000E+00;  1.2708130E-01;  4.0000000E+04;  0.0000000E+00;  3.9987105E+04; -1.9628983E-03;  0.0000000E+00;  4.4873399E-03;  1.7810387E+03;
  2.5157595E-01;  9.9999998E-03;  9.0005562E-02;4010; -2.3759732E-02;  0.0000000E+00;  4.6479888E-04;  1.0020012E+03;  1.0000000E-01;  1.6579283E+03;3;  8.1207764E-01;  0.0000000E+00; -3.1841572E-02;0;  1.1950028E-03;  4.0170227E+04;  0.0000000E+00;  1.4453509E-01;  4.0000000E+04;  0.0000000E+00;  3.9989031E+04; -3.3042850E-03;  0.0000000E+00;  4.4992878E-03;  1.5537484E+03;
  2.5163448E-01;  9.9999998E-03;  9.9999331E-02;4011; -2.3582086E-02;  0.0000000E+00;  5.4014835E-04;  1.0017863E+03;  1.0000000E-01;  1.4798593E+03;3;  8.0419457E-01;  0.0000000E+00; -4.1952819E-02;0;  4.0701590E-05;  4.0150965E+04;  0.0000000E+00;  1.7325076E-01;  4.0000000E+04;  0.0000000E+00;  3.9990809E+04; -4.3803402E-03;  0.0000000E+00;  4.4210418E-03;  1.3222915E+03;
  2.5167993E-01;  9.9999998E-03;  1.0998879E-01;4012; -2.3322187E-02;  0.0000000E+00;  6.3716411E-04;  1.0015563E+03;  1.0000000E-01;  1.2893462E+03;3;  7.9441202E-01;  0.0000000E+00; -5.3650796E-02;0; -8.8153547E-04;  4.0130887E+04;  0.0000000E+00;  2.1837454E-01;  4.0000000E+04;  0.0000000E+00;  3.9992125E+04; -5.1020831E-03;  0.0000000E+00;  4.2205476E-03;  1.1569252E+03;
  2.5170574E-01;  9.9999998E-03;  1.1997507E-01;4013; -2.2985730E-02;  0.0000000E+00;  7.5690058E-04;  1.0013245E+03;  1.0000000E-01;  1.0973516E+03;3;  7.8245926E-01;  0.0000000E+00; -6.6192940E-02;0; -1.5223343E-03;  4.0111719E+04;  0.0000000E+00;  2.8062221E-01;  4.0000000E+04;  0.0000000E+00;  3.9992512E+04; -5.4020383E-03;  0.0000000E+00;  3.8797040E-03;  1.1155215E+03;
  2.5170043E-01;  9.9999998E-03;  1.2996149E-01;4014; -2.2597726E-02;  0.0000000E+00;  8.8209566E-04;  1.0011031E+03;  1.0000000E-01;  9.1385065E+02;3;  7.7060902E-01;  0.0000000E+00; -8.0753207E-02;0; -1.8435030E-03;  4.0094270E+04;  0.0000000E+00;  3.5356981E-01;  4.0000000E+04;  0.0000000E+00;  3.9991926E+04; -5.2423761E-03;  0.0000000E+00;  3.3988731E-03;  1.2215925E+03;
  2.5164929E-01;  9.9999998E-03;  1.3995424E-01;4015; -2.2199886E-02;  0.0000000E+00;  9.8191365E-04;  1.0009092E+03;  1.0000000E-01;  7.5326257E+02;3;  7.5870407E-01;  0.0000000E+00; -9.6443892E-02;0; -1.8158753E-03;  4.0080285E+04;  0.0000000E+00;  4.2205936E-01;  4.0000000E+04;  0.0000000E+00;  3.9990062E+04; -4.6164412E-03;  0.0000000E+00;  2.8005659E-03;  1.4596597E+03;
  2.5154245E-01;  9.9999998E-03;  1.4995800E-01;4016; -2.1839524E-02;  0.0000000E+00;  1.0333265E-03;  1.0007680E+03;  1.0000000E-01;  6.3622888E+02;3;  7.4780732E-01;  0.0000000E+00; -1.1517403E-01;0; -1.4070068E-03;  4.0071461E+04;  0.0000000E+00;  4.6320257E-01;  4.0000000E+04;  0.0000000E+00;  3.9987195E+04; -3.5392728E-03;  0.0000000E+00;  2.1322661E-03;  1.7883372E+03;
  2.5138220E-01;  9.9999998E-03;  1.5997373E-01;4017; -2.1556852E-02;  0.0000000E+00;  1.0280190E-03;  1.0007004E+03;  1.0000000E-01;  5.8023047E+02;3;  7.3488688E-01;  0.0000000E+00; -1.2706815E-01;0; -5.8259140E-04;  4.0069262E+04;  0.0000000E+00;  4.5236027E-01;  4.0000000E+04;  0.0000000E+00;  3.9984105E+04; -2.0464091E-03;  0.0000000E+00;  1.4638177E-03;  2.1544316E+03;
  2.5119582E-01;  9.9999998E-03;  1.6999140E-01;4018; -2.1377070E-02;  0.0000000E+00;  9.7167498E-04;  1.0007270E+03;  1.0000000E-01;  6.0225452E+02;3;  7.0631278E-01;  0.0000000E+00; -1.0737681E-01;0;  6.8026170E-04;  4.0074715E+04;  0.0000000E+00;  3.7834841E-01;  4.0000000E+04;  0.0000000E+00;  3.9980859E+04; -1.9519236E-04;  0.0000000E+00;  8.7545405E-04;  2.5123545E+03;
  2.5102028E-01;  9.9999998E-03;  1.7999981E-01;4019; -2.1309273E-02;  0.0000000E+00;  8.7886216E-04;  1.0008474E+03;  1.0000000E-01;  7.0200476E+02;3;  6.3092965E-01;  0.0000000E+00;  1.9019505E-02;0;  2.3333239E-03;  4.0087414E+04;  0.0000000E+00;  2.5464341E-01;  4.0000000E+04;  0.0000000E+00;  3.9978234E+04;  1.9049454E-03;  0.0000000E+00;  4.2837861E-04;  2.8229053E+03;
  2.5087655E-01;  9.9999998E-03;  1.8999781E-01;4020; -2.1332774E-02;  0.0000000E+00;  7.7820581E-04;  1.0010585E+03;  1.0000000E-01;  8.7701215E+02;3;  4.1746676E-01;  0.0000000E+00;  3.3744782E-01;0;  4.2118034E-03;  4.0106684E+04;  0.0000000E+00;  1.0529941E-01;  4.0000000E+04;  0.0000000E+00;  3.9976574E+04;  4.0659355E-03;  0.0000000E+00;  1.4586796E-04;  3.0268225E+03;
  2.5077391E-01;  9.9999998E-03;  1.9999088E-01;4021; -2.1430986E-02;  0.0000000E+00;  6.7982927E-04;  1.0013478E+03;  1.0000000E-01;  1.1166104E+03;3; -6.8831988E-02;  0.0000000E+00;  9.7804594E-01;0;  6.0480097E-03;  4.0130973E+04;  0.0000000E+00; -5.8198467E-02;  4.0000000E+04;  0.0000000E+00;  3.9976660E+04;  6.0389093E-03;  0.0000000E+00;  9.1003458E-06;  3.0432480E+03;
  2.5071687E-01;  9.9999998E-03;  2.0998622E-01;4022; -2.1583738E-02;  0.0000000E+00;  5.9260463E-04;  1.0016940E+03;  1.0000000E-01;  1.4034170E+03;3; -9.9940354E-01;  0.0000000E+00;  2.1007237E+00;0;  7.4949749E-03;  4.0158070E+04;  0.0000000E+00; -2.4726343E-01;  4.0000000E+04;  0.0000000E+00;  3.9978633E+04;  7.5335237E-03;  0.0000000E+00; -3.8548947E-05;  2.8200532E+03;
  2.5072262E-01;  9.9999998E-03;  2.1998562E-01;4023; -2.1758717E-02;  0.0000000E+00;  5.5895251E-04;  1.0020676E+03;  1.0000000E-01;  1.7130378E+03;3; -2.5763586E+00;  0.0000000E+00;  3.8943322E+00;0;  8.2272300E-03;  4.0185312E+04;  0.0000000E+00; -5.0339735E-01;  4.0000000E+04;  0.0000000E+00;  3.9983062E+04;  8.2590925E-03;  0.0000000E+00; -3.1862430E-05;  2.3636025E+03;
  2.5078651E-01;  9.9999998E-03;  2.2999321E-01;4024; -2.1901686E-02;  0.0000000E+00;  6.5366138E-04;  1.0024086E+03;  1.0000000E-01;  1.9954990E+03;3; -5.0317712E+00;  0.0000000E+00;  6.5022492E+00;0;  8.0788266E-03;  4.0209320E+04;  0.0000000E+00; -9.2430574E-01;  4.0000000E+04;  0.0000000E+00;  3.9988672E+04;  7.8916773E-03;  0.0000000E+00;  1.8714904E-04;  1.9384766E+03;
  2.6133135E-01;  9.9999998E-03;  7.0008919E-02;4069; -2.4234315E-02;  0.0000000E+00;  4.9429171E-04;  1.0030327E+03;  1.0000000E-01;  2.5125212E+03;3;  8.4196281E-01;  0.0000000E+00; -1.5407683E-02;0;  2.4917649E-02;  4.0259445E+04;  0.0000000E+00;  1.2269019E-01;  4.0000000E+04;  0.0000000E+00;  3.9983918E+04;  2.0335628E-02;  0.0000000E+00;  4.5820209E-03;  2.2674631E+03;
  2.6140168E-01;  9.9999998E-03;  8.0016337E-02;4070; -2.4238333E-02;  0.0000000E+00;  5.0594239E-04;  1.0028792E+03;  1.0000000E-01;  2.3853152E+03;3;  8.3796299E-01;  0.0000000E+00; -2.2363266E-02;0;  2.2984710E-02;  4.0246121E+04;  0.0000000E+00;  1.3098529E-01;  4.0000000E+04;  0.0000000E+00;  3.9984840E+04;  1.8319571E-02;  0.0000000E+00;  4.6651391E-03;  2.1480740E+03;
  2.6146919E-01;  9.9999998E-03;  9.0018913E-02;4071; -2.4164474E-02;  0.0000000E+00;  5.3304742E-04;  1.0026942E+03;  1.0000000E-01;  2.2321343E+03;3;  8.3235008E-01;  0.0000000E+00; -3.1145306E-02;0;  2.1149404E-02;  4.0229574E+04;  0.0000000E+00;  1.4117466E-01;  4.0000000E+04;  0.0000000E+00;  3.9986566E+04;  1.6417259E-02;  0.0000000E+00;  4.7321459E-03;  1.9402845E+03;
  2.6153257E-01;  9.9999998E-03;  1.0001665E-01;4072; -2.4002686E-02;  0.0000000E+00;  5.8658473E-04;  1.0024736E+03;  1.0000000E-01;  2.0493247E+03;3;  8.2462186E-01;  0.0000000E+00; -4.1989766E-02;0;  1.9482616E-02;  4.0210148E+04;  0.0000000E+00;  1.6117623E-01;  4.0000000E+04;  0.0000000E+00;  3.9988238E+04;  1.4746906E-02;  0.0000000E+00;  4.7357092E-03;  1.6974446E+03;
  2.6158908E-01;  9.9999998E-03;  1.1000925E-01;4073; -2.3747714E-02;  0.0000000E+00;  6.6978985E-04;  1.0022257E+03;  1.0000000E-01;  1.8439971E+03;3;  8.1465608E-01;  0.0000000E+00; -5.6040246E-02;0;  1.8046973E-02;  4.0188121E+04;  0.0000000E+00;  1.9901924E-01;  4.0000000E+04;  0.0000000E+00;  3.9990051E+04;  1.3417812E-02;  0.0000000E+00;  4.6291607E-03;  1.4840801E+03;
  2.6163262E-01;  9.9999998E-03;  1.1999729E-01;4074; -2.3412684E-02;  0.0000000E+00;  7.8288268E-04;  1.0019489E+03;  1.0000000E-01;  1.6146703E+03;3;  8.0494517E-01;  0.0000000E+00; -6.8863213E-02;0;  1.6894888E-02;  4.0164629E+04;  0.0000000E+00;  2.5998709E-01;  4.0000000E+04;  0.0000000E+00;  3.9990891E+04;  1.2520467E-02;  0.0000000E+00;  4.3744207E-03;  1.3622625E+03;
  2.6165470E-01;  9.9999998E-03;  1.2998284E-01;4075; -2.3010932E-02;  0.0000000E+00;  9.2270225E-04;  1.0016583E+03;  1.0000000E-01;  1.3738870E+03;3;  7.9272097E-01;  0.0000000E+00; -8.6573161E-02;0;  1.6071610E-02;  4.0140863E+04;  0.0000000E+00;  3.4340134E-01;  4.0000000E+04;  0.0000000E+00;  3.9990836E+04;  1.2121145E-02;  0.0000000E+00;  3.9504664E-03;  1.3739297E+03;
  2.6164326E-01;  9.9999998E-03;  1.3996993E-01;4076; -2.2580858E-02;  0.0000000E+00;  1.0611733E-03;  1.0013705E+03;  1.0000000E-01;  1.1354740E+03;3;  7.7985644E-01;  0.0000000E+00; -1.0590085E-01;0;  1.5615989E-02;  4.0118516E+04;  0.0000000E+00;  4.3982717E-01;  4.0000000E+04;  0.0000000E+00;  3.9989656E+04;  1.2255949E-02;  0.0000000E+00;  3.3600398E-03;  1.5238287E+03;
  2.6158610E-01;  9.9999998E-03;  1.4996366E-01;4077; -2.2175575E-02;  0.0000000E+00;  1.1580228E-03;  1.0011151E+03;  1.0000000E-01;  9.2382568E+02;3;  7.6683307E-01;  0.0000000E+00; -1.3145640E-01;0;  1.5569533E-02;  4.0099379E+04;  0.0000000E+00;  5.2997565E-01;  4.0000000E+04;  0.0000000E+00;  3.9987684E+04;  1.2933868E-02;  0.0000000E+00;  2.6356650E-03;  1.7783939E+03;
  2.6147583E-01;  9.9999998E-03;  1.5996696E-01;4078; -2.1845000E-02;  0.0000000E+00;  1.1959450E-03;  1.0009148E+03;  1.0000000E-01;  7.5790442E+02;3;  7.5634682E-01;  0.0000000E+00; -1.5587297E-01;0;  1.5978891E-02;  4.0085742E+04;  0.0000000E+00;  5.8737242E-01;  4.0000000E+04;  0.0000000E+00;  3.9985324E+04;  1.4137344E-02;  0.0000000E+00;  1.8415475E-03;  2.0814995E+03;
  2.6132002E-01;  9.9999998E-03;  1.6997664E-01;4079; -2.1619461E-02;  0.0000000E+00;  1.1738620E-03;  1.0007972E+03;  1.0000000E-01;  6.6042572E+02;3;  7.3847163E-01;  0.0000000E+00; -1.6113922E-01;0;  1.6881835E-02;  4.0079074E+04;  0.0000000E+00;  5.8652204E-01;  4.0000000E+04;  0.0000000E+00;  3.9982648E+04;  1.5817424E-02;  0.0000000E+00;  1.0644111E-03;  2.3779456E+03;
  2.6114348E-01;  9.9999998E-03;  1.7998531E-01;4080; -2.1506732E-02;  0.0000000E+00;  1.1071031E-03;  1.0007839E+03;  1.0000000E-01;  6.4946307E+02;3;  6.8817818E-01;  0.0000000E+00; -9.8407716E-02;0;  1.8266123E-02;  4.0080688E+04;  0.0000000E+00;  5.1924211E-01;  4.0000000E+04;  0.0000000E+00;  3.9980344E+04;  1.7880028E-02;  0.0000000E+00;  3.8609447E-04;  2.6301929E+03;
  2.6097488E-01;  9.9999998E-03;  1.8998787E-01;4081; -2.1499952E-02;  0.0000000E+00;  1.0121897E-03;  1.0008790E+03;  1.0000000E-01;  7.2827563E+02;3;  5.4253662E-01;  0.0000000E+00;  1.0396305E-01;0;  2.0021504E-02;  4.0090488E+04;  0.0000000E+00;  3.9443523E-01;  4.0000000E+04;  0.0000000E+00;  3.9978637E+04;  2.0166159E-02;  0.0000000E+00; -1.4465458E-04;  2.8019690E+03;
  2.6083714E-01;  9.9999998E-03;  1.9998454E-01;4082; -2.1575371E-02;  0.0000000E+00;  9.1543276E-04;  1.0010806E+03;  1.0000000E-01;  8.9518451E+02;3;  1.8578812E-01;  0.0000000E+00;  5.3907627E-01;0;  2.1932021E-02;  4.0108004E+04;  0.0000000E+00;  2.2247839E-01;  4.0000000E+04;  0.0000000E+00;  3.9978254E+04;  2.2450844E-02;  0.0000000E+00; -5.1882328E-04;  2.8324456E+03;
  2.6074553E-01;  9.9999998E-03;  2.0997831E-01;4083; -2.1709912E-02;  0.0000000E+00;  8.3385600E-04;  1.0013776E+03;  1.0000000E-01;  1.1413010E+03;3; -5.3317881E-01;  0.0000000E+00;  1.3343978E+00;0;  2.3697654E-02;  4.0131582E+04;  0.0000000E+00;  4.6438333E-03;  4.0000000E+04;  0.0000000E+00;  3.9979844E+04;  2.4457334E-02;  0.0000000E+00; -7.5967988E-04;  2.6381667E+03;
  2.6071331E-01;  9.9999998E-03;  2.1997532E-01;4084; -2.1874812E-02;  0.0000000E+00;  7.9927192E-04;  1.0017450E+03;  1.0000000E-01;  1.4456874E+03;3; -1.8000199E+00;  0.0000000E+00;  2.6371312E+00;0;  2.5012322E-02;  4.0159066E+04;  0.0000000E+00; -2.7093861E-01;  4.0000000E+04;  0.0000000E+00;  3.9983984E+04;  2.5885412E-02;  0.0000000E+00; -8.7309116E-04;  2.1966130E+03;
  2.6075250E-01;  9.9999998E-03;  2.2997995E-01;4085; -2.2029258E-02;  0.0000000E+00;  8.8822149E-04;  1.0021389E+03;  1.0000000E-01;  1.7719991E+03;3; -3.8358805E+00;  0.0000000E+00;  4.5638995E+00;0;  2.5780553E-02;  4.0187035E+04;  0.0000000E+00; -6.6849786E-01;  4.0000000E+04;  0.0000000E+00;  3.9989285E+04;  2.6432458E-02;  0.0000000E+00; -6.5190450E-04;  1.6887003E+03;
  2.7124131E-01;  9.9999998E-03;  7.0014998E-02;4130; -2.4495445E-02;  0.0000000E+00;  6.0166692E-04;  1.0034951E+03;  1.0000000E-01;  2.8956216E+03;3;  8.5934871E-01;  0.0000000E+00; -1.6582463E-02;0;  4.7587592E-02;  4.0299805E+04;  0.0000000E+00;  1.1319129E-01;  4.0000000E+04;  0.0000000E+00;  3.9981754E+04;  4.3035194E-02;  0.0000000E+00;  4.5523988E-03;  2.5939185E+03;
  2.7130559E-01;  9.9999998E-03;  8.0024138E-02;4131; -2.4518823E-02;  0.0000000E+00;  5.8863097E-04;  1.0033900E+03;  1.0000000E-01;  2.8085129E+03;3;  8.5539353E-01;  0.0000000E+00; -2.1972639E-02;0;  4.5287594E-02;  4.0290727E+04;  0.0000000E+00;  1.1670431E-01;  4.0000000E+04;  0.0000000E+00;  3.9982117E+04;  4.0619135E-02;  0.0000000E+00;  4.6684612E-03;  2.5181328E+03;
  2.7136958E-01;  9.9999998E-03;  9.0030119E-02;4132; -2.4465624E-02;  0.0000000E+00;  5.8573898E-04;  1.0032465E+03;  1.0000000E-01;  2.6897014E+03;3;  8.4972137E-01;  0.0000000E+00; -3.0188903E-02;0;  4.3053254E-02;  4.0277746E+04;  0.0000000E+00;  1.1960422E-01;  4.0000000E+04;  0.0000000E+00;  3.9983523E+04;  3.8253710E-02;  0.0000000E+00;  4.7995467E-03;  2.3383977E+03;
  2.7143264E-01;  9.9999998E-03;  1.0003179E-01;4133; -2.4322281E-02;  0.0000000E+00;  6.0969248E-04;  1.0030543E+03;  1.0000000E-01;  2.5303975E+03;3;  8.4266514E-01;  0.0000000E+00; -4.1582555E-02;0;  4.0956907E-02;  4.0260324E+04;  0.0000000E+00;  1.2987080E-01;  4.0000000E+04;  0.0000000E+00;  3.9985355E+04;  3.6066208E-02;  0.0000000E+00;  4.8906971E-03;  2.0964983E+03;
  2.7149317E-01;  9.9999998E-03;  1.1002858E-01;4134; -2.4086103E-02;  0.0000000E+00;  6.7691400E-04;  1.0028127E+03;  1.0000000E-01;  2.3303042E+03;3;  8.3538085E-01;  0.0000000E+00; -5.4482900E-02;0;  3.9062940E-02;  4.0238859E+04;  0.0000000E+00;  1.5688078E-01;  4.0000000E+04;  0.0000000E+00;  3.9987316E+04;  3.4181353E-02;  0.0000000E+00;  4.8815878E-03;  1.8483694E+03;
  2.7154621E-01;  9.9999998E-03;  1.2002058E-01;4135; -2.3752829E-02;  0.0000000E+00;  7.8875222E-04;  1.0025250E+03;  1.0000000E-01;  2.0918914E+03;3;  8.2208216E-01;  0.0000000E+00; -7.7087402E-02;0;  3.7424423E-02;  4.0214082E+04;  0.0000000E+00;  2.0901841E-01;  4.0000000E+04;  0.0000000E+00;  3.9988812E+04;  3.2708850E-02;  0.0000000E+00;  4.7155730E-03;  1.6534281E+03;
  2.7158454E-01;  9.9999998E-03;  1.3000852E-01;4136; -2.3346271E-02;  0.0000000E+00;  9.3454123E-04;  1.0021985E+03;  1.0000000E-01;  1.8214792E+03;3;  8.1359649E-01;  0.0000000E+00; -9.4781823E-02;0;  3.6090549E-02;  4.0186898E+04;  0.0000000E+00;  2.9049337E-01;  4.0000000E+04;  0.0000000E+00;  3.9989473E+04;  3.1739511E-02;  0.0000000E+00;  4.3510380E-03;  1.5627004E+03;
  2.7159831E-01;  9.9999998E-03;  1.3999490E-01;4137; -2.2900091E-02;  0.0000000E+00;  1.1009121E-03;  1.0018544E+03;  1.0000000E-01;  1.5363514E+03;3;  8.0081606E-01;  0.0000000E+00; -1.1921640E-01;0;  3.5110403E-02;  4.0158977E+04;  0.0000000E+00;  3.9790094E-01;  4.0000000E+04;  0.0000000E+00;  3.9989191E+04;  3.1337373E-02;  0.0000000E+00;  3.7730308E-03;  1.6037626E+03;
  2.7157748E-01;  9.9999998E-03;  1.4998354E-01;4138; -2.2463623E-02;  0.0000000E+00;  1.2433471E-03;  1.0015148E+03;  1.0000000E-01;  1.2549768E+03;3;  7.8701568E-01;  0.0000000E+00; -1.5227816E-01;0;  3.4542762E-02;  4.0132191E+04;  0.0000000E+00;  5.1766443E-01;  4.0000000E+04;  0.0000000E+00;  3.9988141E+04;  3.1541359E-02;  0.0000000E+00;  3.0014033E-03;  1.7663896E+03;
  2.7151266E-01;  9.9999998E-03;  1.5997830E-01;4139; -2.2090573E-02;  0.0000000E+00;  1.3274805E-03;  1.0012096E+03;  1.0000000E-01;  1.0021444E+03;3;  7.7515107E-01;  0.0000000E+00; -1.8942164E-01;0;  3.4456022E-02;  4.0109156E+04;  0.0000000E+00;  6.2674749E-01;  4.0000000E+04;  0.0000000E+00;  3.9986418E+04;  3.2359410E-02;  0.0000000E+00;  2.0966125E-03;  2.0043459E+03;
  2.7140084E-01;  9.9999998E-03;  1.6997944E-01;4140; -2.1821238E-02;  0.0000000E+00;  1.3444661E-03;  1.0009705E+03;  1.0000000E-01;  8.0402661E+02;3;  7.6422375E-01;  0.0000000E+00; -2.1545990E-01;0;  3.4910783E-02;  4.0091906E+04;  0.0000000E+00;  6.9458735E-01;  4.0000000E+04;  0.0000000E+00;  3.9984402E+04;  3.3758972E-02;  0.0000000E+00;  1.1518101E-03;  2.2558401E+03;
  2.7125192E-01;  9.9999998E-03;  1.7998347E-01;4141; -2.1668101E-02;  0.0000000E+00;  1.3061190E-03;  1.0008298E+03;  1.0000000E-01;  6.8748669E+02;3;  7.3490787E-01;  0.0000000E+00; -2.0153125E-01;0;  3.5923500E-02;  4.0082629E+04;  0.0000000E+00;  6.9551289E-01;  4.0000000E+04;  0.0000000E+00;  3.9982398E+04;  3.5657175E-02;  0.0000000E+00;  2.6632377E-04;  2.4690825E+03;
  2.7108923E-01;  9.9999998E-03;  1.8998601E-01;4142; -2.1628082E-02;  0.0000000E+00;  1.2258536E-03;  1.0008001E+03;  1.0000000E-01;  6.6289478E+02;3;  6.4797300E-01;  0.0000000E+00; -8.9809492E-02;0;  3.7429575E-02;  4.0082184E+04;  0.0000000E+00;  6.1898798E-01;  4.0000000E+04;  0.0000000E+00;  3.9980965E+04;  3.7916411E-02;  0.0000000E+00; -4.8683470E-04;  2.6076812E+03;
  2.7093583E-01;  9.9999998E-03;  1.9998519E-01;4143; -2.1679472E-02;  0.0000000E+00;  1.1266673E-03;  1.0008918E+03;  1.0000000E-01;  7.3884326E+02;3;  4.1752440E-01;  0.0000000E+00;  1.8263862E-01;0;  3.9254427E-02;  4.0091211E+04;  0.0000000E+00;  4.6504781E-01;  4.0000000E+04;  0.0000000E+00;  3.9980328E+04;  4.0330369E-02;  0.0000000E+00; -1.0759431E-03;  2.6314978E+03;
  2.7081519E-01;  9.9999998E-03;  2.0998104E-01;4144; -2.1796970E-02;  0.0000000E+00;  1.0342002E-03;  1.0011043E+03;  1.0000000E-01;  9.1493701E+02;3; -8.6765900E-02;  0.0000000E+00;  6.9938445E-01;0;  4.1143436E-02;  4.0108621E+04;  0.0000000E+00;  2.3699819E-01;  4.0000000E+04;  0.0000000E+00;  3.9981379E+04;  4.2644691E-02;  0.0000000E+00; -1.5012551E-03;  2.4732991E+03;
  2.7074721E-01;  9.9999998E-03;  2.1997681E-01;4145; -2.1952799E-02;  0.0000000E+00;  9.8720391E-04;  1.0014266E+03;  1.0000000E-01;  1.1818925E+03;3; -1.0247573E+00;  0.0000000E+00;  1.5716783E+00;0;  4.2836513E-02;  4.0132723E+04;  0.0000000E+00; -6.0789850E-02;  4.0000000E+04;  0.0000000E+00;  3.9984293E+04;  4.4573944E-02;  0.0000000E+00; -1.7374305E-03;  2.0717458E+03;
  2.7074653E-01;  9.9999998E-03;  2.2997877E-01;4146; -2.2102969E-02;  0.0000000E+00;  1.0438912E-03;  1.0018192E+03;  1.0000000E-01;  1.5071178E+03;3; -2.5803297E+00;  0.0000000E+00;  2.9008968E+00;0;  4.4241711E-02;  4.0161195E+04;  0.0000000E+00; -4.4862178E-01;  4.0000000E+04;  0.0000000E+00;  3.9989629E+04;  4.5822807E-02;  0.0000000E+00; -1.5810970E-03;  1.5449824E+03;
  2.8116384E-01;  9.9999998E-03;  7.0019796E-02;4191; -2.4629842E-02;  0.0000000E+00;  6.7950640E-04;  1.0037576E+03;  1.0000000E-01;  3.1130969E+03;3;  8.7806886E-01;  0.0000000E+00; -2.0122617E-02;0;  7.0806585E-02;  4.0323906E+04;  0.0000000E+00;  8.7259941E-02;  4.0000000E+04;  0.0000000E+00;  3.9979242E+04;  6.6503450E-02;  0.0000000E+00;  4.3031331E-03;  2.9119238E+03;
  2.8122106E-01;  9.9999998E-03;  8.0029830E-02;4192; -2.4679445E-02;  0.0000000E+00;  6.5187103E-04;  1.0037160E+03;  1.0000000E-01;  3.0786287E+03;3;  8.7385434E-01;  0.0000000E+00; -2.4199171E-02;0;  6.8320744E-02;  4.0320527E+04;  0.0000000E+00;  8.5996278E-02;  4.0000000E+04;  0.0000000E+00;  3.9979551E+04;  6.3856438E-02;  0.0000000E+00;  4.4643036E-03;  2.8837366E+03;
  2.8127974E-01;  9.9999998E-03;  9.0038292E-02;4193; -2.4653075E-02;  0.0000000E+00;  6.2980672E-04;  1.0036277E+03;  1.0000000E-01;  3.0055444E+03;3;  8.6805701E-01;  0.0000000E+00; -2.9999401E-02;0;  6.5851338E-02;  4.0312277E+04;  0.0000000E+00;  8.2431413E-02;  4.0000000E+04;  0.0000000E+00;  3.9980434E+04;  6.1184403E-02;  0.0000000E+00;  4.6669347E-03;  2.7423508E+03;
  2.8133970E-01;  9.9999998E-03;  1.0004348E-01;4194; -2.4538396E-02;  0.0000000E+00;  6.2230369E-04;  1.0034854E+03;  1.0000000E-01;  2.8876218E+03;3;  8.6255890E-01;  0.0000000E+00; -3.8380656E-02;0;  6.3463509E-02;  4.0299035E+04;  0.0000000E+00;  8.3624236E-02;  4.0000000E+04;  0.0000000E+00;  3.9982352E+04;  5.8614500E-02;  0.0000000E+00;  4.8490064E-03;  2.5174419E+03;
  2.8139958E-01;  9.9999998E-03;  1.1004461E-01;4195; -2.4326827E-02;  0.0000000E+00;  6.5679662E-04;  1.0032805E+03;  1.0000000E-01;  2.7177500E+03;3;  8.5204762E-01;  0.0000000E+00; -5.4820493E-02;0;  6.1214868E-02;  4.0280367E+04;  0.0000000E+00;  9.8830007E-02;  4.0000000E+04;  0.0000000E+00;  3.9984145E+04;  5.6277044E-02;  0.0000000E+00;  4.9378243E-03;  2.2545979E+03;
  2.8145543E-01;  9.9999998E-03;  1.2004126E-01;4196; -2.4014303E-02;  0.0000000E+00;  7.5837277E-04;  1.0030101E+03;  1.0000000E-01;  2.4938552E+03;3;  8.4301400E-01;  0.0000000E+00; -7.5124815E-02;0;  5.9156656E-02;  4.0256695E+04;  0.0000000E+00;  1.3778049E-01;  4.0000000E+04;  0.0000000E+00;  3.9986148E+04;  5.4296162E-02;  0.0000000E+00;  4.8604952E-03;  2.0064301E+03;
  2.8150144E-01;  9.9999998E-03;  1.3003355E-01;4197; -2.3610398E-02;  0.0000000E+00;  9.2036685E-04;  1.0026851E+03;  1.0000000E-01;  2.2245295E+03;3;  8.2930267E-01;  0.0000000E+00; -1.1156689E-01;0;  5.7339847E-02;  4.0228773E+04;  0.0000000E+00;  2.0792459E-01;  4.0000000E+04;  0.0000000E+00;  3.9987434E+04;  5.2782364E-02;  0.0000000E+00;  4.5574843E-03;  1.8240148E+03;
  2.8152981E-01;  9.9999998E-03;  1.4002235E-01;4198; -2.3153998E-02;  0.0000000E+00;  1.1130890E-03;  1.0023174E+03;  1.0000000E-01;  1.9199456E+03;3;  8.1753129E-01;  0.0000000E+00; -1.4419690E-01;0;  5.5823497E-02;  4.0198355E+04;  0.0000000E+00;  3.1096989E-01;  4.0000000E+04;  0.0000000E+00;  3.9988082E+04;  5.1825892E-02;  0.0000000E+00;  3.9976048E-03;  1.7476437E+03;
  2.8153250E-01;  9.9999998E-03;  1.5001056E-01;4199; -2.2690855E-02;  0.0000000E+00;  1.3081763E-03;  1.0019266E+03;  1.0000000E-01;  1.5962017E+03;3;  8.0251563E-01;  0.0000000E+00; -1.8654643E-01;0;  5.4685224E-02;  4.0166891E+04;  0.0000000E+00;  4.3954572E-01;  4.0000000E+04;  0.0000000E+00;  3.9987773E+04;  5.1494204E-02;  0.0000000E+00;  3.1910201E-03;  1.7935320E+03;
  2.8150141E-01;  9.9999998E-03;  1.6000102E-01;4200; -2.2283327E-02;  0.0000000E+00;  1.4424024E-03;  1.0015497E+03;  1.0000000E-01;  1.2839142E+03;3;  7.8315943E-01;  0.0000000E+00; -2.4734302E-01;0;  5.4021344E-02;  4.0137055E+04;  0.0000000E+00;  5.7640308E-01;  4.0000000E+04;  0.0000000E+00;  3.9986973E+04;  5.1824711E-02;  0.0000000E+00;  2.1966326E-03;  1.9409907E+03;
  2.8143129E-01;  9.9999998E-03;  1.6999607E-01;4201; -2.1976542E-02;  0.0000000E+00;  1.4966154E-03;  1.0012185E+03;  1.0000000E-01;  1.0095516E+03;3;  7.7416009E-01;  0.0000000E+00; -2.8549302E-01;0;  5.3927202E-02;  4.0111590E+04;  0.0000000E+00;  6.9453806E-01;  4.0000000E+04;  0.0000000E+00;  3.9985703E+04;  5.2812222E-02;  0.0000000E+00;  1.1149811E-03;  2.1380803E+03;
  2.8132254E-01;  9.9999998E-03;  1.7999490E-01;4202; -2.1788880E-02;  0.0000000E+00;  1.4841318E-03;  1.0009662E+03;  1.0000000E-01;  8.0047113E+02;3;  7.6240784E-01;  0.0000000E+00; -2.9928893E-01;0;  5.4454111E-02;  4.0092688E+04;  0.0000000E+00;  7.6048368E-01;  4.0000000E+04;  0.0000000E+00;  3.9984293E+04;  5.4393504E-02;  0.0000000E+00;  6.0608461E-05;  2.3232827E+03;
  2.8118446E-01;  9.9999998E-03;  1.8999529E-01;4203; -2.1714056E-02;  0.0000000E+00;  1.4228642E-03;  1.0008212E+03;  1.0000000E-01;  6.8027698E+02;3;  7.2396058E-01;  0.0000000E+00; -2.5155595E-01;0;  5.5571783E-02;  4.0082582E+04;  0.0000000E+00;  7.4737340E-01;  4.0000000E+04;  0.0000000E+00;  3.9982953E+04;  5.6442834E-02;  0.0000000E+00; -8.7105075E-04;  2.4470977E+03;
  2.8104037E-01;  9.9999998E-03;  1.9999394E-01;4204; -2.1740304E-02;  0.0000000E+00;  1.3238140E-03;  1.0007981E+03;  1.0000000E-01;  6.6121582E+02;3;  5.9486634E-01;  0.0000000E+00; -1.0481866E-01;0;  5.7156671E-02;  4.0082145E+04;  0.0000000E+00;  6.4026219E-01;  4.0000000E+04;  0.0000000E+00;  3.9982289E+04;  5.8785066E-02;  0.0000000E+00; -1.6283935E-03;  2.4660120E+03;
  2.8090936E-01;  9.9999998E-03;  2.0999025E-01;4205; -2.1833103E-02;  0.0000000E+00;  1.2171216E-03;  1.0009079E+03;  1.0000000E-01;  7.5217621E+02;3;  2.8425300E-01;  0.0000000E+00;  2.1132450E-01;0;  5.8986850E-02;  4.0091555E+04;  0.0000000E+00;  4.3501008E-01;  4.0000000E+04;  0.0000000E+00;  3.9982629E+04;  6.1180692E-02;  0.0000000E+00; -2.1938432E-03;  2.3267642E+03;
  2.8081143E-01;  9.9999998E-03;  2.1998586E-01;4206; -2.1960348E-02;  0.0000000E+00;  1.1387650E-03;  1.0011486E+03;  1.0000000E-01;  9.5157794E+02;3; -3.3717683E-01;  0.0000000E+00;  7.5488889E-01;0;  6.0823102E-02;  4.0109953E+04;  0.0000000E+00;  1.3979070E-01;  4.0000000E+04;  0.0000000E+00;  3.9985227E+04;  6.3360155E-02;  0.0000000E+00; -2.5370517E-03;  1.9714274E+03;
  2.8077117E-01;  9.9999998E-03;  2.2998495E-01;4207; -2.2090105E-02;  0.0000000E+00;  1.1587645E-03;  1.0014969E+03;  1.0000000E-01;  1.2401624E+03;3; -1.4160268E+00;  0.0000000E+00;  1.6024771E+00;0;  6.2627003E-02;  4.0135363E+04;  0.0000000E+00; -2.3847774E-01;  4.0000000E+04;  0.0000000E+00;  3.9989691E+04;  6.5056622E-02;  0.0000000E+00; -2.4296171E-03;  1.4377778E+03;
  2.9109815E-01;  9.9999998E-03;  7.0023358E-02;4252; -2.4614949E-02;  0.0000000E+00;  7.1780343E-04;  1.0038309E+03;  1.0000000E-01;  3.1738359E+03;3;  8.9559776E-01;  0.0000000E+00; -2.0437203E-02;0;  9.3111828E-02;  4.0332539E+04;  0.0000000E+00;  5.0642222E-02;  4.0000000E+04;  0.0000000E+00;  3.9977031E+04;  8.9299768E-02;  0.0000000E+00;  3.8120600E-03;  3.2097205E+03;
  2.9114753E-01;  9.9999998E-03;  8.0033071E-02;4253; -2.4693796E-02;  0.0000000E+00;  6.8433245E-04;  1.0038566E+03;  1.0000000E-01;  3.1950698E+03;3;  8.9146370E-01;  0.0000000E+00; -2.4700720E-02;0;  9.0675257E-02;  4.0335000E+04;  0.0000000E+00;  4.4690561E-02;  4.0000000E+04;  0.0000000E+00;  3.9976727E+04;  8.6646773E-02;  0.0000000E+00;  4.0284833E-03;  3.2319507E+03;
  2.9119998E-01;  9.9999998E-03;  9.0042800E-02;4254; -2.4701290E-02;  0.0000000E+00;  6.5058237E-04;  1.0038353E+03;  1.0000000E-01;  3.1774902E+03;3;  8.8710165E-01;  0.0000000E+00; -3.2421120E-02;0;  8.8189460E-02;  4.0332840E+04;  0.0000000E+00;  3.5679076E-02;  4.0000000E+04;  0.0000000E+00;  3.9977543E+04;  8.3882257E-02;  0.0000000E+00;  4.3072058E-03;  3.1383652E+03;
  2.9125506E-01;  9.9999998E-03;  1.0005093E-01;4255; -2.4623645E-02;  0.0000000E+00;  6.2816113E-04;  1.0037571E+03;  1.0000000E-01;  3.1127019E+03;3;  8.8129288E-01;  0.0000000E+00; -4.0454302E-02;0;  8.5701667E-02;  4.0324801E+04;  0.0000000E+00;  2.9188652E-02;  4.0000000E+04;  0.0000000E+00;  3.9978953E+04;  8.1121236E-02;  0.0000000E+00;  4.5804321E-03;  2.9468132E+03;
  2.9131103E-01;  9.9999998E-03;  1.1005612E-01;4256; -2.4451971E-02;  0.0000000E+00;  6.3409220E-04;  1.0036054E+03;  1.0000000E-01;  2.9869771E+03;3;  8.7299526E-01;  0.0000000E+00; -5.2659530E-02;0;  8.3254665E-02;  4.0310562E+04;  0.0000000E+00;  3.3292878E-02;  4.0000000E+04;  0.0000000E+00;  3.9980992E+04;  7.8489766E-02;  0.0000000E+00;  4.7649033E-03;  2.6916631E+03;
  2.9136476E-01;  9.9999998E-03;  1.2005752E-01;4257; -2.4170937E-02;  0.0000000E+00;  7.0560857E-04;  1.0033796E+03;  1.0000000E-01;  2.7999207E+03;3;  8.6074740E-01;  0.0000000E+00; -8.2965985E-02;0;  8.0891199E-02;  4.0290246E+04;  0.0000000E+00;  5.7536658E-02;  4.0000000E+04;  0.0000000E+00;  3.9982957E+04;  7.6117516E-02;  0.0000000E+00;  4.7736857E-03;  2.4168091E+03;
  2.9141197E-01;  9.9999998E-03;  1.3005471E-01;4258; -2.3785049E-02;  0.0000000E+00;  8.8696607E-04;  1.0030830E+03;  1.0000000E-01;  2.5541992E+03;3;  8.4497982E-01;  0.0000000E+00; -1.2867187E-01;0;  7.8662694E-02;  4.0264121E+04;  0.0000000E+00;  1.1082704E-01;  4.0000000E+04;  0.0000000E+00;  3.9984750E+04;  7.4129686E-02;  0.0000000E+00;  4.5330054E-03;  2.1682742E+03;
  2.9144749E-01;  9.9999998E-03;  1.4004798E-01;4259; -2.3318138E-02;  0.0000000E+00;  1.1453353E-03;  1.0027194E+03;  1.0000000E-01;  2.2529731E+03;3;  8.2725382E-01;  0.0000000E+00; -1.9666697E-01;0;  7.6638900E-02;  4.0233621E+04;  0.0000000E+00;  1.9841611E-01;  4.0000000E+04;  0.0000000E+00;  3.9986246E+04;  7.2639510E-02;  0.0000000E+00;  3.9993911E-03;  1.9883613E+03;
  2.9146487E-01;  9.9999998E-03;  1.5003848E-01;4260; -2.2844130E-02;  0.0000000E+00;  1.3805864E-03;  1.0023192E+03;  1.0000000E-01;  1.9213282E+03;3;  8.1044298E-01;  0.0000000E+00; -2.5198400E-01;0;  7.4914202E-02;  4.0200328E+04;  0.0000000E+00;  3.1844884E-01;  4.0000000E+04;  0.0000000E+00;  3.9986727E+04;  7.1740128E-02;  0.0000000E+00;  3.1740721E-03;  1.9083583E+03;
  2.9145679E-01;  9.9999998E-03;  1.6002890E-01;4261; -2.2414934E-02;  0.0000000E+00;  1.5599139E-03;  1.0019044E+03;  1.0000000E-01;  1.5777330E+03;3;  7.9064864E-01;  0.0000000E+00; -3.1185231E-01;0;  7.3613688E-02;  4.0166617E+04;  0.0000000E+00;  4.5995751E-01;  4.0000000E+04;  0.0000000E+00;  3.9986777E+04;  7.1495421E-02;  0.0000000E+00;  2.1182683E-03;  1.9361403E+03;
  2.9141876E-01;  9.9999998E-03;  1.7002119E-01;4262; -2.2080828E-02;  0.0000000E+00;  1.6437704E-03;  1.0015117E+03;  1.0000000E-01;  1.2524089E+03;3;  7.7795631E-01;  0.0000000E+00; -3.5516724E-01;0;  7.2870962E-02;  4.0135422E+04;  0.0000000E+00;  6.0327697E-01;  4.0000000E+04;  0.0000000E+00;  3.9986242E+04;  7.1930230E-02;  0.0000000E+00;  9.4073411E-04;  2.0468666E+03;
  2.9134852E-01;  9.9999998E-03;  1.8001649E-01;4263; -2.1860672E-02;  0.0000000E+00;  1.6500896E-03;  1.0011763E+03;  1.0000000E-01;  9.7449091E+02;3;  7.7273738E-01;  0.0000000E+00; -3.8563025E-01;0;  7.2782107E-02;  4.0109355E+04;  0.0000000E+00;  7.1773189E-01;  4.0000000E+04;  0.0000000E+00;  3.9985371E+04;  7.3012747E-02;  0.0000000E+00; -2.3064042E-04;  2.1891152E+03;
  2.9124695E-01;  9.9999998E-03;  1.9001375E-01;4264; -2.1754339E-02;  0.0000000E+00;  1.5975323E-03;  1.0009329E+03;  1.0000000E-01;  7.7281757E+02;3;  7.6173228E-01;  0.0000000E+00; -3.8390154E-01;0;  7.3358506E-02;  4.0090730E+04;  0.0000000E+00;  7.6858163E-01;  4.0000000E+04;  0.0000000E+00;  3.9984473E+04;  7.4641936E-02;  0.0000000E+00; -1.2834328E-03;  2.3037996E+03;
  2.9112378E-01;  9.9999998E-03;  2.0001145E-01;4265; -2.1746304E-02;  0.0000000E+00;  1.5003172E-03;  1.0008022E+03;  1.0000000E-01;  6.6457373E+02;3;  7.0010644E-01;  0.0000000E+00; -3.2647941E-01;0;  7.4513733E-02;  4.0081457E+04;  0.0000000E+00;  7.2802550E-01;  4.0000000E+04;  0.0000000E+00;  3.9983773E+04;  7.6658726E-02;  0.0000000E+00; -2.1449891E-03;  2.3397893E+03;
  2.9100305E-01;  9.9999998E-03;  2.1000651E-01;4266; -2.1803804E-02;  0.0000000E+00;  1.3817482E-03;  1.0008036E+03;  1.0000000E-01;  6.6575891E+02;3;  5.4811573E-01;  0.0000000E+00; -1.5408833E-01;0;  7.6083638E-02;  4.0082395E+04;  0.0000000E+00;  5.7999414E-01;  4.0000000E+04;  0.0000000E+00;  3.9984148E+04;  7.8866258E-02;  0.0000000E+00; -2.7826224E-03;  2.2312256E+03;
  2.9089838E-01;  9.9999998E-03;  2.2000077E-01;4267; -2.1875724E-02;  0.0000000E+00;  1.2760162E-03;  1.0009432E+03;  1.0000000E-01;  7.8140991E+02;3;  2.0391233E-01;  0.0000000E+00;  1.5971537E-01;0;  7.7855110E-02;  4.0093176E+04;  0.0000000E+00;  3.2370028E-01;  4.0000000E+04;  0.0000000E+00;  3.9985906E+04;  8.1014313E-02;  0.0000000E+00; -3.1592045E-03;  1.9178784E+03;
  2.9082680E-01;  9.9999998E-03;  2.2999850E-01;4268; -2.1948695E-02;  0.0000000E+00;  1.2455139E-03;  1.0012083E+03;  1.0000000E-01;  1.0010580E+03;3; -4.6982819E-01;  0.0000000E+00;  6.5037370E-01;0;  7.9776391E-02;  4.0112695E+04;  0.0000000E+00; -2.5468068E-02;  4.0000000E+04;  0.0000000E+00;  3.9989410E+04;  8.2848504E-02;  0.0000000E+00; -3.0721149E-03;  1.4305182E+03;
  3.0104342E-01;  9.9999998E-03;  7.0025109E-02;4313; -2.4445239E-02;  0.0000000E+00;  7.1563356E-04;  1.0037371E+03;  1.0000000E-01;  3.0961096E+03;3;  9.1441357E-01;  0.0000000E+00; -1.9051963E-02;0;  1.1280873E-01;  4.0327559E+04;  0.0000000E+00;  1.1878619E-02;  4.0000000E+04;  0.0000000E+00;  3.9974871E+04;  1.0973947E-01;  0.0000000E+00;  3.0692639E-03;  3.4739202E+03;
  3.0108446E-01;  9.9999998E-03;  8.0033757E-02;4314; -2.4555961E-02;  0.0000000E+00;  6.7887572E-04;  1.0038321E+03;  1.0000000E-01;  3.1748235E+03;3;  9.0791315E-01;  0.0000000E+00; -2.3440911E-02;0;  1.1070201E-01;  4.0335875E+04;  0.0000000E+00;  1.4367654E-03;  4.0000000E+04;  0.0000000E+00;  3.9974262E+04;  1.0735469E-01;  0.0000000E+00;  3.3473156E-03;  3.5467063E+03;
  3.0112967E-01;  9.9999998E-03;  9.0043731E-02;4315; -2.4599425E-02;  0.0000000E+00;  6.3861941E-04;  1.0038840E+03;  1.0000000E-01;  3.2177854E+03;3;  9.0288085E-01;  0.0000000E+00; -2.8245680E-02;0;  1.0846462E-01;  4.0339664E+04;  0.0000000E+00; -1.2189859E-02;  4.0000000E+04;  0.0000000E+00;  3.9974695E+04;  1.0476188E-01;  0.0000000E+00;  3.7027413E-03;  3.5072478E+03;
  3.0117789E-01;  9.9999998E-03;  1.0005370E-01;4316; -2.4562482E-02;  0.0000000E+00;  6.0729106E-04;  1.0038705E+03;  1.0000000E-01;  3.2066250E+03;3;  8.9710897E-01;  0.0000000E+00; -3.7103731E-02;0;  1.0611591E-01;  4.0337660E+04;  0.0000000E+00; -2.5011972E-02;  4.0000000E+04;  0.0000000E+00;  3.9975770E+04;  1.0205253E-01;  0.0000000E+00;  4.0633753E-03;  3.3626560E+03;
  3.0122724E-01;  9.9999998E-03;  1.1006214E-01;4317; -2.4434850E-02;  0.0000000E+00;  5.9918850E-04;  1.0037834E+03;  1.0000000E-01;  3.1344297E+03;3;  8.9125204E-01;  0.0000000E+00; -4.9638879E-02;0;  1.0367620E-01;  4.0328965E+04;  0.0000000E+00; -3.0664491E-02;  4.0000000E+04;  0.0000000E+00;  3.9977477E+04;  9.9338263E-02;  0.0000000E+00;  4.3379376E-03;  3.1358447E+03;
  3.0127564E-01;  9.9999998E-03;  1.2006790E-01;4318; -2.4202552E-02;  0.0000000E+00;  6.5349793E-04;  1.0036164E+03;  1.0000000E-01;  2.9961619E+03;3;  8.7921721E-01;  0.0000000E+00; -8.4163092E-02;0;  1.0117459E-01;  4.0313465E+04;  0.0000000E+00; -2.0814741E-02;  4.0000000E+04;  0.0000000E+00;  3.9979590E+04;  9.6746065E-02;  0.0000000E+00;  4.4285278E-03;  2.8611270E+03;
  3.0132076E-01;  9.9999998E-03;  1.3007027E-01;4319; -2.3843000E-02;  0.0000000E+00;  8.6979545E-04;  1.0033661E+03;  1.0000000E-01;  2.7887605E+03;3;  8.5802835E-01;  0.0000000E+00; -1.6976267E-01;0;  9.8658368E-02;  4.0291105E+04;  0.0000000E+00;  1.3484672E-02;  4.0000000E+04;  0.0000000E+00;  3.9981645E+04;  9.4407938E-02;  0.0000000E+00;  4.2504277E-03;  2.5775811E+03;
  3.0135867E-01;  9.9999998E-03;  1.4006878E-01;4320; -2.3383984E-02;  0.0000000E+00;  1.1891001E-03;  1.0030400E+03;  1.0000000E-01;  2.5185459E+03;3;  8.3799738E-01;  0.0000000E+00; -2.3360191E-01;0;  9.6202768E-02;  4.0262531E+04;  0.0000000E+00;  7.9440624E-02;  4.0000000E+04;  0.0000000E+00;  3.9983434E+04;  9.2451073E-02;  0.0000000E+00;  3.7516947E-03;  2.3240505E+03;
  3.0138421E-01;  9.9999998E-03;  1.5006344E-01;4321; -2.2903053E-02;  0.0000000E+00;  1.4684609E-03;  1.0026577E+03;  1.0000000E-01;  2.2018142E+03;3;  8.1264627E-01;  0.0000000E+00; -3.1600076E-01;0;  9.3919083E-02;  4.0230098E+04;  0.0000000E+00;  1.7940089E-01;  4.0000000E+04;  0.0000000E+00;  3.9984863E+04;  9.0989277E-02;  0.0000000E+00;  2.9298088E-03;  2.1350688E+03;
  3.0139154E-01;  9.9999998E-03;  1.6005604E-01;4322; -2.2462713E-02;  0.0000000E+00;  1.6754187E-03;  1.0022357E+03;  1.0000000E-01;  1.8521943E+03;3;  7.9147547E-01;  0.0000000E+00; -3.7513566E-01;0;  9.1960140E-02;  4.0195363E+04;  0.0000000E+00;  3.0829465E-01;  4.0000000E+04;  0.0000000E+00;  3.9985719E+04;  9.0111278E-02;  0.0000000E+00;  1.8488638E-03;  2.0353656E+03;
  3.0137584E-01;  9.9999998E-03;  1.7004888E-01;4323; -2.2105454E-02;  0.0000000E+00;  1.7939612E-03;  1.0018154E+03;  1.0000000E-01;  1.5040562E+03;3;  7.7775764E-01;  0.0000000E+00; -4.2098063E-01;0;  9.0495028E-02;  4.0161133E+04;  0.0000000E+00;  4.5316991E-01;  4.0000000E+04;  0.0000000E+00;  3.9985820E+04;  8.9867763E-02;  0.0000000E+00;  6.2726118E-04;  2.0293217E+03;
  3.0133516E-01;  9.9999998E-03;  1.8004286E-01;4324; -2.1854622E-02;  0.0000000E+00;  1.8206860E-03;  1.0014304E+03;  1.0000000E-01;  1.1850529E+03;3;  7.7249718E-01;  0.0000000E+00; -4.5317295E-01;0;  8.9663856E-02;  4.0130027E+04;  0.0000000E+00;  5.9236616E-01;  4.0000000E+04;  0.0000000E+00;  3.9985762E+04;  9.0259567E-02;  0.0000000E+00; -5.9571350E-04;  2.0936406E+03;
  3.0126971E-01;  9.9999998E-03;  1.9003820E-01;4325; -2.1713244E-02;  0.0000000E+00;  1.7735815E-03;  1.0011116E+03;  1.0000000E-01;  9.2096155E+02;3;  7.7143961E-01;  0.0000000E+00; -4.7180909E-01;0;  8.9531355E-02;  4.0105117E+04;  0.0000000E+00;  6.9331551E-01;  4.0000000E+04;  0.0000000E+00;  3.9985203E+04;  9.1225617E-02;  0.0000000E+00; -1.6942610E-03;  2.1806155E+03;
  3.0117893E-01;  9.9999998E-03;  2.0003477E-01;4326; -2.1664012E-02;  0.0000000E+00;  1.6677273E-03;  1.0008903E+03;  1.0000000E-01;  7.3765808E+02;3;  7.5356990E-01;  0.0000000E+00; -4.7589108E-01;0;  9.0052456E-02;  4.0088301E+04;  0.0000000E+00;  7.2194362E-01;  4.0000000E+04;  0.0000000E+00;  3.9984770E+04;  9.2634469E-02;  0.0000000E+00; -2.5820113E-03;  2.2361392E+03;
  3.0107725E-01;  9.9999998E-03;  2.1002944E-01;4327; -2.1658201E-02;  0.0000000E+00;  1.5144653E-03;  1.0007886E+03;  1.0000000E-01;  6.5331482E+02;3;  7.1376282E-01;  0.0000000E+00; -4.2032281E-01;0;  9.1088273E-02;  4.0081047E+04;  0.0000000E+00;  6.5230191E-01;  4.0000000E+04;  0.0000000E+00;  3.9984605E+04;  9.4317511E-02;  0.0000000E+00; -3.2292409E-03;  2.1899810E+03;
  3.0098087E-01;  9.9999998E-03;  2.2002244E-01;4328; -2.1622848E-02;  0.0000000E+00;  1.3712564E-03;  1.0008217E+03;  1.0000000E-01;  6.8077081E+02;3;  5.4780859E-01;  0.0000000E+00; -2.8257644E-01;0;  9.2489503E-02;  4.0083664E+04;  0.0000000E+00;  4.7243884E-01;  4.0000000E+04;  0.0000000E+00;  3.9986078E+04;  9.6072204E-02;  0.0000000E+00; -3.5827039E-03;  1.9628362E+03;
  3.0090162E-01;  9.9999998E-03;  2.3001806E-01;4329; -2.1548500E-02;  0.0000000E+00;  1.3104799E-03;  1.0009864E+03;  1.0000000E-01;  8.1716199E+02;3;  1.7742163E-01;  0.0000000E+00; -3.9868411E-02;0;  9.4279416E-02;  4.0095828E+04;  0.0000000E+00;  1.8708955E-01;  4.0000000E+04;  0.0000000E+00;  3.9988461E+04;  9.7682461E-02;  0.0000000E+00; -3.4030417E-03;  1.5558835E+03;
  3.1099978E-01;  9.9999998E-03;  7.0024513E-02;4374; -2.4007570E-02;  0.0000000E+00;  6.4843113E-04;  1.0035146E+03;  1.0000000E-01;  2.9118186E+03;3;  9.5018667E-01;  0.0000000E+00;  1.0907731E-02;0;  1.2808408E-01;  4.0311418E+04;  0.0000000E+00; -2.0154823E-02;  4.0000000E+04;  0.0000000E+00;  3.9972918E+04;  1.2600492E-01;  0.0000000E+00;  2.0791581E-03;  3.6919673E+03;
  3.1103182E-01;  9.9999998E-03;  8.0032006E-02;4375; -2.4200855E-02;  0.0000000E+00;  6.2284002E-04;  1.0036700E+03;  1.0000000E-01;  3.0406052E+03;3;  9.3391031E-01;  0.0000000E+00; -3.5950207E-04;0;  1.2661175E-01;  4.0325051E+04;  0.0000000E+00; -3.4594715E-02;  4.0000000E+04;  0.0000000E+00;  3.9972094E+04;  1.2419217E-01;  0.0000000E+00;  2.4195907E-03;  3.8118472E+03;
  3.1106803E-01;  9.9999998E-03;  9.0041377E-02;4376; -2.4306796E-02;  0.0000000E+00;  5.8780576E-04;  1.0037829E+03;  1.0000000E-01;  3.1340347E+03;3;  9.2197889E-01;  0.0000000E+00; -8.8585373E-03;0;  1.2491725E-01;  4.0334520E+04;  0.0000000E+00; -5.2199427E-02;  4.0000000E+04;  0.0000000E+00;  3.9972055E+04;  1.2206986E-01;  0.0000000E+00;  2.8473982E-03;  3.8283547E+03;
  3.1110716E-01;  9.9999998E-03;  1.0005189E-01;4377; -2.4326902E-02;  0.0000000E+00;  5.5651390E-04;  1.0038383E+03;  1.0000000E-01;  3.1799592E+03;3;  9.1592449E-01;  0.0000000E+00; -2.3092493E-02;0;  1.2298315E-01;  4.0338379E+04;  0.0000000E+00; -7.0360012E-02;  4.0000000E+04;  0.0000000E+00;  3.9972691E+04;  1.1969557E-01;  0.0000000E+00;  3.2875806E-03;  3.7391860E+03;
  3.1114814E-01;  9.9999998E-03;  1.1006236E-01;4378; -2.4251489E-02;  0.0000000E+00;  5.4543791E-04;  1.0038215E+03;  1.0000000E-01;  3.1660337E+03;3;  9.1081917E-01;  0.0000000E+00; -3.9630637E-02;0;  1.2080143E-01;  4.0335594E+04;  0.0000000E+00; -8.4459871E-02;  4.0000000E+04;  0.0000000E+00;  3.9974227E+04;  1.1715800E-01;  0.0000000E+00;  3.6434201E-03;  3.5567568E+03;
  3.1118968E-01;  9.9999998E-03;  1.2007169E-01;4379; -2.4070034E-02;  0.0000000E+00;  5.9282198E-04;  1.0037197E+03;  1.0000000E-01;  3.0816904E+03;3;  8.9695925E-01;  0.0000000E+00; -7.6344728E-02;0;  1.1837838E-01;  4.0325398E+04;  0.0000000E+00; -8.7793879E-02;  4.0000000E+04;  0.0000000E+00;  3.9976117E+04;  1.1456878E-01;  0.0000000E+00;  3.8096022E-03;  3.3051797E+03;
  3.1123054E-01;  9.9999998E-03;  1.3007899E-01;4380; -2.3736984E-02;  0.0000000E+00;  8.6320785E-04;  1.0035289E+03;  1.0000000E-01;  2.9236702E+03;3;  8.6819845E-01;  0.0000000E+00; -1.8768078E-01;0;  1.1574896E-01;  4.0307934E+04;  0.0000000E+00; -7.2230645E-02;  4.0000000E+04;  0.0000000E+00;  3.9978352E+04;  1.1205471E-01;  0.0000000E+00;  3.6942614E-03;  3.0156433E+03;
  3.1126747E-01;  9.9999998E-03;  1.4008290E-01;4381; -2.3284972E-02;  0.0000000E+00;  1.2466141E-03;  1.0032540E+03;  1.0000000E-01;  2.6958247E+03;3;  8.3637989E-01;  0.0000000E+00; -2.9501489E-01;0;  1.1299007E-01;  4.0283566E+04;  0.0000000E+00; -2.9843951E-02;  4.0000000E+04;  0.0000000E+00;  3.9980473E+04;  1.0974776E-01;  0.0000000E+00;  3.2423153E-03;  2.7218477E+03;
  3.1129643E-01;  9.9999998E-03;  1.5008244E-01;4382; -2.2813002E-02;  0.0000000E+00;  1.5729233E-03;  1.0029105E+03;  1.0000000E-01;  2.4112896E+03;3;  8.0138886E-01;  0.0000000E+00; -3.9142948E-01;0;  1.1022861E-01;  4.0253738E+04;  0.0000000E+00;  4.4499189E-02;  4.0000000E+04;  0.0000000E+00;  3.9982301E+04;  1.0777621E-01;  0.0000000E+00;  2.4523961E-03;  2.4563850E+03;
  3.1131351E-01;  9.9999998E-03;  1.6007853E-01;4383; -2.2379141E-02;  0.0000000E+00;  1.7969923E-03;  1.0025166E+03;  1.0000000E-01;  2.0849780E+03;3;  7.7018481E-01;  0.0000000E+00; -4.7092849E-01;0;  1.0764115E-01;  4.0220297E+04;  0.0000000E+00;  1.5054008E-01;  4.0000000E+04;  0.0000000E+00;  3.9983766E+04;  1.0624957E-01;  0.0000000E+00;  1.3915718E-03;  2.2492427E+03;
  3.1131384E-01;  9.9999998E-03;  1.7007345E-01;4384; -2.2020662E-02;  0.0000000E+00;  1.9233488E-03;  1.0020958E+03;  1.0000000E-01;  1.7363458E+03;3;  7.4870867E-01;  0.0000000E+00; -5.3147078E-01;0;  1.0542478E-01;  4.0185539E+04;  0.0000000E+00;  2.8114307E-01;  4.0000000E+04;  0.0000000E+00;  3.9984781E+04;  1.0524017E-01;  0.0000000E+00;  1.8460111E-04;  2.1222485E+03;
  3.1129491E-01;  9.9999998E-03;  1.8006855E-01;4385; -2.1749483E-02;  0.0000000E+00;  1.9599702E-03;  1.0016889E+03;  1.0000000E-01;  1.3992689E+03;3;  7.3462462E-01;  0.0000000E+00; -5.7916188E-01;0;  1.0375529E-01;  4.0152293E+04;  0.0000000E+00;  4.2222771E-01;  4.0000000E+04;  0.0000000E+00;  3.9985242E+04;  1.0477541E-01;  0.0000000E+00; -1.0201215E-03;  2.0803491E+03;
  3.1125718E-01;  9.9999998E-03;  1.9006398E-01;4386; -2.1560751E-02;  0.0000000E+00;  1.9245769E-03;  1.0013274E+03;  1.0000000E-01;  1.0997219E+03;3;  7.3108649E-01;  0.0000000E+00; -6.1456096E-01;0;  1.0274635E-01;  4.0123305E+04;  0.0000000E+00;  5.5065274E-01;  4.0000000E+04;  0.0000000E+00;  3.9985285E+04;  1.0482981E-01;  0.0000000E+00; -2.0834550E-03;  2.1049055E+03;
  3.1120104E-01;  9.9999998E-03;  2.0006017E-01;4387; -2.1389415E-02;  0.0000000E+00;  1.8322561E-03;  1.0010417E+03;  1.0000000E-01;  8.6308661E+02;3;  7.6649094E-01;  0.0000000E+00; -6.4322919E-01;0;  1.0241985E-01;  4.0100867E+04;  0.0000000E+00;  6.3456756E-01;  4.0000000E+04;  0.0000000E+00;  3.9985113E+04;  1.0531791E-01;  0.0000000E+00; -2.8980563E-03;  2.1564666E+03;
  3.1112880E-01;  9.9999998E-03;  2.1005541E-01;4388; -2.1034515E-02;  0.0000000E+00;  1.7006972E-03;  1.0008547E+03;  1.0000000E-01;  7.0812805E+02;3;  8.4243900E-01;  0.0000000E+00; -6.5179408E-01;0;  1.0271271E-01;  4.0086680E+04;  0.0000000E+00;  6.4335954E-01;  4.0000000E+04;  0.0000000E+00;  3.9984832E+04;  1.0610586E-01;  0.0000000E+00; -3.3931462E-03;  2.1746794E+03;
  3.1105167E-01;  9.9999998E-03;  2.2004835E-01;4389; -2.0480653E-02;  0.0000000E+00;  1.5872597E-03;  1.0007869E+03;  1.0000000E-01;  6.5193213E+02;3;  9.1482741E-01;  0.0000000E+00; -6.2076414E-01;0;  1.0359791E-01;  4.0081812E+04;  0.0000000E+00;  5.5631095E-01;  4.0000000E+04;  0.0000000E+00;  3.9985406E+04;  1.0704842E-01;  0.0000000E+00; -3.4505094E-03;  2.0714470E+03;
  3.1097975E-01;  9.9999998E-03;  2.3004173E-01;4390; -1.9771256E-02;  0.0000000E+00;  1.5475632E-03;  1.0008448E+03;  1.0000000E-01;  6.9993079E+02;3;  9.3714309E-01;  0.0000000E+00; -5.4438007E-01;0;  1.0521852E-01;  4.0086059E+04;  0.0000000E+00;  3.6667293E-01;  4.0000000E+04;  0.0000000E+00;  3.9987129E+04;  1.0800095E-01;  0.0000000E+00; -2.7824268E-03;  1.7944119E+03;
  3.2096848E-01;  9.9999998E-03;  7.0021041E-02;4435; -2.2313837E-02;  0.0000000E+00;  3.6453435E-04;  1.0031967E+03;  1.0000000E-01;  2.6484187E+03;3;  1.2436467E+00;  0.0000000E+00;  9.5527492E-02;0;  1.3722402E-01;  4.0287367E+04;  0.0000000E+00; -3.8877118E-02;  4.0000000E+04;  0.0000000E+00;  3.9971395E+04;  1.3635916E-01;  0.0000000E+00;  8.6485985E-04;  3.8541409E+03;
  3.2098952E-01;  9.9999998E-03;  8.0027312E-02;4436; -2.3075311E-02;  0.0000000E+00;  3.9239164E-04;  1.0034001E+03;  1.0000000E-01;  2.8169077E+03;3;  1.0684550E+00;  0.0000000E+00;  7.3592469E-02;0;  1.3666189E-01;  4.0305148E+04;  0.0000000E+00; -5.6297388E-02;  4.0000000E+04;  0.0000000E+00;  3.9970309E+04;  1.3540073E-01;  0.0000000E+00;  1.2611593E-03;  4.0141057E+03;
  3.2101461E-01;  9.9999998E-03;  9.0035655E-02;4437; -2.3495030E-02;  0.0000000E+00;  4.0552058E-04;  1.0035658E+03;  1.0000000E-01;  2.9541877E+03;3;  9.9426490E-01;  0.0000000E+00;  4.1363262E-02;0;  1.3579671E-01;  4.0319227E+04;  0.0000000E+00; -7.7144451E-02;  4.0000000E+04;  0.0000000E+00;  3.9969922E+04;  1.3404612E-01;  0.0000000E+00;  1.7505890E-03;  4.0832263E+03;
  3.2104310E-01;  9.9999998E-03;  1.0004590E-01;4438; -2.3703828E-02;  0.0000000E+00;  4.1149679E-04;  1.0036797E+03;  1.0000000E-01;  3.0486050E+03;3;  9.5916939E-01;  0.0000000E+00;  1.9375838E-02;0;  1.3456412E-01;  4.0328262E+04;  0.0000000E+00; -9.9846750E-02;  4.0000000E+04;  0.0000000E+00;  3.9970180E+04;  1.3230669E-01;  0.0000000E+00;  2.2574249E-03;  4.0520452E+03;
  3.2107466E-01;  9.9999998E-03;  1.1005732E-01;4439; -2.3758424E-02;  0.0000000E+00;  4.4124405E-04;  1.0037211E+03;  1.0000000E-01;  3.0828755E+03;3;  9.4002849E-01;  0.0000000E+00; -1.2096968E-02;0;  1.3291448E-01;  4.0330867E+04;  0.0000000E+00; -1.2122435E-01;  4.0000000E+04;  0.0000000E+00;  3.9971273E+04;  1.3023193E-01;  0.0000000E+00;  2.6825492E-03;  3.9234363E+03;
  3.2110846E-01;  9.9999998E-03;  1.2006928E-01;4440; -2.3664875E-02;  0.0000000E+00;  5.4830976E-04;  1.0036854E+03;  1.0000000E-01;  3.0532468E+03;3;  9.2154711E-01;  0.0000000E+00; -5.8846146E-02;0;  1.3082176E-01;  4.0326438E+04;  0.0000000E+00; -1.3612373E-01;  4.0000000E+04;  0.0000000E+00;  3.9972961E+04;  1.2790412E-01;  0.0000000E+00;  2.9176448E-03;  3.7116113E+03;
  3.2114369E-01;  9.9999998E-03;  1.3008082E-01;4441; -2.3344016E-02;  0.0000000E+00;  9.6705341E-04;  1.0035633E+03;  1.0000000E-01;  2.9521138E+03;3;  8.7198758E-01;  0.0000000E+00; -2.3164037E-01;0;  1.2830140E-01;  4.0314457E+04;  0.0000000E+00; -1.3753532E-01;  4.0000000E+04;  0.0000000E+00;  3.9975141E+04;  1.2543316E-01;  0.0000000E+00;  2.8682346E-03;  3.4393999E+03;
  3.2117739E-01;  9.9999998E-03;  1.4008924E-01;4442; -2.2906315E-02;  0.0000000E+00;  1.4113262E-03;  1.0033563E+03;  1.0000000E-01;  2.7806619E+03;3;  8.0842185E-01;  0.0000000E+00; -4.0625888E-01;0;  1.2542588E-01;  4.0295176E+04;  0.0000000E+00; -1.1760665E-01;  4.0000000E+04;  0.0000000E+00;  3.9977324E+04;  1.2294516E-01;  0.0000000E+00;  2.4807143E-03;  3.1345049E+03;
  3.2120648E-01;  9.9999998E-03;  1.5009330E-01;4443; -2.2486415E-02;  0.0000000E+00;  1.7063413E-03;  1.0030674E+03;  1.0000000E-01;  2.5413601E+03;3;  7.4591905E-01;  0.0000000E+00; -5.4633981E-01;0;  1.2233141E-01;  4.0269652E+04;  0.0000000E+00; -6.9618866E-02;  4.0000000E+04;  0.0000000E+00;  3.9979547E+04;  1.2057418E-01;  0.0000000E+00;  1.7572381E-03;  2.8261440E+03;
  3.2122830E-01;  9.9999998E-03;  1.6009343E-01;4444; -2.2120507E-02;  0.0000000E+00;  1.8663229E-03;  1.0027167E+03;  1.0000000E-01;  2.2507017E+03;3;  6.9656563E-01;  0.0000000E+00; -6.5525001E-01;0;  1.1920794E-01;  4.0239332E+04;  0.0000000E+00;  9.6808420E-03;  4.0000000E+04;  0.0000000E+00;  3.9981559E+04;  1.1844107E-01;  0.0000000E+00;  7.6687388E-04;  2.5445015E+03;
  3.2123980E-01;  9.9999998E-03;  1.7009135E-01;4445; -2.1812089E-02;  0.0000000E+00;  1.9347887E-03;  1.0023280E+03;  1.0000000E-01;  1.9287355E+03;3;  6.5471661E-01;  0.0000000E+00; -7.4486250E-01;0;  1.1626834E-01;  4.0206422E+04;  0.0000000E+00;  1.1798587E-01;  4.0000000E+04;  0.0000000E+00;  3.9983133E+04;  1.1663442E-01;  0.0000000E+00; -3.6608594E-04;  2.3181245E+03;
  3.2123864E-01;  9.9999998E-03;  1.8008868E-01;4446; -2.1547100E-02;  0.0000000E+00;  1.9344365E-03;  1.0019305E+03;  1.0000000E-01;  1.5994608E+03;3;  6.3480467E-01;  0.0000000E+00; -8.0792004E-01;0;  1.1370789E-01;  4.0173277E+04;  0.0000000E+00;  2.4633752E-01;  4.0000000E+04;  0.0000000E+00;  3.9984125E+04;  1.1520205E-01;  0.0000000E+00; -1.4941596E-03;  2.1685911E+03;
  3.2122272E-01;  9.9999998E-03;  1.9008607E-01;4447; -2.1220244E-02;  0.0000000E+00;  1.8720287E-03;  1.0015547E+03;  1.0000000E-01;  1.2880623E+03;3;  6.9299382E-01;  0.0000000E+00; -8.8174939E-01;0;  1.1166368E-01;  4.0142520E+04;  0.0000000E+00;  3.7968585E-01;  4.0000000E+04;  0.0000000E+00;  3.9984824E+04;  1.1414249E-01;  0.0000000E+00; -2.4788131E-03;  2.1049502E+03;
  3.2119444E-01;  9.9999998E-03;  2.0008366E-01;4448; -2.0230209E-02;  0.0000000E+00;  1.8034816E-03;  1.0012287E+03;  1.0000000E-01;  1.0179465E+03;3;  1.0135865E+00;  0.0000000E+00; -9.2068011E-01;0;  1.1022060E-01;  4.0116707E+04;  0.0000000E+00;  4.9509779E-01;  4.0000000E+04;  0.0000000E+00;  3.9984961E+04;  1.1340347E-01;  0.0000000E+00; -3.1828668E-03;  2.1181094E+03;
  3.2115796E-01;  9.9999998E-03;  2.1008037E-01;4449; -1.8135231E-02;  0.0000000E+00;  1.7678358E-03;  1.0009818E+03;  1.0000000E-01;  8.1340906E+02;3;  1.7357924E+00;  0.0000000E+00; -9.6432763E-01;0;  1.0947575E-01;  4.0097441E+04;  0.0000000E+00;  5.6417161E-01;  4.0000000E+04;  0.0000000E+00;  3.9984430E+04;  1.1291185E-01;  0.0000000E+00; -3.4361023E-03;  2.1718279E+03;
  3.2111385E-01;  9.9999998E-03;  2.2007385E-01;4450; -1.5382751E-02;  0.0000000E+00;  1.6174627E-03;  1.0008302E+03;  1.0000000E-01;  6.8778296E+02;3;  2.5256550E+00;  0.0000000E+00; -1.0252969E+00;0;  1.0931072E-01;  4.0086277E+04;  0.0000000E+00;  5.6207514E-01;  4.0000000E+04;  0.0000000E+00;  3.9984352E+04;  1.1261381E-01;  0.0000000E+00; -3.3030899E-03;  2.1772119E+03;
  3.2106271E-01;  9.9999998E-03;  2.3006541E-01;4451; -1.2682832E-02;  0.0000000E+00;  1.3917143E-03;  1.0007911E+03;  1.0000000E-01;  6.5548761E+02;3;  3.1534643E+00;  0.0000000E+00; -1.0870868E+00;0;  1.0961721E-01;  4.0083582E+04;  0.0000000E+00;  4.7354716E-01;  4.0000000E+04;  0.0000000E+00;  3.9985344E+04;  1.1247205E-01;  0.0000000E+00; -2.8548378E-03;  2.0356694E+03;
  3.3095726E-01;  9.9999998E-03;  7.0016421E-02;4496; -1.1443356E-02;  0.0000000E+00; -4.5177835E-04;  1.0028204E+03;  1.0000000E-01;  2.3367239E+03;3;  5.3525391E+00;  0.0000000E+00; -2.1473961E-01;0;  1.3914104E-01;  4.0258457E+04;  0.0000000E+00; -4.1804936E-02;  4.0000000E+04;  0.0000000E+00;  3.9970359E+04;  1.3966843E-01;  0.0000000E+00; -5.2739884E-04;  3.9549158E+03;
  3.3096558E-01;  9.9999998E-03;  8.0021091E-02;4497; -1.4171937E-02;  0.0000000E+00; -4.2648337E-04;  1.0030529E+03;  1.0000000E-01;  2.5293110E+03;3;  4.2854791E+00;  0.0000000E+00; -1.6473240E-01;0;  1.3963893E-01;  4.0278512E+04;  0.0000000E+00; -6.0512945E-02;  4.0000000E+04;  0.0000000E+00;  3.9969043E+04;  1.3972569E-01;  0.0000000E+00; -8.6758642E-05;  4.1450264E+03;
  3.3097640E-01;  9.9999998E-03;  9.0028003E-02;4498; -1.7244693E-02;  0.0000000E+00; -3.0519825E-04;  1.0032556E+03;  1.0000000E-01;  2.6972075E+03;3;  3.1336474E+00;  0.0000000E+00; -1.0748503E-01;0;  1.3975973E-01;  4.0295926E+04;  0.0000000E+00; -8.3395943E-02;  4.0000000E+04;  0.0000000E+00;  3.9968230E+04;  1.3931321E-01;  0.0000000E+00;  4.4653073E-04;  4.2589961E+03;
  3.3099103E-01;  9.9999998E-03;  1.0003738E-01;4499; -1.9988215E-02;  0.0000000E+00; -2.5178048E-05;  1.0034156E+03;  1.0000000E-01;  2.8298457E+03;3;  1.9980593E+00;  0.0000000E+00; -5.5236433E-04;0;  1.3940825E-01;  4.0309055E+04;  0.0000000E+00; -1.0956734E-01;  4.0000000E+04;  0.0000000E+00;  3.9968219E+04;  1.3840961E-01;  0.0000000E+00;  9.9863112E-04;  4.2821538E+03;
  3.3101082E-01;  9.9999998E-03;  1.1004882E-01;4500; -2.1634554E-02;  0.0000000E+00;  3.1179402E-04;  1.0035135E+03;  1.0000000E-01;  2.9109297E+03;3;  1.2918471E+00;  0.0000000E+00;  8.9604914E-02;0;  1.3850698E-01;  4.0316305E+04;  0.0000000E+00; -1.3685361E-01;  4.0000000E+04;  0.0000000E+00;  3.9968789E+04;  1.3703102E-01;  0.0000000E+00;  1.4759557E-03;  4.2096279E+03;
  3.3103526E-01;  9.9999998E-03;  1.2006218E-01;4501; -2.2228219E-02;  0.0000000E+00;  7.2872691E-04;  1.0035360E+03;  1.0000000E-01;  2.9294971E+03;3;  1.0587888E+00;  0.0000000E+00; -1.1221641E-02;0;  1.3698560E-01;  4.0317074E+04;  0.0000000E+00; -1.6129811E-01;  4.0000000E+04;  0.0000000E+00;  3.9970062E+04;  1.3521208E-01;  0.0000000E+00;  1.7735197E-03;  4.0466882E+03;
  3.3106324E-01;  9.9999998E-03;  1.3007686E-01;4502; -2.2084717E-02;  0.0000000E+00;  1.4260289E-03;  1.0034777E+03;  1.0000000E-01;  2.8812021E+03;3;  8.8187343E-01;  0.0000000E+00; -5.1716155E-01;0;  1.3482139E-01;  4.0310500E+04;  0.0000000E+00; -1.7696394E-01;  4.0000000E+04;  0.0000000E+00;  3.9971953E+04;  1.3302262E-01;  0.0000000E+00;  1.7987586E-03;  3.8077512E+03;
  3.3109182E-01;  9.9999998E-03;  1.4008801E-01;4503; -2.1953046E-02;  0.0000000E+00;  1.5802452E-03;  1.0033365E+03;  1.0000000E-01;  2.7641685E+03;3;  6.8651718E-01;  0.0000000E+00; -8.0356514E-01;0;  1.3206358E-01;  4.0296785E+04;  0.0000000E+00; -1.7645389E-01;  4.0000000E+04;  0.0000000E+00;  3.9974230E+04;  1.3056432E-01;  0.0000000E+00;  1.4992724E-03;  3.5141714E+03;
  3.3111864E-01;  9.9999998E-03;  1.5009494E-01;4504; -2.1832615E-02;  0.0000000E+00;  1.5953002E-03;  1.0031128E+03;  1.0000000E-01;  2.5788899E+03;3;  5.9705627E-01;  0.0000000E+00; -9.2418069E-01;0;  1.2884492E-01;  4.0276355E+04;  0.0000000E+00; -1.5231588E-01;  4.0000000E+04;  0.0000000E+00;  3.9976637E+04;  1.2796427E-01;  0.0000000E+00;  8.8064681E-04;  3.1909165E+03;
  3.3114240E-01;  9.9999998E-03;  1.6009828E-01;4505; -2.1666063E-02;  0.0000000E+00;  1.5581625E-03;  1.0028220E+03;  1.0000000E-01;  2.3379089E+03;3;  5.6713778E-01;  0.0000000E+00; -1.0031029E+00;0;  1.2534891E-01;  4.0250484E+04;  0.0000000E+00; -9.9050991E-02;  4.0000000E+04;  0.0000000E+00;  3.9979133E+04;  1.2533920E-01;  0.0000000E+00;  9.7136763E-06;  2.8663088E+03;
  3.3116087E-01;  9.9999998E-03;  1.7009936E-01;4506; -2.1408584E-02;  0.0000000E+00;  1.4703242E-03;  1.0024823E+03;  1.0000000E-01;  2.0565342E+03;3;  6.2806457E-01;  0.0000000E+00; -1.1023041E+00;0;  1.2177607E-01;  4.0220980E+04;  0.0000000E+00; -1.5358621E-02;  4.0000000E+04;  0.0000000E+00;  3.9981090E+04;  1.2278042E-01;  0.0000000E+00; -1.0043429E-03;  2.5701997E+03;
  3.3117294E-01;  9.9999998E-03;  1.8009938E-01;4507; -2.0714698E-02;  0.0000000E+00;  1.3249386E-03;  1.0021147E+03;  1.0000000E-01;  1.7520491E+03;3;  9.0784949E-01;  0.0000000E+00; -1.1829972E+00;0;  1.1830126E-01;  4.0189895E+04;  0.0000000E+00;  9.4024040E-02;  4.0000000E+04;  0.0000000E+00;  3.9982797E+04;  1.2034398E-01;  0.0000000E+00; -2.0427248E-03;  2.3309028E+03;
  3.3117884E-01;  9.9999998E-03;  1.9009919E-01;4508; -1.8687511E-02;  0.0000000E+00;  1.1927624E-03;  1.0017524E+03;  1.0000000E-01;  1.4519094E+03;3;  1.7238970E+00;  0.0000000E+00; -1.2422040E+00;0;  1.1505124E-01;  4.0159809E+04;  0.0000000E+00;  2.1820819E-01;  4.0000000E+04;  0.0000000E+00;  3.9983941E+04;  1.1804007E-01;  0.0000000E+00; -2.9888293E-03;  2.1730818E+03;
  3.3117858E-01;  9.9999998E-03;  2.0009938E-01;4509; -1.5278637E-02;  0.0000000E+00;  1.0195302E-03;  1.0014220E+03;  1.0000000E-01;  1.1781394E+03;3;  2.7524729E+00;  0.0000000E+00; -1.3077847E+00;0;  1.1209897E-01;  4.0132703E+04;  0.0000000E+00;  3.4163305E-01;  4.0000000E+04;  0.0000000E+00;  3.9984547E+04;  1.1587490E-01;  0.0000000E+00; -3.7759331E-03;  2.1160273E+03;
  3.3117214E-01;  9.9999998E-03;  2.1009840E-01;4510; -1.1885688E-02;  0.0000000E+00;  7.6705636E-04;  1.0011406E+03;  1.0000000E-01;  9.4496088E+02;3;  3.5574551E+00;  0.0000000E+00; -1.3597392E+00;0;  1.0946238E-01;  4.0110758E+04;  0.0000000E+00;  4.4378573E-01;  4.0000000E+04;  0.0000000E+00;  3.9984285E+04;  1.1389626E-01;  0.0000000E+00; -4.4338806E-03;  2.1540676E+03;
  3.3115917E-01;  9.9999998E-03;  2.2009340E-01;4511; -9.8494086E-03;  0.0000000E+00;  3.6958329E-04;  1.0009341E+03;  1.0000000E-01;  7.7390399E+02;3;  3.8335838E+00;  0.0000000E+00; -1.4428104E+00;0;  1.0691998E-01;  4.0095145E+04;  0.0000000E+00;  5.0205088E-01;  4.0000000E+04;  0.0000000E+00;  3.9983848E+04;  1.1215725E-01;  0.0000000E+00; -5.2372687E-03;  2.2140422E+03;
  3.3113348E-01;  9.9999998E-03;  2.3008409E-01;4512; -8.8679893E-03;  0.0000000E+00; -1.1934000E-05;  1.0008213E+03;  1.0000000E-01;  6.8037579E+02;3;  3.7595084E+00;  0.0000000E+00; -1.4872662E+00;0;  1.0440457E-01;  4.0086645E+04;  0.0000000E+00;  4.9860811E-01;  4.0000000E+04;  0.0000000E+00;  3.9984445E+04;  1.1066712E-01;  0.0000000E+00; -6.2625539E-03;  2.1598013E+03;
  3.4094110E-01;  9.9999998E-03;  7.0013657E-02;4557; -7.2306516E-03;  0.0000000E+00; -5.7953427E-04;  1.0024211E+03;  1.0000000E-01;  2.0058690E+03;3;  6.7154756E+00;  0.0000000E+00; -7.5329483E-01;0;  1.3325253E-01;  4.0226660E+04;  0.0000000E+00; -3.0833511E-02;  4.0000000E+04;  0.0000000E+00;  3.9969812E+04;  1.3530616E-01;  0.0000000E+00; -2.0536340E-03;  3.9936072E+03;
  3.4094280E-01;  9.9999998E-03;  8.0016933E-02;4558; -7.3442273E-03;  0.0000000E+00; -7.1066467E-04;  1.0026609E+03;  1.0000000E-01;  2.2045793E+03;3;  6.5307827E+00;  0.0000000E+00; -8.5668659E-01;0;  1.3489620E-01;  4.0247656E+04;  0.0000000E+00; -4.8551738E-02;  4.0000000E+04;  0.0000000E+00;  3.9968273E+04;  1.3647896E-01;  0.0000000E+00; -1.5827589E-03;  4.2019360E+03;
  3.4094769E-01;  9.9999998E-03;  9.0022199E-02;4559; -7.5749177E-03;  0.0000000E+00; -8.2791405E-04;  1.0028844E+03;  1.0000000E-01;  2.3896606E+03;3;  6.2912583E+00;  0.0000000E+00; -9.3793178E-01;0;  1.3615867E-01;  4.0266695E+04;  0.0000000E+00; -7.1535327E-02;  4.0000000E+04;  0.0000000E+00;  3.9967207E+04;  1.3717787E-01;  0.0000000E+00; -1.0192011E-03;  4.3493491E+03;
  3.4095618E-01;  9.9999998E-03;  1.0002970E-01;4560; -8.0433805E-03;  0.0000000E+00; -9.1215328E-04;  1.0030702E+03;  1.0000000E-01;  2.5436316E+03;3;  5.9755630E+00;  0.0000000E+00; -9.7830063E-01;0;  1.3686574E-01;  4.0282387E+04;  0.0000000E+00; -9.9383250E-02;  4.0000000E+04;  0.0000000E+00;  3.9966777E+04;  1.3729820E-01;  0.0000000E+00; -4.3246412E-04;  4.4180635E+03;
  3.4096831E-01;  9.9999998E-03;  1.1003941E-01;4561; -9.1222785E-03;  0.0000000E+00; -8.6474023E-04;  1.0032070E+03;  1.0000000E-01;  2.6569124E+03;3;  5.5402417E+00;  0.0000000E+00; -9.5876813E-01;0;  1.3686007E-01;  4.0293250E+04;  0.0000000E+00; -1.3056390E-01;  4.0000000E+04;  0.0000000E+00;  3.9967078E+04;  1.3677408E-01;  0.0000000E+00;  8.6000946E-05;  4.3972949E+03;
  3.4098354E-01;  9.9999998E-03;  1.2005114E-01;4562; -1.1040692E-02;  0.0000000E+00; -5.7617627E-04;  1.0032801E+03;  1.0000000E-01;  2.7174539E+03;3;  4.7487516E+00;  0.0000000E+00; -8.3652902E-01;0;  1.3603817E-01;  4.0298262E+04;  0.0000000E+00; -1.6193737E-01;  4.0000000E+04;  0.0000000E+00;  3.9968027E+04;  1.3559993E-01;  0.0000000E+00;  4.3824955E-04;  4.2848730E+03;
  3.4100085E-01;  9.9999998E-03;  1.3006502E-01;4563; -1.3350250E-02;  0.0000000E+00;  6.3992760E-05;  1.0032781E+03;  1.0000000E-01;  2.7157749E+03;3;  3.7906570E+00;  0.0000000E+00; -1.1183163E+00;0;  1.3437654E-01;  4.0296609E+04;  0.0000000E+00; -1.8842816E-01;  4.0000000E+04;  0.0000000E+00;  3.9969621E+04;  1.3383499E-01;  0.0000000E+00;  5.4154644E-04;  4.0876150E+03;
  3.4102014E-01;  9.9999998E-03;  1.4007698E-01;4564; -1.5410290E-02;  0.0000000E+00;  4.4112743E-04;  1.0031989E+03;  1.0000000E-01;  2.6501965E+03;3;  3.0919580E+00;  0.0000000E+00; -1.2586235E+00;0;  1.3192984E-01;  4.0288211E+04;  0.0000000E+00; -2.0318608E-01;  4.0000000E+04;  0.0000000E+00;  3.9971781E+04;  1.3157481E-01;  0.0000000E+00;  3.5503379E-04;  3.8204644E+03;
  3.4104210E-01;  9.9999998E-03;  1.5008605E-01;4565; -1.6609631E-02;  0.0000000E+00;  5.0361321E-04;  1.0030421E+03;  1.0000000E-01;  2.5203235E+03;3;  2.6769006E+00;  0.0000000E+00; -1.3392428E+00;0;  1.2880118E-01;  4.0273324E+04;  0.0000000E+00; -1.9855697E-01;  4.0000000E+04;  0.0000000E+00;  3.9974141E+04;  1.2891941E-01;  0.0000000E+00; -1.1822008E-04;  3.5034382E+03;
  3.4106645E-01;  9.9999998E-03;  1.6009222E-01;4566; -1.6802723E-02;  0.0000000E+00;  4.2946931E-04;  1.0028181E+03;  1.0000000E-01;  2.3347485E+03;3;  2.5690689E+00;  0.0000000E+00; -1.3916041E+00;0;  1.2512879E-01;  4.0252625E+04;  0.0000000E+00; -1.6781220E-01;  4.0000000E+04;  0.0000000E+00;  3.9976812E+04;  1.2595528E-01;  0.0000000E+00; -8.2649192E-04;  3.1612461E+03;
  3.4109128E-01;  9.9999998E-03;  1.7009629E-01;4567; -1.5975207E-02;  0.0000000E+00;  3.1169938E-04;  1.0025397E+03;  1.0000000E-01;  2.1041379E+03;3;  2.7685378E+00;  0.0000000E+00; -1.4234364E+00;0;  1.2107206E-01;  4.0227676E+04;  0.0000000E+00; -1.0733354E-01;  4.0000000E+04;  0.0000000E+00;  3.9979258E+04;  1.2275934E-01;  0.0000000E+00; -1.6872810E-03;  2.8220972E+03;
  3.4111583E-01;  9.9999998E-03;  1.8009916E-01;4568; -1.4195559E-02;  0.0000000E+00;  1.8510188E-04;  1.0022237E+03;  1.0000000E-01;  1.8423181E+03;3;  3.2153630E+00;  0.0000000E+00; -1.4416758E+00;0;  1.1678801E-01;  4.0200410E+04;  0.0000000E+00; -1.8696355E-02;  4.0000000E+04;  0.0000000E+00;  3.9981422E+04;  1.1940072E-01;  0.0000000E+00; -2.6127105E-03;  2.5154287E+03;
  3.4113842E-01;  9.9999998E-03;  1.9010179E-01;4569; -1.1879671E-02;  0.0000000E+00;  2.5340969E-05;  1.0018991E+03;  1.0000000E-01;  1.5733875E+03;3;  3.7646663E+00;  0.0000000E+00; -1.4553218E+00;0;  1.1241750E-01;  4.0172398E+04;  0.0000000E+00;  9.0586185E-02;  4.0000000E+04;  0.0000000E+00;  3.9983242E+04;  1.1595672E-01;  0.0000000E+00; -3.5392300E-03;  2.2723853E+03;
  3.4115711E-01;  9.9999998E-03;  2.0010489E-01;4570; -1.0093082E-02;  0.0000000E+00; -2.3042355E-04;  1.0015839E+03;  1.0000000E-01;  1.3122590E+03;3;  4.0655589E+00;  0.0000000E+00; -1.4945825E+00;0;  1.0804696E-01;  4.0146230E+04;  0.0000000E+00;  2.0798883E-01;  4.0000000E+04;  0.0000000E+00;  3.9984316E+04;  1.1253334E-01;  0.0000000E+00; -4.4863746E-03;  2.1290220E+03;
  3.4117162E-01;  9.9999998E-03;  2.1010765E-01;4571; -9.1399970E-03;  0.0000000E+00; -5.0906505E-04;  1.0012987E+03;  1.0000000E-01;  1.0759202E+03;3;  3.9993837E+00;  0.0000000E+00; -1.5141164E+00;0;  1.0373408E-01;  4.0123320E+04;  0.0000000E+00;  3.1847349E-01;  4.0000000E+04;  0.0000000E+00;  3.9984402E+04;  1.0924260E-01;  0.0000000E+00; -5.5085090E-03;  2.1161824E+03;
  3.4118050E-01;  9.9999998E-03;  2.2010651E-01;4572; -8.5568028E-03;  0.0000000E+00; -7.6323567E-04;  1.0010602E+03;  1.0000000E-01;  8.7829608E+02;3;  3.8813655E+00;  0.0000000E+00; -1.5207549E+00;0;  9.9505037E-02;  4.0105305E+04;  0.0000000E+00;  4.0604880E-01;  4.0000000E+04;  0.0000000E+00;  3.9983785E+04;  1.0617420E-01;  0.0000000E+00; -6.6691660E-03;  2.1987117E+03;
  3.4117758E-01;  9.9999998E-03;  2.3009872E-01;4573; -8.1479475E-03;  0.0000000E+00; -9.8818832E-04;  1.0008982E+03;  1.0000000E-01;  7.4417645E+02;3;  3.7734058E+00;  0.0000000E+00; -1.5245030E+00;0;  9.5339745E-02;  4.0092926E+04;  0.0000000E+00;  4.5448780E-01;  4.0000000E+04;  0.0000000E+00;  3.9983562E+04;  1.0340142E-01;  0.0000000E+00; -8.0616763E-03;  2.2189485E+03;
  3.5092163E-01;  9.9999998E-03;  7.0010573E-02;4618; -6.8429550E-03;  0.0000000E+00; -6.3839625E-04;  1.0020161E+03;  1.0000000E-01;  1.6702737E+03;3;  6.8566427E+00;  0.0000000E+00; -7.2438455E-01;0;  1.2089143E-01;  4.0194078E+04;  0.0000000E+00; -1.0983003E-02;  4.0000000E+04;  0.0000000E+00;  3.9969695E+04;  1.2451070E-01;  0.0000000E+00; -3.6192650E-03;  3.9748242E+03;
  3.5091516E-01;  9.9999998E-03;  8.0013283E-02;4619; -6.8013063E-03;  0.0000000E+00; -7.8303250E-04;  1.0022489E+03;  1.0000000E-01;  1.8631570E+03;3;  6.7216377E+00;  0.0000000E+00; -8.3518058E-01;0;  1.2334976E-01;  4.0214648E+04;  0.0000000E+00; -2.5182944E-02;  4.0000000E+04;  0.0000000E+00;  3.9968211E+04;  1.2648475E-01;  0.0000000E+00; -3.1349994E-03;  4.1886958E+03;
  3.5091218E-01;  9.9999998E-03;  9.0017512E-02;4620; -6.8036327E-03;  0.0000000E+00; -9.2860829E-04;  1.0024731E+03;  1.0000000E-01;  2.0489294E+03;3;  6.5698214E+00;  0.0000000E+00; -9.4559085E-01;0;  1.2546301E-01;  4.0233789E+04;  0.0000000E+00; -4.5711089E-02;  4.0000000E+04;  0.0000000E+00;  3.9966867E+04;  1.2802374E-01;  0.0000000E+00; -2.5607322E-03;  4.3559395E+03;
  3.5091320E-01;  9.9999998E-03;  1.0002360E-01;4621; -6.8580923E-03;  0.0000000E+00; -1.0690019E-03;  1.0026685E+03;  1.0000000E-01;  2.2108015E+03;3;  6.3883195E+00;  0.0000000E+00; -1.0443482E+00;0;  1.2703222E-01;  4.0250457E+04;  0.0000000E+00; -7.2608732E-02;  4.0000000E+04;  0.0000000E+00;  3.9966215E+04;  1.2899075E-01;  0.0000000E+00; -1.9585290E-03;  4.4574048E+03;
  3.5091889E-01;  9.9999998E-03;  1.1003149E-01;4622; -6.9716610E-03;  0.0000000E+00; -1.1978684E-03;  1.0028271E+03;  1.0000000E-01;  2.3422546E+03;3;  6.1763191E+00;  0.0000000E+00; -1.1350350E+00;0;  1.2787902E-01;  4.0263531E+04;  0.0000000E+00; -1.0482988E-01;  4.0000000E+04;  0.0000000E+00;  3.9966172E+04;  1.2928776E-01;  0.0000000E+00; -1.4087349E-03;  4.4786338E+03;
  3.5092896E-01;  9.9999998E-03;  1.2004081E-01;4623; -7.1547609E-03;  0.0000000E+00; -1.3058155E-03;  1.0029349E+03;  1.0000000E-01;  2.4315359E+03;3;  5.9255676E+00;  0.0000000E+00; -1.2092702E+00;0;  1.2786418E-01;  4.0271590E+04;  0.0000000E+00; -1.3981354E-01;  4.0000000E+04;  0.0000000E+00;  3.9966707E+04;  1.2886164E-01;  0.0000000E+00; -9.9745637E-04;  4.4120928E+03;
  3.5094261E-01;  9.9999998E-03;  1.3005075E-01;4624; -7.4090818E-03;  0.0000000E+00; -1.3817796E-03;  1.0029809E+03;  1.0000000E-01;  2.4696584E+03;3;  5.6364107E+00;  0.0000000E+00; -1.2648125E+00;0;  1.2690331E-01;  4.0274000E+04;  0.0000000E+00; -1.7312853E-01;  4.0000000E+04;  0.0000000E+00;  3.9968172E+04;  1.2770131E-01;  0.0000000E+00; -7.9800782E-04;  4.2582959E+03;
  3.5096031E-01;  9.9999998E-03;  1.4006059E-01;4625; -7.7449316E-03;  0.0000000E+00; -1.4129629E-03;  1.0029559E+03;  1.0000000E-01;  2.4489182E+03;3;  5.2990994E+00;  0.0000000E+00; -1.2964196E+00;0;  1.2498014E-01;  4.0270336E+04;  0.0000000E+00; -1.9845054E-01;  4.0000000E+04;  0.0000000E+00;  3.9969973E+04;  1.2582996E-01;  0.0000000E+00; -8.4981893E-04;  4.0258489E+03;
  3.5098198E-01;  9.9999998E-03;  1.5006968E-01;4626; -8.1613464E-03;  0.0000000E+00; -1.3753534E-03;  1.0028646E+03;  1.0000000E-01;  2.3732661E+03;3;  4.9590569E+00;  0.0000000E+00; -1.3107190E+00;0;  1.2214993E-01;  4.0260621E+04;  0.0000000E+00; -2.0821533E-01;  4.0000000E+04;  0.0000000E+00;  3.9972203E+04;  1.2330031E-01;  0.0000000E+00; -1.1503757E-03;  3.7292832E+03;
  3.5100681E-01;  9.9999998E-03;  1.6007759E-01;4627; -8.6181993E-03;  0.0000000E+00; -1.2680888E-03;  1.0027046E+03;  1.0000000E-01;  2.2407266E+03;3;  4.6918383E+00;  0.0000000E+00; -1.3373832E+00;0;  1.1852264E-01;  4.0245262E+04;  0.0000000E+00; -1.9518512E-01;  4.0000000E+04;  0.0000000E+00;  3.9974980E+04;  1.2018744E-01;  0.0000000E+00; -1.6647974E-03;  3.3884668E+03;
  3.5103402E-01;  9.9999998E-03;  1.7008433E-01;4628; -8.9352857E-03;  0.0000000E+00; -1.1670247E-03;  1.0024948E+03;  1.0000000E-01;  2.0668057E+03;3;  4.5086694E+00;  0.0000000E+00; -1.3850945E+00;0;  1.1424643E-01;  4.0225621E+04;  0.0000000E+00; -1.5455197E-01;  4.0000000E+04;  0.0000000E+00;  3.9977562E+04;  1.1658576E-01;  0.0000000E+00; -2.3393333E-03;  3.0277961E+03;
  3.5106394E-01;  9.9999998E-03;  1.8009020E-01;4629; -8.9600431E-03;  0.0000000E+00; -1.1513480E-03;  1.0022391E+03;  1.0000000E-01;  1.8550585E+03;3;  4.3713336E+00;  0.0000000E+00; -1.4234719E+00;0;  1.0948268E-01;  4.0202641E+04;  0.0000000E+00; -8.5926950E-02;  4.0000000E+04;  0.0000000E+00;  3.9980160E+04;  1.1260387E-01;  0.0000000E+00; -3.1211814E-03;  2.6749692E+03;
  3.5109541E-01;  9.9999998E-03;  1.9009623E-01;4630; -8.8047730E-03;  0.0000000E+00; -1.1912598E-03;  1.0019648E+03;  1.0000000E-01;  1.6278057E+03;3;  4.2435222E+00;  0.0000000E+00; -1.4462906E+00;0;  1.0439787E-01;  4.0178336E+04;  0.0000000E+00;  5.6600492E-03;  4.0000000E+04;  0.0000000E+00;  3.9982543E+04;  1.0837197E-01;  0.0000000E+00; -3.9741052E-03;  2.3638523E+03;
  3.5112685E-01;  9.9999998E-03;  2.0010315E-01;4631; -8.6030168E-03;  0.0000000E+00; -1.2554096E-03;  1.0016860E+03;  1.0000000E-01;  1.3967999E+03;3;  4.1121011E+00;  0.0000000E+00; -1.4618967E+00;0;  9.9157885E-02;  4.0154445E+04;  0.0000000E+00;  1.1032104E-01;  4.0000000E+04;  0.0000000E+00;  3.9984055E+04;  1.0404246E-01;  0.0000000E+00; -4.8845671E-03;  2.1422295E+03;
  3.5115564E-01;  9.9999998E-03;  2.1011005E-01;4632; -8.3983401E-03;  0.0000000E+00; -1.3319557E-03;  1.0014167E+03;  1.0000000E-01;  1.1737938E+03;3;  3.9833515E+00;  0.0000000E+00; -1.4668550E+00;0;  9.3907557E-02;  4.0132348E+04;  0.0000000E+00;  2.1524937E-01;  4.0000000E+04;  0.0000000E+00;  3.9984719E+04;  9.9773705E-02;  0.0000000E+00; -5.8661499E-03;  2.0667629E+03;
  3.5117707E-01;  9.9999998E-03;  2.2011296E-01;4633; -8.1896214E-03;  0.0000000E+00; -1.4212468E-03;  1.0011711E+03;  1.0000000E-01;  9.7024408E+02;3;  3.8636577E+00;  0.0000000E+00; -1.4728347E+00;0;  8.8740014E-02;  4.0113660E+04;  0.0000000E+00;  3.0698344E-01;  4.0000000E+04;  0.0000000E+00;  3.9984094E+04;  9.5710099E-02;  0.0000000E+00; -6.9700885E-03;  2.1358479E+03;
  3.5118398E-01;  9.9999998E-03;  2.3010774E-01;4634; -7.9884408E-03;  0.0000000E+00; -1.5168885E-03;  1.0009807E+03;  1.0000000E-01;  8.1252014E+02;3;  3.7491834E+00;  0.0000000E+00; -1.4684193E+00;0;  8.3694607E-02;  4.0099039E+04;  0.0000000E+00;  3.7327534E-01;  4.0000000E+04;  0.0000000E+00;  3.9983730E+04;  9.1965713E-02;  0.0000000E+00; -8.2711093E-03;  2.1940356E+03;
  3.6090654E-01;  9.9999998E-03;  7.0009135E-02;4679; -6.7141312E-03;  0.0000000E+00; -7.0753758E-04;  1.0016273E+03;  1.0000000E-01;  1.3481099E+03;3;  6.9291983E+00;  0.0000000E+00; -6.7957091E-01;0;  1.0404685E-01;  4.0162449E+04;  0.0000000E+00;  1.1847488E-02;  4.0000000E+04;  0.0000000E+00;  3.9970051E+04;  1.0918996E-01;  0.0000000E+00; -5.1431172E-03;  3.9044009E+03;
  3.6089313E-01;  9.9999998E-03;  8.0011919E-02;4680; -6.6197943E-03;  0.0000000E+00; -8.4906246E-04;  1.0018382E+03;  1.0000000E-01;  1.5229198E+03;3;  6.8069596E+00;  0.0000000E+00; -7.8021330E-01;0;  1.0700849E-01;  4.0180914E+04;  0.0000000E+00;  3.3490590E-03;  4.0000000E+04;  0.0000000E+00;  3.9968496E+04;  1.1166117E-01;  0.0000000E+00; -4.6526738E-03;  4.1113848E+03;
  3.6088333E-01;  9.9999998E-03;  9.0015523E-02;4681; -6.5642023E-03;  0.0000000E+00; -9.9384680E-04;  1.0020436E+03;  1.0000000E-01;  1.6930878E+03;3;  6.6600885E+00;  0.0000000E+00; -8.7785262E-01;0;  1.0967588E-01;  4.0198734E+04;  0.0000000E+00; -1.2059486E-02;  4.0000000E+04;  0.0000000E+00;  3.9967195E+04;  1.1375203E-01;  0.0000000E+00; -4.0761456E-03;  4.2844004E+03;
  3.6087784E-01;  9.9999998E-03;  1.0002034E-01;4682; -6.5511977E-03;  0.0000000E+00; -1.1434653E-03;  1.0022375E+03;  1.0000000E-01;  1.8537745E+03;3;  6.4961076E+00;  0.0000000E+00; -9.7137231E-01;0;  1.1183967E-01;  4.0215211E+04;  0.0000000E+00; -3.4946926E-02;  4.0000000E+04;  0.0000000E+00;  3.9966328E+04;  1.1530653E-01;  0.0000000E+00; -3.4668536E-03;  4.4044561E+03;
  3.6087716E-01;  9.9999998E-03;  1.1002641E-01;4683; -6.5883896E-03;  0.0000000E+00; -1.2942810E-03;  1.0024030E+03;  1.0000000E-01;  1.9907583E+03;3;  6.3118415E+00;  0.0000000E+00; -1.0662912E+00;0;  1.1330769E-01;  4.0228867E+04;  0.0000000E+00; -6.4778291E-02;  4.0000000E+04;  0.0000000E+00;  3.9966047E+04;  1.1620031E-01;  0.0000000E+00; -2.8926143E-03;  4.4552036E+03;
  3.6088043E-01;  9.9999998E-03;  1.2003337E-01;4684; -6.6780732E-03;  0.0000000E+00; -1.4345425E-03;  1.0025281E+03;  1.0000000E-01;  2.0945579E+03;3;  6.1025968E+00;  0.0000000E+00; -1.1599513E+00;0;  1.1392172E-01;  4.0238863E+04;  0.0000000E+00; -9.9515550E-02;  4.0000000E+04;  0.0000000E+00;  3.9966453E+04;  1.1634651E-01;  0.0000000E+00; -2.4247877E-03;  4.4255537E+03;
  3.6088866E-01;  9.9999998E-03;  1.3004087E-01;4685; -6.8195532E-03;  0.0000000E+00; -1.5581341E-03;  1.0026057E+03;  1.0000000E-01;  2.1587537E+03;3;  5.8811994E+00;  0.0000000E+00; -1.2426312E+00;0;  1.1356863E-01;  4.0244332E+04;  0.0000000E+00; -1.3528836E-01;  4.0000000E+04;  0.0000000E+00;  3.9967293E+04;  1.1569227E-01;  0.0000000E+00; -2.1236415E-03;  4.3114985E+03;
  3.6090270E-01;  9.9999998E-03;  1.4004859E-01;4686; -7.0070634E-03;  0.0000000E+00; -1.6591726E-03;  1.0026274E+03;  1.0000000E-01;  2.1768271E+03;3;  5.6352081E+00;  0.0000000E+00; -1.3020986E+00;0;  1.1219598E-01;  4.0244344E+04;  0.0000000E+00; -1.6630867E-01;  4.0000000E+04;  0.0000000E+00;  3.9969035E+04;  1.1421991E-01;  0.0000000E+00; -2.0239279E-03;  4.1161865E+03;
  3.6092284E-01;  9.9999998E-03;  1.5005626E-01;4687; -7.2306213E-03;  0.0000000E+00; -1.7358334E-03;  1.0025875E+03;  1.0000000E-01;  2.1437417E+03;3;  5.3652501E+00;  0.0000000E+00; -1.3535690E+00;0;  1.0981617E-01;  4.0239270E+04;  0.0000000E+00; -1.8532896E-01;  4.0000000E+04;  0.0000000E+00;  3.9970977E+04;  1.1194528E-01;  0.0000000E+00; -2.1291096E-03;  3.8486116E+03;
  3.6094791E-01;  9.9999998E-03;  1.6006371E-01;4688; -7.4735228E-03;  0.0000000E+00; -1.7825440E-03;  1.0024922E+03;  1.0000000E-01;  2.0647317E+03;3;  5.0852795E+00;  0.0000000E+00; -1.3786715E+00;0;  1.0650092E-01;  4.0228961E+04;  0.0000000E+00; -1.8509975E-01;  4.0000000E+04;  0.0000000E+00;  3.9973613E+04;  1.0892006E-01;  0.0000000E+00; -2.4191327E-03;  3.5230732E+03;
  3.6097795E-01;  9.9999998E-03;  1.7007108E-01;4689; -7.7133323E-03;  0.0000000E+00; -1.8022829E-03;  1.0023412E+03;  1.0000000E-01;  1.9395994E+03;3;  4.7992797E+00;  0.0000000E+00; -1.3845990E+00;0;  1.0236663E-01;  4.0214371E+04;  0.0000000E+00; -1.6043991E-01;  4.0000000E+04;  0.0000000E+00;  3.9976477E+04;  1.0523017E-01;  0.0000000E+00; -2.8635452E-03;  3.1590107E+03;
  3.6101294E-01;  9.9999998E-03;  1.8007879E-01;4690; -7.9241898E-03;  0.0000000E+00; -1.7971102E-03;  1.0021534E+03;  1.0000000E-01;  1.7840482E+03;3;  4.5369787E+00;  0.0000000E+00; -1.3749923E+00;0;  9.7570084E-02;  4.0196383E+04;  0.0000000E+00; -1.1005567E-01;  4.0000000E+04;  0.0000000E+00;  3.9979340E+04;  1.0100016E-01;  0.0000000E+00; -3.4300734E-03;  2.7810588E+03;
  3.6105055E-01;  9.9999998E-03;  1.9008733E-01;4691; -8.0771949E-03;  0.0000000E+00; -1.7777330E-03;  1.0019349E+03;  1.0000000E-01;  1.6030162E+03;3;  4.3145041E+00;  0.0000000E+00; -1.3704342E+00;0;  9.2302918E-02;  4.0176234E+04;  0.0000000E+00; -3.7397396E-02;  4.0000000E+04;  0.0000000E+00;  3.9981934E+04;  9.6392788E-02;  0.0000000E+00; -4.0898677E-03;  2.4229419E+03;
  3.6108753E-01;  9.9999998E-03;  2.0009701E-01;4692; -8.1576109E-03;  0.0000000E+00; -1.7589516E-03;  1.0017018E+03;  1.0000000E-01;  1.4099353E+03;3;  4.1330962E+00;  0.0000000E+00; -1.3669230E+00;0;  8.6771853E-02;  4.0155512E+04;  0.0000000E+00;  4.9733594E-02;  4.0000000E+04;  0.0000000E+00;  3.9984191E+04;  9.1596074E-02;  0.0000000E+00; -4.8242235E-03;  2.1368071E+03;
  3.6112040E-01;  9.9999998E-03;  2.1010670E-01;4693; -8.1682662E-03;  0.0000000E+00; -1.7584478E-03;  1.0014666E+03;  1.0000000E-01;  1.2149779E+03;3;  3.9811788E+00;  0.0000000E+00; -1.3703011E+00;0;  8.1160292E-02;  4.0135555E+04;  0.0000000E+00;  1.4065540E-01;  4.0000000E+04;  0.0000000E+00;  3.9985234E+04;  8.6800195E-02;  0.0000000E+00; -5.6399070E-03;  1.9913822E+03;
  3.6114329E-01;  9.9999998E-03;  2.2011261E-01;4694; -8.1221536E-03;  0.0000000E+00; -1.7964279E-03;  1.0012346E+03;  1.0000000E-01;  1.0227858E+03;3;  3.8489485E+00;  0.0000000E+00; -1.3761532E+00;0;  7.5572222E-02;  4.0117293E+04;  0.0000000E+00;  2.2351736E-01;  4.0000000E+04;  0.0000000E+00;  3.9985082E+04;  8.2177520E-02;  0.0000000E+00; -6.6052950E-03;  2.0115074E+03;
  3.6114889E-01;  9.9999998E-03;  2.3011036E-01;4695; -8.0325352E-03;  0.0000000E+00; -1.8708035E-03;  1.0010344E+03;  1.0000000E-01;  8.5696338E+02;3;  3.7296498E+00;  0.0000000E+00; -1.3850514E+00;0;  7.0019163E-02;  4.0101836E+04;  0.0000000E+00;  2.8687850E-01;  4.0000000E+04;  0.0000000E+00;  3.9984453E+04;  7.7864401E-02;  0.0000000E+00; -7.8452379E-03;  2.0706917E+03;
  3.7089598E-01;  9.9999998E-03;  7.0009314E-02;4740; -6.7020510E-03;  0.0000000E+00; -7.6089479E-04;  1.0012718E+03;  1.0000000E-01;  1.0536985E+03;3;  6.9890671E+00;  0.0000000E+00; -6.2449050E-01;0;  8.4734440E-02;  4.0133102E+04;  0.0000000E+00;  3.2945592E-02;  4.0000000E+04;  0.0000000E+00;  3.9970586E+04;  9.1295198E-02;  0.0000000E+00; -6.5607554E-03;  3.7884563E+03;
  3.7087882E-01;  9.9999998E-03;  8.0012552E-02;4741; -6.5781367E-03;  0.0000000E+00; -9.0015918E-04;  1.0014466E+03;  1.0000000E-01;  1.1984845E+03;3;  6.8649435E+00;  0.0000000E+00; -7.1509945E-01;0;  8.7905817E-02;  4.0148523E+04;  0.0000000E+00;  3.1404220E-02;  4.0000000E+04;  0.0000000E+00;  3.9969188E+04;  9.3968883E-02;  0.0000000E+00; -6.0630655E-03;  3.9771628E+03;
  3.7086394E-01;  9.9999998E-03;  9.0016373E-02;4742; -6.4867637E-03;  0.0000000E+00; -1.0483527E-03;  1.0016246E+03;  1.0000000E-01;  1.3459371E+03;3;  6.7220659E+00;  0.0000000E+00; -8.0673689E-01;0;  9.0843737E-02;  4.0164012E+04;  0.0000000E+00;  2.3165405E-02;  4.0000000E+04;  0.0000000E+00;  3.9968148E+04;  9.6326694E-02;  0.0000000E+00; -5.4829544E-03;  4.1430742E+03;
  3.7085295E-01;  9.9999998E-03;  1.0002061E-01;4743; -6.4391168E-03;  0.0000000E+00; -1.1993467E-03;  1.0017969E+03;  1.0000000E-01;  1.4886492E+03;3;  6.5605922E+00;  0.0000000E+00; -8.9820218E-01;0;  9.3340755E-02;  4.0178777E+04;  0.0000000E+00;  7.0555890E-03;  4.0000000E+04;  0.0000000E+00;  3.9967164E+04;  9.8205842E-02;  0.0000000E+00; -4.8650913E-03;  4.2679800E+03;
  3.7084612E-01;  9.9999998E-03;  1.1002522E-01;4744; -6.4437818E-03;  0.0000000E+00; -1.3454987E-03;  1.0019549E+03;  1.0000000E-01;  1.6196084E+03;3;  6.3785529E+00;  0.0000000E+00; -9.8539978E-01;0;  9.5204197E-02;  4.0191938E+04;  0.0000000E+00; -1.7014977E-02;  4.0000000E+04;  0.0000000E+00;  3.9966789E+04;  9.9469110E-02;  0.0000000E+00; -4.2649158E-03;  4.3351694E+03;
  3.7084404E-01;  9.9999998E-03;  1.2003024E-01;4745; -6.5023913E-03;  0.0000000E+00; -1.4847529E-03;  1.0020864E+03;  1.0000000E-01;  1.7285436E+03;3;  6.1803961E+00;  0.0000000E+00; -1.0661213E+00;0;  9.6267298E-02;  4.0202574E+04;  0.0000000E+00; -4.7636230E-02;  4.0000000E+04;  0.0000000E+00;  3.9966750E+04;  1.0000714E-01;  0.0000000E+00; -3.7398427E-03;  4.3317485E+03;
  3.7084761E-01;  9.9999998E-03;  1.3003556E-01;4746; -6.6117374E-03;  0.0000000E+00; -1.6176668E-03;  1.0021823E+03;  1.0000000E-01;  1.8080475E+03;3;  5.9586749E+00;  0.0000000E+00; -1.1421741E+00;0;  9.6403927E-02;  4.0209602E+04;  0.0000000E+00; -8.1587262E-02;  4.0000000E+04;  0.0000000E+00;  3.9967523E+04;  9.9742405E-02;  0.0000000E+00; -3.3384757E-03;  4.2505620E+03;
  3.7085840E-01;  9.9999998E-03;  1.4004113E-01;4747; -6.7679593E-03;  0.0000000E+00; -1.7384528E-03;  1.0022330E+03;  1.0000000E-01;  1.8500216E+03;3;  5.7239513E+00;  0.0000000E+00; -1.2146914E+00;0;  9.5538065E-02;  4.0212488E+04;  0.0000000E+00; -1.1373747E-01;  4.0000000E+04;  0.0000000E+00;  3.9968875E+04;  9.8628998E-02;  0.0000000E+00; -3.0909358E-03;  4.0903508E+03;
  3.7087560E-01;  9.9999998E-03;  1.5004690E-01;4748; -6.9634160E-03;  0.0000000E+00; -1.8398702E-03;  1.0022397E+03;  1.0000000E-01;  1.8555524E+03;3;  5.4791203E+00;  0.0000000E+00; -1.2700176E+00;0;  9.3656540E-02;  4.0211074E+04;  0.0000000E+00; -1.3741581E-01;  4.0000000E+04;  0.0000000E+00;  3.9970852E+04;  9.6660763E-02;  0.0000000E+00; -3.0042245E-03;  3.8550854E+03;
  3.7089959E-01;  9.9999998E-03;  1.6005312E-01;4749; -7.1868012E-03;  0.0000000E+00; -1.9196376E-03;  1.0021924E+03;  1.0000000E-01;  1.8163435E+03;3;  5.2116280E+00;  0.0000000E+00; -1.3123641E+00;0;  9.0800323E-02;  4.0205020E+04;  0.0000000E+00; -1.4573719E-01;  4.0000000E+04;  0.0000000E+00;  3.9973203E+04;  9.3868919E-02;  0.0000000E+00; -3.0685968E-03;  3.5540420E+03;
  3.7093076E-01;  9.9999998E-03;  1.7006017E-01;4750; -7.4217943E-03;  0.0000000E+00; -1.9760686E-03;  1.0020993E+03;  1.0000000E-01;  1.7392100E+03;3;  4.9432826E+00;  0.0000000E+00; -1.3323705E+00;0;  8.7063618E-02;  4.0195117E+04;  0.0000000E+00; -1.3369651E-01;  4.0000000E+04;  0.0000000E+00;  3.9976020E+04;  9.0331338E-02;  0.0000000E+00; -3.2677199E-03;  3.2014246E+03;
  3.7096593E-01;  9.9999998E-03;  1.8006843E-01;4751; -7.6519791E-03;  0.0000000E+00; -2.0088949E-03;  1.0019713E+03;  1.0000000E-01;  1.6331389E+03;3;  4.6751423E+00;  0.0000000E+00; -1.3386711E+00;0;  8.2592323E-02;  4.0181613E+04;  0.0000000E+00; -9.9835314E-02;  4.0000000E+04;  0.0000000E+00;  3.9978879E+04;  8.6178273E-02;  0.0000000E+00; -3.5859467E-03;  2.8176289E+03;
  3.7100175E-01;  9.9999998E-03;  1.9007803E-01;4752; -7.8583956E-03;  0.0000000E+00; -2.0200124E-03;  1.0018104E+03;  1.0000000E-01;  1.4999081E+03;3;  4.4231906E+00;  0.0000000E+00; -1.3290926E+00;0;  7.7570327E-02;  4.0165887E+04;  0.0000000E+00; -4.6734415E-02;  4.0000000E+04;  0.0000000E+00;  3.9981871E+04;  8.1581533E-02;  0.0000000E+00; -4.0112059E-03;  2.4339197E+03;
  3.7103614E-01;  9.9999998E-03;  2.0008890E-01;4753; -8.0255037E-03;  0.0000000E+00; -2.0109680E-03;  1.0016290E+03;  1.0000000E-01;  1.3495913E+03;3;  4.1940331E+00;  0.0000000E+00; -1.3098024E+00;0;  7.2202891E-02;  4.0148645E+04;  0.0000000E+00;  1.9450363E-02;  4.0000000E+04;  0.0000000E+00;  3.9984395E+04;  7.6734953E-02;  0.0000000E+00; -4.5320611E-03;  2.1016946E+03;
  3.7106532E-01;  9.9999998E-03;  2.1009982E-01;4754; -8.1353076E-03;  0.0000000E+00; -1.9970769E-03;  1.0014316E+03;  1.0000000E-01;  1.1860404E+03;3;  3.9951258E+00;  0.0000000E+00; -1.2836334E+00;0;  6.6690661E-02;  4.0131301E+04;  0.0000000E+00;  9.0147331E-02;  4.0000000E+04;  0.0000000E+00;  3.9986023E+04;  7.1836919E-02;  0.0000000E+00; -5.1462590E-03;  1.8918047E+03;
  3.7108269E-01;  9.9999998E-03;  2.2010727E-01;4755; -8.1717381E-03;  0.0000000E+00; -2.0146484E-03;  1.0012261E+03;  1.0000000E-01;  1.0157737E+03;3;  3.8380752E+00;  0.0000000E+00; -1.2788777E+00;0;  6.1151963E-02;  4.0114387E+04;  0.0000000E+00;  1.5555170E-01;  4.0000000E+04;  0.0000000E+00;  3.9986230E+04;  6.7068167E-02;  0.0000000E+00; -5.9162038E-03;  1.8426903E+03;
  3.7108406E-01;  9.9999998E-03;  2.3010711E-01;4756; -8.1460522E-03;  0.0000000E+00; -2.0741294E-03;  1.0010336E+03;  1.0000000E-01;  8.5627203E+02;3;  3.7125633E+00;  0.0000000E+00; -1.2912403E+00;0;  5.5586673E-02;  4.0098996E+04;  0.0000000E+00;  2.0610863E-01;  4.0000000E+04;  0.0000000E+00;  3.9986016E+04;  6.2567316E-02;  0.0000000E+00; -6.9806427E-03;  1.8578239E+03;
  3.8088343E-01;  9.9999998E-03;  7.0013218E-02;4801; -6.7618475E-03;  0.0000000E+00; -8.0346211E-04;  1.0009680E+03;  1.0000000E-01;  8.0195258E+02;3;  7.0383005E+00;  0.0000000E+00; -5.6576580E-01;0;  6.4819336E-02;  4.0107273E+04;  0.0000000E+00;  4.9912572E-02;  4.0000000E+04;  0.0000000E+00;  3.9971734E+04;  7.2649501E-02;  0.0000000E+00; -7.8301691E-03;  3.6324434E+03;
  3.8086748E-01;  9.9999998E-03;  8.0016203E-02;4802; -6.6215647E-03;  0.0000000E+00; -9.4057142E-04;  1.0010989E+03;  1.0000000E-01;  9.1039392E+02;3;  6.9166198E+00;  0.0000000E+00; -6.5297771E-01;0;  6.7946322E-02;  4.0119000E+04;  0.0000000E+00;  5.5362977E-02;  4.0000000E+04;  0.0000000E+00;  3.9970441E+04;  7.5263880E-02;  0.0000000E+00; -7.3175598E-03;  3.7934460E+03;
  3.8085109E-01;  9.9999998E-03;  9.0019941E-02;4803; -6.5094978E-03;  0.0000000E+00; -1.0846425E-03;  1.0012410E+03;  1.0000000E-01;  1.0281190E+03;3;  6.7735195E+00;  0.0000000E+00; -7.3742998E-01;0;  7.0906758E-02;  4.0131566E+04;  0.0000000E+00;  5.5126406E-02;  4.0000000E+04;  0.0000000E+00;  3.9969363E+04;  7.7632464E-02;  0.0000000E+00; -6.7257071E-03;  3.9412751E+03;
  3.8083678E-01;  9.9999998E-03;  1.0002386E-01;4804; -6.4420197E-03;  0.0000000E+00; -1.2270722E-03;  1.0013830E+03;  1.0000000E-01;  1.1457452E+03;3;  6.6093154E+00;  0.0000000E+00; -8.1855261E-01;0;  7.3505573E-02;  4.0143766E+04;  0.0000000E+00;  4.7493599E-02;  4.0000000E+04;  0.0000000E+00;  3.9968617E+04;  7.9596877E-02;  0.0000000E+00; -6.0913069E-03;  4.0593076E+03;
  3.8082561E-01;  9.9999998E-03;  1.1002771E-01;4805; -6.4252382E-03;  0.0000000E+00; -1.3668382E-03;  1.0015198E+03;  1.0000000E-01;  1.2591248E+03;3;  6.4249277E+00;  0.0000000E+00; -8.9699942E-01;0;  7.5559117E-02;  4.0155289E+04;  0.0000000E+00;  3.1678610E-02;  4.0000000E+04;  0.0000000E+00;  3.9968086E+04;  8.1017897E-02;  0.0000000E+00; -5.4587764E-03;  4.1312544E+03;
  3.8081950E-01;  9.9999998E-03;  1.2003135E-01;4806; -6.4602881E-03;  0.0000000E+00; -1.5064478E-03;  1.0016454E+03;  1.0000000E-01;  1.3632206E+03;3;  6.2229886E+00;  0.0000000E+00; -9.7453707E-01;0;  7.6903611E-02;  4.0165160E+04;  0.0000000E+00;  8.3043389E-03;  4.0000000E+04;  0.0000000E+00;  3.9968000E+04;  8.1777401E-02;  0.0000000E+00; -4.8737926E-03;  4.1437280E+03;
  3.8081983E-01;  9.9999998E-03;  1.3003509E-01;4807; -6.5512876E-03;  0.0000000E+00; -1.6360633E-03;  1.0017430E+03;  1.0000000E-01;  1.4441072E+03;3;  6.0037742E+00;  0.0000000E+00; -1.0417582E+00;0;  7.7408269E-02;  4.0172684E+04;  0.0000000E+00; -2.0263556E-02;  4.0000000E+04;  0.0000000E+00;  3.9968594E+04;  8.1783839E-02;  0.0000000E+00; -4.3755695E-03;  4.0875498E+03;
  3.8082638E-01;  9.9999998E-03;  1.4003904E-01;4808; -6.6935513E-03;  0.0000000E+00; -1.7540684E-03;  1.0018123E+03;  1.0000000E-01;  1.5013895E+03;3;  5.7692518E+00;  0.0000000E+00; -1.1043987E+00;0;  7.6990597E-02;  4.0177277E+04;  0.0000000E+00; -4.9811617E-02;  4.0000000E+04;  0.0000000E+00;  3.9969699E+04;  8.0980420E-02;  0.0000000E+00; -3.9898255E-03;  3.9582236E+03;
  3.8084003E-01;  9.9999998E-03;  1.5004331E-01;4809; -6.8791960E-03;  0.0000000E+00; -1.8607852E-03;  1.0018450E+03;  1.0000000E-01;  1.5285492E+03;3;  5.5202923E+00;  0.0000000E+00; -1.1619594E+00;0;  7.5616337E-02;  4.0178332E+04;  0.0000000E+00; -7.4545942E-02;  4.0000000E+04;  0.0000000E+00;  3.9971227E+04;  7.9342365E-02;  0.0000000E+00; -3.7260272E-03;  3.7557952E+03;
  3.8086212E-01;  9.9999998E-03;  1.6004828E-01;4810; -7.0977118E-03;  0.0000000E+00; -1.9500069E-03;  1.0018395E+03;  1.0000000E-01;  1.5240062E+03;3;  5.2619367E+00;  0.0000000E+00; -1.2018141E+00;0;  7.3302530E-02;  4.0175805E+04;  0.0000000E+00; -8.8330850E-02;  4.0000000E+04;  0.0000000E+00;  3.9973449E+04;  7.6884925E-02;  0.0000000E+00; -3.5823968E-03;  3.4850330E+03;
  3.8088962E-01;  9.9999998E-03;  1.7005441E-01;4811; -7.3384317E-03;  0.0000000E+00; -2.0208908E-03;  1.0017950E+03;  1.0000000E-01;  1.4870690E+03;3;  4.9945779E+00;  0.0000000E+00; -1.2309179E+00;0;  7.0127569E-02;  4.0169688E+04;  0.0000000E+00; -8.6696640E-02;  4.0000000E+04;  0.0000000E+00;  3.9976062E+04;  7.3680721E-02;  0.0000000E+00; -3.5531488E-03;  3.1558098E+03;
  3.8091898E-01;  9.9999998E-03;  1.8006200E-01;4812; -7.5853700E-03;  0.0000000E+00; -2.0709373E-03;  1.0017137E+03;  1.0000000E-01;  1.4197128E+03;3;  4.7280564E+00;  0.0000000E+00; -1.2413644E+00;0;  6.6218905E-02;  4.0160273E+04;  0.0000000E+00; -6.8294391E-02;  4.0000000E+04;  0.0000000E+00;  3.9978926E+04;  6.9852725E-02;  0.0000000E+00; -3.6338230E-03;  2.7841589E+03;
  3.8094893E-01;  9.9999998E-03;  1.9007111E-01;4813; -7.8228852E-03;  0.0000000E+00; -2.0994046E-03;  1.0016017E+03;  1.0000000E-01;  1.3269747E+03;3;  4.4633794E+00;  0.0000000E+00; -1.2345753E+00;0;  6.1738688E-02;  4.0148258E+04;  0.0000000E+00; -3.5089016E-02;  4.0000000E+04;  0.0000000E+00;  3.9981934E+04;  6.5560929E-02;  0.0000000E+00; -3.8222407E-03;  2.3975608E+03;
  3.8097656E-01;  9.9999998E-03;  2.0008153E-01;4814; -8.0331713E-03;  0.0000000E+00; -2.1084466E-03;  1.0014681E+03;  1.0000000E-01;  1.2163606E+03;3;  4.2141228E+00;  0.0000000E+00; -1.2132429E+00;0;  5.6874551E-02;  4.0134688E+04;  0.0000000E+00;  8.2116444E-03;  4.0000000E+04;  0.0000000E+00;  3.9984582E+04;  6.0991045E-02;  0.0000000E+00; -4.1164951E-03;  2.0425713E+03;
  3.8099757E-01;  9.9999998E-03;  2.1009186E-01;4815; -8.1916014E-03;  0.0000000E+00; -2.1131930E-03;  1.0013098E+03;  1.0000000E-01;  1.0852037E+03;3;  3.9942300E+00;  0.0000000E+00; -1.1803585E+00;0;  5.1806796E-02;  4.0119977E+04;  0.0000000E+00;  5.5095501E-02;  4.0000000E+04;  0.0000000E+00;  3.9986652E+04;  5.6332242E-02;  0.0000000E+00; -4.5254445E-03;  1.7831794E+03;
  3.8100818E-01;  9.9999998E-03;  2.2009911E-01;4816; -8.2663177E-03;  0.0000000E+00; -2.1430354E-03;  1.0011368E+03;  1.0000000E-01;  9.4180048E+02;3;  3.8318620E+00;  0.0000000E+00; -1.1813922E+00;0;  4.6639297E-02;  4.0104883E+04;  0.0000000E+00;  9.8234668E-02;  4.0000000E+04;  0.0000000E+00;  3.9987535E+04;  5.1752843E-02;  0.0000000E+00; -5.1135444E-03;  1.6597476E+03;
  3.8100508E-01;  9.9999998E-03;  2.3009944E-01;4817; -8.2796793E-03;  0.0000000E+00; -2.1881950E-03;  1.0009623E+03;  1.0000000E-01;  7.9731073E+02;3;  3.6966181E+00;  0.0000000E+00; -1.1942773E+00;0;  4.1424181E-02;  4.0090488E+04;  0.0000000E+00;  1.3051967E-01;  4.0000000E+04;  0.0000000E+00;  3.9987973E+04;  4.7385447E-02;  0.0000000E+00; -5.9612659E-03;  1.5910267E+03;
  3.9086869E-01;  9.9999998E-03;  7.0019260E-02;4862; -6.8593002E-03;  0.0000000E+00; -8.3838013E-04;  1.0007307E+03;  1.0000000E-01;  6.0541492E+02;3;  7.0739627E+00;  0.0000000E+00; -5.0980484E-01;0;  4.5828842E-02;  4.0086668E+04;  0.0000000E+00;  6.2397320E-02;  4.0000000E+04;  0.0000000E+00;  3.9972992E+04;  5.4766804E-02;  0.0000000E+00; -8.9379614E-03;  3.4409897E+03;
  3.9085704E-01;  9.9999998E-03;  8.0021858E-02;4863; -6.7145913E-03;  0.0000000E+00; -9.7077107E-04;  1.0008196E+03;  1.0000000E-01;  6.7899310E+02;3;  6.9624996E+00;  0.0000000E+00; -5.8961254E-01;0;  4.8717745E-02;  4.0094781E+04;  0.0000000E+00;  7.3869191E-02;  4.0000000E+04;  0.0000000E+00;  3.9971992E+04;  5.7115503E-02;  0.0000000E+00; -8.3977589E-03;  3.5673652E+03;
  3.9084291E-01;  9.9999998E-03;  9.0025291E-02;4864; -6.5962765E-03;  0.0000000E+00; -1.1059528E-03;  1.0009191E+03;  1.0000000E-01;  7.6145990E+02;3;  6.8127689E+00;  0.0000000E+00; -6.6212797E-01;0;  5.1503506E-02;  4.0103496E+04;  0.0000000E+00;  8.1132412E-02;  4.0000000E+04;  0.0000000E+00;  3.9971137E+04;  5.9284583E-02;  0.0000000E+00; -7.7810772E-03;  3.6889434E+03;
  3.9082828E-01;  9.9999998E-03;  1.0002906E-01;4865; -6.5211914E-03;  0.0000000E+00; -1.2379376E-03;  1.0010268E+03;  1.0000000E-01;  8.5064252E+02;3;  6.6492352E+00;  0.0000000E+00; -7.3403585E-01;0;  5.4016251E-02;  4.0112730E+04;  0.0000000E+00;  8.2159087E-02;  4.0000000E+04;  0.0000000E+00;  3.9970535E+04;  6.1134014E-02;  0.0000000E+00; -7.1177636E-03;  3.7909968E+03;
  3.9081568E-01;  9.9999998E-03;  1.1003266E-01;4866; -6.4900462E-03;  0.0000000E+00; -1.3717508E-03;  1.0011337E+03;  1.0000000E-01;  9.3923260E+02;3;  6.4664903E+00;  0.0000000E+00; -8.0916387E-01;0;  5.6089025E-02;  4.0121691E+04;  0.0000000E+00;  7.5552858E-02;  4.0000000E+04;  0.0000000E+00;  3.9970082E+04;  6.2532365E-02;  0.0000000E+00; -6.4433399E-03;  3.8585691E+03;
  3.9080706E-01;  9.9999998E-03;  1.2003590E-01;4867; -6.5130023E-03;  0.0000000E+00; -1.5005019E-03;  1.0012370E+03;  1.0000000E-01;  1.0248599E+03;3;  6.2628827E+00;  0.0000000E+00; -8.7466353E-01;0;  5.7570741E-02;  4.0130152E+04;  0.0000000E+00;  6.1069194E-02;  4.0000000E+04;  0.0000000E+00;  3.9969805E+04;  6.3364908E-02;  0.0000000E+00; -5.7941675E-03;  3.8783301E+03;
  3.9080343E-01;  9.9999998E-03;  1.3003883E-01;4868; -6.5896609E-03;  0.0000000E+00; -1.6231135E-03;  1.0013254E+03;  1.0000000E-01;  1.0980430E+03;3;  6.0425663E+00;  0.0000000E+00; -9.3909144E-01;0;  5.8337599E-02;  4.0137066E+04;  0.0000000E+00;  4.0009253E-02;  4.0000000E+04;  0.0000000E+00;  3.9970211E+04;  6.3539587E-02;  0.0000000E+00; -5.2019898E-03;  3.8401699E+03;
  3.9080572E-01;  9.9999998E-03;  1.4004172E-01;4869; -6.7181876E-03;  0.0000000E+00; -1.7382213E-03;  1.0014005E+03;  1.0000000E-01;  1.1602634E+03;3;  5.8034754E+00;  0.0000000E+00; -9.9395967E-01;0;  5.8301937E-02;  4.0142023E+04;  0.0000000E+00;  1.5407726E-02;  4.0000000E+04;  0.0000000E+00;  3.9971117E+04;  6.2991388E-02;  0.0000000E+00; -4.6894513E-03;  3.7374783E+03;
  3.9081582E-01;  9.9999998E-03;  1.5004495E-01;4870; -6.8951449E-03;  0.0000000E+00; -1.8400416E-03;  1.0014467E+03;  1.0000000E-01;  1.1984845E+03;3;  5.5485425E+00;  0.0000000E+00; -1.0414072E+00;0;  5.7416342E-02;  4.0144453E+04;  0.0000000E+00; -8.1444727E-03;  4.0000000E+04;  0.0000000E+00;  3.9972625E+04;  6.1684318E-02;  0.0000000E+00; -4.2679776E-03;  3.5671099E+03;
  3.9083233E-01;  9.9999998E-03;  1.6004899E-01;4871; -7.1109501E-03;  0.0000000E+00; -1.9290254E-03;  1.0014695E+03;  1.0000000E-01;  1.2174469E+03;3;  5.2872643E+00;  0.0000000E+00; -1.0815048E+00;0;  5.5684566E-02;  4.0144324E+04;  0.0000000E+00; -2.5615735E-02;  4.0000000E+04;  0.0000000E+00;  3.9974434E+04;  5.9626624E-02;  0.0000000E+00; -3.9420566E-03;  3.3306360E+03;
  3.9085186E-01;  9.9999998E-03;  1.7005412E-01;4872; -7.3544765E-03;  0.0000000E+00; -2.0026886E-03;  1.0014559E+03;  1.0000000E-01;  1.2061880E+03;3;  5.0147181E+00;  0.0000000E+00; -1.1072865E+00;0;  5.3162962E-02;  4.0140906E+04;  0.0000000E+00; -3.3264879E-02;  4.0000000E+04;  0.0000000E+00;  3.9976887E+04;  5.6877196E-02;  0.0000000E+00; -3.7142339E-03;  3.0346252E+03;
  3.9087421E-01;  9.9999998E-03;  1.8006065E-01;4873; -7.6122531E-03;  0.0000000E+00; -2.0595882E-03;  1.0014114E+03;  1.0000000E-01;  1.1693496E+03;3;  4.7393746E+00;  0.0000000E+00; -1.1163906E+00;0;  4.9950618E-02;  4.0134848E+04;  0.0000000E+00; -2.9770514E-02;  4.0000000E+04;  0.0000000E+00;  3.9979445E+04;  5.3538192E-02;  0.0000000E+00; -3.5875731E-03;  2.6921411E+03;
  3.9089632E-01;  9.9999998E-03;  1.9006841E-01;4874; -7.8677209E-03;  0.0000000E+00; -2.0982593E-03;  1.0013413E+03;  1.0000000E-01;  1.1112771E+03;3;  4.4655571E+00;  0.0000000E+00; -1.1096498E+00;0;  4.6189081E-02;  4.0126227E+04;  0.0000000E+00; -1.6379001E-02;  4.0000000E+04;  0.0000000E+00;  3.9982371E+04;  4.9754608E-02;  0.0000000E+00; -3.5655259E-03;  2.3263586E+03;
  3.9091513E-01;  9.9999998E-03;  2.0007697E-01;4875; -8.1021599E-03;  0.0000000E+00; -2.1235843E-03;  1.0012431E+03;  1.0000000E-01;  1.0298967E+03;3;  4.2017908E+00;  0.0000000E+00; -1.0794187E+00;0;  4.2039003E-02;  4.0115555E+04;  0.0000000E+00;  3.6726752E-03;  4.0000000E+04;  0.0000000E+00;  3.9985156E+04;  4.5692112E-02;  0.0000000E+00; -3.6531074E-03;  1.9760107E+03;
  3.9092845E-01;  9.9999998E-03;  2.1008523E-01;4876; -8.2810847E-03;  0.0000000E+00; -2.1572274E-03;  1.0011218E+03;  1.0000000E-01;  9.2945514E+02;3;  3.9827282E+00;  0.0000000E+00; -1.0619483E+00;0;  3.7638489E-02;  4.0103512E+04;  0.0000000E+00;  2.5994143E-02;  4.0000000E+04;  0.0000000E+00;  3.9987227E+04;  4.1516058E-02;  0.0000000E+00; -3.8775685E-03;  1.6937168E+03;
  3.9093333E-01;  9.9999998E-03;  2.2009051E-01;4877; -8.3811050E-03;  0.0000000E+00; -2.2003758E-03;  1.0009802E+03;  1.0000000E-01;  8.1212512E+02;3;  3.8227372E+00;  0.0000000E+00; -1.0720124E+00;0;  3.3087656E-02;  4.0090648E+04;  0.0000000E+00;  4.5768891E-02;  4.0000000E+04;  0.0000000E+00;  3.9988621E+04;  3.7375841E-02;  0.0000000E+00; -4.2881863E-03;  1.5069012E+03;
  3.9092737E-01;  9.9999998E-03;  2.3008946E-01;4878; -8.4314998E-03;  0.0000000E+00; -2.2356675E-03;  1.0008320E+03;  1.0000000E-01;  6.8926440E+02;3;  3.6777687E+00;  0.0000000E+00; -1.0605420E+00;0;  2.8467260E-02;  4.0077109E+04;  0.0000000E+00;  5.8491487E-02;  4.0000000E+04;  0.0000000E+00;  3.9990105E+04;  3.3389874E-02;  0.0000000E+00; -4.9226130E-03;  1.3312316E+03;
  4.0085506E-01;  9.9999998E-03;  7.0025347E-02;4923; -6.9750450E-03;  0.0000000E+00; -8.6776784E-04;  1.0005837E+03;  1.0000000E-01;  4.8354184E+02;3;  7.1124177E+00;  0.0000000E+00; -4.5597160E-01;0;  2.8876372E-02;  4.0072727E+04;  0.0000000E+00;  7.0877381E-02;  4.0000000E+04;  0.0000000E+00;  3.9974691E+04;  3.8774297E-02;  0.0000000E+00; -9.8979250E-03;  3.2177070E+03;
  4.0084830E-01;  9.9999998E-03;  8.0027811E-02;4924; -6.8343561E-03;  0.0000000E+00; -9.9352666E-04;  1.0006300E+03;  1.0000000E-01;  5.2196051E+02;3;  6.9897213E+00;  0.0000000E+00; -5.2401358E-01;0;  3.1396225E-02;  4.0077242E+04;  0.0000000E+00;  8.6868323E-02;  4.0000000E+04;  0.0000000E+00;  3.9974203E+04;  4.0710997E-02;  0.0000000E+00; -9.3147727E-03;  3.3059092E+03;
  4.0083829E-01;  9.9999998E-03;  9.0030961E-02;4925; -6.7180325E-03;  0.0000000E+00; -1.1192209E-03;  1.0006890E+03;  1.0000000E-01;  5.7074927E+02;3;  6.8506155E+00;  0.0000000E+00; -5.8928281E-01;0;  3.3870351E-02;  4.0082336E+04;  0.0000000E+00;  1.0014017E-01;  4.0000000E+04;  0.0000000E+00;  3.9973500E+04;  4.2527653E-02;  0.0000000E+00; -8.6573036E-03;  3.3962334E+03;
  4.0082610E-01;  9.9999998E-03;  1.0003466E-01;4926; -6.6411765E-03;  0.0000000E+00; -1.2411497E-03;  1.0007535E+03;  1.0000000E-01;  6.2427856E+02;3;  6.6783338E+00;  0.0000000E+00; -6.5141970E-01;0;  3.6159940E-02;  4.0088180E+04;  0.0000000E+00;  1.0857699E-01;  4.0000000E+04;  0.0000000E+00;  3.9972750E+04;  4.4110037E-02;  0.0000000E+00; -7.9500955E-03;  3.4764070E+03;
  4.0081400E-01;  9.9999998E-03;  1.1003843E-01;4927; -6.6074091E-03;  0.0000000E+00; -1.3627814E-03;  1.0008255E+03;  1.0000000E-01;  6.8393121E+02;3;  6.4982061E+00;  0.0000000E+00; -7.1748191E-01;0;  3.8123872E-02;  4.0094375E+04;  0.0000000E+00;  1.1038622E-01;  4.0000000E+04;  0.0000000E+00;  3.9972500E+04;  4.5345798E-02;  0.0000000E+00; -7.2219251E-03;  3.5331882E+03;
  4.0080380E-01;  9.9999998E-03;  1.2004182E-01;4928; -6.6241599E-03;  0.0000000E+00; -1.4789620E-03;  1.0009021E+03;  1.0000000E-01;  7.4733685E+02;3;  6.2884054E+00;  0.0000000E+00; -7.7128655E-01;0;  3.9630555E-02;  4.0100387E+04;  0.0000000E+00;  1.0455618E-01;  4.0000000E+04;  0.0000000E+00;  3.9972238E+04;  4.6132784E-02;  0.0000000E+00; -6.5022307E-03;  3.5541682E+03;
  4.0079692E-01;  9.9999998E-03;  1.3004477E-01;4929; -6.6920635E-03;  0.0000000E+00; -1.5917969E-03;  1.0009742E+03;  1.0000000E-01;  8.0718701E+02;3;  6.0698547E+00;  0.0000000E+00; -8.3242410E-01;0;  4.0566724E-02;  4.0105902E+04;  0.0000000E+00;  9.1281287E-02;  4.0000000E+04;  0.0000000E+00;  3.9972480E+04;  4.6384308E-02;  0.0000000E+00; -5.8175856E-03;  3.5290332E+03;
  4.0079600E-01;  9.9999998E-03;  1.4004748E-01;4930; -6.8122754E-03;  0.0000000E+00; -1.6961661E-03;  1.0010369E+03;  1.0000000E-01;  8.5903735E+02;3;  5.8257742E+00;  0.0000000E+00; -8.8050991E-01;0;  4.0844288E-02;  4.0110297E+04;  0.0000000E+00;  7.2258629E-02;  4.0000000E+04;  0.0000000E+00;  3.9973332E+04;  4.6033051E-02;  0.0000000E+00; -5.1887617E-03;  3.4498733E+03;
  4.0080047E-01;  9.9999998E-03;  1.5005027E-01;4931; -6.9795749E-03;  0.0000000E+00; -1.7924086E-03;  1.0010884E+03;  1.0000000E-01;  9.0170282E+02;3;  5.5710130E+00;  0.0000000E+00; -9.2509818E-01;0;  4.0413689E-02;  4.0113059E+04;  0.0000000E+00;  5.0634950E-02;  4.0000000E+04;  0.0000000E+00;  3.9974262E+04;  4.5042761E-02;  0.0000000E+00; -4.6290713E-03;  3.3113186E+03;
  4.0080863E-01;  9.9999998E-03;  1.6005354E-01;4932; -7.1891062E-03;  0.0000000E+00; -1.8766341E-03;  1.0011189E+03;  1.0000000E-01;  9.2698608E+02;3;  5.3002090E+00;  0.0000000E+00; -9.5532578E-01;0;  3.9263468E-02;  4.0113926E+04;  0.0000000E+00;  3.0142482E-02;  4.0000000E+04;  0.0000000E+00;  3.9975891E+04;  4.3411955E-02;  0.0000000E+00; -4.1484884E-03;  3.1125884E+03;
  4.0082142E-01;  9.9999998E-03;  1.7005773E-01;4933; -7.4305199E-03;  0.0000000E+00; -1.9480737E-03;  1.0011254E+03;  1.0000000E-01;  9.3241803E+02;3;  5.0174961E+00;  0.0000000E+00; -9.7493142E-01;0;  3.7420798E-02;  4.0112512E+04;  0.0000000E+00;  1.3777249E-02;  4.0000000E+04;  0.0000000E+00;  3.9977984E+04;  4.1176725E-02;  0.0000000E+00; -3.7559278E-03;  2.8581697E+03;
  4.0083620E-01;  9.9999998E-03;  1.8006296E-01;4934; -7.6913661E-03;  0.0000000E+00; -2.0057100E-03;  1.0011074E+03;  1.0000000E-01;  9.1750482E+02;3;  4.7295766E+00;  0.0000000E+00; -9.7895992E-01;0;  3.4964070E-02;  4.0108738E+04;  0.0000000E+00;  2.9749509E-03;  4.0000000E+04;  0.0000000E+00;  3.9980270E+04;  3.8422972E-02;  0.0000000E+00; -3.4589025E-03;  2.5590181E+03;
  4.0085104E-01;  9.9999998E-03;  1.9006908E-01;4935; -7.9555297E-03;  0.0000000E+00; -2.0505516E-03;  1.0010652E+03;  1.0000000E-01;  8.8244409E+02;3;  4.4417076E+00;  0.0000000E+00; -9.5834208E-01;0;  3.2006241E-02;  4.0102648E+04;  0.0000000E+00; -2.5305762E-03;  4.0000000E+04;  0.0000000E+00;  3.9982875E+04;  3.5269901E-02;  0.0000000E+00; -3.2636584E-03;  2.2352588E+03;
  4.0086338E-01;  9.9999998E-03;  2.0007542E-01;4936; -8.1968419E-03;  0.0000000E+00; -2.0949049E-03;  1.0009958E+03;  1.0000000E-01;  8.2496423E+02;3;  4.1748042E+00;  0.0000000E+00; -9.3865961E-01;0;  2.8674230E-02;  4.0094551E+04;  0.0000000E+00; -4.3338835E-03;  4.0000000E+04;  0.0000000E+00;  3.9985410E+04;  3.1856366E-02;  0.0000000E+00; -3.1821358E-03;  1.9181936E+03;
  4.0087128E-01;  9.9999998E-03;  2.1008088E-01;4937; -8.3815595E-03;  0.0000000E+00; -2.1505477E-03;  1.0009016E+03;  1.0000000E-01;  7.4694177E+02;3;  3.9651303E+00;  0.0000000E+00; -9.3466252E-01;0;  2.5073320E-02;  4.0084766E+04;  0.0000000E+00; -4.7504515E-03;  4.0000000E+04;  0.0000000E+00;  3.9987551E+04;  2.8321367E-02;  0.0000000E+00; -3.2480475E-03;  1.6455016E+03;
  4.0087268E-01;  9.9999998E-03;  2.2008307E-01;4938; -8.5081309E-03;  0.0000000E+00; -2.2023327E-03;  1.0007883E+03;  1.0000000E-01;  6.5311731E+02;3;  3.7984469E+00;  0.0000000E+00; -9.2457163E-01;0;  2.1292638E-02;  4.0073738E+04;  0.0000000E+00; -6.2537636E-03;  4.0000000E+04;  0.0000000E+00;  3.9989156E+04;  2.4790207E-02;  0.0000000E+00; -3.4975687E-03;  1.4224724E+03;
  4.0086561E-01;  9.9999998E-03;  2.3007897E-01;4939; -8.5934754E-03;  0.0000000E+00; -2.2382992E-03;  1.0006713E+03;  1.0000000E-01;  5.5613239E+02;3;  3.6607046E+00;  0.0000000E+00; -9.0999478E-01;0;  1.7407140E-02;  4.0061746E+04;  0.0000000E+00; -1.0959802E-02;  4.0000000E+04;  0.0000000E+00;  3.9991352E+04;  2.1364111E-02;  0.0000000E+00; -3.9569722E-03;  1.1376554E+03;
  4.1085052E-01;  9.9999998E-03;  7.0030011E-02;4984; -7.0993588E-03;  0.0000000E+00; -8.9555443E-04;  1.0005442E+03;  1.0000000E-01;  4.5085141E+02;3;  7.1453009E+00;  0.0000000E+00; -4.0371454E-01;0;  1.4640506E-02;  4.0067324E+04;  0.0000000E+00;  7.5742230E-02;  4.0000000E+04;  0.0000000E+00;  3.9976742E+04;  2.5387879E-02;  0.0000000E+00; -1.0747373E-02;  2.9654229E+03;
  4.1084677E-01;  9.9999998E-03;  8.0032572E-02;4985; -6.9650891E-03;  0.0000000E+00; -1.0148967E-03;  1.0005540E+03;  1.0000000E-01;  4.5894995E+02;3;  7.0244198E+00;  0.0000000E+00; -4.6185091E-01;0;  1.6717788E-02;  4.0068348E+04;  0.0000000E+00;  9.4524607E-02;  4.0000000E+04;  0.0000000E+00;  3.9976168E+04;  2.6823178E-02;  0.0000000E+00; -1.0105390E-02;  3.0156211E+03;
  4.1083917E-01;  9.9999998E-03;  9.0035625E-02;4986; -6.8569276E-03;  0.0000000E+00; -1.1306119E-03;  1.0005719E+03;  1.0000000E-01;  4.7376434E+02;3;  6.8804688E+00;  0.0000000E+00; -5.1853544E-01;0;  1.8802024E-02;  4.0070117E+04;  0.0000000E+00;  1.1174911E-01;  4.0000000E+04;  0.0000000E+00;  3.9975973E+04;  2.8192349E-02;  0.0000000E+00; -9.3903234E-03;  3.0732588E+03;
  4.1082972E-01;  9.9999998E-03;  1.0003927E-01;4987; -6.7834286E-03;  0.0000000E+00; -1.2420507E-03;  1.0005988E+03;  1.0000000E-01;  4.9608469E+02;3;  6.7126164E+00;  0.0000000E+00; -5.7284003E-01;0;  2.0784590E-02;  4.0072605E+04;  0.0000000E+00;  1.2536739E-01;  4.0000000E+04;  0.0000000E+00;  3.9975414E+04;  2.9407835E-02;  0.0000000E+00; -8.6232452E-03;  3.1289199E+03;
  4.1081846E-01;  9.9999998E-03;  1.1004325E-01;4988; -6.7517776E-03;  0.0000000E+00; -1.3500170E-03;  1.0006321E+03;  1.0000000E-01;  5.2363947E+02;3;  6.5233545E+00;  0.0000000E+00; -6.2577742E-01;0;  2.2555815E-02;  4.0075609E+04;  0.0000000E+00;  1.3340245E-01;  4.0000000E+04;  0.0000000E+00;  3.9975270E+04;  3.0383887E-02;  0.0000000E+00; -7.8280717E-03;  3.1716165E+03;
  4.1080761E-01;  9.9999998E-03;  1.2004699E-01;4989; -6.7670303E-03;  0.0000000E+00; -1.4531901E-03;  1.0006750E+03;  1.0000000E-01;  5.5929279E+02;3;  6.3143663E+00;  0.0000000E+00; -6.7519319E-01;0;  2.4005869E-02;  4.0079008E+04;  0.0000000E+00;  1.3430305E-01;  4.0000000E+04;  0.0000000E+00;  3.9974941E+04;  3.1035619E-02;  0.0000000E+00; -7.0297499E-03;  3.1904722E+03;
  4.1080007E-01;  9.9999998E-03;  1.3005032E-01;4990; -6.8313759E-03;  0.0000000E+00; -1.5520740E-03;  1.0007198E+03;  1.0000000E-01;  5.9642755E+02;3;  6.0864325E+00;  0.0000000E+00; -7.2196627E-01;0;  2.5034210E-02;  4.0082449E+04;  0.0000000E+00;  1.2734069E-01;  4.0000000E+04;  0.0000000E+00;  3.9975172E+04;  3.1285990E-02;  0.0000000E+00; -6.2517803E-03;  3.1756504E+03;
  4.1079539E-01;  9.9999998E-03;  1.4005327E-01;4991; -6.9448380E-03;  0.0000000E+00; -1.6445734E-03;  1.0007667E+03;  1.0000000E-01;  6.3514246E+02;3;  5.8425145E+00;  0.0000000E+00; -7.6574516E-01;0;  2.5563341E-02;  4.0085391E+04;  0.0000000E+00;  1.1292036E-01;  4.0000000E+04;  0.0000000E+00;  3.9975660E+04;  3.1077487E-02;  0.0000000E+00; -5.5141468E-03;  3.1186318E+03;
  4.1079411E-01;  9.9999998E-03;  1.5005608E-01;4992; -7.1048411E-03;  0.0000000E+00; -1.7295069E-03;  1.0008052E+03;  1.0000000E-01;  6.6704279E+02;3;  5.5794520E+00;  0.0000000E+00; -7.9863441E-01;0;  2.5538346E-02;  4.0087863E+04;  0.0000000E+00;  9.2746466E-02;  4.0000000E+04;  0.0000000E+00;  3.9976398E+04;  3.0371081E-02;  0.0000000E+00; -4.8327348E-03;  3.0127563E+03;
  4.1079748E-01;  9.9999998E-03;  1.6005908E-01;4993; -7.3066144E-03;  0.0000000E+00; -1.8060246E-03;  1.0008324E+03;  1.0000000E-01;  6.8965948E+02;3;  5.3007188E+00;  0.0000000E+00; -8.2535112E-01;0;  2.4931040E-02;  4.0088762E+04;  0.0000000E+00;  6.9269069E-02;  4.0000000E+04;  0.0000000E+00;  3.9977801E+04;  2.9153347E-02;  0.0000000E+00; -4.2223064E-03;  2.8555605E+03;
  4.1080445E-01;  9.9999998E-03;  1.7006265E-01;4994; -7.5430362E-03;  0.0000000E+00; -1.8713957E-03;  1.0008471E+03;  1.0000000E-01;  7.0180725E+02;3;  5.0044003E+00;  0.0000000E+00; -8.3189744E-01;0;  2.3752145E-02;  4.0088285E+04;  0.0000000E+00;  4.4813417E-02;  4.0000000E+04;  0.0000000E+00;  3.9979387E+04;  2.7448421E-02;  0.0000000E+00; -3.6962756E-03;  2.6501997E+03;
  4.1081408E-01;  9.9999998E-03;  1.8006679E-01;4995; -7.8017660E-03;  0.0000000E+00; -1.9269460E-03;  1.0008449E+03;  1.0000000E-01;  7.0002954E+02;3;  4.6997643E+00;  0.0000000E+00; -8.2402700E-01;0;  2.2052430E-02;  4.0085895E+04;  0.0000000E+00;  2.1074949E-02;  4.0000000E+04;  0.0000000E+00;  3.9981344E+04;  2.5316982E-02;  0.0000000E+00; -3.2645517E-03;  2.4063506E+03;
  4.1082388E-01;  9.9999998E-03;  1.9007128E-01;4996; -8.0634356E-03;  0.0000000E+00; -1.9785934E-03;  1.0008193E+03;  1.0000000E-01;  6.7879559E+02;3;  4.4022737E+00;  0.0000000E+00; -8.0322951E-01;0;  1.9916970E-02;  4.0081664E+04;  0.0000000E+00; -1.0781431E-03;  4.0000000E+04;  0.0000000E+00;  3.9983465E+04;  2.2851711E-02;  0.0000000E+00; -2.9347411E-03;  2.1417361E+03;
  4.1083252E-01;  9.9999998E-03;  2.0007561E-01;4997; -8.2969898E-03;  0.0000000E+00; -2.0367056E-03;  1.0007705E+03;  1.0000000E-01;  6.3830286E+02;3;  4.1392608E+00;  0.0000000E+00; -7.8896749E-01;0;  1.7439762E-02;  4.0075621E+04;  0.0000000E+00; -2.1553351E-02;  4.0000000E+04;  0.0000000E+00;  3.9985496E+04;  2.0160809E-02;  0.0000000E+00; -2.7210473E-03;  1.8824840E+03;
  4.1083804E-01;  9.9999998E-03;  2.1007848E-01;4998; -8.4903082E-03;  0.0000000E+00; -2.0991263E-03;  1.0006996E+03;  1.0000000E-01;  5.7963788E+02;3;  3.9326057E+00;  0.0000000E+00; -7.8252250E-01;0;  1.4705285E-02;  4.0067805E+04;  0.0000000E+00; -4.0703919E-02;  4.0000000E+04;  0.0000000E+00;  3.9987426E+04;  1.7355043E-02;  0.0000000E+00; -2.6497580E-03;  1.6530878E+03;
  4.1083893E-01;  9.9999998E-03;  2.2007719E-01;4999; -8.6404551E-03;  0.0000000E+00; -2.1601322E-03;  1.0006086E+03;  1.0000000E-01;  5.0428198E+02;3;  3.7735460E+00;  0.0000000E+00; -7.7149880E-01;0;  1.1772745E-02;  4.0058637E+04;  0.0000000E+00; -5.9044767E-02;  4.0000000E+04;  0.0000000E+00;  3.9988914E+04;  1.4534828E-02;  0.0000000E+00; -2.7620827E-03;  1.4280094E+03;
  4.1083485E-01;  9.9999998E-03;  2.3006915E-01;5000; -8.7602269E-03;  0.0000000E+00; -2.1969299E-03;  1.0005192E+03;  1.0000000E-01;  4.3021002E+02;3;  3.6476145E+00;  0.0000000E+00; -7.5624174E-01;0;  8.7212976E-03;  4.0048410E+04;  0.0000000E+00; -7.6837234E-02;  4.0000000E+04;  0.0000000E+00;  3.9992008E+04;  1.1781111E-02;  0.0000000E+00; -3.0598138E-03;  1.0553234E+03;
  4.2086408E-01;  9.9999998E-03;  7.0032880E-02;5045; -7.2233691E-03;  0.0000000E+00; -9.2636497E-04;  1.0006305E+03;  1.0000000E-01;  5.2235553E+02;3;  7.1693735E+00;  0.0000000E+00; -3.5105798E-01;0;  3.3972273E-03;  4.0071566E+04;  0.0000000E+00;  7.6904424E-02;  4.0000000E+04;  0.0000000E+00;  3.9978934E+04;  1.4938315E-02;  0.0000000E+00; -1.1541088E-02;  2.6876904E+03;
  4.2086080E-01;  9.9999998E-03;  8.0035642E-02;5046; -7.0996974E-03;  0.0000000E+00; -1.0398660E-03;  1.0006047E+03;  1.0000000E-01;  5.0102283E+02;3;  7.0530777E+00;  0.0000000E+00; -4.0091470E-01;0;  5.0054360E-03;  4.0069703E+04;  0.0000000E+00;  9.6670799E-02;  4.0000000E+04;  0.0000000E+00;  3.9978812E+04;  1.5831409E-02;  0.0000000E+00; -1.0825973E-02;  2.7034939E+03;
  4.2085505E-01;  9.9999998E-03;  9.0038627E-02;5047; -7.0014508E-03;  0.0000000E+00; -1.1466494E-03;  1.0005869E+03;  1.0000000E-01;  4.8620844E+02;3;  6.9087110E+00;  0.0000000E+00; -4.4787997E-01;0;  6.6654766E-03;  4.0068414E+04;  0.0000000E+00;  1.1555229E-01;  4.0000000E+04;  0.0000000E+00;  3.9978629E+04;  1.6703360E-02;  0.0000000E+00; -1.0037883E-02;  2.7303625E+03;
  4.2084533E-01;  9.9999998E-03;  1.0004213E-01;5048; -6.9359322E-03;  0.0000000E+00; -1.2471831E-03;  1.0005779E+03;  1.0000000E-01;  4.7880124E+02;3;  6.7400885E+00;  0.0000000E+00; -4.9334154E-01;0;  8.3042011E-03;  4.0067664E+04;  0.0000000E+00;  1.3164264E-01;  4.0000000E+04;  0.0000000E+00;  3.9978332E+04;  1.7499676E-02;  0.0000000E+00; -9.1954749E-03;  2.7619688E+03;
  4.2083356E-01;  9.9999998E-03;  1.1004596E-01;5049; -6.9091008E-03;  0.0000000E+00; -1.3421108E-03;  1.0005758E+03;  1.0000000E-01;  4.7702350E+02;3;  6.5483980E+00;  0.0000000E+00; -5.3616339E-01;0;  9.8379366E-03;  4.0067551E+04;  0.0000000E+00;  1.4295267E-01;  4.0000000E+04;  0.0000000E+00;  3.9978039E+04;  1.8157871E-02;  0.0000000E+00; -8.3199348E-03;  2.7901157E+03;
  4.2082247E-01;  9.9999998E-03;  1.2004977E-01;5050; -6.9259722E-03;  0.0000000E+00; -1.4314845E-03;  1.0005834E+03;  1.0000000E-01;  4.8334433E+02;3;  6.3327112E+00;  0.0000000E+00; -5.7529438E-01;0;  1.1179779E-02;  4.0068184E+04;  0.0000000E+00;  1.4765933E-01;  4.0000000E+04;  0.0000000E+00;  3.9978051E+04;  1.8613406E-02;  0.0000000E+00; -7.4336263E-03;  2.8060364E+03;
  4.2081279E-01;  9.9999998E-03;  1.3005325E-01;5051; -6.9885026E-03;  0.0000000E+00; -1.5155914E-03;  1.0005972E+03;  1.0000000E-01;  4.9480078E+02;3;  6.0985131E+00;  0.0000000E+00; -6.1074275E-01;0;  1.2248293E-02;  4.0069203E+04;  0.0000000E+00;  1.4441255E-01;  4.0000000E+04;  0.0000000E+00;  3.9978090E+04;  1.8806934E-02;  0.0000000E+00; -6.5586413E-03;  2.8009143E+03;
  4.2080578E-01;  9.9999998E-03;  1.4005642E-01;5052; -7.0978324E-03;  0.0000000E+00; -1.5940311E-03;  1.0006193E+03;  1.0000000E-01;  5.1307190E+02;3;  5.8435769E+00;  0.0000000E+00; -6.4205247E-01;0;  1.2971433E-02;  4.0070559E+04;  0.0000000E+00;  1.3264470E-01;  4.0000000E+04;  0.0000000E+00;  3.9978418E+04;  1.8687161E-02;  0.0000000E+00; -5.7157283E-03;  2.7665112E+03;
  4.2080274E-01;  9.9999998E-03;  1.5005939E-01;5053; -7.2518736E-03;  0.0000000E+00; -1.6657214E-03;  1.0006411E+03;  1.0000000E-01;  5.3114545E+02;3;  5.5694427E+00;  0.0000000E+00; -6.6603839E-01;0;  1.3292301E-02;  4.0071613E+04;  0.0000000E+00;  1.1283927E-01;  4.0000000E+04;  0.0000000E+00;  3.9979035E+04;  1.8216180E-02;  0.0000000E+00; -4.9238792E-03;  2.6953564E+03;
  4.2080361E-01;  9.9999998E-03;  1.6006236E-01;5054; -7.4468530E-03;  0.0000000E+00; -1.7300006E-03;  1.0006590E+03;  1.0000000E-01;  5.4595984E+02;3;  5.2766151E+00;  0.0000000E+00; -6.7699373E-01;0;  1.3175201E-02;  4.0072266E+04;  0.0000000E+00;  8.6345069E-02;  4.0000000E+04;  0.0000000E+00;  3.9979855E+04;  1.7377323E-02;  0.0000000E+00; -4.2021223E-03;  2.5838586E+03;
  4.2080787E-01;  9.9999998E-03;  1.7006558E-01;5055; -7.6760878E-03;  0.0000000E+00; -1.7861931E-03;  1.0006699E+03;  1.0000000E-01;  5.5494720E+02;3;  4.9649043E+00;  0.0000000E+00; -6.7258292E-01;0;  1.2613545E-02;  4.0071812E+04;  0.0000000E+00;  5.5015679E-02;  4.0000000E+04;  0.0000000E+00;  3.9981035E+04;  1.6180662E-02;  0.0000000E+00; -3.5671175E-03;  2.4340645E+03;
  4.2081487E-01;  9.9999998E-03;  1.8006903E-01;5056; -7.9268795E-03;  0.0000000E+00; -1.8371801E-03;  1.0006674E+03;  1.0000000E-01;  5.5297198E+02;3;  4.6495252E+00;  0.0000000E+00; -6.5738320E-01;0;  1.1635113E-02;  4.0070203E+04;  0.0000000E+00;  2.0882696E-02;  4.0000000E+04;  0.0000000E+00;  3.9982508E+04;  1.4664596E-02;  0.0000000E+00; -3.0294831E-03;  2.2546907E+03;
  4.2082343E-01;  9.9999998E-03;  1.9007246E-01;5057; -8.1764217E-03;  0.0000000E+00; -1.8900750E-03;  1.0006558E+03;  1.0000000E-01;  5.4329321E+02;3;  4.3500729E+00;  0.0000000E+00; -6.4068568E-01;0;  1.0296592E-02;  4.0067238E+04;  0.0000000E+00; -1.4124877E-02;  4.0000000E+04;  0.0000000E+00;  3.9983984E+04;  1.2892136E-02;  0.0000000E+00; -2.5955436E-03;  2.0617009E+03;
  4.2083174E-01;  9.9999998E-03;  2.0007518E-01;5058; -8.4055709E-03;  0.0000000E+00; -1.9479127E-03;  1.0006168E+03;  1.0000000E-01;  5.1099786E+02;3;  4.0985537E+00;  0.0000000E+00; -6.3625318E-01;0;  8.6682420E-03;  4.0062668E+04;  0.0000000E+00; -4.8394155E-02;  4.0000000E+04;  0.0000000E+00;  3.9985422E+04;  1.0942146E-02;  0.0000000E+00; -2.2739044E-03;  1.8761261E+03;
  4.2083868E-01;  9.9999998E-03;  2.1007569E-01;5059; -8.6059617E-03;  0.0000000E+00; -2.0099655E-03;  1.0005628E+03;  1.0000000E-01;  4.6625839E+02;3;  3.8910270E+00;  0.0000000E+00; -6.3178742E-01;0;  6.8127206E-03;  4.0056695E+04;  0.0000000E+00; -8.0666050E-02;  4.0000000E+04;  0.0000000E+00;  3.9986805E+04;  8.8966843E-03;  0.0000000E+00; -2.0839637E-03;  1.7087507E+03;
  4.2084387E-01;  9.9999998E-03;  2.2007129E-01;5060; -8.7757483E-03;  0.0000000E+00; -2.0745094E-03;  1.0004896E+03;  1.0000000E-01;  4.0561813E+02;3;  3.7506058E+00;  0.0000000E+00; -6.1855811E-01;0;  4.7663990E-03;  4.0049305E+04;  0.0000000E+00; -1.1000387E-01;  4.0000000E+04;  0.0000000E+00;  3.9988406E+04;  6.8312390E-03;  0.0000000E+00; -2.0648399E-03;  1.5059788E+03;
  4.2084828E-01;  9.9999998E-03;  2.3005986E-01;5061; -8.9283362E-03;  0.0000000E+00; -2.1122422E-03;  1.0004279E+03;  1.0000000E-01;  3.5445908E+02;3;  3.6385260E+00;  0.0000000E+00; -6.0264379E-01;0;  2.6070427E-03;  4.0040855E+04;  0.0000000E+00; -1.3557196E-01;  4.0000000E+04;  0.0000000E+00;  3.9991852E+04;  4.8073353E-03;  0.0000000E+00; -2.2002927E-03;  1.0825195E+03;
  4.3089619E-01;  9.9999998E-03;  7.0033446E-02;5106; -7.3395842E-03;  0.0000000E+00; -9.6526014E-04;  1.0008445E+03;  1.0000000E-01;  6.9963446E+02;3;  7.1957712E+00;  0.0000000E+00; -3.0061650E-01;0; -4.9205725E-03;  4.0086098E+04;  0.0000000E+00;  7.3813885E-02;  4.0000000E+04;  0.0000000E+00;  3.9981566E+04;  7.4237236E-03;  0.0000000E+00; -1.2344296E-02;  2.3906421E+03;
  4.3089244E-01;  9.9999998E-03;  8.0036387E-02;5107; -7.2298939E-03;  0.0000000E+00; -1.0741749E-03;  1.0007933E+03;  1.0000000E-01;  6.5726532E+02;3;  7.0739779E+00;  0.0000000E+00; -3.3920330E-01;0; -3.7697135E-03;  4.0081785E+04;  0.0000000E+00;  9.2752978E-02;  4.0000000E+04;  0.0000000E+00;  3.9981652E+04;  7.7753812E-03;  0.0000000E+00; -1.1545095E-02;  2.3782393E+03;
  4.3088570E-01;  9.9999998E-03;  9.0039328E-02;5108; -7.1446705E-03;  0.0000000E+00; -1.1734876E-03;  1.0007441E+03;  1.0000000E-01;  6.1647632E+02;3;  6.9290657E+00;  0.0000000E+00; -3.7709191E-01;0; -2.5263252E-03;  4.0077652E+04;  0.0000000E+00;  1.1099889E-01;  4.0000000E+04;  0.0000000E+00;  3.9981605E+04;  8.1450874E-03;  0.0000000E+00; -1.0671413E-02;  2.3790400E+03;
  4.3087673E-01;  9.9999998E-03;  1.0004247E-01;5109; -7.0899231E-03;  0.0000000E+00; -1.2640265E-03;  1.0006995E+03;  1.0000000E-01;  5.7953912E+02;3;  6.7580338E+00;  0.0000000E+00; -4.1176823E-01;0; -1.2366995E-03;  4.0074266E+04;  0.0000000E+00;  1.2683609E-01;  4.0000000E+04;  0.0000000E+00;  3.9981566E+04;  8.5041821E-03;  0.0000000E+00; -9.7408816E-03;  2.3897102E+03;
  4.3086559E-01;  9.9999998E-03;  1.1004581E-01;5110; -7.0708399E-03;  0.0000000E+00; -1.3467305E-03;  1.0006650E+03;  1.0000000E-01;  5.5089795E+02;3;  6.5599370E+00;  0.0000000E+00; -4.4198859E-01;0;  4.3991953E-05;  4.0071438E+04;  0.0000000E+00;  1.3839979E-01;  4.0000000E+04;  0.0000000E+00;  3.9981246E+04;  8.8170106E-03;  0.0000000E+00; -8.7730186E-03;  2.4051194E+03;
  4.3085313E-01;  9.9999998E-03;  1.2004912E-01;5111; -7.0916535E-03;  0.0000000E+00; -1.4222892E-03;  1.0006412E+03;  1.0000000E-01;  5.3124420E+02;3;  6.3406634E+00;  0.0000000E+00; -4.7060454E-01;0;  1.2532393E-03;  4.0069340E+04;  0.0000000E+00;  1.4383228E-01;  4.0000000E+04;  0.0000000E+00;  3.9981125E+04;  9.0423059E-03;  0.0000000E+00; -7.7890665E-03;  2.4190735E+03;
  4.3084171E-01;  9.9999998E-03;  1.3005227E-01;5112; -7.1549327E-03;  0.0000000E+00; -1.4913391E-03;  1.0006224E+03;  1.0000000E-01;  5.1563971E+02;3;  6.0976925E+00;  0.0000000E+00; -4.9421266E-01;0;  2.3244717E-03;  4.0067902E+04;  0.0000000E+00;  1.4152846E-01;  4.0000000E+04;  0.0000000E+00;  3.9981062E+04;  9.1358311E-03;  0.0000000E+00; -6.8113594E-03;  2.4246160E+03;
  4.3083325E-01;  9.9999998E-03;  1.4005527E-01;5113; -7.2616753E-03;  0.0000000E+00; -1.5539363E-03;  1.0006143E+03;  1.0000000E-01;  5.0892383E+02;3;  5.8287868E+00;  0.0000000E+00; -5.0987166E-01;0;  3.1939340E-03;  4.0067133E+04;  0.0000000E+00;  1.3036588E-01;  4.0000000E+04;  0.0000000E+00;  3.9981203E+04;  9.0564536E-03;  0.0000000E+00; -5.8625196E-03;  2.4142566E+03;
  4.3082875E-01;  9.9999998E-03;  1.5005811E-01;5114; -7.4111475E-03;  0.0000000E+00; -1.6097506E-03;  1.0006147E+03;  1.0000000E-01;  5.0931888E+02;3;  5.5406051E+00;  0.0000000E+00; -5.1935524E-01;0;  3.8058273E-03;  4.0066676E+04;  0.0000000E+00;  1.1000930E-01;  4.0000000E+04;  0.0000000E+00;  3.9981414E+04;  8.7710200E-03;  0.0000000E+00; -4.9651926E-03;  2.3805190E+03;
  4.3082896E-01;  9.9999998E-03;  1.6006090E-01;5115; -7.5997114E-03;  0.0000000E+00; -1.6585457E-03;  1.0006187E+03;  1.0000000E-01;  5.1257806E+02;3;  5.2342558E+00;  0.0000000E+00; -5.1704931E-01;0;  4.1173431E-03;  4.0066395E+04;  0.0000000E+00;  8.1015795E-02;  4.0000000E+04;  0.0000000E+00;  3.9981941E+04;  8.2598450E-03;  0.0000000E+00; -4.1425019E-03;  2.3188525E+03;
  4.3083325E-01;  9.9999998E-03;  1.7006384E-01;5116; -7.8203240E-03;  0.0000000E+00; -1.7011078E-03;  1.0006200E+03;  1.0000000E-01;  5.1366443E+02;3;  4.9077783E+00;  0.0000000E+00; -5.0036889E-01;0;  4.1089822E-03;  4.0065910E+04;  0.0000000E+00;  4.4942051E-02;  4.0000000E+04;  0.0000000E+00;  3.9982602E+04;  7.5222771E-03;  0.0000000E+00; -3.4132947E-03;  2.2299565E+03;
  4.3084091E-01;  9.9999998E-03;  1.8006685E-01;5117; -8.0590462E-03;  0.0000000E+00; -1.7417710E-03;  1.0006179E+03;  1.0000000E-01;  5.1188672E+02;3;  4.5897989E+00;  0.0000000E+00; -4.8261440E-01;0;  3.7899581E-03;  4.0064770E+04;  0.0000000E+00;  4.1357134E-03;  4.0000000E+04;  0.0000000E+00;  3.9983520E+04;  6.5772007E-03;  0.0000000E+00; -2.7872426E-03;  2.1207039E+03;
  4.3085095E-01;  9.9999998E-03;  1.9006941E-01;5118; -8.2971742E-03;  0.0000000E+00; -1.7846677E-03;  1.0006033E+03;  1.0000000E-01;  4.9983768E+02;3;  4.3029003E+00;  0.0000000E+00; -4.7762796E-01;0;  3.1957976E-03;  4.0062469E+04;  0.0000000E+00; -3.8644589E-02;  4.0000000E+04;  0.0000000E+00;  3.9984508E+04;  5.4615224E-03;  0.0000000E+00; -2.2657248E-03;  2.0038973E+03;
  4.3086204E-01;  9.9999998E-03;  2.0007074E-01;5119; -8.5232379E-03;  0.0000000E+00; -1.8320922E-03;  1.0005740E+03;  1.0000000E-01;  4.7554208E+02;3;  4.0536842E+00;  0.0000000E+00; -4.8145580E-01;0;  2.3771920E-03;  4.0059293E+04;  0.0000000E+00; -8.0685854E-02;  4.0000000E+04;  0.0000000E+00;  3.9985211E+04;  4.2253160E-03;  0.0000000E+00; -1.8481240E-03;  1.8938486E+03;
  4.3087348E-01;  9.9999998E-03;  2.1006940E-01;5120; -8.7268958E-03;  0.0000000E+00; -1.8846472E-03;  1.0005336E+03;  1.0000000E-01;  4.4206152E+02;3;  3.8463662E+00;  0.0000000E+00; -4.8749015E-01;0;  1.3828633E-03;  4.0054797E+04;  0.0000000E+00; -1.1963139E-01;  4.0000000E+04;  0.0000000E+00;  3.9986082E+04;  2.9237065E-03;  0.0000000E+00; -1.5408433E-03;  1.7877499E+03;
  4.3088517E-01;  9.9999998E-03;  2.2006290E-01;5121; -8.9099314E-03;  0.0000000E+00; -1.9418549E-03;  1.0004817E+03;  1.0000000E-01;  3.9909979E+02;3;  3.7201743E+00;  0.0000000E+00; -4.7059655E-01;0;  2.4073059E-04;  4.0049387E+04;  0.0000000E+00; -1.5364605E-01;  4.0000000E+04;  0.0000000E+00;  3.9987645E+04;  1.6093212E-03;  0.0000000E+00; -1.3685906E-03;  1.6126669E+03;
  4.3089736E-01;  9.9999998E-03;  2.3004997E-01;5122; -9.0896562E-03;  0.0000000E+00; -1.9724765E-03;  1.0004458E+03;  1.0000000E-01;  3.6937225E+02;3;  3.6245379E+00;  0.0000000E+00; -4.5122543E-01;0; -9.6405426E-04;  4.0042578E+04;  0.0000000E+00; -1.8129763E-01;  4.0000000E+04;  0.0000000E+00;  3.9991109E+04;  3.2635580E-04;  0.0000000E+00; -1.2904101E-03;  1.1770272E+03;
  4.4093165E-01;  9.9999998E-03;  7.0030361E-02;5167; -7.4420753E-03;  0.0000000E+00; -1.0169544E-03;  1.0011773E+03;  1.0000000E-01;  9.7537976E+02;3;  7.2133942E+00;  0.0000000E+00; -2.4910796E-01;0; -1.0657530E-02;  4.0109855E+04;  0.0000000E+00;  6.5769315E-02;  4.0000000E+04;  0.0000000E+00;  3.9984238E+04;  2.5669753E-03;  0.0000000E+00; -1.3224506E-02;  2.0834443E+03;
  4.4092906E-01;  9.9999998E-03;  8.0033377E-02;5168; -7.3496024E-03;  0.0000000E+00; -1.1233250E-03;  1.0011033E+03;  1.0000000E-01;  9.1404816E+02;3;  7.0924053E+00;  0.0000000E+00; -2.7870500E-01;0; -9.9195447E-03;  4.0103652E+04;  0.0000000E+00;  8.2140028E-02;  4.0000000E+04;  0.0000000E+00;  3.9984414E+04;  2.4159569E-03;  0.0000000E+00; -1.2335502E-02;  2.0507249E+03;
  4.4092354E-01;  9.9999998E-03;  9.0036429E-02;5169; -7.2803749E-03;  0.0000000E+00; -1.2172551E-03;  1.0010261E+03;  1.0000000E-01;  8.5004999E+02;3;  6.9404707E+00;  0.0000000E+00; -3.0416360E-01;0; -9.0566427E-03;  4.0097359E+04;  0.0000000E+00;  9.7701155E-02;  4.0000000E+04;  0.0000000E+00;  3.9984512E+04;  2.3120395E-03;  0.0000000E+00; -1.1368682E-02;  2.0320430E+03;
  4.4091550E-01;  9.9999998E-03;  1.0003937E-01;5170; -7.2395648E-03;  0.0000000E+00; -1.2995664E-03;  1.0009559E+03;  1.0000000E-01;  7.9187878E+02;3;  6.7637997E+00;  0.0000000E+00; -3.2688272E-01;0; -8.0891941E-03;  4.0091660E+04;  0.0000000E+00;  1.1095139E-01;  4.0000000E+04;  0.0000000E+00;  3.9984551E+04;  2.2519880E-03;  0.0000000E+00; -1.0341182E-02;  2.0267911E+03;
  4.4090542E-01;  9.9999998E-03;  1.1004196E-01;5171; -7.2313212E-03;  0.0000000E+00; -1.3712512E-03;  1.0008925E+03;  1.0000000E-01;  7.3943579E+02;3;  6.5588474E+00;  0.0000000E+00; -3.4397528E-01;0; -7.0490390E-03;  4.0086449E+04;  0.0000000E+00;  1.2025595E-01;  4.0000000E+04;  0.0000000E+00;  3.9984355E+04;  2.2229759E-03;  0.0000000E+00; -9.2720147E-03;  2.0329625E+03;
  4.4089451E-01;  9.9999998E-03;  1.2004430E-01;5172; -7.2593004E-03;  0.0000000E+00; -1.4334513E-03;  1.0008352E+03;  1.0000000E-01;  6.9193097E+02;3;  6.3345923E+00;  0.0000000E+00; -3.5931724E-01;0; -5.9785275E-03;  4.0082004E+04;  0.0000000E+00;  1.2395689E-01;  4.0000000E+04;  0.0000000E+00;  3.9984379E+04;  2.2037914E-03;  0.0000000E+00; -8.1823189E-03;  2.0471909E+03;
  4.4088355E-01;  9.9999998E-03;  1.3004658E-01;5173; -7.3262886E-03;  0.0000000E+00; -1.4868831E-03;  1.0007897E+03;  1.0000000E-01;  6.5430243E+02;3;  6.0799074E+00;  0.0000000E+00; -3.6624044E-01;0; -4.9275518E-03;  4.0078504E+04;  0.0000000E+00;  1.2049588E-01;  4.0000000E+04;  0.0000000E+00;  3.9984156E+04;  2.1678857E-03;  0.0000000E+00; -7.0954375E-03;  2.0648555E+03;
  4.4087514E-01;  9.9999998E-03;  1.4004894E-01;5174; -7.4336291E-03;  0.0000000E+00; -1.5318320E-03;  1.0007570E+03;  1.0000000E-01;  6.2714270E+02;3;  5.7963099E+00;  0.0000000E+00; -3.6631092E-01;0; -3.9509395E-03;  4.0075766E+04;  0.0000000E+00;  1.0861603E-01;  4.0000000E+04;  0.0000000E+00;  3.9983859E+04;  2.0857495E-03;  0.0000000E+00; -6.0366890E-03;  2.0800247E+03;
  4.4087052E-01;  9.9999998E-03;  1.5005122E-01;5175; -7.5809252E-03;  0.0000000E+00; -1.5682870E-03;  1.0007361E+03;  1.0000000E-01;  6.0985925E+02;3;  5.4892440E+00;  0.0000000E+00; -3.5505801E-01;0; -3.1019885E-03;  4.0073898E+04;  0.0000000E+00;  8.7600373E-02;  4.0000000E+04;  0.0000000E+00;  3.9983844E+04;  1.9307754E-03;  0.0000000E+00; -5.0327638E-03;  2.0858398E+03;
  4.4087058E-01;  9.9999998E-03;  1.6005345E-01;5176; -7.7649755E-03;  0.0000000E+00; -1.5961614E-03;  1.0007194E+03;  1.0000000E-01;  5.9603247E+02;3;  5.1665483E+00;  0.0000000E+00; -3.3331800E-01;0; -2.4275412E-03;  4.0072438E+04;  0.0000000E+00;  5.7558201E-02;  4.0000000E+04;  0.0000000E+00;  3.9983934E+04;  1.6832551E-03;  0.0000000E+00; -4.1107964E-03;  2.0769321E+03;
  4.4087559E-01;  9.9999998E-03;  1.7005578E-01;5177; -7.9762517E-03;  0.0000000E+00; -1.6185899E-03;  1.0007090E+03;  1.0000000E-01;  5.8744012E+02;3;  4.8496141E+00;  0.0000000E+00; -3.1874865E-01;0; -1.9569099E-03;  4.0071359E+04;  0.0000000E+00;  1.9832648E-02;  4.0000000E+04;  0.0000000E+00;  3.9984059E+04;  1.3340553E-03;  0.0000000E+00; -3.2909652E-03;  2.0517019E+03;
  4.4088507E-01;  9.9999998E-03;  1.8005811E-01;5178; -8.2020694E-03;  0.0000000E+00; -1.6406602E-03;  1.0007013E+03;  1.0000000E-01;  5.8102057E+02;3;  4.5415664E+00;  0.0000000E+00; -3.1348017E-01;0; -1.6941428E-03;  4.0070340E+04;  0.0000000E+00; -2.3067541E-02;  4.0000000E+04;  0.0000000E+00;  3.9984215E+04;  8.8615931E-04;  0.0000000E+00; -2.5803021E-03;  2.0134441E+03;
  4.4089812E-01;  9.9999998E-03;  1.9005987E-01;5179; -8.4305387E-03;  0.0000000E+00; -1.6658037E-03;  1.0006874E+03;  1.0000000E-01;  5.6956409E+02;3;  4.2617164E+00;  0.0000000E+00; -3.2080761E-01;0; -1.6183454E-03;  4.0068754E+04;  0.0000000E+00; -6.7951918E-02;  4.0000000E+04;  0.0000000E+00;  3.9984676E+04;  3.5465541E-04;  0.0000000E+00; -1.9730008E-03;  1.9693345E+03;
  4.4091332E-01;  9.9999998E-03;  2.0006017E-01;5180; -8.6492961E-03;  0.0000000E+00; -1.6964002E-03;  1.0006674E+03;  1.0000000E-01;  5.5287323E+02;3;  4.0141459E+00;  0.0000000E+00; -3.3513442E-01;0; -1.6917312E-03;  4.0066617E+04;  0.0000000E+00; -1.1154873E-01;  4.0000000E+04;  0.0000000E+00;  3.9985070E+04; -2.3536083E-04;  0.0000000E+00; -1.4563703E-03;  1.9247078E+03;
  4.4092941E-01;  9.9999998E-03;  2.1005784E-01;5181; -8.8517014E-03;  0.0000000E+00; -1.7324005E-03;  1.0006379E+03;  1.0000000E-01;  5.2847882E+02;3;  3.8013003E+00;  0.0000000E+00; -3.5529342E-01;0; -1.8709633E-03;  4.0063656E+04;  0.0000000E+00; -1.5098001E-01;  4.0000000E+04;  0.0000000E+00;  3.9985652E+04; -8.5285638E-04;  0.0000000E+00; -1.0181068E-03;  1.8658569E+03;
  4.4094571E-01;  9.9999998E-03;  2.2005118E-01;5182; -9.0393955E-03;  0.0000000E+00; -1.7682482E-03;  1.0006080E+03;  1.0000000E-01;  5.0368942E+02;3;  3.6845515E+00;  0.0000000E+00; -3.4391192E-01;0; -2.1125586E-03;  4.0059914E+04;  0.0000000E+00; -1.8400833E-01;  4.0000000E+04;  0.0000000E+00;  3.9986957E+04; -1.4659924E-03;  0.0000000E+00; -6.4656622E-04;  1.7189703E+03;
  4.4096166E-01;  9.9999998E-03;  2.3003998E-01;5183; -9.2374813E-03;  0.0000000E+00; -1.7835401E-03;  1.0005897E+03;  1.0000000E-01;  4.8857874E+02;3;  3.6082249E+00;  0.0000000E+00; -3.2231060E-01;0; -2.3271427E-03;  4.0055223E+04;  0.0000000E+00; -2.0889401E-01;  4.0000000E+04;  0.0000000E+00;  3.9989875E+04; -2.0466270E-03;  0.0000000E+00; -2.8051567E-04;  1.3297689E+03;
  4.5095617E-01;  9.9999998E-03;  7.0022762E-02;5228; -7.5245770E-03;  0.0000000E+00; -1.0860180E-03;  1.0015839E+03;  1.0000000E-01;  1.3121603E+03;3;  7.2371488E+00;  0.0000000E+00; -2.0202884E-01;0; -1.4363206E-02;  4.0139848E+04;  0.0000000E+00;  5.2320361E-02;  4.0000000E+04;  0.0000000E+00;  3.9986938E+04; -1.1870971E-04;  0.0000000E+00; -1.4244496E-02;  1.7784061E+03;
  4.5095363E-01;  9.9999998E-03;  8.0025420E-02;5229; -7.4525094E-03;  0.0000000E+00; -1.1927075E-03;  1.0014932E+03;  1.0000000E-01;  1.2371007E+03;3;  7.1053433E+00;  0.0000000E+00; -2.1963568E-01;0; -1.3966554E-02;  4.0132223E+04;  0.0000000E+00;  6.4617373E-02;  4.0000000E+04;  0.0000000E+00;  3.9987211E+04; -7.0063531E-04;  0.0000000E+00; -1.3265919E-02;  1.7334116E+03;
  4.5094928E-01;  9.9999998E-03;  9.0028107E-02;5230; -7.4036438E-03;  0.0000000E+00; -1.2837907E-03;  1.0014017E+03;  1.0000000E-01;  1.1613497E+03;3;  6.9438477E+00;  0.0000000E+00; -2.3134090E-01;0; -1.3421501E-02;  4.0124684E+04;  0.0000000E+00;  7.5875856E-02;  4.0000000E+04;  0.0000000E+00;  3.9987555E+04; -1.2169944E-03;  0.0000000E+00; -1.2204506E-02;  1.7024113E+03;
  4.5094299E-01;  9.9999998E-03;  1.0003060E-01;5231; -7.3804022E-03;  0.0000000E+00; -1.3601371E-03;  1.0013114E+03;  1.0000000E-01;  1.0864877E+03;3;  6.7594600E+00;  0.0000000E+00; -2.3996291E-01;0; -1.2727295E-02;  4.0117125E+04;  0.0000000E+00;  8.4895536E-02;  4.0000000E+04;  0.0000000E+00;  3.9987492E+04; -1.6502308E-03;  0.0000000E+00; -1.1077064E-02;  1.6872317E+03;
  4.5093539E-01;  9.9999998E-03;  1.1003266E-01;5232; -7.3873089E-03;  0.0000000E+00; -1.4224994E-03;  1.0012255E+03;  1.0000000E-01;  1.0152798E+03;3;  6.5494299E+00;  0.0000000E+00; -2.4193057E-01;0; -1.1895743E-02;  4.0110211E+04;  0.0000000E+00;  9.0371065E-02;  4.0000000E+04;  0.0000000E+00;  3.9987414E+04; -1.9933823E-03;  0.0000000E+00; -9.9023608E-03;  1.6885378E+03;
  4.5092773E-01;  9.9999998E-03;  1.2003432E-01;5233; -7.4273394E-03;  0.0000000E+00; -1.4718703E-03;  1.0011465E+03;  1.0000000E-01;  9.4989899E+02;3;  6.3065515E+00;  0.0000000E+00; -2.3794493E-01;0; -1.0951730E-02;  4.0104078E+04;  0.0000000E+00;  9.0991959E-02;  4.0000000E+04;  0.0000000E+00;  3.9987141E+04; -2.2497857E-03;  0.0000000E+00; -8.7019447E-03;  1.7058699E+03;
  4.5092109E-01;  9.9999998E-03;  1.3003556E-01;5234; -7.5030858E-03;  0.0000000E+00; -1.5085918E-03;  1.0010767E+03;  1.0000000E-01;  8.9202411E+02;3;  6.0366454E+00;  0.0000000E+00; -2.2561996E-01;0; -9.9314107E-03;  4.0098777E+04;  0.0000000E+00;  8.5495092E-02;  4.0000000E+04;  0.0000000E+00;  3.9986891E+04; -2.4307829E-03;  0.0000000E+00; -7.5006280E-03;  1.7370702E+03;
  4.5091608E-01;  9.9999998E-03;  1.4003672E-01;5235; -7.6159383E-03;  0.0000000E+00; -1.5331891E-03;  1.0010228E+03;  1.0000000E-01;  8.4738336E+02;3;  5.7452102E+00;  0.0000000E+00; -2.0855868E-01;0; -8.8792918E-03;  4.0094523E+04;  0.0000000E+00;  7.2784834E-02;  4.0000000E+04;  0.0000000E+00;  3.9986477E+04; -2.5529170E-03;  0.0000000E+00; -6.3263751E-03;  1.7783126E+03;
  4.5091432E-01;  9.9999998E-03;  1.5003796E-01;5236; -7.7637825E-03;  0.0000000E+00; -1.5460771E-03;  1.0009797E+03;  1.0000000E-01;  8.1173004E+02;3;  5.4419789E+00;  0.0000000E+00; -1.8740396E-01;0; -7.8450534E-03;  4.0091324E+04;  0.0000000E+00;  5.2112568E-02;  4.0000000E+04;  0.0000000E+00;  3.9986121E+04; -2.6350631E-03;  0.0000000E+00; -5.2099898E-03;  1.8238208E+03;
  4.5091718E-01;  9.9999998E-03;  1.6003932E-01;5237; -7.9421252E-03;  0.0000000E+00; -1.5500211E-03;  1.0009467E+03;  1.0000000E-01;  7.8437280E+02;3;  5.1219130E+00;  0.0000000E+00; -1.6865966E-01;0; -6.8770414E-03;  4.0089031E+04;  0.0000000E+00;  2.3409456E-02;  4.0000000E+04;  0.0000000E+00;  3.9985680E+04; -2.6946778E-03;  0.0000000E+00; -4.1823639E-03;  1.8675161E+03;
  4.5092490E-01;  9.9999998E-03;  1.7004080E-01;5238; -8.1429882E-03;  0.0000000E+00; -1.5500743E-03;  1.0009269E+03;  1.0000000E-01;  7.6797821E+02;3;  4.8077068E+00;  0.0000000E+00; -1.6148926E-01;0; -6.0102176E-03;  4.0087418E+04;  0.0000000E+00; -1.2194512E-02;  4.0000000E+04;  0.0000000E+00;  3.9985324E+04; -2.7455422E-03;  0.0000000E+00; -3.2646754E-03;  1.9044362E+03;
  4.5093709E-01;  9.9999998E-03;  1.8004218E-01;5239; -8.3560022E-03;  0.0000000E+00; -1.5504075E-03;  1.0009101E+03;  1.0000000E-01;  7.5395392E+02;3;  4.5128117E+00;  0.0000000E+00; -1.6812156E-01;0; -5.2569117E-03;  4.0086320E+04;  0.0000000E+00; -5.2342061E-02;  4.0000000E+04;  0.0000000E+00;  3.9985258E+04; -2.7961531E-03;  0.0000000E+00; -2.4607589E-03;  1.9319010E+03;
  4.5095316E-01;  9.9999998E-03;  1.9004314E-01;5240; -8.5712150E-03;  0.0000000E+00; -1.5537780E-03;  1.0008956E+03;  1.0000000E-01;  7.4200366E+02;3;  4.2348309E+00;  0.0000000E+00; -1.8512104E-01;0; -4.6049962E-03;  4.0085254E+04;  0.0000000E+00; -9.3914218E-02;  4.0000000E+04;  0.0000000E+00;  3.9985027E+04; -2.8484915E-03;  0.0000000E+00; -1.7565044E-03;  1.9489720E+03;
  4.5097214E-01;  9.9999998E-03;  2.0004308E-01;5241; -8.7814135E-03;  0.0000000E+00; -1.5607851E-03;  1.0008820E+03;  1.0000000E-01;  7.3074469E+02;3;  3.9872007E+00;  0.0000000E+00; -2.1142742E-01;0; -4.0213019E-03;  4.0084098E+04;  0.0000000E+00; -1.3369299E-01;  4.0000000E+04;  0.0000000E+00;  3.9985113E+04; -2.8976332E-03;  0.0000000E+00; -1.1236689E-03;  1.9522402E+03;
  4.5099300E-01;  9.9999998E-03;  2.1004120E-01;5242; -8.9801494E-03;  0.0000000E+00; -1.5699097E-03;  1.0008659E+03;  1.0000000E-01;  7.1741174E+02;3;  3.7680314E+00;  0.0000000E+00; -2.4117698E-01;0; -3.4563898E-03;  4.0082582E+04;  0.0000000E+00; -1.6886878E-01;  4.0000000E+04;  0.0000000E+00;  3.9985355E+04; -2.9329972E-03;  0.0000000E+00; -5.2339258E-04;  1.9232750E+03;
  4.5101455E-01;  9.9999998E-03;  2.2003683E-01;5243; -9.1677634E-03;  0.0000000E+00; -1.5758999E-03;  1.0008514E+03;  1.0000000E-01;  7.0536273E+02;3;  3.6188455E+00;  0.0000000E+00; -2.6775327E-01;0; -2.8416766E-03;  4.0080223E+04;  0.0000000E+00; -1.9724163E-01;  4.0000000E+04;  0.0000000E+00;  3.9986363E+04; -2.9405802E-03;  0.0000000E+00;  9.8903685E-05;  1.8089410E+03;
  4.5103440E-01;  9.9999998E-03;  2.3003072E-01;5244; -9.3661742E-03;  0.0000000E+00; -1.5636010E-03;  1.0008478E+03;  1.0000000E-01;  7.0239984E+02;3;  3.5711775E+00;  0.0000000E+00; -2.3846297E-01;0; -2.0585910E-03;  4.0077488E+04;  0.0000000E+00; -2.1700905E-01;  4.0000000E+04;  0.0000000E+00;  3.9988652E+04; -2.9061043E-03;  0.0000000E+00;  8.4751332E-04;  1.5285194E+03;
  4.6096122E-01;  9.9999998E-03;  7.0011891E-02;5289; -7.5802966E-03;  0.0000000E+00; -1.1771538E-03;  1.0020105E+03;  1.0000000E-01;  1.6656318E+03;3;  7.2616954E+00;  0.0000000E+00; -1.5785284E-01;0; -1.6682608E-02;  4.0171457E+04;  0.0000000E+00;  3.3592276E-02;  4.0000000E+04;  0.0000000E+00;  3.9989418E+04; -1.2276804E-03;  0.0000000E+00; -1.5454927E-02;  1.4905825E+03;
  4.6095848E-01;  9.9999998E-03;  8.0013469E-02;5290; -7.5343060E-03;  0.0000000E+00; -1.2872522E-03;  1.0019131E+03;  1.0000000E-01;  1.5849427E+03;3;  7.1136432E+00;  0.0000000E+00; -1.6353238E-01;0; -1.6542960E-02;  4.0163297E+04;  0.0000000E+00;  4.0683981E-02;  4.0000000E+04;  0.0000000E+00;  3.9989891E+04; -2.1490871E-03;  0.0000000E+00; -1.4393874E-02;  1.4405798E+03;
  4.6095431E-01;  9.9999998E-03;  9.0015136E-02;5291; -7.5094225E-03;  0.0000000E+00; -1.3789149E-03;  1.0018098E+03;  1.0000000E-01;  1.4993156E+03;3;  6.9543862E+00;  0.0000000E+00; -1.6439663E-01;0; -1.6240556E-02;  4.0154859E+04;  0.0000000E+00;  4.6641473E-02;  4.0000000E+04;  0.0000000E+00;  3.9990098E+04; -2.9972903E-03;  0.0000000E+00; -1.3243265E-02;  1.4039561E+03;
  4.6094933E-01;  9.9999998E-03;  1.0001670E-01;5292; -7.5095850E-03;  0.0000000E+00; -1.4522836E-03;  1.0017081E+03;  1.0000000E-01;  1.4150709E+03;3;  6.7479181E+00;  0.0000000E+00; -1.5461105E-01;0; -1.5758580E-02;  4.0146480E+04;  0.0000000E+00;  5.0639771E-02;  4.0000000E+04;  0.0000000E+00;  3.9990070E+04; -3.7390783E-03;  0.0000000E+00; -1.2019502E-02;  1.3844764E+03;
  4.6094441E-01;  9.9999998E-03;  1.1001794E-01;5293; -7.5359084E-03;  0.0000000E+00; -1.5104916E-03;  1.0016091E+03;  1.0000000E-01;  1.3330980E+03;3;  6.5229287E+00;  0.0000000E+00; -1.5281850E-01;0; -1.5093082E-02;  4.0138457E+04;  0.0000000E+00;  5.1814694E-02;  4.0000000E+04;  0.0000000E+00;  3.9990016E+04; -4.3519894E-03;  0.0000000E+00; -1.0741092E-02;  1.3850599E+03;
  4.6093982E-01;  9.9999998E-03;  1.2001862E-01;5294; -7.5906604E-03;  0.0000000E+00; -1.5554524E-03;  1.0015166E+03;  1.0000000E-01;  1.2564583E+03;3;  6.2751517E+00;  0.0000000E+00; -1.4632314E-01;0; -1.4253998E-02;  4.0131219E+04;  0.0000000E+00;  4.9301974E-02;  4.0000000E+04;  0.0000000E+00;  3.9989879E+04; -4.8242500E-03;  0.0000000E+00; -9.4297482E-03;  1.4077167E+03;
  4.6093729E-01;  9.9999998E-03;  1.3001886E-01;5295; -7.6763150E-03;  0.0000000E+00; -1.5846414E-03;  1.0014329E+03;  1.0000000E-01;  1.1871268E+03;3;  6.0082898E+00;  0.0000000E+00; -1.2912139E-01;0; -1.3265433E-02;  4.0124891E+04;  0.0000000E+00;  4.2242326E-02;  4.0000000E+04;  0.0000000E+00;  3.9989387E+04; -5.1540276E-03;  0.0000000E+00; -8.1114052E-03;  1.4528053E+03;
  4.6093720E-01;  9.9999998E-03;  1.4001879E-01;5296; -7.7935909E-03;  0.0000000E+00; -1.5970839E-03;  1.0013619E+03;  1.0000000E-01;  1.1283630E+03;3;  5.7187548E+00;  0.0000000E+00; -1.0021028E-01;0; -1.2163230E-02;  4.0119586E+04;  0.0000000E+00;  2.9858934E-02;  4.0000000E+04;  0.0000000E+00;  3.9988852E+04; -5.3468505E-03;  0.0000000E+00; -6.8163797E-03;  1.5185022E+03;
  4.6094060E-01;  9.9999998E-03;  1.5001863E-01;5297; -7.9409340E-03;  0.0000000E+00; -1.5930234E-03;  1.0013028E+03;  1.0000000E-01;  1.0793768E+03;3;  5.4139400E+00;  0.0000000E+00; -6.6227116E-02;0; -1.0992167E-02;  4.0115609E+04;  0.0000000E+00;  1.1547592E-02;  4.0000000E+04;  0.0000000E+00;  3.9988258E+04; -5.4131788E-03;  0.0000000E+00; -5.5789878E-03;  1.6005538E+03;
  4.6094894E-01;  9.9999998E-03;  1.6001867E-01;5298; -8.1136990E-03;  0.0000000E+00; -1.5755636E-03;  1.0012590E+03;  1.0000000E-01;  1.0430321E+03;3;  5.1037965E+00;  0.0000000E+00; -3.8120028E-02;0; -9.8001882E-03;  4.0112730E+04;  0.0000000E+00; -1.2823204E-02;  4.0000000E+04;  0.0000000E+00;  3.9987195E+04; -5.3664427E-03;  0.0000000E+00; -4.4337451E-03;  1.6917516E+03;
  4.6096253E-01;  9.9999998E-03;  1.7001894E-01;5299; -8.3045037E-03;  0.0000000E+00; -1.5495607E-03;  1.0012270E+03;  1.0000000E-01;  1.0165638E+03;3;  4.7917738E+00;  0.0000000E+00; -1.7251734E-02;0; -8.6253174E-03;  4.0110906E+04;  0.0000000E+00; -4.2419944E-02;  4.0000000E+04;  0.0000000E+00;  3.9986719E+04; -5.2219769E-03;  0.0000000E+00; -3.4033400E-03;  1.7829255E+03;
  4.6098116E-01;  9.9999998E-03;  1.8001956E-01;5300; -8.5054021E-03;  0.0000000E+00; -1.5201522E-03;  1.0012060E+03;  1.0000000E-01;  9.9918152E+02;3;  4.4955235E+00;  0.0000000E+00; -2.5078222E-02;0; -7.4842721E-03;  4.0109637E+04;  0.0000000E+00; -7.5399652E-02;  4.0000000E+04;  0.0000000E+00;  3.9985902E+04; -4.9955188E-03;  0.0000000E+00; -2.4887535E-03;  1.8640477E+03;
  4.6100360E-01;  9.9999998E-03;  1.9002053E-01;5301; -8.7095993E-03;  0.0000000E+00; -1.4921156E-03;  1.0011935E+03;  1.0000000E-01;  9.8881146E+02;3;  4.2178831E+00;  0.0000000E+00; -4.9043112E-02;0; -6.3677467E-03;  4.0109066E+04;  0.0000000E+00; -1.0926956E-01;  4.0000000E+04;  0.0000000E+00;  3.9985441E+04; -4.7006705E-03;  0.0000000E+00; -1.6670764E-03;  1.9260988E+03;
  4.6102849E-01;  9.9999998E-03;  2.0002154E-01;5302; -8.9101801E-03;  0.0000000E+00; -1.4646873E-03;  1.0011849E+03;  1.0000000E-01;  9.8170056E+02;3;  3.9678078E+00;  0.0000000E+00; -9.1877393E-02;0; -5.2392292E-03;  4.0108531E+04;  0.0000000E+00; -1.4144619E-01;  4.0000000E+04;  0.0000000E+00;  3.9985230E+04; -4.3471293E-03;  0.0000000E+00; -8.9210004E-04;  1.9600859E+03;
  4.6105438E-01;  9.9999998E-03;  2.1002240E-01;5303; -9.1010686E-03;  0.0000000E+00; -1.4372466E-03;  1.0011776E+03;  1.0000000E-01;  9.7557727E+02;3;  3.7559285E+00;  0.0000000E+00; -1.4787379E-01;0; -4.0347041E-03;  4.0107949E+04;  0.0000000E+00; -1.6966374E-01;  4.0000000E+04;  0.0000000E+00;  3.9985258E+04; -3.9395774E-03;  0.0000000E+00; -9.5126801E-05;  1.9557362E+03;
  4.6107882E-01;  9.9999998E-03;  2.2002317E-01;5304; -9.2842029E-03;  0.0000000E+00; -1.4055507E-03;  1.0011732E+03;  1.0000000E-01;  9.7192303E+02;3;  3.5895078E+00;  0.0000000E+00; -1.9612294E-01;0; -2.6551606E-03;  4.0107004E+04;  0.0000000E+00; -1.9203259E-01;  4.0000000E+04;  0.0000000E+00;  3.9985840E+04; -3.4779646E-03;  0.0000000E+00;  8.2280400E-04;  1.9002810E+03;
  4.6109986E-01;  9.9999998E-03;  2.3002432E-01;5305; -9.4675338E-03;  0.0000000E+00; -1.3634143E-03;  1.0011700E+03;  1.0000000E-01;  9.6935522E+02;3;  3.4934773E+00;  0.0000000E+00; -2.1459471E-01;0; -9.5169526E-04;  4.0105852E+04;  0.0000000E+00; -2.0656978E-01;  4.0000000E+04;  0.0000000E+00;  3.9986766E+04; -2.9598996E-03;  0.0000000E+00;  2.0082043E-03;  1.7899108E+03;
  4.7093001E-01;  9.9999998E-03;  7.0001297E-02;5350; -7.6027294E-03;  0.0000000E+00; -1.2949078E-03;  1.0023779E+03;  1.0000000E-01;  1.9701169E+03;3;  7.3004837E+00;  0.0000000E+00; -1.2523963E-01;0; -1.8231576E-02;  4.0199023E+04;  0.0000000E+00;  1.0525608E-02;  4.0000000E+04;  0.0000000E+00;  3.9991852E+04; -1.3446229E-03;  0.0000000E+00; -1.6886953E-02;  1.2372126E+03;
  4.7092983E-01;  9.9999998E-03;  8.0001481E-02;5351; -7.5874729E-03;  0.0000000E+00; -1.4132095E-03;  1.0022817E+03;  1.0000000E-01;  1.8904155E+03;3;  7.1389093E+00;  0.0000000E+00; -1.2339267E-01;0; -1.8267343E-02;  4.0190984E+04;  0.0000000E+00;  1.1809465E-02;  4.0000000E+04;  0.0000000E+00;  3.9992086E+04; -2.5097921E-03;  0.0000000E+00; -1.5757551E-02;  1.1881411E+03;
  4.7092897E-01;  9.9999998E-03;  9.0001747E-02;5352; -7.5906352E-03;  0.0000000E+00; -1.5122149E-03;  1.0021808E+03;  1.0000000E-01;  1.8067635E+03;3;  6.9621720E+00;  0.0000000E+00; -1.2126265E-01;0; -1.8135821E-02;  4.0182547E+04;  0.0000000E+00;  1.2146950E-02;  4.0000000E+04;  0.0000000E+00;  3.9992293E+04; -3.6051937E-03;  0.0000000E+00; -1.4530628E-02;  1.1514542E+03;
  4.7092742E-01;  9.9999998E-03;  1.0000192E-01;5353; -7.6138782E-03;  0.0000000E+00; -1.5969498E-03;  1.0020771E+03;  1.0000000E-01;  1.7208401E+03;3;  6.7806487E+00;  0.0000000E+00; -1.3909590E-01;0; -1.7808329E-02;  4.0173949E+04;  0.0000000E+00;  1.1199592E-02;  4.0000000E+04;  0.0000000E+00;  3.9992363E+04; -4.5867716E-03;  0.0000000E+00; -1.3221558E-02;  1.1322162E+03;
  4.7092617E-01;  9.9999998E-03;  1.1000179E-01;5354; -7.6577123E-03;  0.0000000E+00; -1.6670463E-03;  1.0019756E+03;  1.0000000E-01;  1.6366943E+03;3;  6.5577164E+00;  0.0000000E+00; -1.3660601E-01;0; -1.7268691E-02;  4.0165824E+04;  0.0000000E+00;  8.6069740E-03;  4.0000000E+04;  0.0000000E+00;  3.9992281E+04; -5.4207132E-03;  0.0000000E+00; -1.1847978E-02;  1.1349332E+03;
  4.7092614E-01;  9.9999998E-03;  1.2000111E-01;5355; -7.7249743E-03;  0.0000000E+00; -1.7184662E-03;  1.0018776E+03;  1.0000000E-01;  1.5556102E+03;3;  6.3130565E+00;  0.0000000E+00; -1.2283272E-01;0; -1.6515009E-02;  4.0158344E+04;  0.0000000E+00;  3.9864671E-03;  4.0000000E+04;  0.0000000E+00;  3.9992062E+04; -6.0837502E-03;  0.0000000E+00; -1.0431258E-02;  1.1635638E+03;
  4.7092822E-01;  9.9999998E-03;  1.2999992E-01;5356; -7.8179771E-03;  0.0000000E+00; -1.7497487E-03;  1.0017869E+03;  1.0000000E-01;  1.4804519E+03;3;  6.0447807E+00;  0.0000000E+00; -9.9499233E-02;0; -1.5560701E-02;  4.0151465E+04;  0.0000000E+00; -3.0841276E-03;  4.0000000E+04;  0.0000000E+00;  3.9991465E+04; -6.5630740E-03;  0.0000000E+00; -8.9976266E-03;  1.2203794E+03;
  4.7093308E-01;  9.9999998E-03;  1.3999835E-01;5357; -7.9372488E-03;  0.0000000E+00; -1.7600653E-03;  1.0017103E+03;  1.0000000E-01;  1.4169475E+03;3;  5.7515306E+00;  0.0000000E+00; -6.0764823E-02;0; -1.4433491E-02;  4.0145953E+04;  0.0000000E+00; -1.3064275E-02;  4.0000000E+04;  0.0000000E+00;  3.9990730E+04; -6.8547842E-03;  0.0000000E+00; -7.5787068E-03;  1.3054431E+03;
  4.7094139E-01;  9.9999998E-03;  1.4999676E-01;5358; -8.0820238E-03;  0.0000000E+00; -1.7485913E-03;  1.0016440E+03;  1.0000000E-01;  1.3620354E+03;3;  5.4371958E+00;  0.0000000E+00; -7.5003179E-03;0; -1.3172951E-02;  4.0141602E+04;  0.0000000E+00; -2.6408019E-02;  4.0000000E+04;  0.0000000E+00;  3.9989789E+04; -6.9616698E-03;  0.0000000E+00; -6.2112808E-03;  1.4158228E+03;
  4.7095400E-01;  9.9999998E-03;  1.5999562E-01;5359; -8.2479799E-03;  0.0000000E+00; -1.7174995E-03;  1.0015920E+03;  1.0000000E-01;  1.3188762E+03;3;  5.1158051E+00;  0.0000000E+00;  4.5046866E-02;0; -1.1825732E-02;  4.0138441E+04;  0.0000000E+00; -4.3369051E-02;  4.0000000E+04;  0.0000000E+00;  3.9988863E+04; -6.8924418E-03;  0.0000000E+00; -4.9332902E-03;  1.5435555E+03;
  4.7097132E-01;  9.9999998E-03;  1.6999535E-01;5360; -8.4292283E-03;  0.0000000E+00; -1.6708431E-03;  1.0015530E+03;  1.0000000E-01;  1.2866796E+03;3;  4.7961097E+00;  0.0000000E+00;  8.2000934E-02;0; -1.0432328E-02;  4.0136406E+04;  0.0000000E+00; -6.3599743E-02;  4.0000000E+04;  0.0000000E+00;  3.9987668E+04; -6.6619520E-03;  0.0000000E+00; -3.7703761E-03;  1.6755499E+03;
  4.7099307E-01;  9.9999998E-03;  1.7999621E-01;5361; -8.6215446E-03;  0.0000000E+00; -1.6125503E-03;  1.0015294E+03;  1.0000000E-01;  1.2670258E+03;3;  4.4854970E+00;  0.0000000E+00;  9.8473877E-02;0; -9.0129301E-03;  4.0135176E+04;  0.0000000E+00; -8.6097799E-02;  4.0000000E+04;  0.0000000E+00;  3.9986688E+04; -6.2895170E-03;  0.0000000E+00; -2.7234126E-03;  1.7957971E+03;
  4.7101820E-01;  9.9999998E-03;  1.8999840E-01;5362; -8.8169873E-03;  0.0000000E+00; -1.5478432E-03;  1.0015126E+03;  1.0000000E-01;  1.2531002E+03;3;  4.2050529E+00;  0.0000000E+00;  8.0666497E-02;0; -7.5589009E-03;  4.0134605E+04;  0.0000000E+00; -1.0944580E-01;  4.0000000E+04;  0.0000000E+00;  3.9986008E+04; -5.7961359E-03;  0.0000000E+00; -1.7627652E-03;  1.8898505E+03;
  4.7104406E-01;  9.9999998E-03;  2.0000201E-01;5363; -9.0078758E-03;  0.0000000E+00; -1.4797200E-03;  1.0015052E+03;  1.0000000E-01;  1.2469769E+03;3;  3.9494050E+00;  0.0000000E+00;  3.4288645E-02;0; -6.0275216E-03;  4.0134566E+04;  0.0000000E+00; -1.3210486E-01;  4.0000000E+04;  0.0000000E+00;  3.9985469E+04; -5.2010021E-03;  0.0000000E+00; -8.2651922E-04;  1.9497550E+03;
  4.7106808E-01;  9.9999998E-03;  2.1000709E-01;5364; -9.1912448E-03;  0.0000000E+00; -1.4074123E-03;  1.0015020E+03;  1.0000000E-01;  1.2444092E+03;3;  3.7317526E+00;  0.0000000E+00; -3.3136785E-02;0; -4.3351990E-03;  4.0134574E+04;  0.0000000E+00; -1.5257065E-01;  4.0000000E+04;  0.0000000E+00;  3.9985238E+04; -4.5189355E-03;  0.0000000E+00;  1.8373660E-04;  1.9801432E+03;
  4.7108743E-01;  9.9999998E-03;  2.2001380E-01;5365; -9.3648843E-03;  0.0000000E+00; -1.3313422E-03;  1.0014987E+03;  1.0000000E-01;  1.2416438E+03;3;  3.5569243E+00;  0.0000000E+00; -1.0615923E-01;0; -2.3506705E-03;  4.0134473E+04;  0.0000000E+00; -1.6919850E-01;  4.0000000E+04;  0.0000000E+00;  3.9985086E+04; -3.7596563E-03;  0.0000000E+00;  1.4089858E-03;  2.0095557E+03;
  4.7110006E-01;  9.9999998E-03;  2.3002189E-01;5366; -9.5234402E-03;  0.0000000E+00; -1.2678076E-03;  1.0014875E+03;  1.0000000E-01;  1.2323601E+03;3;  3.4255481E+00;  0.0000000E+00; -1.6247147E-01;0;  6.2050298E-05;  4.0134230E+04;  0.0000000E+00; -1.7959349E-01;  4.0000000E+04;  0.0000000E+00;  3.9984492E+04; -2.9294139E-03;  0.0000000E+00;  2.9914642E-03;  2.0933467E+03;
  4.8087940E-01;  9.9999998E-03;  1.0998850E-01;5415; -7.7287406E-03;  0.0000000E+00; -1.9069080E-03;  1.0022630E+03;  1.0000146E-01;  1.8748110E+03;3;  6.6426330E+00;  0.0000000E+00; -1.6997021E-01;0; -1.8945081E-02;  4.0186277E+04;  0.0000000E+00; -3.4714364E-02;  4.0000000E+04;  0.0000000E+00;  3.9993918E+04; -5.6864345E-03;  0.0000000E+00; -1.3258647E-02;  9.4887793E+02;
  4.8088491E-01;  9.9999998E-03;  1.1998662E-01;5416; -7.8070518E-03;  0.0000000E+00; -1.9749750E-03;  1.0021719E+03;  1.0000150E-01;  1.7994552E+03;3;  6.3933258E+00;  0.0000000E+00; -1.5253785E-01;0; -1.8276509E-02;  4.0179359E+04;  0.0000000E+00; -3.9739206E-02;  4.0000000E+04;  0.0000000E+00;  3.9993555E+04; -6.5285219E-03;  0.0000000E+00; -1.1747986E-02;  9.8153015E+02;
  4.8087507E-01;  9.9999998E-03;  9.9989861E-02;5414; -7.6703546E-03;  0.0000000E+00; -1.8169475E-03;  1.0023581E+03;  1.0000148E-01;  1.9536237E+03;3;  6.8568382E+00;  0.0000000E+00; -1.7917964E-01;0; -1.9375818E-02;  4.0193891E+04;  0.0000000E+00; -2.9612012E-02;  4.0000000E+04;  0.0000000E+00;  3.9994086E+04; -4.6633468E-03;  0.0000000E+00; -1.4712472E-02;  9.4301025E+02;
  4.8089206E-01;  9.9999998E-03;  1.2998424E-01;5417; -7.9058064E-03;  0.0000000E+00; -2.0199798E-03;  1.0020869E+03;  1.0000146E-01;  1.7289386E+03;3;  6.1210055E+00;  0.0000000E+00; -1.2426572E-01;0; -1.7374303E-02;  4.0172938E+04;  0.0000000E+00; -4.4743508E-02;  4.0000000E+04;  0.0000000E+00;  3.9993121E+04; -7.1685030E-03;  0.0000000E+00; -1.0205801E-02;  1.0445104E+03;
  4.8087123E-01;  9.9999998E-03;  8.9990929E-02;5413; -7.6313745E-03;  0.0000000E+00; -1.7051619E-03;  1.0024543E+03;  1.0000148E-01;  2.0334238E+03;3;  7.0360355E+00;  0.0000000E+00; -1.5863819E-01;0; -1.9580334E-02;  4.0201801E+04;  0.0000000E+00; -2.4523530E-02;  4.0000000E+04;  0.0000000E+00;  3.9993977E+04; -3.4907295E-03;  0.0000000E+00; -1.6089605E-02;  9.5903094E+02;
  4.8086745E-01;  9.9999998E-03;  7.9991832E-02;5412; -7.6059196E-03;  0.0000000E+00; -1.5799173E-03;  1.0025459E+03;  1.0000142E-01;  2.1092734E+03;3;  7.1967421E+00;  0.0000000E+00; -1.2966348E-01;0; -1.9584578E-02;  4.0209312E+04;  0.0000000E+00; -1.9625576E-02;  4.0000000E+04;  0.0000000E+00;  3.9993895E+04; -2.2104494E-03;  0.0000000E+00; -1.7374128E-02;  9.9167017E+02;
  4.8090109E-01;  9.9999998E-03;  1.3998157E-01;5418; -8.0257924E-03;  0.0000000E+00; -2.0407543E-03;  1.0020081E+03;  1.0000150E-01;  1.6636565E+03;3;  5.8178458E+00;  0.0000000E+00; -7.4566878E-02;0; -1.6258342E-02;  4.0167707E+04;  0.0000000E+00; -4.9960840E-02;  4.0000000E+04;  0.0000000E+00;  3.9992176E+04; -7.5949184E-03;  0.0000000E+00; -8.6634234E-03;  1.1394060E+03;
  4.8086318E-01;  9.9999998E-03;  6.9992736E-02;5411; -7.5903223E-03;  0.0000000E+00; -1.4422314E-03;  1.0026330E+03;  1.0000142E-01;  2.1813704E+03;3;  7.3628116E+00;  0.0000000E+00; -1.1494056E-01;0; -1.9425759E-02;  4.0216781E+04;  0.0000000E+00; -1.5102169E-02;  4.0000000E+04;  0.0000000E+00;  3.9993520E+04; -8.7336299E-04;  0.0000000E+00; -1.8552396E-02;  1.0354031E+03;
  4.8091239E-01;  9.9999998E-03;  1.4997905E-01;5419; -8.1650969E-03;  0.0000000E+00; -2.0371669E-03;  1.0019430E+03;  1.0000141E-01;  1.6097322E+03;3;  5.4990492E+00;  0.0000000E+00; -1.3362168E-02;0; -1.4962992E-02;  4.0163391E+04;  0.0000000E+00; -5.5821016E-02;  4.0000000E+04;  0.0000000E+00;  3.9991223E+04; -7.8043458E-03;  0.0000000E+00; -7.1586454E-03;  1.2646796E+03;
  4.8092613E-01;  9.9999998E-03;  1.5997733E-01;5420; -8.3214305E-03;  0.0000000E+00; -2.0089194E-03;  1.0018878E+03;  1.0000144E-01;  1.5640050E+03;3;  5.1619234E+00;  0.0000000E+00;  6.0019094E-02;0; -1.3533759E-02;  4.0160152E+04;  0.0000000E+00; -6.2873863E-02;  4.0000000E+04;  0.0000000E+00;  3.9989984E+04; -7.8013092E-03;  0.0000000E+00; -5.7324497E-03;  1.4124263E+03;
  4.8094264E-01;  9.9999998E-03;  1.6997688E-01;5421; -8.4931254E-03;  0.0000000E+00; -1.9556731E-03;  1.0018456E+03;  1.0000145E-01;  1.5290431E+03;3;  4.8171687E+00;  0.0000000E+00;  1.3479802E-01;0; -1.2014619E-02;  4.0157910E+04;  0.0000000E+00; -7.1498252E-02;  4.0000000E+04;  0.0000000E+00;  3.9988676E+04; -7.5990809E-03;  0.0000000E+00; -4.4155382E-03;  1.5674258E+03;
  4.8096105E-01;  9.9999998E-03;  1.7997828E-01;5422; -8.6740870E-03;  0.0000000E+00; -1.8809413E-03;  1.0018137E+03;  1.0000140E-01;  1.5026735E+03;3;  4.4927588E+00;  0.0000000E+00;  1.8540548E-01;0; -1.0431701E-02;  4.0156809E+04;  0.0000000E+00; -8.1798285E-02;  4.0000000E+04;  0.0000000E+00;  3.9987562E+04; -7.2182841E-03;  0.0000000E+00; -3.2134168E-03;  1.7103580E+03;
  4.8097980E-01;  9.9999998E-03;  1.8998192E-01;5423; -8.8576432E-03;  0.0000000E+00; -1.7902551E-03;  1.0017958E+03;  1.0000148E-01;  1.4877603E+03;3;  4.1891203E+00;  0.0000000E+00;  2.0671256E-01;0; -8.7806201E-03;  4.0156043E+04;  0.0000000E+00; -9.3644224E-02;  4.0000000E+04;  0.0000000E+00;  3.9986680E+04; -6.6834069E-03;  0.0000000E+00; -2.0972129E-03;  1.8244304E+03;
  4.8099631E-01;  9.9999998E-03;  1.9998814E-01;5424; -9.0367347E-03;  0.0000000E+00; -1.6867685E-03;  1.0017848E+03;  1.0000140E-01;  1.4786741E+03;3;  3.9150772E+00;  0.0000000E+00;  1.9367602E-01;0; -7.0160641E-03;  4.0155691E+04;  0.0000000E+00; -1.0664550E-01;  4.0000000E+04;  0.0000000E+00;  3.9986055E+04; -6.0187895E-03;  0.0000000E+00; -9.9727453E-04;  1.9053788E+03;
  4.8100725E-01;  9.9999998E-03;  2.0999679E-01;5425; -9.2101526E-03;  0.0000000E+00; -1.5694289E-03;  1.0017791E+03;  1.0000147E-01;  1.4739335E+03;3;  3.6786449E+00;  0.0000000E+00;  1.4353949E-01;0; -5.0371373E-03;  4.0155805E+04;  0.0000000E+00; -1.2001333E-01;  4.0000000E+04;  0.0000000E+00;  3.9985555E+04; -5.2451827E-03;  0.0000000E+00;  2.0804512E-04;  1.9706216E+03;
  4.8101258E-01;  9.9999998E-03;  2.2000778E-01;5426; -9.3730232E-03;  0.0000000E+00; -1.4428224E-03;  1.0017682E+03;  1.0000146E-01;  1.4649462E+03;3;  3.4873924E+00;  0.0000000E+00;  6.8732306E-02;0; -2.6797396E-03;  4.0155922E+04;  0.0000000E+00; -1.3224837E-01;  4.0000000E+04;  0.0000000E+00;  3.9984711E+04; -4.3785842E-03;  0.0000000E+00;  1.6988446E-03;  2.0731169E+03;
  4.8101380E-01;  9.9999998E-03;  2.3002064E-01;5427; -9.5058838E-03;  0.0000000E+00; -1.3516096E-03;  1.0017468E+03;  1.0000141E-01;  1.4471688E+03;3;  3.3231103E+00;  0.0000000E+00; -1.5490642E-03;0;  1.6901223E-04;  4.0156043E+04;  0.0000000E+00; -1.4075282E-01;  4.0000000E+04;  0.0000000E+00;  3.9982816E+04; -3.4307963E-03;  0.0000000E+00;  3.5998086E-03;  2.3093862E+03;
  4.9077407E-01;  9.9999998E-03;  6.9986828E-02;5472; -7.5381715E-03;  0.0000000E+00; -1.6269671E-03;  1.0026891E+03;  1.0000208E-01;  2.2278872E+03;3;  7.5027647E+00;  0.0000000E+00; -1.7138144E-01;0; -2.0285809E-02;  4.0219418E+04;  0.0000000E+00; -4.0889036E-02;  4.0000000E+04;  0.0000000E+00;  3.9994699E+04;  1.6036929E-04;  0.0000000E+00; -2.0446179E-02;  8.9955591E+02;
  4.9078301E-01;  9.9999998E-03;  7.9985179E-02;5473; -7.5747357E-03;  0.0000000E+00; -1.8028622E-03;  1.0026190E+03;  1.0000209E-01;  2.1698149E+03;3;  7.3529601E+00;  0.0000000E+00; -2.1086380E-01;0; -2.0568801E-02;  4.0213660E+04;  0.0000000E+00; -5.0583038E-02;  4.0000000E+04;  0.0000000E+00;  3.9994773E+04; -1.3278110E-03;  0.0000000E+00; -1.9240990E-02;  8.6387268E+02;
  4.9079207E-01;  9.9999998E-03;  8.9983582E-02;5474; -7.6197768E-03;  0.0000000E+00; -1.9615900E-03;  1.0025457E+03;  1.0000204E-01;  2.1089771E+03;3;  7.1806731E+00;  0.0000000E+00; -2.3039553E-01;0; -2.0701140E-02;  4.0207539E+04;  0.0000000E+00; -5.9729271E-02;  4.0000000E+04;  0.0000000E+00;  3.9995141E+04; -2.7804978E-03;  0.0000000E+00; -1.7920643E-02;  8.3750250E+02;
  4.9080148E-01;  9.9999998E-03;  9.9981844E-02;5475; -7.6765632E-03;  0.0000000E+00; -2.1047282E-03;  1.0024681E+03;  1.0000208E-01;  2.0447814E+03;3;  6.9852910E+00;  0.0000000E+00; -2.4614899E-01;0; -2.0639269E-02;  4.0201273E+04;  0.0000000E+00; -6.7605935E-02;  4.0000000E+04;  0.0000000E+00;  3.9995223E+04; -4.1429158E-03;  0.0000000E+00; -1.6496353E-02;  8.2551953E+02;
  4.9081129E-01;  9.9999998E-03;  1.0997982E-01;5476; -7.7481507E-03;  0.0000000E+00; -2.2249001E-03;  1.0023891E+03;  1.0000202E-01;  1.9793018E+03;3;  6.7596483E+00;  0.0000000E+00; -2.3491959E-01;0; -2.0349426E-02;  4.0195176E+04;  0.0000000E+00; -7.3563091E-02;  4.0000000E+04;  0.0000000E+00;  3.9995008E+04; -5.3681405E-03;  0.0000000E+00; -1.4981286E-02;  8.3301251E+02;
  4.9082196E-01;  9.9999998E-03;  1.1997735E-01;5477; -7.8358790E-03;  0.0000000E+00; -2.3207057E-03;  1.0023138E+03;  1.0000196E-01;  1.9169825E+03;3;  6.5039206E+00;  0.0000000E+00; -2.1387197E-01;0; -1.9811200E-02;  4.0189395E+04;  0.0000000E+00; -7.7112846E-02;  4.0000000E+04;  0.0000000E+00;  3.9994797E+04; -6.4186128E-03;  0.0000000E+00; -1.3392587E-02;  8.6478345E+02;
  4.9083346E-01;  9.9999998E-03;  1.2997441E-01;5478; -7.9395641E-03;  0.0000000E+00; -2.3908606E-03;  1.0022419E+03;  1.0000198E-01;  1.8574287E+03;3;  6.2126741E+00;  0.0000000E+00; -1.6974062E-01;0; -1.9019922E-02;  4.0184039E+04;  0.0000000E+00; -7.8061394E-02;  4.0000000E+04;  0.0000000E+00;  3.9994301E+04; -7.2669825E-03;  0.0000000E+00; -1.1752940E-02;  9.2494342E+02;
  4.9084544E-01;  9.9999998E-03;  1.3997126E-01;5479; -8.0569517E-03;  0.0000000E+00; -2.4366218E-03;  1.0021739E+03;  1.0000201E-01;  1.8010352E+03;3;  5.9068632E+00;  0.0000000E+00; -1.1690678E-01;0; -1.7987490E-02;  4.0179434E+04;  0.0000000E+00; -7.6572597E-02;  4.0000000E+04;  0.0000000E+00;  3.9993336E+04; -7.8958133E-03;  0.0000000E+00; -1.0091676E-02;  1.0163495E+03;
  4.9085784E-01;  9.9999998E-03;  1.4996843E-01;5480; -8.1870267E-03;  0.0000000E+00; -2.4573796E-03;  1.0021116E+03;  1.0000207E-01;  1.7493823E+03;3;  5.5765715E+00;  0.0000000E+00; -4.9556077E-02;0; -1.6742028E-02;  4.0175676E+04;  0.0000000E+00; -7.3216446E-02;  4.0000000E+04;  0.0000000E+00;  3.9992281E+04; -8.2964376E-03;  0.0000000E+00; -8.4455907E-03;  1.1390607E+03;
  4.9087065E-01;  9.9999998E-03;  1.5996654E-01;5481; -8.3283605E-03;  0.0000000E+00; -2.4514110E-03;  1.0020601E+03;  1.0000201E-01;  1.7068157E+03;3;  5.2301574E+00;  0.0000000E+00;  3.4434676E-02;0; -1.5327423E-02;  4.0172512E+04;  0.0000000E+00; -6.9044746E-02;  4.0000000E+04;  0.0000000E+00;  3.9991055E+04; -8.4693655E-03;  0.0000000E+00; -6.8580573E-03;  1.2863909E+03;
  4.9088329E-01;  9.9999998E-03;  1.6996633E-01;5482; -8.4783575E-03;  0.0000000E+00; -2.4171476E-03;  1.0020163E+03;  1.0000210E-01;  1.6704711E+03;3;  4.8723345E+00;  0.0000000E+00;  1.3129853E-01;0; -1.3792422E-02;  4.0170371E+04;  0.0000000E+00; -6.5362945E-02;  4.0000000E+04;  0.0000000E+00;  3.9989891E+04; -8.4255226E-03;  0.0000000E+00; -5.3668991E-03;  1.4433187E+03;
  4.9089500E-01;  9.9999998E-03;  1.7996833E-01;5483; -8.6347433E-03;  0.0000000E+00; -2.3529772E-03;  1.0019815E+03;  1.0000210E-01;  1.6416323E+03;3;  4.5145669E+00;  0.0000000E+00;  2.2903928E-01;0; -1.2173393E-02;  4.0168641E+04;  0.0000000E+00; -6.3523270E-02;  4.0000000E+04;  0.0000000E+00;  3.9988605E+04; -8.1847450E-03;  0.0000000E+00; -3.9886478E-03;  1.5901814E+03;
  4.9090344E-01;  9.9999998E-03;  1.8997294E-01;5484; -8.7931836E-03;  0.0000000E+00; -2.2602461E-03;  1.0019537E+03;  1.0000215E-01;  1.6186206E+03;3;  4.1685467E+00;  0.0000000E+00;  3.1375027E-01;0; -1.0477791E-02;  4.0167453E+04;  0.0000000E+00; -6.4673625E-02;  4.0000000E+04;  0.0000000E+00;  3.9987648E+04; -7.7722422E-03;  0.0000000E+00; -2.7055487E-03;  1.7102372E+03;
  4.9090651E-01;  9.9999998E-03;  1.9997987E-01;5485; -8.9501375E-03;  0.0000000E+00; -2.1410375E-03;  1.0019340E+03;  1.0000195E-01;  1.6022261E+03;3;  3.8463154E+00;  0.0000000E+00;  3.6727211E-01;0; -8.6688949E-03;  4.0166645E+04;  0.0000000E+00; -6.9432288E-02;  4.0000000E+04;  0.0000000E+00;  3.9986949E+04; -7.2145034E-03;  0.0000000E+00; -1.4543916E-03;  1.7974662E+03;
  4.9090642E-01;  9.9999998E-03;  2.0998949E-01;5486; -9.0969903E-03;  0.0000000E+00; -2.0039284E-03;  1.0019186E+03;  1.0000203E-01;  1.5895845E+03;3;  3.5454426E+00;  0.0000000E+00;  3.9697534E-01;0; -6.6565359E-03;  4.0166078E+04;  0.0000000E+00; -7.7602938E-02;  4.0000000E+04;  0.0000000E+00;  3.9986414E+04; -6.5363515E-03;  0.0000000E+00; -1.2018454E-04;  1.8719818E+03;
  4.9090323E-01;  9.9999998E-03;  2.2000229E-01;5487; -9.2257494E-03;  0.0000000E+00; -1.8607636E-03;  1.0019007E+03;  1.0000205E-01;  1.5746713E+03;3;  3.2746098E+00;  0.0000000E+00;  3.9817613E-01;0; -4.2914809E-03;  4.0165754E+04;  0.0000000E+00; -8.7916322E-02;  4.0000000E+04;  0.0000000E+00;  3.9985219E+04; -5.7575242E-03;  0.0000000E+00;  1.4660434E-03;  2.0034348E+03;
  4.9089691E-01;  9.9999998E-03;  2.3001754E-01;5488; -9.3006287E-03;  0.0000000E+00; -1.7689930E-03;  1.0018657E+03;  1.0000207E-01;  1.5457339E+03;3;  3.0258088E+00;  0.0000000E+00;  4.0174034E-01;0; -1.5139631E-03;  4.0165430E+04;  0.0000000E+00; -9.7775400E-02;  4.0000000E+04;  0.0000000E+00;  3.9982785E+04; -4.8931027E-03;  0.0000000E+00;  3.3791396E-03;  2.3115764E+03;
  5.0067705E-01;  9.9999998E-03;  6.9984175E-02;5533; -7.4421214E-03;  0.0000000E+00; -1.8509546E-03;  1.0025272E+03;  1.0000388E-01;  2.0937676E+03;3;  7.7193594E+00;  0.0000000E+00; -2.4942030E-01;0; -2.0366907E-02;  4.0204598E+04;  0.0000000E+00; -6.4075142E-02;  4.0000000E+04;  0.0000000E+00;  3.9995160E+04;  2.1838811E-03;  0.0000000E+00; -2.2550788E-02;  8.3812787E+02;
  5.0069010E-01;  9.9999998E-03;  7.9982340E-02;5534; -7.5033074E-03;  0.0000000E+00; -2.0638208E-03;  1.0024839E+03;  1.0000373E-01;  2.0578181E+03;3;  7.5542827E+00;  0.0000000E+00; -2.8671280E-01;0; -2.0843061E-02;  4.0200625E+04;  0.0000000E+00; -7.7706218E-02;  4.0000000E+04;  0.0000000E+00;  3.9995172E+04;  4.9603707E-04;  0.0000000E+00; -2.1339098E-02;  8.1101172E+02;
  5.0070411E-01;  9.9999998E-03;  8.9980520E-02;5535; -7.5715012E-03;  0.0000000E+00; -2.2581143E-03;  1.0024351E+03;  1.0000387E-01;  2.0174241E+03;3;  7.3575234E+00;  0.0000000E+00; -3.0076563E-01;0; -2.1190787E-02;  4.0196922E+04;  0.0000000E+00; -8.9604884E-02;  4.0000000E+04;  0.0000000E+00;  3.9995434E+04; -1.1868266E-03;  0.0000000E+00; -2.0003960E-02;  7.9080664E+02;
  5.0071847E-01;  9.9999998E-03;  9.9978678E-02;5536; -7.6489570E-03;  0.0000000E+00; -2.4347075E-03;  1.0023832E+03;  1.0000372E-01;  1.9744624E+03;3;  7.1422887E+00;  0.0000000E+00; -3.1672716E-01;0; -2.1360943E-02;  4.0192723E+04;  0.0000000E+00; -9.8608293E-02;  4.0000000E+04;  0.0000000E+00;  3.9995504E+04; -2.8076421E-03;  0.0000000E+00; -1.8553302E-02;  7.8138873E+02;
  5.0073314E-01;  9.9999998E-03;  1.0997660E-01;5537; -7.7358773E-03;  0.0000000E+00; -2.5914782E-03;  1.0023320E+03;  1.0000384E-01;  1.9319945E+03;3;  6.8937454E+00;  0.0000000E+00; -3.0064216E-01;0; -2.1312291E-02;  4.0188605E+04;  0.0000000E+00; -1.0369393E-01;  4.0000000E+04;  0.0000000E+00;  3.9995457E+04; -4.3155663E-03;  0.0000000E+00; -1.6996725E-02;  7.8658136E+02;
  5.0074768E-01;  9.9999998E-03;  1.1997413E-01;5538; -7.8333216E-03;  0.0000000E+00; -2.7239898E-03;  1.0022787E+03;  1.0000389E-01;  1.8879463E+03;3;  6.6208944E+00;  0.0000000E+00; -2.7166471E-01;0; -2.1015404E-02;  4.0184645E+04;  0.0000000E+00; -1.0413299E-01;  4.0000000E+04;  0.0000000E+00;  3.9995164E+04; -5.6680306E-03;  0.0000000E+00; -1.5347374E-02;  8.1041974E+02;
  5.0076199E-01;  9.9999998E-03;  1.2997121E-01;5539; -7.9405550E-03;  0.0000000E+00; -2.8308129E-03;  1.0022266E+03;  1.0000384E-01;  1.8446882E+03;3;  6.3226428E+00;  0.0000000E+00; -2.2869742E-01;0; -2.0455783E-02;  4.0181047E+04;  0.0000000E+00; -9.9637143E-02;  4.0000000E+04;  0.0000000E+00;  3.9994770E+04; -6.8320436E-03;  0.0000000E+00; -1.3623740E-02;  8.5695190E+02;
  5.0077540E-01;  9.9999998E-03;  1.3996817E-01;5540; -8.0558257E-03;  0.0000000E+00; -2.9116361E-03;  1.0021765E+03;  1.0000389E-01;  1.8032080E+03;3;  5.9999032E+00;  0.0000000E+00; -1.6950630E-01;0; -1.9635703E-02;  4.0177480E+04;  0.0000000E+00; -9.0450548E-02;  4.0000000E+04;  0.0000000E+00;  3.9994094E+04; -7.7845762E-03;  0.0000000E+00; -1.1851128E-02;  9.2998163E+02;
  5.0078750E-01;  9.9999998E-03;  1.4996551E-01;5541; -8.1764432E-03;  0.0000000E+00; -2.9668943E-03;  1.0021270E+03;  1.0000379E-01;  1.7622216E+03;3;  5.6620216E+00;  0.0000000E+00; -9.8316014E-02;0; -1.8575139E-02;  4.0174453E+04;  0.0000000E+00; -7.7436738E-02;  4.0000000E+04;  0.0000000E+00;  3.9993109E+04; -8.5118366E-03;  0.0000000E+00; -1.0063304E-02;  1.0313967E+03;
  5.0079817E-01;  9.9999998E-03;  1.5996395E-01;5542; -8.2998239E-03;  0.0000000E+00; -2.9956519E-03;  1.0020770E+03;  1.0000366E-01;  1.7207412E+03;3;  5.3120275E+00;  0.0000000E+00; -1.6962167E-02;0; -1.7314792E-02;  4.0171715E+04;  0.0000000E+00; -6.2271513E-02;  4.0000000E+04;  0.0000000E+00;  3.9992273E+04; -9.0100206E-03;  0.0000000E+00; -8.3047720E-03;  1.1567717E+03;
  5.0080663E-01;  9.9999998E-03;  1.6996415E-01;5543; -8.4238872E-03;  0.0000000E+00; -2.9956158E-03;  1.0020333E+03;  1.0000373E-01;  1.6844954E+03;3;  4.9406443E+00;  0.0000000E+00;  8.8054329E-02;0; -1.5907569E-02;  4.0169359E+04;  0.0000000E+00; -4.7272690E-02;  4.0000000E+04;  0.0000000E+00;  3.9991043E+04; -9.2864651E-03;  0.0000000E+00; -6.6211033E-03;  1.2935254E+03;
  5.0081187E-01;  9.9999998E-03;  1.7996648E-01;5544; -8.5448958E-03;  0.0000000E+00; -2.9646910E-03;  1.0019950E+03;  1.0000380E-01;  1.6527925E+03;3;  4.5600934E+00;  0.0000000E+00;  2.0933549E-01;0; -1.4402144E-02;  4.0167305E+04;  0.0000000E+00; -3.5012968E-02;  4.0000000E+04;  0.0000000E+00;  3.9989980E+04; -9.3584582E-03;  0.0000000E+00; -5.0436854E-03;  1.4241344E+03;
  5.0081253E-01;  9.9999998E-03;  1.8997084E-01;5545; -8.6629298E-03;  0.0000000E+00; -2.8993927E-03;  1.0019593E+03;  1.0000368E-01;  1.6232625E+03;3;  4.1689997E+00;  0.0000000E+00;  3.4702700E-01;0; -1.2825171E-02;  4.0165332E+04;  0.0000000E+00; -2.7757017E-02;  4.0000000E+04;  0.0000000E+00;  3.9989016E+04; -9.2498297E-03;  0.0000000E+00; -3.5753413E-03;  1.5325298E+03;
  5.0080949E-01;  9.9999998E-03;  1.9997729E-01;5546; -8.7733129E-03;  0.0000000E+00; -2.8012516E-03;  1.0019282E+03;  1.0000372E-01;  1.5974855E+03;3;  3.7782109E+00;  0.0000000E+00;  4.8757657E-01;0; -1.1165915E-02;  4.0163414E+04;  0.0000000E+00; -2.6913505E-02;  4.0000000E+04;  0.0000000E+00;  3.9988465E+04; -8.9874556E-03;  0.0000000E+00; -2.1784594E-03;  1.6121770E+03;
  5.0080359E-01;  9.9999998E-03;  2.0998619E-01;5547; -8.8728890E-03;  0.0000000E+00; -2.6749952E-03;  1.0019001E+03;  1.0000365E-01;  1.5741775E+03;3;  3.4035842E+00;  0.0000000E+00;  6.0873550E-01;0; -9.3596559E-03;  4.0161980E+04;  0.0000000E+00; -3.2696471E-02;  4.0000000E+04;  0.0000000E+00;  3.9988012E+04; -8.5970582E-03;  0.0000000E+00; -7.6259760E-04;  1.6796116E+03;
  5.0079447E-01;  9.9999998E-03;  2.1999824E-01;5548; -8.9469077E-03;  0.0000000E+00; -2.5418592E-03;  1.0018698E+03;  1.0000384E-01;  1.5490918E+03;3;  3.0368342E+00;  0.0000000E+00;  7.1670711E-01;0; -7.3010605E-03;  4.0160520E+04;  0.0000000E+00; -4.3972116E-02;  4.0000000E+04;  0.0000000E+00;  3.9986793E+04; -8.1001353E-03;  0.0000000E+00;  7.9907477E-04;  1.7998423E+03;
  5.0078189E-01;  9.9999998E-03;  2.3001319E-01;5549; -8.9519443E-03;  0.0000000E+00; -2.4647408E-03;  1.0018265E+03;  1.0000373E-01;  1.5132410E+03;3;  2.6451385E+00;  0.0000000E+00;  8.0547267E-01;0; -4.9942154E-03;  4.0159359E+04;  0.0000000E+00; -5.8218118E-02;  4.0000000E+04;  0.0000000E+00;  3.9984539E+04; -7.5131608E-03;  0.0000000E+00;  2.5189451E-03;  2.0990920E+03;
  5.1058632E-01;  9.9999998E-03;  6.9984883E-02;5594; -7.3389290E-03;  0.0000000E+00; -2.0823688E-03;  1.0021382E+03;  1.0000610E-01;  1.7715051E+03;3;  7.9547215E+00;  0.0000000E+00; -2.9065686E-01;0; -1.8825373E-02;  4.0171270E+04;  0.0000000E+00; -8.1759378E-02;  4.0000000E+04;  0.0000000E+00;  3.9994715E+04;  6.0183103E-03;  0.0000000E+00; -2.4843683E-02;  8.5088776E+02;
  5.1060176E-01;  9.9999998E-03;  7.9983659E-02;5595; -7.4299630E-03;  0.0000000E+00; -2.3291963E-03;  1.0021246E+03;  1.0000617E-01;  1.7602462E+03;3;  7.7411175E+00;  0.0000000E+00; -3.1977782E-01;0; -1.9632868E-02;  4.0169965E+04;  0.0000000E+00; -9.7569309E-02;  4.0000000E+04;  0.0000000E+00;  3.9994926E+04;  4.0067453E-03;  0.0000000E+00; -2.3639614E-02;  8.3062415E+02;
  5.1061898E-01;  9.9999998E-03;  8.9982383E-02;5596; -7.5228461E-03;  0.0000000E+00; -2.5607748E-03;  1.0021099E+03;  1.0000612E-01;  1.7479996E+03;3;  7.5211535E+00;  0.0000000E+00; -3.2776552E-01;0; -2.0347979E-02;  4.0168594E+04;  0.0000000E+00; -1.1038191E-01;  4.0000000E+04;  0.0000000E+00;  3.9995000E+04;  1.9570305E-03;  0.0000000E+00; -2.2305010E-02;  8.1442749E+02;
  5.1063704E-01;  9.9999998E-03;  9.9980958E-02;5597; -7.6227537E-03;  0.0000000E+00; -2.7721599E-03;  1.0020900E+03;  1.0000619E-01;  1.7315063E+03;3;  7.2728205E+00;  0.0000000E+00; -3.2425225E-01;0; -2.0914601E-02;  4.0167191E+04;  0.0000000E+00; -1.1873418E-01;  4.0000000E+04;  0.0000000E+00;  3.9995195E+04; -7.0443792E-05;  0.0000000E+00; -2.0844158E-02;  8.0425885E+02;
  5.1065487E-01;  9.9999998E-03;  1.0997933E-01;5598; -7.7275936E-03;  0.0000000E+00; -2.9664412E-03;  1.0020674E+03;  1.0000629E-01;  1.7127415E+03;3;  7.0146608E+00;  0.0000000E+00; -3.3192381E-01;0; -2.1282513E-02;  4.0165551E+04;  0.0000000E+00; -1.2142879E-01;  4.0000000E+04;  0.0000000E+00;  3.9995133E+04; -2.0202582E-03;  0.0000000E+00; -1.9262254E-02;  8.0220752E+02;
  5.1067197E-01;  9.9999998E-03;  1.1997736E-01;5599; -7.8357039E-03;  0.0000000E+00; -3.1414905E-03;  1.0020443E+03;  1.0000619E-01;  1.6936803E+03;3;  6.7248583E+00;  0.0000000E+00; -3.0107284E-01;0; -2.1411490E-02;  4.0163867E+04;  0.0000000E+00; -1.1768338E-01;  4.0000000E+04;  0.0000000E+00;  3.9995207E+04; -3.8440779E-03;  0.0000000E+00; -1.7567411E-02;  8.1088440E+02;
  5.1068783E-01;  9.9999998E-03;  1.2997502E-01;5600; -7.9485774E-03;  0.0000000E+00; -3.2916998E-03;  1.0020177E+03;  1.0000630E-01;  1.6716561E+03;3;  6.4186244E+00;  0.0000000E+00; -2.6274914E-01;0; -2.1275062E-02;  4.0161918E+04;  0.0000000E+00; -1.0727902E-01;  4.0000000E+04;  0.0000000E+00;  3.9994836E+04; -5.5025620E-03;  0.0000000E+00; -1.5772499E-02;  8.3378473E+02;
  5.1070172E-01;  9.9999998E-03;  1.3997261E-01;5601; -8.0641704E-03;  0.0000000E+00; -3.4158416E-03;  1.0019891E+03;  1.0000619E-01;  1.6479531E+03;3;  6.0823464E+00;  0.0000000E+00; -2.0332146E-01;0; -2.0863203E-02;  4.0160008E+04;  0.0000000E+00; -9.0670764E-02;  4.0000000E+04;  0.0000000E+00;  3.9994480E+04; -6.9662551E-03;  0.0000000E+00; -1.3896948E-02;  8.7503284E+02;
  5.1071346E-01;  9.9999998E-03;  1.4997067E-01;5602; -8.1795538E-03;  0.0000000E+00; -3.5128188E-03;  1.0019557E+03;  1.0000607E-01;  1.6202996E+03;3;  5.7334223E+00;  0.0000000E+00; -1.3080224E-01;0; -2.0185042E-02;  4.0158000E+04;  0.0000000E+00; -6.9076583E-02;  4.0000000E+04;  0.0000000E+00;  3.9993875E+04; -8.2155149E-03;  0.0000000E+00; -1.1969528E-02;  9.3826990E+02;
  5.1072258E-01;  9.9999998E-03;  1.5996969E-01;5603; -8.2922373E-03;  0.0000000E+00; -3.5815819E-03;  1.0019169E+03;  1.0000635E-01;  1.5881030E+03;3;  5.3667955E+00;  0.0000000E+00; -4.9709242E-02;0; -1.9275097E-02;  4.0155656E+04;  0.0000000E+00; -4.4782601E-02;  4.0000000E+04;  0.0000000E+00;  3.9993184E+04; -9.2410240E-03;  0.0000000E+00; -1.0034073E-02;  1.0220983E+03;
  5.1072848E-01;  9.9999998E-03;  1.6997011E-01;5604; -8.3977701E-03;  0.0000000E+00; -3.6206492E-03;  1.0018769E+03;  1.0000616E-01;  1.5550175E+03;3;  4.9867382E+00;  0.0000000E+00;  4.9391173E-02;0; -1.8188033E-02;  4.0153309E+04;  0.0000000E+00; -2.1039881E-02;  4.0000000E+04;  0.0000000E+00;  3.9992352E+04; -1.0044960E-02;  0.0000000E+00; -8.1430720E-03;  1.1182238E+03;
  5.1073021E-01;  9.9999998E-03;  1.7997213E-01;5605; -8.4945308E-03;  0.0000000E+00; -3.6266826E-03;  1.0018351E+03;  1.0000625E-01;  1.5203518E+03;3;  4.5913720E+00;  0.0000000E+00;  1.7730458E-01;0; -1.6981840E-02;  4.0150754E+04;  0.0000000E+00; -1.4428427E-03;  4.0000000E+04;  0.0000000E+00;  3.9991500E+04; -1.0639738E-02;  0.0000000E+00; -6.3421009E-03;  1.2134448E+03;
  5.1072794E-01;  9.9999998E-03;  1.8997574E-01;5606; -8.5800150E-03;  0.0000000E+00; -3.5964740E-03;  1.0017896E+03;  1.0000610E-01;  1.4826245E+03;3;  4.1833091E+00;  0.0000000E+00;  3.3015478E-01;0; -1.5701009E-02;  4.0147910E+04;  0.0000000E+00;  1.0889531E-02;  4.0000000E+04;  0.0000000E+00;  3.9990828E+04; -1.1045446E-02;  0.0000000E+00; -4.6555628E-03;  1.2950265E+03;
  5.1072246E-01;  9.9999998E-03;  1.9998087E-01;5607; -8.6532282E-03;  0.0000000E+00; -3.5267286E-03;  1.0017451E+03;  1.0000618E-01;  1.4457860E+03;3;  3.7663758E+00;  0.0000000E+00;  5.0982064E-01;0; -1.4358364E-02;  4.0145051E+04;  0.0000000E+00;  1.4022646E-02;  4.0000000E+04;  0.0000000E+00;  3.9990289E+04; -1.1286136E-02;  0.0000000E+00; -3.0722280E-03;  1.3565156E+03;
  5.1071376E-01;  9.9999998E-03;  2.0998777E-01;5608; -8.7125674E-03;  0.0000000E+00; -3.4185788E-03;  1.0017075E+03;  1.0000617E-01;  1.4146758E+03;3;  3.3505971E+00;  0.0000000E+00;  6.8835211E-01;0; -1.2916000E-02;  4.0142223E+04;  0.0000000E+00;  7.5384877E-03;  4.0000000E+04;  0.0000000E+00;  3.9989812E+04; -1.1386147E-02;  0.0000000E+00; -1.5298532E-03;  1.4076285E+03;
  5.1070201E-01;  9.9999998E-03;  2.1999690E-01;5609; -8.7460876E-03;  0.0000000E+00; -3.2923410E-03;  1.0016638E+03;  1.0000622E-01;  1.3784299E+03;3;  2.9262664E+00;  0.0000000E+00;  8.6472243E-01;0; -1.1297927E-02;  4.0139586E+04;  0.0000000E+00; -7.4731531E-03;  4.0000000E+04;  0.0000000E+00;  3.9989156E+04; -1.1367180E-02;  0.0000000E+00;  6.9253270E-05;  1.4909622E+03;
  5.1068717E-01;  9.9999998E-03;  2.3000887E-01;5610; -8.7171914E-03;  0.0000000E+00; -3.1982434E-03;  1.0016110E+03;  1.0000625E-01;  1.3346781E+03;3;  2.5240119E+00;  0.0000000E+00;  9.8848420E-01;0; -9.4919205E-03;  4.0137172E+04;  0.0000000E+00; -2.8505633E-02;  4.0000000E+04;  0.0000000E+00;  3.9987320E+04; -1.1246301E-02;  0.0000000E+00;  1.7543809E-03;  1.7141465E+03;
  5.2051181E-01;  9.9999998E-03;  6.9989614E-02;5655; -7.2764619E-03;  0.0000000E+00; -2.2930666E-03;  1.0015606E+03;  1.0001037E-01;  1.2929015E+03;3;  8.1325655E+00;  0.0000000E+00; -2.7708992E-01;0; -1.4590284E-02;  4.0121859E+04;  0.0000000E+00; -9.1046430E-02;  4.0000000E+04;  0.0000000E+00;  3.9993641E+04;  1.2713451E-02;  0.0000000E+00; -2.7303735E-02;  9.2910217E+02;
  5.2052802E-01;  9.9999998E-03;  7.9989530E-02;5656; -7.3920353E-03;  0.0000000E+00; -2.5747607E-03;  1.0015795E+03;  1.0001046E-01;  1.3086047E+03;3;  7.8794689E+00;  0.0000000E+00; -2.8325242E-01;0; -1.5921347E-02;  4.0123258E+04;  0.0000000E+00; -1.0687704E-01;  4.0000000E+04;  0.0000000E+00;  3.9993844E+04;  1.0189673E-02;  0.0000000E+00; -2.6111020E-02;  9.1273309E+02;
  5.2054644E-01;  9.9999998E-03;  8.9989334E-02;5657; -7.5087724E-03;  0.0000000E+00; -2.8409543E-03;  1.0015999E+03;  1.0001046E-01;  1.3254932E+03;3;  7.6372776E+00;  0.0000000E+00; -2.9936525E-01;0; -1.7214851E-02;  4.0124660E+04;  0.0000000E+00; -1.1857471E-01;  4.0000000E+04;  0.0000000E+00;  3.9994055E+04;  7.5671487E-03;  0.0000000E+00; -2.4782000E-02;  8.9752563E+02;
  5.2056599E-01;  9.9999998E-03;  9.9988885E-02;5658; -7.6279757E-03;  0.0000000E+00; -3.0926608E-03;  1.0016180E+03;  1.0001040E-01;  1.3405051E+03;3;  7.3753390E+00;  0.0000000E+00; -2.9513708E-01;0; -1.8405344E-02;  4.0126020E+04;  0.0000000E+00; -1.2460598E-01;  4.0000000E+04;  0.0000000E+00;  3.9994109E+04;  4.9121757E-03;  0.0000000E+00; -2.3317520E-02;  8.8328851E+02;
  5.2058542E-01;  9.9999998E-03;  1.0998815E-01;5659; -7.7508930E-03;  0.0000000E+00; -3.3243978E-03;  1.0016321E+03;  1.0001045E-01;  1.3521591E+03;3;  7.0830584E+00;  0.0000000E+00; -2.7494770E-01;0; -1.9430958E-02;  4.0127117E+04;  0.0000000E+00; -1.2382075E-01;  4.0000000E+04;  0.0000000E+00;  3.9994219E+04;  2.2872267E-03;  0.0000000E+00; -2.1718185E-02;  8.6990924E+02;
  5.2060384E-01;  9.9999998E-03;  1.1998712E-01;5660; -7.8751901E-03;  0.0000000E+00; -3.5372954E-03;  1.0016392E+03;  1.0001054E-01;  1.3579861E+03;3;  6.7953706E+00;  0.0000000E+00; -2.6720694E-01;0; -2.0237582E-02;  4.0127941E+04;  0.0000000E+00; -1.1558262E-01;  4.0000000E+04;  0.0000000E+00;  3.9994441E+04; -2.5123896E-04;  0.0000000E+00; -1.9986343E-02;  8.5816284E+02;
  5.2062064E-01;  9.9999998E-03;  1.2998585E-01;5661; -7.9981126E-03;  0.0000000E+00; -3.7338648E-03;  1.0016422E+03;  1.0001041E-01;  1.3605540E+03;3;  6.4849005E+00;  0.0000000E+00; -2.4903983E-01;0; -2.0783357E-02;  4.0128203E+04;  0.0000000E+00; -9.9896997E-02;  4.0000000E+04;  0.0000000E+00;  3.9994453E+04; -2.6551192E-03;  0.0000000E+00; -1.8128239E-02;  8.5029785E+02;
  5.2063519E-01;  9.9999998E-03;  1.3998453E-01;5662; -8.1198830E-03;  0.0000000E+00; -3.9042193E-03;  1.0016364E+03;  1.0001052E-01;  1.3557146E+03;3;  6.1359196E+00;  0.0000000E+00; -1.8885092E-01;0; -2.1042202E-02;  4.0127848E+04;  0.0000000E+00; -7.7501595E-02;  4.0000000E+04;  0.0000000E+00;  3.9994367E+04; -4.8861736E-03;  0.0000000E+00; -1.6156029E-02;  8.5019305E+02;
  5.2064705E-01;  9.9999998E-03;  1.4998353E-01;5663; -8.2367156E-03;  0.0000000E+00; -4.0478436E-03;  1.0016206E+03;  1.0001054E-01;  1.3426779E+03;3;  5.7784195E+00;  0.0000000E+00; -1.2875491E-01;0; -2.1008197E-02;  4.0126957E+04;  0.0000000E+00; -4.9923629E-02;  4.0000000E+04;  0.0000000E+00;  3.9994223E+04; -6.9166180E-03;  0.0000000E+00; -1.4091580E-02;  8.6264801E+02;
  5.2065569E-01;  9.9999998E-03;  1.5998308E-01;5664; -8.3474834E-03;  0.0000000E+00; -4.1611008E-03;  1.0015975E+03;  1.0001034E-01;  1.3235179E+03;3;  5.3929229E+00;  0.0000000E+00; -4.5244690E-02;0; -2.0705745E-02;  4.0125234E+04;  0.0000000E+00; -1.9877950E-02;  4.0000000E+04;  0.0000000E+00;  3.9993910E+04; -8.7293228E-03;  0.0000000E+00; -1.1976421E-02;  8.8995166E+02;
  5.2066052E-01;  9.9999998E-03;  1.6998348E-01;5665; -8.4480355E-03;  0.0000000E+00; -4.2420719E-03;  1.0015630E+03;  1.0001042E-01;  1.2949756E+03;3;  5.0046377E+00;  0.0000000E+00;  4.7670495E-02;0; -2.0186182E-02;  4.0122984E+04;  0.0000000E+00;  8.7245405E-03;  4.0000000E+04;  0.0000000E+00;  3.9993605E+04; -1.0318471E-02;  0.0000000E+00; -9.8677119E-03;  9.2950122E+02;
  5.2066153E-01;  9.9999998E-03;  1.7998485E-01;5666; -8.5352743E-03;  0.0000000E+00; -4.2875358E-03;  1.0015193E+03;  1.0001040E-01;  1.2587296E+03;3;  4.6060281E+00;  0.0000000E+00;  1.6124094E-01;0; -1.9511882E-02;  4.0119992E+04;  0.0000000E+00;  3.1601060E-02;  4.0000000E+04;  0.0000000E+00;  3.9993184E+04; -1.1688641E-02;  0.0000000E+00; -7.8232400E-03;  9.7457147E+02;
  5.2065909E-01;  9.9999998E-03;  1.8998720E-01;5667; -8.6068809E-03;  0.0000000E+00; -4.2936257E-03;  1.0014706E+03;  1.0001057E-01;  1.2184344E+03;3;  4.1908360E+00;  0.0000000E+00;  3.0578786E-01;0; -1.8738601E-02;  4.0116352E+04;  0.0000000E+00;  4.5133948E-02;  4.0000000E+04;  0.0000000E+00;  3.9992797E+04; -1.2852700E-02;  0.0000000E+00; -5.8859005E-03;  1.0177084E+03;
  5.2065361E-01;  9.9999998E-03;  1.9999027E-01;5668; -8.6629568E-03;  0.0000000E+00; -4.2547733E-03;  1.0014157E+03;  1.0001054E-01;  1.1729049E+03;3;  3.7652605E+00;  0.0000000E+00;  4.8394319E-01;0; -1.7897105E-02;  4.0112488E+04;  0.0000000E+00;  4.7135375E-02;  4.0000000E+04;  0.0000000E+00;  3.9992391E+04; -1.3828970E-02;  0.0000000E+00; -4.0681348E-03;  1.0534780E+03;
  5.2064538E-01;  9.9999998E-03;  2.0999409E-01;5669; -8.7015620E-03;  0.0000000E+00; -4.1687903E-03;  1.0013621E+03;  1.0001054E-01;  1.1284618E+03;3;  3.3348343E+00;  0.0000000E+00;  6.9194263E-01;0; -1.6973794E-02;  4.0108469E+04;  0.0000000E+00;  3.7172552E-02;  4.0000000E+04;  0.0000000E+00;  3.9992332E+04; -1.4638131E-02;  0.0000000E+00; -2.3356630E-03;  1.0822324E+03;
  5.2063477E-01;  9.9999998E-03;  2.1999896E-01;5670; -8.7181265E-03;  0.0000000E+00; -4.0440424E-03;  1.0013100E+03;  1.0001040E-01;  1.0853025E+03;3;  2.9006851E+00;  0.0000000E+00;  9.1871417E-01;0; -1.5901415E-02;  4.0104754E+04;  0.0000000E+00;  1.6442075E-02;  4.0000000E+04;  0.0000000E+00;  3.9991789E+04; -1.5300546E-02;  0.0000000E+00; -6.0086971E-04;  1.1186063E+03;
  5.2062207E-01;  9.9999998E-03;  2.3000591E-01;5671; -8.6898366E-03;  0.0000000E+00; -3.9169607E-03;  1.0012570E+03;  1.0001051E-01;  1.0414519E+03;3;  2.4675279E+00;  0.0000000E+00;  1.1087970E+00;0; -1.4624577E-02;  4.0101121E+04;  0.0000000E+00; -1.2398474E-02;  4.0000000E+04;  0.0000000E+00;  3.9990949E+04; -1.5833821E-02;  0.0000000E+00;  1.2092441E-03;  1.2252189E+03;
  5.3045946E-01;  9.9999998E-03;  6.9998771E-02;5716; -7.2680642E-03;  0.0000000E+00; -2.4747439E-03;  1.0008651E+03;  1.0001725E-01;  7.1672034E+02;3;  8.2079010E+00;  0.0000000E+00; -1.8791924E-01;0; -6.5622143E-03;  4.0061297E+04;  0.0000000E+00; -8.9245364E-02;  4.0000000E+04;  0.0000000E+00;  3.9992152E+04;  2.3354432E-02;  0.0000000E+00; -2.9916646E-02;  1.0575353E+03;
  5.3047538E-01;  9.9999998E-03;  7.9999991E-02;5717; -7.4024387E-03;  0.0000000E+00; -2.7899281E-03;  1.0009159E+03;  1.0001741E-01;  7.5879321E+02;3;  7.9536057E+00;  0.0000000E+00; -2.0322475E-01;0; -8.6465292E-03;  4.0065402E+04;  0.0000000E+00; -1.0269607E-01;  4.0000000E+04;  0.0000000E+00;  3.9992285E+04;  2.0077875E-02;  0.0000000E+00; -2.8724404E-02;  1.0425552E+03;
  5.3049320E-01;  9.9999998E-03;  9.0001106E-02;5718; -7.5383228E-03;  0.0000000E+00; -3.0920208E-03;  1.0009706E+03;  1.0001743E-01;  8.0412531E+02;3;  7.6874199E+00;  0.0000000E+00; -1.9573013E-01;0; -1.0770887E-02;  4.0069426E+04;  0.0000000E+00; -1.1126417E-01;  4.0000000E+04;  0.0000000E+00;  3.9992559E+04;  1.6620683E-02;  0.0000000E+00; -2.7391570E-02;  1.0266326E+03;
  5.3051263E-01;  9.9999998E-03;  1.0000187E-01;5719; -7.6777814E-03;  0.0000000E+00; -3.3786036E-03;  1.0010220E+03;  1.0001730E-01;  8.4669196E+02;3;  7.4082837E+00;  0.0000000E+00; -1.9246942E-01;0; -1.2857051E-02;  4.0073578E+04;  0.0000000E+00; -1.1359946E-01;  4.0000000E+04;  0.0000000E+00;  3.9992617E+04;  1.3059036E-02;  0.0000000E+00; -2.5916087E-02;  1.0069411E+03;
  5.3053218E-01;  9.9999998E-03;  1.1000237E-01;5720; -7.8186700E-03;  0.0000000E+00; -3.6514117E-03;  1.0010695E+03;  1.0001743E-01;  8.8609827E+02;3;  7.1290598E+00;  0.0000000E+00; -1.9257349E-01;0; -1.4828363E-02;  4.0077316E+04;  0.0000000E+00; -1.0884354E-01;  4.0000000E+04;  0.0000000E+00;  3.9992938E+04;  9.4658704E-03;  0.0000000E+00; -2.4294233E-02;  9.8086035E+02;
  5.3055102E-01;  9.9999998E-03;  1.2000262E-01;5721; -7.9611056E-03;  0.0000000E+00; -3.9057950E-03;  1.0011102E+03;  1.0001743E-01;  9.1977631E+02;3;  6.8232284E+00;  0.0000000E+00; -1.6663906E-01;0; -1.6613288E-02;  4.0080445E+04;  0.0000000E+00; -9.6699625E-02;  4.0000000E+04;  0.0000000E+00;  3.9993215E+04;  5.9093344E-03;  0.0000000E+00; -2.2522623E-02;  9.4688361E+02;
  5.3056842E-01;  9.9999998E-03;  1.3000266E-01;5722; -8.1032589E-03;  0.0000000E+00; -4.1393754E-03;  1.0011421E+03;  1.0001732E-01;  9.4624469E+02;3;  6.4987087E+00;  0.0000000E+00; -1.4280576E-01;0; -1.8150659E-02;  4.0082668E+04;  0.0000000E+00; -7.7492952E-02;  4.0000000E+04;  0.0000000E+00;  3.9993547E+04;  2.4498291E-03;  0.0000000E+00; -2.0600488E-02;  9.0550336E+02;
  5.3058344E-01;  9.9999998E-03;  1.4000246E-01;5723; -8.2388017E-03;  0.0000000E+00; -4.3551060E-03;  1.0011644E+03;  1.0001726E-01;  9.6471332E+02;3;  6.1599689E+00;  0.0000000E+00; -1.2833515E-01;0; -1.9394228E-02;  4.0084141E+04;  0.0000000E+00; -5.2226245E-02;  4.0000000E+04;  0.0000000E+00;  3.9993773E+04; -8.6222996E-04;  0.0000000E+00; -1.8531999E-02;  8.5972046E+02;
  5.3059542E-01;  9.9999998E-03;  1.5000220E-01;5724; -8.3647808E-03;  0.0000000E+00; -4.5471243E-03;  1.0011712E+03;  1.0001729E-01;  9.7034277E+02;3;  5.7908664E+00;  0.0000000E+00; -7.0592761E-02;0; -2.0318273E-02;  4.0084422E+04;  0.0000000E+00; -2.2585530E-02;  4.0000000E+04;  0.0000000E+00;  3.9994168E+04; -3.9873463E-03;  0.0000000E+00; -1.6330928E-02;  8.1494696E+02;
  5.3060400E-01;  9.9999998E-03;  1.6000214E-01;5725; -8.4820986E-03;  0.0000000E+00; -4.7076866E-03;  1.0011608E+03;  1.0001763E-01;  9.6175043E+02;3;  5.4021349E+00;  0.0000000E+00; -5.4044597E-04;0; -2.0931559E-02;  4.0083547E+04;  0.0000000E+00;  8.6141638E-03;  4.0000000E+04;  0.0000000E+00;  3.9994457E+04; -6.8969554E-03;  0.0000000E+00; -1.4034604E-02;  7.7717651E+02;
  5.3060919E-01;  9.9999998E-03;  1.7000239E-01;5726; -8.5861366E-03;  0.0000000E+00; -4.8352103E-03;  1.0011359E+03;  1.0001736E-01;  9.4110907E+02;3;  5.0010366E+00;  0.0000000E+00;  8.5821010E-02;0; -2.1276297E-02;  4.0081516E+04;  0.0000000E+00;  3.7271526E-02;  4.0000000E+04;  0.0000000E+00;  3.9994719E+04; -9.5734438E-03;  0.0000000E+00; -1.1702853E-02;  7.5054779E+02;
  5.3061104E-01;  9.9999998E-03;  1.8000297E-01;5727; -8.6780684E-03;  0.0000000E+00; -4.9241292E-03;  1.0010979E+03;  1.0001744E-01;  9.0960376E+02;3;  4.5916591E+00;  0.0000000E+00;  1.7994599E-01;0; -2.1412026E-02;  4.0078246E+04;  0.0000000E+00;  5.8885586E-02;  4.0000000E+04;  0.0000000E+00;  3.9994723E+04; -1.2009418E-02;  0.0000000E+00; -9.4026076E-03;  7.3641919E+02;
  5.3061002E-01;  9.9999998E-03;  1.9000380E-01;5728; -8.7514631E-03;  0.0000000E+00; -4.9726684E-03;  1.0010475E+03;  1.0001754E-01;  8.6782715E+02;3;  4.1748595E+00;  0.0000000E+00;  3.0069387E-01;0; -2.1399677E-02;  4.0074453E+04;  0.0000000E+00;  6.9735169E-02;  4.0000000E+04;  0.0000000E+00;  3.9994727E+04; -1.4206768E-02;  0.0000000E+00; -7.1929083E-03;  7.3401990E+02;
  5.3060681E-01;  9.9999998E-03;  2.0000456E-01;5729; -8.8046947E-03;  0.0000000E+00; -4.9755671E-03;  1.0009888E+03;  1.0001753E-01;  8.1923596E+02;3;  3.7484365E+00;  0.0000000E+00;  4.5221516E-01;0; -2.1285182E-02;  4.0070004E+04;  0.0000000E+00;  6.7677081E-02;  4.0000000E+04;  0.0000000E+00;  3.9994746E+04; -1.6174590E-02;  0.0000000E+00; -5.1105912E-03;  7.4095038E+02;
  5.3060216E-01;  9.9999998E-03;  2.1000497E-01;5730; -8.8362899E-03;  0.0000000E+00; -4.9273125E-03;  1.0009273E+03;  1.0001735E-01;  7.6827448E+02;3;  3.3164971E+00;  0.0000000E+00;  6.3972813E-01;0; -2.1081030E-02;  4.0065219E+04;  0.0000000E+00;  5.2439384E-02;  4.0000000E+04;  0.0000000E+00;  3.9994473E+04; -1.7927386E-02;  0.0000000E+00; -3.1536436E-03;  7.4997156E+02;
  5.3059667E-01;  9.9999998E-03;  2.2000474E-01;5731; -8.8476809E-03;  0.0000000E+00; -4.8203468E-03;  1.0008680E+03;  1.0001730E-01;  7.1909064E+02;3;  2.8860295E+00;  0.0000000E+00;  8.7606698E-01;0; -2.0734491E-02;  4.0060508E+04;  0.0000000E+00;  2.5480695E-02;  4.0000000E+04;  0.0000000E+00;  3.9994578E+04; -1.9482458E-02;  0.0000000E+00; -1.2520334E-03;  7.4033014E+02;
  5.3059018E-01;  9.9999998E-03;  2.3000516E-01;5732; -8.8372016E-03;  0.0000000E+00; -4.6596508E-03;  1.0008154E+03;  1.0001736E-01;  6.7553638E+02;3;  2.4388595E+00;  0.0000000E+00;  1.1560755E+00;0; -2.0114353E-02;  4.0056082E+04;  0.0000000E+00; -1.0122100E-02;  4.0000000E+04;  0.0000000E+00;  3.9994707E+04; -2.0857252E-02;  0.0000000E+00;  7.4289978E-04;  7.1076117E+02;
  5.4043472E-01;  9.9999998E-03;  7.0011273E-02;5777; -7.3024309E-03;  0.0000000E+00; -2.6302640E-03;  1.0001620E+03;  1.0002947E-01;  1.3421840E+02;3;  8.2468500E+00;  0.0000000E+00; -7.5999640E-02;0;  6.1919503E-03;  3.9996355E+04;  0.0000000E+00; -7.4153028E-02;  4.0000000E+04;  0.0000000E+00;  3.9990328E+04;  3.8868356E-02;  0.0000000E+00; -3.2676406E-02;  1.2166586E+03;
  5.4044932E-01;  9.9999998E-03;  8.0013819E-02;5778; -7.4514896E-03;  0.0000000E+00; -2.9759803E-03;  1.0002400E+03;  1.0002926E-01;  1.9880914E+02;3;  7.9859209E+00;  0.0000000E+00; -7.1660742E-02;0;  3.1067245E-03;  4.0002480E+04;  0.0000000E+00; -8.2790732E-02;  4.0000000E+04;  0.0000000E+00;  3.9990441E+04;  3.4563031E-02;  0.0000000E+00; -3.1456307E-02;  1.2025076E+03;
  5.4046583E-01;  9.9999998E-03;  9.0016276E-02;5779; -7.6055466E-03;  0.0000000E+00; -3.3101423E-03;  1.0003218E+03;  1.0002936E-01;  2.6656030E+02;3;  7.7016602E+00;  0.0000000E+00; -6.3656539E-02;0; -1.2053177E-04;  4.0008941E+04;  0.0000000E+00; -8.6430386E-02;  4.0000000E+04;  0.0000000E+00;  3.9990645E+04;  2.9971860E-02;  0.0000000E+00; -3.0092392E-02;  1.1866658E+03;
  5.4048395E-01;  9.9999998E-03;  1.0001843E-01;5780; -7.7637793E-03;  0.0000000E+00; -3.6338610E-03;  1.0004023E+03;  1.0002934E-01;  3.3332382E+02;3;  7.4342446E+00;  0.0000000E+00; -6.3217059E-02;0; -3.3956487E-03;  4.0015215E+04;  0.0000000E+00; -8.4184237E-02;  4.0000000E+04;  0.0000000E+00;  3.9990852E+04;  2.5185041E-02;  0.0000000E+00; -2.8580690E-02;  1.1635972E+03;
  5.4050267E-01;  9.9999998E-03;  1.1002019E-01;5781; -7.9267696E-03;  0.0000000E+00; -3.9423201E-03;  1.0004781E+03;  1.0002936E-01;  3.9603809E+02;3;  7.1350980E+00;  0.0000000E+00; -4.3545432E-02;0; -6.6238642E-03;  4.0021215E+04;  0.0000000E+00; -7.5707577E-02;  4.0000000E+04;  0.0000000E+00;  3.9991293E+04;  2.0290423E-02;  0.0000000E+00; -2.6914287E-02;  1.1276464E+03;
  5.4052061E-01;  9.9999998E-03;  1.2002154E-01;5782; -8.0919964E-03;  0.0000000E+00; -4.2359475E-03;  1.0005484E+03;  1.0002952E-01;  4.5430804E+02;3;  6.8290772E+00;  0.0000000E+00; -3.6641654E-02;0; -9.7130118E-03;  4.0026539E+04;  0.0000000E+00; -6.1171401E-02;  4.0000000E+04;  0.0000000E+00;  3.9991680E+04;  1.5371871E-02;  0.0000000E+00; -2.5084883E-02;  1.0744965E+03;
  5.4053718E-01;  9.9999998E-03;  1.3002253E-01;5783; -8.2548428E-03;  0.0000000E+00; -4.5135794E-03;  1.0006080E+03;  1.0002955E-01;  5.0378812E+02;3;  6.4913926E+00;  0.0000000E+00; -7.2080833E-03;0; -1.2578578E-02;  4.0030707E+04;  0.0000000E+00; -4.1248970E-02;  4.0000000E+04;  0.0000000E+00;  3.9992270E+04;  1.0506543E-02;  0.0000000E+00; -2.3085121E-02;  1.0023173E+03;
  5.4055154E-01;  9.9999998E-03;  1.4002314E-01;5784; -8.4124589E-03;  0.0000000E+00; -4.7690198E-03;  1.0006520E+03;  1.0002943E-01;  5.4013275E+02;3;  6.1284533E+00;  0.0000000E+00;  3.0692400E-02;0; -1.5149477E-02;  4.0033605E+04;  0.0000000E+00; -1.7072706E-02;  4.0000000E+04;  0.0000000E+00;  3.9992879E+04;  5.7618348E-03;  0.0000000E+00; -2.0911312E-02;  9.1272131E+02;
  5.4056329E-01;  9.9999998E-03;  1.5002349E-01;5785; -8.5604889E-03;  0.0000000E+00; -5.0023263E-03;  1.0006758E+03;  1.0002962E-01;  5.5988525E+02;3;  5.7629242E+00;  0.0000000E+00;  5.3713363E-02;0; -1.7375443E-02;  4.0035043E+04;  0.0000000E+00;  9.7862240E-03;  4.0000000E+04;  0.0000000E+00;  3.9993770E+04;  1.1935574E-03;  0.0000000E+00; -1.8569000E-02;  8.1131604E+02;
  5.4057205E-01;  9.9999998E-03;  1.6002373E-01;5786; -8.6934436E-03;  0.0000000E+00; -5.2117882E-03;  1.0006855E+03;  1.0002933E-01;  5.6798383E+02;3;  5.3724442E+00;  0.0000000E+00;  1.0766821E-01;0; -1.9244296E-02;  4.0034840E+04;  0.0000000E+00;  3.6841996E-02;  4.0000000E+04;  0.0000000E+00;  3.9994531E+04; -3.1544867E-03;  0.0000000E+00; -1.6089810E-02;  7.0740302E+02;
  5.4057795E-01;  9.9999998E-03;  1.7002389E-01;5787; -8.8117104E-03;  0.0000000E+00; -5.3875735E-03;  1.0006746E+03;  1.0002951E-01;  5.5889764E+02;3;  4.9728174E+00;  0.0000000E+00;  1.7666669E-01;0; -2.0781869E-02;  4.0033406E+04;  0.0000000E+00;  6.0394999E-02;  4.0000000E+04;  0.0000000E+00;  3.9995328E+04; -7.2482289E-03;  0.0000000E+00; -1.3533641E-02;  6.1226141E+02;
  5.4058141E-01;  9.9999998E-03;  1.8002385E-01;5788; -8.9147547E-03;  0.0000000E+00; -5.5250376E-03;  1.0006489E+03;  1.0002954E-01;  5.3756494E+02;3;  4.5541558E+00;  0.0000000E+00;  2.5963196E-01;0; -2.2037696E-02;  4.0030520E+04;  0.0000000E+00;  7.6305784E-02;  4.0000000E+04;  0.0000000E+00;  3.9996105E+04; -1.1063721E-02;  0.0000000E+00; -1.0973974E-02;  5.3623969E+02;
  5.4058331E-01;  9.9999998E-03;  1.9002341E-01;5789; -8.9990878E-03;  0.0000000E+00; -5.6214700E-03;  1.0006027E+03;  1.0002946E-01;  4.9934378E+02;3;  4.1281958E+00;  0.0000000E+00;  3.7458640E-01;0; -2.3070520E-02;  4.0026723E+04;  0.0000000E+00;  8.1185319E-02;  4.0000000E+04;  0.0000000E+00;  3.9996395E+04; -1.4587207E-02;  0.0000000E+00; -8.4833130E-03;  4.8670911E+02;
  5.4058486E-01;  9.9999998E-03;  2.0002206E-01;5790; -9.0633444E-03;  0.0000000E+00; -5.6730984E-03;  1.0005453E+03;  1.0002949E-01;  4.5174020E+02;3;  3.6984434E+00;  0.0000000E+00;  5.0127017E-01;0; -2.3935843E-02;  4.0022234E+04;  0.0000000E+00;  7.3210128E-02;  4.0000000E+04;  0.0000000E+00;  3.9996562E+04; -1.7814908E-02;  0.0000000E+00; -6.1209355E-03;  4.6536017E+02;
  5.4058707E-01;  9.9999998E-03;  2.1001911E-01;5791; -9.1014747E-03;  0.0000000E+00; -5.6778593E-03;  1.0004846E+03;  1.0002949E-01;  4.0147003E+02;3;  3.2656486E+00;  0.0000000E+00;  6.5866947E-01;0; -2.4677603E-02;  4.0017375E+04;  0.0000000E+00;  5.2440908E-02;  4.0000000E+04;  0.0000000E+00;  3.9996465E+04; -2.0752626E-02;  0.0000000E+00; -3.9249766E-03;  4.5933221E+02;
  5.4059052E-01;  9.9999998E-03;  2.2001377E-01;5792; -9.1134245E-03;  0.0000000E+00; -5.6260917E-03;  1.0004243E+03;  1.0002942E-01;  3.5149615E+02;3;  2.8459134E+00;  0.0000000E+00;  8.5347974E-01;0; -2.5299674E-02;  4.0012414E+04;  0.0000000E+00;  2.0750135E-02;  4.0000000E+04;  0.0000000E+00;  3.9996652E+04; -2.3413150E-02;  0.0000000E+00; -1.8865248E-03;  4.1539371E+02;
  5.4059434E-01;  9.9999998E-03;  2.3000720E-01;5793; -9.1135651E-03;  0.0000000E+00; -5.4764794E-03;  1.0003810E+03;  1.0002951E-01;  3.1564532E+02;3;  2.4226036E+00;  0.0000000E+00;  1.1033275E+00;0; -2.5627393E-02;  4.0007773E+04;  0.0000000E+00; -1.8277513E-02;  4.0000000E+04;  0.0000000E+00;  3.9997984E+04; -2.5813185E-02;  0.0000000E+00;  1.8579148E-04;  2.5806815E+02;
  5.5044389E-01;  9.9999998E-03;  7.0024237E-02;5838; -7.3670028E-03;  0.0000000E+00; -2.7599288E-03;  9.9955035E+02;  1.0004856E-01; -3.7253259E+02;3;  8.2679329E+00;  0.0000000E+00;  5.6769591E-02;0;  2.4249561E-02;  3.9933266E+04;  0.0000000E+00; -4.4609874E-02;  4.0000000E+04;  0.0000000E+00;  3.9988414E+04;  5.9832573E-02;  0.0000000E+00; -3.5583012E-02;  1.3845691E+03;
  5.5045718E-01;  9.9999998E-03;  8.0027930E-02;5839; -7.5296424E-03;  0.0000000E+00; -3.1323947E-03;  9.9964569E+02;  1.0004842E-01; -2.9352249E+02;3;  7.9961395E+00;  0.0000000E+00;  7.3231123E-02;0;  1.9925948E-02;  3.9940738E+04;  0.0000000E+00; -4.6247091E-02;  4.0000000E+04;  0.0000000E+00;  3.9988531E+04;  5.4213770E-02;  0.0000000E+00; -3.4287822E-02;  1.3732491E+03;
  5.5047113E-01;  9.9999998E-03;  9.0031520E-02;5840; -7.6992679E-03;  0.0000000E+00; -3.4974690E-03;  9.9974371E+02;  1.0004833E-01; -2.1233963E+02;3;  7.7260375E+00;  0.0000000E+00;  8.6627178E-02;0;  1.5331738E-02;  3.9948762E+04;  0.0000000E+00; -4.3627895E-02;  4.0000000E+04;  0.0000000E+00;  3.9988656E+04;  4.8176982E-02;  0.0000000E+00; -3.2845244E-02;  1.3615742E+03;
  5.5048609E-01;  9.9999998E-03;  1.0003473E-01;5841; -7.8800870E-03;  0.0000000E+00; -3.8528210E-03;  9.9984381E+02;  1.0004845E-01; -1.2937903E+02;3;  7.4335022E+00;  0.0000000E+00;  1.0863815E-01;0;  1.0580823E-02;  3.9956445E+04;  0.0000000E+00; -3.6593687E-02;  4.0000000E+04;  0.0000000E+00;  3.9988867E+04;  4.1832443E-02;  0.0000000E+00; -3.1251621E-02;  1.3410056E+03;
  5.5050153E-01;  9.9999998E-03;  1.1003730E-01;5842; -8.0656754E-03;  0.0000000E+00; -4.1978252E-03;  9.9994159E+02;  1.0004858E-01; -4.8393681E+01;3;  7.1268415E+00;  0.0000000E+00;  1.1892855E-01;0;  5.7896841E-03;  3.9963902E+04;  0.0000000E+00; -2.5465000E-02;  4.0000000E+04;  0.0000000E+00;  3.9989320E+04;  3.5288453E-02;  0.0000000E+00; -2.9498769E-02;  1.3025872E+03;
  5.5051637E-01;  9.9999998E-03;  1.2003937E-01;5843; -8.2538975E-03;  0.0000000E+00; -4.5306804E-03;  1.0000287E+03;  1.0004846E-01;  2.3801790E+01;3;  6.7963042E+00;  0.0000000E+00;  1.5279166E-01;0;  1.0747742E-03;  3.9970633E+04;  0.0000000E+00; -1.0915032E-02;  4.0000000E+04;  0.0000000E+00;  3.9989754E+04;  2.8650016E-02;  0.0000000E+00; -2.7575241E-02;  1.2385707E+03;
  5.5053037E-01;  9.9999998E-03;  1.3004096E-01;5844; -8.4431572E-03;  0.0000000E+00; -4.8472518E-03;  1.0001057E+03;  1.0004845E-01;  8.7602440E+01;3;  6.4380627E+00;  0.0000000E+00;  1.8477088E-01;0; -3.4522954E-03;  3.9976266E+04;  0.0000000E+00;  6.1516990E-03;  4.0000000E+04;  0.0000000E+00;  3.9990617E+04;  2.2016689E-02;  0.0000000E+00; -2.5468985E-02;  1.1443417E+03;
  5.5054259E-01;  9.9999998E-03;  1.4004219E-01;5845; -8.6246962E-03;  0.0000000E+00; -5.1482669E-03;  1.0001730E+03;  1.0004857E-01;  1.4340332E+02;3;  6.0745044E+00;  0.0000000E+00;  2.0797104E-01;0; -7.6925047E-03;  3.9980309E+04;  0.0000000E+00;  2.4723968E-02;  4.0000000E+04;  0.0000000E+00;  3.9991707E+04;  1.5476922E-02;  0.0000000E+00; -2.3169426E-02;  1.0196360E+03;
  5.5055302E-01;  9.9999998E-03;  1.5004307E-01;5846; -8.7994579E-03;  0.0000000E+00; -5.4244273E-03;  1.0002166E+03;  1.0004828E-01;  1.7945168E+02;3;  5.6850324E+00;  0.0000000E+00;  2.5815174E-01;0; -1.1565832E-02;  3.9982938E+04;  0.0000000E+00;  4.3711901E-02;  4.0000000E+04;  0.0000000E+00;  3.9992934E+04;  9.1081467E-03;  0.0000000E+00; -2.0673979E-02;  8.6940723E+02;
  5.5056155E-01;  9.9999998E-03;  1.6004367E-01;5847; -8.9606475E-03;  0.0000000E+00; -5.6739328E-03;  1.0002419E+03;  1.0004862E-01;  2.0038934E+02;3;  5.2887492E+00;  0.0000000E+00;  2.9708889E-01;0; -1.5033691E-02;  3.9983656E+04;  0.0000000E+00;  6.1425082E-02;  4.0000000E+04;  0.0000000E+00;  3.9994270E+04;  2.9745165E-03;  0.0000000E+00; -1.8008208E-02;  7.0571094E+02;
  5.5056840E-01;  9.9999998E-03;  1.7004396E-01;5848; -9.1059804E-03;  0.0000000E+00; -5.8966256E-03;  1.0002466E+03;  1.0004863E-01;  2.0433986E+02;3;  4.8884277E+00;  0.0000000E+00;  3.4780514E-01;0; -1.8098842E-02;  3.9982863E+04;  0.0000000E+00;  7.5165145E-02;  4.0000000E+04;  0.0000000E+00;  3.9995465E+04; -2.8692451E-03;  0.0000000E+00; -1.5229598E-02;  5.4625629E+02;
  5.5057472E-01;  9.9999998E-03;  1.8004370E-01;5849; -9.2323888E-03;  0.0000000E+00; -6.0829199E-03;  1.0002332E+03;  1.0004853E-01;  1.9317967E+02;3;  4.4679303E+00;  0.0000000E+00;  4.2040789E-01;0; -2.0792957E-02;  3.9980711E+04;  0.0000000E+00;  8.1750825E-02;  4.0000000E+04;  0.0000000E+00;  3.9996691E+04; -8.3779180E-03;  0.0000000E+00; -1.2415038E-02;  4.1093948E+02;
  5.5058181E-01;  9.9999998E-03;  1.9004248E-01;5850; -9.3403785E-03;  0.0000000E+00; -6.2272404E-03;  1.0002017E+03;  1.0004846E-01;  1.6710635E+02;3;  4.0347810E+00;  0.0000000E+00;  5.1708782E-01;0; -2.3163609E-02;  3.9977562E+04;  0.0000000E+00;  7.8565732E-02;  4.0000000E+04;  0.0000000E+00;  3.9997398E+04; -1.3517534E-02;  0.0000000E+00; -9.6460739E-03;  3.1602954E+02;
  5.5059105E-01;  9.9999998E-03;  2.0003967E-01;5851; -9.4243437E-03;  0.0000000E+00; -6.3292542E-03;  1.0001558E+03;  1.0004871E-01;  1.2908273E+02;3;  3.5996833E+00;  0.0000000E+00;  6.3051826E-01;0; -2.5269512E-02;  3.9973484E+04;  0.0000000E+00;  6.4366050E-02;  4.0000000E+04;  0.0000000E+00;  3.9997734E+04; -1.8268270E-02;  0.0000000E+00; -7.0012407E-03;  2.6772321E+02;
  5.5060375E-01;  9.9999998E-03;  2.1003386E-01;5852; -9.4826883E-03;  0.0000000E+00; -6.3863602E-03;  1.0000992E+03;  1.0004868E-01;  8.2170494E+01;3;  3.1793690E+00;  0.0000000E+00;  7.6131225E-01;0; -2.7175562E-02;  3.9969227E+04;  0.0000000E+00;  3.9695628E-02;  4.0000000E+04;  0.0000000E+00;  3.9997852E+04; -2.2624133E-02;  0.0000000E+00; -4.5514288E-03;  2.4828085E+02;
  5.5061960E-01;  9.9999998E-03;  2.2002390E-01;5853; -9.5135421E-03;  0.0000000E+00; -6.3903355E-03;  1.0000478E+03;  1.0004873E-01;  3.9603809E+01;3;  2.7631145E+00;  0.0000000E+00;  9.2697001E-01;0; -2.8938318E-02;  3.9964766E+04;  0.0000000E+00;  6.8103182E-03;  4.0000000E+04;  0.0000000E+00;  3.9998332E+04; -2.6592564E-02;  0.0000000E+00; -2.3457536E-03;  1.7707410E+02;
  5.5063760E-01;  9.9999998E-03;  2.3001093E-01;5854; -9.5264064E-03;  0.0000000E+00; -6.2893447E-03;  1.0000208E+03;  1.0004845E-01;  1.7283459E+01;3;  2.3395746E+00;  0.0000000E+00;  1.1523246E+00;0; -3.0447371E-02;  3.9960680E+04;  0.0000000E+00; -3.0609755E-02;  4.0000000E+04;  0.0000000E+00;  4.0000441E+04; -3.0190831E-02;  0.0000000E+00; -2.5654072E-04;  1.0219354E+02;
  5.6050104E-01;  9.9999998E-03;  7.0031978E-02;5899; -7.4477494E-03;  0.0000000E+00; -2.8630805E-03;  9.9911981E+02;  1.0007960E-01; -7.2921381E+02;3;  8.2672081E+00;  0.0000000E+00;  2.0720147E-01;0;  4.7713850E-02;  3.9875500E+04;  0.0000000E+00; -1.6231644E-03;  4.0000000E+04;  0.0000000E+00;  3.9986602E+04;  8.6353272E-02;  0.0000000E+00; -3.8639423E-02;  1.5394996E+03;
  5.6051117E-01;  9.9999998E-03;  8.0036141E-02;5900; -7.6234732E-03;  0.0000000E+00; -3.2600244E-03;  9.9921979E+02;  1.0007960E-01; -6.4640131E+02;3;  7.9954896E+00;  0.0000000E+00;  2.3239416E-01;0;  4.1948475E-02;  3.9883211E+04;  0.0000000E+00;  5.2567935E-03;  4.0000000E+04;  0.0000000E+00;  3.9986793E+04;  7.9150818E-02;  0.0000000E+00; -3.7202343E-02;  1.5352911E+03;
  5.6052065E-01;  9.9999998E-03;  9.0040207E-02;5901; -7.8089442E-03;  0.0000000E+00; -3.6521207E-03;  9.9932288E+02;  1.0007951E-01; -5.6097168E+02;3;  7.7201786E+00;  0.0000000E+00;  2.6656327E-01;0;  3.5760395E-02;  3.9891395E+04;  0.0000000E+00;  1.4651755E-02;  4.0000000E+04;  0.0000000E+00;  3.9986773E+04;  7.1373291E-02;  0.0000000E+00; -3.5612896E-02;  1.5344951E+03;
  5.6052995E-01;  9.9999998E-03;  1.0004400E-01;5902; -8.0082398E-03;  0.0000000E+00; -4.0387535E-03;  9.9942664E+02;  1.0007958E-01; -4.7499881E+02;3;  7.4113193E+00;  0.0000000E+00;  2.9616016E-01;0;  2.9284060E-02;  3.9899699E+04;  0.0000000E+00;  2.5839413E-02;  4.0000000E+04;  0.0000000E+00;  3.9986980E+04;  6.3154601E-02;  0.0000000E+00; -3.3870541E-02;  1.5256927E+03;
  5.6053919E-01;  9.9999998E-03;  1.1004726E-01;5903; -8.2153194E-03;  0.0000000E+00; -4.4186353E-03;  9.9952777E+02;  1.0007960E-01; -3.9124811E+02;3;  7.0886168E+00;  0.0000000E+00;  3.1928709E-01;0;  2.2661038E-02;  3.9907699E+04;  0.0000000E+00;  3.7791856E-02;  4.0000000E+04;  0.0000000E+00;  3.9987137E+04;  5.4629643E-02;  0.0000000E+00; -3.1968605E-02;  1.4960580E+03;
  5.6054837E-01;  9.9999998E-03;  1.2004992E-01;5904; -8.4281135E-03;  0.0000000E+00; -4.7878688E-03;  9.9962610E+02;  1.0007966E-01; -3.0976895E+02;3;  6.7665319E+00;  0.0000000E+00;  3.5877103E-01;0;  1.6035711E-02;  3.9914793E+04;  0.0000000E+00;  4.9431153E-02;  4.0000000E+04;  0.0000000E+00;  3.9987809E+04;  4.5931466E-02;  0.0000000E+00; -2.9895755E-02;  1.4342903E+03;
  5.6055707E-01;  9.9999998E-03;  1.3005209E-01;5905; -8.6422265E-03;  0.0000000E+00; -5.1468769E-03;  9.9971393E+02;  1.0007964E-01; -2.3698090E+02;3;  6.4021411E+00;  0.0000000E+00;  3.8415200E-01;0;  9.5480680E-03;  3.9921090E+04;  0.0000000E+00;  5.9865512E-02;  4.0000000E+04;  0.0000000E+00;  3.9988730E+04;  3.7185591E-02;  0.0000000E+00; -2.7637523E-02;  1.3322837E+03;
  5.6056476E-01;  9.9999998E-03;  1.4005400E-01;5906; -8.8544702E-03;  0.0000000E+00; -5.4876735E-03;  9.9978638E+02;  1.0007980E-01; -1.7698260E+02;3;  6.0208530E+00;  0.0000000E+00;  4.2688450E-01;0;  3.3287592E-03;  3.9925848E+04;  0.0000000E+00;  6.8566278E-02;  4.0000000E+04;  0.0000000E+00;  3.9989758E+04;  2.8507527E-02;  0.0000000E+00; -2.5178768E-02;  1.1871709E+03;
  5.6057137E-01;  9.9999998E-03;  1.5005578E-01;5907; -9.0563083E-03;  0.0000000E+00; -5.8095427E-03;  9.9984296E+02;  1.0007989E-01; -1.3011975E+02;3;  5.6264949E+00;  0.0000000E+00;  4.5760807E-01;0; -2.5097504E-03;  3.9929223E+04;  0.0000000E+00;  7.5323857E-02;  4.0000000E+04;  0.0000000E+00;  3.9991375E+04;  2.0000167E-02;  0.0000000E+00; -2.2509918E-02;  1.0028279E+03;
  5.6057835E-01;  9.9999998E-03;  1.6005732E-01;5908; -9.2487354E-03;  0.0000000E+00; -6.1050481E-03;  9.9988446E+02;  1.0007964E-01; -9.5700974E+01;3;  5.2167134E+00;  0.0000000E+00;  5.1325536E-01;0; -7.8952424E-03;  3.9930648E+04;  0.0000000E+00;  7.9648308E-02;  4.0000000E+04;  0.0000000E+00;  3.9993121E+04;  1.1755025E-02;  0.0000000E+00; -1.9650267E-02;  7.9261731E+02;
  5.6058705E-01;  9.9999998E-03;  1.7005835E-01;5909; -9.4277561E-03;  0.0000000E+00; -6.3698343E-03;  9.9990668E+02;  1.0007987E-01; -7.7331131E+01;3;  4.7860570E+00;  0.0000000E+00;  5.6727254E-01;0; -1.2801039E-02;  3.9930762E+04;  0.0000000E+00;  8.0288179E-02;  4.0000000E+04;  0.0000000E+00;  3.9994820E+04;  3.8526757E-03;  0.0000000E+00; -1.6653715E-02;  5.7897241E+02;
  5.6059837E-01;  9.9999998E-03;  1.8005848E-01;5910; -9.5887966E-03;  0.0000000E+00; -6.6038980E-03;  9.9991107E+02;  1.0007997E-01; -7.3676910E+01;3;  4.3651710E+00;  0.0000000E+00;  6.2604696E-01;0; -1.7234167E-02;  3.9929742E+04;  0.0000000E+00;  7.5523823E-02;  4.0000000E+04;  0.0000000E+00;  3.9996410E+04; -3.6371083E-03;  0.0000000E+00; -1.3597059E-02;  3.8950174E+02;
  5.6061357E-01;  9.9999998E-03;  1.9005719E-01;5911; -9.7295241E-03;  0.0000000E+00; -6.7979028E-03;  9.9989581E+02;  1.0007988E-01; -8.6318527E+01;3;  3.9206989E+00;  0.0000000E+00;  7.1120858E-01;0; -2.1225311E-02;  3.9927535E+04;  0.0000000E+00;  6.3904934E-02;  4.0000000E+04;  0.0000000E+00;  3.9997523E+04; -1.0657477E-02;  0.0000000E+00; -1.0567834E-02;  2.5035518E+02;
  5.6063354E-01;  9.9999998E-03;  2.0005353E-01;5912; -9.8479362E-03;  0.0000000E+00; -6.9495309E-03;  9.9986841E+02;  1.0007979E-01; -1.0903393E+02;3;  3.4892352E+00;  0.0000000E+00;  8.0737287E-01;0; -2.4827104E-02;  3.9924852E+04;  0.0000000E+00;  4.5001395E-02;  4.0000000E+04;  0.0000000E+00;  3.9998059E+04; -1.7168690E-02;  0.0000000E+00; -7.6584145E-03;  1.7388329E+02;
  5.6065923E-01;  9.9999998E-03;  2.1004571E-01;5913; -9.9388612E-03;  0.0000000E+00; -7.0582316E-03;  9.9983057E+02;  1.0007975E-01; -1.4039105E+02;3;  3.0653539E+00;  0.0000000E+00;  9.3029433E-01;0; -2.8120443E-02;  3.9921648E+04;  0.0000000E+00;  1.9831771E-02;  4.0000000E+04;  0.0000000E+00;  3.9998316E+04; -2.3151565E-02;  0.0000000E+00; -4.9688779E-03;  1.3817844E+02;
  5.6069022E-01;  9.9999998E-03;  2.2003224E-01;5914; -1.0000885E-02;  0.0000000E+00; -7.1149040E-03;  9.9979559E+02;  1.0008001E-01; -1.6932851E+02;3;  2.6349590E+00;  0.0000000E+00;  1.0789046E+00;0; -3.1204171E-02;  3.9918480E+04;  0.0000000E+00; -9.5372675E-03;  4.0000000E+04;  0.0000000E+00;  3.9999062E+04; -2.8607450E-02;  0.0000000E+00; -2.5967208E-03;  4.1171192E+01;
  5.6072372E-01;  9.9999998E-03;  2.3001462E-01;5915; -1.0041039E-02;  0.0000000E+00; -7.0612929E-03;  9.9979034E+02;  1.0007983E-01; -1.7367406E+02;3;  2.2164855E+00;  0.0000000E+00;  1.2828907E+00;0; -3.4028873E-02;  3.9915273E+04;  0.0000000E+00; -4.0706720E-02;  4.0000000E+04;  0.0000000E+00;  4.0001789E+04; -3.3554424E-02;  0.0000000E+00; -4.7444840E-04;  3.2848456E+02;
  5.7062316E-01;  9.9999998E-03;  7.0029743E-02;5960; -7.5258547E-03;  0.0000000E+00; -2.9426420E-03;  9.9892596E+02;  1.0013084E-01; -8.8980164E+02;3;  8.2523308E+00;  0.0000000E+00;  3.6274764E-01;0;  7.6128952E-02;  3.9820566E+04;  0.0000000E+00;  4.9919866E-02;  4.0000000E+04;  0.0000000E+00;  3.9985168E+04;  1.1797140E-01;  0.0000000E+00; -4.1842446E-02;  1.6620398E+03;
  5.7062507E-01;  9.9999998E-03;  8.0033690E-02;5961; -7.7140089E-03;  0.0000000E+00; -3.3607357E-03;  9.9901202E+02;  1.0013099E-01; -8.1849506E+02;3;  7.9856195E+00;  0.0000000E+00;  4.0584776E-01;0;  6.8772994E-02;  3.9827344E+04;  0.0000000E+00;  6.5521911E-02;  4.0000000E+04;  0.0000000E+00;  3.9985312E+04;  1.0895132E-01;  0.0000000E+00; -4.0178321E-02;  1.6703528E+03;
  5.7062596E-01;  9.9999998E-03;  9.0037726E-02;5962; -7.9159075E-03;  0.0000000E+00; -3.7761582E-03;  9.9910114E+02;  1.0013097E-01; -7.4467004E+02;3;  7.6952300E+00;  0.0000000E+00;  4.4796342E-01;0;  6.0826667E-02;  3.9834496E+04;  0.0000000E+00;  8.1028834E-02;  4.0000000E+04;  0.0000000E+00;  3.9985094E+04;  9.9181555E-02;  0.0000000E+00; -3.8354889E-02;  1.6886211E+03;
  5.7062596E-01;  9.9999998E-03;  1.0004175E-01;5963; -8.1342813E-03;  0.0000000E+00; -4.1910219E-03;  9.9919012E+02;  1.0013086E-01; -6.7094373E+02;3;  7.4046669E+00;  0.0000000E+00;  4.9304986E-01;0;  5.2444458E-02;  3.9841926E+04;  0.0000000E+00;  9.4805598E-02;  4.0000000E+04;  0.0000000E+00;  3.9985055E+04;  8.8821910E-02;  0.0000000E+00; -3.6377452E-02;  1.7023789E+03;
  5.7062501E-01;  9.9999998E-03;  1.1004564E-01;5964; -8.3647482E-03;  0.0000000E+00; -4.6022180E-03;  9.9928418E+02;  1.0013118E-01; -5.9302002E+02;3;  7.0522633E+00;  0.0000000E+00;  5.3170192E-01;0;  4.3790415E-02;  3.9849102E+04;  0.0000000E+00;  1.0522828E-01;  4.0000000E+04;  0.0000000E+00;  3.9985195E+04;  7.8035168E-02;  0.0000000E+00; -3.4244753E-02;  1.6953330E+03;
  5.7062399E-01;  9.9999998E-03;  1.2004912E-01;5965; -8.6034313E-03;  0.0000000E+00; -5.0072339E-03;  9.9937256E+02;  1.0013115E-01; -5.1983698E+02;3;  6.7250738E+00;  0.0000000E+00;  5.7403308E-01;0;  3.5038117E-02;  3.9855848E+04;  0.0000000E+00;  1.1106652E-01;  4.0000000E+04;  0.0000000E+00;  3.9985598E+04;  6.6987254E-02;  0.0000000E+00; -3.1949136E-02;  1.6519861E+03;
  5.7062352E-01;  9.9999998E-03;  1.3005215E-01;5966; -8.8456795E-03;  0.0000000E+00; -5.4038963E-03;  9.9945508E+02;  1.0013101E-01; -4.5144385E+02;3;  6.3523378E+00;  0.0000000E+00;  6.2271398E-01;0;  2.6358856E-02;  3.9861836E+04;  0.0000000E+00;  1.1177673E-01;  4.0000000E+04;  0.0000000E+00;  3.9986434E+04;  5.5836573E-02;  0.0000000E+00; -2.9477717E-02;  1.5607026E+03;
  5.7062405E-01;  9.9999998E-03;  1.4005508E-01;5967; -9.0887137E-03;  0.0000000E+00; -5.7860129E-03;  9.9953223E+02;  1.0013114E-01; -3.8754443E+02;3;  5.9504066E+00;  0.0000000E+00;  6.5559542E-01;0;  1.7917022E-02;  3.9866430E+04;  0.0000000E+00;  1.0768330E-01;  4.0000000E+04;  0.0000000E+00;  3.9987586E+04;  4.4730853E-02;  0.0000000E+00; -2.6813831E-02;  1.4153280E+03;
  5.7062721E-01;  9.9999998E-03;  1.5005788E-01;5968; -9.3250833E-03;  0.0000000E+00; -6.1493032E-03;  9.9959534E+02;  1.0013122E-01; -3.3524966E+02;3;  5.5383024E+00;  0.0000000E+00;  7.1189809E-01;0;  9.8617952E-03;  3.9869941E+04;  0.0000000E+00;  9.9751025E-02;  4.0000000E+04;  0.0000000E+00;  3.9989195E+04;  3.3805054E-02;  0.0000000E+00; -2.3943258E-02;  1.2178712E+03;
  5.7063383E-01;  9.9999998E-03;  1.6006051E-01;5969; -9.5525235E-03;  0.0000000E+00; -6.4886208E-03;  9.9964532E+02;  1.0013103E-01; -2.9381873E+02;3;  5.1238017E+00;  0.0000000E+00;  7.5263041E-01;0;  2.2991356E-03;  3.9872270E+04;  0.0000000E+00;  8.8899344E-02;  4.0000000E+04;  0.0000000E+00;  3.9991184E+04;  2.3178281E-02;  0.0000000E+00; -2.0879146E-02;  9.8135638E+02;
  5.7064509E-01;  9.9999998E-03;  1.7006263E-01;5970; -9.7687207E-03;  0.0000000E+00; -6.8002152E-03;  9.9968561E+02;  1.0013123E-01; -2.6048636E+02;3;  4.6779022E+00;  0.0000000E+00;  8.1323445E-01;0; -4.7099777E-03;  3.9873332E+04;  0.0000000E+00;  7.5575404E-02;  4.0000000E+04;  0.0000000E+00;  3.9993117E+04;  1.2960054E-02;  0.0000000E+00; -1.7670032E-02;  7.3016077E+02;
  5.7066232E-01;  9.9999998E-03;  1.8006359E-01;5971; -9.9696182E-03;  0.0000000E+00; -7.0771510E-03;  9.9970636E+02;  1.0013138E-01; -2.4325229E+02;3;  4.2311316E+00;  0.0000000E+00;  8.8456798E-01;0; -1.1139512E-02;  3.9873367E+04;  0.0000000E+00;  5.9804481E-02;  4.0000000E+04;  0.0000000E+00;  3.9994945E+04;  3.2499772E-03;  0.0000000E+00; -1.4389489E-02;  4.9626358E+02;
  5.7068598E-01;  9.9999998E-03;  1.9006276E-01;5972; -1.0151531E-02;  0.0000000E+00; -7.3202169E-03;  9.9971552E+02;  1.0013139E-01; -2.3569695E+02;3;  3.8029215E+00;  0.0000000E+00;  9.4604284E-01;0; -1.6996145E-02;  3.9872723E+04;  0.0000000E+00;  4.1549146E-02;  4.0000000E+04;  0.0000000E+00;  3.9996438E+04; -5.8686528E-03;  0.0000000E+00; -1.1127491E-02;  3.1223172E+02;
  5.7071662E-01;  9.9999998E-03;  2.0005906E-01;5973; -1.0312555E-02;  0.0000000E+00; -7.5207893E-03;  9.9970642E+02;  1.0013146E-01; -2.4320291E+02;3;  3.3620980E+00;  0.0000000E+00;  1.0449667E+00;0; -2.2320213E-02;  3.9871262E+04;  0.0000000E+00;  2.1233408E-02;  4.0000000E+04;  0.0000000E+00;  3.9997418E+04; -1.4334014E-02;  0.0000000E+00; -7.9861991E-03;  1.9864258E+02;
  5.7075429E-01;  9.9999998E-03;  2.1005042E-01;5974; -1.0446913E-02;  0.0000000E+00; -7.6793157E-03;  9.9968872E+02;  1.0013153E-01; -2.5786914E+02;3;  2.9184222E+00;  0.0000000E+00;  1.1534661E+00;0; -2.7200155E-02;  3.9869469E+04;  0.0000000E+00; -1.0087514E-04;  4.0000000E+04;  0.0000000E+00;  3.9997785E+04; -2.2111986E-02;  0.0000000E+00; -5.0881691E-03;  1.3070471E+02;
  5.7079774E-01;  9.9999998E-03;  2.2003527E-01;5975; -1.0550707E-02;  0.0000000E+00; -7.7843759E-03;  9.9967816E+02;  1.0013144E-01; -2.6665903E+02;3;  2.5038056E+00;  0.0000000E+00;  1.2845159E+00;0; -3.1765942E-02;  3.9867508E+04;  0.0000000E+00; -2.1667205E-02;  4.0000000E+04;  0.0000000E+00;  3.9999012E+04; -2.9196944E-02;  0.0000000E+00; -2.5689970E-03;  3.4643162E+01;
  5.7084334E-01;  9.9999998E-03;  2.3001584E-01;5976; -1.0624530E-02;  0.0000000E+00; -7.7811331E-03;  9.9969684E+02;  1.0013144E-01; -2.5115329E+02;3;  2.0615525E+00;  0.0000000E+00;  1.4879643E+00;0; -3.6047366E-02;  3.9865750E+04;  0.0000000E+00; -4.4368532E-02;  4.0000000E+04;  0.0000000E+00;  4.0002555E+04; -3.5609838E-02;  0.0000000E+00; -4.3752632E-04;  4.6631360E+02;
  5.8078742E-01;  9.9999998E-03;  7.0020765E-02;6021; -7.5841611E-03;  0.0000000E+00; -3.0020336E-03;  9.9895056E+02;  1.0021388E-01; -8.6945654E+02;3;  8.2175894E+00;  0.0000000E+00;  5.1362008E-01;0;  1.0822518E-01;  3.9758363E+04;  0.0000000E+00;  1.0041740E-01;  4.0000000E+04;  0.0000000E+00;  3.9984023E+04;  1.5338336E-01;  0.0000000E+00; -4.5158181E-02;  1.7360006E+03;
  5.8077663E-01;  9.9999998E-03;  8.0024369E-02;6022; -7.7834502E-03;  0.0000000E+00; -3.4365417E-03;  9.9900208E+02;  1.0021397E-01; -8.2674176E+02;3;  7.9682946E+00;  0.0000000E+00;  5.8870721E-01;0;  9.9230811E-02;  3.9762535E+04;  0.0000000E+00;  1.2307763E-01;  4.0000000E+04;  0.0000000E+00;  3.9983996E+04;  1.4240158E-01;  0.0000000E+00; -4.3170765E-02;  1.7618549E+03;
  5.8076197E-01;  9.9999998E-03;  9.0028688E-02;6023; -8.0019953E-03;  0.0000000E+00; -3.8736451E-03;  9.9906018E+02;  1.0021431E-01; -7.7864435E+02;3;  7.6653347E+00;  0.0000000E+00;  6.4092100E-01;0;  8.9461990E-02;  3.9767457E+04;  0.0000000E+00;  1.4254832E-01;  4.0000000E+04;  0.0000000E+00;  3.9983699E+04;  1.3047463E-01;  0.0000000E+00; -4.1012637E-02;  1.8065209E+03;
  5.8074522E-01;  9.9999998E-03;  1.0003348E-01;6024; -8.2384292E-03;  0.0000000E+00; -4.3127346E-03;  9.9911957E+02;  1.0021400E-01; -7.2941119E+02;3;  7.3695259E+00;  0.0000000E+00;  7.0569700E-01;0;  7.9096034E-02;  3.9772508E+04;  0.0000000E+00;  1.5647595E-01;  4.0000000E+04;  0.0000000E+00;  3.9983355E+04;  1.1779585E-01;  0.0000000E+00; -3.8699817E-02;  1.8534235E+03;
  5.8072942E-01;  9.9999998E-03;  1.1003834E-01;6025; -8.4917285E-03;  0.0000000E+00; -4.7527612E-03;  9.9918439E+02;  1.0021417E-01; -6.7573370E+02;3;  7.0089059E+00;  0.0000000E+00;  7.5630468E-01;0;  6.8327874E-02;  3.9777809E+04;  0.0000000E+00;  1.6295855E-01;  4.0000000E+04;  0.0000000E+00;  3.9983148E+04;  1.0456892E-01;  0.0000000E+00; -3.6241043E-02;  1.8831555E+03;
  5.8071661E-01;  9.9999998E-03;  1.2004298E-01;6026; -8.7559922E-03;  0.0000000E+00; -5.1900763E-03;  9.9924927E+02;  1.0021426E-01; -6.2195746E+02;3;  6.6612091E+00;  0.0000000E+00;  8.0804789E-01;0;  5.7357103E-02;  3.9782680E+04;  0.0000000E+00;  1.6095182E-01;  4.0000000E+04;  0.0000000E+00;  3.9983168E+04;  9.0994105E-02;  0.0000000E+00; -3.3637002E-02;  1.8763820E+03;
  5.8070785E-01;  9.9999998E-03;  1.3004729E-01;6027; -9.0303142E-03;  0.0000000E+00; -5.6215804E-03;  9.9931573E+02;  1.0021437E-01; -5.6689734E+02;3;  6.2872276E+00;  0.0000000E+00;  8.7286991E-01;0;  4.6382204E-02;  3.9787543E+04;  0.0000000E+00;  1.5059404E-01;  4.0000000E+04;  0.0000000E+00;  3.9983766E+04;  7.7262275E-02;  0.0000000E+00; -3.0880073E-02;  1.8172567E+03;
  5.8070433E-01;  9.9999998E-03;  1.4005119E-01;6028; -9.3040960E-03;  0.0000000E+00; -6.0422071E-03;  9.9937933E+02;  1.0021447E-01; -5.1420746E+02;3;  5.8715301E+00;  0.0000000E+00;  9.1058296E-01;0;  3.5596989E-02;  3.9791594E+04;  0.0000000E+00;  1.3324384E-01;  4.0000000E+04;  0.0000000E+00;  3.9984688E+04;  6.3552678E-02;  0.0000000E+00; -2.7955687E-02;  1.6959338E+03;
  5.8070642E-01;  9.9999998E-03;  1.5005481E-01;6029; -9.5772371E-03;  0.0000000E+00; -6.4443490E-03;  9.9944098E+02;  1.0021443E-01; -4.6314722E+02;3;  5.4463024E+00;  0.0000000E+00;  9.7298145E-01;0;  2.5183616E-02;  3.9794938E+04;  0.0000000E+00;  1.1109048E-01;  4.0000000E+04;  0.0000000E+00;  3.9986301E+04;  5.0031375E-02;  0.0000000E+00; -2.4847759E-02;  1.5112921E+03;
  5.8071470E-01;  9.9999998E-03;  1.6005817E-01;6030; -9.8426640E-03;  0.0000000E+00; -6.8260175E-03;  9.9949908E+02;  1.0021445E-01; -4.1500046E+02;3;  5.0256004E+00;  0.0000000E+00;  1.0213866E+00;0;  1.5283916E-02;  3.9797492E+04;  0.0000000E+00;  8.6457700E-02;  4.0000000E+04;  0.0000000E+00;  3.9988176E+04;  3.6848724E-02;  0.0000000E+00; -2.1564808E-02;  1.2749260E+03;
  5.8073008E-01;  9.9999998E-03;  1.7006089E-01;6031; -1.0100642E-02;  0.0000000E+00; -7.1787136E-03;  9.9954736E+02;  1.0021455E-01; -3.7500159E+02;3;  4.5746627E+00;  0.0000000E+00;  1.0815547E+00;0;  5.9989356E-03;  3.9799246E+04;  0.0000000E+00;  6.1445147E-02;  4.0000000E+04;  0.0000000E+00;  3.9990246E+04;  2.4148053E-02;  0.0000000E+00; -1.8149117E-02;  1.0112101E+03;
  5.8075333E-01;  9.9999998E-03;  1.8006237E-01;6032; -1.0345167E-02;  0.0000000E+00; -7.5024478E-03;  9.9958551E+02;  1.0021462E-01; -3.4339755E+02;3;  4.1292067E+00;  0.0000000E+00;  1.1465790E+00;0; -2.6077721E-03;  3.9800301E+04;  0.0000000E+00;  3.7739098E-02;  4.0000000E+04;  0.0000000E+00;  3.9992262E+04;  1.2061449E-02;  0.0000000E+00; -1.4669221E-02;  7.5361902E+02;
  5.8078462E-01;  9.9999998E-03;  1.9006190E-01;6033; -1.0577046E-02;  0.0000000E+00; -7.7884258E-03;  9.9961078E+02;  1.0021471E-01; -3.2245990E+02;3;  3.6721401E+00;  0.0000000E+00;  1.2302245E+00;0; -1.0508849E-02;  3.9800691E+04;  0.0000000E+00;  1.6580651E-02;  4.0000000E+04;  0.0000000E+00;  3.9993969E+04;  7.0362631E-04;  0.0000000E+00; -1.1212476E-02;  5.3711322E+02;
  5.8082336E-01;  9.9999998E-03;  2.0005816E-01;6034; -1.0787130E-02;  0.0000000E+00; -8.0398498E-03;  9.9962341E+02;  1.0021479E-01; -3.1199106E+02;3;  3.2099099E+00;  0.0000000E+00;  1.3120362E+00;0; -1.7730167E-02;  3.9800668E+04;  0.0000000E+00; -1.0516724E-03;  4.0000000E+04;  0.0000000E+00;  3.9995309E+04; -9.8405862E-03;  0.0000000E+00; -7.8895809E-03;  3.8255984E+02;
  5.8086872E-01;  9.9999998E-03;  2.1004908E-01;6035; -1.0974879E-02;  0.0000000E+00; -8.2454793E-03;  9.9962903E+02;  1.0021475E-01; -3.0734921E+02;3;  2.7704096E+00;  0.0000000E+00;  1.4228541E+00;0; -2.4355413E-02;  3.9800332E+04;  0.0000000E+00; -1.4729697E-02;  4.0000000E+04;  0.0000000E+00;  3.9996184E+04; -1.9518334E-02;  0.0000000E+00; -4.8370790E-03;  2.5849384E+02;
  5.8091801E-01;  9.9999998E-03;  2.2003344E-01;6036; -1.1129858E-02;  0.0000000E+00; -8.3984742E-03;  9.9964081E+02;  1.0021487E-01; -2.9757172E+02;3;  2.3186321E+00;  0.0000000E+00;  1.5622419E+00;0; -3.0547753E-02;  3.9799508E+04;  0.0000000E+00; -2.5772048E-02;  4.0000000E+04;  0.0000000E+00;  3.9998059E+04; -2.8318191E-02;  0.0000000E+00; -2.2295611E-03;  4.3459064E+01;
  5.8096713E-01;  9.9999998E-03;  2.3001458E-01;6037; -1.1247540E-02;  0.0000000E+00; -8.4466618E-03;  9.9968103E+02;  1.0021494E-01; -2.6423935E+02;3;  1.9014621E+00;  0.0000000E+00;  1.7306828E+00;0; -3.6407255E-02;  3.9798766E+04;  0.0000000E+00; -3.9078973E-02;  4.0000000E+04;  0.0000000E+00;  4.0002188E+04; -3.6262181E-02;  0.0000000E+00; -1.4507437E-04;  4.9536160E+02;
  5.9093040E-01;  9.9999998E-03;  7.0013851E-02;6082; -7.5941468E-03;  0.0000000E+00; -3.0503937E-03;  9.9911371E+02;  1.0034806E-01; -7.3429987E+02;3;  8.1870804E+00;  0.0000000E+00;  6.8518865E-01;0;  1.4174339E-01;  3.9667719E+04;  0.0000000E+00;  1.3691360E-01;  4.0000000E+04;  0.0000000E+00;  3.9983234E+04;  1.9025250E-01;  0.0000000E+00; -4.8509113E-02;  1.7482406E+03;
  5.9090668E-01;  9.9999998E-03;  8.0016144E-02;6083; -7.8033423E-03;  0.0000000E+00; -3.4972006E-03;  9.9912305E+02;  1.0034810E-01; -7.2654700E+02;3;  7.9146142E+00;  0.0000000E+00;  7.5856030E-01;0;  1.3122518E-01;  3.9668625E+04;  0.0000000E+00;  1.6283822E-01;  4.0000000E+04;  0.0000000E+00;  3.9982988E+04;  1.7732920E-01;  0.0000000E+00; -4.6104018E-02;  1.7949521E+03;
  5.9087956E-01;  9.9999998E-03;  9.0019219E-02;6084; -8.0412552E-03;  0.0000000E+00; -3.9529013E-03;  9.9913495E+02;  1.0034801E-01; -7.1667078E+02;3;  7.6242461E+00;  0.0000000E+00;  8.4523326E-01;0;  1.1975989E-01;  3.9669965E+04;  0.0000000E+00;  1.8268479E-01;  4.0000000E+04;  0.0000000E+00;  3.9982266E+04;  1.6327244E-01;  0.0000000E+00; -4.3512553E-02;  1.8718849E+03;
  5.9085113E-01;  9.9999998E-03;  1.0002349E-01;6085; -8.2950843E-03;  0.0000000E+00; -4.4118483E-03;  9.9914954E+02;  1.0034835E-01; -7.0457233E+02;3;  7.2999430E+00;  0.0000000E+00;  9.0728617E-01;0;  1.0753397E-01;  3.9671816E+04;  0.0000000E+00;  1.9380319E-01;  4.0000000E+04;  0.0000000E+00;  3.9981625E+04;  1.4829846E-01;  0.0000000E+00; -4.0764488E-02;  1.9614117E+03;
  5.9082347E-01;  9.9999998E-03;  1.1002907E-01;6086; -8.5726827E-03;  0.0000000E+00; -4.8768427E-03;  9.9917297E+02;  1.0034828E-01; -6.8516553E+02;3;  6.9570155E+00;  0.0000000E+00;  9.9304014E-01;0;  9.4757579E-02;  3.9673949E+04;  0.0000000E+00;  1.9440189E-01;  4.0000000E+04;  0.0000000E+00;  3.9981020E+04;  1.3263962E-01;  0.0000000E+00; -3.7882037E-02;  2.0414554E+03;
  5.9079957E-01;  9.9999998E-03;  1.2003559E-01;6087; -8.8651944E-03;  0.0000000E+00; -5.3425524E-03;  9.9920270E+02;  1.0034828E-01; -6.6057361E+02;3;  6.5804729E+00;  0.0000000E+00;  1.0490060E+00;0;  8.1649080E-02;  3.9676707E+04;  0.0000000E+00;  1.8395968E-01;  4.0000000E+04;  0.0000000E+00;  3.9980691E+04;  1.1652770E-01;  0.0000000E+00; -3.4878619E-02;  2.0890662E+03;
  5.9078240E-01;  9.9999998E-03;  1.3004237E-01;6088; -9.1691455E-03;  0.0000000E+00; -5.8051231E-03;  9.9924097E+02;  1.0034844E-01; -6.2882141E+02;3;  6.2157488E+00;  0.0000000E+00;  1.1276029E+00;0;  6.8434604E-02;  3.9679477E+04;  0.0000000E+00;  1.6346236E-01;  4.0000000E+04;  0.0000000E+00;  3.9980551E+04;  1.0019167E-01;  0.0000000E+00; -3.1757064E-02;  2.0837380E+03;
  5.9077400E-01;  9.9999998E-03;  1.4004876E-01;6089; -9.4785914E-03;  0.0000000E+00; -6.2588016E-03;  9.9928479E+02;  1.0034855E-01; -5.9252618E+02;3;  5.7768683E+00;  0.0000000E+00;  1.1819795E+00;0;  5.5337109E-02;  3.9682195E+04;  0.0000000E+00;  1.3524406E-01;  4.0000000E+04;  0.0000000E+00;  3.9981195E+04;  8.3846815E-02;  0.0000000E+00; -2.8509708E-02;  2.0110873E+03;
  5.9077454E-01;  9.9999998E-03;  1.5005451E-01;6090; -9.7883949E-03;  0.0000000E+00; -6.6963052E-03;  9.9933295E+02;  1.0034860E-01; -5.5262610E+02;3;  5.3537278E+00;  0.0000000E+00;  1.2441177E+00;0;  4.2569168E-02;  3.9684859E+04;  0.0000000E+00;  1.0252553E-01;  4.0000000E+04;  0.0000000E+00;  3.9982391E+04;  6.7692220E-02;  0.0000000E+00; -2.5123052E-02;  1.8662711E+03;
  5.9078407E-01;  9.9999998E-03;  1.6005954E-01;6091; -1.0098957E-02;  0.0000000E+00; -7.1133245E-03;  9.9938611E+02;  1.0034893E-01; -5.0857797E+02;3;  4.9107313E+00;  0.0000000E+00;  1.3115070E+00;0;  3.0311164E-02;  3.9687219E+04;  0.0000000E+00;  6.8716645E-02;  4.0000000E+04;  0.0000000E+00;  3.9984090E+04;  5.1914539E-02;  0.0000000E+00; -2.1603376E-02;  1.6585750E+03;
  5.9080255E-01;  9.9999998E-03;  1.7006357E-01;6092; -1.0398605E-02;  0.0000000E+00; -7.5055268E-03;  9.9943829E+02;  1.0034908E-01; -4.6536935E+02;3;  4.4623570E+00;  0.0000000E+00;  1.3750020E+00;0;  1.8703103E-02;  3.9689359E+04;  0.0000000E+00;  3.7126135E-02;  4.0000000E+04;  0.0000000E+00;  3.9986121E+04;  3.6690339E-02;  0.0000000E+00; -1.7987236E-02;  1.4120576E+03;
  5.9083003E-01;  9.9999998E-03;  1.8006596E-01;6093; -1.0694699E-02;  0.0000000E+00; -7.8685284E-03;  9.9948792E+02;  1.0034906E-01; -4.2423471E+02;3;  3.9997494E+00;  0.0000000E+00;  1.4379652E+00;0;  7.8554554E-03;  3.9690969E+04;  0.0000000E+00;  1.0591985E-02;  4.0000000E+04;  0.0000000E+00;  3.9987992E+04;  2.2191208E-02;  0.0000000E+00; -1.4335752E-02;  1.1615486E+03;
  5.9086567E-01;  9.9999998E-03;  1.9006598E-01;6094; -1.0976121E-02;  0.0000000E+00; -8.2008326E-03;  9.9952570E+02;  1.0034942E-01; -3.9297635E+02;3;  3.5213790E+00;  0.0000000E+00;  1.5222448E+00;0; -2.1708570E-03;  3.9692332E+04;  0.0000000E+00; -8.8108331E-03;  4.0000000E+04;  0.0000000E+00;  3.9989836E+04;  8.5616466E-03;  0.0000000E+00; -1.0732504E-02;  9.4353021E+02;
  5.9090805E-01;  9.9999998E-03;  2.0006227E-01;6095; -1.1245223E-02;  0.0000000E+00; -8.4961988E-03;  9.9954791E+02;  1.0034940E-01; -3.7455713E+02;3;  3.0633190E+00;  0.0000000E+00;  1.6069739E+00;0; -1.1371727E-02;  3.9692969E+04;  0.0000000E+00; -1.9874550E-02;  4.0000000E+04;  0.0000000E+00;  3.9991266E+04; -4.0834509E-03;  0.0000000E+00; -7.2882762E-03;  7.7801581E+02;
  5.9095514E-01;  9.9999998E-03;  2.1005228E-01;6096; -1.1489002E-02;  0.0000000E+00; -8.7565910E-03;  9.9956622E+02;  1.0034940E-01; -3.5939709E+02;3;  2.5851390E+00;  0.0000000E+00;  1.7243639E+00;0; -1.9840702E-02;  3.9693043E+04;  0.0000000E+00; -2.2738904E-02;  4.0000000E+04;  0.0000000E+00;  3.9992285E+04; -1.5675558E-02;  0.0000000E+00; -4.1651446E-03;  6.2314307E+02;
  5.9100384E-01;  9.9999998E-03;  2.2003525E-01;6097; -1.1700804E-02;  0.0000000E+00; -8.9654392E-03;  9.9959064E+02;  1.0034967E-01; -3.3915076E+02;3;  2.1494353E+00;  0.0000000E+00;  1.8369613E+00;0; -2.7763501E-02;  3.9692992E+04;  0.0000000E+00; -2.0230297E-02;  4.0000000E+04;  0.0000000E+00;  3.9994648E+04; -2.6192097E-02;  0.0000000E+00; -1.5714034E-03;  3.3011792E+02;
  5.9104925E-01;  9.9999998E-03;  2.3001602E-01;6098; -1.1888000E-02;  0.0000000E+00; -9.0623079E-03;  9.9964142E+02;  1.0034961E-01; -2.9707788E+02;3;  1.7557172E+00;  0.0000000E+00;  1.9786236E+00;0; -3.5281491E-02;  3.9692625E+04;  0.0000000E+00; -1.9543776E-02;  4.0000000E+04;  0.0000000E+00;  3.9999668E+04; -3.5652820E-02;  0.0000000E+00;  3.7132829E-04;  2.7603781E+02;
  6.0098988E-01;  9.9999998E-03;  7.0015945E-02;6143; -7.5101145E-03;  0.0000000E+00; -3.1025044E-03;  9.9931720E+02;  1.0056140E-01; -5.6566272E+02;3;  8.1076717E+00;  0.0000000E+00;  8.2801700E-01;0;  1.7358020E-01;  3.9518762E+04;  0.0000000E+00;  1.4745831E-01;  4.0000000E+04;  0.0000000E+00;  3.9982594E+04;  2.2536276E-01;  0.0000000E+00; -5.1782556E-02;  1.6916276E+03;
  6.0096604E-01;  9.9999998E-03;  8.0015399E-02;6144; -7.7409153E-03;  0.0000000E+00; -3.5626944E-03;  9.9927917E+02;  1.0056169E-01; -5.9716797E+02;3;  7.8379545E+00;  0.0000000E+00;  9.4484490E-01;0;  1.6188285E-01;  3.9516086E+04;  0.0000000E+00;  1.7105941E-01;  4.0000000E+04;  0.0000000E+00;  3.9981953E+04;  2.1076596E-01;  0.0000000E+00; -4.8883114E-02;  1.7618037E+03;
  6.0093993E-01;  9.9999998E-03;  9.0015225E-02;6145; -7.9940269E-03;  0.0000000E+00; -4.0281028E-03;  9.9924292E+02;  1.0056166E-01; -6.2724121E+02;3;  7.5560598E+00;  0.0000000E+00;  1.0462567E+00;0;  1.4907451E-01;  3.9513750E+04;  0.0000000E+00;  1.8651679E-01;  4.0000000E+04;  0.0000000E+00;  3.9981047E+04;  1.9484878E-01;  0.0000000E+00; -4.5774266E-02;  1.8752706E+03;
  6.0091269E-01;  9.9999998E-03;  1.0001637E-01;6146; -8.2746744E-03;  0.0000000E+00; -4.5051766E-03;  9.9921295E+02;  1.0056184E-01; -6.5203058E+02;3;  7.2216983E+00;  0.0000000E+00;  1.1376705E+00;0;  1.3534604E-01;  3.9512191E+04;  0.0000000E+00;  1.9144984E-01;  4.0000000E+04;  0.0000000E+00;  3.9979809E+04;  1.7784856E-01;  0.0000000E+00; -4.2502519E-02;  2.0144091E+03;
  6.0088527E-01;  9.9999998E-03;  1.1001951E-01;6147; -8.5774884E-03;  0.0000000E+00; -4.9877232E-03;  9.9919128E+02;  1.0056213E-01; -6.7000537E+02;3;  6.8817501E+00;  0.0000000E+00;  1.2330436E+00;0;  1.2090501E-01;  3.9511355E+04;  0.0000000E+00;  1.8466803E-01;  4.0000000E+04;  0.0000000E+00;  3.9978715E+04;  1.6001280E-01;  0.0000000E+00; -3.9107781E-02;  2.1554167E+03;
  6.0085958E-01;  9.9999998E-03;  1.2002490E-01;6148; -8.9023802E-03;  0.0000000E+00; -5.4778275E-03;  9.9917847E+02;  1.0056242E-01; -6.8062238E+02;3;  6.4952626E+00;  0.0000000E+00;  1.3070533E+00;0;  1.0597715E-01;  3.9511062E+04;  0.0000000E+00;  1.6649349E-01;  4.0000000E+04;  0.0000000E+00;  3.9977613E+04;  1.4159720E-01;  0.0000000E+00; -3.5620049E-02;  2.2715852E+03;
  6.0083765E-01;  9.9999998E-03;  1.3003235E-01;6149; -9.2346342E-03;  0.0000000E+00; -5.9638079E-03;  9.9918231E+02;  1.0056223E-01; -6.7746198E+02;3;  6.1269884E+00;  0.0000000E+00;  1.3957077E+00;0;  9.0797074E-02;  3.9511461E+04;  0.0000000E+00;  1.3876259E-01;  4.0000000E+04;  0.0000000E+00;  3.9977070E+04;  1.2285446E-01;  0.0000000E+00; -3.2057382E-02;  2.3376140E+03;
  6.0082221E-01;  9.9999998E-03;  1.4004134E-01;6150; -9.5822085E-03;  0.0000000E+00; -6.4457036E-03;  9.9919781E+02;  1.0056274E-01; -6.6457343E+02;3;  5.6816278E+00;  0.0000000E+00;  1.4627935E+00;0;  7.5613938E-02;  3.9512465E+04;  0.0000000E+00;  1.0453793E-01;  4.0000000E+04;  0.0000000E+00;  3.9977102E+04;  1.0403860E-01;  0.0000000E+00; -2.8424658E-02;  2.3338845E+03;
  6.0081595E-01;  9.9999998E-03;  1.5005082E-01;6151; -9.9307476E-03;  0.0000000E+00; -6.9115995E-03;  9.9922925E+02;  1.0056295E-01; -6.3854950E+02;3;  5.2476478E+00;  0.0000000E+00;  1.5365318E+00;0;  6.0673207E-02;  3.9513957E+04;  0.0000000E+00;  6.7566842E-02;  4.0000000E+04;  0.0000000E+00;  3.9977684E+04;  8.5389696E-02;  0.0000000E+00; -2.4716487E-02;  2.2512297E+03;
  6.0082072E-01;  9.9999998E-03;  1.6005957E-01;6152; -1.0285461E-02;  0.0000000E+00; -7.3589981E-03;  9.9927094E+02;  1.0056322E-01; -6.0403198E+02;3;  4.7993889E+00;  0.0000000E+00;  1.6057574E+00;0;  4.6199609E-02;  3.9515730E+04;  0.0000000E+00;  3.1646911E-02;  4.0000000E+04;  0.0000000E+00;  3.9979082E+04;  6.7140847E-02;  0.0000000E+00; -2.0941239E-02;  2.0957092E+03;
  6.0083693E-01;  9.9999998E-03;  1.7006664E-01;6153; -1.0633687E-02;  0.0000000E+00; -7.7819256E-03;  9.9931671E+02;  1.0056351E-01; -5.6610712E+02;3;  4.3411908E+00;  0.0000000E+00;  1.6734827E+00;0;  3.2379135E-02;  3.9517520E+04;  0.0000000E+00;  4.9319270E-04;  4.0000000E+04;  0.0000000E+00;  3.9980621E+04;  4.9510226E-02;  0.0000000E+00; -1.7131092E-02;  1.8905723E+03;
  6.0086340E-01;  9.9999998E-03;  1.8007137E-01;6154; -1.0984126E-02;  0.0000000E+00; -8.1796153E-03;  9.9936188E+02;  1.0056404E-01; -5.2867615E+02;3;  3.8484282E+00;  0.0000000E+00;  1.7476516E+00;0;  1.9369233E-02;  3.9519215E+04;  0.0000000E+00; -2.2669226E-02;  4.0000000E+04;  0.0000000E+00;  3.9982477E+04;  3.2708138E-02;  0.0000000E+00; -1.3338904E-02;  1.6718134E+03;
  6.0089839E-01;  9.9999998E-03;  1.9007291E-01;6155; -1.1324410E-02;  0.0000000E+00; -8.5483892E-03;  9.9939874E+02;  1.0056406E-01; -4.9810910E+02;3;  3.3693500E+00;  0.0000000E+00;  1.8181142E+00;0;  7.2734226E-03;  3.9520426E+04;  0.0000000E+00; -3.5449181E-02;  4.0000000E+04;  0.0000000E+00;  3.9984020E+04;  1.6913386E-02;  0.0000000E+00; -9.6399635E-03;  1.4778644E+03;
  6.0093933E-01;  9.9999998E-03;  2.0006970E-01;6156; -1.1656180E-02;  0.0000000E+00; -8.8853035E-03;  9.9941974E+02;  1.0056403E-01; -4.8072690E+02;3;  2.8839254E+00;  0.0000000E+00;  1.9102852E+00;0; -3.8766768E-03;  3.9520984E+04;  0.0000000E+00; -3.6336213E-02;  4.0000000E+04;  0.0000000E+00;  3.9985273E+04;  2.2684168E-03;  0.0000000E+00; -6.1450936E-03;  1.3274590E+03;
  6.0098332E-01;  9.9999998E-03;  2.1005908E-01;6157; -1.1964444E-02;  0.0000000E+00; -9.1931950E-03;  9.9943591E+02;  1.0056417E-01; -4.6734457E+02;3;  2.4104266E+00;  0.0000000E+00;  2.0149677E+00;0; -1.4168693E-02;  3.9520961E+04;  0.0000000E+00; -2.5299426E-02;  4.0000000E+04;  0.0000000E+00;  3.9986477E+04; -1.1138129E-02;  0.0000000E+00; -3.0305637E-03;  1.1690375E+03;
  6.0102582E-01;  9.9999998E-03;  2.2004043E-01;6158; -1.2250632E-02;  0.0000000E+00; -9.4564473E-03;  9.9946057E+02;  1.0056438E-01; -4.4690070E+02;3;  2.0062726E+00;  0.0000000E+00;  2.1258514E+00;0; -2.3816193E-02;  3.9520473E+04;  0.0000000E+00; -4.7515663E-03;  4.0000000E+04;  0.0000000E+00;  3.9989156E+04; -2.3270549E-02;  0.0000000E+00; -5.4564275E-04;  8.3048303E+02;
  6.0106212E-01;  9.9999998E-03;  2.3001999E-01;6159; -1.2524209E-02;  0.0000000E+00; -9.6065048E-03;  9.9952014E+02;  1.0056425E-01; -3.9756879E+02;3;  1.6106337E+00;  0.0000000E+00;  2.2537677E+00;0; -3.3010896E-02;  3.9519625E+04;  0.0000000E+00;  1.9083144E-02;  4.0000000E+04;  0.0000000E+00;  3.9994852E+04; -3.4149025E-02;  0.0000000E+00;  1.1381296E-03;  1.3892545E+02;
  6.1096185E-01;  9.9999998E-03;  7.0024215E-02;6204; -7.1972837E-03;  0.0000000E+00; -3.2118177E-03;  9.9950232E+02;  1.0089495E-01; -4.1233377E+02;3;  7.9378810E+00;  0.0000000E+00;  1.0049824E+00;0;  2.0017672E-01;  3.9276621E+04;  0.0000000E+00;  1.2514874E-01;  4.0000000E+04;  0.0000000E+00;  3.9981367E+04;  2.5502780E-01;  0.0000000E+00; -5.4851089E-02;  1.5700398E+03;
  6.1094570E-01;  9.9999998E-03;  8.0022492E-02;6205; -7.4687237E-03;  0.0000000E+00; -3.6815703E-03;  9.9942188E+02;  1.0089531E-01; -4.7894913E+02;3;  7.6700039E+00;  0.0000000E+00;  1.0964251E+00;0;  1.8781087E-01;  3.9270531E+04;  0.0000000E+00;  1.3985987E-01;  4.0000000E+04;  0.0000000E+00;  3.9980641E+04;  2.3921342E-01;  0.0000000E+00; -5.1402558E-02;  1.6651254E+03;
  6.1092734E-01;  9.9999998E-03;  9.0020582E-02;6206; -7.7643753E-03;  0.0000000E+00; -4.1557709E-03;  9.9934180E+02;  1.0089567E-01; -5.4531757E+02;3;  7.4081120E+00;  0.0000000E+00;  1.2468046E+00;0;  1.7420110E-01;  3.9265078E+04;  0.0000000E+00;  1.4559752E-01;  4.0000000E+04;  0.0000000E+00;  3.9979172E+04;  2.2191453E-01;  0.0000000E+00; -4.7713432E-02;  1.8172471E+03;
  6.1090714E-01;  9.9999998E-03;  1.0001927E-01;6207; -8.0857240E-03;  0.0000000E+00; -4.6368223E-03;  9.9926941E+02;  1.0089583E-01; -6.0526648E+02;3;  7.0982914E+00;  0.0000000E+00;  1.3602849E+00;0;  1.5952285E-01;  3.9260418E+04;  0.0000000E+00;  1.4090227E-01;  4.0000000E+04;  0.0000000E+00;  3.9977637E+04;  2.0337242E-01;  0.0000000E+00; -4.3849573E-02;  2.0094431E+03;
  6.1088634E-01;  9.9999998E-03;  1.1001936E-01;6208; -8.4363520E-03;  0.0000000E+00; -5.1328121E-03;  9.9920758E+02;  1.0089607E-01; -6.5652423E+02;3;  6.7297568E+00;  0.0000000E+00;  1.4484758E+00;0;  1.4397733E-01;  3.9256730E+04;  0.0000000E+00;  1.2568457E-01;  4.0000000E+04;  0.0000000E+00;  3.9975918E+04;  1.8384907E-01;  0.0000000E+00; -3.9871734E-02;  2.2164094E+03;
  6.1086667E-01;  9.9999998E-03;  1.2002128E-01;6209; -8.7989680E-03;  0.0000000E+00; -5.6291008E-03;  9.9916168E+02;  1.0089671E-01; -6.9454785E+02;3;  6.4146261E+00;  0.0000000E+00;  1.5726408E+00;0;  1.2778229E-01;  3.9254035E+04;  0.0000000E+00;  1.0130485E-01;  4.0000000E+04;  0.0000000E+00;  3.9974293E+04;  1.6361240E-01;  0.0000000E+00; -3.5830110E-02;  2.4080938E+03;
  6.1084998E-01;  9.9999998E-03;  1.3002539E-01;6210; -9.1757197E-03;  0.0000000E+00; -6.1289868E-03;  9.9913293E+02;  1.0089687E-01; -7.1834961E+02;3;  5.9711103E+00;  0.0000000E+00;  1.6372626E+00;0;  1.1117211E-01;  3.9252418E+04;  0.0000000E+00;  7.0356615E-02;  4.0000000E+04;  0.0000000E+00;  3.9973117E+04;  1.4293431E-01;  0.0000000E+00; -3.1762194E-02;  2.5544573E+03;
  6.1083788E-01;  9.9999998E-03;  1.4003190E-01;6211; -9.5687164E-03;  0.0000000E+00; -6.6269613E-03;  9.9912213E+02;  1.0089706E-01; -7.2728766E+02;3;  5.5872078E+00;  0.0000000E+00;  1.7496234E+00;0;  9.4402626E-02;  3.9251859E+04;  0.0000000E+00;  3.6243401E-02;  4.0000000E+04;  0.0000000E+00;  3.9972480E+04;  1.2209285E-01;  0.0000000E+00; -2.7690228E-02;  2.6310986E+03;
  6.1083251E-01;  9.9999998E-03;  1.5004037E-01;6212; -9.9634649E-03;  0.0000000E+00; -7.1104681E-03;  9.9912836E+02;  1.0089783E-01; -7.2215198E+02;3;  5.1411061E+00;  0.0000000E+00;  1.8332145E+00;0;  7.7733278E-02;  3.9251961E+04;  0.0000000E+00;  2.5688028E-03;  4.0000000E+04;  0.0000000E+00;  3.9972297E+04;  1.0135611E-01;  0.0000000E+00; -2.3622831E-02;  2.6244326E+03;
  6.1083609E-01;  9.9999998E-03;  1.6004972E-01;6213; -1.0367664E-02;  0.0000000E+00; -7.5794305E-03;  9.9915430E+02;  1.0089833E-01; -7.0067114E+02;3;  4.6790648E+00;  0.0000000E+00;  1.9054877E+00;0;  6.1423063E-02;  3.9252812E+04;  0.0000000E+00; -2.7365247E-02;  4.0000000E+04;  0.0000000E+00;  3.9973148E+04;  8.0998570E-02;  0.0000000E+00; -1.9575506E-02;  2.5362168E+03;
  6.1084962E-01;  9.9999998E-03;  1.7005855E-01;6214; -1.0767208E-02;  0.0000000E+00; -8.0243172E-03;  9.9918933E+02;  1.0089871E-01; -6.7163495E+02;3;  4.2154064E+00;  0.0000000E+00;  1.9881713E+00;0;  4.5705624E-02;  3.9253852E+04;  0.0000000E+00; -5.0433472E-02;  4.0000000E+04;  0.0000000E+00;  3.9974414E+04;  6.1284769E-02;  0.0000000E+00; -1.5579147E-02;  2.3857498E+03;
  6.1087275E-01;  9.9999998E-03;  1.8006538E-01;6215; -1.1180242E-02;  0.0000000E+00; -8.4408354E-03;  9.9922479E+02;  1.0089894E-01; -6.4225305E+02;3;  3.7087016E+00;  0.0000000E+00;  2.0543153E+00;0;  3.0794825E-02;  3.9254773E+04;  0.0000000E+00; -6.3919365E-02;  4.0000000E+04;  0.0000000E+00;  3.9975898E+04;  4.2472262E-02;  0.0000000E+00; -1.1677437E-02;  2.2063018E+03;
  6.1090344E-01;  9.9999998E-03;  1.9006860E-01;6216; -1.1592547E-02;  0.0000000E+00; -8.8238809E-03;  9.9924829E+02;  1.0089947E-01; -6.2279681E+02;3;  3.2132397E+00;  0.0000000E+00;  2.1392310E+00;0;  1.6846213E-02;  3.9255051E+04;  0.0000000E+00; -6.5466657E-02;  4.0000000E+04;  0.0000000E+00;  3.9977238E+04;  2.4778852E-02;  0.0000000E+00; -7.9326378E-03;  2.0331042E+03;
  6.1093843E-01;  9.9999998E-03;  2.0006628E-01;6217; -1.1996961E-02;  0.0000000E+00; -9.1872709E-03;  9.9926117E+02;  1.0089987E-01; -6.1213049E+02;3;  2.6936431E+00;  0.0000000E+00;  2.2193794E+00;0;  3.9239386E-03;  3.9254691E+04;  0.0000000E+00; -5.3063575E-02;  4.0000000E+04;  0.0000000E+00;  3.9978500E+04;  8.3757220E-03;  0.0000000E+00; -4.4517834E-03;  1.8780226E+03;
  6.1097425E-01;  9.9999998E-03;  2.1005563E-01;6218; -1.2384527E-02;  0.0000000E+00; -9.5319869E-03;  9.9926703E+02;  1.0089972E-01; -6.0724170E+02;3;  2.2752180E+00;  0.0000000E+00;  2.3247063E+00;0; -8.0437139E-03;  3.9253469E+04;  0.0000000E+00; -2.5613600E-02;  4.0000000E+04;  0.0000000E+00;  3.9980059E+04; -6.6225603E-03;  0.0000000E+00; -1.4211535E-03;  1.6734202E+03;
  6.1100602E-01;  9.9999998E-03;  2.2003694E-01;6219; -1.2760835E-02;  0.0000000E+00; -9.8386696E-03;  9.9928461E+02;  1.0089993E-01; -5.9267426E+02;3;  1.8452940E+00;  0.0000000E+00;  2.4419298E+00;0; -1.9286878E-02;  3.9251641E+04;  0.0000000E+00;  1.6210003E-02;  4.0000000E+04;  0.0000000E+00;  3.9983457E+04; -2.0169282E-02;  0.0000000E+00;  8.8240323E-04;  1.2345229E+03;
  6.1102927E-01;  9.9999998E-03;  2.3001769E-01;6220; -1.3137880E-02;  0.0000000E+00; -1.0020439E-02;  9.9934332E+02;  1.0090013E-01; -5.4403369E+02;3;  1.4313251E+00;  0.0000000E+00;  2.5807223E+00;0; -2.9998397E-02;  3.9249574E+04;  0.0000000E+00;  6.8929233E-02;  4.0000000E+04;  0.0000000E+00;  3.9990340E+04; -3.2281645E-02;  0.0000000E+00;  2.2832467E-03;  4.1235678E+02;
  6.2087250E-01;  9.9999998E-03;  7.0031360E-02;6265; -6.1605820E-03;  0.0000000E+00; -3.5314756E-03;  9.9971191E+02;  1.0140128E-01; -2.3865974E+02;3;  7.3638296E+00;  0.0000000E+00;  1.1562381E+00;0;  2.1765125E-01;  3.8905902E+04;  0.0000000E+00;  6.9352970E-02;  4.0000000E+04;  0.0000000E+00;  3.9979473E+04;  2.7521330E-01;  0.0000000E+00; -5.7562053E-02;  1.3933234E+03;
  6.2086439E-01;  9.9999998E-03;  8.0029264E-02;6266; -6.5771020E-03;  0.0000000E+00; -4.0003438E-03;  9.9959821E+02;  1.0140149E-01; -3.3287921E+02;3;  7.1830392E+00;  0.0000000E+00;  1.3074198E+00;0;  2.0530967E-01;  3.8897348E+04;  0.0000000E+00;  6.8976901E-02;  4.0000000E+04;  0.0000000E+00;  3.9978355E+04;  2.5885382E-01;  0.0000000E+00; -5.3544153E-02;  1.5146844E+03;
  6.2085474E-01;  9.9999998E-03;  9.0026580E-02;6267; -7.0240223E-03;  0.0000000E+00; -4.4693290E-03;  9.9948578E+02;  1.0140219E-01; -4.2601233E+02;3;  6.9454060E+00;  0.0000000E+00;  1.4166535E+00;0;  1.9164094E-01;  3.8889547E+04;  0.0000000E+00;  6.0245156E-02;  4.0000000E+04;  0.0000000E+00;  3.9976742E+04;  2.4088739E-01;  0.0000000E+00; -4.9246442E-02;  1.7062010E+03;
  6.2084395E-01;  9.9999998E-03;  1.0002403E-01;6268; -7.4672983E-03;  0.0000000E+00; -4.9393084E-03;  9.9938080E+02;  1.0140278E-01; -5.1297278E+02;3;  6.7223215E+00;  0.0000000E+00;  1.5994245E+00;0;  1.7678371E-01;  3.8882648E+04;  0.0000000E+00;  4.3140005E-02;  4.0000000E+04;  0.0000000E+00;  3.9974684E+04;  2.2153892E-01;  0.0000000E+00; -4.4755202E-02;  1.9513793E+03;
  6.2083268E-01;  9.9999998E-03;  1.1002254E-01;6269; -7.9109613E-03;  0.0000000E+00; -5.4093632E-03;  9.9928839E+02;  1.0140337E-01; -5.8956311E+02;3;  6.4510522E+00;  0.0000000E+00;  1.7206079E+00;0;  1.6091040E-01;  3.8877008E+04;  0.0000000E+00;  1.8970454E-02;  4.0000000E+04;  0.0000000E+00;  3.9972469E+04;  2.0106331E-01;  0.0000000E+00; -4.0152915E-02;  2.2230874E+03;
  6.2082183E-01;  9.9999998E-03;  1.2002262E-01;6270; -8.3735008E-03;  0.0000000E+00; -5.9039886E-03;  9.9921661E+02;  1.0140344E-01; -6.4901819E+02;3;  6.0985422E+00;  0.0000000E+00;  1.7985297E+00;0;  1.4422312E-01;  3.8872566E+04;  0.0000000E+00; -9.7494693E-03;  4.0000000E+04;  0.0000000E+00;  3.9970312E+04;  1.7973597E-01;  0.0000000E+00; -3.5512853E-02;  2.4879568E+03;
  6.2081307E-01;  9.9999998E-03;  1.3002458E-01;6271; -8.8351639E-03;  0.0000000E+00; -6.3954764E-03;  9.9916455E+02;  1.0140459E-01; -6.9217743E+02;3;  5.7823706E+00;  0.0000000E+00;  1.9387603E+00;0;  1.2694052E-01;  3.8869551E+04;  0.0000000E+00; -3.9792854E-02;  4.0000000E+04;  0.0000000E+00;  3.9968367E+04;  1.5783539E-01;  0.0000000E+00; -3.0894883E-02;  2.7121245E+03;
  6.2080848E-01;  9.9999998E-03;  1.4002842E-01;6272; -9.2969695E-03;  0.0000000E+00; -6.8813758E-03;  9.9913446E+02;  1.0140541E-01; -7.1706561E+02;3;  5.4133835E+00;  0.0000000E+00;  2.0440485E+00;0;  1.0930850E-01;  3.8867664E+04;  0.0000000E+00; -6.7810580E-02;  4.0000000E+04;  0.0000000E+00;  3.9967180E+04;  1.3565217E-01;  0.0000000E+00; -2.6343675E-02;  2.8678059E+03;
  6.2080985E-01;  9.9999998E-03;  1.5003389E-01;6273; -9.7808922E-03;  0.0000000E+00; -7.3671723E-03;  9.9912573E+02;  1.0140602E-01; -7.2432465E+02;3;  4.9593349E+00;  0.0000000E+00;  2.1113355E+00;0;  9.1601066E-02;  3.8866727E+04;  0.0000000E+00; -9.0957209E-02;  4.0000000E+04;  0.0000000E+00;  3.9966539E+04;  1.1348867E-01;  0.0000000E+00; -2.1887599E-02;  2.9386614E+03;
  6.2081844E-01;  9.9999998E-03;  1.6004068E-01;6274; -1.0268057E-02;  0.0000000E+00; -7.8167785E-03;  9.9913416E+02;  1.0140680E-01; -7.1731250E+02;3;  4.5258870E+00;  0.0000000E+00;  2.1824996E+00;0;  7.4086398E-02;  3.8866590E+04;  0.0000000E+00; -1.0731226E-01;  4.0000000E+04;  0.0000000E+00;  3.9966762E+04;  9.1642044E-02;  0.0000000E+00; -1.7555643E-02;  2.9231416E+03;
  6.2083459E-01;  9.9999998E-03;  1.7004766E-01;6275; -1.0760125E-02;  0.0000000E+00; -8.2342941E-03;  9.9915015E+02;  1.0140770E-01; -7.0407831E+02;3;  4.0250316E+00;  0.0000000E+00;  2.2442069E+00;0;  5.7037462E-02;  3.8866617E+04;  0.0000000E+00; -1.1544985E-01;  4.0000000E+04;  0.0000000E+00;  3.9967301E+04;  7.0417918E-02;  0.0000000E+00; -1.3380458E-02;  2.8351033E+03;
  6.2085736E-01;  9.9999998E-03;  1.8005328E-01;6276; -1.1257500E-02;  0.0000000E+00; -8.6395778E-03;  9.9916949E+02;  1.0140860E-01; -6.8807880E+02;3;  3.5283597E+00;  0.0000000E+00;  2.3412461E+00;0;  4.0713679E-02;  3.8866246E+04;  0.0000000E+00; -1.1392462E-01;  4.0000000E+04;  0.0000000E+00;  3.9968551E+04;  5.0110169E-02;  0.0000000E+00; -9.3964888E-03;  2.6997681E+03;
  6.2088448E-01;  9.9999998E-03;  1.9005571E-01;6277; -1.1746280E-02;  0.0000000E+00; -9.0325084E-03;  9.9917651E+02;  1.0140942E-01; -6.8225177E+02;3;  3.0210416E+00;  0.0000000E+00;  2.4466412E+00;0;  2.5319098E-02;  3.8865082E+04;  0.0000000E+00; -1.0059424E-01;  4.0000000E+04;  0.0000000E+00;  3.9969754E+04;  3.0975105E-02;  0.0000000E+00; -5.6560081E-03;  2.5411455E+03;
  6.2091261E-01;  9.9999998E-03;  2.0005283E-01;6278; -1.2231099E-02;  0.0000000E+00; -9.4142053E-03;  9.9917334E+02;  1.0140961E-01; -6.8486902E+02;3;  2.5461593E+00;  0.0000000E+00;  2.5446846E+00;0;  1.0962039E-02;  3.8863031E+04;  0.0000000E+00; -7.2659001E-02;  4.0000000E+04;  0.0000000E+00;  3.9971227E+04;  1.3221535E-02;  0.0000000E+00; -2.2594961E-03;  2.3549087E+03;
  6.2093872E-01;  9.9999998E-03;  2.1004242E-01;6279; -1.2715563E-02;  0.0000000E+00; -9.7840698E-03;  9.9916577E+02;  1.0141014E-01; -6.9114044E+02;3;  2.0947239E+00;  0.0000000E+00;  2.6625876E+00;0; -2.4047536E-03;  3.8859809E+04;  0.0000000E+00; -2.7548069E-02;  4.0000000E+04;  0.0000000E+00;  3.9973633E+04; -3.0081200E-03;  0.0000000E+00;  6.0336641E-04;  2.0585405E+03;
  6.2095797E-01;  9.9999998E-03;  2.2002611E-01;6280; -1.3202562E-02;  0.0000000E+00; -1.0110394E-02;  9.9917200E+02;  1.0141039E-01; -6.8600476E+02;3;  1.6204531E+00;  0.0000000E+00;  2.8011189E+00;0; -1.4993442E-02;  3.8856008E+04;  0.0000000E+00;  3.5733528E-02;  4.0000000E+04;  0.0000000E+00;  3.9978086E+04; -1.7651889E-02;  0.0000000E+00;  2.6584477E-03;  1.4803302E+03;
  6.2096727E-01;  9.9999998E-03;  2.3001219E-01;6281; -1.3697199E-02;  0.0000000E+00; -1.0306315E-02;  9.9921191E+02;  1.0141005E-01; -6.5291931E+02;3;  1.2636963E+00;  0.0000000E+00;  2.9250984E+00;0; -2.6992491E-02;  3.8851953E+04;  0.0000000E+00;  1.1591002E-01;  4.0000000E+04;  0.0000000E+00;  3.9985824E+04; -3.0721664E-02;  0.0000000E+00;  3.7291744E-03;  5.4734094E+02;
  6.3084698E-01;  9.9999998E-03;  7.0029199E-02;6326;  6.7413514E-03;  0.0000000E+00; -6.1930278E-03;  1.0000599E+03;  1.0213829E-01;  4.9677567E+01;3;  3.3122709E+00;  0.0000000E+00;  9.7263485E-01;0;  2.2058046E-01;  3.8376719E+04;  0.0000000E+00; -1.2305462E-02;  4.0000000E+04;  0.0000000E+00;  3.9976426E+04;  2.8034648E-01;  0.0000000E+00; -5.9766021E-02;  1.1783076E+03;
  6.3083452E-01;  9.9999998E-03;  8.0027796E-02;6327;  3.4175410E-03;  0.0000000E+00; -6.4164978E-03;  9.9992450E+02;  1.0213865E-01; -6.2566078E+01;3;  3.3769553E+00;  0.0000000E+00;  1.2644355E+00;0;  2.0954147E-01;  3.8366578E+04;  0.0000000E+00; -3.1838741E-02;  4.0000000E+04;  0.0000000E+00;  3.9975250E+04;  2.6473778E-01;  0.0000000E+00; -5.5196319E-02;  1.3284443E+03;
  6.3081813E-01;  9.9999998E-03;  9.0026133E-02;6328; -7.8440818E-05;  0.0000000E+00; -6.4666867E-03;  9.9978888E+02;  1.0213952E-01; -1.7490849E+02;3;  3.6148407E+00;  0.0000000E+00;  1.5939939E+00;0;  1.9718137E-01;  3.8357016E+04;  0.0000000E+00; -5.7932153E-02;  4.0000000E+04;  0.0000000E+00;  3.9973195E+04;  2.4747908E-01;  0.0000000E+00; -5.0297707E-02;  1.5588101E+03;
  6.3079900E-01;  9.9999998E-03;  1.0002515E-01;6329; -3.2409278E-03;  0.0000000E+00; -6.4118169E-03;  9.9966852E+02;  1.0214072E-01; -2.7460928E+02;3;  4.1945906E+00;  0.0000000E+00;  1.9247586E+00;0;  1.8350455E-01;  3.8348973E+04;  0.0000000E+00; -8.8900723E-02;  4.0000000E+04;  0.0000000E+00;  3.9970934E+04;  2.2868164E-01;  0.0000000E+00; -4.5177095E-02;  1.8519803E+03;
  6.3077998E-01;  9.9999998E-03;  1.1002525E-01;6330; -5.4800850E-03;  0.0000000E+00; -6.4505804E-03;  9.9956110E+02;  1.0214174E-01; -3.6364374E+02;3;  4.8602242E+00;  0.0000000E+00;  2.0145307E+00;0;  1.6853040E-01;  3.8342285E+04;  0.0000000E+00; -1.2186833E-01;  4.0000000E+04;  0.0000000E+00;  3.9968137E+04;  2.0847344E-01;  0.0000000E+00; -3.9943039E-02;  2.1787241E+03;
  6.3076502E-01;  9.9999998E-03;  1.2002624E-01;6331; -6.8030609E-03;  0.0000000E+00; -6.6623297E-03;  9.9947247E+02;  1.0214268E-01; -4.3702432E+02;3;  5.2020140E+00;  0.0000000E+00;  2.0830443E+00;0;  1.5242073E-01;  3.8336863E+04;  0.0000000E+00; -1.5317541E-01;  4.0000000E+04;  0.0000000E+00;  3.9965531E+04;  1.8711437E-01;  0.0000000E+00; -3.4693640E-02;  2.5032246E+03;
  6.3075656E-01;  9.9999998E-03;  1.3002814E-01;6332; -7.7316058E-03;  0.0000000E+00; -6.9779716E-03;  9.9941034E+02;  1.0214432E-01; -4.8852899E+02;3;  5.1011868E+00;  0.0000000E+00;  2.1899412E+00;0;  1.3546342E-01;  3.8333008E+04;  0.0000000E+00; -1.7910273E-01;  4.0000000E+04;  0.0000000E+00;  3.9963168E+04;  1.6497594E-01;  0.0000000E+00; -2.9512528E-02;  2.7899155E+03;
  6.3075531E-01;  9.9999998E-03;  1.4003113E-01;6333; -8.5032154E-03;  0.0000000E+00; -7.3304968E-03;  9.9937012E+02;  1.0214541E-01; -5.2186133E+02;3;  4.9137397E+00;  0.0000000E+00;  2.3099835E+00;0;  1.1793080E-01;  3.8330629E+04;  0.0000000E+00; -1.9662341E-01;  4.0000000E+04;  0.0000000E+00;  3.9961363E+04;  1.4239873E-01;  0.0000000E+00; -2.4467930E-02;  3.0100881E+03;
  6.3076097E-01;  9.9999998E-03;  1.5003514E-01;6334; -9.2046792E-03;  0.0000000E+00; -7.6973015E-03;  9.9935254E+02;  1.0214674E-01; -5.3642883E+02;3;  4.6456676E+00;  0.0000000E+00;  2.4104111E+00;0;  1.0009407E-01;  3.8328816E+04;  0.0000000E+00; -2.0411482E-01;  4.0000000E+04;  0.0000000E+00;  3.9960227E+04;  1.1970577E-01;  0.0000000E+00; -1.9611694E-02;  3.1470234E+03;
  6.3077307E-01;  9.9999998E-03;  1.6003986E-01;6335; -9.8594930E-03;  0.0000000E+00; -8.0809314E-03;  9.9934680E+02;  1.0214814E-01; -5.4116943E+02;3;  4.2062154E+00;  0.0000000E+00;  2.4615235E+00;0;  8.2226396E-02;  3.8327691E+04;  0.0000000E+00; -2.0168769E-01;  4.0000000E+04;  0.0000000E+00;  3.9959762E+04;  9.7217992E-02;  0.0000000E+00; -1.4991599E-02;  3.1982822E+03;
  6.3079065E-01;  9.9999998E-03;  1.7004456E-01;6336; -1.0496384E-02;  0.0000000E+00; -8.4662400E-03;  9.9934906E+02;  1.0214947E-01; -5.3929297E+02;3;  3.7544065E+00;  0.0000000E+00;  2.5752711E+00;0;  6.4621828E-02;  3.8326617E+04;  0.0000000E+00; -1.9035479E-01;  4.0000000E+04;  0.0000000E+00;  3.9959777E+04;  7.5270057E-02;  0.0000000E+00; -1.0648225E-02;  3.1742236E+03;
  6.3081217E-01;  9.9999998E-03;  1.8004800E-01;6337; -1.1109489E-02;  0.0000000E+00; -8.8481745E-03;  9.9934595E+02;  1.0215106E-01; -5.4186078E+02;3;  3.2519159E+00;  0.0000000E+00;  2.6694086E+00;0;  4.7572095E-02;  3.8325035E+04;  0.0000000E+00; -1.7030513E-01;  4.0000000E+04;  0.0000000E+00;  3.9960621E+04;  5.4183237E-02;  0.0000000E+00; -6.6111418E-03;  3.0922095E+03;
  6.3083476E-01;  9.9999998E-03;  1.9004862E-01;6338; -1.1707919E-02;  0.0000000E+00; -9.2325695E-03;  9.9933411E+02;  1.0215215E-01; -5.5168762E+02;3;  2.7272058E+00;  0.0000000E+00;  2.7797499E+00;0;  3.1325329E-02;  3.8322184E+04;  0.0000000E+00; -1.3969849E-01;  4.0000000E+04;  0.0000000E+00;  3.9961664E+04;  3.4250874E-02;  0.0000000E+00; -2.9255440E-03;  2.9629873E+03;
  6.3085532E-01;  9.9999998E-03;  2.0004466E-01;6339; -1.2303956E-02;  0.0000000E+00; -9.6170008E-03;  9.9930505E+02;  1.0215345E-01; -5.7573633E+02;3;  2.2799838E+00;  0.0000000E+00;  2.9169693E+00;0;  1.6025776E-02;  3.8318051E+04;  0.0000000E+00; -9.5098540E-02;  4.0000000E+04;  0.0000000E+00;  3.9963160E+04;  1.5716566E-02;  0.0000000E+00;  3.0921079E-04;  2.7648379E+03;
  6.3087088E-01;  9.9999998E-03;  2.1003525E-01;6340; -1.2905559E-02;  0.0000000E+00; -9.9994112E-03;  9.9927582E+02;  1.0215411E-01; -5.9998254E+02;3;  1.8205509E+00;  0.0000000E+00;  3.0506439E+00;0;  1.6492439E-03;  3.8312578E+04;  0.0000000E+00; -3.3075668E-02;  4.0000000E+04;  0.0000000E+00;  3.9965828E+04; -1.2487943E-03;  0.0000000E+00;  2.8980381E-03;  2.4098901E+03;
  6.3087767E-01;  9.9999998E-03;  2.2002369E-01;6341; -1.3520626E-02;  0.0000000E+00; -1.0330296E-02;  9.9925665E+02;  1.0215443E-01; -6.1583392E+02;3;  1.3452866E+00;  0.0000000E+00;  3.2211421E+00;0; -1.1983162E-02;  3.8306238E+04;  0.0000000E+00;  4.7096055E-02;  4.0000000E+04;  0.0000000E+00;  3.9970930E+04; -1.6561929E-02;  0.0000000E+00;  4.5787678E-03;  1.7694897E+03;
  6.3087410E-01;  9.9999998E-03;  2.3001739E-01;6342; -1.4179711E-02;  0.0000000E+00; -1.0504344E-02;  9.9926105E+02;  1.0215427E-01; -6.1222906E+02;3;  1.0459380E+00;  0.0000000E+00;  3.3386319E+00;0; -2.4968019E-02;  3.8299453E+04;  0.0000000E+00;  1.4276938E-01;  4.0000000E+04;  0.0000000E+00;  3.9978531E+04; -3.0216251E-02;  0.0000000E+00;  5.2482318E-03;  8.4290479E+02;
  6.4085299E-01;  9.9999998E-03;  7.0013553E-02;6387;  2.3211345E-02;  0.0000000E+00; -9.5731393E-03;  1.0005701E+03;  1.0315657E-01;  4.7228250E+02;3; -9.8496122E+00;  0.0000000E+00;  2.6894307E+00;0;  2.1100482E-01;  3.7662199E+04;  0.0000000E+00; -1.0466632E-01;  4.0000000E+04;  0.0000000E+00;  3.9972117E+04;  2.7218109E-01;  0.0000000E+00; -6.1176278E-02;  9.4542499E+02;
  6.4085293E-01;  9.9999998E-03;  8.0010541E-02;6388;  2.0834496E-02;  0.0000000E+00; -1.0517688E-02;  1.0004404E+03;  1.0315756E-01;  3.6482886E+02;3; -9.1443491E+00;  0.0000000E+00;  2.9506202E+00;0;  2.0107622E-01;  3.7652438E+04;  0.0000000E+00; -1.4435330E-01;  4.0000000E+04;  0.0000000E+00;  3.9970551E+04;  2.5722620E-01;  0.0000000E+00; -5.6149971E-02;  1.1263737E+03;
  6.4085031E-01;  9.9999998E-03;  9.0007864E-02;6389;  1.8178502E-02;  0.0000000E+00; -1.1298891E-02;  1.0003130E+03;  1.0315905E-01;  2.5935046E+02;3; -8.4735746E+00;  0.0000000E+00;  3.2079093E+00;0;  1.8990204E-01;  3.7643594E+04;  0.0000000E+00; -1.8812449E-01;  4.0000000E+04;  0.0000000E+00;  3.9968422E+04;  2.4064066E-01;  0.0000000E+00; -5.0738622E-02;  1.3906355E+03;
  6.4084488E-01;  9.9999998E-03;  1.0000625E-01;6390;  1.5277798E-02;  0.0000000E+00; -1.1898967E-02;  1.0002012E+03;  1.0316058E-01;  1.6671118E+02;3; -7.7178211E+00;  0.0000000E+00;  3.4479177E+00;0;  1.7751347E-01;  3.7635852E+04;  0.0000000E+00; -2.3252416E-01;  4.0000000E+04;  0.0000000E+00;  3.9965805E+04;  2.2257556E-01;  0.0000000E+00; -4.5062095E-02;  1.7190099E+03;
  6.4083695E-01;  9.9999998E-03;  1.1000641E-01;6391;  1.2185901E-02;  0.0000000E+00; -1.2325853E-02;  1.0001033E+03;  1.0316254E-01;  8.5528366E+01;3; -6.9196725E+00;  0.0000000E+00;  3.6819811E+00;0;  1.6396829E-01;  3.7629766E+04;  0.0000000E+00; -2.7313229E-01;  4.0000000E+04;  0.0000000E+00;  3.9962781E+04;  2.0321621E-01;  0.0000000E+00; -3.9247911E-02;  2.0812161E+03;
  6.4082748E-01;  9.9999998E-03;  1.2000893E-01;6392;  8.9496449E-03;  0.0000000E+00; -1.2558986E-02;  1.0000294E+03;  1.0316449E-01;  2.4394350E+01;3; -6.0746927E+00;  0.0000000E+00;  3.9550285E+00;0;  1.4936499E-01;  3.7624809E+04;  0.0000000E+00; -3.0520537E-01;  4.0000000E+04;  0.0000000E+00;  3.9960004E+04;  1.8278582E-01;  0.0000000E+00; -3.3420831E-02;  2.4412170E+03;
  6.4081746E-01;  9.9999998E-03;  1.3001378E-01;6393;  5.6031733E-03;  0.0000000E+00; -1.2565160E-02;  9.9997302E+02;  1.0316669E-01; -2.2369717E+01;3; -5.1474128E+00;  0.0000000E+00;  4.2538304E+00;0;  1.3384989E-01;  3.7621539E+04;  0.0000000E+00; -3.2467926E-01;  4.0000000E+04;  0.0000000E+00;  3.9957148E+04;  1.6154572E-01;  0.0000000E+00; -2.7695842E-02;  2.7640786E+03;
  6.4080763E-01;  9.9999998E-03;  1.4002061E-01;6394;  2.1163600E-03;  0.0000000E+00; -1.2293699E-02;  9.9993921E+02;  1.0316910E-01; -5.0368900E+01;3; -4.1542640E+00;  0.0000000E+00;  4.4432797E+00;0;  1.1761495E-01;  3.7619070E+04;  0.0000000E+00; -3.2913187E-01;  4.0000000E+04;  0.0000000E+00;  3.9955074E+04;  1.3978660E-01;  0.0000000E+00; -2.2171646E-02;  3.0230188E+03;
  6.4079767E-01;  9.9999998E-03;  1.5002915E-01;6395; -1.6191606E-03;  0.0000000E+00; -1.1606814E-02;  9.9992004E+02;  1.0317156E-01; -6.6220291E+01;3; -2.8304744E+00;  0.0000000E+00;  4.5975232E+00;0;  1.0088745E-01;  3.7617320E+04;  0.0000000E+00; -3.1850231E-01;  4.0000000E+04;  0.0000000E+00;  3.9953641E+04;  1.1781719E-01;  0.0000000E+00; -1.6929749E-02;  3.2036108E+03;
  6.4078641E-01;  9.9999998E-03;  1.6003905E-01;6396; -5.7241553E-03;  0.0000000E+00; -1.0405794E-02;  9.9990912E+02;  1.0317384E-01; -7.5306442E+01;3; -8.3901751E-01;  0.0000000E+00;  4.3967981E+00;0;  8.3901547E-02;  3.7615637E+04;  0.0000000E+00; -2.9531664E-01;  4.0000000E+04;  0.0000000E+00;  3.9952707E+04;  9.5953614E-02;  0.0000000E+00; -1.2052068E-02;  3.3048738E+03;
  6.4077520E-01;  9.9999998E-03;  1.7004895E-01;6397; -8.9734625E-03;  0.0000000E+00; -9.3961544E-03;  9.9989868E+02;  1.0317647E-01; -8.3948166E+01;3;  1.8752053E+00;  0.0000000E+00;  3.5639172E+00;0;  6.6853598E-02;  3.7613508E+04;  0.0000000E+00; -2.6313090E-01;  4.0000000E+04;  0.0000000E+00;  3.9952277E+04;  7.4423142E-02;  0.0000000E+00; -7.5695463E-03;  3.3377664E+03;
  6.4077169E-01;  9.9999998E-03;  1.8005477E-01;6398; -1.0319459E-02;  0.0000000E+00; -9.4096595E-03;  9.9988000E+02;  1.0317879E-01; -9.9404503E+01;3;  2.3318255E+00;  0.0000000E+00;  3.2565799E+00;0;  4.9953528E-02;  3.7610453E+04;  0.0000000E+00; -2.2366083E-01;  4.0000000E+04;  0.0000000E+00;  3.9952270E+04;  5.3475276E-02;  0.0000000E+00; -3.5217479E-03;  3.3169011E+03;
  6.4077795E-01;  9.9999998E-03;  1.9005495E-01;6399; -1.1257928E-02;  0.0000000E+00; -9.6303746E-03;  9.9984351E+02;  1.0318115E-01; -1.2967523E+02;3;  2.0805793E+00;  0.0000000E+00;  3.3152955E+00;0;  3.3590965E-02;  3.7605781E+04;  0.0000000E+00; -1.7560270E-01;  4.0000000E+04;  0.0000000E+00;  3.9952785E+04;  3.3542801E-02;  0.0000000E+00;  4.8164362E-05;  3.2412520E+03;
  6.4078563E-01;  9.9999998E-03;  2.0005129E-01;6400; -1.2102814E-02;  0.0000000E+00; -9.9001685E-03;  9.9978857E+02;  1.0318273E-01; -1.7515538E+02;3;  1.7469074E+00;  0.0000000E+00;  3.4235253E+00;0;  1.7976921E-02;  3.7599793E+04;  0.0000000E+00; -1.1568748E-01;  4.0000000E+04;  0.0000000E+00;  3.9954098E+04;  1.4922719E-02;  0.0000000E+00;  3.0542011E-03;  3.0800554E+03;
  6.4078844E-01;  9.9999998E-03;  2.1004573E-01;6401; -1.2912241E-02;  0.0000000E+00; -1.0196858E-02;  9.9972644E+02;  1.0318427E-01; -2.2666005E+02;3;  1.3717813E+00;  0.0000000E+00;  3.5538688E+00;0;  3.1366721E-03;  3.7592004E+04;  0.0000000E+00; -4.2212185E-02;  4.0000000E+04;  0.0000000E+00;  3.9956469E+04; -2.1796161E-03;  0.0000000E+00;  5.3162882E-03;  2.7668367E+03;
  6.4078206E-01;  9.9999998E-03;  2.2004117E-01;6402; -1.3716727E-02;  0.0000000E+00; -1.0456794E-02;  9.9966840E+02;  1.0318518E-01; -2.7470804E+02;3;  9.9829370E-01;  0.0000000E+00;  3.7002304E+00;0; -1.1046574E-02;  3.7583473E+04;  0.0000000E+00;  4.2262770E-02;  4.0000000E+04;  0.0000000E+00;  3.9960766E+04; -1.7650539E-02;  0.0000000E+00;  6.6039660E-03;  2.2250024E+03;
  6.4076543E-01;  9.9999998E-03;  2.3004362E-01;6403; -1.4554214E-02;  0.0000000E+00; -1.0611128E-02;  9.9961237E+02;  1.0318498E-01; -3.2112643E+02;3;  7.3541087E-01;  0.0000000E+00;  3.8235130E+00;0; -2.4736688E-02;  3.7574047E+04;  0.0000000E+00;  1.2650041E-01;  4.0000000E+04;  0.0000000E+00;  3.9966414E+04; -3.1466067E-02;  0.0000000E+00;  6.7293784E-03;  1.5180081E+03;
  6.5074432E-01;  9.9999998E-03;  7.0002742E-02;6448;  2.5537668E-02;  0.0000000E+00; -9.1006458E-03;  1.0011150E+03;  1.0447907E-01;  9.2372589E+02;3; -1.2878251E+01;  0.0000000E+00;  3.0603418E+00;0;  1.9103837E-01;  3.6751719E+04;  0.0000000E+00; -1.8855549E-01;  4.0000000E+04;  0.0000000E+00;  3.9965883E+04;  2.5247562E-01;  0.0000000E+00; -6.1437253E-02;  7.2416833E+02;
  6.5075451E-01;  9.9999998E-03;  7.9998896E-02;6449;  2.3346238E-02;  0.0000000E+00; -1.0148486E-02;  1.0010109E+03;  1.0448135E-01;  8.3750623E+02;3; -1.2225120E+01;  0.0000000E+00;  3.3945396E+00;0;  1.8277507E-01;  3.6743516E+04;  0.0000000E+00; -2.4569237E-01;  4.0000000E+04;  0.0000000E+00;  3.9964355E+04;  2.3885117E-01;  0.0000000E+00; -5.6076113E-02;  9.3249005E+02;
  6.5076369E-01;  9.9999998E-03;  8.9995742E-02;6450;  2.0892682E-02;  0.0000000E+00; -1.1064348E-02;  1.0009189E+03;  1.0448404E-01;  7.6136035E+02;3; -1.1560933E+01;  0.0000000E+00;  3.7175937E+00;0;  1.7339154E-01;  3.6736410E+04;  0.0000000E+00; -3.0424583E-01;  4.0000000E+04;  0.0000000E+00;  3.9962055E+04;  2.2367048E-01;  0.0000000E+00; -5.0278950E-02;  1.2160554E+03;
  6.5077150E-01;  9.9999998E-03;  9.9994063E-02;6451;  1.8204855E-02;  0.0000000E+00; -1.1839979E-02;  1.0008406E+03;  1.0448698E-01;  6.9647333E+02;3; -1.0862731E+01;  0.0000000E+00;  4.0128002E+00;0;  1.6287585E-01;  3.6730906E+04;  0.0000000E+00; -3.5910213E-01;  4.0000000E+04;  0.0000000E+00;  3.9959254E+04;  2.0705213E-01;  0.0000000E+00; -4.4176280E-02;  1.5559447E+03;
  6.5077823E-01;  9.9999998E-03;  1.0999464E-01;6452;  1.5330826E-02;  0.0000000E+00; -1.2469405E-02;  1.0007806E+03;  1.0449031E-01;  6.4669702E+02;3; -1.0170044E+01;  0.0000000E+00;  4.2991056E+00;0;  1.5123598E-01;  3.6726629E+04;  0.0000000E+00; -4.0442339E-01;  4.0000000E+04;  0.0000000E+00;  3.9956207E+04;  1.8914820E-01;  0.0000000E+00; -3.7912216E-02;  1.9231891E+03;
  6.5078408E-01;  9.9999998E-03;  1.1999780E-01;6453;  1.2301197E-02;  0.0000000E+00; -1.2939775E-02;  1.0007404E+03;  1.0449348E-01;  6.1341406E+02;3; -9.4347992E+00;  0.0000000E+00;  4.5955334E+00;0;  1.3851798E-01;  3.6723742E+04;  0.0000000E+00; -4.3460122E-01;  4.0000000E+04;  0.0000000E+00;  3.9953316E+04;  1.7015241E-01;  0.0000000E+00; -3.1634435E-02;  2.2838281E+03;
  6.5078992E-01;  9.9999998E-03;  1.3000350E-01;6454;  9.1877468E-03;  0.0000000E+00; -1.3267253E-02;  1.0007180E+03;  1.0449734E-01;  5.9484668E+02;3; -8.6768656E+00;  0.0000000E+00;  4.8674459E+00;0;  1.2481286E-01;  3.6722164E+04;  0.0000000E+00; -4.4550663E-01;  4.0000000E+04;  0.0000000E+00;  3.9950754E+04;  1.5029538E-01;  0.0000000E+00; -2.5482520E-02;  2.6064817E+03;
  6.5079653E-01;  9.9999998E-03;  1.4001131E-01;6455;  6.0210349E-03;  0.0000000E+00; -1.3431416E-02;  1.0007136E+03;  1.0450092E-01;  5.9119250E+02;3; -7.8316474E+00;  0.0000000E+00;  5.1657300E+00;0;  1.1025606E-01;  3.6720984E+04;  0.0000000E+00; -4.3560427E-01;  4.0000000E+04;  0.0000000E+00;  3.9948430E+04;  1.2983404E-01;  0.0000000E+00; -1.9577980E-02;  2.8691270E+03;
  6.5080434E-01;  9.9999998E-03;  1.5002061E-01;6456;  2.8551135E-03;  0.0000000E+00; -1.3423190E-02;  1.0007183E+03;  1.0450477E-01;  5.9514301E+02;3; -6.9974546E+00;  0.0000000E+00;  5.4638176E+00;0;  9.5016129E-02;  3.6720094E+04;  0.0000000E+00; -4.0663317E-01;  4.0000000E+04;  0.0000000E+00;  3.9946801E+04;  1.0903804E-01;  0.0000000E+00; -1.4021908E-02;  3.0625806E+03;
  6.5081328E-01;  9.9999998E-03;  1.6003048E-01;6457; -2.7438905E-04;  0.0000000E+00; -1.3199505E-02;  1.0007208E+03;  1.0450928E-01;  5.9721698E+02;3; -6.0781364E+00;  0.0000000E+00;  5.8673925E+00;0;  7.9252809E-02;  3.6718793E+04;  0.0000000E+00; -3.6354852E-01;  4.0000000E+04;  0.0000000E+00;  3.9945422E+04;  8.8184886E-02;  0.0000000E+00; -8.9320773E-03;  3.1887578E+03;
  6.5082204E-01;  9.9999998E-03;  1.7004032E-01;6458; -3.3606195E-03;  0.0000000E+00; -1.2744176E-02;  1.0007145E+03;  1.0451332E-01;  5.9188385E+02;3; -5.2189884E+00;  0.0000000E+00;  6.1802015E+00;0;  6.3136213E-02;  3.6716555E+04;  0.0000000E+00; -3.1201071E-01;  4.0000000E+04;  0.0000000E+00;  3.9944844E+04;  6.7561924E-02;  0.0000000E+00; -4.4257105E-03;  3.2565010E+03;
  6.5082848E-01;  9.9999998E-03;  1.8004943E-01;6459; -6.3293916E-03;  0.0000000E+00; -1.2076931E-02;  1.0006907E+03;  1.0451718E-01;  5.7223010E+02;3; -4.1424007E+00;  0.0000000E+00;  6.4311380E+00;0;  4.6926968E-02;  3.6712840E+04;  0.0000000E+00; -2.5499865E-01;  4.0000000E+04;  0.0000000E+00;  3.9944566E+04;  4.7479875E-02;  0.0000000E+00; -5.5290892E-04;  3.2757942E+03;
  6.5082920E-01;  9.9999998E-03;  1.9005741E-01;6460; -9.0202270E-03;  0.0000000E+00; -1.1302221E-02;  1.0006442E+03;  1.0452078E-01;  5.3371271E+02;3; -2.6928709E+00;  0.0000000E+00;  6.3025689E+00;0;  3.1009663E-02;  3.6707391E+04;  0.0000000E+00; -1.9207345E-01;  4.0000000E+04;  0.0000000E+00;  3.9944664E+04;  2.8263610E-02;  0.0000000E+00;  2.7460530E-03;  3.2504089E+03;
  6.5081769E-01;  9.9999998E-03;  2.0006530E-01;6461; -1.1209680E-02;  0.0000000E+00; -1.0616957E-02;  1.0005693E+03;  1.0452393E-01;  4.7159106E+02;3; -8.3807665E-01;  0.0000000E+00;  5.4529786E+00;0;  1.5796540E-02;  3.6699727E+04;  0.0000000E+00; -1.2219561E-01;  4.0000000E+04;  0.0000000E+00;  3.9945090E+04;  1.0215132E-02;  0.0000000E+00;  5.5814078E-03;  3.1770488E+03;
  6.5078539E-01;  9.9999998E-03;  2.1007594E-01;6462; -1.2665628E-02;  0.0000000E+00; -1.0407307E-02;  1.0004662E+03;  1.0452615E-01;  3.8626025E+02;3;  4.0154362E-01;  0.0000000E+00;  4.4287095E+00;0;  1.2535127E-03;  3.6690594E+04;  0.0000000E+00; -4.7717355E-02;  4.0000000E+04;  0.0000000E+00;  3.9945688E+04; -6.4242072E-03;  0.0000000E+00;  7.6777199E-03;  3.0718333E+03;
  6.5069073E-01;  9.9999998E-03;  2.3009910E-01;6464; -1.4779253E-02;  0.0000000E+00; -1.0696163E-02;  1.0002052E+03;  1.0452833E-01;  1.6997031E+02;3;  3.2483464E-01;  0.0000000E+00;  4.4302454E+00;0; -2.7219085E-02;  3.6669039E+04;  0.0000000E+00;  5.1191550E-02;  4.0000000E+04;  0.0000000E+00;  3.9947938E+04; -3.5054196E-02;  0.0000000E+00;  7.8351106E-03;  2.7645142E+03;
  6.5073580E-01;  9.9999998E-03;  2.2008832E-01;6463; -1.3751683E-02;  0.0000000E+00; -1.0534178E-02;  1.0003414E+03;  1.0452796E-01;  2.8285587E+02;3;  4.2299718E-01;  0.0000000E+00;  4.3637600E+00;0; -1.3009157E-02;  3.6679980E+04;  0.0000000E+00;  1.9288344E-02;  4.0000000E+04;  0.0000000E+00;  3.9946613E+04; -2.1525264E-02;  0.0000000E+00;  8.5161068E-03;  2.9514514E+03;
  6.6062760E-01;  9.9999998E-03;  6.9988884E-02;6509;  2.6694490E-02;  0.0000000E+00; -8.3407676E-03;  1.0014190E+03;  1.0609844E-01;  1.1755702E+03;3; -1.4216503E+01;  0.0000000E+00;  2.9365716E+00;0;  1.6066539E-01;  3.5653734E+04;  0.0000000E+00; -2.4494667E-01;  4.0000000E+04;  0.0000000E+00;  3.9957789E+04;  2.2105175E-01;  0.0000000E+00; -6.0386367E-02;  5.4690936E+02;
  6.6064733E-01;  9.9999998E-03;  7.9984933E-02;6510;  2.4542509E-02;  0.0000000E+00; -9.3012722E-03;  1.0013657E+03;  1.0610209E-01;  1.1315221E+03;3; -1.3557308E+01;  0.0000000E+00;  3.2785926E+00;0;  1.5427782E-01;  3.5648516E+04;  0.0000000E+00; -3.1311089E-01;  4.0000000E+04;  0.0000000E+00;  3.9956172E+04;  2.0912299E-01;  0.0000000E+00; -5.4845165E-02;  7.6160382E+02;
  6.6066670E-01;  9.9999998E-03;  8.9982212E-02;6511;  2.2146212E-02;  0.0000000E+00; -1.0169546E-02;  1.0013293E+03;  1.0610646E-01;  1.1013008E+03;3; -1.2827218E+01;  0.0000000E+00;  3.5640631E+00;0;  1.4694875E-01;  3.5644602E+04;  0.0000000E+00; -3.8019246E-01;  4.0000000E+04;  0.0000000E+00;  3.9954066E+04;  1.9577397E-01;  0.0000000E+00; -4.8825223E-02;  1.0360602E+03;
  6.6068500E-01;  9.9999998E-03;  9.9981382E-02;6512;  1.9541843E-02;  0.0000000E+00; -1.0958148E-02;  1.0013123E+03;  1.0611106E-01;  1.0872765E+03;3; -1.2113582E+01;  0.0000000E+00;  3.8429272E+00;0;  1.3863415E-01;  3.5642141E+04;  0.0000000E+00; -4.3964559E-01;  4.0000000E+04;  0.0000000E+00;  3.9951387E+04;  1.8109690E-01;  0.0000000E+00; -4.2462759E-02;  1.3543804E+03;
  6.6070193E-01;  9.9999998E-03;  1.0998295E-01;6513;  1.6728744E-02;  0.0000000E+00; -1.1614380E-02;  1.0013137E+03;  1.0611635E-01;  1.0883629E+03;3; -1.1387162E+01;  0.0000000E+00;  4.1243749E+00;0;  1.2929308E-01;  3.5641234E+04;  0.0000000E+00; -4.8447213E-01;  4.0000000E+04;  0.0000000E+00;  3.9948609E+04;  1.6520706E-01;  0.0000000E+00; -3.5913981E-02;  1.6897660E+03;
  6.6071755E-01;  9.9999998E-03;  1.1998737E-01;6514;  1.3750815E-02;  0.0000000E+00; -1.2136220E-02;  1.0013350E+03;  1.0612210E-01;  1.1060414E+03;3; -1.0631166E+01;  0.0000000E+00;  4.3917480E+00;0;  1.1891791E-01;  3.5641340E+04;  0.0000000E+00; -5.0853521E-01;  4.0000000E+04;  0.0000000E+00;  3.9945875E+04;  1.4826204E-01;  0.0000000E+00; -2.9344125E-02;  2.0116058E+03;
  6.6073203E-01;  9.9999998E-03;  1.2999457E-01;6515;  1.0646361E-02;  0.0000000E+00; -1.2515511E-02;  1.0013716E+03;  1.0612793E-01;  1.1363615E+03;3; -9.8588734E+00;  0.0000000E+00;  4.6316209E+00;0;  1.0753979E-01;  3.5642102E+04;  0.0000000E+00; -5.0805849E-01;  4.0000000E+04;  0.0000000E+00;  3.9943320E+04;  1.3045253E-01;  0.0000000E+00; -2.2912737E-02;  2.2938750E+03;
  6.6074556E-01;  9.9999998E-03;  1.4000411E-01;6516;  7.4786250E-03;  0.0000000E+00; -1.2764684E-02;  1.0014174E+03;  1.0613424E-01;  1.1742863E+03;3; -9.0344715E+00;  0.0000000E+00;  4.8869047E+00;0;  9.5237389E-02;  3.5643156E+04;  0.0000000E+00; -4.8280266E-01;  4.0000000E+04;  0.0000000E+00;  3.9941352E+04;  1.1199662E-01;  0.0000000E+00; -1.6759232E-02;  2.5214897E+03;
  6.6075838E-01;  9.9999998E-03;  1.5001525E-01;6517;  4.2858361E-03;  0.0000000E+00; -1.2872295E-02;  1.0014620E+03;  1.0614111E-01;  1.2112234E+03;3; -8.1605253E+00;  0.0000000E+00;  5.1574249E+00;0;  8.2124367E-02;  3.5643816E+04;  0.0000000E+00; -4.3648437E-01;  4.0000000E+04;  0.0000000E+00;  3.9939676E+04;  9.3122639E-02;  0.0000000E+00; -1.0998271E-02;  2.6926602E+03;
  6.6077036E-01;  9.9999998E-03;  1.6002744E-01;6518;  1.1088543E-03;  0.0000000E+00; -1.2820857E-02;  1.0014937E+03;  1.0614753E-01;  1.2374943E+03;3; -7.2750134E+00;  0.0000000E+00;  5.4396667E+00;0;  6.8313390E-02;  3.5643664E+04;  0.0000000E+00; -3.7605616E-01;  4.0000000E+04;  0.0000000E+00;  3.9938457E+04;  7.4068993E-02;  0.0000000E+00; -5.7555996E-03;  2.8143699E+03;
  6.6078115E-01;  9.9999998E-03;  1.7004029E-01;6519; -2.0119816E-03;  0.0000000E+00; -1.2577611E-02;  1.0015093E+03;  1.0615346E-01;  1.2504321E+03;3; -6.3339663E+00;  0.0000000E+00;  5.8199053E+00;0;  5.3927664E-02;  3.5641871E+04;  0.0000000E+00; -3.0839053E-01;  4.0000000E+04;  0.0000000E+00;  3.9937531E+04;  5.5092450E-02;  0.0000000E+00; -1.1647852E-03;  2.8960371E+03;
  6.6079009E-01;  9.9999998E-03;  1.8005350E-01;6520; -5.0405823E-03;  0.0000000E+00; -1.2137308E-02;  1.0014992E+03;  1.0615946E-01;  1.2420374E+03;3; -5.3184872E+00;  0.0000000E+00;  6.1801400E+00;0;  3.9157942E-02;  3.5638344E+04;  0.0000000E+00; -2.3738804E-01;  4.0000000E+04;  0.0000000E+00;  3.9937016E+04;  3.6475554E-02;  0.0000000E+00;  2.6823883E-03;  2.9451992E+03;
  6.6079575E-01;  9.9999998E-03;  1.9006805E-01;6521; -7.8794640E-03;  0.0000000E+00; -1.1525610E-02;  1.0014526E+03;  1.0616504E-01;  1.2034213E+03;3; -4.1243968E+00;  0.0000000E+00;  6.4382706E+00;0;  2.4316575E-02;  3.5632602E+04;  0.0000000E+00; -1.6483477E-01;  4.0000000E+04;  0.0000000E+00;  3.9936641E+04;  1.8525995E-02;  0.0000000E+00;  5.7905796E-03;  2.9687607E+03;
  6.6079623E-01;  9.9999998E-03;  2.0008565E-01;6522; -1.0381808E-02;  0.0000000E+00; -1.0864344E-02;  1.0013688E+03;  1.0617018E-01;  1.1339912E+03;3; -2.6574161E+00;  0.0000000E+00;  6.3050642E+00;0;  9.8022269E-03;  3.5624613E+04;  0.0000000E+00; -9.3898438E-02;  4.0000000E+04;  0.0000000E+00;  3.9936469E+04;  1.5449319E-03;  0.0000000E+00;  8.2572950E-03;  2.9863899E+03;
  6.6079021E-01;  9.9999998E-03;  2.1010792E-01;6523; -1.2336319E-02;  0.0000000E+00; -1.0377428E-02;  1.0012415E+03;  1.0617392E-01;  1.0285128E+03;3; -1.0280828E+00;  0.0000000E+00;  5.6325994E+00;0; -4.1179564E-03;  3.5614383E+04;  0.0000000E+00; -3.4384865E-02;  4.0000000E+04;  0.0000000E+00;  3.9935629E+04; -1.4198563E-02;  0.0000000E+00;  1.0080607E-02;  3.0603687E+03;
  6.6077721E-01;  9.9999998E-03;  2.2013547E-01;6524; -1.3769038E-02;  0.0000000E+00; -1.0274458E-02;  1.0010646E+03;  1.0617704E-01;  8.8194922E+02;3; -2.7225390E-01;  0.0000000E+00;  5.1128449E+00;0; -1.7803065E-02;  3.5602828E+04;  0.0000000E+00; -9.8303203E-03;  4.0000000E+04;  0.0000000E+00;  3.9933160E+04; -2.8539002E-02;  0.0000000E+00;  1.0735937E-02;  3.3332607E+03;
  6.6075575E-01;  9.9999998E-03;  2.3016401E-01;6525; -1.4974652E-02;  0.0000000E+00; -1.0464478E-02;  1.0008310E+03;  1.0617924E-01;  6.8847345E+02;3; -9.4297171E-02;  0.0000000E+00;  5.0323758E+00;0; -3.2063745E-02;  3.5590543E+04;  0.0000000E+00; -6.6516586E-02;  4.0000000E+04;  0.0000000E+00;  3.9928332E+04; -4.1432131E-02;  0.0000000E+00;  9.3683843E-03;  3.9496892E+03;
  6.7053813E-01;  9.9999998E-03;  6.9973439E-02;6570;  2.7209764E-02;  0.0000000E+00; -7.4450769E-03;  1.0011800E+03;  1.0798641E-01;  9.7755115E+02;3; -1.4884502E+01;  0.0000000E+00;  2.6457405E+00;0;  1.2310158E-01;  3.4394559E+04;  0.0000000E+00; -2.5860554E-01;  4.0000000E+04;  0.0000000E+00;  3.9947902E+04;  1.8095846E-01;  0.0000000E+00; -5.7856884E-02;  4.4963095E+02;
  6.7056829E-01;  9.9999998E-03;  7.9969637E-02;6571;  2.5103180E-02;  0.0000000E+00; -8.3391229E-03;  1.0011967E+03;  1.0799275E-01;  9.9147662E+02;3; -1.4275339E+01;  0.0000000E+00;  2.9522460E+00;0;  1.1858270E-01;  3.4392895E+04;  0.0000000E+00; -3.2774240E-01;  4.0000000E+04;  0.0000000E+00;  3.9946406E+04;  1.7089853E-01;  0.0000000E+00; -5.2315835E-02;  6.1770306E+02;
  6.7059845E-01;  9.9999998E-03;  8.9967541E-02;6572;  2.2766089E-02;  0.0000000E+00; -9.1470005E-03;  1.0012376E+03;  1.0799950E-01;  1.0253522E+03;3; -1.3575912E+01;  0.0000000E+00;  3.2760005E+00;0;  1.1333078E-01;  3.4392734E+04;  0.0000000E+00; -3.9358008E-01;  4.0000000E+04;  0.0000000E+00;  3.9944266E+04;  1.5959561E-01;  0.0000000E+00; -4.6264824E-02;  8.3886298E+02;
  6.7062730E-01;  9.9999998E-03;  9.9967748E-02;6573;  2.0204801E-02;  0.0000000E+00; -9.8661445E-03;  1.0013003E+03;  1.0800669E-01;  1.0773013E+03;3; -1.2815173E+01;  0.0000000E+00;  3.4995580E+00;0;  1.0726967E-01;  3.4394043E+04;  0.0000000E+00; -4.4867969E-01;  4.0000000E+04;  0.0000000E+00;  3.9942031E+04;  1.4710994E-01;  0.0000000E+00; -3.9840266E-02;  1.0959360E+03;
  6.7065388E-01;  9.9999998E-03;  1.0997061E-01;6574;  1.7447112E-02;  0.0000000E+00; -1.0492761E-02;  1.0013885E+03;  1.0801467E-01;  1.1503855E+03;3; -1.2039641E+01;  0.0000000E+00;  3.7398682E+00;0;  1.0032986E-01;  3.4396969E+04;  0.0000000E+00; -4.8550764E-01;  4.0000000E+04;  0.0000000E+00;  3.9939812E+04;  1.3353407E-01;  0.0000000E+00; -3.3204213E-02;  1.3610842E+03;
  6.7067790E-01;  9.9999998E-03;  1.1997660E-01;6575;  1.4498129E-02;  0.0000000E+00; -1.0985331E-02;  1.0014917E+03;  1.0802379E-01;  1.2358151E+03;3; -1.1233556E+01;  0.0000000E+00;  3.9545393E+00;0;  9.2446037E-02;  3.4400676E+04;  0.0000000E+00; -4.9801418E-01;  4.0000000E+04;  0.0000000E+00;  3.9937496E+04;  1.1897822E-01;  0.0000000E+00; -2.6532181E-02;  1.6060118E+03;
  6.7069900E-01;  9.9999998E-03;  1.2998556E-01;6576;  1.1405856E-02;  0.0000000E+00; -1.1347291E-02;  1.0016039E+03;  1.0803253E-01;  1.3288492E+03;3; -1.0442401E+01;  0.0000000E+00;  4.1547985E+00;0;  8.3596349E-02;  3.4404727E+04;  0.0000000E+00; -4.8323655E-01;  4.0000000E+04;  0.0000000E+00;  3.9935543E+04;  1.0359311E-01;  0.0000000E+00; -1.9996759E-02;  1.8103207E+03;
  6.7071730E-01;  9.9999998E-03;  1.3999666E-01;6577;  8.2265642E-03;  0.0000000E+00; -1.1587026E-02;  1.0017212E+03;  1.0804205E-01;  1.4259329E+03;3; -9.6104202E+00;  0.0000000E+00;  4.3605556E+00;0;  7.3801056E-02;  3.4408387E+04;  0.0000000E+00; -4.4229966E-01;  4.0000000E+04;  0.0000000E+00;  3.9933840E+04;  8.7550774E-02;  0.0000000E+00; -1.3749721E-02;  1.9668654E+03;
  6.7073262E-01;  9.9999998E-03;  1.5000889E-01;6578;  5.0029033E-03;  0.0000000E+00; -1.1700077E-02;  1.0018221E+03;  1.0805163E-01;  1.5095847E+03;3; -8.7302732E+00;  0.0000000E+00;  4.5589366E+00;0;  6.3119724E-02;  3.4411410E+04;  0.0000000E+00; -3.8052559E-01;  4.0000000E+04;  0.0000000E+00;  3.9932676E+04;  7.1034864E-02;  0.0000000E+00; -7.9151401E-03;  2.0825349E+03;
  6.7074531E-01;  9.9999998E-03;  1.6002171E-01;6579;  1.7776825E-03;  0.0000000E+00; -1.1675917E-02;  1.0019045E+03;  1.0806111E-01;  1.5778296E+03;3; -7.8408093E+00;  0.0000000E+00;  4.7972050E+00;0;  5.1620279E-02;  3.4412672E+04;  0.0000000E+00; -3.0610487E-01;  4.0000000E+04;  0.0000000E+00;  3.9931680E+04;  5.4240566E-02;  0.0000000E+00; -2.6202879E-03;  2.1700220E+03;
  6.7075574E-01;  9.9999998E-03;  1.7003530E-01;6580; -1.4125814E-03;  0.0000000E+00; -1.1492636E-02;  1.0019537E+03;  1.0807063E-01;  1.6186184E+03;3; -6.9156737E+00;  0.0000000E+00;  5.1243424E+00;0;  3.9386813E-02;  3.4412090E+04;  0.0000000E+00; -2.2655484E-01;  4.0000000E+04;  0.0000000E+00;  3.9930863E+04;  3.7383713E-02;  0.0000000E+00;  2.0031009E-03;  2.2381995E+03;
  6.7076343E-01;  9.9999998E-03;  1.8005085E-01;6581; -4.5253406E-03;  0.0000000E+00; -1.1126749E-02;  1.0019658E+03;  1.0807890E-01;  1.6285935E+03;3; -5.9491076E+00;  0.0000000E+00;  5.4621067E+00;0;  2.6571251E-02;  3.4409004E+04;  0.0000000E+00; -1.4739665E-01;  4.0000000E+04;  0.0000000E+00;  3.9930246E+04;  2.0709749E-02;  0.0000000E+00;  5.8615021E-03;  2.2892498E+03;
  6.7076778E-01;  9.9999998E-03;  1.9007036E-01;6582; -7.4910596E-03;  0.0000000E+00; -1.0596826E-02;  1.0019406E+03;  1.0808765E-01;  1.6077545E+03;3; -4.8562040E+00;  0.0000000E+00;  5.8119388E+00;0;  1.3439052E-02;  3.4403547E+04;  0.0000000E+00; -7.4238695E-02;  4.0000000E+04;  0.0000000E+00;  3.9929875E+04;  4.4897399E-03;  0.0000000E+00;  8.9493124E-03;  2.3272988E+03;
  6.7076850E-01;  9.9999998E-03;  2.0009571E-01;6583; -1.0175218E-02;  0.0000000E+00; -9.9985097E-03;  1.0018684E+03;  1.0809516E-01;  1.5479045E+03;3; -3.4200594E+00;  0.0000000E+00;  5.9557705E+00;0;  3.6147237E-04;  3.4395617E+04;  0.0000000E+00; -1.6870547E-02;  4.0000000E+04;  0.0000000E+00;  3.9929219E+04; -1.0992263E-02;  0.0000000E+00;  1.1353736E-02;  2.3830671E+03;
  6.7076552E-01;  9.9999998E-03;  2.1012881E-01;6584; -1.2345376E-02;  0.0000000E+00; -9.5058903E-03;  1.0017417E+03;  1.0810217E-01;  1.4429199E+03;3; -1.6904320E+00;  0.0000000E+00;  5.5562086E+00;0; -1.2327119E-02;  3.4385434E+04;  0.0000000E+00;  4.3935077E-03;  4.0000000E+04;  0.0000000E+00;  3.9927547E+04; -2.5449567E-02;  0.0000000E+00;  1.3122448E-02;  2.5638501E+03;
  6.7075831E-01;  9.9999998E-03;  2.2016993E-01;6585; -1.3932352E-02;  0.0000000E+00; -9.3789492E-03;  1.0015465E+03;  1.0810784E-01;  1.2812457E+03;3; -5.8478224E-01;  0.0000000E+00;  5.0579381E+00;0; -2.4921086E-02;  3.4373816E+04;  0.0000000E+00; -4.9355146E-02;  4.0000000E+04;  0.0000000E+00;  3.9923184E+04; -3.8682558E-02;  0.0000000E+00;  1.3761473E-02;  3.1118301E+03;
  6.7074555E-01;  9.9999998E-03;  2.3020987E-01;6586; -1.5266369E-02;  0.0000000E+00; -9.5734764E-03;  1.0012711E+03;  1.0811196E-01;  1.0530056E+03;3; -2.7095181E-01;  0.0000000E+00;  5.0165577E+00;0; -3.8311761E-02;  3.4361633E+04;  0.0000000E+00; -2.4902947E-01;  4.0000000E+04;  0.0000000E+00;  3.9914242E+04; -5.0656110E-02;  0.0000000E+00;  1.2344349E-02;  4.2219922E+03;
  6.8052804E-01;  9.9999998E-03;  6.9963738E-02;6631;  2.7317911E-02;  0.0000000E+00; -6.5442198E-03;  1.0003425E+03;  1.1012562E-01;  2.8374460E+02;3; -1.5262830E+01;  0.0000000E+00;  2.3196800E+00;0;  8.1883587E-02;  3.3013848E+04;  0.0000000E+00; -2.2153571E-01;  4.0000000E+04;  0.0000000E+00;  3.9936203E+04;  1.3559809E-01;  0.0000000E+00; -5.3714506E-02;  4.5978580E+02;
  6.8056977E-01;  9.9999998E-03;  7.9960883E-02;6632;  2.5226142E-02;  0.0000000E+00; -7.3326514E-03;  1.0004397E+03;  1.1013468E-01;  3.6423599E+02;3; -1.4646877E+01;  0.0000000E+00;  2.5759461E+00;0;  7.9023473E-02;  3.3015469E+04;  0.0000000E+00; -2.7888876E-01;  4.0000000E+04;  0.0000000E+00;  3.9934906E+04;  1.2739585E-01;  0.0000000E+00; -4.8372380E-02;  5.1163544E+02;
  6.8061131E-01;  9.9999998E-03;  8.9959927E-02;6633;  2.2915641E-02;  0.0000000E+00; -8.0603110E-03;  1.0005679E+03;  1.1014516E-01;  4.7050443E+02;3; -1.3967197E+01;  0.0000000E+00;  2.8502464E+00;0;  7.5646281E-02;  3.3019016E+04;  0.0000000E+00; -3.3100590E-01;  4.0000000E+04;  0.0000000E+00;  3.9933465E+04;  1.1815030E-01;  0.0000000E+00; -4.2504020E-02;  6.1806897E+02;
  6.8065119E-01;  9.9999998E-03;  9.9961348E-02;6634;  2.0384660E-02;  0.0000000E+00; -8.7044910E-03;  1.0007240E+03;  1.1015628E-01;  5.9978448E+02;3; -1.3225163E+01;  0.0000000E+00;  3.0483181E+00;0;  7.1654893E-02;  3.3023762E+04;  0.0000000E+00; -3.7057981E-01;  4.0000000E+04;  0.0000000E+00;  3.9931598E+04;  1.0789484E-01;  0.0000000E+00; -3.6239944E-02;  7.6583563E+02;
  6.8068808E-01;  9.9999998E-03;  1.0996580E-01;6635;  1.7655643E-02;  0.0000000E+00; -9.2644775E-03;  1.0009048E+03;  1.1016810E-01;  7.4960718E+02;3; -1.2452184E+01;  0.0000000E+00;  3.2568908E+00;0;  6.6952012E-02;  3.3030086E+04;  0.0000000E+00; -3.9056566E-01;  4.0000000E+04;  0.0000000E+00;  3.9929965E+04;  9.6691258E-02;  0.0000000E+00; -2.9739244E-02;  9.2219775E+02;
  6.8072110E-01;  9.9999998E-03;  1.1997364E-01;6636;  1.4737501E-02;  0.0000000E+00; -9.7023509E-03;  1.0011014E+03;  1.1018109E-01;  9.1256525E+02;3; -1.1655507E+01;  0.0000000E+00;  3.4540617E+00;0;  6.1435517E-02;  3.3036926E+04;  0.0000000E+00; -3.8581148E-01;  4.0000000E+04;  0.0000000E+00;  3.9928336E+04;  8.4615335E-02;  0.0000000E+00; -2.3179818E-02;  1.0570889E+03;
  6.8074965E-01;  9.9999998E-03;  1.2998411E-01;6637;  1.1658826E-02;  0.0000000E+00; -1.0008737E-02;  1.0013022E+03;  1.1019445E-01;  1.0788812E+03;3; -1.0808977E+01;  0.0000000E+00;  3.6229315E+00;0;  5.5030361E-02;  3.3043793E+04;  0.0000000E+00; -3.5448304E-01;  4.0000000E+04;  0.0000000E+00;  3.9927137E+04;  7.1769886E-02;  0.0000000E+00; -1.6739523E-02;  1.1534458E+03;
  6.8077379E-01;  9.9999998E-03;  1.3999620E-01;6638;  8.4717590E-03;  0.0000000E+00; -1.0193060E-02;  1.0014930E+03;  1.1020771E-01;  1.2369012E+03;3; -9.9511299E+00;  0.0000000E+00;  3.7836797E+00;0;  4.7705457E-02;  3.3049914E+04;  0.0000000E+00; -2.9877669E-01;  4.0000000E+04;  0.0000000E+00;  3.9926102E+04;  5.8281433E-02;  0.0000000E+00; -1.0575978E-02;  1.2114067E+03;
  6.8079388E-01;  9.9999998E-03;  1.5000880E-01;6639;  5.2261278E-03;  0.0000000E+00; -1.0256000E-02;  1.0016623E+03;  1.1022161E-01;  1.3771439E+03;3; -9.0757427E+00;  0.0000000E+00;  3.9470487E+00;0;  3.9472181E-02;  3.3054473E+04;  0.0000000E+00; -2.2478838E-01;  4.0000000E+04;  0.0000000E+00;  3.9925332E+04;  4.4289872E-02;  0.0000000E+00; -4.8176921E-03;  1.2469841E+03;
  6.8081033E-01;  9.9999998E-03;  1.6002104E-01;6640;  1.9602238E-03;  0.0000000E+00; -1.0184445E-02;  1.0017962E+03;  1.1023516E-01;  1.4881530E+03;3; -8.1840439E+00;  0.0000000E+00;  4.1331620E+00;0;  3.0354783E-02;  3.3057020E+04;  0.0000000E+00; -1.4086451E-01;  4.0000000E+04;  0.0000000E+00;  3.9924707E+04;  2.9945036E-02;  0.0000000E+00;  4.0974672E-04;  1.2797418E+03;
  6.8082410E-01;  9.9999998E-03;  1.7003337E-01;6641; -1.2859018E-03;  0.0000000E+00; -9.9621955E-03;  1.0018884E+03;  1.1024840E-01;  1.5644963E+03;3; -7.2679796E+00;  0.0000000E+00;  4.3680382E+00;0;  2.0404730E-02;  3.3056902E+04;  0.0000000E+00; -5.5056613E-02;  4.0000000E+04;  0.0000000E+00;  3.9924355E+04;  1.5418886E-02;  0.0000000E+00;  4.9858443E-03;  1.3182382E+03;
  6.8083543E-01;  9.9999998E-03;  1.8004836E-01;6642; -4.4667250E-03;  0.0000000E+00; -9.5743891E-03;  1.0019333E+03;  1.1026175E-01;  1.6017299E+03;3; -6.3026776E+00;  0.0000000E+00;  4.6657820E+00;0;  9.7482139E-03;  3.3054211E+04;  0.0000000E+00;  2.4406390E-02;  4.0000000E+04;  0.0000000E+00;  3.9924078E+04;  9.1218040E-04;  0.0000000E+00;  8.8360338E-03;  1.3549939E+03;
  6.8084389E-01;  9.9999998E-03;  1.9006866E-01;6643; -7.5092530E-03;  0.0000000E+00; -9.0576271E-03;  1.0019360E+03;  1.1027423E-01;  1.6040013E+03;3; -5.2338614E+00;  0.0000000E+00;  4.9779558E+00;0; -1.3705697E-03;  3.3048859E+04;  0.0000000E+00;  8.6387634E-02;  4.0000000E+04;  0.0000000E+00;  3.9923617E+04; -1.3342038E-02;  0.0000000E+00;  1.1971468E-02;  1.3785314E+03;
  6.8084967E-01;  9.9999998E-03;  2.0009702E-01;6644; -1.0285645E-02;  0.0000000E+00; -8.5151102E-03;  1.0018932E+03;  1.1028607E-01;  1.5684469E+03;3; -3.8879876E+00;  0.0000000E+00;  5.1638556E+00;0; -1.2609994E-02;  3.3041027E+04;  0.0000000E+00;  1.1294973E-01;  4.0000000E+04;  0.0000000E+00;  3.9923395E+04; -2.7086282E-02;  0.0000000E+00;  1.4476288E-02;  1.4092643E+03;
  6.8085289E-01;  9.9999998E-03;  2.1013702E-01;6645; -1.2543139E-02;  0.0000000E+00; -8.1090014E-03;  1.0017940E+03;  1.1029655E-01;  1.4862765E+03;3; -1.9623619E+00;  0.0000000E+00;  4.8508906E+00;0; -2.3666164E-02;  3.3031168E+04;  0.0000000E+00;  7.3202990E-02;  4.0000000E+04;  0.0000000E+00;  3.9921609E+04; -4.0034100E-02;  0.0000000E+00;  1.6367937E-02;  1.5860139E+03;
  6.8085653E-01;  9.9999998E-03;  2.2018711E-01;6646; -1.4175865E-02;  0.0000000E+00; -8.0541568E-03;  1.0016178E+03;  1.1030682E-01;  1.3403055E+03;3; -7.2200203E-01;  0.0000000E+00;  4.4897556E+00;0; -3.4816016E-02;  3.3019973E+04;  0.0000000E+00; -8.7315276E-02;  4.0000000E+04;  0.0000000E+00;  3.9916637E+04; -5.1963519E-02;  0.0000000E+00;  1.7147504E-02;  2.2298501E+03;
  6.8086004E-01;  9.9999998E-03;  2.3023269E-01;6647; -1.5610170E-02;  0.0000000E+00; -8.2015330E-03;  1.0013637E+03;  1.1031567E-01;  1.1298428E+03;3; -4.0501314E-01;  0.0000000E+00;  4.5943685E+00;0; -4.6689712E-02;  3.3007965E+04;  0.0000000E+00; -4.6145812E-01;  4.0000000E+04;  0.0000000E+00;  3.9906852E+04; -6.2876403E-02;  0.0000000E+00;  1.6186690E-02;  3.5358132E+03;
  6.9108242E-01;  9.9999998E-03;  6.9987282E-02;6692;  2.7069911E-02;  0.0000000E+00; -5.6150584E-03;  9.9906689E+02;  1.1259435E-01; -7.7306305E+02;3; -1.5504467E+01;  0.0000000E+00;  1.9248496E+00;0;  3.8652211E-02;  3.1508793E+04;  0.0000000E+00; -1.3023473E-01;  4.0000000E+04;  0.0000000E+00;  3.9922719E+04;  8.6206481E-02;  0.0000000E+00; -4.7554269E-02;  6.0578851E+02;
  6.9115543E-01;  9.9999998E-03;  7.9989880E-02;6693;  2.4985891E-02;  0.0000000E+00; -6.2970864E-03;  9.9924298E+02;  1.1261085E-01; -6.2719086E+02;3; -1.4886714E+01;  0.0000000E+00;  2.1400325E+00;0;  3.7066277E-02;  3.1511020E+04;  0.0000000E+00; -1.6119228E-01;  4.0000000E+04;  0.0000000E+00;  3.9921949E+04;  7.9702437E-02;  0.0000000E+00; -4.2636160E-02;  5.3570288E+02;
  6.9122332E-01;  9.9999998E-03;  8.9993693E-02;6694;  2.2682805E-02;  0.0000000E+00; -6.9249915E-03;  9.9945825E+02;  1.1262813E-01; -4.4882590E+02;3; -1.4206598E+01;  0.0000000E+00;  2.3606973E+00;0;  3.5183154E-02;  3.1515596E+04;  0.0000000E+00; -1.8553337E-01;  4.0000000E+04;  0.0000000E+00;  3.9920770E+04;  7.2381116E-02;  0.0000000E+00; -3.7197962E-02;  4.7054086E+02;
  6.9128311E-01;  9.9999998E-03;  9.9999577E-02;6695;  2.0169953E-02;  0.0000000E+00; -7.4937497E-03;  9.9970526E+02;  1.1264545E-01; -2.4419012E+02;3; -1.3467140E+01;  0.0000000E+00;  2.5333984E+00;0;  3.2908633E-02;  3.1522279E+04;  0.0000000E+00; -1.9747610E-01;  4.0000000E+04;  0.0000000E+00;  3.9919637E+04;  6.4264305E-02;  0.0000000E+00; -3.1355672E-02;  4.2835748E+02;
  6.9133359E-01;  9.9999998E-03;  1.1000825E-01;6696;  1.7454371E-02;  0.0000000E+00; -7.9708062E-03;  9.9998260E+02;  1.1266281E-01; -1.4419316E+01;3; -1.2686576E+01;  0.0000000E+00;  2.7234168E+00;0;  3.0121015E-02;  3.1530715E+04;  0.0000000E+00; -1.9175309E-01;  4.0000000E+04;  0.0000000E+00;  3.9918703E+04;  5.5377666E-02;  0.0000000E+00; -2.5256651E-02;  4.0583258E+02;
  6.9137383E-01;  9.9999998E-03;  1.2001921E-01;6697;  1.4542020E-02;  0.0000000E+00; -8.3248960E-03;  1.0002653E+03;  1.1267979E-01;  2.1984518E+02;3; -1.1858401E+01;  0.0000000E+00;  2.8860686E+00;0;  2.6689462E-02;  3.1540002E+04;  0.0000000E+00; -1.6496298E-01;  4.0000000E+04;  0.0000000E+00;  3.9917840E+04;  4.5760270E-02;  0.0000000E+00; -1.9070808E-02;  3.7985828E+02;
  6.9140446E-01;  9.9999998E-03;  1.3003139E-01;6698;  1.1463863E-02;  0.0000000E+00; -8.5521368E-03;  1.0005490E+03;  1.1269707E-01;  4.5480103E+02;3; -1.0993361E+01;  0.0000000E+00;  3.0187137E+00;0;  2.2498934E-02;  3.1549338E+04;  0.0000000E+00; -1.1655548E-01;  4.0000000E+04;  0.0000000E+00;  3.9917461E+04;  3.5469484E-02;  0.0000000E+00; -1.2970550E-02;  3.3033188E+02;
  6.9142681E-01;  9.9999998E-03;  1.4004351E-01;6699;  8.2681170E-03;  0.0000000E+00; -8.6572487E-03;  1.0008130E+03;  1.1271384E-01;  6.7355981E+02;3; -1.0132415E+01;  0.0000000E+00;  3.1574922E+00;0;  1.7470794E-02;  3.1557461E+04;  0.0000000E+00; -4.9270261E-02;  4.0000000E+04;  0.0000000E+00;  3.9917395E+04;  2.4581268E-02;  0.0000000E+00; -7.1104742E-03;  2.5881927E+02;
  6.9144386E-01;  9.9999998E-03;  1.5005438E-01;6700;  5.0041196E-03;  0.0000000E+00; -8.6371722E-03;  1.0010421E+03;  1.1273111E-01;  8.6328247E+02;3; -9.2439384E+00;  0.0000000E+00;  3.2955859E+00;0;  1.1563822E-02;  3.1563732E+04;  0.0000000E+00;  3.1164803E-02;  4.0000000E+04;  0.0000000E+00;  3.9917301E+04;  1.3180466E-02;  0.0000000E+00; -1.6166443E-03;  2.0568332E+02;
  6.9145811E-01;  9.9999998E-03;  1.6006358E-01;6701;  1.7104223E-03;  0.0000000E+00; -8.4766764E-03;  1.0012229E+03;  1.1274821E-01;  1.0131051E+03;3; -8.3344755E+00;  0.0000000E+00;  3.4472563E+00;0;  4.7574998E-03;  3.1567205E+04;  0.0000000E+00;  1.1742093E-01;  4.0000000E+04;  0.0000000E+00;  3.9917203E+04;  1.3653735E-03;  0.0000000E+00;  3.3921262E-03;  2.3939427E+02;
  6.9147182E-01;  9.9999998E-03;  1.7007251E-01;6702; -1.5700874E-03;  0.0000000E+00; -8.1632696E-03;  1.0013546E+03;  1.1276562E-01;  1.1222375E+03;3; -7.4220843E+00;  0.0000000E+00;  3.6251488E+00;0; -2.9281015E-03;  3.1567469E+04;  0.0000000E+00;  2.0126519E-01;  4.0000000E+04;  0.0000000E+00;  3.9917078E+04; -1.0739924E-02;  0.0000000E+00;  7.8118229E-03;  3.4115182E+02;
  6.9148612E-01;  9.9999998E-03;  1.8008384E-01;6703; -4.7850255E-03;  0.0000000E+00; -7.7060354E-03;  1.0014352E+03;  1.1278380E-01;  1.1890010E+03;3; -6.4520016E+00;  0.0000000E+00;  3.8383956E+00;0; -1.1384513E-02;  3.1564584E+04;  0.0000000E+00;  2.7154335E-01;  4.0000000E+04;  0.0000000E+00;  3.9916727E+04; -2.2979291E-02;  0.0000000E+00;  1.1594778E-02;  4.4369345E+02;
  6.9150281E-01;  9.9999998E-03;  1.9010118E-01;6704; -7.8580994E-03;  0.0000000E+00; -7.1636382E-03;  1.0014619E+03;  1.1280183E-01;  1.2111238E+03;3; -5.4461694E+00;  0.0000000E+00;  4.0168996E+00;0; -2.0383246E-02;  3.1558494E+04;  0.0000000E+00;  3.1226388E-01;  4.0000000E+04;  0.0000000E+00;  3.9916516E+04; -3.5164252E-02;  0.0000000E+00;  1.4781007E-02;  5.0140421E+02;
  6.9152534E-01;  9.9999998E-03;  2.0012923E-01;6705; -1.0636877E-02;  0.0000000E+00; -6.6853263E-03;  1.0014445E+03;  1.1282057E-01;  1.1967045E+03;3; -4.1329474E+00;  0.0000000E+00;  4.1151543E+00;0; -2.9627642E-02;  3.1549389E+04;  0.0000000E+00;  3.0051708E-01;  4.0000000E+04;  0.0000000E+00;  3.9915934E+04; -4.7068536E-02;  0.0000000E+00;  1.7440895E-02;  5.0605698E+02;
  6.9156033E-01;  9.9999998E-03;  2.1017052E-01;6706; -1.2853454E-02;  0.0000000E+00; -6.4423960E-03;  1.0013701E+03;  1.1284044E-01;  1.1350767E+03;3; -2.0401866E+00;  0.0000000E+00;  3.8349082E+00;0; -3.8938217E-02;  3.1537432E+04;  0.0000000E+00;  2.0135559E-01;  4.0000000E+04;  0.0000000E+00;  3.9913629E+04; -5.8423094E-02;  0.0000000E+00;  1.9484878E-02;  6.3171472E+02;
  6.9161487E-01;  9.9999998E-03;  2.2021814E-01;6707; -1.4512856E-02;  0.0000000E+00; -6.4412267E-03;  1.0012318E+03;  1.1286342E-01;  1.0205123E+03;3; -1.0334470E+00;  0.0000000E+00;  3.8206706E+00;0; -4.8503347E-02;  3.1522914E+04;  0.0000000E+00; -4.1357022E-02;  4.0000000E+04;  0.0000000E+00;  3.9908078E+04; -6.9038078E-02;  0.0000000E+00;  2.0534733E-02;  1.3280082E+03;
  6.9168979E-01;  9.9999998E-03;  2.3025201E-01;6708; -1.6067358E-02;  0.0000000E+00; -6.4749736E-03;  1.0010511E+03;  1.1288901E-01;  8.7088715E+02;3; -6.1703098E-01;  0.0000000E+00;  3.9683554E+00;0; -5.8570534E-02;  3.1506449E+04;  0.0000000E+00; -5.1374501E-01;  4.0000000E+04;  0.0000000E+00;  3.9900363E+04; -7.8930534E-02;  0.0000000E+00;  2.0360000E-02;  2.5254094E+03;
  7.0336318E-01;  9.9999998E-03;  7.0118994E-02;6753;  2.6455583E-02;  0.0000000E+00; -4.5740721E-03;  9.9783905E+02;  1.1568473E-01; -1.7903154E+03;3; -1.5675377E+01;  0.0000000E+00;  1.4394224E+00;0; -6.8375804E-03;  2.9793945E+04;  0.0000000E+00;  2.3494087E-02;  4.0000000E+04;  0.0000000E+00;  3.9906938E+04;  3.1265274E-02;  0.0000000E+00; -3.8102854E-02;  9.5759369E+02;
  7.0341086E-01;  9.9999998E-03;  8.0131486E-02;6754;  2.4374114E-02;  0.0000000E+00; -5.1425495E-03;  9.9809308E+02;  1.1569861E-01; -1.5798528E+03;3; -1.5056579E+01;  0.0000000E+00;  1.6177030E+00;0; -7.3726960E-03;  2.9801848E+04;  0.0000000E+00;  3.4263276E-02;  4.0000000E+04;  0.0000000E+00;  3.9906449E+04;  2.6645564E-02;  0.0000000E+00; -3.4018259E-02;  8.7671735E+02;
  7.0344627E-01;  9.9999998E-03;  9.0145037E-02;6755;  2.2071941E-02;  0.0000000E+00; -5.6738462E-03;  9.9838934E+02;  1.1571141E-01; -1.3343788E+03;3; -1.4371287E+01;  0.0000000E+00;  1.7731719E+00;0; -8.0176555E-03;  2.9812623E+04;  0.0000000E+00;  5.1085271E-02;  4.0000000E+04;  0.0000000E+00;  3.9905832E+04;  2.1421451E-02;  0.0000000E+00; -2.9439107E-02;  7.9281580E+02;
  7.0346707E-01;  9.9999998E-03;  1.0016005E-01;6756;  1.9554496E-02;  0.0000000E+00; -6.1402349E-03;  9.9871625E+02;  1.1572305E-01; -1.0635723E+03;3; -1.3628432E+01;  0.0000000E+00;  1.9413244E+00;0; -8.8651543E-03;  2.9826053E+04;  0.0000000E+00;  7.6427303E-02;  4.0000000E+04;  0.0000000E+00;  3.9905430E+04;  1.5589596E-02;  0.0000000E+00; -2.4454750E-02;  7.2578198E+02;
  7.0347369E-01;  9.9999998E-03;  1.1017579E-01;6757;  1.6824465E-02;  0.0000000E+00; -6.5100268E-03;  9.9907013E+02;  1.1573505E-01; -7.7039612E+02;3; -1.2834842E+01;  0.0000000E+00;  2.0851789E+00;0; -1.0044763E-02;  2.9841059E+04;  0.0000000E+00;  1.1236855E-01;  4.0000000E+04;  0.0000000E+00;  3.9905273E+04;  9.1423187E-03;  0.0000000E+00; -1.9187082E-02;  6.9507819E+02;
  7.0346767E-01;  9.9999998E-03;  1.2019110E-01;6758;  1.3899747E-02;  0.0000000E+00; -6.7676464E-03;  9.9942920E+02;  1.1574621E-01; -4.7287436E+02;3; -1.1997293E+01;  0.0000000E+00;  2.2033529E+00;0; -1.1700239E-02;  2.9856639E+04;  0.0000000E+00;  1.5996481E-01;  4.0000000E+04;  0.0000000E+00;  3.9905484E+04;  2.0825863E-03;  0.0000000E+00; -1.3782825E-02;  7.1405237E+02;
  7.0345312E-01;  9.9999998E-03;  1.3020441E-01;6759;  1.0813271E-02;  0.0000000E+00; -6.9056414E-03;  9.9977075E+02;  1.1575768E-01; -1.8992009E+02;3; -1.1141738E+01;  0.0000000E+00;  2.3262415E+00;0; -1.3975851E-02;  2.9871469E+04;  0.0000000E+00;  2.1893908E-01;  4.0000000E+04;  0.0000000E+00;  3.9905930E+04; -5.5802381E-03;  0.0000000E+00; -8.3956132E-03;  7.8372772E+02;
  7.0343542E-01;  9.9999998E-03;  1.4021435E-01;6760;  7.6100216E-03;  0.0000000E+00; -6.9216727E-03;  1.0000831E+03;  1.1577031E-01;  6.8837395E+01;3; -1.0255392E+01;  0.0000000E+00;  2.4404745E+00;0; -1.6990382E-02;  2.9883969E+04;  0.0000000E+00;  2.8744516E-01;  4.0000000E+04;  0.0000000E+00;  3.9906715E+04; -1.3824304E-02;  0.0000000E+00; -3.1660781E-03;  8.9019171E+02;
  7.0341969E-01;  9.9999998E-03;  1.5022042E-01;6761;  4.3306360E-03;  0.0000000E+00; -6.8042381E-03;  1.0003513E+03;  1.1578479E-01;  2.9105280E+02;3; -9.3633289E+00;  0.0000000E+00;  2.5731997E+00;0; -2.0825725E-02;  2.9893061E+04;  0.0000000E+00;  3.6202449E-01;  4.0000000E+04;  0.0000000E+00;  3.9907332E+04; -2.2615338E-02;  0.0000000E+00;  1.7896123E-03;  1.0078150E+03;
  7.0341194E-01;  9.9999998E-03;  1.6022304E-01;6762;  1.0180747E-03;  0.0000000E+00; -6.5409727E-03;  1.0005590E+03;  1.1580241E-01;  4.6309689E+02;3; -8.4501915E+00;  0.0000000E+00;  2.7143447E+00;0; -2.5540423E-02;  2.9897807E+04;  0.0000000E+00;  4.3815580E-01;  4.0000000E+04;  0.0000000E+00;  3.9907715E+04; -3.1904116E-02;  0.0000000E+00;  6.3636946E-03;  1.1059222E+03;
  7.0341432E-01;  9.9999998E-03;  1.7022480E-01;6763; -2.2801566E-03;  0.0000000E+00; -6.1318534E-03;  1.0007046E+03;  1.1582272E-01;  5.8378455E+02;3; -7.5019183E+00;  0.0000000E+00;  2.8410234E+00;0; -3.1138290E-02;  2.9897889E+04;  0.0000000E+00;  5.0848562E-01;  4.0000000E+04;  0.0000000E+00;  3.9907523E+04; -4.1607857E-02;  0.0000000E+00;  1.0469566E-02;  1.1547527E+03;
  7.0342916E-01;  9.9999998E-03;  1.8022943E-01;6764; -5.5127265E-03;  0.0000000E+00; -5.5930186E-03;  1.0007834E+03;  1.1584578E-01;  6.4906647E+02;3; -6.5307121E+00;  0.0000000E+00;  2.9523993E+00;0; -3.7531547E-02;  2.9893441E+04;  0.0000000E+00;  5.6096298E-01;  4.0000000E+04;  0.0000000E+00;  3.9906539E+04; -5.1617403E-02;  0.0000000E+00;  1.4085856E-02;  1.1286913E+03;
  7.0346045E-01;  9.9999998E-03;  1.9024077E-01;6765; -8.5792635E-03;  0.0000000E+00; -5.0252620E-03;  1.0008088E+03;  1.1587207E-01;  6.7010291E+02;3; -5.5151911E+00;  0.0000000E+00;  3.0043869E+00;0; -4.4508345E-02;  2.9884699E+04;  0.0000000E+00;  5.7939500E-01;  4.0000000E+04;  0.0000000E+00;  3.9904746E+04; -6.1781120E-02;  0.0000000E+00;  1.7272774E-02;  9.9850256E+02;
  7.0350784E-01;  9.9999998E-03;  2.0026165E-01;6766; -1.1274600E-02;  0.0000000E+00; -4.6637892E-03;  1.0007890E+03;  1.1590143E-01;  6.5370831E+02;3; -4.0503254E+00;  0.0000000E+00;  2.7896779E+00;0; -5.1831670E-02;  2.9872633E+04;  0.0000000E+00;  5.4288405E-01;  4.0000000E+04;  0.0000000E+00;  3.9901734E+04; -7.1878679E-02;  0.0000000E+00;  2.0047009E-02;  7.3318658E+02;
  7.0358765E-01;  9.9999998E-03;  2.1028714E-01;6767; -1.3347103E-02;  0.0000000E+00; -4.6262746E-03;  1.0007171E+03;  1.1593702E-01;  5.9405585E+02;3; -2.1668863E+00;  0.0000000E+00;  2.6862106E+00;0; -5.9506156E-02;  2.9856354E+04;  0.0000000E+00;  4.2266637E-01;  4.0000000E+04;  0.0000000E+00;  3.9896664E+04; -8.1678838E-02;  0.0000000E+00;  2.2172682E-02;  5.8882709E+02;
  7.0370591E-01;  9.9999998E-03;  2.2029914E-01;6768; -1.5119080E-02;  0.0000000E+00; -4.5957360E-03;  1.0006309E+03;  1.1598000E-01;  5.2274939E+02;3; -1.4376172E+00;  0.0000000E+00;  2.9193156E+00;0; -6.7521788E-02;  2.9836355E+04;  0.0000000E+00;  1.7560963E-01;  4.0000000E+04;  0.0000000E+00;  3.9890676E+04; -9.1106616E-02;  0.0000000E+00;  2.3584826E-02;  1.1198635E+03;
  7.0384002E-01;  9.9999998E-03;  2.3028816E-01;6769; -1.6791031E-02;  0.0000000E+00; -4.4374922E-03;  1.0006136E+03;  1.1602523E-01;  5.0833008E+02;3; -8.9368761E-01;  0.0000000E+00;  3.1608653E+00;0; -7.5654969E-02;  2.9815852E+04;  0.0000000E+00; -2.6468050E-01;  4.0000000E+04;  0.0000000E+00;  3.9888730E+04; -1.0003813E-01;  0.0000000E+00;  2.4383167E-02;  1.6309602E+03;
  7.1644104E-01;  9.9999998E-03;  7.0214406E-02;6814;  2.5547303E-02;  0.0000000E+00; -3.4432921E-03;  9.9751123E+02;  1.1930852E-01; -2.0619111E+03;3; -1.5822735E+01;  0.0000000E+00;  9.0593511E-01;0; -4.6221454E-02;  2.8015904E+04;  0.0000000E+00;  2.0019719E-01;  4.0000000E+04;  0.0000000E+00;  3.9889762E+04; -2.0656198E-02;  0.0000000E+00; -2.5565255E-02;  1.4889656E+03;
  7.1643066E-01;  9.9999998E-03;  8.0238342E-02;6815;  2.3448037E-02;  0.0000000E+00; -3.8843425E-03;  9.9778821E+02;  1.1930950E-01; -1.8324368E+03;3; -1.5187449E+01;  0.0000000E+00;  1.0167416E+00;0; -4.6435762E-02;  2.8030062E+04;  0.0000000E+00;  2.5591117E-01;  4.0000000E+04;  0.0000000E+00;  3.9889602E+04; -2.3657298E-02;  0.0000000E+00; -2.2778464E-02;  1.4786569E+03;
  7.1640593E-01;  9.9999998E-03;  9.0261161E-02;6816;  2.1118717E-02;  0.0000000E+00; -4.2858487E-03;  9.9810284E+02;  1.1930961E-01; -1.5717535E+03;3; -1.4487699E+01;  0.0000000E+00;  1.1358591E+00;0; -4.6652343E-02;  2.8046963E+04;  0.0000000E+00;  3.1417993E-01;  4.0000000E+04;  0.0000000E+00;  3.9889582E+04; -2.7113998E-02;  0.0000000E+00; -1.9538345E-02;  1.4871276E+03;
  7.1636599E-01;  9.9999998E-03;  1.0028283E-01;6817;  1.8567441E-02;  0.0000000E+00; -4.6237195E-03;  9.9844556E+02;  1.1930964E-01; -1.2878118E+03;3; -1.3731352E+01;  0.0000000E+00;  1.2472124E+00;0; -4.6941373E-02;  2.8066039E+04;  0.0000000E+00;  3.7291160E-01;  4.0000000E+04;  0.0000000E+00;  3.9889750E+04; -3.1047458E-02;  0.0000000E+00; -1.5893916E-02;  1.5256968E+03;
  7.1631175E-01;  9.9999998E-03;  1.1030282E-01;6818;  1.5805025E-02;  0.0000000E+00; -4.8766173E-03;  9.9880548E+02;  1.1930831E-01; -9.8964819E+02;3; -1.2933777E+01;  0.0000000E+00;  1.3529737E+00;0; -4.7407523E-02;  2.8086139E+04;  0.0000000E+00;  4.3034348E-01;  4.0000000E+04;  0.0000000E+00;  3.9890184E+04; -3.5481080E-02;  0.0000000E+00; -1.1926443E-02;  1.5997742E+03;
  7.1624506E-01;  9.9999998E-03;  1.2032022E-01;6819;  1.2854129E-02;  0.0000000E+00; -5.0303093E-03;  9.9916400E+02;  1.1930776E-01; -6.9262042E+02;3; -1.2098536E+01;  0.0000000E+00;  1.4542868E+00;0; -4.8180141E-02;  2.8106232E+04;  0.0000000E+00;  4.8552176E-01;  4.0000000E+04;  0.0000000E+00;  3.9891012E+04; -4.0435463E-02;  0.0000000E+00; -7.7446774E-03;  1.7083317E+03;
  7.1617138E-01;  9.9999998E-03;  1.3033366E-01;6820;  9.7488156E-03;  0.0000000E+00; -5.0784578E-03;  9.9950012E+02;  1.1930741E-01; -4.1415994E+02;3; -1.1224586E+01;  0.0000000E+00;  1.5531790E+00;0; -4.9403366E-02;  2.8124721E+04;  0.0000000E+00;  5.3865838E-01;  4.0000000E+04;  0.0000000E+00;  3.9892332E+04; -4.5933820E-02;  0.0000000E+00; -3.4695470E-03;  1.8443680E+03;
  7.1609825E-01;  9.9999998E-03;  1.4034244E-01;6821;  6.5308353E-03;  0.0000000E+00; -5.0147842E-03;  9.9979559E+02;  1.1930969E-01; -1.6932806E+02;3; -1.0337657E+01;  0.0000000E+00;  1.6628225E+00;0; -5.1211242E-02;  2.8140389E+04;  0.0000000E+00;  5.9077680E-01;  4.0000000E+04;  0.0000000E+00;  3.9893516E+04; -5.1995240E-02;  0.0000000E+00;  7.8400032E-04;  1.9935676E+03;
  7.1603394E-01;  9.9999998E-03;  1.5034641E-01;6822;  3.2377492E-03;  0.0000000E+00; -4.8222300E-03;  1.0000404E+03;  1.1931574E-01;  3.3480438E+01;3; -9.4316282E+00;  0.0000000E+00;  1.7704068E+00;0; -5.3713072E-02;  2.8151408E+04;  0.0000000E+00;  6.4284122E-01;  4.0000000E+04;  0.0000000E+00;  3.9894652E+04; -5.8631368E-02;  0.0000000E+00;  4.9182964E-03;  2.1327983E+03;
  7.1598476E-01;  9.9999998E-03;  1.6034767E-01;6823; -8.7944303E-05;  0.0000000E+00; -4.4932468E-03;  1.0002194E+03;  1.1932738E-01;  1.8172273E+02;3; -8.4998331E+00;  0.0000000E+00;  1.8573906E+00;0; -5.6992047E-02;  2.8157188E+04;  0.0000000E+00;  6.9442344E-01;  4.0000000E+04;  0.0000000E+00;  3.9895312E+04; -6.5832235E-02;  0.0000000E+00;  8.8401893E-03;  2.2274675E+03;
  7.1595407E-01;  9.9999998E-03;  1.7034987E-01;6824; -3.3912263E-03;  0.0000000E+00; -4.0417714E-03;  1.0003309E+03;  1.1934349E-01;  2.7416431E+02;3; -7.5459208E+00;  0.0000000E+00;  1.9507583E+00;0; -6.1081767E-02;  2.8157410E+04;  0.0000000E+00;  7.4037677E-01;  4.0000000E+04;  0.0000000E+00;  3.9895184E+04; -7.3558383E-02;  0.0000000E+00;  1.2476617E-02;  2.2336782E+03;
  7.1594596E-01;  9.9999998E-03;  1.8035462E-01;6825; -6.6123442E-03;  0.0000000E+00; -3.4879041E-03;  1.0003784E+03;  1.1936563E-01;  3.1347171E+02;3; -6.5428915E+00;  0.0000000E+00;  2.0032024E+00;0; -6.5926932E-02;  2.8152402E+04;  0.0000000E+00;  7.7024686E-01;  4.0000000E+04;  0.0000000E+00;  3.9893887E+04; -8.1741668E-02;  0.0000000E+00;  1.5814736E-02;  2.1050154E+03;
  7.1596378E-01;  9.9999998E-03;  1.9036286E-01;6826; -9.6154977E-03;  0.0000000E+00; -2.9906384E-03;  1.0003759E+03;  1.1939431E-01;  3.1139771E+02;3; -5.4208288E+00;  0.0000000E+00;  1.9144102E+00;0; -7.1359225E-02;  2.8142475E+04;  0.0000000E+00;  7.6985520E-01;  4.0000000E+04;  0.0000000E+00;  3.9891027E+04; -9.0254858E-02;  0.0000000E+00;  1.8895634E-02;  1.7945127E+03;
  7.1600872E-01;  9.9999998E-03;  2.0037138E-01;6827; -1.2128840E-02;  0.0000000E+00; -2.8276609E-03;  1.0003312E+03;  1.1942913E-01;  2.7436182E+02;3; -3.8046589E+00;  0.0000000E+00;  1.4819819E+00;0; -7.7260084E-02;  2.8128930E+04;  0.0000000E+00;  7.2076380E-01;  4.0000000E+04;  0.0000000E+00;  3.9886367E+04; -9.8894067E-02;  0.0000000E+00;  2.1633983E-02;  1.2725990E+03;
  7.1607298E-01;  9.9999998E-03;  2.1037075E-01;6828; -1.4225630E-02;  0.0000000E+00; -2.7696192E-03;  1.0002672E+03;  1.1946734E-01;  2.2142520E+02;3; -2.5718431E+00;  0.0000000E+00;  1.7262896E+00;0; -8.3570562E-02;  2.8113688E+04;  0.0000000E+00;  5.9522772E-01;  4.0000000E+04;  0.0000000E+00;  3.9880086E+04; -1.0749494E-01;  0.0000000E+00;  2.3924373E-02;  6.5231927E+02;
  7.1614957E-01;  9.9999998E-03;  2.2034499E-01;6829; -1.6120950E-02;  0.0000000E+00; -2.6206991E-03;  1.0002550E+03;  1.1950695E-01;  2.1125269E+02;3; -1.8360697E+00;  0.0000000E+00;  2.0206084E+00;0; -9.0126045E-02;  2.8098701E+04;  0.0000000E+00;  3.4954923E-01;  4.0000000E+04;  0.0000000E+00;  3.9876645E+04; -1.1592688E-01;  0.0000000E+00;  2.5800841E-02;  3.0933755E+02;
  7.1623915E-01;  9.9999998E-03;  2.3030874E-01;6830; -1.7897606E-02;  0.0000000E+00; -2.2339982E-03;  1.0003535E+03;  1.1954892E-01;  2.9283038E+02;3; -1.1879399E+00;  0.0000000E+00;  2.2607136E+00;0; -9.6383259E-02;  2.8084340E+04;  0.0000000E+00; -8.5109353E-02;  4.0000000E+04;  0.0000000E+00;  3.9879562E+04; -1.2406667E-01;  0.0000000E+00;  2.7683415E-02;  8.1913940E+02;
  7.2853619E-01;  9.9999998E-03;  7.0201494E-02;6875;  2.4481544E-02;  0.0000000E+00; -2.2901327E-03;  9.9762488E+02;  1.2296373E-01; -1.9677400E+03;3; -1.5927954E+01;  0.0000000E+00;  3.4342089E-01;0; -7.2997987E-02;  2.6399688E+04;  0.0000000E+00;  3.2360598E-01;  4.0000000E+04;  0.0000000E+00;  3.9873016E+04; -6.1115112E-02;  0.0000000E+00; -1.1882871E-02;  2.0395665E+03;
  7.2852439E-01;  9.9999998E-03;  8.0230102E-02;6876;  2.2342434E-02;  0.0000000E+00; -2.5855100E-03;  9.9786877E+02;  1.2296522E-01; -1.7656724E+03;3; -1.5283212E+01;  0.0000000E+00;  4.0190533E-01;0; -7.3821843E-02;  2.6411238E+04;  0.0000000E+00;  4.0950936E-01;  4.0000000E+04;  0.0000000E+00;  3.9873195E+04; -6.3224606E-02;  0.0000000E+00; -1.0597235E-02;  2.0995681E+03;
  7.2849798E-01;  9.9999998E-03;  9.0258293E-02;6877;  1.9963278E-02;  0.0000000E+00; -2.8388170E-03;  9.9814111E+02;  1.2296683E-01; -1.5400498E+03;3; -1.4578522E+01;  0.0000000E+00;  4.6638411E-01;0; -7.4616909E-02;  2.6424961E+04;  0.0000000E+00;  4.9298835E-01;  4.0000000E+04;  0.0000000E+00;  3.9873367E+04; -6.5691903E-02;  0.0000000E+00; -8.9250039E-03;  2.1801409E+03;
  7.2845685E-01;  9.9999998E-03;  1.0028546E-01;6878;  1.7356746E-02;  0.0000000E+00; -3.0334278E-03;  9.9843848E+02;  1.2296668E-01; -1.2936874E+03;3; -1.3827971E+01;  0.0000000E+00;  5.4108274E-01;0; -7.5414859E-02;  2.6440182E+04;  0.0000000E+00;  5.6752080E-01;  4.0000000E+04;  0.0000000E+00;  3.9873828E+04; -6.8547703E-02;  0.0000000E+00; -6.8671531E-03;  2.2797817E+03;
  7.2839999E-01;  9.9999998E-03;  1.1031056E-01;6879;  1.4545612E-02;  0.0000000E+00; -3.1600813E-03;  9.9874036E+02;  1.2296603E-01; -1.0435718E+03;3; -1.3019101E+01;  0.0000000E+00;  6.0810667E-01;0; -7.6275766E-02;  2.6456090E+04;  0.0000000E+00;  6.2801641E-01;  4.0000000E+04;  0.0000000E+00;  3.9874707E+04; -7.1819283E-02;  0.0000000E+00; -4.4564810E-03;  2.3938689E+03;
  7.2833037E-01;  9.9999998E-03;  1.2033305E-01;6880;  1.1554398E-02;  0.0000000E+00; -3.2099856E-03;  9.9903351E+02;  1.2296565E-01; -8.0071533E+02;3; -1.2165791E+01;  0.0000000E+00;  6.8317378E-01;0; -7.7296823E-02;  2.6471691E+04;  0.0000000E+00;  6.7252117E-01;  4.0000000E+04;  0.0000000E+00;  3.9875684E+04; -7.5545639E-02;  0.0000000E+00; -1.7511855E-03;  2.5183630E+03;
  7.2825581E-01;  9.9999998E-03;  1.3035230E-01;6881;  8.4189819E-03;  0.0000000E+00; -3.1782629E-03;  9.9930231E+02;  1.2296689E-01; -5.7800635E+02;3; -1.1288441E+01;  0.0000000E+00;  7.6734078E-01;0; -7.8601621E-02;  2.6485225E+04;  0.0000000E+00;  7.0296729E-01;  4.0000000E+04;  0.0000000E+00;  3.9877160E+04; -7.9774529E-02;  0.0000000E+00;  1.1729053E-03;  2.6502593E+03;
  7.2818577E-01;  9.9999998E-03;  1.4036752E-01;6882;  5.1766736E-03;  0.0000000E+00; -3.0529480E-03;  9.9952759E+02;  1.2297189E-01; -3.9139499E+02;3; -1.0385547E+01;  0.0000000E+00;  8.5077560E-01;0; -8.0317229E-02;  2.6495131E+04;  0.0000000E+00;  7.2438943E-01;  4.0000000E+04;  0.0000000E+00;  3.9878492E+04; -8.4553145E-02;  0.0000000E+00;  4.2359191E-03;  2.7829875E+03;
  7.2813195E-01;  9.9999998E-03;  1.5037987E-01;6883;  1.8660933E-03;  0.0000000E+00; -2.8245291E-03;  9.9969855E+02;  1.2298306E-01; -2.4976985E+02;3; -9.4583292E+00;  0.0000000E+00;  9.2908537E-01;0; -8.2559988E-02;  2.6499668E+04;  0.0000000E+00;  7.4285847E-01;  4.0000000E+04;  0.0000000E+00;  3.9879777E+04; -8.9926794E-02;  0.0000000E+00;  7.3668025E-03;  2.9004907E+03;
  7.2810483E-01;  9.9999998E-03;  1.6039051E-01;6884; -1.4700423E-03;  0.0000000E+00; -2.4913740E-03;  9.9980389E+02;  1.2300246E-01; -1.6246397E+02;3; -8.5162325E+00;  0.0000000E+00;  9.9777824E-01;0; -8.5434288E-02;  2.6497553E+04;  0.0000000E+00;  7.6199543E-01;  4.0000000E+04;  0.0000000E+00;  3.9880488E+04; -9.5924951E-02;  0.0000000E+00;  1.0490665E-02;  2.9700891E+03;
  7.2811246E-01;  9.9999998E-03;  1.7040101E-01;6885; -4.7787256E-03;  0.0000000E+00; -2.0612390E-03;  9.9984906E+02;  1.2303347E-01; -1.2503307E+02;3; -7.5410447E+00;  0.0000000E+00;  1.0410450E+00;0; -8.9007989E-02;  2.6488334E+04;  0.0000000E+00;  7.7941120E-01;  4.0000000E+04;  0.0000000E+00;  3.9880270E+04; -1.0255023E-01;  0.0000000E+00;  1.3542245E-02;  2.9437202E+03;
  7.2815591E-01;  9.9999998E-03;  1.8040916E-01;6886; -7.9826172E-03;  0.0000000E+00; -1.5800651E-03;  9.9983392E+02;  1.2307444E-01; -1.3757588E+02;3; -6.5145073E+00;  0.0000000E+00;  1.0176439E+00;0; -9.3254954E-02;  2.6472605E+04;  0.0000000E+00;  7.8699076E-01;  4.0000000E+04;  0.0000000E+00;  3.9878793E+04; -1.0975233E-01;  0.0000000E+00;  1.6497375E-02;  2.7685605E+03;
  7.2822267E-01;  9.9999998E-03;  1.9041295E-01;6887; -1.0860170E-02;  0.0000000E+00; -1.2873015E-03;  9.9977380E+02;  1.2312029E-01; -1.8740146E+02;3; -5.1464381E+00;  0.0000000E+00;  6.3185078E-01;0; -9.8055892E-02;  2.6452910E+04;  0.0000000E+00;  7.7227271E-01;  4.0000000E+04;  0.0000000E+00;  3.9875512E+04; -1.1738782E-01;  0.0000000E+00;  1.9331934E-02;  2.4033447E+03;
  7.2829294E-01;  9.9999998E-03;  2.0041044E-01;6888; -1.3333071E-02;  0.0000000E+00; -1.1867248E-03;  9.9968854E+02;  1.2316702E-01; -2.5801651E+02;3; -3.8230345E+00;  0.0000000E+00;  6.5269560E-01;0; -1.0333358E-01;  2.6433004E+04;  0.0000000E+00;  7.1720845E-01;  4.0000000E+04;  0.0000000E+00;  3.9870953E+04; -1.2528555E-01;  0.0000000E+00;  2.1951977E-02;  1.8406951E+03;
  7.2833413E-01;  9.9999998E-03;  2.1038853E-01;6889; -1.5540361E-02;  0.0000000E+00; -1.0639167E-03;  9.9962085E+02;  1.2320403E-01; -3.1411349E+02;3; -2.9294486E+00;  0.0000000E+00;  8.5924512E-01;0; -1.0893469E-01;  2.6417992E+04;  0.0000000E+00;  5.9354848E-01;  4.0000000E+04;  0.0000000E+00;  3.9866809E+04; -1.3324994E-01;  0.0000000E+00;  2.4315253E-02;  1.2493303E+03;
  7.2834623E-01;  9.9999998E-03;  2.2034948E-01;6890; -1.7562602E-02;  0.0000000E+00; -7.9121272E-04;  9.9963171E+02;  1.2323035E-01; -3.0512613E+02;3; -2.1499822E+00;  0.0000000E+00;  1.0910376E+00;0; -1.1462430E-01;  2.6408695E+04;  0.0000000E+00;  3.5698080E-01;  4.0000000E+04;  0.0000000E+00;  3.9866590E+04; -1.4113428E-01;  0.0000000E+00;  2.6509976E-02;  1.1151608E+03;
  7.2833312E-01;  9.9999998E-03;  2.3031165E-01;6891; -1.9442396E-02;  0.0000000E+00; -1.8134918E-04;  9.9977344E+02;  1.2324753E-01; -1.8769774E+02;3; -1.4437432E+00;  0.0000000E+00;  1.3950135E+00;0; -1.1954073E-01;  2.6405045E+04;  0.0000000E+00; -6.0083613E-02;  4.0000000E+04;  0.0000000E+00;  3.9873520E+04; -1.4879534E-01;  0.0000000E+00;  2.9254606E-02;  2.1687905E+03;
  7.4071544E-01;  9.9999998E-03;  7.0177689E-02;6936;  2.3168139E-02;  0.0000000E+00; -9.7102078E-04;  9.9769440E+02;  1.2682088E-01; -1.9101602E+03;3; -1.6008530E+01;  0.0000000E+00; -3.1691295E-01;0; -9.0294860E-02;  2.4835598E+04;  0.0000000E+00;  3.7113994E-01;  4.0000000E+04;  0.0000000E+00;  3.9855965E+04; -9.4079085E-02;  0.0000000E+00;  3.7842251E-03;  2.5726167E+03;
  7.4068397E-01;  9.9999998E-03;  8.0210507E-02;6937;  2.0976415E-02;  0.0000000E+00; -1.0985442E-03;  9.9785809E+02;  1.2681827E-01; -1.7745103E+03;3; -1.5359113E+01;  0.0000000E+00; -3.0662364E-01;0; -9.2337959E-02;  2.4845309E+04;  0.0000000E+00;  4.6654376E-01;  4.0000000E+04;  0.0000000E+00;  3.9856281E+04; -9.5559292E-02;  0.0000000E+00;  3.2213354E-03;  2.6745928E+03;
  7.4064046E-01;  9.9999998E-03;  9.0243652E-02;6938;  1.8535707E-02;  0.0000000E+00; -1.1887838E-03;  9.9804181E+02;  1.2681587E-01; -1.6223176E+03;3; -1.4649037E+01;  0.0000000E+00; -2.7918330E-01;0; -9.4378822E-02;  2.4856162E+04;  0.0000000E+00;  5.5367237E-01;  4.0000000E+04;  0.0000000E+00;  3.9856598E+04; -9.7349033E-02;  0.0000000E+00;  2.9702133E-03;  2.7829707E+03;
  7.4058378E-01;  9.9999998E-03;  1.0027649E-01;6939;  1.5866892E-02;  0.0000000E+00; -1.2355632E-03;  9.9823688E+02;  1.2681322E-01; -1.4606932E+03;3; -1.3886836E+01;  0.0000000E+00; -2.3878498E-01;0; -9.6398547E-02;  2.4867650E+04;  0.0000000E+00;  6.2256604E-01;  4.0000000E+04;  0.0000000E+00;  3.9857039E+04; -9.9483214E-02;  0.0000000E+00;  3.0846680E-03;  2.8874717E+03;
  7.4051750E-01;  9.9999998E-03;  1.1030757E-01;6940;  1.2998383E-02;  0.0000000E+00; -1.2366716E-03;  9.9843665E+02;  1.2681216E-01; -1.2952172E+03;3; -1.3074284E+01;  0.0000000E+00; -1.8879943E-01;0; -9.8415740E-02;  2.4878643E+04;  0.0000000E+00;  6.6606623E-01;  4.0000000E+04;  0.0000000E+00;  3.9857711E+04; -1.0201044E-01;  0.0000000E+00;  3.5946958E-03;  2.9794180E+03;
  7.4044907E-01;  9.9999998E-03;  1.2033690E-01;6941;  9.9575473E-03;  0.0000000E+00; -1.1837584E-03;  9.9861938E+02;  1.2681478E-01; -1.1438147E+03;3; -1.2214959E+01;  0.0000000E+00; -1.3565592E-01;0; -1.0048856E-01;  2.4887518E+04;  0.0000000E+00;  6.8247336E-01;  4.0000000E+04;  0.0000000E+00;  3.9858629E+04; -1.0498977E-01;  0.0000000E+00;  4.5012115E-03;  3.0575742E+03;
  7.4038649E-01;  9.9999998E-03;  1.3036382E-01;6942;  6.7769778E-03;  0.0000000E+00; -1.0690182E-03;  9.9877679E+02;  1.2682250E-01; -1.0133992E+03;3; -1.1326620E+01;  0.0000000E+00; -7.5344309E-02;0; -1.0270390E-01;  2.4892951E+04;  0.0000000E+00;  6.7645311E-01;  4.0000000E+04;  0.0000000E+00;  3.9859656E+04; -1.0848209E-01;  0.0000000E+00;  5.7781893E-03;  3.1276145E+03;
  7.4033749E-01;  9.9999998E-03;  1.4038584E-01;6943;  3.4985496E-03;  0.0000000E+00; -8.9457916E-04;  9.9889447E+02;  1.2683751E-01; -9.1592090E+02;3; -1.0413627E+01;  0.0000000E+00; -1.6118798E-02;0; -1.0515931E-01;  2.4893818E+04;  0.0000000E+00;  6.5761405E-01;  4.0000000E+04;  0.0000000E+00;  3.9860734E+04; -1.1254440E-01;  0.0000000E+00;  7.3850928E-03;  3.1945371E+03;
  7.4030924E-01;  9.9999998E-03;  1.5039998E-01;6944;  1.6163805E-04;  0.0000000E+00; -6.5595872E-04;  9.9895563E+02;  1.2686001E-01; -8.6525586E+02;3; -9.4757404E+00;  0.0000000E+00;  3.4589902E-02;0; -1.0794904E-01;  2.4889088E+04;  0.0000000E+00;  6.3710505E-01;  4.0000000E+04;  0.0000000E+00;  3.9861629E+04; -1.1722831E-01;  0.0000000E+00;  9.2792707E-03;  3.2515947E+03;
  7.4030399E-01;  9.9999998E-03;  1.6040720E-01;6945; -3.1888189E-03;  0.0000000E+00; -3.5669334E-04;  9.9895905E+02;  1.2688968E-01; -8.6239178E+02;3; -8.5215178E+00;  0.0000000E+00;  7.8535549E-02;0; -1.1116382E-01;  2.4878781E+04;  0.0000000E+00;  6.2239528E-01;  4.0000000E+04;  0.0000000E+00;  3.9861992E+04; -1.2257013E-01;  0.0000000E+00;  1.1406308E-02;  3.2716270E+03;
  7.4031800E-01;  9.9999998E-03;  1.7040910E-01;6946; -6.4927284E-03;  0.0000000E+00; -1.5764701E-05;  9.9890778E+02;  1.2692511E-01; -9.0485956E+02;3; -7.5301180E+00;  0.0000000E+00;  8.0842197E-02;0; -1.1486616E-01;  2.4863932E+04;  0.0000000E+00;  6.1402369E-01;  4.0000000E+04;  0.0000000E+00;  3.9861652E+04; -1.2857321E-01;  0.0000000E+00;  1.3707050E-02;  3.2144973E+03;
  7.4034899E-01;  9.9999998E-03;  1.8040641E-01;6947; -9.6073970E-03;  0.0000000E+00;  2.3711960E-04;  9.9880664E+02;  1.2696466E-01; -9.8865930E+02;3; -6.3104525E+00;  0.0000000E+00; -1.6942056E-01;0; -1.1907645E-01;  2.4845576E+04;  0.0000000E+00;  6.0511649E-01;  4.0000000E+04;  0.0000000E+00;  3.9860211E+04; -1.3520332E-01;  0.0000000E+00;  1.6126866E-02;  3.0479316E+03;
  7.4039680E-01;  9.9999998E-03;  1.9040042E-01;6948; -1.2415473E-02;  0.0000000E+00;  3.2032738E-04;  9.9868164E+02;  1.2700824E-01; -1.0922115E+03;3; -5.1123652E+00;  0.0000000E+00; -2.6073730E-01;0; -1.2381032E-01;  2.4824893E+04;  0.0000000E+00;  5.8244503E-01;  4.0000000E+04;  0.0000000E+00;  3.9857922E+04; -1.4238937E-01;  0.0000000E+00;  1.8579049E-02;  2.7664146E+03;
  7.4042273E-01;  9.9999998E-03;  2.0038077E-01;6949; -1.4967782E-02;  0.0000000E+00;  3.9023536E-04;  9.9856268E+02;  1.2704276E-01; -1.1907762E+03;3; -4.0895972E+00;  0.0000000E+00; -1.6895549E-01;0; -1.2897392E-01;  2.4807576E+04;  0.0000000E+00;  5.2793670E-01;  4.0000000E+04;  0.0000000E+00;  3.9855758E+04; -1.4994909E-01;  0.0000000E+00;  2.0975174E-02;  2.4738149E+03;
  7.4041754E-01;  9.9999998E-03;  2.1035010E-01;6950; -1.7316544E-02;  0.0000000E+00;  5.5217271E-04;  9.9848608E+02;  1.2706575E-01; -1.2542310E+03;3; -3.2098527E+00;  0.0000000E+00; -2.0568259E-02;0; -1.3446733E-01;  2.4795371E+04;  0.0000000E+00;  4.1816428E-01;  4.0000000E+04;  0.0000000E+00;  3.9855398E+04; -1.5772249E-01;  0.0000000E+00;  2.3255149E-02;  2.4257056E+03;
  7.4039316E-01;  9.9999998E-03;  2.2031990E-01;6951; -1.9478377E-02;  0.0000000E+00;  8.9032546E-04;  9.9850208E+02;  1.2708332E-01; -1.2409968E+03;3; -2.3997388E+00;  0.0000000E+00;  2.4573292E-01;0; -1.4008127E-01;  2.4787301E+04;  0.0000000E+00;  2.2459435E-01;  4.0000000E+04;  0.0000000E+00;  3.9859590E+04; -1.6556658E-01;  0.0000000E+00;  2.5485305E-02;  2.9592458E+03;
  7.4033743E-01;  9.9999998E-03;  2.3030104E-01;6952; -2.1470973E-02;  0.0000000E+00;  1.6111905E-03;  9.9863470E+02;  1.2709065E-01; -1.1311238E+03;3; -1.6369977E+00;  0.0000000E+00;  4.5989826E-01;0; -1.4478357E-01;  2.4784992E+04;  0.0000000E+00; -8.4885798E-02;  4.0000000E+04;  0.0000000E+00;  3.9869555E+04; -1.7328101E-01;  0.0000000E+00;  2.8497444E-02;  4.2923418E+03;
  7.5367373E-01;  9.9999998E-03;  7.0191190E-02;6997;  2.1506405E-02;  0.0000000E+00;  7.0580916E-04;  9.9766522E+02;  1.3108909E-01; -1.9343059E+03;3; -1.6090015E+01;  0.0000000E+00; -1.1072798E+00;0; -9.7837850E-02;  2.3253396E+04;  0.0000000E+00;  3.2415342E-01;  4.0000000E+04;  0.0000000E+00;  3.9836539E+04; -1.2022555E-01;  0.0000000E+00;  2.2387700E-02;  2.9755020E+03;
  7.5364327E-01;  9.9999998E-03;  8.0225095E-02;6998;  1.9249190E-02;  0.0000000E+00;  7.5610273E-04;  9.9773572E+02;  1.3108957E-01; -1.8758881E+03;3; -1.5459472E+01;  0.0000000E+00; -1.1119993E+00;0; -1.0186692E-01;  2.3258621E+04;  0.0000000E+00;  4.0507928E-01;  4.0000000E+04;  0.0000000E+00;  3.9837074E+04; -1.2142328E-01;  0.0000000E+00;  1.9556362E-02;  3.0971208E+03;
  7.5358164E-01;  9.9999998E-03;  9.0261593E-02;6999;  1.6743908E-02;  0.0000000E+00;  8.3275925E-04;  9.9780823E+02;  1.3108484E-01; -1.8158407E+03;3; -1.4739751E+01;  0.0000000E+00; -1.1181204E+00;0; -1.0595872E-01;  2.3265895E+04;  0.0000000E+00;  4.7309744E-01;  4.0000000E+04;  0.0000000E+00;  3.9837488E+04; -1.2287095E-01;  0.0000000E+00;  1.6912233E-02;  3.1949556E+03;
  7.5349540E-01;  9.9999998E-03;  1.0029714E-01;7000;  1.4012473E-02;  0.0000000E+00;  9.3915663E-04;  9.9787518E+02;  1.3107738E-01; -1.7603857E+03;3; -1.3965486E+01;  0.0000000E+00; -1.1028500E+00;0; -1.1002392E-01;  2.3274227E+04;  0.0000000E+00;  5.1665545E-01;  4.0000000E+04;  0.0000000E+00;  3.9837773E+04; -1.2462191E-01;  0.0000000E+00;  1.4597992E-02;  3.2556582E+03;
  7.5339597E-01;  9.9999998E-03;  1.1032573E-01;7001;  1.1083991E-02;  0.0000000E+00;  1.0738547E-03;  9.9793536E+02;  1.3107082E-01; -1.7105109E+03;3; -1.3138258E+01;  0.0000000E+00; -1.0821271E+00;0; -1.1401302E-01;  2.3282096E+04;  0.0000000E+00;  5.2815419E-01;  4.0000000E+04;  0.0000000E+00;  3.9838000E+04; -1.2674293E-01;  0.0000000E+00;  1.2729916E-02;  3.2751655E+03;
  7.5328940E-01;  9.9999998E-03;  1.2034566E-01;7002;  7.9935463E-03;  0.0000000E+00;  1.2282298E-03;  9.9798102E+02;  1.3106591E-01; -1.6726849E+03;3; -1.2272538E+01;  0.0000000E+00; -1.0511358E+00;0; -1.1791623E-01;  2.3288387E+04;  0.0000000E+00;  5.0750506E-01;  4.0000000E+04;  0.0000000E+00;  3.9838344E+04; -1.2929784E-01;  0.0000000E+00;  1.1381604E-02;  3.2621079E+03;
  7.5318521E-01;  9.9999998E-03;  1.3036127E-01;7003;  4.7757020E-03;  0.0000000E+00;  1.3993605E-03;  9.9800232E+02;  1.3106416E-01; -1.6550559E+03;3; -1.1374120E+01;  0.0000000E+00; -1.0133947E+00;0; -1.2176767E-01;  2.3292230E+04;  0.0000000E+00;  4.6284330E-01;  4.0000000E+04;  0.0000000E+00;  3.9838828E+04; -1.3236086E-01;  0.0000000E+00;  1.0593188E-02;  3.2359722E+03;
  7.5309455E-01;  9.9999998E-03;  1.4037365E-01;7004;  1.4675807E-03;  0.0000000E+00;  1.5870283E-03;  9.9798804E+02;  1.3106808E-01; -1.6668580E+03;3; -1.0442402E+01;  0.0000000E+00; -9.8126233E-01;0; -1.2563385E-01;  2.3292322E+04;  0.0000000E+00;  4.0813738E-01;  4.0000000E+04;  0.0000000E+00;  3.9839227E+04; -1.3601153E-01;  0.0000000E+00;  1.0377673E-02;  3.2155332E+03;
  7.5302672E-01;  9.9999998E-03;  1.5038140E-01;7005; -1.8898558E-03;  0.0000000E+00;  1.7915992E-03;  9.9793378E+02;  1.3107784E-01; -1.7117948E+03;3; -9.4967918E+00;  0.0000000E+00; -9.4782662E-01;0; -1.2959705E-01;  2.3287938E+04;  0.0000000E+00;  3.5851514E-01;  4.0000000E+04;  0.0000000E+00;  3.9839574E+04; -1.4032501E-01;  0.0000000E+00;  1.0727959E-02;  3.2039922E+03;
  7.5302029E-01;  9.9999998E-03;  1.6038278E-01;7006; -5.2525620E-03;  0.0000000E+00;  2.0099333E-03;  9.9784363E+02;  1.3110638E-01; -1.7865083E+03;3; -8.5132141E+00;  0.0000000E+00; -9.4472921E-01;0; -1.3380840E-01;  2.3275477E+04;  0.0000000E+00;  3.2331467E-01;  4.0000000E+04;  0.0000000E+00;  3.9839473E+04; -1.4541487E-01;  0.0000000E+00;  1.1606475E-02;  3.1820801E+03;
  7.5308883E-01;  9.9999998E-03;  1.7037587E-01;7007; -8.5133817E-03;  0.0000000E+00;  2.1540655E-03;  9.9772205E+02;  1.3115561E-01; -1.8872457E+03;3; -7.3831358E+00;  0.0000000E+00; -1.1166860E+00;0; -1.3839841E-01;  2.3254074E+04;  0.0000000E+00;  3.0387023E-01;  4.0000000E+04;  0.0000000E+00;  3.9838820E+04; -1.5133172E-01;  0.0000000E+00;  1.2933307E-02;  3.1234641E+03;
  7.5319058E-01;  9.9999998E-03;  1.8036425E-01;7008; -1.1590128E-02;  0.0000000E+00;  2.1804234E-03;  9.9757471E+02;  1.3121335E-01; -2.0093157E+03;3; -6.2873507E+00;  0.0000000E+00; -1.1785462E+00;0; -1.4340059E-01;  2.3228199E+04;  0.0000000E+00;  2.9321805E-01;  4.0000000E+04;  0.0000000E+00;  3.9837770E+04; -1.5800805E-01;  0.0000000E+00;  1.4607455E-02;  3.0297114E+03;
  7.5330520E-01;  9.9999998E-03;  1.9035102E-01;7009; -1.4484575E-02;  0.0000000E+00;  2.1824255E-03;  9.9741858E+02;  1.3127424E-01; -2.1386448E+03;3; -5.2536263E+00;  0.0000000E+00; -1.1468605E+00;0; -1.4885372E-01;  2.3200238E+04;  0.0000000E+00;  2.7623311E-01;  4.0000000E+04;  0.0000000E+00;  3.9836746E+04; -1.6536210E-01;  0.0000000E+00;  1.6508382E-02;  2.9524526E+03;
  7.5340754E-01;  9.9999998E-03;  2.0033441E-01;7010; -1.7203592E-02;  0.0000000E+00;  2.2139456E-03;  9.9727863E+02;  1.3133118E-01; -2.2545916E+03;3; -4.3113546E+00;  0.0000000E+00; -1.0543166E+00;0; -1.5475745E-01;  2.3173672E+04;  0.0000000E+00;  2.3434027E-01;  4.0000000E+04;  0.0000000E+00;  3.9836957E+04; -1.7324547E-01;  0.0000000E+00;  1.8488025E-02;  3.0254465E+03;
  7.5348288E-01;  9.9999998E-03;  2.1032189E-01;7011; -1.9742314E-02;  0.0000000E+00;  2.3316715E-03;  9.9719159E+02;  1.3137913E-01; -2.3266880E+03;3; -3.4188712E+00;  0.0000000E+00; -9.2324865E-01;0; -1.6108657E-01;  2.3150572E+04;  0.0000000E+00;  1.5152420E-01;  4.0000000E+04;  0.0000000E+00;  3.9839539E+04; -1.8148293E-01;  0.0000000E+00;  2.0396354E-02;  3.4129458E+03;
  7.5353116E-01;  9.9999998E-03;  2.2031756E-01;7012; -2.2100585E-02;  0.0000000E+00;  2.6554111E-03;  9.9718341E+02;  1.3141972E-01; -2.3335024E+03;3; -2.5729115E+00;  0.0000000E+00; -7.8401500E-01;0; -1.6762194E-01;  2.3131699E+04;  0.0000000E+00;  2.1707142E-02;  4.0000000E+04;  0.0000000E+00;  3.9845793E+04; -1.8988965E-01;  0.0000000E+00;  2.2267712E-02;  4.2702021E+03;
  7.5354433E-01;  9.9999998E-03;  2.3032176E-01;7013; -2.4261314E-02;  0.0000000E+00;  3.3468592E-03;  9.9727643E+02;  1.3144854E-01; -2.2564187E+03;3; -1.7785860E+00;  0.0000000E+00; -5.7541394E-01;0; -1.7348693E-01;  2.3118508E+04;  0.0000000E+00; -1.4059992E-01;  4.0000000E+04;  0.0000000E+00;  3.9857098E+04; -1.9825841E-01;  0.0000000E+00;  2.4771478E-02;  5.7319541E+03;
  7.6770175E-01;  9.9999998E-03;  7.0055984E-02;7058;  1.9478196E-02;  0.0000000E+00;  2.9494716E-03;  9.9751001E+02;  1.3595854E-01; -2.0628916E+03;3; -1.6222172E+01;  0.0000000E+00; -2.0453916E+00;0; -8.8272557E-02;  2.1618965E+04;  0.0000000E+00;  1.7088749E-01;  4.0000000E+04;  0.0000000E+00;  3.9813168E+04; -1.3304505E-01;  0.0000000E+00;  4.4772487E-02;  3.1305850E+03;
  7.6760334E-01;  9.9999998E-03;  8.0074154E-02;7059;  1.7166207E-02;  0.0000000E+00;  3.1863295E-03;  9.9750433E+02;  1.3594279E-01; -2.0675830E+03;3; -1.5581295E+01;  0.0000000E+00; -2.0795510E+00;0; -9.5339097E-02;  2.1627088E+04;  0.0000000E+00;  2.1393426E-01;  4.0000000E+04;  0.0000000E+00;  3.9814152E+04; -1.3439405E-01;  0.0000000E+00;  3.9054953E-02;  3.2728264E+03;
  7.6747161E-01;  9.9999998E-03;  9.0096720E-02;7060;  1.4601012E-02;  0.0000000E+00;  3.4166279E-03;  9.9747699E+02;  1.3591842E-01; -2.0902488E+03;3; -1.4864818E+01;  0.0000000E+00; -2.0955722E+00;0; -1.0257606E-01;  2.1637350E+04;  0.0000000E+00;  2.4454811E-01;  4.0000000E+04;  0.0000000E+00;  3.9814836E+04; -1.3600077E-01;  0.0000000E+00;  3.3424709E-02;  3.3509619E+03;
  7.6730621E-01;  9.9999998E-03;  1.0012294E-01;7061;  1.1815026E-02;  0.0000000E+00;  3.6495246E-03;  9.9743542E+02;  1.3588737E-01; -2.1246675E+03;3; -1.4087538E+01;  0.0000000E+00; -2.1000366E+00;0; -1.0979268E-01;  2.1649635E+04;  0.0000000E+00;  2.5289595E-01;  4.0000000E+04;  0.0000000E+00;  3.9815105E+04; -1.3789904E-01;  0.0000000E+00;  2.8106360E-02;  3.3509607E+03;
  7.6711917E-01;  9.9999998E-03;  1.1015496E-01;7062;  8.8379495E-03;  0.0000000E+00;  3.8784125E-03;  9.9737842E+02;  1.3585424E-01; -2.1719250E+03;3; -1.3255670E+01;  0.0000000E+00; -2.0805118E+00;0; -1.1682956E-01;  2.1662711E+04;  0.0000000E+00;  2.3278134E-01;  4.0000000E+04;  0.0000000E+00;  3.9814762E+04; -1.4013807E-01;  0.0000000E+00;  2.3308512E-02;  3.2798091E+03;
  7.6693672E-01;  9.9999998E-03;  1.2018795E-01;7063;  5.7046628E-03;  0.0000000E+00;  4.0910491E-03;  9.9731476E+02;  1.3582350E-01; -2.2246641E+03;3; -1.2373497E+01;  0.0000000E+00; -2.0664048E+00;0; -1.2357688E-01;  2.1673863E+04;  0.0000000E+00;  1.8504250E-01;  4.0000000E+04;  0.0000000E+00;  3.9814340E+04; -1.4278315E-01;  0.0000000E+00;  1.9206269E-02;  3.1663477E+03;
  7.6681191E-01;  9.9999998E-03;  1.3021705E-01;7064;  2.4427283E-03;  0.0000000E+00;  4.2925710E-03;  9.9723877E+02;  1.3581261E-01; -2.2876248E+03;3; -1.1455524E+01;  0.0000000E+00; -2.0476818E+00;0; -1.2999579E-01;  2.1678143E+04;  0.0000000E+00;  1.1872226E-01;  4.0000000E+04;  0.0000000E+00;  3.9813770E+04; -1.4591916E-01;  0.0000000E+00;  1.5923364E-02;  3.0484890E+03;
  7.6680136E-01;  9.9999998E-03;  1.4024159E-01;7065; -9.2029903E-04;  0.0000000E+00;  4.4840584E-03;  9.9716937E+02;  1.3583882E-01; -2.3451042E+03;3; -1.0510816E+01;  0.0000000E+00; -2.0341711E+00;0; -1.3613594E-01;  2.1670334E+04;  0.0000000E+00;  4.9283061E-02;  4.0000000E+04;  0.0000000E+00;  3.9813164E+04; -1.4964300E-01;  0.0000000E+00;  1.3507074E-02;  2.9532678E+03;
  7.6681787E-01;  9.9999998E-03;  1.5026246E-01;7066; -4.3196245E-03;  0.0000000E+00;  4.6273223E-03;  9.9707751E+02;  1.3587239E-01; -2.4212004E+03;3; -9.5128326E+00;  0.0000000E+00; -2.0682328E+00;0; -1.4207780E-01;  2.1658482E+04;  0.0000000E+00; -4.4170218E-03;  4.0000000E+04;  0.0000000E+00;  3.9812422E+04; -1.5400982E-01;  0.0000000E+00;  1.1932014E-02;  2.8882937E+03;
  7.6683861E-01;  9.9999998E-03;  1.6027921E-01;7067; -7.6712235E-03;  0.0000000E+00;  4.6709604E-03;  9.9695654E+02;  1.3590533E-01; -2.5214438E+03;3; -8.4483490E+00;  0.0000000E+00; -2.1652503E+00;0; -1.4791059E-01;  2.1644676E+04;  0.0000000E+00; -3.1473283E-02;  4.0000000E+04;  0.0000000E+00;  3.9811918E+04; -1.5909366E-01;  0.0000000E+00;  1.1183075E-02;  2.8448840E+03;
  7.6686364E-01;  9.9999998E-03;  1.7029394E-01;7068; -1.0933093E-02;  0.0000000E+00;  4.6302159E-03;  9.9680688E+02;  1.3593858E-01; -2.6454397E+03;3; -7.4022875E+00;  0.0000000E+00; -2.1889379E+00;0; -1.5376054E-01;  2.1628895E+04;  0.0000000E+00; -3.1944901E-02;  4.0000000E+04;  0.0000000E+00;  3.9810980E+04; -1.6495644E-01;  0.0000000E+00;  1.1195897E-02;  2.8185383E+03;
  7.6694924E-01;  9.9999998E-03;  1.8030030E-01;7069; -1.4091982E-02;  0.0000000E+00;  4.5580389E-03;  9.9665729E+02;  1.3599007E-01; -2.7693367E+03;3; -6.3794656E+00;  0.0000000E+00; -2.1812465E+00;0; -1.5979341E-01;  2.1606322E+04;  0.0000000E+00; -1.7365647E-02;  4.0000000E+04;  0.0000000E+00;  3.9810699E+04; -1.7162611E-01;  0.0000000E+00;  1.1832698E-02;  2.8356545E+03;
  7.6706499E-01;  9.9999998E-03;  1.9030523E-01;7070; -1.7134661E-02;  0.0000000E+00;  4.4906326E-03;  9.9651361E+02;  1.3605022E-01; -2.8883943E+03;3; -5.4031200E+00;  0.0000000E+00; -2.1384928E+00;0; -1.6614470E-01;  2.1580020E+04;  0.0000000E+00; -7.0985644E-03;  4.0000000E+04;  0.0000000E+00;  3.9811207E+04; -1.7905731E-01;  0.0000000E+00;  1.2912623E-02;  2.9728425E+03;
  7.6718342E-01;  9.9999998E-03;  2.0031154E-01;7071; -2.0041008E-02;  0.0000000E+00;  4.4566086E-03;  9.9639758E+02;  1.3611162E-01; -2.9845391E+03;3; -4.4601631E+00;  0.0000000E+00; -2.0737488E+00;0; -1.7292553E-01;  2.1553119E+04;  0.0000000E+00; -2.3539798E-02;  4.0000000E+04;  0.0000000E+00;  3.9813609E+04; -1.8714371E-01;  0.0000000E+00;  1.4218177E-02;  3.3475337E+03;
  7.6729554E-01;  9.9999998E-03;  2.1033093E-01;7072; -2.2794327E-02;  0.0000000E+00;  4.4973320E-03;  9.9633020E+02;  1.3616984E-01; -3.0403396E+03;3; -3.5529752E+00;  0.0000000E+00; -1.9911233E+00;0; -1.8023406E-01;  2.1527207E+04;  0.0000000E+00; -8.2817070E-02;  4.0000000E+04;  0.0000000E+00;  3.9818254E+04; -1.9574374E-01;  0.0000000E+00;  1.5509683E-02;  3.9970156E+03;
  7.6739728E-01;  9.9999998E-03;  2.2036149E-01;7073; -2.5378959E-02;  0.0000000E+00;  4.6966751E-03;  9.9631232E+02;  1.3622671E-01; -3.0551541E+03;3; -2.6813757E+00;  0.0000000E+00; -1.8718202E+00;0; -1.8802091E-01;  2.1502986E+04;  0.0000000E+00; -1.8417072E-01;  4.0000000E+04;  0.0000000E+00;  3.9824980E+04; -2.0466202E-01;  0.0000000E+00;  1.6641112E-02;  4.9052573E+03;
  7.6743692E-01;  9.9999998E-03;  2.3039600E-01;7074; -2.7755555E-02;  0.0000000E+00;  5.1898211E-03;  9.9634955E+02;  1.3626291E-01; -3.0242908E+03;3; -1.8584179E+00;  0.0000000E+00; -1.7117996E+00;0; -1.9568020E-01;  2.1486041E+04;  0.0000000E+00; -2.9388791E-01;  4.0000000E+04;  0.0000000E+00;  3.9834148E+04; -2.1366338E-01;  0.0000000E+00;  1.7983180E-02;  6.0784058E+03;
  7.8128910E-01;  9.9999998E-03;  7.0033796E-02;7119;  1.7231278E-02;  0.0000000E+00;  5.5930046E-03;  9.9686243E+02;  1.4102650E-01; -2.5994126E+03;3; -1.6340687E+01;  0.0000000E+00; -3.0415301E+00;0; -4.8354030E-02;  2.0074752E+04;  0.0000000E+00; -2.6330521E-02;  4.0000000E+04;  0.0000000E+00;  3.9786105E+04; -1.1698004E-01;  0.0000000E+00;  6.8626009E-02;  2.8810522E+03;
  7.8126800E-01;  9.9999998E-03;  8.0021493E-02;7120;  1.4857437E-02;  0.0000000E+00;  6.0462048E-03;  9.9686548E+02;  1.4103180E-01; -2.5968943E+03;3; -1.5708793E+01;  0.0000000E+00; -3.1306741E+00;0; -5.8825176E-02;  2.0077162E+04;  0.0000000E+00; -3.1419642E-02;  4.0000000E+04;  0.0000000E+00;  3.9787945E+04; -1.1892980E-01;  0.0000000E+00;  6.0104627E-02;  3.1018708E+03;
  7.8132880E-01;  9.9999998E-03;  9.0015747E-02;7121;  1.2203067E-02;  0.0000000E+00;  6.4745704E-03;  9.9686707E+02;  1.4106877E-01; -2.5955610E+03;3; -1.5018171E+01;  0.0000000E+00; -3.1534514E+00;0; -6.9187552E-02;  2.0071127E+04;  0.0000000E+00; -4.6479762E-02;  4.0000000E+04;  0.0000000E+00;  3.9788809E+04; -1.2086403E-01;  0.0000000E+00;  5.1676471E-02;  3.2189854E+03;
  7.8138715E-01;  9.9999998E-03;  1.0002464E-01;7122;  9.3186414E-03;  0.0000000E+00;  6.8756863E-03;  9.9685205E+02;  1.4111012E-01; -2.6080049E+03;3; -1.4224151E+01;  0.0000000E+00; -3.1921146E+00;0; -7.9546735E-02;  2.0064191E+04;  0.0000000E+00; -7.5536646E-02;  4.0000000E+04;  0.0000000E+00;  3.9788562E+04; -1.2301494E-01;  0.0000000E+00;  4.3468211E-02;  3.2108840E+03;
  7.8139758E-01;  9.9999998E-03;  1.1005087E-01;7123;  6.2532998E-03;  0.0000000E+00;  7.2332514E-03;  9.9680945E+02;  1.4113750E-01; -2.6433123E+03;3; -1.3378323E+01;  0.0000000E+00; -3.2014003E+00;0; -8.9822561E-02;  2.0060391E+04;  0.0000000E+00; -1.1984960E-01;  4.0000000E+04;  0.0000000E+00;  3.9787676E+04; -1.2552054E-01;  0.0000000E+00;  3.5697985E-02;  3.0923225E+03;
  7.8137594E-01;  9.9999998E-03;  1.2008957E-01;7124;  3.0408022E-03;  0.0000000E+00;  7.5237858E-03;  9.9675275E+02;  1.4115535E-01; -2.6902737E+03;3; -1.2488175E+01;  0.0000000E+00; -3.2064369E+00;0; -9.9736296E-02;  2.0058754E+04;  0.0000000E+00; -1.7609674E-01;  4.0000000E+04;  0.0000000E+00;  3.9786148E+04; -1.2837356E-01;  0.0000000E+00;  2.8637270E-02;  2.9105115E+03;
  7.8134298E-01;  9.9999998E-03;  1.3013083E-01;7125; -2.8199071E-04;  0.0000000E+00;  7.7362657E-03;  9.9668390E+02;  1.4116743E-01; -2.7473086E+03;3; -1.1549007E+01;  0.0000000E+00; -3.2152236E+00;0; -1.0907675E-01;  2.0057521E+04;  0.0000000E+00; -2.3445228E-01;  4.0000000E+04;  0.0000000E+00;  3.9784414E+04; -1.3157699E-01;  0.0000000E+00;  2.2500228E-02;  2.7207144E+03;
  7.8131479E-01;  9.9999998E-03;  1.4017099E-01;7126; -3.6628004E-03;  0.0000000E+00;  7.8385435E-03;  9.9660907E+02;  1.4118026E-01; -2.8092817E+03;3; -1.0541034E+01;  0.0000000E+00; -3.2795248E+00;0; -1.1775029E-01;  2.0055086E+04;  0.0000000E+00; -2.8076681E-01;  4.0000000E+04;  0.0000000E+00;  3.9782375E+04; -1.3517368E-01;  0.0000000E+00;  1.7423391E-02;  2.5616125E+03;
  7.8129441E-01;  9.9999998E-03;  1.5020543E-01;7127; -7.0560449E-03;  0.0000000E+00;  7.8306943E-03;  9.9651807E+02;  1.4119370E-01; -2.8846863E+03;3; -9.5237637E+00;  0.0000000E+00; -3.3064702E+00;0; -1.2578642E-01;  2.0050775E+04;  0.0000000E+00; -3.0151609E-01;  4.0000000E+04;  0.0000000E+00;  3.9780863E+04; -1.3926576E-01;  0.0000000E+00;  1.3479330E-02;  2.4445325E+03;
  7.8128552E-01;  9.9999998E-03;  1.6023372E-01;7128; -1.0435800E-02;  0.0000000E+00;  7.7515207E-03;  9.9641370E+02;  1.4121035E-01; -2.9711523E+03;3; -8.5022192E+00;  0.0000000E+00; -3.3120046E+00;0; -1.3329557E-01;  2.0043783E+04;  0.0000000E+00; -2.8916961E-01;  4.0000000E+04;  0.0000000E+00;  3.9779535E+04; -1.4396830E-01;  0.0000000E+00;  1.0672738E-02;  2.3680723E+03;
  7.8129941E-01;  9.9999998E-03;  1.7026490E-01;7129; -1.3778713E-02;  0.0000000E+00;  7.6271980E-03;  9.9630072E+02;  1.4123248E-01; -3.0647786E+03;3; -7.4851923E+00;  0.0000000E+00; -3.2942626E+00;0; -1.4044127E-01;  2.0033086E+04;  0.0000000E+00; -2.4616203E-01;  4.0000000E+04;  0.0000000E+00;  3.9778789E+04; -1.4936581E-01;  0.0000000E+00;  8.9245392E-03;  2.3452288E+03;
  7.8135103E-01;  9.9999998E-03;  1.8030079E-01;7130; -1.7065622E-02;  0.0000000E+00;  7.4857329E-03;  9.9618542E+02;  1.4126770E-01; -3.1602812E+03;3; -6.4832807E+00;  0.0000000E+00; -3.2577386E+00;0; -1.4740542E-01;  2.0017473E+04;  0.0000000E+00; -1.8639639E-01;  4.0000000E+04;  0.0000000E+00;  3.9779156E+04; -1.5548070E-01;  0.0000000E+00;  8.0752755E-03;  2.4124773E+03;
  7.8146112E-01;  9.9999998E-03;  1.9033673E-01;7131; -2.0279583E-02;  0.0000000E+00;  7.3552756E-03;  9.9608661E+02;  1.4132150E-01; -3.2421550E+03;3; -5.4972177E+00;  0.0000000E+00; -3.2230732E+00;0; -1.5434444E-01;  1.9995162E+04;  0.0000000E+00; -1.3292877E-01;  4.0000000E+04;  0.0000000E+00;  3.9780855E+04; -1.6223387E-01;  0.0000000E+00;  7.8894300E-03;  2.6363198E+03;
  7.8161854E-01;  9.9999998E-03;  2.0037186E-01;7132; -2.3401164E-02;  0.0000000E+00;  7.2608101E-03;  9.9601965E+02;  1.4139423E-01; -3.2976099E+03;3; -4.5471501E+00;  0.0000000E+00; -3.1758897E+00;0; -1.6147542E-01;  1.9967375E+04;  0.0000000E+00; -1.1223929E-01;  4.0000000E+04;  0.0000000E+00;  3.9784355E+04; -1.6955669E-01;  0.0000000E+00;  8.0812769E-03;  3.1080906E+03;
  7.8180718E-01;  9.9999998E-03;  2.1042123E-01;7133; -2.6404321E-02;  0.0000000E+00;  7.2157364E-03;  9.9598022E+02;  1.4147750E-01; -3.3303000E+03;3; -3.6230202E+00;  0.0000000E+00; -3.1344094E+00;0; -1.6901699E-01;  1.9936076E+04;  0.0000000E+00; -1.4634481E-01;  4.0000000E+04;  0.0000000E+00;  3.9789195E+04; -1.7733422E-01;  0.0000000E+00;  8.3172293E-03;  3.7729836E+03;
  7.8198653E-01;  9.9999998E-03;  2.2048521E-01;7134; -2.9258391E-02;  0.0000000E+00;  7.2600553E-03;  9.9594202E+02;  1.4156024E-01; -3.3619529E+03;3; -2.7378507E+00;  0.0000000E+00; -3.0774982E+00;0; -1.7721047E-01;  1.9905539E+04;  0.0000000E+00; -2.4334583E-01;  4.0000000E+04;  0.0000000E+00;  3.9793387E+04; -1.8550235E-01;  0.0000000E+00;  8.2918825E-03;  4.3867471E+03;
  7.8209698E-01;  9.9999998E-03;  2.3054440E-01;7135; -3.1899847E-02;  0.0000000E+00;  7.4218661E-03;  9.9589746E+02;  1.4162144E-01; -3.3988403E+03;3; -1.8836709E+00;  0.0000000E+00; -2.9747298E+00;0; -1.8630424E-01;  1.9881715E+04;  0.0000000E+00; -3.8199523E-01;  4.0000000E+04;  0.0000000E+00;  3.9796941E+04; -1.9410835E-01;  0.0000000E+00;  7.8041111E-03;  4.8993916E+03;
  7.9545742E-01;  9.9999998E-03;  7.0141092E-02;7180;  1.4636613E-02;  0.0000000E+00;  8.8939276E-03;  9.9552448E+02;  1.4658645E-01; -3.7078599E+03;3; -1.6430799E+01;  0.0000000E+00; -4.0923629E+00;0;  4.8936058E-02;  1.8544234E+04;  0.0000000E+00; -2.2185251E-01;  4.0000000E+04;  0.0000000E+00;  3.9752906E+04; -4.7028515E-02;  0.0000000E+00;  9.5964573E-02;  2.2296882E+03;
  7.9548508E-01;  9.9999998E-03;  8.0126658E-02;7181;  1.2211193E-02;  0.0000000E+00;  9.5729530E-03;  9.9559338E+02;  1.4661773E-01; -3.6507756E+03;3; -1.5844099E+01;  0.0000000E+00; -4.2306261E+00;0;  3.5155844E-02;  1.8542297E+04;  0.0000000E+00; -2.7068767E-01;  4.0000000E+04;  0.0000000E+00;  3.9755445E+04; -4.9219634E-02;  0.0000000E+00;  8.4375478E-02;  2.5869756E+03;
  7.9552031E-01;  9.9999998E-03;  9.0111509E-02;7182;  9.5116533E-03;  0.0000000E+00;  1.0169199E-02;  9.9564880E+02;  1.4665091E-01; -3.6048513E+03;3; -1.5133263E+01;  0.0000000E+00; -4.3495221E+00;0;  2.1292605E-02;  1.8539762E+04;  0.0000000E+00; -3.1974998E-01;  4.0000000E+04;  0.0000000E+00;  3.9757344E+04; -5.1364891E-02;  0.0000000E+00;  7.2657496E-02;  2.8287678E+03;
  7.9555804E-01;  9.9999998E-03;  1.0011008E-01;7183;  6.5827859E-03;  0.0000000E+00;  1.0637799E-02;  9.9568976E+02;  1.4668541E-01; -3.5709268E+03;3; -1.4369602E+01;  0.0000000E+00; -4.3753142E+00;0;  7.7081770E-03;  1.8537162E+04;  0.0000000E+00; -3.6875504E-01;  4.0000000E+04;  0.0000000E+00;  3.9757840E+04; -5.3443961E-02;  0.0000000E+00;  6.1152138E-02;  2.9064717E+03;
  7.9560202E-01;  9.9999998E-03;  1.1013136E-01;7184;  3.4686024E-03;  0.0000000E+00;  1.1044651E-02;  9.9571887E+02;  1.4672029E-01; -3.5467795E+03;3; -1.3522412E+01;  0.0000000E+00; -4.3843322E+00;0; -5.2064843E-03;  1.8534271E+04;  0.0000000E+00; -4.1612807E-01;  4.0000000E+04;  0.0000000E+00;  3.9756543E+04; -5.5391375E-02;  0.0000000E+00;  5.0184891E-02;  2.8244683E+03;
  7.9563075E-01;  9.9999998E-03;  1.2017439E-01;7185;  2.2156154E-04;  0.0000000E+00;  1.1317165E-02;  9.9573535E+02;  1.4674829E-01; -3.5331504E+03;3; -1.2565302E+01;  0.0000000E+00; -4.4546175E+00;0; -1.7360717E-02;  1.8532828E+04;  0.0000000E+00; -4.5711374E-01;  4.0000000E+04;  0.0000000E+00;  3.9754469E+04; -5.7373989E-02;  0.0000000E+00;  4.0013272E-02;  2.6350728E+03;
  7.9562181E-01;  9.9999998E-03;  1.3022476E-01;7186; -3.1151483E-03;  0.0000000E+00;  1.1447059E-02;  9.9573621E+02;  1.4675991E-01; -3.5324592E+03;3; -1.1608168E+01;  0.0000000E+00; -4.4804573E+00;0; -2.8757378E-02;  1.8534449E+04;  0.0000000E+00; -4.8398823E-01;  4.0000000E+04;  0.0000000E+00;  3.9751875E+04; -5.9623979E-02;  0.0000000E+00;  3.0866601E-02;  2.4102983E+03;
  7.9558629E-01;  9.9999998E-03;  1.4026605E-01;7187; -6.5056235E-03;  0.0000000E+00;  1.1448638E-02;  9.9572668E+02;  1.4676042E-01; -3.5403105E+03;3; -1.0622602E+01;  0.0000000E+00; -4.4798365E+00;0; -3.9238423E-02;  1.8537527E+04;  0.0000000E+00; -4.8803270E-01;  4.0000000E+04;  0.0000000E+00;  3.9749254E+04; -6.2177081E-02;  0.0000000E+00;  2.2938659E-02;  2.2011692E+03;
  7.9555506E-01;  9.9999998E-03;  1.5030706E-01;7188; -9.9367099E-03;  0.0000000E+00;  1.1373796E-02;  9.9570233E+02;  1.4676137E-01; -3.5605073E+03;3; -9.6160870E+00;  0.0000000E+00; -4.4633951E+00;0; -4.8630700E-02;  1.8538637E+04;  0.0000000E+00; -4.6246266E-01;  4.0000000E+04;  0.0000000E+00;  3.9747062E+04; -6.4963475E-02;  0.0000000E+00;  1.6332773E-02;  2.0252434E+03;
  7.9556245E-01;  9.9999998E-03;  1.6035548E-01;7189; -1.3392719E-02;  0.0000000E+00;  1.1252394E-02;  9.9566882E+02;  1.4677514E-01; -3.5882595E+03;3; -8.5965853E+00;  0.0000000E+00; -4.4406338E+00;0; -5.6832850E-02;  1.8534719E+04;  0.0000000E+00; -4.0489689E-01;  4.0000000E+04;  0.0000000E+00;  3.9745352E+04; -6.7899980E-02;  0.0000000E+00;  1.1067128E-02;  1.8858024E+03;
  7.9563808E-01;  9.9999998E-03;  1.7041159E-01;7190; -1.6854731E-02;  0.0000000E+00;  1.1104460E-02;  9.9563190E+02;  1.4681275E-01; -3.6188755E+03;3; -7.5743704E+00;  0.0000000E+00; -4.4169731E+00;0; -6.3839585E-02;  1.8522494E+04;  0.0000000E+00; -3.2037905E-01;  4.0000000E+04;  0.0000000E+00;  3.9744668E+04; -7.0900925E-02;  0.0000000E+00;  7.0613427E-03;  1.7869097E+03;
  7.9579937E-01;  9.9999998E-03;  1.8047443E-01;7191; -2.0306006E-02;  0.0000000E+00;  1.0949309E-02;  9.9558820E+02;  1.4688189E-01; -3.6550718E+03;3; -6.5576425E+00;  0.0000000E+00; -4.3964753E+00;0; -6.9765881E-02;  1.8500760E+04;  0.0000000E+00; -2.2314629E-01;  4.0000000E+04;  0.0000000E+00;  3.9744758E+04; -7.3899381E-02;  0.0000000E+00;  4.1335039E-03;  1.7516954E+03;
  7.9604536E-01;  9.9999998E-03;  1.9054300E-01;7192; -2.3726506E-02;  0.0000000E+00;  1.0795038E-02;  9.9554163E+02;  1.4698210E-01; -3.6936379E+03;3; -5.5599327E+00;  0.0000000E+00; -4.3805671E+00;0; -7.4850857E-02;  1.8469684E+04;  0.0000000E+00; -1.3483045E-01;  4.0000000E+04;  0.0000000E+00;  3.9745629E+04; -7.6863825E-02;  0.0000000E+00;  2.0129669E-03;  1.8062928E+03;
  7.9635060E-01;  9.9999998E-03;  2.0060976E-01;7193; -2.7090143E-02;  0.0000000E+00;  1.0646228E-02;  9.9548419E+02;  1.4710388E-01; -3.7412410E+03;3; -4.5961075E+00;  0.0000000E+00; -4.3649883E+00;0; -7.9510264E-02;  1.8431967E+04;  0.0000000E+00; -7.9211280E-02;  4.0000000E+04;  0.0000000E+00;  3.9746551E+04; -7.9874270E-02;  0.0000000E+00;  3.6400670E-04;  1.9409557E+03;
  7.9667699E-01;  9.9999998E-03;  2.1068229E-01;7194; -3.0363856E-02;  0.0000000E+00;  1.0486569E-02;  9.9540039E+02;  1.4723575E-01; -3.8106702E+03;3; -3.6609497E+00;  0.0000000E+00; -4.3484259E+00;0; -8.4388547E-02;  1.8391180E+04;  0.0000000E+00; -7.6694921E-02;  4.0000000E+04;  0.0000000E+00;  3.9746098E+04; -8.3158605E-02;  0.0000000E+00; -1.2299438E-03;  1.9893466E+03;
  7.9695553E-01;  9.9999998E-03;  2.2074875E-01;7195; -3.3502612E-02;  0.0000000E+00;  1.0299330E-02;  9.9525836E+02;  1.4735374E-01; -3.9282954E+03;3; -2.7605860E+00;  0.0000000E+00; -4.3270802E+00;0; -9.0591177E-02;  1.8353375E+04;  0.0000000E+00; -1.4174767E-01;  4.0000000E+04;  0.0000000E+00;  3.9743227E+04; -8.7321572E-02;  0.0000000E+00; -3.2696053E-03;  1.8308802E+03;
  7.9712915E-01;  9.9999998E-03;  2.3078319E-01;7196; -3.6437649E-02;  0.0000000E+00;  1.0069381E-02;  9.9510870E+02;  1.4743765E-01; -4.0522900E+03;3; -1.9015416E+00;  0.0000000E+00; -4.2831745E+00;0; -9.9413574E-02;  1.8323641E+04;  0.0000000E+00; -2.7211344E-01;  4.0000000E+04;  0.0000000E+00;  3.9741441E+04; -9.2985235E-02;  0.0000000E+00; -6.4283423E-03;  1.8615020E+03;
  8.0978489E-01;  9.9999998E-03;  7.0326522E-02;7241;  1.1781852E-02;  0.0000000E+00;  1.2656596E-02;  9.9376080E+02;  1.5242735E-01; -5.1689780E+03;3; -1.6428055E+01;  0.0000000E+00; -4.9382133E+00;0;  2.3351943E-01;  1.7110732E+04;  0.0000000E+00; -3.7470570E-01;  4.0000000E+04;  0.0000000E+00;  3.9715691E+04;  1.0670031E-01;  0.0000000E+00;  1.2681913E-01;  1.4841898E+03;
  8.0977690E-01;  9.9999998E-03;  8.0316201E-02;7242;  9.4046891E-03;  0.0000000E+00;  1.3717296E-02;  9.9386975E+02;  1.5243267E-01; -5.0787598E+03;3; -1.5919793E+01;  0.0000000E+00; -5.4871058E+00;0;  2.1680051E-01;  1.7114664E+04;  0.0000000E+00; -4.5233014E-01;  4.0000000E+04;  0.0000000E+00;  3.9719305E+04;  1.0472351E-01;  0.0000000E+00;  1.1207701E-01;  1.9583654E+03;
  8.0979037E-01;  9.9999998E-03;  9.0302475E-02;7243;  6.6935490E-03;  0.0000000E+00;  1.4419599E-02;  9.9397784E+02;  1.5244676E-01; -4.9891831E+03;3; -1.5223013E+01;  0.0000000E+00; -5.5755587E+00;0;  2.0057818E-01;  1.7116938E+04;  0.0000000E+00; -5.2105242E-01;  4.0000000E+04;  0.0000000E+00;  3.9722121E+04;  1.0343610E-01;  0.0000000E+00;  9.7142093E-02;  2.3350542E+03;
  8.0983227E-01;  9.9999998E-03;  1.0028200E-01;7244;  3.7520747E-03;  0.0000000E+00;  1.4917547E-02;  9.9407764E+02;  1.5247361E-01; -4.9065195E+03;3; -1.4456977E+01;  0.0000000E+00; -5.6784949E+00;0;  1.8556905E-01;  1.7116818E+04;  0.0000000E+00; -5.7651651E-01;  4.0000000E+04;  0.0000000E+00;  3.9723395E+04;  1.0310657E-01;  0.0000000E+00;  8.2462475E-02;  2.5426245E+03;
  8.0981374E-01;  9.9999998E-03;  1.1027524E-01;7245;  6.5175159E-04;  0.0000000E+00;  1.5230348E-02;  9.9415741E+02;  1.5248409E-01; -4.8403989E+03;3; -1.3626736E+01;  0.0000000E+00; -5.6784611E+00;0;  1.7075181E-01;  1.7120236E+04;  0.0000000E+00; -6.1518162E-01;  4.0000000E+04;  0.0000000E+00;  3.9722984E+04;  1.0251299E-01;  0.0000000E+00;  6.8238832E-02;  2.5606750E+03;
  8.0974913E-01;  9.9999998E-03;  1.2030193E-01;7246; -2.5804364E-03;  0.0000000E+00;  1.5402107E-02;  9.9421820E+02;  1.5247932E-01; -4.7900303E+03;3; -1.2714868E+01;  0.0000000E+00; -5.6840963E+00;0;  1.5664814E-01;  1.7126518E+04;  0.0000000E+00; -6.3283485E-01;  4.0000000E+04;  0.0000000E+00;  3.9721086E+04;  1.0183880E-01;  0.0000000E+00;  5.4809336E-02;  2.4206863E+03;
  8.0969179E-01;  9.9999998E-03;  1.3034934E-01;7247; -5.9251855E-03;  0.0000000E+00;  1.5464648E-02;  9.9427509E+02;  1.5247364E-01; -4.7429214E+03;3; -1.1770036E+01;  0.0000000E+00; -5.6578951E+00;0;  1.4429367E-01;  1.7132559E+04;  0.0000000E+00; -6.2534797E-01;  4.0000000E+04;  0.0000000E+00;  3.9718492E+04;  1.0178880E-01;  0.0000000E+00;  4.2504877E-02;  2.1906831E+03;
  8.0962807E-01;  9.9999998E-03;  1.4040740E-01;7248; -9.3519147E-03;  0.0000000E+00;  1.5435749E-02;  9.9432245E+02;  1.5246023E-01; -4.7037129E+03;3; -1.0766884E+01;  0.0000000E+00; -5.6407051E+00;0;  1.3345662E-01;  1.7139271E+04;  0.0000000E+00; -5.9125018E-01;  4.0000000E+04;  0.0000000E+00;  3.9715699E+04;  1.0198449E-01;  0.0000000E+00;  3.1472132E-02;  1.9402485E+03;
  8.0960333E-01;  9.9999998E-03;  1.5047541E-01;7249; -1.2845532E-02;  0.0000000E+00;  1.5346692E-02;  9.9436584E+02;  1.5245572E-01; -4.6677144E+03;3; -9.7234344E+00;  0.0000000E+00; -5.6306672E+00;0;  1.2472722E-01;  1.7142314E+04;  0.0000000E+00; -5.3177118E-01;  4.0000000E+04;  0.0000000E+00;  3.9713383E+04;  1.0289899E-01;  0.0000000E+00;  2.1828234E-02;  1.7086227E+03;
  8.0968279E-01;  9.9999998E-03;  1.6055402E-01;7250; -1.6399808E-02;  0.0000000E+00;  1.5230283E-02;  9.9440814E+02;  1.5248720E-01; -4.6327031E+03;3; -8.7006674E+00;  0.0000000E+00; -5.6021118E+00;0;  1.1895899E-01;  1.7135621E+04;  0.0000000E+00; -4.5030341E-01;  4.0000000E+04;  0.0000000E+00;  3.9711984E+04;  1.0534953E-01;  0.0000000E+00;  1.3609460E-02;  1.5000890E+03;
  8.0988538E-01;  9.9999998E-03;  1.7064101E-01;7251; -1.9996967E-02;  0.0000000E+00;  1.5098216E-02;  9.9444049E+02;  1.5256214E-01; -4.6058896E+03;3; -7.6711941E+00;  0.0000000E+00; -5.5851870E+00;0;  1.1624079E-01;  1.7117150E+04;  0.0000000E+00; -3.5316536E-01;  4.0000000E+04;  0.0000000E+00;  3.9711270E+04;  1.0951357E-01;  0.0000000E+00;  6.7272251E-03;  1.3081812E+03;
  8.1019211E-01;  9.9999998E-03;  1.8072686E-01;7252; -2.3613891E-02;  0.0000000E+00;  1.4950091E-02;  9.9445062E+02;  1.5267393E-01; -4.5974946E+03;3; -6.6470752E+00;  0.0000000E+00; -5.5737967E+00;0;  1.1605167E-01;  1.7088287E+04;  0.0000000E+00; -2.4962206E-01;  4.0000000E+04;  0.0000000E+00;  3.9711148E+04;  1.1506193E-01;  0.0000000E+00;  9.8973152E-04;  1.1398472E+03;
  8.1055570E-01;  9.9999998E-03;  1.9080432E-01;7253; -2.7221581E-02;  0.0000000E+00;  1.4776831E-02;  9.9442609E+02;  1.5280794E-01; -4.6178394E+03;3; -5.6396341E+00;  0.0000000E+00; -5.5663371E+00;0;  1.1735179E-01;  1.7052873E+04;  0.0000000E+00; -1.4931373E-01;  4.0000000E+04;  0.0000000E+00;  3.9710758E+04;  1.2122793E-01;  0.0000000E+00; -3.8761531E-03;  9.9348242E+02;
  8.1094629E-01;  9.9999998E-03;  2.0085846E-01;7254; -3.0789141E-02;  0.0000000E+00;  1.4568843E-02;  9.9435474E+02;  1.5295385E-01; -4.6769478E+03;3; -4.6600213E+00;  0.0000000E+00; -5.5600972E+00;0;  1.1927964E-01;  1.7013002E+04;  0.0000000E+00; -5.9992317E-02;  4.0000000E+04;  0.0000000E+00;  3.9710074E+04;  1.2749457E-01;  0.0000000E+00; -8.2149357E-03;  8.5763751E+02;
  8.1131178E-01;  9.9999998E-03;  2.1090318E-01;7255; -3.4290183E-02;  0.0000000E+00;  1.4304831E-02;  9.9422217E+02;  1.5309402E-01; -4.7867700E+03;3; -3.7135813E+00;  0.0000000E+00; -5.5568166E+00;0;  1.2032678E-01;  1.6972857E+04;  0.0000000E+00;  1.2071847E-02;  4.0000000E+04;  0.0000000E+00;  3.9708273E+04;  1.3278408E-01;  0.0000000E+00; -1.2457306E-02;  6.6691919E+02;
  8.1161600E-01;  9.9999998E-03;  2.2093955E-01;7256; -3.7685510E-02;  0.0000000E+00;  1.3950781E-02;  9.9402332E+02;  1.5321708E-01; -4.9515044E+03;3; -2.7994702E+00;  0.0000000E+00; -5.5510426E+00;0;  1.1893578E-01;  1.6935582E+04;  0.0000000E+00;  6.1685558E-02;  4.0000000E+04;  0.0000000E+00;  3.9704996E+04;  1.3613307E-01;  0.0000000E+00; -1.7197300E-02;  4.2534576E+02;
  8.1182975E-01;  9.9999998E-03;  2.3095703E-01;7257; -4.0928274E-02;  0.0000000E+00;  1.3477582E-02;  9.9378326E+02;  1.5331160E-01; -5.1504092E+03;3; -1.9281453E+00;  0.0000000E+00; -5.5257626E+00;0;  1.1334010E-01;  1.6903771E+04;  0.0000000E+00;  8.7902598E-02;  4.0000000E+04;  0.0000000E+00;  3.9702398E+04;  1.3665114E-01;  0.0000000E+00; -2.3311043E-02;  3.5237216E+02;
  8.2447129E-01;  9.9999998E-03;  7.0419148E-02;7302;  8.6789140E-03;  0.0000000E+00;  1.6418900E-02;  9.9267865E+02;  1.5839918E-01; -6.0655176E+03;3; -1.6268997E+01;  0.0000000E+00; -5.4608612E+00;0;  5.3647333E-01;  1.5838274E+04;  0.0000000E+00; -4.5740008E-01;  4.0000000E+04;  0.0000000E+00;  3.9677301E+04;  3.7342951E-01;  0.0000000E+00;  1.6304384E-01;  1.4713997E+03;
  8.2461005E-01;  9.9999998E-03;  1.3039401E-01;7308; -8.7330891E-03;  0.0000000E+00;  2.0264395E-02;  9.9323639E+02;  1.5857908E-01; -5.6034634E+03;3; -1.1941665E+01;  0.0000000E+00; -6.9459662E+00;0;  4.6281472E-01;  1.5820432E+04;  0.0000000E+00; -7.0242906E-01;  4.0000000E+04;  0.0000000E+00;  3.9682578E+04;  4.0208909E-01;  0.0000000E+00;  6.0725622E-02;  1.9646570E+03;
  8.2463998E-01;  9.9999998E-03;  1.2034430E-01;7307; -5.3510065E-03;  0.0000000E+00;  2.0211501E-02;  9.9314453E+02;  1.5857865E-01; -5.6795586E+03;3; -1.2860648E+01;  0.0000000E+00; -6.9844737E+00;0;  4.7162014E-01;  1.5817218E+04;  0.0000000E+00; -7.2805405E-01;  4.0000000E+04;  0.0000000E+00;  3.9684992E+04;  3.9519751E-01;  0.0000000E+00;  7.6422624E-02;  2.1813955E+03;
  8.2467330E-01;  9.9999998E-03;  1.4047505E-01;7309; -1.2236750E-02;  0.0000000E+00;  2.0268582E-02;  9.9333386E+02;  1.5860930E-01; -5.5226768E+03;3; -1.0956599E+01;  0.0000000E+00; -6.9185781E+00;0;  4.5866257E-01;  1.5817411E+04;  0.0000000E+00; -6.5724742E-01;  4.0000000E+04;  0.0000000E+00;  3.9679922E+04;  4.1244572E-01;  0.0000000E+00;  4.6216860E-02;  1.7243948E+03;
  8.2461905E-01;  9.9999998E-03;  8.0414906E-02;7303;  6.4482773E-03;  0.0000000E+00;  1.8180780E-02;  9.9278430E+02;  1.5847503E-01; -5.9779658E+03;3; -1.5891836E+01;  0.0000000E+00; -6.3921576E+00;0;  5.2374530E-01;  1.5825735E+04;  0.0000000E+00; -5.5389202E-01;  4.0000000E+04;  0.0000000E+00;  3.9680938E+04;  3.7784973E-01;  0.0000000E+00;  1.4589554E-01;  1.7227944E+03;
  8.2475847E-01;  9.9999998E-03;  1.5057096E-01;7310; -1.5823502E-02;  0.0000000E+00;  2.0207943E-02;  9.9342480E+02;  1.5864041E-01; -5.4473218E+03;3; -9.9440050E+00;  0.0000000E+00; -6.8891845E+00;0;  4.5708686E-01;  1.5812576E+04;  0.0000000E+00; -6.0176992E-01;  4.0000000E+04;  0.0000000E+00;  3.9677930E+04;  4.2423075E-01;  0.0000000E+00;  3.2856110E-02;  1.5032996E+03;
  8.2473814E-01;  9.9999998E-03;  9.0391465E-02;7304;  3.8602853E-03;  0.0000000E+00;  1.9274039E-02;  9.9288293E+02;  1.5854961E-01; -5.8962900E+03;3; -1.5369802E+01;  0.0000000E+00; -6.9004316E+00;0;  5.1108277E-01;  1.5813946E+04;  0.0000000E+00; -6.3614559E-01;  4.0000000E+04;  0.0000000E+00;  3.9684031E+04;  3.8279423E-01;  0.0000000E+00;  1.2828855E-01;  2.0277062E+03;
  8.2478327E-01;  9.9999998E-03;  1.1032917E-01;7306; -2.1084845E-03;  0.0000000E+00;  2.0092115E-02;  9.9306567E+02;  1.5861757E-01; -5.7448892E+03;3; -1.3741901E+01;  0.0000000E+00; -7.0327001E+00;0;  4.8559618E-01;  1.5806536E+04;  0.0000000E+00; -7.2689873E-01;  4.0000000E+04;  0.0000000E+00;  3.9686078E+04;  3.9231667E-01;  0.0000000E+00;  9.3279511E-02;  2.2935508E+03;
  8.2483047E-01;  9.9999998E-03;  1.6066325E-01;7311; -1.9463805E-02;  0.0000000E+00;  2.0078497E-02;  9.9349176E+02;  1.5866363E-01; -5.3918667E+03;3; -8.9054260E+00;  0.0000000E+00; -6.8557806E+00;0;  4.5679286E-01;  1.5807375E+04;  0.0000000E+00; -5.4196489E-01;  4.0000000E+04;  0.0000000E+00;  3.9677223E+04;  4.3609202E-01;  0.0000000E+00;  2.0700846E-02;  1.2836104E+03;
  8.2486415E-01;  9.9999998E-03;  1.0034807E-01;7305;  9.6757145E-04;  0.0000000E+00;  1.9847844E-02;  9.9298138E+02;  1.5862596E-01; -5.8147124E+03;3; -1.4612350E+01;  0.0000000E+00; -6.9753270E+00;0;  5.0005358E-01;  1.5801864E+04;  0.0000000E+00; -6.9583285E-01;  4.0000000E+04;  0.0000000E+00;  3.9685770E+04;  3.8926697E-01;  0.0000000E+00;  1.1078664E-01;  2.2425715E+03;
  8.2493567E-01;  9.9999998E-03;  1.7074275E-01;7312; -2.3145031E-02;  0.0000000E+00;  1.9900855E-02;  9.9354175E+02;  1.5869421E-01; -5.3504360E+03;3; -7.8603892E+00;  0.0000000E+00; -6.8257089E+00;0;  4.5868954E-01;  1.5798362E+04;  0.0000000E+00; -4.7929740E-01;  4.0000000E+04;  0.0000000E+00;  3.9677867E+04;  4.4885954E-01;  0.0000000E+00;  9.8299850E-03;  1.0397897E+03;
  8.2508439E-01;  9.9999998E-03;  1.8081281E-01;7313; -2.6855228E-02;  0.0000000E+00;  1.9680839E-02;  9.9355371E+02;  1.5873984E-01; -5.3405601E+03;3; -6.8213592E+00;  0.0000000E+00; -6.7981052E+00;0;  4.6271154E-01;  1.5784464E+04;  0.0000000E+00; -4.0788907E-01;  4.0000000E+04;  0.0000000E+00;  3.9679371E+04;  4.6256116E-01;  0.0000000E+00;  1.5039634E-04;  7.8382983E+02;
  8.2528543E-01;  9.9999998E-03;  1.9087492E-01;7314; -3.0580834E-02;  0.0000000E+00;  1.9420121E-02;  9.9352203E+02;  1.5880544E-01; -5.3667808E+03;3; -5.7975183E+00;  0.0000000E+00; -6.7752590E+00;0;  4.6868679E-01;  1.5764621E+04;  0.0000000E+00; -3.1514621E-01;  4.0000000E+04;  0.0000000E+00;  3.9681152E+04;  4.7724980E-01;  0.0000000E+00; -8.5630175E-03;  5.8361609E+02;
  8.2555038E-01;  9.9999998E-03;  2.0091315E-01;7315; -3.4305237E-02;  0.0000000E+00;  1.9126480E-02;  9.9343884E+02;  1.5889995E-01; -5.4357163E+03;3; -4.8005762E+00;  0.0000000E+00; -6.7629900E+00;0;  4.7638753E-01;  1.5737487E+04;  0.0000000E+00; -1.8651225E-01;  4.0000000E+04;  0.0000000E+00;  3.9683414E+04;  4.9304709E-01;  0.0000000E+00; -1.6659571E-02;  6.4359650E+02;
  8.2578570E-01;  9.9999998E-03;  2.1094632E-01;7316; -3.7999142E-02;  0.0000000E+00;  1.8768894E-02;  9.9329285E+02;  1.5898775E-01; -5.5566489E+03;3; -3.8395770E+00;  0.0000000E+00; -6.7452431E+00;0;  4.8221612E-01;  1.5710020E+04;  0.0000000E+00; -6.6738152E-03;  4.0000000E+04;  0.0000000E+00;  3.9686199E+04;  5.0677514E-01;  0.0000000E+00; -2.4559021E-02;  1.0584340E+03;
  8.2594436E-01;  9.9999998E-03;  2.2098917E-01;7317; -4.1632179E-02;  0.0000000E+00;  1.8316627E-02;  9.9306494E+02;  1.5904836E-01; -5.7454800E+03;3; -2.9155614E+00;  0.0000000E+00; -6.7278275E+00;0;  4.8362648E-01;  1.5686191E+04;  0.0000000E+00;  2.3067313E-01;  4.0000000E+04;  0.0000000E+00;  3.9687691E+04;  5.1639819E-01;  0.0000000E+00; -3.2771695E-02;  1.4911832E+03;
  8.2594663E-01;  9.9999998E-03;  2.3103702E-01;7318; -4.5143958E-02;  0.0000000E+00;  1.7655907E-02;  9.9272479E+02;  1.5905537E-01; -6.0272949E+03;3; -2.0352511E+00;  0.0000000E+00; -6.7390804E+00;0;  4.7658241E-01;  1.5672147E+04;  0.0000000E+00;  5.1535082E-01;  4.0000000E+04;  0.0000000E+00;  3.9685070E+04;  5.1870722E-01;  0.0000000E+00; -4.2124808E-02;  1.7199961E+03;
  8.4130961E-01;  9.9999998E-03;  7.0466585E-02;7363;  5.2246847E-03;  0.0000000E+00;  2.0916691E-02;  9.9384094E+02;  1.6511609E-01; -5.1025747E+03;3; -1.6254251E+01;  0.0000000E+00; -6.3989673E+00;0;  1.0338373E+00;  1.4642997E+04;  0.0000000E+00; -4.6592891E-01;  4.0000000E+04;  0.0000000E+00;  3.9635984E+04;  8.2238621E-01;  0.0000000E+00;  2.1145107E-01;  2.5452349E+03;
  8.4128642E-01;  9.9999998E-03;  8.0535576E-02;7364;  3.1697219E-03;  0.0000000E+00;  2.3043137E-02;  9.9384528E+02;  1.6512901E-01; -5.0989697E+03;3; -1.5797951E+01;  0.0000000E+00; -7.2786613E+00;0;  1.0214880E+00;  1.4638033E+04;  0.0000000E+00; -5.6573766E-01;  4.0000000E+04;  0.0000000E+00;  3.9639672E+04;  8.3014113E-01;  0.0000000E+00;  1.9134679E-01;  2.4067300E+03;
  8.4129882E-01;  9.9999998E-03;  9.0577543E-02;7365;  8.0822117E-04;  0.0000000E+00;  2.4612695E-02;  9.9386725E+02;  1.6515569E-01; -5.0807485E+03;3; -1.5255495E+01;  0.0000000E+00; -7.9868884E+00;0;  1.0121676E+00;  1.4631064E+04;  0.0000000E+00; -6.5086216E-01;  4.0000000E+04;  0.0000000E+00;  3.9642836E+04;  8.4130991E-01;  0.0000000E+00;  1.7085764E-01;  2.3594155E+03;
  8.4134895E-01;  9.9999998E-03;  1.0059910E-01;7366; -1.8906302E-03;  0.0000000E+00;  2.5594966E-02;  9.9389301E+02;  1.6519724E-01; -5.0594155E+03;3; -1.4738920E+01;  0.0000000E+00; -8.4057055E+00;0;  1.0066011E+00;  1.4622052E+04;  0.0000000E+00; -7.1266210E-01;  4.0000000E+04;  0.0000000E+00;  3.9644855E+04;  8.5620177E-01;  0.0000000E+00;  1.5039936E-01;  2.3592388E+03;
  8.4139061E-01;  9.9999998E-03;  1.1059096E-01;7367; -4.8853741E-03;  0.0000000E+00;  2.6098793E-02;  9.9392078E+02;  1.6523458E-01; -5.0364043E+03;3; -1.3946543E+01;  0.0000000E+00; -8.4825153E+00;0;  1.0035988E+00;  1.4614236E+04;  0.0000000E+00; -7.4629021E-01;  4.0000000E+04;  0.0000000E+00;  3.9645488E+04;  8.7341893E-01;  0.0000000E+00;  1.3017991E-01;  2.3283491E+03;
  8.4135348E-01;  9.9999998E-03;  1.2059781E-01;7368; -8.1014559E-03;  0.0000000E+00;  2.6282437E-02;  9.9393768E+02;  1.6523901E-01; -5.0224297E+03;3; -1.3071726E+01;  0.0000000E+00; -8.3829050E+00;0;  1.0007290E+00;  1.4611944E+04;  0.0000000E+00; -7.5340503E-01;  4.0000000E+04;  0.0000000E+00;  3.9644633E+04;  8.9057368E-01;  0.0000000E+00;  1.1015528E-01;  2.2382910E+03;
  8.4120083E-01;  9.9999998E-03;  1.3061824E-01;7369; -1.1475743E-02;  0.0000000E+00;  2.6278723E-02;  9.9394366E+02;  1.6520213E-01; -5.0174429E+03;3; -1.2219217E+01;  0.0000000E+00; -8.3750029E+00;0;  9.9641591E-01;  1.4616767E+04;  0.0000000E+00; -7.4127895E-01;  4.0000000E+04;  0.0000000E+00;  3.9643242E+04;  9.0599555E-01;  0.0000000E+00;  9.0420388E-02;  2.1125254E+03;
  8.4090239E-01;  9.9999998E-03;  1.4064930E-01;7370; -1.4975986E-02;  0.0000000E+00;  2.6117684E-02;  9.9392926E+02;  1.6510892E-01; -5.0293931E+03;3; -1.1187787E+01;  0.0000000E+00; -8.3487148E+00;0;  9.8899859E-01;  1.4630563E+04;  0.0000000E+00; -7.2116464E-01;  4.0000000E+04;  0.0000000E+00;  3.9642438E+04;  9.1791648E-01;  0.0000000E+00;  7.1082100E-02;  1.9768625E+03;
  8.4062088E-01;  9.9999998E-03;  1.5068844E-01;7371; -1.8570198E-02;  0.0000000E+00;  2.5909727E-02;  9.9393066E+02;  1.6501109E-01; -5.0282578E+03;3; -1.0161838E+01;  0.0000000E+00; -8.2888794E+00;0;  9.8410946E-01;  1.4644615E+04;  0.0000000E+00; -7.0708734E-01;  4.0000000E+04;  0.0000000E+00;  3.9641992E+04;  9.3150127E-01;  0.0000000E+00;  5.2608170E-02;  1.8326283E+03;
  8.4044802E-01;  9.9999998E-03;  1.6071968E-01;7372; -2.2246804E-02;  0.0000000E+00;  2.5685146E-02;  9.9393927E+02;  1.6494189E-01; -5.0210977E+03;3; -9.1406450E+00;  0.0000000E+00; -8.2120132E+00;0;  9.8490280E-01;  1.4653188E+04;  0.0000000E+00; -7.0773137E-01;  4.0000000E+04;  0.0000000E+00;  3.9642793E+04;  9.4962072E-01;  0.0000000E+00;  3.5282068E-02;  1.6420491E+03;
  8.4044355E-01;  9.9999998E-03;  1.7074592E-01;7373; -2.6001418E-02;  0.0000000E+00;  2.5462030E-02;  9.9395831E+02;  1.6492517E-01; -5.0053452E+03;3; -8.1045275E+00;  0.0000000E+00; -8.1490316E+00;0;  9.9351573E-01;  1.4651895E+04;  0.0000000E+00; -7.1833569E-01;  4.0000000E+04;  0.0000000E+00;  3.9644676E+04;  9.7431862E-01;  0.0000000E+00;  1.9197101E-02;  1.3548683E+03;
  8.4141445E-01;  9.9999998E-03;  2.3115161E-01;7379; -4.9246926E-02;  0.0000000E+00;  2.2884427E-02;  9.9299829E+02;  1.6509764E-01; -5.8006646E+03;3; -2.2725234E+00;  0.0000000E+00; -7.8963561E+00;0;  1.0694755E+00;  1.4567224E+04;  0.0000000E+00;  6.4327210E-01;  4.0000000E+04;  0.0000000E+00;  3.9658777E+04;  1.1358724E+00;  0.0000000E+00; -6.6396818E-02;  3.0085933E+03;
  8.4057558E-01;  9.9999998E-03;  1.8077488E-01;7374; -2.9821662E-02;  0.0000000E+00;  2.5225427E-02;  9.9396899E+02;  1.6495113E-01; -4.9964570E+03;3; -7.0674291E+00;  0.0000000E+00; -8.1019220E+00;0;  1.0084380E+00;  1.4642036E+04;  0.0000000E+00; -7.1602386E-01;  4.0000000E+04;  0.0000000E+00;  3.9648004E+04;  1.0042393E+00;  0.0000000E+00;  4.1986438E-03;  9.1171655E+02;
  8.4077698E-01;  9.9999998E-03;  1.9081582E-01;7375; -3.3690676E-02;  0.0000000E+00;  2.4949737E-02;  9.9395154E+02;  1.6499582E-01; -5.0109248E+03;3; -6.0427055E+00;  0.0000000E+00; -8.0610256E+00;0;  1.0263854E+00;  1.4627365E+04;  0.0000000E+00; -6.6361314E-01;  4.0000000E+04;  0.0000000E+00;  3.9653078E+04;  1.0363649E+00;  0.0000000E+00; -9.9795023E-03;  3.9019092E+02;
  8.4130937E-01;  9.9999998E-03;  2.2103681E-01;7378; -4.5395788E-02;  0.0000000E+00;  2.3682836E-02;  9.9351685E+02;  1.6508479E-01; -5.3710557E+03;3; -3.1482985E+00;  0.0000000E+00; -7.9417610E+00;0;  1.0671872E+00;  1.4581863E+04;  0.0000000E+00;  1.4039725E-01;  4.0000000E+04;  0.0000000E+00;  3.9669383E+04;  1.1182253E+00;  0.0000000E+00; -5.1038098E-02;  2.8282366E+03;
  8.4098548E-01;  9.9999998E-03;  2.0086001E-01;7376; -3.7585292E-02;  0.0000000E+00;  2.4612347E-02;  9.9390222E+02;  1.6503894E-01; -5.0518120E+03;3; -5.0420232E+00;  0.0000000E+00; -8.0235577E+00;0;  1.0438099E+00;  1.4611521E+04;  0.0000000E+00; -5.2022070E-01;  4.0000000E+04;  0.0000000E+00;  3.9660441E+04;  1.0674399E+00;  0.0000000E+00; -2.3630055E-02;  9.9782117E+02;
  8.4115946E-01;  9.9999998E-03;  2.1092744E-01;7377; -4.1492201E-02;  0.0000000E+00;  2.4202758E-02;  9.9378827E+02;  1.6506602E-01; -5.1462271E+03;3; -4.0741453E+00;  0.0000000E+00; -7.9844542E+00;0;  1.0577143E+00;  1.4596723E+04;  0.0000000E+00; -2.5436956E-01;  4.0000000E+04;  0.0000000E+00;  3.9668234E+04;  1.0948480E+00;  0.0000000E+00; -3.7133720E-02;  2.1594822E+03;
  8.5949016E-01;  9.9999998E-03;  7.0481874E-02;7424;  2.3030813E-03;  0.0000000E+00;  2.6814872E-02;  9.9824353E+02;  1.7212953E-01; -1.4551821E+03;3; -1.6411274E+01;  0.0000000E+00; -7.2967978E+00;0;  1.7178881E+00;  1.3624114E+04;  0.0000000E+00; -3.8562912E-01;  4.0000000E+04;  0.0000000E+00;  3.9596422E+04;  1.4459456E+00;  0.0000000E+00;  2.7194256E-01;  3.9621267E+03;
  8.5955554E-01;  9.9999998E-03;  8.0595046E-02;7425;  3.2009021E-04;  0.0000000E+00;  2.9270126E-02;  9.9811993E+02;  1.7214245E-01; -1.5575470E+03;3; -1.5934212E+01;  0.0000000E+00; -8.4235554E+00;0;  1.7210104E+00;  1.3614013E+04;  0.0000000E+00; -4.7638512E-01;  4.0000000E+04;  0.0000000E+00;  3.9599328E+04;  1.4701223E+00;  0.0000000E+00;  2.5088811E-01;  3.7032185E+03;
  8.5965186E-01;  9.9999998E-03;  9.0681747E-02;7426; -1.9666061E-03;  0.0000000E+00;  3.1104155E-02;  9.9803040E+02;  1.7216639E-01; -1.6317158E+03;3; -1.5508448E+01;  0.0000000E+00; -9.3407402E+00;0;  1.7289180E+00;  1.3602963E+04;  0.0000000E+00; -5.5751324E-01;  4.0000000E+04;  0.0000000E+00;  3.9601965E+04;  1.4996607E+00;  0.0000000E+00;  2.2925724E-01;  3.4741570E+03;
  8.5976857E-01;  9.9999998E-03;  1.0075630E-01;7427; -4.5937826E-03;  0.0000000E+00;  3.2284830E-02;  9.9796301E+02;  1.7219728E-01; -1.6875647E+03;3; -1.4882403E+01;  0.0000000E+00; -9.9040041E+00;0;  1.7416853E+00;  1.3591530E+04;  0.0000000E+00; -6.2053043E-01;  4.0000000E+04;  0.0000000E+00;  3.9603629E+04;  1.5344282E+00;  0.0000000E+00;  2.0725700E-01;  3.3165725E+03;
  8.5984796E-01;  9.9999998E-03;  1.1080571E-01;7428; -7.4888226E-03;  0.0000000E+00;  3.3075884E-02;  9.9790729E+02;  1.7221533E-01; -1.7337351E+03;3; -1.4108140E+01;  0.0000000E+00; -1.0098844E+01;0;  1.7569999E+00;  1.3582738E+04;  0.0000000E+00; -6.6124701E-01;  4.0000000E+04;  0.0000000E+00;  3.9604211E+04;  1.5721476E+00;  0.0000000E+00;  1.8485229E-01;  3.2301670E+03;
  8.5982800E-01;  9.9999998E-03;  1.2085491E-01;7429; -1.0631880E-02;  0.0000000E+00;  3.3502158E-02;  9.9784644E+02;  1.7220233E-01; -1.7841522E+03;3; -1.3322627E+01;  0.0000000E+00; -1.0149363E+01;0;  1.7718529E+00;  1.3579246E+04;  0.0000000E+00; -6.8246287E-01;  4.0000000E+04;  0.0000000E+00;  3.9603496E+04;  1.6100250E+00;  0.0000000E+00;  1.6182776E-01;  3.2019685E+03;
  8.5964811E-01;  9.9999998E-03;  1.3090007E-01;7430; -1.3965905E-02;  0.0000000E+00;  3.3620898E-02;  9.9776062E+02;  1.7213908E-01; -1.8552595E+03;3; -1.2448699E+01;  0.0000000E+00; -9.9797354E+00;0;  1.7827551E+00;  1.3583109E+04;  0.0000000E+00; -6.9479460E-01;  4.0000000E+04;  0.0000000E+00;  3.9602469E+04;  1.6447318E+00;  0.0000000E+00;  1.3802336E-01;  3.2102305E+03;
  8.5947937E-01;  9.9999998E-03;  1.4095926E-01;7431; -1.7485637E-02;  0.0000000E+00;  3.3576656E-02;  9.9769080E+02;  1.7207743E-01; -1.9130837E+03;3; -1.1505965E+01;  0.0000000E+00; -9.8251982E+00;0;  1.7968274E+00;  1.3587496E+04;  0.0000000E+00; -7.1594155E-01;  4.0000000E+04;  0.0000000E+00;  3.9601867E+04;  1.6828800E+00;  0.0000000E+00;  1.1394739E-01;  3.2167024E+03;
  8.5935968E-01;  9.9999998E-03;  1.5101026E-01;7432; -2.1155510E-02;  0.0000000E+00;  3.3465534E-02;  9.9764502E+02;  1.7202519E-01; -1.9510077E+03;3; -1.0574532E+01;  0.0000000E+00; -9.7303524E+00;0;  1.8152400E+00;  1.3590565E+04;  0.0000000E+00; -7.6423913E-01;  4.0000000E+04;  0.0000000E+00;  3.9601879E+04;  1.7254733E+00;  0.0000000E+00;  8.9766756E-02;  3.1543152E+03;
  8.5930097E-01;  9.9999998E-03;  1.6104744E-01;7433; -2.4939027E-02;  0.0000000E+00;  3.3312183E-02;  9.9761047E+02;  1.7198786E-01; -1.9796483E+03;3; -9.5853796E+00;  0.0000000E+00; -9.6822586E+00;0;  1.8381004E+00;  1.3591376E+04;  0.0000000E+00; -8.4900343E-01;  4.0000000E+04;  0.0000000E+00;  3.9603273E+04;  1.7724148E+00;  0.0000000E+00;  6.5685607E-02;  2.9708750E+03;
  8.5929233E-01;  9.9999998E-03;  1.7107105E-01;7434; -2.8803915E-02;  0.0000000E+00;  3.3113614E-02;  9.9756384E+02;  1.7196088E-01; -2.0182635E+03;3; -8.5412149E+00;  0.0000000E+00; -9.6350794E+00;0;  1.8643894E+00;  1.3589880E+04;  0.0000000E+00; -9.6092010E-01;  4.0000000E+04;  0.0000000E+00;  3.9605750E+04;  1.8224490E+00;  0.0000000E+00;  4.1940503E-02;  2.6608838E+03;
  8.5928220E-01;  9.9999998E-03;  1.8108951E-01;7435; -3.2729845E-02;  0.0000000E+00;  3.2841489E-02;  9.9747479E+02;  1.7193049E-01; -2.0920374E+03;3; -7.4814777E+00;  0.0000000E+00; -9.5823097E+00;0;  1.8907000E+00;  1.3587982E+04;  0.0000000E+00; -1.0692896E+00;  4.0000000E+04;  0.0000000E+00;  3.9609398E+04;  1.8720514E+00;  0.0000000E+00;  1.8648591E-02;  2.2344534E+03;
  8.5922289E-01;  9.9999998E-03;  1.9111460E-01;7436; -3.6698431E-02;  0.0000000E+00;  3.2478724E-02;  9.9731891E+02;  1.7187880E-01; -2.2211663E+03;3; -6.4424229E+00;  0.0000000E+00; -9.5210533E+00;0;  1.9132912E+00;  1.3587406E+04;  0.0000000E+00; -1.1272277E+00;  4.0000000E+04;  0.0000000E+00;  3.9613832E+04;  1.9174498E+00;  0.0000000E+00; -4.1585970E-03;  1.6960077E+03;
  8.5904205E-01;  9.9999998E-03;  2.0113915E-01;7437; -4.0689111E-02;  0.0000000E+00;  3.1990424E-02;  9.9707330E+02;  1.7179495E-01; -2.4246619E+03;3; -5.4309273E+00;  0.0000000E+00; -9.4452181E+00;0;  1.9266341E+00;  1.3590009E+04;  0.0000000E+00; -1.0749503E+00;  4.0000000E+04;  0.0000000E+00;  3.9619508E+04;  1.9531490E+00;  0.0000000E+00; -2.6514888E-02;  9.8745514E+02;
  8.5880214E-01;  9.9999998E-03;  2.1117179E-01;7438; -4.4707712E-02;  0.0000000E+00;  3.1398702E-02;  9.9675482E+02;  1.7169851E-01; -2.6885002E+03;3; -4.4577432E+00;  0.0000000E+00; -9.3631868E+00;0;  1.9323393E+00;  1.3593044E+04;  0.0000000E+00; -8.6548710E-01;  4.0000000E+04;  0.0000000E+00;  3.9625082E+04;  1.9809054E+00;  0.0000000E+00; -4.8566140E-02;  2.9290353E+02;
  8.5855204E-01;  9.9999998E-03;  2.2123790E-01;7439; -4.8754830E-02;  0.0000000E+00;  3.0679855E-02;  9.9629620E+02;  1.7160383E-01; -3.0684312E+03;3; -3.5309784E+00;  0.0000000E+00; -9.2779818E+00;0;  1.9316158E+00;  1.3594372E+04;  0.0000000E+00; -4.8075685E-01;  4.0000000E+04;  0.0000000E+00;  3.9626176E+04;  2.0024109E+00;  0.0000000E+00; -7.0795111E-02;  1.1101179E+03;
  8.5831791E-01;  9.9999998E-03;  2.3129970E-01;7440; -5.2802186E-02;  0.0000000E+00;  2.9753260E-02;  9.9569897E+02;  1.7152579E-01; -3.5632200E+03;3; -2.6627104E+00;  0.0000000E+00; -9.1930761E+00;0;  1.9244564E+00;  1.3592515E+04;  0.0000000E+00;  5.4598201E-02;  4.0000000E+04;  0.0000000E+00;  3.9622000E+04;  2.0184131E+00;  0.0000000E+00; -9.3956687E-02;  2.2842668E+03;
  8.7711674E-01;  9.9999998E-03;  7.0469320E-02;7485;  1.6811972E-03;  0.0000000E+00;  3.4868043E-02;  1.0033062E+03;  1.7803644E-01;  2.7389949E+03;3; -1.6313341E+01;  0.0000000E+00; -6.1433959E+00;0;  2.4269924E+00;  1.2882148E+04;  0.0000000E+00; -2.3972739E-01;  4.0000000E+04;  0.0000000E+00;  3.9567344E+04;  2.0912755E+00;  0.0000000E+00;  3.3571690E-01;  4.8699976E+03;
  8.7714964E-01;  9.9999998E-03;  8.0586247E-02;7486; -2.7803678E-04;  0.0000000E+00;  3.7577216E-02;  1.0030477E+03;  1.7803690E-01;  2.5248840E+03;3; -1.6006516E+01;  0.0000000E+00; -8.2499723E+00;0;  2.4475791E+00;  1.2870257E+04;  0.0000000E+00; -3.1081510E-01;  4.0000000E+04;  0.0000000E+00;  3.9569434E+04;  2.1324420E+00;  0.0000000E+00;  3.1513718E-01;  4.6232192E+03;
  8.7725616E-01;  9.9999998E-03;  9.0684995E-02;7487; -2.6155883E-03;  0.0000000E+00;  3.9445862E-02;  1.0028415E+03;  1.7805542E-01;  2.3540303E+03;3; -1.5811517E+01;  0.0000000E+00; -1.0242516E+01;0;  2.4764450E+00;  1.2856830E+04;  0.0000000E+00; -3.7732539E-01;  4.0000000E+04;  0.0000000E+00;  3.9571332E+04;  2.1824219E+00;  0.0000000E+00;  2.9402313E-01;  4.3830298E+03;
  8.7740809E-01;  9.9999998E-03;  1.0076057E-01;7488; -5.3782305E-03;  0.0000000E+00;  4.0531360E-02;  1.0026835E+03;  1.7808436E-01;  2.2231738E+03;3; -1.5487798E+01;  0.0000000E+00; -1.1322211E+01;0;  2.5126898E+00;  1.2843198E+04;  0.0000000E+00; -4.2951369E-01;  4.0000000E+04;  0.0000000E+00;  3.9572227E+04;  2.2403796E+00;  0.0000000E+00;  2.7231029E-01;  4.2233843E+03;
  8.7755847E-01;  9.9999998E-03;  1.1082648E-01;7489; -8.4762108E-03;  0.0000000E+00;  4.1191302E-02;  1.0025602E+03;  1.7811128E-01;  2.1210564E+03;3; -1.4865676E+01;  0.0000000E+00; -1.1783924E+01;0;  2.5542088E+00;  1.2831077E+04;  0.0000000E+00; -4.6071824E-01;  4.0000000E+04;  0.0000000E+00;  3.9572266E+04;  2.3045709E+00;  0.0000000E+00;  2.4963789E-01;  4.1849731E+03;
  8.7766171E-01;  9.9999998E-03;  1.2088855E-01;7490; -1.1821835E-02;  0.0000000E+00;  4.1513342E-02;  1.0024606E+03;  1.7812285E-01;  2.0384935E+03;3; -1.3955130E+01;  0.0000000E+00; -1.1794431E+01;0;  2.5984209E+00;  1.2822248E+04;  0.0000000E+00; -4.7136739E-01;  4.0000000E+04;  0.0000000E+00;  3.9571031E+04;  2.3728364E+00;  0.0000000E+00;  2.2558458E-01;  4.2823418E+03;
  8.7768131E-01;  9.9999998E-03;  1.3095477E-01;7491; -1.5353210E-02;  0.0000000E+00;  4.1601609E-02;  1.0023703E+03;  1.7810956E-01;  1.9637327E+03;3; -1.2988879E+01;  0.0000000E+00; -1.1726543E+01;0;  2.6426907E+00;  1.2817811E+04;  0.0000000E+00; -4.7173917E-01;  4.0000000E+04;  0.0000000E+00;  3.9569090E+04;  2.4429502E+00;  0.0000000E+00;  1.9974053E-01;  4.4672803E+03;
  8.7762809E-01;  9.9999998E-03;  1.4102253E-01;7492; -1.9032609E-02;  0.0000000E+00;  4.1618217E-02;  1.0022971E+03;  1.7807479E-01;  1.9030944E+03;3; -1.2116702E+01;  0.0000000E+00; -1.1489583E+01;0;  2.6862440E+00;  1.2817214E+04;  0.0000000E+00; -4.8001307E-01;  4.0000000E+04;  0.0000000E+00;  3.9567641E+04;  2.5142970E+00;  0.0000000E+00;  1.7194703E-01;  4.6467749E+03;
  8.7753093E-01;  9.9999998E-03;  1.5108535E-01;7493; -2.2845481E-02;  0.0000000E+00;  4.1565567E-02;  1.0022343E+03;  1.7802598E-01;  1.8509493E+03;3; -1.1142330E+01;  0.0000000E+00; -1.1292443E+01;0;  2.7291868E+00;  1.2819204E+04;  0.0000000E+00; -5.1567543E-01;  4.0000000E+04;  0.0000000E+00;  3.9567332E+04;  2.5869229E+00;  0.0000000E+00;  1.4226384E-01;  4.7100151E+03;
  8.7743109E-01;  9.9999998E-03;  1.6113606E-01;7494; -2.6731171E-02;  0.0000000E+00;  4.1462138E-02;  1.0021746E+03;  1.7797454E-01;  1.8015697E+03;3; -1.0104652E+01;  0.0000000E+00; -1.1155777E+01;0;  2.7725704E+00;  1.2821563E+04;  0.0000000E+00; -5.9071743E-01;  4.0000000E+04;  0.0000000E+00;  3.9568602E+04;  2.6614485E+00;  0.0000000E+00;  1.1112197E-01;  4.5880835E+03;
  8.7738788E-01;  9.9999998E-03;  1.7117424E-01;7495; -3.0680560E-02;  0.0000000E+00;  4.1322757E-02;  1.0021026E+03;  1.7793967E-01;  1.7419191E+03;3; -9.0604753E+00;  0.0000000E+00; -1.1049667E+01;0;  2.8186462E+00;  1.2821891E+04;  0.0000000E+00; -7.0169824E-01;  4.0000000E+04;  0.0000000E+00;  3.9570977E+04;  2.7394371E+00;  0.0000000E+00;  7.9209052E-02;  4.2875972E+03;
  8.7738949E-01;  9.9999998E-03;  1.8120463E-01;7496; -3.4689199E-02;  0.0000000E+00;  4.1144568E-02;  1.0020001E+03;  1.7791535E-01;  1.6569860E+03;3; -8.0760412E+00;  0.0000000E+00; -1.0968320E+01;0;  2.8659136E+00;  1.2819934E+04;  0.0000000E+00; -8.2797652E-01;  4.0000000E+04;  0.0000000E+00;  3.9574387E+04;  2.8189614E+00;  0.0000000E+00;  4.6952240E-02;  3.8581108E+03;
  8.7738991E-01;  9.9999998E-03;  1.9123618E-01;7497; -3.8748641E-02;  0.0000000E+00;  4.0909603E-02;  1.0018318E+03;  1.7789096E-01;  1.5176364E+03;3; -7.0667477E+00;  0.0000000E+00; -1.0873292E+01;0;  2.9105463E+00;  1.2817122E+04;  0.0000000E+00; -9.3632340E-01;  4.0000000E+04;  0.0000000E+00;  3.9578512E+04;  2.8960221E+00;  0.0000000E+00;  1.4524119E-02;  3.3583955E+03;
  8.7736744E-01;  9.9999998E-03;  2.0127419E-01;7498; -4.2851407E-02;  0.0000000E+00;  4.0606380E-02;  1.0015790E+03;  1.7785995E-01;  1.3080688E+03;3; -6.0753489E+00;  0.0000000E+00; -1.0763213E+01;0;  2.9495842E+00;  1.2813784E+04;  0.0000000E+00; -9.8970932E-01;  4.0000000E+04;  0.0000000E+00;  3.9582492E+04;  2.9676397E+00;  0.0000000E+00; -1.8055398E-02;  2.8554812E+03;
  8.7731034E-01;  9.9999998E-03;  2.1131529E-01;7499; -4.6998616E-02;  0.0000000E+00;  4.0218674E-02;  1.0012271E+03;  1.7781948E-01;  1.0166297E+03;3; -5.1256542E+00;  0.0000000E+00; -1.0647941E+01;0;  2.9805367E+00;  1.2809907E+04;  0.0000000E+00; -9.5712191E-01;  4.0000000E+04;  0.0000000E+00;  3.9586172E+04;  3.0314612E+00;  0.0000000E+00; -5.0924435E-02;  2.4028628E+03;
  8.7722141E-01;  9.9999998E-03;  2.2138572E-01;7500; -5.1209230E-02;  0.0000000E+00;  3.9677154E-02;  1.0007145E+03;  1.7777409E-01;  5.9186536E+02;3; -4.2669086E+00;  0.0000000E+00; -1.0529594E+01;0;  3.0020351E+00;  1.2805021E+04;  0.0000000E+00; -8.1984252E-01;  4.0000000E+04;  0.0000000E+00;  3.9584289E+04;  3.0865295E+00;  0.0000000E+00; -8.4494323E-02;  2.6090200E+03;
  8.7705743E-01;  9.9999998E-03;  2.3147704E-01;7501; -5.5457201E-02;  0.0000000E+00;  3.8742021E-02;  9.9994659E+02;  1.7771664E-01; -4.4244236E+01;3; -3.4306159E+00;  0.0000000E+00; -1.0373532E+01;0;  3.0099084E+00;  1.2800256E+04;  0.0000000E+00; -5.7025635E-01;  4.0000000E+04;  0.0000000E+00;  3.9570367E+04;  3.1294975E+00;  0.0000000E+00; -1.1958908E-01;  4.3655449E+03;
  8.9628625E-01;  9.9999998E-03;  7.0459068E-02;7546;  1.4688930E-02;  0.0000000E+00;  3.1282671E-02;  1.0070203E+03;  1.8255244E-01;  5.8159810E+03;3; -3.0459845E+01;  0.0000000E+00;  9.4322472E+00;0;  3.0467935E+00;  1.2348445E+04;  0.0000000E+00; -7.5165384E-02;  4.0000000E+04;  0.0000000E+00;  3.9550609E+04;  2.6434686E+00;  0.0000000E+00;  4.0332475E-01;  4.8786353E+03;
  8.9642328E-01;  9.9999998E-03;  8.0575593E-02;7547;  8.5799955E-03;  0.0000000E+00;  3.4668341E-02;  1.0066810E+03;  1.8255925E-01;  5.5349141E+03;3; -3.0769903E+01;  0.0000000E+00;  1.0113191E+01;0;  3.0971534E+00;  1.2334204E+04;  0.0000000E+00; -1.0864925E-01;  4.0000000E+04;  0.0000000E+00;  3.9551742E+04;  2.7116439E+00;  0.0000000E+00;  3.8550955E-01;  4.7161733E+03;
  8.9655572E-01;  9.9999998E-03;  9.0663992E-02;7548;  2.5496450E-03;  0.0000000E+00;  3.9022911E-02;  1.0063818E+03;  1.8256189E-01;  5.2870303E+03;3; -2.8469952E+01;  0.0000000E+00;  1.0481133E+01;0;  3.1547370E+00;  1.2321016E+04;  0.0000000E+00; -1.4091629E-01;  4.0000000E+04;  0.0000000E+00;  3.9552586E+04;  2.7879651E+00;  0.0000000E+00;  3.6677206E-01;  4.5579131E+03;
  8.9666384E-01;  9.9999998E-03;  1.0072635E-01;7549; -2.8169181E-03;  0.0000000E+00;  4.4345647E-02;  1.0061238E+03;  1.8255755E-01;  5.0732173E+03;3; -2.2545078E+01;  0.0000000E+00;  9.1399002E+00;0;  3.2181773E+00;  1.2309631E+04;  0.0000000E+00; -1.6497725E-01;  4.0000000E+04;  0.0000000E+00;  3.9552977E+04;  2.8714530E+00;  0.0000000E+00;  3.4672415E-01;  4.4861699E+03;
  8.9672059E-01;  9.9999998E-03;  1.1077110E-01;7550; -6.6643665E-03;  0.0000000E+00;  4.9776837E-02;  1.0059064E+03;  1.8254595E-01;  4.8931812E+03;3; -1.4634450E+01;  0.0000000E+00;  1.3547640E+00;0;  3.2855773E+00;  1.2300709E+04;  0.0000000E+00; -1.7549556E-01;  4.0000000E+04;  0.0000000E+00;  3.9552223E+04;  2.9607146E+00;  0.0000000E+00;  3.2486284E-01;  4.5706270E+03;
  8.9668989E-01;  9.9999998E-03;  1.2082811E-01;7551; -9.5209181E-03;  0.0000000E+00;  5.2611586E-02;  1.0057171E+03;  1.8251964E-01;  4.7363525E+03;3; -1.2833806E+01;  0.0000000E+00; -8.8235006E+00;0;  3.3547807E+00;  1.2295198E+04;  0.0000000E+00; -1.7162590E-01;  4.0000000E+04;  0.0000000E+00;  3.9550176E+04;  3.0541334E+00;  0.0000000E+00;  3.0064726E-01;  4.8245869E+03;
  8.9657503E-01;  9.9999998E-03;  1.3090645E-01;7552; -1.3185795E-02;  0.0000000E+00;  5.3054757E-02;  1.0055670E+03;  1.8248157E-01;  4.6119180E+03;3; -1.4049619E+01;  0.0000000E+00; -1.2714170E+01;0;  3.4243968E+00;  1.2293033E+04;  0.0000000E+00; -1.5847142E-01;  4.0000000E+04;  0.0000000E+00;  3.9547445E+04;  3.1508913E+00;  0.0000000E+00;  2.7350551E-01;  5.1909951E+03;
  8.9642012E-01;  9.9999998E-03;  1.4099677E-01;7553; -1.7478628E-02;  0.0000000E+00;  5.2747503E-02;  1.0054528E+03;  1.8243700E-01;  4.5173076E+03;3; -1.3718449E+01;  0.0000000E+00; -1.3286453E+01;0;  3.4939849E+00;  1.2293502E+04;  0.0000000E+00; -1.4625166E-01;  4.0000000E+04;  0.0000000E+00;  3.9544719E+04;  3.2509465E+00;  0.0000000E+00;  2.4303833E-01;  5.5662578E+03;
  8.9627057E-01;  9.9999998E-03;  1.5108518E-01;7554; -2.1892678E-02;  0.0000000E+00;  5.2347973E-02;  1.0053822E+03;  1.8239211E-01;  4.4588428E+03;3; -1.2591541E+01;  0.0000000E+00; -1.3139899E+01;0;  3.5635078E+00;  1.2295473E+04;  0.0000000E+00; -1.4696480E-01;  4.0000000E+04;  0.0000000E+00;  3.9542918E+04;  3.3543820E+00;  0.0000000E+00;  2.0912565E-01;  5.8314258E+03;
  8.9617819E-01;  9.9999998E-03;  1.6116305E-01;7555; -2.6286250E-02;  0.0000000E+00;  5.2010227E-02;  1.0053449E+03;  1.8235771E-01;  4.4279316E+03;3; -1.1487003E+01;  0.0000000E+00; -1.2838850E+01;0;  3.6338706E+00;  1.2297386E+04;  0.0000000E+00; -1.6957550E-01;  4.0000000E+04;  0.0000000E+00;  3.9542449E+04;  3.4616804E+00;  0.0000000E+00;  1.7219016E-01;  5.9053936E+03;
  8.9615917E-01;  9.9999998E-03;  1.7122895E-01;7556; -3.0641226E-02;  0.0000000E+00;  5.1736686E-02;  1.0053160E+03;  1.8233852E-01;  4.4040322E+03;3; -1.0356948E+01;  0.0000000E+00; -1.2600471E+01;0;  3.7050924E+00;  1.2297998E+04;  0.0000000E+00; -2.1678911E-01;  4.0000000E+04;  0.0000000E+00;  3.9543254E+04;  3.5721123E+00;  0.0000000E+00;  1.3298012E-01;  5.7862734E+03;
  8.9611202E-01;  9.9999998E-03;  1.8126252E-01;7557; -3.4970857E-02;  0.0000000E+00;  5.1455796E-02;  1.0052487E+03;  1.8232268E-01;  4.3482339E+03;3; -9.2785749E+00;  0.0000000E+00; -1.2388555E+01;0;  3.7722304E+00;  1.2297944E+04;  0.0000000E+00; -2.8297466E-01;  4.0000000E+04;  0.0000000E+00;  3.9545469E+04;  3.6801169E+00;  0.0000000E+00;  9.2113420E-02;  5.5007490E+03;
  8.9608067E-01;  9.9999998E-03;  1.9128846E-01;7558; -3.9274592E-02;  0.0000000E+00;  5.1198568E-02;  1.0051335E+03;  1.8231374E-01;  4.2528335E+03;3; -8.2825289E+00;  0.0000000E+00; -1.2160213E+01;0;  3.8357949E+00;  1.2296549E+04;  0.0000000E+00; -3.5101178E-01;  4.0000000E+04;  0.0000000E+00;  3.9548391E+04;  3.7854817E+00;  0.0000000E+00;  5.0313286E-02;  5.1101792E+03;
  8.9605421E-01;  9.9999998E-03;  2.0132498E-01;7559; -4.3583330E-02;  0.0000000E+00;  5.0948445E-02;  1.0049472E+03;  1.8230736E-01;  4.0984741E+03;3; -7.3650308E+00;  0.0000000E+00; -1.1923089E+01;0;  3.8937335E+00;  1.2293700E+04;  0.0000000E+00; -4.0197590E-01;  4.0000000E+04;  0.0000000E+00;  3.9551613E+04;  3.8860073E+00;  0.0000000E+00;  7.7262693E-03;  4.7183203E+03;
  8.9601278E-01;  9.9999998E-03;  2.1137150E-01;7560; -4.7900163E-02;  0.0000000E+00;  5.0685901E-02;  1.0046701E+03;  1.8230003E-01;  3.8689592E+03;3; -6.5087161E+00;  0.0000000E+00; -1.1661569E+01;0;  3.9434636E+00;  1.2289581E+04;  0.0000000E+00; -4.2218223E-01;  4.0000000E+04;  0.0000000E+00;  3.9553746E+04;  3.9792283E+00;  0.0000000E+00; -3.5764579E-02;  4.4514614E+03;
  8.9594424E-01;  9.9999998E-03;  2.2145109E-01;7561; -5.2266750E-02;  0.0000000E+00;  5.0291758E-02;  1.0042386E+03;  1.8229048E-01;  3.5114543E+03;3; -5.7209063E+00;  0.0000000E+00; -1.1363613E+01;0;  3.9831100E+00;  1.2284256E+04;  0.0000000E+00; -4.0596285E-01;  4.0000000E+04;  0.0000000E+00;  3.9549660E+04;  4.0637102E+00;  0.0000000E+00; -8.0600232E-02;  4.9603110E+03;
  8.9577395E-01;  9.9999998E-03;  2.3156358E-01;7562; -5.6723591E-02;  0.0000000E+00;  4.9304146E-02;  1.0035157E+03;  1.8226899E-01;  2.9125835E+03;3; -5.0239706E+00;  0.0000000E+00; -1.1152941E+01;0;  4.0074382E+00;  1.2279070E+04;  0.0000000E+00; -3.5359377E-01;  4.0000000E+04;  0.0000000E+00;  3.9529816E+04;  4.1355557E+00;  0.0000000E+00; -1.2811747E-01;  7.4345601E+03;
  9.1515005E-01;  9.9999998E-03;  7.0431344E-02;7607;  2.3850814E-01;  0.0000000E+00;  2.7380403E-02;  1.0076790E+03;  1.8510854E-01;  6.3615312E+03;3;  2.2708450E+01;  0.0000000E+00;  1.0470436E+01;0;  3.2074037E+00;  1.2019928E+04;  0.0000000E+00;  1.0001479E-01;  4.0000000E+04;  0.0000000E+00;  3.9549359E+04;  2.7516410E+00;  0.0000000E+00;  4.5576259E-01;  3.6881023E+03;
  9.1526306E-01;  9.9999998E-03;  8.0537304E-02;7608;  2.3088117E-01;  0.0000000E+00;  3.0805768E-02;  1.0073324E+03;  1.8509711E-01;  6.0744443E+03;3;  1.9071438E+01;  0.0000000E+00;  1.1322092E+01;0;  3.2805688E+00;  1.2008846E+04;  0.0000000E+00;  1.2669747E-01;  4.0000000E+04;  0.0000000E+00;  3.9549863E+04;  2.8398542E+00;  0.0000000E+00;  4.4071466E-01;  3.6639106E+03;
  9.1535294E-01;  9.9999998E-03;  9.0628982E-02;7609;  2.2324871E-01;  0.0000000E+00;  3.4900073E-02;  1.0070315E+03;  1.8507922E-01;  5.8250830E+03;3;  1.5015818E+01;  0.0000000E+00;  1.2163665E+01;0;  3.3625741E+00;  1.1999246E+04;  0.0000000E+00;  1.4716451E-01;  4.0000000E+04;  0.0000000E+00;  3.9550461E+04;  2.9378271E+00;  0.0000000E+00;  4.2474699E-01;  3.6422578E+03;
  9.1540790E-01;  9.9999998E-03;  1.0069895E-01;7610;  2.1581741E-01;  0.0000000E+00;  3.9735727E-02;  1.0067791E+03;  1.8505411E-01;  5.6160132E+03;3;  1.0520037E+01;  0.0000000E+00;  1.3073617E+01;0;  3.4518855E+00;  1.1991603E+04;  0.0000000E+00;  1.5505844E-01;  4.0000000E+04;  0.0000000E+00;  3.9550516E+04;  3.0444899E+00;  0.0000000E+00;  4.0739569E-01;  3.6930681E+03;
  9.1541207E-01;  9.9999998E-03;  1.1074182E-01;7611;  2.0857984E-01;  0.0000000E+00;  4.5439355E-02;  1.0065632E+03;  1.8502420E-01;  5.4371646E+03;3;  5.5527692E+00;  0.0000000E+00;  1.4122378E+01;0;  3.5467644E+00;  1.1986300E+04;  0.0000000E+00;  1.4573015E-01;  4.0000000E+04;  0.0000000E+00;  3.9549250E+04;  3.1587188E+00;  0.0000000E+00;  3.8804549E-01;  3.8733645E+03;
  9.1533941E-01;  9.9999998E-03;  1.2079211E-01;7612;  2.0146999E-01;  0.0000000E+00;  5.2312970E-02;  1.0063993E+03;  1.8498661E-01;  5.3013745E+03;3;  4.1306015E-02;  0.0000000E+00;  1.5373285E+01;0;  3.6456740E+00;  1.1983787E+04;  0.0000000E+00;  1.1832047E-01;  4.0000000E+04;  0.0000000E+00;  3.9546367E+04;  3.2797737E+00;  0.0000000E+00;  3.6590022E-01;  4.2031099E+03;
  9.1520101E-01;  9.9999998E-03;  1.3085321E-01;7613;  1.9497471E-01;  0.0000000E+00;  6.0758375E-02;  1.0062806E+03;  1.8494445E-01;  5.2031118E+03;3; -5.9542379E+00;  0.0000000E+00;  1.6887356E+01;0;  3.7466722E+00;  1.1983916E+04;  0.0000000E+00;  7.6357096E-02;  4.0000000E+04;  0.0000000E+00;  3.9542422E+04;  3.4063580E+00;  0.0000000E+00;  3.4031403E-01;  4.6578657E+03;
  9.1503251E-01;  9.9999998E-03;  1.4092109E-01;7614;  1.9021885E-01;  0.0000000E+00;  7.1068145E-02;  1.0062046E+03;  1.8490249E-01;  5.1401055E+03;3; -1.2304971E+01;  0.0000000E+00;  1.8621992E+01;0;  3.8478601E+00;  1.1986080E+04;  0.0000000E+00;  2.6627224E-02;  4.0000000E+04;  0.0000000E+00;  3.9538047E+04;  3.5370300E+00;  0.0000000E+00;  3.1083006E-01;  5.1679961E+03;
  9.1487902E-01;  9.9999998E-03;  1.5099218E-01;7615;  1.8856369E-01;  0.0000000E+00;  8.3830066E-02;  1.0061742E+03;  1.8486731E-01;  5.1149233E+03;3; -1.8865807E+01;  0.0000000E+00;  1.9862293E+01;0;  3.9478478E+00;  1.1989391E+04;  0.0000000E+00; -2.3085220E-02;  4.0000000E+04;  0.0000000E+00;  3.9534016E+04;  3.6705391E+00;  0.0000000E+00;  2.7730870E-01;  5.6343979E+03;
  9.1478455E-01;  9.9999998E-03;  1.6106546E-01;7616;  1.9158427E-01;  0.0000000E+00;  9.7845346E-02;  1.0061780E+03;  1.8483846E-01;  5.1180840E+03;3; -2.5372856E+01;  0.0000000E+00;  1.6949413E+01;0;  4.0461369E+00;  1.1992902E+04;  0.0000000E+00; -6.6563569E-02;  4.0000000E+04;  0.0000000E+00;  3.9531125E+04;  3.8057625E+00;  0.0000000E+00;  2.4037451E-01;  5.9710557E+03;
  9.1477156E-01;  9.9999998E-03;  1.7113735E-01;7617;  2.0032279E-01;  0.0000000E+00;  1.0788544E-01;  1.0061954E+03;  1.8482330E-01;  5.1325024E+03;3; -3.1877132E+01;  0.0000000E+00;  5.5490155E+00;0;  4.1428857E+00;  1.1995852E+04;  0.0000000E+00; -1.0087683E-01;  4.0000000E+04;  0.0000000E+00;  3.9529539E+04;  3.9414794E+00;  0.0000000E+00;  2.0140631E-01;  6.1469116E+03;
  9.1485643E-01;  9.9999998E-03;  1.8120097E-01;7618;  2.1533678E-01;  0.0000000E+00;  1.0981338E-01;  1.0062100E+03;  1.8482131E-01;  5.1445503E+03;3; -3.8771236E+01;  0.0000000E+00; -4.5332017E+00;0;  4.2380481E+00;  1.1997639E+04;  0.0000000E+00; -1.2536776E-01;  4.0000000E+04;  0.0000000E+00;  3.9529141E+04;  4.0762038E+00;  0.0000000E+00;  1.6184422E-01;  6.1861260E+03;
  9.1505086E-01;  9.9999998E-03;  1.9125454E-01;7619;  2.3671560E-01;  0.0000000E+00;  1.0860129E-01;  1.0061987E+03;  1.8483344E-01;  5.1351670E+03;3; -4.5590340E+01;  0.0000000E+00; -6.4051666E+00;0;  4.3322253E+00;  1.1997747E+04;  0.0000000E+00; -1.4081535E-01;  4.0000000E+04;  0.0000000E+00;  3.9529559E+04;  4.2083645E+00;  0.0000000E+00;  1.2386063E-01;  6.1341602E+03;
  9.1533464E-01;  9.9999998E-03;  2.0130147E-01;7620;  2.6337716E-01;  0.0000000E+00;  1.0642902E-01;  1.0061440E+03;  1.8485671E-01;  5.0899355E+03;3; -5.1706284E+01;  0.0000000E+00; -7.1003709E+00;0;  4.4255090E+00;  1.1995937E+04;  0.0000000E+00; -1.5096983E-01;  4.0000000E+04;  0.0000000E+00;  3.9530457E+04;  4.3363996E+00;  0.0000000E+00;  8.9109190E-02;  6.0338066E+03;
  9.1556937E-01;  9.9999998E-03;  2.1134366E-01;7621;  2.7656528E-01;  0.0000000E+00;  1.0447936E-01;  1.0060167E+03;  1.8488358E-01;  4.9843633E+03;3; -5.7674892E+01;  0.0000000E+00; -7.0276446E+00;0;  4.5192556E+00;  1.1992244E+04;  0.0000000E+00; -1.6065045E-01;  4.0000000E+04;  0.0000000E+00;  3.9531289E+04;  4.4601746E+00;  0.0000000E+00;  5.9081186E-02;  5.8955215E+03;
  9.1569692E-01;  9.9999998E-03;  2.2142228E-01;7622;  2.7596900E-01;  0.0000000E+00;  1.0243291E-01;  1.0057352E+03;  1.8491180E-01;  4.7512964E+03;3; -6.3827652E+01;  0.0000000E+00; -7.4428673E+00;0;  4.6133242E+00;  1.1986762E+04;  0.0000000E+00; -1.7314507E-01;  4.0000000E+04;  0.0000000E+00;  3.9527004E+04;  4.5783730E+00;  0.0000000E+00;  3.4951326E-02;  6.4195332E+03;
  9.1569442E-01;  9.9999998E-03;  2.3155402E-01;7623;  2.7300242E-01;  0.0000000E+00;  9.9010505E-02;  1.0051447E+03;  1.8493594E-01;  4.2619556E+03;3; -7.0434471E+01;  0.0000000E+00; -8.2131777E+00;0;  4.7035227E+00;  1.1980596E+04;  0.0000000E+00; -1.9811046E-01;  4.0000000E+04;  0.0000000E+00;  3.9504211E+04;  4.6888056E+00;  0.0000000E+00;  1.4717181E-02;  9.2769121E+03;
  9.3451720E-01;  9.9999998E-03;  7.0449151E-02;7668;  3.2088771E-01;  0.0000000E+00;  6.2262151E-02;  1.0064811E+03;  1.8618418E-01;  5.3691177E+03;3;  6.2547501E+01;  0.0000000E+00;  1.1063463E+01;0;  2.8662717E+00;  1.1838696E+04;  0.0000000E+00;  3.2886961E-01;  4.0000000E+04;  0.0000000E+00;  3.9562801E+04;  2.3880980E+00;  0.0000000E+00;  4.7817370E-01;  1.7910599E+03;
  9.3459612E-01;  9.9999998E-03;  8.0542348E-02;7669;  3.2794386E-01;  0.0000000E+00;  6.9397822E-02;  1.0062660E+03;  1.8616940E-01;  5.1908647E+03;3;  6.0851513E+01;  0.0000000E+00;  1.2048584E+01;0;  2.9464736E+00;  1.1833030E+04;  0.0000000E+00;  4.2760488E-01;  4.0000000E+04;  0.0000000E+00;  3.9563148E+04;  2.4809995E+00;  0.0000000E+00;  4.6547404E-01;  2.1853835E+03;
  9.3461281E-01;  9.9999998E-03;  9.0615749E-02;7670;  3.3564329E-01;  0.0000000E+00;  7.6188214E-02;  1.0060875E+03;  1.8614683E-01;  5.0429292E+03;3;  5.9037605E+01;  0.0000000E+00;  1.2985497E+01;0;  3.0373917E+00;  1.1828637E+04;  0.0000000E+00;  4.9763969E-01;  4.0000000E+04;  0.0000000E+00;  3.9563480E+04;  2.5852020E+00;  0.0000000E+00;  4.5218965E-01;  2.5368162E+03;
  9.3455398E-01;  9.9999998E-03;  1.0067376E-01;7671;  3.4373754E-01;  0.0000000E+00;  8.2665071E-02;  1.0059460E+03;  1.8611959E-01;  4.9258062E+03;3;  5.6265717E+01;  0.0000000E+00;  1.3863557E+01;0;  3.1380193E+00;  1.1826043E+04;  0.0000000E+00;  5.1076436E-01;  4.0000000E+04;  0.0000000E+00;  3.9563414E+04;  2.7000356E+00;  0.0000000E+00;  4.3798381E-01;  2.7682488E+03;
  9.3442237E-01;  9.9999998E-03;  1.1069748E-01;7672;  3.5208425E-01;  0.0000000E+00;  8.9112304E-02;  1.0058408E+03;  1.8608652E-01;  4.8386064E+03;3;  5.2913620E+01;  0.0000000E+00;  1.4729382E+01;0;  3.2463634E+00;  1.1825438E+04;  0.0000000E+00;  4.4757810E-01;  4.0000000E+04;  0.0000000E+00;  3.9561707E+04;  2.8240197E+00;  0.0000000E+00;  4.2234370E-01;  2.8383772E+03;
  9.3421799E-01;  9.9999998E-03;  1.2072589E-01;7673;  3.6046466E-01;  0.0000000E+00;  9.6047081E-02;  1.0057675E+03;  1.8605073E-01;  4.7778726E+03;3;  4.8030327E+01;  0.0000000E+00;  1.5809374E+01;0;  3.3609359E+00;  1.1826870E+04;  0.0000000E+00;  3.0627850E-01;  4.0000000E+04;  0.0000000E+00;  3.9558195E+04;  2.9564524E+00;  0.0000000E+00;  4.0448359E-01;  2.8229702E+03;
  9.3397677E-01;  9.9999998E-03;  1.3076445E-01;7674;  3.6861306E-01;  0.0000000E+00;  1.0358871E-01;  1.0057333E+03;  1.8601640E-01;  4.7495312E+03;3;  4.1640846E+01;  0.0000000E+00;  1.7067282E+01;0;  3.4788904E+00;  1.1830146E+04;  0.0000000E+00;  1.0439075E-01;  4.0000000E+04;  0.0000000E+00;  3.9553086E+04;  3.0952902E+00;  0.0000000E+00;  3.8360021E-01;  2.9209622E+03;
  9.3375760E-01;  9.9999998E-03;  1.4081211E-01;7675;  3.7631616E-01;  0.0000000E+00;  1.1127314E-01;  1.0057380E+03;  1.8598400E-01;  4.7534829E+03;3;  3.4118534E+01;  0.0000000E+00;  1.8007429E+01;0;  3.5967669E+00;  1.1834659E+04;  0.0000000E+00; -1.2588669E-01;  4.0000000E+04;  0.0000000E+00;  3.9546836E+04;  3.2378221E+00;  0.0000000E+00;  3.5894486E-01;  3.2942336E+03;
  9.3361497E-01;  9.9999998E-03;  1.5086372E-01;7676;  3.8330483E-01;  0.0000000E+00;  1.1726597E-01;  1.0057734E+03;  1.8596019E-01;  4.7828135E+03;3;  2.6395390E+01;  0.0000000E+00;  1.7712055E+01;0;  3.7114255E+00;  1.1839708E+04;  0.0000000E+00; -3.4813964E-01;  4.0000000E+04;  0.0000000E+00;  3.9540586E+04;  3.3815014E+00;  0.0000000E+00;  3.2992408E-01;  3.8835796E+03;
  9.3355531E-01;  9.9999998E-03;  1.6091132E-01;7677;  3.8944519E-01;  0.0000000E+00;  1.2051722E-01;  1.0058348E+03;  1.8594494E-01;  4.8336729E+03;3;  1.8759953E+01;  0.0000000E+00;  1.6248056E+01;0;  3.8216839E+00;  1.1844648E+04;  0.0000000E+00; -5.3154927E-01;  4.0000000E+04;  0.0000000E+00;  3.9535277E+04;  3.5250137E+00;  0.0000000E+00;  2.9667014E-01;  4.4996631E+03;
  9.3356574E-01;  9.9999998E-03;  1.7095326E-01;7678;  3.9529860E-01;  0.0000000E+00;  1.2209678E-01;  1.0059136E+03;  1.8593888E-01;  4.8989502E+03;3;  1.1266044E+01;  0.0000000E+00;  1.3719366E+01;0;  3.9278095E+00;  1.1849210E+04;  0.0000000E+00; -6.5799671E-01;  4.0000000E+04;  0.0000000E+00;  3.9531457E+04;  3.6672697E+00;  0.0000000E+00;  2.6053974E-01;  4.9919497E+03;
  9.3364918E-01;  9.9999998E-03;  1.8099117E-01;7679;  4.0126958E-01;  0.0000000E+00;  1.2275623E-01;  1.0060031E+03;  1.8594222E-01;  4.9731147E+03;3;  3.9032156E+00;  0.0000000E+00;  1.0688695E+01;0;  4.0304003E+00;  1.1852763E+04;  0.0000000E+00; -7.2544736E-01;  4.0000000E+04;  0.0000000E+00;  3.9529254E+04;  3.8066890E+00;  0.0000000E+00;  2.2371103E-01;  5.2794082E+03;
  9.3381906E-01;  9.9999998E-03;  1.9102629E-01;7680;  4.0779787E-01;  0.0000000E+00;  1.2283321E-01;  1.0060759E+03;  1.8595569E-01;  5.0334531E+03;3; -3.1538439E+00;  0.0000000E+00;  7.5286088E+00;0;  4.1299520E+00;  1.1854817E+04;  0.0000000E+00; -7.4398094E-01;  4.0000000E+04;  0.0000000E+00;  3.9529207E+04;  3.9413412E+00;  0.0000000E+00;  1.8861076E-01;  5.3060820E+03;
  9.3407083E-01;  9.9999998E-03;  2.0106520E-01;7681;  4.1524869E-01;  0.0000000E+00;  1.2266240E-01;  1.0061271E+03;  1.8597877E-01;  5.0758179E+03;3; -1.0031066E+01;  0.0000000E+00;  5.1895428E+00;0;  4.2276125E+00;  1.1854897E+04;  0.0000000E+00; -7.2596776E-01;  4.0000000E+04;  0.0000000E+00;  3.9531539E+04;  4.0700202E+00;  0.0000000E+00;  1.5759212E-01;  5.0323901E+03;
  9.3436873E-01;  9.9999998E-03;  2.1111667E-01;7682;  4.2332402E-01;  0.0000000E+00;  1.2246121E-01;  1.0061435E+03;  1.8600762E-01;  5.0893457E+03;3; -1.6568373E+01;  0.0000000E+00;  2.8408306E+00;0;  4.3258886E+00;  1.1853064E+04;  0.0000000E+00; -6.7925537E-01;  4.0000000E+04;  0.0000000E+00;  3.9535770E+04;  4.1928048E+00;  0.0000000E+00;  1.3308406E-01;  4.5086851E+03;
  9.3466759E-01;  9.9999998E-03;  2.2121692E-01;7683;  4.3123421E-01;  0.0000000E+00;  1.2216246E-01;  1.0060351E+03;  1.8604033E-01;  4.9995757E+03;3; -2.3333212E+01;  0.0000000E+00;  1.3212317E+00;0;  4.4284253E+00;  1.1849229E+04;  0.0000000E+00; -6.0293031E-01;  4.0000000E+04;  0.0000000E+00;  3.9535664E+04;  4.3107033E+00;  0.0000000E+00;  1.1772199E-01;  4.5095083E+03;
  9.3486476E-01;  9.9999998E-03;  2.3136063E-01;7684;  4.3685901E-01;  0.0000000E+00;  1.2093438E-01;  1.0056628E+03;  1.8608081E-01;  4.6911621E+03;3; -3.0554131E+01;  0.0000000E+00;  9.6044070E-01;0;  4.5388412E+00;  1.1843856E+04;  0.0000000E+00; -4.9814954E-01;  4.0000000E+04;  0.0000000E+00;  3.9521039E+04;  4.4264288E+00;  0.0000000E+00;  1.1241269E-01;  6.3115283E+03;
  9.5313823E-01;  9.9999998E-03;  7.0376985E-02;7729;  3.2490686E-01;  0.0000000E+00;  5.2631214E-02;  1.0047187E+03;  1.8625872E-01;  3.9089277E+03;3;  6.6456459E+01;  0.0000000E+00;  1.0924218E+01;0;  2.2335558E+00;  1.1769936E+04;  0.0000000E+00;  5.3360045E-01;  4.0000000E+04;  0.0000000E+00;  3.9585277E+04;  1.7720876E+00;  0.0000000E+00;  4.6146834E-01;  3.2167507E+03;
  9.5319641E-01;  9.9999998E-03;  8.0443002E-02;7730;  3.3270803E-01;  0.0000000E+00;  5.9300441E-02;  1.0047032E+03;  1.8625183E-01;  3.8961882E+03;3;  6.5429123E+01;  0.0000000E+00;  1.2379250E+01;0;  2.3081844E+00;  1.1769780E+04;  0.0000000E+00;  6.7454314E-01;  4.0000000E+04;  0.0000000E+00;  3.9585570E+04;  1.8563876E+00;  0.0000000E+00;  4.5179683E-01;  3.6435056E+03;
  9.5319891E-01;  9.9999998E-03;  9.0488873E-02;7731;  3.4141195E-01;  0.0000000E+00;  6.5822013E-02;  1.0047075E+03;  1.8624206E-01;  3.8997432E+03;3;  6.4421532E+01;  0.0000000E+00;  1.3905940E+01;0;  2.3930533E+00;  1.1770393E+04;  0.0000000E+00;  7.5805992E-01;  4.0000000E+04;  0.0000000E+00;  3.9586055E+04;  1.9513075E+00;  0.0000000E+00;  4.4174576E-01;  4.0220579E+03;
  9.5312965E-01;  9.9999998E-03;  1.0052727E-01;7732;  3.5099611E-01;  0.0000000E+00;  7.2285704E-02;  1.0047252E+03;  1.8623100E-01;  3.9143591E+03;3;  6.3444145E+01;  0.0000000E+00;  1.5499724E+01;0;  2.4878490E+00;  1.1771981E+04;  0.0000000E+00;  7.3867428E-01;  4.0000000E+04;  0.0000000E+00;  3.9585637E+04;  2.0567372E+00;  0.0000000E+00;  4.3111178E-01;  4.1451782E+03;
  9.5297724E-01;  9.9999998E-03;  1.1053910E-01;7733;  3.6135614E-01;  0.0000000E+00;  7.8660466E-02;  1.0047590E+03;  1.8621594E-01;  3.9424055E+03;3;  6.2382347E+01;  0.0000000E+00;  1.7061663E+01;0;  2.5916822E+00;  1.1774816E+04;  0.0000000E+00;  5.8606768E-01;  4.0000000E+04;  0.0000000E+00;  3.9583617E+04;  2.1721048E+00;  0.0000000E+00;  4.1957730E-01;  3.8685681E+03;
  9.5276755E-01;  9.9999998E-03;  1.2053700E-01;7734;  3.7238592E-01;  0.0000000E+00;  8.4856071E-02;  1.0048088E+03;  1.8619937E-01;  3.9835869E+03;3;  6.1011074E+01;  0.0000000E+00;  1.8546520E+01;0;  2.7023001E+00;  1.1778934E+04;  0.0000000E+00;  2.9927662E-01;  4.0000000E+04;  0.0000000E+00;  3.9579672E+04;  2.2957079E+00;  0.0000000E+00;  4.0659219E-01;  3.1626768E+03;
  9.5252693E-01;  9.9999998E-03;  1.3053477E-01;7735;  3.8392088E-01;  0.0000000E+00;  9.0801962E-02;  1.0048711E+03;  1.8618132E-01;  4.0352361E+03;3;  5.9379669E+01;  0.0000000E+00;  2.0027517E+01;0;  2.8172760E+00;  1.1784423E+04;  0.0000000E+00; -9.0368032E-02;  4.0000000E+04;  0.0000000E+00;  3.9573930E+04;  2.4257979E+00;  0.0000000E+00;  3.9147794E-01;  2.1343655E+03;
  9.5230979E-01;  9.9999998E-03;  1.4054458E-01;7736;  3.9596081E-01;  0.0000000E+00;  9.6456863E-02;  1.0049637E+03;  1.8616386E-01;  4.1118696E+03;3;  5.7920746E+01;  0.0000000E+00;  2.1490034E+01;0;  2.9328640E+00;  1.1791003E+04;  0.0000000E+00; -5.2645427E-01;  4.0000000E+04;  0.0000000E+00;  3.9566703E+04;  2.5593832E+00;  0.0000000E+00;  3.7348089E-01;  1.0858721E+03;
  9.5217037E-01;  9.9999998E-03;  1.5057293E-01;7737;  4.0834379E-01;  0.0000000E+00;  1.0177307E-01;  1.0050840E+03;  1.8614858E-01;  4.2116104E+03;3;  5.5464733E+01;  0.0000000E+00;  2.2801611E+01;0;  3.0453434E+00;  1.1798285E+04;  0.0000000E+00; -9.4408995E-01;  4.0000000E+04;  0.0000000E+00;  3.9558906E+04;  2.6933589E+00;  0.0000000E+00;  3.5198453E-01;  1.0090674E+03;
  9.5212644E-01;  9.9999998E-03;  1.6062070E-01;7738;  4.2091522E-01;  0.0000000E+00;  1.0669331E-01;  1.0052238E+03;  1.8613695E-01;  4.3273496E+03;3;  5.2154774E+01;  0.0000000E+00;  2.3798689E+01;0;  3.1530490E+00;  1.1805735E+04;  0.0000000E+00; -1.2870457E+00;  4.0000000E+04;  0.0000000E+00;  3.9551449E+04;  2.8260567E+00;  0.0000000E+00;  3.2699215E-01;  1.8669559E+03;
  9.5219958E-01;  9.9999998E-03;  1.7067848E-01;7739;  4.3343234E-01;  0.0000000E+00;  1.1122025E-01;  1.0053773E+03;  1.8612935E-01;  4.4545425E+03;3;  4.7371552E+01;  0.0000000E+00;  2.4365719E+01;0;  3.2548733E+00;  1.1812656E+04;  0.0000000E+00; -1.5227103E+00;  4.0000000E+04;  0.0000000E+00;  3.9545434E+04;  2.9553926E+00;  0.0000000E+00;  2.9948059E-01;  2.6669348E+03;
  9.5241094E-01;  9.9999998E-03;  1.8074206E-01;7740;  4.4579318E-01;  0.0000000E+00;  1.1542714E-01;  1.0055280E+03;  1.8612704E-01;  4.5793652E+03;3;  4.1159492E+01;  0.0000000E+00;  2.4475063E+01;0;  3.3503532E+00;  1.1818446E+04;  0.0000000E+00; -1.6482434E+00;  4.0000000E+04;  0.0000000E+00;  3.9541066E+04;  3.0790837E+00;  0.0000000E+00;  2.7126950E-01;  3.2488042E+03;
  9.5276546E-01;  9.9999998E-03;  1.9080807E-01;7741;  4.5819953E-01;  0.0000000E+00;  1.1928672E-01;  1.0056713E+03;  1.8613082E-01;  4.6980630E+03;3;  3.4500465E+01;  0.0000000E+00;  2.3622845E+01;0;  3.4401362E+00;  1.1822732E+04;  0.0000000E+00; -1.6802710E+00;  4.0000000E+04;  0.0000000E+00;  3.9539012E+04;  3.1953869E+00;  0.0000000E+00;  2.4474937E-01;  3.5849116E+03;
  9.5323223E-01;  9.9999998E-03;  2.0088243E-01;7742;  4.7108555E-01;  0.0000000E+00;  1.2273138E-01;  1.0057847E+03;  1.8614036E-01;  4.7919731E+03;3;  2.8348766E+01;  0.0000000E+00;  2.1964115E+01;0;  3.5268412E+00;  1.1825090E+04;  0.0000000E+00; -1.6337516E+00;  4.0000000E+04;  0.0000000E+00;  3.9539367E+04;  3.3042362E+00;  0.0000000E+00;  2.2260496E-01;  3.6864341E+03;
  9.5376951E-01;  9.9999998E-03;  2.1096334E-01;7743;  4.8477602E-01;  0.0000000E+00;  1.2572080E-01;  1.0058581E+03;  1.8615457E-01;  4.8528013E+03;3;  2.2742266E+01;  0.0000000E+00;  1.9136078E+01;0;  3.6139991E+00;  1.1825503E+04;  0.0000000E+00; -1.5081958E+00;  4.0000000E+04;  0.0000000E+00;  3.9541082E+04;  3.4060812E+00;  0.0000000E+00;  2.0791796E-01;  3.6034832E+03;
  9.5425045E-01;  9.9999998E-03;  2.2107172E-01;7744;  4.9875063E-01;  0.0000000E+00;  1.2788846E-01;  1.0058245E+03;  1.8617256E-01;  4.8250483E+03;3;  1.7064087E+01;  0.0000000E+00;  1.5322374E+01;0;  3.7096462E+00;  1.1823854E+04;  0.0000000E+00; -1.2988385E+00;  4.0000000E+04;  0.0000000E+00;  3.9540078E+04;  3.5062652E+00;  0.0000000E+00;  2.0338105E-01;  3.7892363E+03;
  9.5451337E-01;  9.9999998E-03;  2.3120408E-01;7745;  5.1152623E-01;  0.0000000E+00;  1.2832707E-01;  1.0055385E+03;  1.8619879E-01;  4.5880405E+03;3;  1.0256883E+01;  0.0000000E+00;  1.2703596E+01;0;  3.8213670E+00;  1.1819502E+04;  0.0000000E+00; -1.0271578E+00;  4.0000000E+04;  0.0000000E+00;  3.9529961E+04;  3.6123579E+00;  0.0000000E+00;  2.0900907E-01;  4.9283062E+03;
  9.7173828E-01;  9.9999998E-03;  7.0289731E-02;7790;  3.2284907E-01;  0.0000000E+00;  3.9221186E-02;  1.0024440E+03;  1.8574549E-01;  2.0245620E+03;3;  6.7622482E+01;  0.0000000E+00;  1.1426396E+01;0;  1.5020156E+00;  1.1763833E+04;  0.0000000E+00;  5.2441680E-01;  4.0000000E+04;  0.0000000E+00;  3.9610555E+04;  1.1011541E+00;  0.0000000E+00;  4.0086156E-01;  6.4725894E+03;
  9.7160244E-01;  9.9999998E-03;  8.0329724E-02;7791;  3.3098558E-01;  0.0000000E+00;  4.4620056E-02;  1.0026640E+03;  1.8575230E-01;  2.2067554E+03;3;  6.6741882E+01;  0.0000000E+00;  1.3189496E+01;0;  1.5690284E+00;  1.1769898E+04;  0.0000000E+00;  6.4885050E-01;  4.0000000E+04;  0.0000000E+00;  3.9610773E+04;  1.1735489E+00;  0.0000000E+00;  3.9547938E-01;  6.6511289E+03;
  9.7138381E-01;  9.9999998E-03;  9.0356089E-02;7792;  3.4008348E-01;  0.0000000E+00;  5.0042361E-02;  1.0028871E+03;  1.8575741E-01;  2.3916155E+03;3;  6.5898064E+01;  0.0000000E+00;  1.5061007E+01;0;  1.6464133E+00;  1.1776364E+04;  0.0000000E+00;  7.0724684E-01;  4.0000000E+04;  0.0000000E+00;  3.9610785E+04;  1.2563025E+00;  0.0000000E+00;  3.9011091E-01;  6.8008516E+03;
  9.7109675E-01;  9.9999998E-03;  1.0038097E-01;7793;  3.5008398E-01;  0.0000000E+00;  5.5449270E-02;  1.0031089E+03;  1.8576124E-01;  2.5752910E+03;3;  6.5003609E+01;  0.0000000E+00;  1.6907715E+01;0;  1.7333064E+00;  1.1783419E+04;  0.0000000E+00;  6.5197402E-01;  4.0000000E+04;  0.0000000E+00;  3.9609918E+04;  1.3487095E+00;  0.0000000E+00;  3.8459691E-01;  6.7421611E+03;
  9.7076362E-01;  9.9999998E-03;  1.1039778E-01;7794;  3.6087888E-01;  0.0000000E+00;  6.0738791E-02;  1.0033278E+03;  1.8576421E-01;  2.7565972E+03;3;  6.3941635E+01;  0.0000000E+00;  1.8541239E+01;0;  1.8282645E+00;  1.1791119E+04;  0.0000000E+00;  4.5083007E-01;  4.0000000E+04;  0.0000000E+00;  3.9607203E+04;  1.4495379E+00;  0.0000000E+00;  3.7872657E-01;  6.3329795E+03;
  9.7042036E-01;  9.9999998E-03;  1.2040843E-01;7795;  3.7240249E-01;  0.0000000E+00;  6.5816477E-02;  1.0035385E+03;  1.8576364E-01;  2.9311885E+03;3;  6.3059841E+01;  0.0000000E+00;  2.0181454E+01;0;  1.9291016E+00;  1.1799598E+04;  0.0000000E+00;  1.0320944E-01;  4.0000000E+04;  0.0000000E+00;  3.9602574E+04;  1.5569233E+00;  0.0000000E+00;  3.7217832E-01;  5.5329678E+03;
  9.7010708E-01;  9.9999998E-03;  1.3044089E-01;7796;  3.8463485E-01;  0.0000000E+00;  7.0648842E-02;  1.0037567E+03;  1.8575966E-01;  3.1119028E+03;3;  6.2233124E+01;  0.0000000E+00;  2.1861891E+01;0;  2.0334280E+00;  1.1808989E+04;  0.0000000E+00; -3.5501385E-01;  4.0000000E+04;  0.0000000E+00;  3.9595695E+04;  1.6689067E+00;  0.0000000E+00;  3.6452121E-01;  4.4197778E+03;
  9.6987605E-01;  9.9999998E-03;  1.4049084E-01;7797;  3.9750591E-01;  0.0000000E+00;  7.5262539E-02;  1.0039866E+03;  1.8575193E-01;  3.3023926E+03;3;  6.1411629E+01;  0.0000000E+00;  2.3604216E+01;0;  2.1377587E+00;  1.1819279E+04;  0.0000000E+00; -8.5761297E-01;  4.0000000E+04;  0.0000000E+00;  3.9587258E+04;  1.7825168E+00;  0.0000000E+00;  3.5524198E-01;  3.1558723E+03;
  9.6981514E-01;  9.9999998E-03;  1.5055031E-01;7798;  4.1099012E-01;  0.0000000E+00;  7.9650521E-02;  1.0042330E+03;  1.8573944E-01;  3.5065088E+03;3;  6.0621784E+01;  0.0000000E+00;  2.5394293E+01;0;  2.2367115E+00;  1.1830123E+04;  0.0000000E+00; -1.3276109E+00;  4.0000000E+04;  0.0000000E+00;  3.9578242E+04;  1.8929143E+00;  0.0000000E+00;  3.4379724E-01;  1.8982499E+03;
  9.6993208E-01;  9.9999998E-03;  1.6062510E-01;7799;  4.2510664E-01;  0.0000000E+00;  8.3921686E-02;  1.0044971E+03;  1.8572544E-01;  3.7253379E+03;3;  5.9784016E+01;  0.0000000E+00;  2.7299059E+01;0;  2.3288860E+00;  1.1841150E+04;  0.0000000E+00; -1.6994020E+00;  4.0000000E+04;  0.0000000E+00;  3.9569367E+04;  1.9987726E+00;  0.0000000E+00;  3.3011353E-01;  7.2955005E+02;
  9.7021419E-01;  9.9999998E-03;  1.7071204E-01;7800;  4.3983987E-01;  0.0000000E+00;  8.8277206E-02;  1.0047684E+03;  1.8570875E-01;  3.9499915E+03;3;  5.8862839E+01;  0.0000000E+00;  2.9434814E+01;0;  2.4142630E+00;  1.1851798E+04;  0.0000000E+00; -1.9371520E+00;  4.0000000E+04;  0.0000000E+00;  3.9561098E+04;  2.0995891E+00;  0.0000000E+00;  3.1467396E-01;  5.0024982E+02;
  9.7064596E-01;  9.9999998E-03;  1.8080102E-01;7801;  4.5519915E-01;  0.0000000E+00;  9.2939377E-02;  1.0050255E+03;  1.8569078E-01;  4.1629912E+03;3;  5.7874081E+01;  0.0000000E+00;  3.1564949E+01;0;  2.4932816E+00;  1.1861629E+04;  0.0000000E+00; -2.0411391E+00;  4.0000000E+04;  0.0000000E+00;  3.9553766E+04;  2.1947782E+00;  0.0000000E+00;  2.9850334E-01;  1.5601372E+03;
  9.7119296E-01;  9.9999998E-03;  1.9088024E-01;7802;  4.7116819E-01;  0.0000000E+00;  9.8199829E-02;  1.0052493E+03;  1.8567471E-01;  4.3483394E+03;3;  5.6249611E+01;  0.0000000E+00;  3.3887085E+01;0;  2.5677297E+00;  1.1870081E+04;  0.0000000E+00; -2.0342007E+00;  4.0000000E+04;  0.0000000E+00;  3.9547133E+04;  2.2845109E+00;  0.0000000E+00;  2.8321883E-01;  2.5970679E+03;
  9.7175944E-01;  9.9999998E-03;  2.0093755E-01;7803;  4.8764476E-01;  0.0000000E+00;  1.0427639E-01;  1.0054120E+03;  1.8565963E-01;  4.4831279E+03;3;  5.3815681E+01;  0.0000000E+00;  3.5248112E+01;0;  2.6432753E+00;  1.1876517E+04;  0.0000000E+00; -1.9428321E+00;  4.0000000E+04;  0.0000000E+00;  3.9541379E+04;  2.3720648E+00;  0.0000000E+00;  2.7121031E-01;  3.4675339E+03;
  9.7225720E-01;  9.9999998E-03;  2.1096681E-01;7804;  5.0456727E-01;  0.0000000E+00;  1.1096823E-01;  1.0055107E+03;  1.8564673E-01;  4.5648877E+03;3;  5.0394390E+01;  0.0000000E+00;  3.4546070E+01;0;  2.7266612E+00;  1.1880157E+04;  0.0000000E+00; -1.7869465E+00;  4.0000000E+04;  0.0000000E+00;  3.9539012E+04;  2.4606457E+00;  0.0000000E+00;  2.6601556E-01;  3.8701433E+03;
  9.7276115E-01;  9.9999998E-03;  2.2101824E-01;7805;  5.2220494E-01;  0.0000000E+00;  1.1698642E-01;  1.0055203E+03;  1.8563907E-01;  4.5728818E+03;3;  4.6902306E+01;  0.0000000E+00;  3.1553608E+01;0;  2.8174634E+00;  1.1880919E+04;  0.0000000E+00; -1.5498549E+00;  4.0000000E+04;  0.0000000E+00;  3.9537824E+04;  2.5456724E+00;  0.0000000E+00;  2.7179095E-01;  4.0343472E+03;
  9.7315556E-01;  9.9999998E-03;  2.3109850E-01;7806;  5.3998601E-01;  0.0000000E+00;  1.2117363E-01;  1.0053611E+03;  1.8564311E-01;  4.4409487E+03;3;  4.2685818E+01;  0.0000000E+00;  2.7172600E+01;0;  2.9225967E+00;  1.1878285E+04;  0.0000000E+00; -1.2235140E+00;  4.0000000E+04;  0.0000000E+00;  3.9533852E+04;  2.6322722E+00;  0.0000000E+00;  2.9032454E-01;  4.4478999E+03;
  9.9034548E-01;  9.9999998E-03;  7.0239969E-02;7851;  3.1888244E-01;  0.0000000E+00;  2.6279259E-02;  9.9953931E+02;  1.8478669E-01; -3.8160104E+02;3;  6.7336891E+01;  0.0000000E+00;  1.2033651E+01;0;  8.5784727E-01;  1.1804442E+04;  0.0000000E+00;  2.1935773E-01;  4.0000000E+04;  0.0000000E+00;  3.9632383E+04;  5.5763423E-01;  0.0000000E+00;  3.0021304E-01;  9.3937705E+03;
  9.9020368E-01;  9.9999998E-03;  8.0263063E-02;7852;  3.2718801E-01;  0.0000000E+00;  3.0009763E-02;  9.9996460E+02;  1.8480711E-01; -2.9327353E+01;3;  6.6627769E+01;  0.0000000E+00;  1.4019901E+01;0;  9.0570635E-01;  1.1815353E+04;  0.0000000E+00;  2.7273223E-01;  4.0000000E+04;  0.0000000E+00;  3.9632727E+04;  6.0654455E-01;  0.0000000E+00;  2.9916179E-01;  9.4384023E+03;
  9.8999107E-01;  9.9999998E-03;  9.0276904E-02;7853;  3.3652037E-01;  0.0000000E+00;  3.3806235E-02;  1.0003894E+03;  1.8483031E-01;  3.2260101E+02;3;  6.6091438E+01;  0.0000000E+00;  1.5965778E+01;0;  9.6139091E-01;  1.1826567E+04;  0.0000000E+00;  2.8581443E-01;  4.0000000E+04;  0.0000000E+00;  3.9632801E+04;  6.6267014E-01;  0.0000000E+00;  2.9872078E-01;  9.4506934E+03;
  9.8965716E-01;  9.9999998E-03;  1.0028499E-01;7854;  3.4681970E-01;  0.0000000E+00;  3.7679981E-02;  1.0008134E+03;  1.8485363E-01;  6.7374011E+02;3;  6.5481682E+01;  0.0000000E+00;  1.7962101E+01;0;  1.0267661E+00;  1.1838245E+04;  0.0000000E+00;  2.2738329E-01;  4.0000000E+04;  0.0000000E+00;  3.9631641E+04;  7.2751027E-01;  0.0000000E+00;  2.9925573E-01;  9.2974785E+03;
  9.8923594E-01;  9.9999998E-03;  1.1028678E-01;7855;  3.5800588E-01;  0.0000000E+00;  4.1590460E-02;  1.0012281E+03;  1.8487547E-01;  1.0172766E+03;3;  6.4912392E+01;  0.0000000E+00;  1.9971062E+01;0;  1.1010981E+00;  1.1850566E+04;  0.0000000E+00;  7.2317012E-02;  4.0000000E+04;  0.0000000E+00;  3.9628727E+04;  8.0046111E-01;  0.0000000E+00;  3.0063698E-01;  8.8680459E+03;
  9.8882216E-01;  9.9999998E-03;  1.2029680E-01;7856;  3.6994430E-01;  0.0000000E+00;  4.5383096E-02;  1.0016423E+03;  1.8489081E-01;  1.3603201E+03;3;  6.4080650E+01;  0.0000000E+00;  2.1704639E+01;0;  1.1813592E+00;  1.1863822E+04;  0.0000000E+00; -1.8434456E-01;  4.0000000E+04;  0.0000000E+00;  3.9623320E+04;  8.7891483E-01;  0.0000000E+00;  3.0244434E-01;  8.1179355E+03;
  9.8863143E-01;  9.9999998E-03;  1.3035166E-01;7857;  3.8257727E-01;  0.0000000E+00;  4.8803251E-02;  1.0020516E+03;  1.8489598E-01;  1.6994135E+03;3;  6.3322643E+01;  0.0000000E+00;  2.3373375E+01;0;  1.2595717E+00;  1.1878189E+04;  0.0000000E+00; -5.1841772E-01;  4.0000000E+04;  0.0000000E+00;  3.9616125E+04;  9.5574653E-01;  0.0000000E+00;  3.0382514E-01;  7.1066763E+03;
  9.8860812E-01;  9.9999998E-03;  1.4043848E-01;7858;  3.9591646E-01;  0.0000000E+00;  5.1915243E-02;  1.0024855E+03;  1.8489072E-01;  2.0588479E+03;3;  6.2870846E+01;  0.0000000E+00;  2.5046814E+01;0;  1.3366948E+00;  1.1893781E+04;  0.0000000E+00; -8.7493688E-01;  4.0000000E+04;  0.0000000E+00;  3.9607473E+04;  1.0315118E+00;  0.0000000E+00;  3.0518305E-01;  5.9331362E+03;
  9.8866099E-01;  9.9999998E-03;  1.5053938E-01;7859;  4.0996814E-01;  0.0000000E+00;  5.4898478E-02;  1.0029458E+03;  1.8487270E-01;  2.4401047E+03;3;  6.2618187E+01;  0.0000000E+00;  2.6720766E+01;0;  1.4151809E+00;  1.1910497E+04;  0.0000000E+00; -1.1942785E+00;  4.0000000E+04;  0.0000000E+00;  3.9598129E+04;  1.1085156E+00;  0.0000000E+00;  3.0666524E-01;  4.6925356E+03;
  9.8878485E-01;  9.9999998E-03;  1.6063456E-01;7860;  4.2469820E-01;  0.0000000E+00;  5.7896756E-02;  1.0034290E+03;  1.8484609E-01;  2.8404189E+03;3;  6.2326969E+01;  0.0000000E+00;  2.8539003E+01;0;  1.4942954E+00;  1.1927826E+04;  0.0000000E+00; -1.4285308E+00;  4.0000000E+04;  0.0000000E+00;  3.9588516E+04;  1.1864626E+00;  0.0000000E+00;  3.0783275E-01;  3.4823613E+03;
  9.8903114E-01;  9.9999998E-03;  1.7071104E-01;7861;  4.4007835E-01;  0.0000000E+00;  6.1023783E-02;  1.0039131E+03;  1.8480928E-01;  3.2413240E+03;3;  6.2064358E+01;  0.0000000E+00;  3.0612585E+01;0;  1.5710669E+00;  1.1944981E+04;  0.0000000E+00; -1.5534215E+00;  4.0000000E+04;  0.0000000E+00;  3.9579664E+04;  1.2628472E+00;  0.0000000E+00;  3.0821964E-01;  2.4422014E+03;
  9.8945117E-01;  9.9999998E-03;  1.8078393E-01;7862;  4.5620230E-01;  0.0000000E+00;  6.4437941E-02;  1.0043738E+03;  1.8476966E-01;  3.6229719E+03;3;  6.2249374E+01;  0.0000000E+00;  3.3006756E+01;0;  1.6426766E+00;  1.1961237E+04;  0.0000000E+00; -1.5720088E+00;  4.0000000E+04;  0.0000000E+00;  3.9570965E+04;  1.3349431E+00;  0.0000000E+00;  3.0773360E-01;  1.8418772E+03;
  9.8988944E-01;  9.9999998E-03;  1.9083452E-01;7863;  4.7316882E-01;  0.0000000E+00;  6.8657301E-02;  1.0047750E+03;  1.8472750E-01;  3.9552458E+03;3;  6.2953560E+01;  0.0000000E+00;  3.6013138E+01;0;  1.7145753E+00;  1.1975686E+04;  0.0000000E+00; -1.5108222E+00;  4.0000000E+04;  0.0000000E+00;  3.9562668E+04;  1.4079175E+00;  0.0000000E+00;  3.0665776E-01;  1.9551954E+03;
  9.9034095E-01;  9.9999998E-03;  2.0087495E-01;7864;  4.9105653E-01;  0.0000000E+00;  7.4155740E-02;  1.0050894E+03;  1.8468674E-01;  4.2157314E+03;3;  6.3872868E+01;  0.0000000E+00;  3.9941032E+01;0;  1.7870166E+00;  1.1987468E+04;  0.0000000E+00; -1.3911197E+00;  4.0000000E+04;  0.0000000E+00;  3.9555242E+04;  1.4811482E+00;  0.0000000E+00;  3.0586842E-01;  2.5186106E+03;
  9.9079996E-01;  9.9999998E-03;  2.1090709E-01;7865;  5.0985408E-01;  0.0000000E+00;  8.1615925E-02;  1.0053119E+03;  1.8465164E-01;  4.3999844E+03;3;  6.4840919E+01;  0.0000000E+00;  4.4413837E+01;0;  1.8622011E+00;  1.1995872E+04;  0.0000000E+00; -1.2229158E+00;  4.0000000E+04;  0.0000000E+00;  3.9549992E+04;  1.5537214E+00;  0.0000000E+00;  3.0847970E-01;  3.0594087E+03;
  9.9125409E-01;  9.9999998E-03;  2.2095133E-01;7866;  5.2955580E-01;  0.0000000E+00;  9.1556415E-02;  1.0054269E+03;  1.8462463E-01;  4.4952681E+03;3;  6.5571182E+01;  0.0000000E+00;  4.7247265E+01;0;  1.9471688E+00;  1.2000610E+04;  0.0000000E+00; -1.0035392E+00;  4.0000000E+04;  0.0000000E+00;  3.9546812E+04;  1.6250614E+00;  0.0000000E+00;  3.2210743E-01;  3.4377700E+03;
  9.9172193E-01;  9.9999998E-03;  2.3101206E-01;7867;  5.5004531E-01;  0.0000000E+00;  1.0200594E-01;  1.0054188E+03;  1.8460664E-01;  4.4885483E+03;3;  6.5703918E+01;  0.0000000E+00;  4.2335316E+01;0;  2.0490029E+00;  1.2001898E+04;  0.0000000E+00; -7.2587496E-01;  4.0000000E+04;  0.0000000E+00;  3.9544148E+04;  1.6930109E+00;  0.0000000E+00;  3.5599199E-01;  3.7572217E+03;
  1.0082854E+00;  9.9999998E-03;  1.1028694E-01;7916;  3.5457274E-01;  0.0000000E+00;  2.2430567E-02;  9.9862421E+02;  1.8352780E-01; -1.1395571E+03;3;  6.5129578E+01;  0.0000000E+00;  2.1782156E+01;0;  5.7613099E-01;  1.1961669E+04;  0.0000000E+00; -3.2323140E-01;  4.0000000E+04;  0.0000000E+00;  3.9643480E+04;  3.8481158E-01;  0.0000000E+00;  1.9131939E-01;  1.0781269E+04;
  1.0083231E+00;  9.9999998E-03;  1.0026482E-01;7915;  3.4311265E-01;  0.0000000E+00;  2.0401487E-02;  9.9807306E+02;  1.8350847E-01; -1.5960807E+03;3;  6.5367767E+01;  0.0000000E+00;  1.9832865E+01;0;  5.3766674E-01;  1.1945060E+04;  0.0000000E+00; -2.6962733E-01;  4.0000000E+04;  0.0000000E+00;  3.9646902E+04;  3.5299468E-01;  0.0000000E+00;  1.8467204E-01;  1.1239420E+04;
  1.0084332E+00;  9.9999998E-03;  7.0249662E-02;7912;  3.1453067E-01;  0.0000000E+00;  1.4219929E-02;  9.9643335E+02;  1.8344170E-01; -2.9541973E+03;3;  6.7033493E+01;  0.0000000E+00;  1.4050765E+01;0;  4.4826055E-01;  1.1901167E+04;  0.0000000E+00; -1.6962485E-01;  4.0000000E+04;  0.0000000E+00;  3.9648305E+04;  2.7478769E-01;  0.0000000E+00;  1.7347287E-01;  1.1567828E+04;
  1.0083333E+00;  9.9999998E-03;  1.5051575E-01;7920;  4.0793812E-01;  0.0000000E+00;  2.9630227E-02;  1.0012517E+03;  1.8350796E-01;  1.0367687E+03;3;  6.3558876E+01;  0.0000000E+00;  2.7961346E+01;0;  7.7857417E-01;  1.2046044E+04;  0.0000000E+00; -5.9446776E-01;  4.0000000E+04;  0.0000000E+00;  3.9614566E+04;  5.3744388E-01;  0.0000000E+00;  2.4113031E-01;  7.0452261E+03;
  1.0083184E+00;  9.9999998E-03;  1.6056514E-01;7921;  4.2298469E-01;  0.0000000E+00;  3.1463008E-02;  1.0020258E+03;  1.8347429E-01;  1.6778867E+03;3;  6.3659798E+01;  0.0000000E+00;  2.9436796E+01;0;  8.4294546E-01;  1.2070429E+04;  0.0000000E+00; -6.2606394E-01;  4.0000000E+04;  0.0000000E+00;  3.9605664E+04;  5.8390838E-01;  0.0000000E+00;  2.5903711E-01;  5.9588789E+03;
  1.0084106E+00;  9.9999998E-03;  1.7063461E-01;7922;  4.3878049E-01;  0.0000000E+00;  3.3430163E-02;  1.0028030E+03;  1.8342869E-01;  2.3216699E+03;3;  6.3719582E+01;  0.0000000E+00;  3.1169231E+01;0;  9.0888977E-01;  1.2094997E+04;  0.0000000E+00; -6.2059617E-01;  4.0000000E+04;  0.0000000E+00;  3.9597090E+04;  6.3167161E-01;  0.0000000E+00;  2.7721816E-01;  4.9747363E+03;
  1.0085191E+00;  9.9999998E-03;  9.0267651E-02;7914;  3.3259553E-01;  0.0000000E+00;  1.8227560E-02;  9.9751501E+02;  1.8348104E-01; -2.0582808E+03;3;  6.5789604E+01;  0.0000000E+00;  1.7978163E+01;0;  5.0113803E-01;  1.1929908E+04;  0.0000000E+00; -2.3355243E-01;  4.0000000E+04;  0.0000000E+00;  3.9648379E+04;  3.2248706E-01;  0.0000000E+00;  1.7865096E-01;  1.1478771E+04;
  1.0084865E+00;  9.9999998E-03;  1.2034935E-01;7917;  3.6686137E-01;  0.0000000E+00;  2.4182968E-02;  9.9918854E+02;  1.8353377E-01; -6.7212195E+02;3;  6.4595551E+01;  0.0000000E+00;  2.3699234E+01;0;  6.1477476E-01;  1.1980386E+04;  0.0000000E+00; -3.9221027E-01;  4.0000000E+04;  0.0000000E+00;  3.9638289E+04;  4.1597751E-01;  0.0000000E+00;  1.9879727E-01;  1.0089744E+04;
  1.0084572E+00;  9.9999998E-03;  1.4047039E-01;7919;  3.9359149E-01;  0.0000000E+00;  2.7773747E-02;  1.0005024E+03;  1.8352695E-01;  4.1618835E+02;3;  6.3821312E+01;  0.0000000E+00;  2.6624842E+01;0;  7.1673018E-01;  1.2022682E+04;  0.0000000E+00; -5.3487265E-01;  4.0000000E+04;  0.0000000E+00;  3.9623309E+04;  4.9243417E-01;  0.0000000E+00;  2.2429599E-01;  8.1552344E+03;
  1.0085398E+00;  9.9999998E-03;  8.0265798E-02;7913;  3.2305929E-01;  0.0000000E+00;  1.6181322E-02;  9.9697156E+02;  1.8345879E-01; -2.5084353E+03;3;  6.6398941E+01;  0.0000000E+00;  1.6030146E+01;0;  4.7188193E-01;  1.1915364E+04;  0.0000000E+00; -2.0197995E-01;  4.0000000E+04;  0.0000000E+00;  3.9648613E+04;  2.9677731E-01;  0.0000000E+00;  1.7510463E-01;  1.1553381E+04;
  1.0084964E+00;  9.9999998E-03;  1.8071224E-01;7923;  4.5537296E-01;  0.0000000E+00;  3.5898715E-02;  1.0035406E+03;  1.8337576E-01;  2.9326714E+03;3;  6.4365128E+01;  0.0000000E+00;  3.3345642E+01;0;  9.7821212E-01;  1.2118221E+04;  0.0000000E+00; -5.8519411E-01;  4.0000000E+04;  0.0000000E+00;  3.9588441E+04;  6.8336779E-01;  0.0000000E+00;  2.9484433E-01;  4.1115049E+03;
  1.0085464E+00;  9.9999998E-03;  1.9079347E-01;7924;  4.7293076E-01;  0.0000000E+00;  3.9190482E-02;  1.0041833E+03;  1.8332571E-01;  3.4649771E+03;3;  6.5903702E+01;  0.0000000E+00;  3.6146679E+01;0;  1.0506563E+00;  1.2138686E+04;  0.0000000E+00; -5.2881128E-01;  4.0000000E+04;  0.0000000E+00;  3.9579605E+04;  7.3991412E-01;  0.0000000E+00;  3.1074220E-01;  3.3697554E+03;
  1.0085433E+00;  9.9999998E-03;  1.3041346E-01;7918;  3.7988696E-01;  0.0000000E+00;  2.5947237E-02;  9.9981061E+02;  1.8353380E-01; -1.5684818E+02;3;  6.4123077E+01;  0.0000000E+00;  2.5231375E+01;0;  6.6141808E-01;  1.2000767E+04;  0.0000000E+00; -4.6427232E-01;  4.0000000E+04;  0.0000000E+00;  3.9631398E+04;  4.5157623E-01;  0.0000000E+00;  2.0984186E-01;  9.1939062E+03;
  1.0086763E+00;  9.9999998E-03;  2.0086555E-01;7925;  4.9149475E-01;  0.0000000E+00;  4.3457881E-02;  1.0046896E+03;  1.8327981E-01;  3.8844219E+03;3;  6.8086823E+01;  0.0000000E+00;  3.9648129E+01;0;  1.1217742E+00;  1.2155729E+04;  0.0000000E+00; -4.5107847E-01;  4.0000000E+04;  0.0000000E+00;  3.9570176E+04;  7.9757762E-01;  0.0000000E+00;  3.2419652E-01;  2.8637432E+03;
  1.0088400E+00;  9.9999998E-03;  2.1090643E-01;7926;  5.1100773E-01;  0.0000000E+00;  4.9164504E-02;  1.0050623E+03;  1.8324046E-01;  4.1929814E+03;3;  7.0692039E+01;  0.0000000E+00;  4.4078705E+01;0;  1.1925489E+00;  1.2168571E+04;  0.0000000E+00; -3.5748407E-01;  4.0000000E+04;  0.0000000E+00;  3.9561793E+04;  8.5655612E-01;  0.0000000E+00;  3.3599275E-01;  2.8117681E+03;
  1.0090961E+00;  9.9999998E-03;  2.2092631E-01;7927;  5.3141433E-01;  0.0000000E+00;  5.7474259E-02;  1.0053322E+03;  1.8320671E-01;  4.4165244E+03;3;  7.3663811E+01;  0.0000000E+00;  4.9744671E+01;0;  1.2649529E+00;  1.2177252E+04;  0.0000000E+00; -2.4944894E-01;  4.0000000E+04;  0.0000000E+00;  3.9558016E+04;  9.1376168E-01;  0.0000000E+00;  3.5119119E-01;  2.9711860E+03;
  1.0094230E+00;  9.9999998E-03;  2.3095913E-01;7928;  5.5271304E-01;  0.0000000E+00;  7.1538799E-02;  1.0054989E+03;  1.8317968E-01;  4.5546558E+03;3;  7.6356041E+01;  0.0000000E+00;  5.6357227E+01;0;  1.3576789E+00;  1.2181861E+04;  0.0000000E+00; -1.3846126E-01;  4.0000000E+04;  0.0000000E+00;  3.9558688E+04;  9.6861374E-01;  0.0000000E+00;  3.8906509E-01;  3.0467275E+03;
  1.0264927E+00;  9.9999998E-03;  7.0260733E-02;7973;  3.0990469E-01;  0.0000000E+00;  1.9245502E-03;  9.9354962E+02;  1.8165776E-01; -5.3423799E+03;3;  6.6713058E+01;  0.0000000E+00;  1.7235546E+01;0;  3.4075078E-01;  1.2068798E+04;  0.0000000E+00; -3.9763832E-01;  4.0000000E+04;  0.0000000E+00;  3.9655301E+04;  3.1049180E-01;  0.0000000E+00;  3.0258978E-02;  1.2566196E+04;
  1.0261829E+00;  9.9999998E-03;  2.3095264E-01;7989;  5.5337030E-01;  0.0000000E+00;  3.6887541E-02;  1.0053895E+03;  1.8139401E-01;  4.4637144E+03;3;  8.0957260E+01;  0.0000000E+00;  5.4677650E+01;0;  8.9466834E-01;  1.2415930E+04;  0.0000000E+00;  9.8584481E-02;  4.0000000E+04;  0.0000000E+00;  3.9571148E+04;  4.9883786E-01;  0.0000000E+00;  3.9583048E-01;  2.7069441E+03;
  1.0260842E+00;  9.9999998E-03;  2.2094700E-01;7988;  5.3192383E-01;  0.0000000E+00;  2.6091140E-02;  1.0050601E+03;  1.8141592E-01;  4.1909170E+03;3;  7.7864761E+01;  0.0000000E+00;  4.8018227E+01;0;  8.2788920E-01;  1.2408574E+04;  0.0000000E+00;  1.8610537E-01;  4.0000000E+04;  0.0000000E+00;  3.9568863E+04;  4.6293604E-01;  0.0000000E+00;  3.6495313E-01;  2.9611216E+03;
  1.0267587E+00;  9.9999998E-03;  8.0279425E-02;7974;  3.1873730E-01;  0.0000000E+00;  2.2470404E-03;  9.9412140E+02;  1.8165343E-01; -4.8688521E+03;3;  6.6279999E+01;  0.0000000E+00;  1.9405289E+01;0;  3.4671366E-01;  1.2086349E+04;  0.0000000E+00; -4.7807622E-01;  4.0000000E+04;  0.0000000E+00;  3.9655535E+04;  3.1148931E-01;  0.0000000E+00;  3.5224359E-02;  1.2557767E+04;
  1.0260810E+00;  9.9999998E-03;  2.1096592E-01;7987;  5.1138359E-01;  0.0000000E+00;  1.9758236E-02;  1.0046100E+03;  1.8143982E-01;  3.8181016E+03;3;  7.3958290E+01;  0.0000000E+00;  4.3612381E+01;0;  7.7228671E-01;  1.2396521E+04;  0.0000000E+00;  2.4778554E-01;  4.0000000E+04;  0.0000000E+00;  3.9572086E+04;  4.2853045E-01;  0.0000000E+00;  3.4375626E-01;  3.3990369E+03;
  1.0261296E+00;  9.9999998E-03;  2.0096482E-01;7986;  4.9169675E-01;  0.0000000E+00;  1.5548218E-02;  1.0040490E+03;  1.8146703E-01;  3.3534634E+03;3;  7.0651871E+01;  0.0000000E+00;  3.9027130E+01;0;  7.1756929E-01;  1.2379877E+04;  0.0000000E+00;  2.9479983E-01;  4.0000000E+04;  0.0000000E+00;  3.9581461E+04;  3.9748463E-01;  0.0000000E+00;  3.2008466E-01;  4.2109395E+03;
  1.0270154E+00;  9.9999998E-03;  9.0288036E-02;7975;  3.2858971E-01;  0.0000000E+00;  2.5944500E-03;  9.9470215E+02;  1.8165106E-01; -4.3878213E+03;3;  6.5929558E+01;  0.0000000E+00;  2.1347546E+01;0;  3.5386720E-01;  1.2104660E+04;  0.0000000E+00; -5.3303587E-01;  4.0000000E+04;  0.0000000E+00;  3.9655414E+04;  3.1181279E-01;  0.0000000E+00;  4.2054418E-02;  1.2464934E+04;
  1.0261899E+00;  9.9999998E-03;  1.9093628E-01;7985;  4.7284824E-01;  0.0000000E+00;  1.2507324E-02;  1.0033259E+03;  1.8150052E-01;  2.7545486E+03;3;  6.8082390E+01;  0.0000000E+00;  3.6457020E+01;0;  6.6317296E-01;  1.2358548E+04;  0.0000000E+00;  3.2140911E-01;  4.0000000E+04;  0.0000000E+00;  3.9591941E+04;  3.7117577E-01;  0.0000000E+00;  2.9199719E-01;  5.2532827E+03;
  1.0262665E+00;  9.9999998E-03;  1.8088752E-01;7984;  4.5496216E-01;  0.0000000E+00;  1.0239029E-02;  1.0024479E+03;  1.8153802E-01;  2.0273805E+03;3;  6.6106453E+01;  0.0000000E+00;  3.4211403E+01;0;  6.1024916E-01;  1.2333350E+04;  0.0000000E+00;  3.1608576E-01;  4.0000000E+04;  0.0000000E+00;  3.9601219E+04;  3.4982392E-01;  0.0000000E+00;  2.6042524E-01;  6.2285640E+03;
  1.0264632E+00;  9.9999998E-03;  1.7082749E-01;7983;  4.3800944E-01;  0.0000000E+00;  8.4535815E-03;  1.0014520E+03;  1.8157044E-01;  1.2025651E+03;3;  6.5041351E+01;  0.0000000E+00;  3.2340279E+01;0;  5.5908191E-01;  1.2305853E+04;  0.0000000E+00;  2.7208897E-01;  4.0000000E+04;  0.0000000E+00;  3.9609258E+04;  3.3249983E-01;  0.0000000E+00;  2.2658208E-01;  7.0589849E+03;
  1.0273089E+00;  9.9999998E-03;  1.0030675E-01;7976;  3.3943361E-01;  0.0000000E+00;  2.9241540E-03;  9.9530048E+02;  1.8164489E-01; -3.8922773E+03;3;  6.5687294E+01;  0.0000000E+00;  2.3173820E+01;0;  3.6280259E-01;  1.2124570E+04;  0.0000000E+00; -5.4789418E-01;  4.0000000E+04;  0.0000000E+00;  3.9653672E+04;  3.1187060E-01;  0.0000000E+00;  5.0932001E-02;  1.2187688E+04;
  1.0268059E+00;  9.9999998E-03;  1.6075765E-01;7982;  4.2183799E-01;  0.0000000E+00;  6.9851456E-03;  1.0003931E+03;  1.8159238E-01;  3.2562015E+02;3;  6.4607498E+01;  0.0000000E+00;  3.0737394E+01;0;  5.1128399E-01;  1.2277561E+04;  0.0000000E+00;  1.8428841E-01;  4.0000000E+04;  0.0000000E+00;  3.9616906E+04;  3.1945091E-01;  0.0000000E+00;  1.9183311E-01;  7.7992227E+03;
  1.0275544E+00;  9.9999998E-03;  1.1035249E-01;7977;  3.5122141E-01;  0.0000000E+00;  3.2446631E-03;  9.9593469E+02;  1.8163800E-01; -3.3670173E+03;3;  6.5476349E+01;  0.0000000E+00;  2.4682232E+01;0;  3.7415484E-01;  1.2146272E+04;  0.0000000E+00; -5.1000476E-01;  4.0000000E+04;  0.0000000E+00;  3.9650188E+04;  3.1103778E-01;  0.0000000E+00;  6.3117065E-02;  1.1672249E+04;
  1.0271271E+00;  9.9999998E-03;  1.5066865E-01;7981;  4.0638232E-01;  0.0000000E+00;  5.8769118E-03;  9.9934027E+02;  1.8161017E-01; -5.4638544E+02;3;  6.4644226E+01;  0.0000000E+00;  2.9655527E+01;0;  4.7000709E-01;  1.2248925E+04;  0.0000000E+00;  5.1046066E-02;  4.0000000E+04;  0.0000000E+00;  3.9624270E+04;  3.1163645E-01;  0.0000000E+00;  1.5837064E-01;  8.5205615E+03;
  1.0276188E+00;  9.9999998E-03;  1.2041633E-01;7978;  3.6393213E-01;  0.0000000E+00;  3.7074087E-03;  9.9664429E+02;  1.8163347E-01; -2.7793125E+03;3;  6.5389549E+01;  0.0000000E+00;  2.6140160E+01;0;  3.8922229E-01;  1.2169415E+04;  0.0000000E+00; -4.1581592E-01;  4.0000000E+04;  0.0000000E+00;  3.9645066E+04;  3.0917311E-01;  0.0000000E+00;  8.0049194E-02;  1.0955118E+04;
  1.0273875E+00;  9.9999998E-03;  1.4057752E-01;7980;  3.9157152E-01;  0.0000000E+00;  4.9942732E-03;  9.9834973E+02;  1.8162121E-01; -1.3668013E+03;3;  6.4796608E+01;  0.0000000E+00;  2.8504494E+01;0;  4.3608993E-01;  1.2220932E+04;  0.0000000E+00; -1.1087255E-01;  4.0000000E+04;  0.0000000E+00;  3.9631566E+04;  3.0815625E-01;  0.0000000E+00;  1.2793368E-01;  9.2961738E+03;
  1.0275533E+00;  9.9999998E-03;  1.3049343E-01;7979;  3.7741363E-01;  0.0000000E+00;  4.3104780E-03;  9.9744647E+02;  1.8162972E-01; -2.1148945E+03;3;  6.4969826E+01;  0.0000000E+00;  2.7402180E+01;0;  4.0946746E-01;  1.2194287E+04;  0.0000000E+00; -2.7568373E-01;  4.0000000E+04;  0.0000000E+00;  3.9638605E+04;  3.0777168E-01;  0.0000000E+00;  1.0169578E-01;  1.0128832E+04;
  1.0432258E+00;  9.9999998E-03;  2.3096311E-01;8050;  5.5300832E-01;  0.0000000E+00;  3.4340888E-03;  1.0048329E+03;  1.7912820E-01;  4.0023792E+03;3;  8.3515747E+01;  0.0000000E+00;  5.0754082E+01;0;  6.3791931E-01;  1.2714970E+04;  0.0000000E+00; -1.6302872E-02;  4.0000000E+04;  0.0000000E+00;  3.9587848E+04;  2.5303364E-01;  0.0000000E+00;  3.8488570E-01;  3.3433113E+03;
  1.0432138E+00;  9.9999998E-03;  2.2094747E-01;8049;  5.3185618E-01;  0.0000000E+00; -4.1694827E-03;  1.0043845E+03;  1.7912824E-01;  3.6310774E+03;3;  8.0048241E+01;  0.0000000E+00;  4.6076710E+01;0;  6.0460627E-01;  1.2705796E+04;  0.0000000E+00;  2.9082525E-01;  4.0000000E+04;  0.0000000E+00;  3.9587668E+04;  2.4987957E-01;  0.0000000E+00;  3.5472673E-01;  4.0464243E+03;
  1.0432765E+00;  9.9999998E-03;  2.1097466E-01;8048;  5.1141536E-01;  0.0000000E+00; -8.5487543E-03;  1.0037364E+03;  1.7913155E-01;  3.0943127E+03;3;  7.6182907E+01;  0.0000000E+00;  4.2952423E+01;0;  5.7740915E-01;  1.2691326E+04;  0.0000000E+00;  5.4134905E-01;  4.0000000E+04;  0.0000000E+00;  3.9589082E+04;  2.5240543E-01;  0.0000000E+00;  3.2500371E-01;  4.9302578E+03;
  1.0434328E+00;  9.9999998E-03;  2.0100378E-01;8047;  4.9163836E-01;  0.0000000E+00; -1.1770346E-02;  1.0029413E+03;  1.7913443E-01;  2.4359185E+03;3;  7.2521080E+01;  0.0000000E+00;  3.9666363E+01;0;  5.5071938E-01;  1.2671639E+04;  0.0000000E+00;  7.3849344E-01;  4.0000000E+04;  0.0000000E+00;  3.9595789E+04;  2.6143578E-01;  0.0000000E+00;  2.8928363E-01;  6.1132305E+03;
  1.0437281E+00;  9.9999998E-03;  1.9100896E-01;8046;  4.7270083E-01;  0.0000000E+00; -1.4075390E-02;  1.0019804E+03;  1.7913404E-01;  1.6401008E+03;3;  6.9235123E+01;  0.0000000E+00;  3.6248489E+01;0;  5.2589810E-01;  1.2647957E+04;  0.0000000E+00;  8.7487078E-01;  4.0000000E+04;  0.0000000E+00;  3.9604371E+04;  2.7795082E-01;  0.0000000E+00;  2.4794728E-01;  7.3056333E+03;
  1.0449605E+00;  9.9999998E-03;  7.0377700E-02;8034;  3.0573294E-01;  0.0000000E+00; -1.1675357E-02;  9.9130334E+02;  1.7930059E-01; -7.2021548E+03;3;  6.4407730E+01;  0.0000000E+00;  1.8864264E+01;0;  5.9672576E-01;  1.2338069E+04;  0.0000000E+00; -4.3700743E-01;  4.0000000E+04;  0.0000000E+00;  3.9652270E+04;  7.1726167E-01;  0.0000000E+00; -1.2053590E-01;  1.2114340E+04;
  1.0440724E+00;  9.9999998E-03;  1.8099055E-01;8045;  4.5471177E-01;  0.0000000E+00; -1.5513749E-02;  1.0008734E+03;  1.7913516E-01;  7.2334882E+02;3;  6.6904320E+01;  0.0000000E+00;  3.3871387E+01;0;  5.0510645E-01;  1.2620707E+04;  0.0000000E+00;  9.2844546E-01;  4.0000000E+04;  0.0000000E+00;  3.9611973E+04;  3.0238917E-01;  0.0000000E+00;  2.0271726E-01;  8.2081045E+03;
  1.0451473E+00;  9.9999998E-03;  8.0408357E-02;8035;  3.1479228E-01;  0.0000000E+00; -1.2975748E-02;  9.9183405E+02;  1.7927741E-01; -6.7626318E+03;3;  6.4499809E+01;  0.0000000E+00;  2.1022699E+01;0;  5.8220989E-01;  1.2356207E+04;  0.0000000E+00; -5.2677011E-01;  4.0000000E+04;  0.0000000E+00;  3.9652738E+04;  6.9233447E-01;  0.0000000E+00; -1.1012457E-01;  1.2152245E+04;
  1.0444701E+00;  9.9999998E-03;  1.7094348E-01;8044;  4.3752590E-01;  0.0000000E+00; -1.6434135E-02;  9.9966168E+02;  1.7913590E-01; -2.8017734E+02;3;  6.5954025E+01;  0.0000000E+00;  3.2393173E+01;0;  4.9010038E-01;  1.2591276E+04;  0.0000000E+00;  8.7718135E-01;  4.0000000E+04;  0.0000000E+00;  3.9618113E+04;  3.3457825E-01;  0.0000000E+00;  1.5552215E-01;  8.7322959E+03;
  1.0454056E+00;  9.9999998E-03;  9.0425119E-02;8036;  3.2489514E-01;  0.0000000E+00; -1.4200815E-02;  9.9237823E+02;  1.7924787E-01; -6.3119512E+03;3;  6.4686722E+01;  0.0000000E+00;  2.2991077E+01;0;  5.6782335E-01;  1.2376232E+04;  0.0000000E+00; -5.8699661E-01;  4.0000000E+04;  0.0000000E+00;  3.9652781E+04;  6.6583526E-01;  0.0000000E+00; -9.8011911E-02;  1.2107677E+04;
  1.0449086E+00;  9.9999998E-03;  1.6086403E-01;8043;  4.2102188E-01;  0.0000000E+00; -1.7032120E-02;  9.9841614E+02;  1.7913096E-01; -1.3116865E+03;3;  6.5559586E+01;  0.0000000E+00;  3.1132610E+01;0;  4.8239648E-01;  1.2561276E+04;  0.0000000E+00;  7.1535921E-01;  4.0000000E+04;  0.0000000E+00;  3.9623320E+04;  3.7395045E-01;  0.0000000E+00;  1.0844602E-01;  8.9651885E+03;
  1.0456393E+00;  9.9999998E-03;  1.0044001E-01;8037;  3.3603740E-01;  0.0000000E+00; -1.5266811E-02;  9.9295355E+02;  1.7921779E-01; -5.8355059E+03;3;  6.4986664E+01;  0.0000000E+00;  2.4723087E+01;0;  5.5203027E-01;  1.2397617E+04;  0.0000000E+00; -5.9410489E-01;  4.0000000E+04;  0.0000000E+00;  3.9651652E+04;  6.3495207E-01;  0.0000000E+00; -8.2921825E-02;  1.1877498E+04;
  1.0453055E+00;  9.9999998E-03;  1.5076560E-01;8042;  4.0516186E-01;  0.0000000E+00; -1.7326446E-02;  9.9720770E+02;  1.7912859E-01; -2.3124385E+03;3;  6.5540138E+01;  0.0000000E+00;  3.0433016E+01;0;  4.8237184E-01;  1.2531021E+04;  0.0000000E+00;  4.6170464E-01;  4.0000000E+04;  0.0000000E+00;  3.9628332E+04;  4.1849908E-01;  0.0000000E+00;  6.3872755E-02;  9.1337070E+03;
  1.0457968E+00;  9.9999998E-03;  1.1046592E-01;8038;  3.4818631E-01;  0.0000000E+00; -1.6123425E-02;  9.9358643E+02;  1.7919214E-01; -5.3113813E+03;3;  6.5407364E+01;  0.0000000E+00;  2.6314257E+01;0;  5.3490460E-01;  1.2420563E+04;  0.0000000E+00; -5.2589267E-01;  4.0000000E+04;  0.0000000E+00;  3.9648770E+04;  5.9878439E-01;  0.0000000E+00; -6.3879818E-02;  1.1415093E+04;
  1.0455978E+00;  9.9999998E-03;  1.4066543E-01;8041;  3.8989815E-01;  0.0000000E+00; -1.7331317E-02;  9.9611023E+02;  1.7913517E-01; -3.2213264E+03;3;  6.5647537E+01;  0.0000000E+00;  2.9531178E+01;0;  4.8919669E-01;  1.2501056E+04;  0.0000000E+00;  1.6104336E-01;  4.0000000E+04;  0.0000000E+00;  3.9633668E+04;  4.6543223E-01;  0.0000000E+00;  2.3764474E-02;  9.4742773E+03;
  1.0458419E+00;  9.9999998E-03;  1.2050844E-01;8039;  3.6129645E-01;  0.0000000E+00; -1.6707985E-02;  9.9430499E+02;  1.7916846E-01; -4.7162793E+03;3;  6.5826561E+01;  0.0000000E+00;  2.7881662E+01;0;  5.1739860E-01;  1.2445277E+04;  0.0000000E+00; -3.6995909E-01;  4.0000000E+04;  0.0000000E+00;  3.9644629E+04;  5.5744594E-01;  0.0000000E+00; -4.0047374E-02;  1.0763982E+04;
  1.0457696E+00;  9.9999998E-03;  1.3057476E-01;8040;  3.7527359E-01;  0.0000000E+00; -1.7075988E-02;  9.9513983E+02;  1.7914985E-01; -4.0249263E+03;3;  6.5805557E+01;  0.0000000E+00;  2.8717947E+01;0;  5.0139993E-01;  1.2472190E+04;  0.0000000E+00; -1.3174874E-01;  4.0000000E+04;  0.0000000E+00;  3.9639258E+04;  5.1228994E-01;  0.0000000E+00; -1.0889998E-02;  1.0057248E+04;
  1.0631783E+00;  9.9999998E-03;  7.0422776E-02;8095;  3.0269879E-01;  0.0000000E+00; -2.5453195E-02;  9.8972760E+02;  1.7628093E-01; -8.5060117E+03;3;  6.2922478E+01;  0.0000000E+00;  2.0395193E+01;0;  1.2309170E+00;  1.2729764E+04;  0.0000000E+00; -4.0618369E-01;  4.0000000E+04;  0.0000000E+00;  3.9641316E+04;  1.4917175E+00;  0.0000000E+00; -2.6080045E-01;  1.0406093E+04;
  1.0632581E+00;  9.9999998E-03;  8.0473550E-02;8096;  3.1191164E-01;  0.0000000E+00; -2.8380435E-02;  9.9011920E+02;  1.7624778E-01; -8.1817422E+03;3;  6.3186726E+01;  0.0000000E+00;  2.2027811E+01;0;  1.1874976E+00;  1.2744443E+04;  0.0000000E+00; -4.9372125E-01;  4.0000000E+04;  0.0000000E+00;  3.9642707E+04;  1.4329228E+00;  0.0000000E+00; -2.4542519E-01;  1.0589930E+04;
  1.0633768E+00;  9.9999998E-03;  9.0498082E-02;8097;  3.2220536E-01;  0.0000000E+00; -3.1102788E-02;  9.9053497E+02;  1.7620850E-01; -7.8374805E+03;3;  6.3796581E+01;  0.0000000E+00;  2.3736156E+01;0;  1.1409073E+00;  1.2761032E+04;  0.0000000E+00; -5.5677098E-01;  4.0000000E+04;  0.0000000E+00;  3.9643719E+04;  1.3688655E+00;  0.0000000E+00; -2.2795820E-01;  1.0700129E+04;
  1.0635468E+00;  9.9999998E-03;  1.0050628E-01;8098;  3.3352140E-01;  0.0000000E+00; -3.3646531E-02;  9.9099005E+02;  1.7616254E-01; -7.4606426E+03;3;  6.4249977E+01;  0.0000000E+00;  2.5089905E+01;0;  1.0922921E+00;  1.2780290E+04;  0.0000000E+00; -5.7094628E-01;  4.0000000E+04;  0.0000000E+00;  3.9643551E+04;  1.3003361E+00;  0.0000000E+00; -2.0804411E-01;  1.0626886E+04;
  1.0610632E+00;  9.9999998E-03;  2.3098363E-01;8111;  5.5175573E-01;  0.0000000E+00; -3.1075286E-02;  1.0029342E+03;  1.7619048E-01;  2.4297085E+03;3;  8.4523605E+01;  0.0000000E+00;  4.5728355E+01;0;  5.7152367E-01;  1.3091121E+04;  0.0000000E+00; -3.0409631E-01;  4.0000000E+04;  0.0000000E+00;  3.9608125E+04;  2.3152390E-01;  0.0000000E+00;  3.3999974E-01;  5.0847471E+03;
  1.0610603E+00;  9.9999998E-03;  2.2096539E-01;8110;  5.3107458E-01;  0.0000000E+00; -3.5574138E-02;  1.0023770E+03;  1.7616943E-01;  1.9682278E+03;3;  8.1329468E+01;  0.0000000E+00;  4.3627514E+01;0;  5.8247602E-01;  1.3080979E+04;  0.0000000E+00;  1.7854179E-01;  4.0000000E+04;  0.0000000E+00;  3.9606922E+04;  2.7262136E-01;  0.0000000E+00;  3.0985463E-01;  5.4740039E+03;
  1.0611084E+00;  9.9999998E-03;  2.1099317E-01;8109;  5.1099938E-01;  0.0000000E+00; -3.8314633E-02;  1.0015970E+03;  1.7615043E-01;  1.3223517E+03;3;  7.7636711E+01;  0.0000000E+00;  4.1125328E+01;0;  5.9562397E-01;  1.3064827E+04;  0.0000000E+00;  5.6871492E-01;  4.0000000E+04;  0.0000000E+00;  3.9605738E+04;  3.2275420E-01;  0.0000000E+00;  2.7286980E-01;  6.1667510E+03;
  1.0612384E+00;  9.9999998E-03;  2.0102403E-01;8108;  4.9142545E-01;  0.0000000E+00; -3.9962530E-02;  1.0006671E+03;  1.7613216E-01;  5.5239423E+02;3;  7.4242599E+01;  0.0000000E+00;  3.8848560E+01;0;  6.1118710E-01;  1.3043339E+04;  0.0000000E+00;  8.6743659E-01;  4.0000000E+04;  0.0000000E+00;  3.9609406E+04;  3.8282776E-01;  0.0000000E+00;  2.2835934E-01;  7.2845386E+03;
  1.0638050E+00;  9.9999998E-03;  1.1052574E-01;8099;  3.4584123E-01;  0.0000000E+00; -3.6052123E-02;  9.9149542E+02;  1.7609994E-01; -7.0421445E+03;3;  6.4819885E+01;  0.0000000E+00;  2.6460318E+01;0;  1.0437579E+00;  1.2803658E+04;  0.0000000E+00; -5.1001513E-01;  4.0000000E+04;  0.0000000E+00;  3.9642152E+04;  1.2290350E+00;  0.0000000E+00; -1.8527706E-01;  1.0307433E+04;
  1.0615267E+00;  9.9999998E-03;  1.9102725E-01;8107;  4.7243097E-01;  0.0000000E+00; -4.1059822E-02;  9.9958447E+02;  1.7610383E-01; -3.4406107E+02;3;  7.0341003E+01;  0.0000000E+00;  3.6860039E+01;0;  6.3229215E-01;  1.3018927E+04;  0.0000000E+00;  1.0651129E+00;  4.0000000E+04;  0.0000000E+00;  3.9615027E+04;  4.5468965E-01;  0.0000000E+00;  1.7760251E-01;  8.3534902E+03;
  1.0619048E+00;  9.9999998E-03;  1.8099725E-01;8106;  4.5428956E-01;  0.0000000E+00; -4.1714996E-02;  9.9837085E+02;  1.7607498E-01; -1.3490450E+03;3;  6.7500252E+01;  0.0000000E+00;  3.4947815E+01;0;  6.6091895E-01;  1.2991749E+04;  0.0000000E+00;  1.1413260E+00;  4.0000000E+04;  0.0000000E+00;  3.9619969E+04;  5.3777891E-01;  0.0000000E+00;  1.2314001E-01;  9.0149619E+03;
  1.0639757E+00;  9.9999998E-03;  1.2055473E-01;8100;  3.5910147E-01;  0.0000000E+00; -3.8137145E-02;  9.9208118E+02;  1.7604397E-01; -6.5571226E+03;3;  6.5233635E+01;  0.0000000E+00;  2.7700279E+01;0;  9.8990417E-01;  1.2828879E+04;  0.0000000E+00; -3.5450694E-01;  4.0000000E+04;  0.0000000E+00;  3.9639176E+04;  1.1477649E+00;  0.0000000E+00; -1.5786076E-01;  9.7888467E+03;
  1.0623484E+00;  9.9999998E-03;  1.7093129E-01;8105;  4.3689781E-01;  0.0000000E+00; -4.1981790E-02;  9.9709766E+02;  1.7604871E-01; -2.4032793E+03;3;  6.6417824E+01;  0.0000000E+00;  3.3002739E+01;0;  6.9858789E-01;  1.2963138E+04;  0.0000000E+00;  1.0770997E+00;  4.0000000E+04;  0.0000000E+00;  3.9623191E+04;  6.3120329E-01;  0.0000000E+00;  6.7384608E-02;  9.1846934E+03;
  1.0639344E+00;  9.9999998E-03;  1.3059732E-01;8101;  3.7325206E-01;  0.0000000E+00; -3.9722312E-02;  9.9279309E+02;  1.7600979E-01; -5.9676270E+03;3;  6.5613686E+01;  0.0000000E+00;  2.8869200E+01;0;  9.2890441E-01;  1.2854332E+04;  0.0000000E+00; -1.0247353E-01;  4.0000000E+04;  0.0000000E+00;  3.9635691E+04;  1.0533329E+00;  0.0000000E+00; -1.2442853E-01;  9.2249805E+03;
  1.0628266E+00;  9.9999998E-03;  1.6084111E-01;8104;  4.2013496E-01;  0.0000000E+00; -4.1872237E-02;  9.9584210E+02;  1.7602403E-01; -3.4429451E+03;3;  6.6170883E+01;  0.0000000E+00;  3.1592527E+01;0;  7.4587584E-01;  1.2934458E+04;  0.0000000E+00;  8.7491745E-01;  4.0000000E+04;  0.0000000E+00;  3.9625703E+04;  7.3313540E-01;  0.0000000E+00;  1.2740451E-02;  9.0067988E+03;
  1.0632972E+00;  9.9999998E-03;  1.5074447E-01;8103;  4.0392464E-01;  0.0000000E+00; -4.1446790E-02;  9.9467456E+02;  1.7600425E-01; -4.4097056E+03;3;  6.6513382E+01;  0.0000000E+00;  3.1101801E+01;0;  8.0212092E-01;  1.2906782E+04;  0.0000000E+00;  5.6969082E-01;  4.0000000E+04;  0.0000000E+00;  3.9628543E+04;  8.4066135E-01;  0.0000000E+00; -3.8540415E-02;  8.7918682E+03;
  1.0636719E+00;  9.9999998E-03;  1.4066061E-01;8102;  3.8823444E-01;  0.0000000E+00; -4.0762998E-02;  9.9365509E+02;  1.7600052E-01; -5.2538643E+03;3;  6.6186707E+01;  0.0000000E+00;  3.0197670E+01;0;  8.6406118E-01;  1.2879913E+04;  0.0000000E+00;  2.2222576E-01;  4.0000000E+04;  0.0000000E+00;  3.9631707E+04;  9.4854587E-01;  0.0000000E+00; -8.4484719E-02;  8.8400684E+03;
  1.0811669E+00;  9.9999998E-03;  7.0411310E-02;8156;  3.0075860E-01;  0.0000000E+00; -3.9639395E-02;  9.8902026E+02;  1.7266539E-01; -9.0902383E+03;3;  6.2433712E+01;  0.0000000E+00;  2.0568680E+01;0;  2.2041662E+00;  1.3253910E+04;  0.0000000E+00; -3.8126424E-01;  4.0000000E+04;  0.0000000E+00;  3.9624816E+04;  2.5823429E+00;  0.0000000E+00; -3.7817675E-01;  7.7275605E+03;
  1.0812788E+00;  9.9999998E-03;  8.0466390E-02;8157;  3.1002200E-01;  0.0000000E+00; -4.4361319E-02;  9.8923871E+02;  1.7261294E-01; -8.9094189E+03;3;  6.3055363E+01;  0.0000000E+00;  2.2267490E+01;0;  2.1341224E+00;  1.3265862E+04;  0.0000000E+00; -4.6598279E-01;  4.0000000E+04;  0.0000000E+00;  3.9627535E+04;  2.4944396E+00;  0.0000000E+00; -3.6031723E-01;  8.1187021E+03;
  1.0794054E+00;  9.9999998E-03;  2.3101394E-01;8172;  5.4980618E-01;  0.0000000E+00; -6.5598428E-02;  9.9955127E+02;  1.7252475E-01; -3.7149399E+02;3;  8.5018250E+01;  0.0000000E+00;  4.0470829E+01;0;  6.9703341E-01;  1.3558691E+04;  0.0000000E+00; -3.7789115E-01;  4.0000000E+04;  0.0000000E+00;  3.9628125E+04;  4.4260475E-01;  0.0000000E+00;  2.5442865E-01;  7.1014160E+03;
  1.0814886E+00;  9.9999998E-03;  9.0503596E-02;8158;  3.2037997E-01;  0.0000000E+00; -4.8878785E-02;  9.8948358E+02;  1.7254467E-01; -8.7066318E+03;3;  6.3378704E+01;  0.0000000E+00;  2.3359058E+01;0;  2.0605445E+00;  1.3281232E+04;  0.0000000E+00; -5.3082842E-01;  4.0000000E+04;  0.0000000E+00;  3.9630102E+04;  2.4012377E+00;  0.0000000E+00; -3.4069327E-01;  8.4380137E+03;
  1.0793542E+00;  9.9999998E-03;  2.2097008E-01;8171;  5.2972752E-01;  0.0000000E+00; -6.7888595E-02;  9.9902069E+02;  1.7250589E-01; -8.1079291E+02;3;  8.2007301E+01;  0.0000000E+00;  3.8902576E+01;0;  7.6394975E-01;  1.3546111E+04;  0.0000000E+00;  8.8467844E-02;  4.0000000E+04;  0.0000000E+00;  3.9627711E+04;  5.3755361E-01;  0.0000000E+00;  2.2639611E-01;  7.1886587E+03;
  1.0793762E+00;  9.9999998E-03;  2.1095818E-01;8170;  5.1012778E-01;  0.0000000E+00; -6.8835124E-02;  9.9826361E+02;  1.7248264E-01; -1.4376150E+03;3;  7.8771950E+01;  0.0000000E+00;  3.7642944E+01;0;  8.3284438E-01;  1.3529335E+04;  0.0000000E+00;  4.6248665E-01;  4.0000000E+04;  0.0000000E+00;  3.9625043E+04;  6.4559573E-01;  0.0000000E+00;  1.8724865E-01;  7.2585308E+03;
  1.0817058E+00;  9.9999998E-03;  1.0052383E-01;8159;  3.3181602E-01;  0.0000000E+00; -5.3063337E-02;  9.8976178E+02;  1.7247424E-01; -8.4763086E+03;3;  6.4218163E+01;  0.0000000E+00;  2.4890381E+01;0;  1.9784961E+00;  1.3298266E+04;  0.0000000E+00; -5.5419809E-01;  4.0000000E+04;  0.0000000E+00;  3.9631488E+04;  2.2970424E+00;  0.0000000E+00; -3.1854624E-01;  8.5907607E+03;
  1.0794768E+00;  9.9999998E-03;  2.0095222E-01;8169;  4.9065182E-01;  0.0000000E+00; -6.9108255E-02;  9.9736182E+02;  1.7245810E-01; -2.1842034E+03;3;  7.6609642E+01;  0.0000000E+00;  3.6917732E+01;0;  9.0603656E-01;  1.3508500E+04;  0.0000000E+00;  7.4140537E-01;  4.0000000E+04;  0.0000000E+00;  3.9624602E+04;  7.6719046E-01;  0.0000000E+00;  1.3884608E-01;  7.6426045E+03;
  1.0818884E+00;  9.9999998E-03;  1.1053728E-01;8160;  3.4425899E-01;  0.0000000E+00; -5.6882851E-02;  9.9008447E+02;  1.7240952E-01; -8.2091270E+03;3;  6.4680298E+01;  0.0000000E+00;  2.6054886E+01;0;  1.8866417E+00;  1.3316367E+04;  0.0000000E+00; -5.1223248E-01;  4.0000000E+04;  0.0000000E+00;  3.9631629E+04;  2.1798475E+00;  0.0000000E+00; -2.9320574E-01;  8.5186709E+03;
  1.0796472E+00;  9.9999998E-03;  1.9092523E-01;8168;  4.7152176E-01;  0.0000000E+00; -6.9056332E-02;  9.9635779E+02;  1.7243554E-01; -3.0154697E+03;3;  7.2260567E+01;  0.0000000E+00;  3.6315960E+01;0;  9.8642623E-01;  1.3484614E+04;  0.0000000E+00;  9.1701126E-01;  4.0000000E+04;  0.0000000E+00;  3.9625238E+04;  9.0210307E-01;  0.0000000E+00;  8.4323145E-02;  8.0853105E+03;
  1.0819982E+00;  9.9999998E-03;  1.2055293E-01;8161;  3.5766825E-01;  0.0000000E+00; -6.0249381E-02;  9.9046875E+02;  1.7235434E-01; -7.8909780E+03;3;  6.5357002E+01;  0.0000000E+00;  2.7493193E+01;0;  1.7846676E+00;  1.3335427E+04;  0.0000000E+00; -3.8634026E-01;  4.0000000E+04;  0.0000000E+00;  3.9630723E+04;  2.0485308E+00;  0.0000000E+00; -2.6386318E-01;  8.2374316E+03;
  1.0798970E+00;  9.9999998E-03;  1.8087274E-01;8167;  4.5321777E-01;  0.0000000E+00; -6.8778932E-02;  9.9528625E+02;  1.7241323E-01; -3.9026411E+03;3;  6.8306061E+01;  0.0000000E+00;  3.5792767E+01;0;  1.0764288E+00;  1.3459153E+04;  0.0000000E+00;  9.7378403E-01;  4.0000000E+04;  0.0000000E+00;  3.9625492E+04;  1.0498004E+00;  0.0000000E+00;  2.6628360E-02;  8.2786084E+03;
  1.0802588E+00;  9.9999998E-03;  1.7080159E-01;8166;  4.3579188E-01;  0.0000000E+00; -6.8328477E-02;  9.9420544E+02;  1.7238711E-01; -4.7974521E+03;3;  6.5325539E+01;  0.0000000E+00;  3.5047653E+01;0;  1.1783426E+00;  1.3434271E+04;  0.0000000E+00;  9.0004259E-01;  4.0000000E+04;  0.0000000E+00;  3.9625312E+04;  1.2101388E+00;  0.0000000E+00; -3.1796262E-02;  8.1532378E+03;
  1.0819528E+00;  9.9999998E-03;  1.3057485E-01;8162;  3.7194228E-01;  0.0000000E+00; -6.3060343E-02;  9.9094513E+02;  1.7231768E-01; -7.4966001E+03;3;  6.5645424E+01;  0.0000000E+00;  2.8603104E+01;0;  1.6710470E+00;  1.3354515E+04;  0.0000000E+00; -1.7263433E-01;  4.0000000E+04;  0.0000000E+00;  3.9628934E+04;  1.9004277E+00;  0.0000000E+00; -2.2938076E-01;  7.8620479E+03;
  1.0807270E+00;  9.9999998E-03;  1.6072547E-01;8165;  4.1908637E-01;  0.0000000E+00; -6.7737818E-02;  9.9318909E+02;  1.7235678E-01; -5.6388555E+03;3;  6.5496567E+01;  0.0000000E+00;  3.2741199E+01;0;  1.2928193E+00;  1.3411507E+04;  0.0000000E+00;  7.0416093E-01;  4.0000000E+04;  0.0000000E+00;  3.9625199E+04;  1.3814118E+00;  0.0000000E+00; -8.8592567E-02;  7.8401470E+03;
  1.0816519E+00;  9.9999998E-03;  1.4061408E-01;8163;  3.8703695E-01;  0.0000000E+00; -6.5136082E-02;  9.9154535E+02;  1.7231536E-01; -6.9996987E+03;3;  6.6053650E+01;  0.0000000E+00;  2.9761139E+01;0;  1.5448636E+00;  1.3372283E+04;  0.0000000E+00;  1.1121356E-01;  4.0000000E+04;  0.0000000E+00;  3.9627215E+04;  1.7333472E+00;  0.0000000E+00; -1.8848358E-01;  7.5914214E+03;
  1.0812209E+00;  9.9999998E-03;  1.5066326E-01;8164;  4.0282503E-01;  0.0000000E+00; -6.6656366E-02;  9.9229095E+02;  1.7232914E-01; -6.3823936E+03;3;  6.6223404E+01;  0.0000000E+00;  3.0921249E+01;0;  1.4167292E+00;  1.3391034E+04;  0.0000000E+00;  4.2257902E-01;  4.0000000E+04;  0.0000000E+00;  3.9625715E+04;  1.5580966E+00;  0.0000000E+00; -1.4136744E-01;  7.5860347E+03;
  1.0992324E+00;  9.9999998E-03;  7.0386887E-02;8217;  3.0127111E-01;  0.0000000E+00; -5.3662233E-02;  9.8933417E+02;  1.6852939E-01; -8.8284883E+03;3;  5.0768948E+01;  0.0000000E+00;  1.5914273E+01;0;  3.4316905E+00;  1.3924452E+04;  0.0000000E+00; -3.1407887E-01;  4.0000000E+04;  0.0000000E+00;  3.9603863E+04;  3.8939140E+00;  0.0000000E+00; -4.6222344E-01;  4.2527256E+03;
  1.0992876E+00;  9.9999998E-03;  8.0445841E-02;8218;  3.0999589E-01;  0.0000000E+00; -6.0262591E-02;  9.8939990E+02;  1.6848166E-01; -8.7740635E+03;3;  5.6618000E+01;  0.0000000E+00;  1.8207458E+01;0;  3.3319933E+00;  1.3930759E+04;  0.0000000E+00; -3.9269131E-01;  4.0000000E+04;  0.0000000E+00;  3.9608289E+04;  3.7752895E+00;  0.0000000E+00; -4.4329613E-01;  4.8658325E+03;
  1.0993603E+00;  9.9999998E-03;  9.0490088E-02;8219;  3.2000473E-01;  0.0000000E+00; -6.6475004E-02;  9.8948755E+02;  1.6843250E-01; -8.7015303E+03;3;  6.0176437E+01;  0.0000000E+00;  1.9746141E+01;0;  3.2201087E+00;  1.3938139E+04;  0.0000000E+00; -4.5851126E-01;  4.0000000E+04;  0.0000000E+00;  3.9612746E+04;  3.6425521E+00;  0.0000000E+00; -4.2244333E-01;  5.4464727E+03;
  1.0994434E+00;  9.9999998E-03;  1.0052155E-01;8220;  3.3119977E-01;  0.0000000E+00; -7.2221480E-02;  9.8959357E+02;  1.6838248E-01; -8.6137510E+03;3;  6.2319679E+01;  0.0000000E+00;  2.2155060E+01;0;  3.0960634E+00;  1.3946575E+04;  0.0000000E+00; -4.9539116E-01;  4.0000000E+04;  0.0000000E+00;  3.9616324E+04;  3.4956248E+00;  0.0000000E+00; -3.9956146E-01;  5.8995547E+03;
  1.0995319E+00;  9.9999998E-03;  1.1054336E-01;8221;  3.4349912E-01;  0.0000000E+00; -7.7424422E-02;  9.8972430E+02;  1.6833286E-01; -8.5055449E+03;3;  6.3769211E+01;  0.0000000E+00;  2.4396851E+01;0;  2.9603856E+00;  1.3956342E+04;  0.0000000E+00; -4.8598337E-01;  4.0000000E+04;  0.0000000E+00;  3.9618598E+04;  3.3347447E+00;  0.0000000E+00; -3.7435910E-01;  6.1606953E+03;
  1.0996209E+00;  9.9999998E-03;  1.2055472E-01;8222;  3.5675570E-01;  0.0000000E+00; -8.2126550E-02;  9.8988763E+02;  1.6828519E-01; -8.3703037E+03;3;  6.4396584E+01;  0.0000000E+00;  2.5737955E+01;0;  2.8143032E+00;  1.3967362E+04;  0.0000000E+00; -4.1716838E-01;  4.0000000E+04;  0.0000000E+00;  3.9619676E+04;  3.1606138E+00;  0.0000000E+00; -3.4631065E-01;  6.2189258E+03;
  1.0996748E+00;  9.9999998E-03;  1.3056090E-01;8223;  3.7091011E-01;  0.0000000E+00; -8.6216822E-02;  9.9009747E+02;  1.6824459E-01; -8.1966328E+03;3;  6.5169220E+01;  0.0000000E+00;  2.7836143E+01;0;  2.6576517E+00;  1.3979248E+04;  0.0000000E+00; -2.8610328E-01;  4.0000000E+04;  0.0000000E+00;  3.9620000E+04;  2.9721949E+00;  0.0000000E+00; -3.1454322E-01;  6.1343706E+03;
  1.0973459E+00;  9.9999998E-03;  2.2096285E-01;8232;  5.2740252E-01;  0.0000000E+00; -9.8717868E-02;  9.9514636E+02;  1.6836934E-01; -4.0176523E+03;3;  8.2240532E+01;  0.0000000E+00;  3.5027439E+01;0;  1.1539584E+00;  1.4101971E+04;  0.0000000E+00;  1.1903605E-01;  4.0000000E+04;  0.0000000E+00;  3.9647379E+04;  1.0405056E+00;  0.0000000E+00;  1.1345274E-01;  9.0277090E+03;
  1.0974498E+00;  9.9999998E-03;  2.3103455E-01;8233;  5.4705262E-01;  0.0000000E+00; -9.7772203E-02;  9.9550812E+02;  1.6835946E-01; -3.7181650E+03;3;  8.7354752E+01;  0.0000000E+00;  3.4780602E+01;0;  1.0221574E+00;  1.4115939E+04;  0.0000000E+00; -1.7756781E-01;  4.0000000E+04;  0.0000000E+00;  3.9648336E+04;  8.8818288E-01;  0.0000000E+00;  1.3397452E-01;  9.1716016E+03;
  1.0973713E+00;  9.9999998E-03;  2.1091431E-01;8231;  5.0843257E-01;  0.0000000E+00; -9.8960698E-02;  9.9458167E+02;  1.6836730E-01; -4.4850801E+03;3;  7.8516014E+01;  0.0000000E+00;  3.3240223E+01;0;  1.2898146E+00;  1.4086496E+04;  0.0000000E+00;  3.3034053E-01;  4.0000000E+04;  0.0000000E+00;  3.9642117E+04;  1.2116008E+00;  0.0000000E+00;  7.8213826E-02;  8.4248018E+03;
  1.0995544E+00;  9.9999998E-03;  1.4057332E-01;8224;  3.8586313E-01;  0.0000000E+00; -8.9560643E-02;  9.9036664E+02;  1.6823028E-01; -7.9738408E+03;3;  6.5419968E+01;  0.0000000E+00;  2.9191191E+01;0;  2.4850273E+00;  1.3989492E+04;  0.0000000E+00; -1.0437124E-01;  4.0000000E+04;  0.0000000E+00;  3.9620332E+04;  2.7626088E+00;  0.0000000E+00; -2.7758154E-01;  6.0320542E+03;
  1.0974962E+00;  9.9999998E-03;  2.0087008E-01;8230;  4.8935834E-01;  0.0000000E+00; -9.8352052E-02;  9.9391150E+02;  1.6835923E-01; -5.0397803E+03;3;  7.8357338E+01;  0.0000000E+00;  3.2027664E+01;0;  1.4332798E+00;  1.4069087E+04;  0.0000000E+00;  4.6945250E-01;  4.0000000E+04;  0.0000000E+00;  3.9637273E+04;  1.4006406E+00;  0.0000000E+00;  3.2639187E-02;  7.8943281E+03;
  1.0977061E+00;  9.9999998E-03;  1.9081630E-01;8229;  4.7017938E-01;  0.0000000E+00; -9.7448982E-02;  9.9319214E+02;  1.6834614E-01; -5.6352256E+03;3;  7.4360306E+01;  0.0000000E+00;  3.1962290E+01;0;  1.5863415E+00;  1.4050989E+04;  0.0000000E+00;  5.3753114E-01;  4.0000000E+04;  0.0000000E+00;  3.9632750E+04;  1.6061660E+00;  0.0000000E+00; -1.9824481E-02;  7.4547798E+03;
  1.0992016E+00;  9.9999998E-03;  1.5059951E-01;8225;  4.0154514E-01;  0.0000000E+00; -9.2033952E-02;  9.9072571E+02;  1.6824640E-01; -7.6766733E+03;3;  6.5559288E+01;  0.0000000E+00;  3.0980404E+01;0;  2.2975674E+00;  1.3997496E+04;  0.0000000E+00;  1.0207397E-01;  4.0000000E+04;  0.0000000E+00;  3.9620828E+04;  2.5318272E+00;  0.0000000E+00; -2.3425989E-01;  6.0440044E+03;
  1.0979809E+00;  9.9999998E-03;  1.8075362E-01;8228;  4.5179442E-01;  0.0000000E+00; -9.6343659E-02;  9.9247028E+02;  1.6833062E-01; -6.2327334E+03;3;  7.0533875E+01;  0.0000000E+00;  3.1984375E+01;0;  1.7496144E+00;  1.4033396E+04;  0.0000000E+00;  5.3110826E-01;  4.0000000E+04;  0.0000000E+00;  3.9628672E+04;  1.8250954E+00;  0.0000000E+00; -7.5481057E-02;  7.0169800E+03;
  1.0983036E+00;  9.9999998E-03;  1.7068796E-01;8227;  4.3429562E-01;  0.0000000E+00; -9.5013618E-02;  9.9178918E+02;  1.6831063E-01; -6.7964868E+03;3;  6.6944298E+01;  0.0000000E+00;  3.2331158E+01;0;  1.9223210E+00;  1.4017657E+04;  0.0000000E+00;  4.4876599E-01;  4.0000000E+04;  0.0000000E+00;  3.9625020E+04;  2.0535769E+00;  0.0000000E+00; -1.3125595E-01;  6.5896235E+03;
  1.0987450E+00;  9.9999998E-03;  1.6063416E-01;8226;  4.1761538E-01;  0.0000000E+00; -9.3689263E-02;  9.9119952E+02;  1.6827688E-01; -7.2844897E+03;3;  6.4445648E+01;  0.0000000E+00;  3.2619289E+01;0;  2.1070571E+00;  1.4006280E+04;  0.0000000E+00;  2.9746088E-01;  4.0000000E+04;  0.0000000E+00;  3.9622406E+04;  2.2920520E+00;  0.0000000E+00; -1.8499506E-01;  6.2368608E+03;
  1.1167171E+00;  9.9999998E-03;  7.0442691E-02;8278;  3.9760518E-01;  0.0000000E+00; -5.9686176E-02;  9.9064630E+02;  1.6413812E-01; -7.7403008E+03;3; -1.3125436E+02;  0.0000000E+00;  9.5150912E-01;0;  4.6307812E+00;  1.4720748E+04;  0.0000000E+00; -1.3575846E-01;  4.0000000E+04;  0.0000000E+00;  3.9581148E+04;  5.1327386E+00;  0.0000000E+00; -5.0195730E-01;  5.1891455E+02;
  1.1166608E+00;  9.9999998E-03;  8.0507874E-02;8279;  3.9457232E-01;  0.0000000E+00; -6.7370608E-02;  9.9060907E+02;  1.6412014E-01; -7.7711362E+03;3; -1.2209488E+02;  0.0000000E+00;  1.8295469E+00;0;  4.5130715E+00;  1.4718487E+04;  0.0000000E+00; -1.9629703E-01;  4.0000000E+04;  0.0000000E+00;  3.9587254E+04;  4.9972377E+00;  0.0000000E+00; -4.8416635E-01;  1.2225671E+03;
  1.1166387E+00;  9.9999998E-03;  9.0552568E-02;8280;  3.9222285E-01;  0.0000000E+00; -7.4733675E-02;  9.9057483E+02;  1.6409662E-01; -7.7994512E+03;3; -1.1144740E+02;  0.0000000E+00;  2.4246559E+00;0;  4.3818145E+00;  1.4717544E+04;  0.0000000E+00; -2.6017457E-01;  4.0000000E+04;  0.0000000E+00;  3.9593234E+04;  4.8466477E+00;  0.0000000E+00; -4.6483338E-01;  2.0037775E+03;
  1.1166524E+00;  9.9999998E-03;  1.0058071E-01;8281;  3.9082891E-01;  0.0000000E+00; -8.1767619E-02;  9.9053638E+02;  1.6406485E-01; -7.8312622E+03;3; -9.8927132E+01;  0.0000000E+00;  3.3758583E+00;0;  4.2372518E+00;  1.4718101E+04;  0.0000000E+00; -3.1859636E-01;  4.0000000E+04;  0.0000000E+00;  3.9598820E+04;  4.6812563E+00;  0.0000000E+00; -4.4400439E-01;  2.7278833E+03;
  1.1166518E+00;  9.9999998E-03;  1.1060367E-01;8282;  3.8976467E-01;  0.0000000E+00; -8.8486031E-02;  9.9048413E+02;  1.6403584E-01; -7.8745190E+03;3; -8.4436066E+01;  0.0000000E+00;  4.2437882E+00;0;  4.0767007E+00;  1.4718631E+04;  0.0000000E+00; -3.6273140E-01;  4.0000000E+04;  0.0000000E+00;  3.9603250E+04;  4.4981580E+00;  0.0000000E+00; -4.2145747E-01;  3.3392512E+03;
  1.1165713E+00;  9.9999998E-03;  1.2063086E-01;8283;  3.8882282E-01;  0.0000000E+00; -9.4927013E-02;  9.9041772E+02;  1.6401768E-01; -7.9294771E+03;3; -6.6091637E+01;  0.0000000E+00;  4.4310060E+00;0;  3.8970098E+00;  1.4717597E+04;  0.0000000E+00; -3.8506427E-01;  4.0000000E+04;  0.0000000E+00;  3.9606645E+04;  4.2936430E+00;  0.0000000E+00; -3.9663315E-01;  3.8209373E+03;
  1.1146328E+00;  9.9999998E-03;  2.1090195E-01;8292;  5.0512159E-01;  0.0000000E+00; -1.2441932E-01;  9.9166785E+02;  1.6405639E-01; -6.8951919E+03;3;  7.9911293E+01;  0.0000000E+00;  2.5690451E+01;0;  1.9408756E+00;  1.4742596E+04;  0.0000000E+00;  1.6153064E-01;  4.0000000E+04;  0.0000000E+00;  3.9652883E+04;  1.9768181E+00;  0.0000000E+00; -3.5942435E-02;  9.2421260E+03;
  1.1146966E+00;  9.9999998E-03;  2.2097230E-01;8293;  5.2409911E-01;  0.0000000E+00; -1.2473927E-01;  9.9193506E+02;  1.6402175E-01; -6.6740591E+03;3;  8.4489487E+01;  0.0000000E+00;  2.4039913E+01;0;  1.7427902E+00;  1.4754798E+04;  0.0000000E+00;  1.5987413E-01;  4.0000000E+04;  0.0000000E+00;  3.9661051E+04;  1.7544761E+00;  0.0000000E+00; -1.1685878E-02;  1.0193683E+04;
  1.1149485E+00;  9.9999998E-03;  2.3107390E-01;8294;  5.4349077E-01;  0.0000000E+00; -1.2522405E-01;  9.9201227E+02;  1.6396913E-01; -6.6101543E+03;3;  8.8241264E+01;  0.0000000E+00;  2.2123947E+01;0;  1.5484874E+00;  1.4769126E+04;  0.0000000E+00;  4.6471447E-02;  4.0000000E+04;  0.0000000E+00;  3.9660926E+04;  1.5556965E+00;  0.0000000E+00; -7.2090649E-03;  1.0159360E+04;
  1.1146971E+00;  9.9999998E-03;  2.0085560E-01;8291;  4.8679671E-01;  0.0000000E+00; -1.2398149E-01;  9.9133862E+02;  1.6407408E-01; -7.1676577E+03;3;  7.5879753E+01;  0.0000000E+00;  2.6255957E+01;0;  2.1463106E+00;  1.4731354E+04;  0.0000000E+00;  1.0516515E-01;  4.0000000E+04;  0.0000000E+00;  3.9643242E+04;  2.2189133E+00;  0.0000000E+00; -7.2602697E-02;  8.1230288E+03;
  1.1164533E+00;  9.9999998E-03;  1.3064657E-01;8284;  3.8967684E-01;  0.0000000E+00; -1.0103657E-01;  9.9034906E+02;  1.6400574E-01; -7.9863145E+03;3; -4.1946548E+01;  0.0000000E+00;  6.0847397E+00;0;  3.7026222E+00;  1.4716559E+04;  0.0000000E+00; -3.8072962E-01;  4.0000000E+04;  0.0000000E+00;  3.9609414E+04;  4.0715337E+00;  0.0000000E+00; -3.6891156E-01;  4.1775815E+03;
  1.1148709E+00;  9.9999998E-03;  1.9081640E-01;8290;  4.6845269E-01;  0.0000000E+00; -1.2292749E-01;  9.9100940E+02;  1.6407780E-01; -7.4400586E+03;3;  7.4480171E+01;  0.0000000E+00;  2.4087061E+01;0;  2.3615263E+00;  1.4722197E+04;  0.0000000E+00;  2.3378443E-02;  4.0000000E+04;  0.0000000E+00;  3.9634828E+04;  2.4781606E+00;  0.0000000E+00; -1.1663447E-01;  7.1600186E+03;
  1.1162800E+00;  9.9999998E-03;  1.4064983E-01;8285;  3.9377078E-01;  0.0000000E+00; -1.0681762E-01;  9.9029773E+02;  1.6400331E-01; -8.0288066E+03;3; -7.2361927E+00;  0.0000000E+00;  7.2792997E+00;0;  3.4946735E+00;  1.4715148E+04;  0.0000000E+00; -3.5058582E-01;  4.0000000E+04;  0.0000000E+00;  3.9611305E+04;  3.8319874E+00;  0.0000000E+00; -3.3731383E-01;  4.4681865E+03;
  1.1151192E+00;  9.9999998E-03;  1.8077530E-01;8289;  4.5038036E-01;  0.0000000E+00; -1.2109844E-01;  9.9072351E+02;  1.6407064E-01; -7.6766392E+03;3;  7.1549301E+01;  0.0000000E+00;  2.3098206E+01;0;  2.5849967E+00;  1.4715689E+04;  0.0000000E+00; -6.7154557E-02;  4.0000000E+04;  0.0000000E+00;  3.9627711E+04;  2.7494059E+00;  0.0000000E+00; -1.6440928E-01;  6.3617041E+03;
  1.1159809E+00;  9.9999998E-03;  1.5066572E-01;8286;  4.0279710E-01;  0.0000000E+00; -1.1172579E-01;  9.9028839E+02;  1.6402152E-01; -8.0365918E+03;3;  3.4548820E+01;  0.0000000E+00;  1.3709647E+01;0;  3.2711430E+00;  1.4711749E+04;  0.0000000E+00; -2.9932874E-01;  4.0000000E+04;  0.0000000E+00;  3.9613836E+04;  3.5716963E+00;  0.0000000E+00; -3.0055338E-01;  4.7812402E+03;
  1.1154164E+00;  9.9999998E-03;  1.7073312E-01;8288;  4.3303990E-01;  0.0000000E+00; -1.1868298E-01;  9.9049805E+02;  1.6405419E-01; -7.8631460E+03;3;  6.8161095E+01;  0.0000000E+00;  2.2100615E+01;0;  2.8142047E+00;  1.4712370E+04;  0.0000000E+00; -1.5543446E-01;  4.0000000E+04;  0.0000000E+00;  3.9621883E+04;  3.0269487E+00;  0.0000000E+00; -2.1274397E-01;  5.7008721E+03;
  1.1156937E+00;  9.9999998E-03;  1.6069210E-01;8287;  4.1673657E-01;  0.0000000E+00; -1.1563449E-01;  9.9035400E+02;  1.6403776E-01; -7.9823252E+03;3;  5.9605480E+01;  0.0000000E+00;  1.9860987E+01;0;  3.0433495E+00;  1.4710787E+04;  0.0000000E+00; -2.3332873E-01;  4.0000000E+04;  0.0000000E+00;  3.9617332E+04;  3.3020837E+00;  0.0000000E+00; -2.5873417E-01;  5.1784448E+03;
  1.1335205E+00;  9.9999998E-03;  7.0476308E-02;8339;  5.5528176E-01;  0.0000000E+00; -5.4714706E-02;  9.9271973E+02;  1.5966450E-01; -6.0225151E+03;3; -1.5753406E+02;  0.0000000E+00; -8.2964630E+00;0;  5.5523934E+00;  1.5624244E+04;  0.0000000E+00;  1.2233607E-01;  4.0000000E+04;  0.0000000E+00;  3.9558938E+04;  6.0500031E+00;  0.0000000E+00; -4.9760965E-01;  3.5539622E+03;
  1.1333971E+00;  9.9999998E-03;  8.0562860E-02;8340;  5.4943949E-01;  0.0000000E+00; -6.2120650E-02;  9.9261908E+02;  1.5967065E-01; -6.1057627E+03;3; -1.5096942E+02;  0.0000000E+00; -9.2255564E+00;0;  5.4380288E+00;  1.5615180E+04;  0.0000000E+00;  9.7938932E-02;  4.0000000E+04;  0.0000000E+00;  3.9566152E+04;  5.9209614E+00;  0.0000000E+00; -4.8293236E-01;  2.6442556E+03;
  1.1332401E+00;  9.9999998E-03;  9.0614617E-02;8341;  5.4246873E-01;  0.0000000E+00; -6.9369674E-02;  9.9248926E+02;  1.5968311E-01; -6.2131753E+03;3; -1.4319189E+02;  0.0000000E+00; -1.0261904E+01;0;  5.3062043E+00;  1.5604215E+04;  0.0000000E+00;  4.5824654E-02;  4.0000000E+04;  0.0000000E+00;  3.9573578E+04;  5.7733760E+00;  0.0000000E+00; -4.6717149E-01;  1.6941571E+03;
  1.1331061E+00;  9.9999998E-03;  1.0064653E-01;8342;  5.3543705E-01;  0.0000000E+00; -7.6423667E-02;  9.9232886E+02;  1.5968959E-01; -6.3458809E+03;3; -1.3416898E+02;  0.0000000E+00; -1.1132877E+01;0;  5.1590285E+00;  1.5593705E+04;  0.0000000E+00; -3.4007564E-02;  4.0000000E+04;  0.0000000E+00;  3.9580785E+04;  5.6093259E+00;  0.0000000E+00; -4.5029718E-01;  8.5101727E+02;
  1.1330051E+00;  9.9999998E-03;  1.1066076E-01;8343;  5.2845901E-01;  0.0000000E+00; -8.3244428E-02;  9.9212799E+02;  1.5968746E-01; -6.5120620E+03;3; -1.2403741E+02;  0.0000000E+00; -1.1705952E+01;0;  4.9971309E+00;  1.5584155E+04;  0.0000000E+00; -1.3917886E-01;  4.0000000E+04;  0.0000000E+00;  3.9587023E+04;  5.4293895E+00;  0.0000000E+00; -4.3225875E-01;  7.2480255E+02;
  1.1328975E+00;  9.9999998E-03;  1.2066797E-01;8344;  5.2099133E-01;  0.0000000E+00; -8.9851439E-02;  9.9187622E+02;  1.5968527E-01; -6.7203540E+03;3; -1.1283408E+02;  0.0000000E+00; -1.2021176E+01;0;  4.8190255E+00;  1.5574208E+04;  0.0000000E+00; -2.6525515E-01;  4.0000000E+04;  0.0000000E+00;  3.9592336E+04;  5.2318244E+00;  0.0000000E+00; -4.1279906E-01;  1.4258330E+03;
  1.1327183E+00;  9.9999998E-03;  1.3068379E-01;8345;  5.1243091E-01;  0.0000000E+00; -9.6277170E-02;  9.9157245E+02;  1.5969092E-01; -6.9717036E+03;3; -1.0043887E+02;  0.0000000E+00; -1.2256039E+01;0;  4.6222301E+00;  1.5561889E+04;  0.0000000E+00; -4.0457168E-01;  4.0000000E+04;  0.0000000E+00;  3.9596773E+04;  5.0135045E+00;  0.0000000E+00; -3.9127451E-01;  2.2546658E+03;
  1.1324753E+00;  9.9999998E-03;  1.4070337E-01;8346;  5.0341237E-01;  0.0000000E+00; -1.0249990E-01;  9.9123816E+02;  1.5970352E-01; -7.2482607E+03;3; -8.6702568E+01;  0.0000000E+00; -1.2056015E+01;0;  4.4086266E+00;  1.5548099E+04;  0.0000000E+00; -5.4464328E-01;  4.0000000E+04;  0.0000000E+00;  3.9600914E+04;  4.7753558E+00;  0.0000000E+00; -3.6672908E-01;  3.0987510E+03;
  1.1321919E+00;  9.9999998E-03;  1.5074742E-01;8347;  4.9459621E-01;  0.0000000E+00; -1.0839888E-01;  9.9090802E+02;  1.5972161E-01; -7.5214268E+03;3; -7.1632355E+01;  0.0000000E+00; -1.1863327E+01;0;  4.1811142E+00;  1.5533872E+04;  0.0000000E+00; -6.6962790E-01;  4.0000000E+04;  0.0000000E+00;  3.9605418E+04;  4.5191550E+00;  0.0000000E+00; -3.3804080E-01;  3.9476091E+03;
  1.1319584E+00;  9.9999998E-03;  1.6080414E-01;8348;  4.8719284E-01;  0.0000000E+00; -1.1395817E-01;  9.9062158E+02;  1.5973167E-01; -7.7584438E+03;3; -5.4944817E+01;  0.0000000E+00; -1.1141142E+01;0;  3.9469008E+00;  1.5522754E+04;  0.0000000E+00; -7.5677544E-01;  4.0000000E+04;  0.0000000E+00;  3.9610680E+04;  4.2518373E+00;  0.0000000E+00; -3.0493650E-01;  4.7781846E+03;
  1.1317661E+00;  9.9999998E-03;  1.7084822E-01;8349;  4.8125884E-01;  0.0000000E+00; -1.1932767E-01;  9.9039215E+02;  1.5973356E-01; -7.9482671E+03;3; -3.5065170E+01;  0.0000000E+00; -1.1841273E+01;0;  3.7084222E+00;  1.5514783E+04;  0.0000000E+00; -7.7896446E-01;  4.0000000E+04;  0.0000000E+00;  3.9616973E+04;  3.9766560E+00;  0.0000000E+00; -2.6823381E-01;  5.5620132E+03;
  1.1315303E+00;  9.9999998E-03;  1.8087777E-01;8350;  4.7722179E-01;  0.0000000E+00; -1.2514351E-01;  9.9022192E+02;  1.5974021E-01; -8.0891348E+03;3; -9.3929968E+00;  0.0000000E+00; -1.3295883E+01;0;  3.4631052E+00;  1.5507239E+04;  0.0000000E+00; -7.1835846E-01;  4.0000000E+04;  0.0000000E+00;  3.9624375E+04;  3.6926968E+00;  0.0000000E+00; -2.2959150E-01;  6.2981831E+03;
  1.1313109E+00;  9.9999998E-03;  1.9090055E-01;8351;  4.7944233E-01;  0.0000000E+00; -1.3096149E-01;  9.9011359E+02;  1.5974121E-01; -8.1787690E+03;3;  2.6141092E+01;  0.0000000E+00; -1.0893563E+01;0;  3.2144318E+00;  1.5502261E+04;  0.0000000E+00; -5.7714945E-01;  4.0000000E+04;  0.0000000E+00;  3.9632879E+04;  3.4065320E+00;  0.0000000E+00; -1.9210032E-01;  7.0423760E+03;
  1.1311883E+00;  9.9999998E-03;  2.0092510E-01;8352;  4.9028388E-01;  0.0000000E+00; -1.3519193E-01;  9.9006824E+02;  1.5972270E-01; -8.2163154E+03;3;  5.5017765E+01;  0.0000000E+00; -4.4489198E+00;0;  2.9668567E+00;  1.5501981E+04;  0.0000000E+00; -3.7646019E-01;  4.0000000E+04;  0.0000000E+00;  3.9642898E+04;  3.1263309E+00;  0.0000000E+00; -1.5947406E-01;  7.9127944E+03;
  1.1312044E+00;  9.9999998E-03;  2.1096735E-01;8353;  5.0579929E-01;  0.0000000E+00; -1.3773119E-01;  9.9007098E+02;  1.5968233E-01; -8.2140439E+03;3;  6.9890816E+01;  0.0000000E+00; -3.7771050E-02;0;  2.7239237E+00;  1.5506609E+04;  0.0000000E+00; -1.6163270E-01;  4.0000000E+04;  0.0000000E+00;  3.9654074E+04;  2.8595715E+00;  0.0000000E+00; -1.3564773E-01;  8.9485996E+03;
  1.1313689E+00;  9.9999998E-03;  2.2103944E-01;8354;  5.2282417E-01;  0.0000000E+00; -1.3911517E-01;  9.9005566E+02;  1.5962240E-01; -8.2266875E+03;3;  7.7805046E+01;  0.0000000E+00;  3.1026783E+00;0;  2.4857464E+00;  1.5515195E+04;  0.0000000E+00; -6.7024315E-03;  4.0000000E+04;  0.0000000E+00;  3.9662977E+04;  2.6111298E+00;  0.0000000E+00; -1.2538350E-01;  9.8263584E+03;
  1.1316795E+00;  9.9999998E-03;  2.3113865E-01;8355;  5.3970438E-01;  0.0000000E+00; -1.3939269E-01;  9.8993250E+02;  1.5954706E-01; -8.3285537E+03;3;  8.1737259E+01;  0.0000000E+00;  6.5621114E+00;0;  2.2506440E+00;  1.5527015E+04;  0.0000000E+00; -1.7300067E-02;  4.0000000E+04;  0.0000000E+00;  3.9663574E+04;  2.3841701E+00;  0.0000000E+00; -1.3352598E-01;  9.8137559E+03;
  1.1490799E+00;  9.9999998E-03;  7.0404135E-02;8400;  7.0596004E-01;  0.0000000E+00; -4.5950904E-02;  9.9504077E+02;  1.5535302E-01; -4.1008306E+03;3; -1.6380356E+02;  0.0000000E+00; -1.3243038E+01;0;  6.0653477E+00;  1.6583287E+04;  0.0000000E+00;  3.3593583E-01;  4.0000000E+04;  0.0000000E+00;  3.9539559E+04;  6.5226717E+00;  0.0000000E+00; -4.5732424E-01;  6.9681855E+03;
  1.1490353E+00;  9.9999998E-03;  8.0504447E-02;8401;  7.0018971E-01;  0.0000000E+00; -5.2148040E-02;  9.9494006E+02;  1.5535067E-01; -4.1841323E+03;3; -1.5923138E+02;  0.0000000E+00; -1.5117127E+01;0;  5.9746542E+00;  1.6576166E+04;  0.0000000E+00;  3.5760397E-01;  4.0000000E+04;  0.0000000E+00;  3.9547004E+04;  6.4206734E+00;  0.0000000E+00; -4.4601893E-01;  6.0271626E+03;
  1.1489455E+00;  9.9999998E-03;  9.0607747E-02;8402;  6.9312233E-01;  0.0000000E+00; -5.8289528E-02;  9.9478613E+02;  1.5535747E-01; -4.3114038E+03;3; -1.5383565E+02;  0.0000000E+00; -1.6909819E+01;0;  5.8682380E+00;  1.6565285E+04;  0.0000000E+00;  3.3501887E-01;  4.0000000E+04;  0.0000000E+00;  3.9555301E+04;  6.3025470E+00;  0.0000000E+00; -4.3430912E-01;  5.0082280E+03;
  1.1488295E+00;  9.9999998E-03;  1.0067236E-01;8403;  6.8483734E-01;  0.0000000E+00; -6.4359218E-02;  9.9456354E+02;  1.5536703E-01; -4.4955088E+03;3; -1.4749918E+02;  0.0000000E+00; -1.8581617E+01;0;  5.7462749E+00;  1.6551859E+04;  0.0000000E+00;  2.5620648E-01;  4.0000000E+04;  0.0000000E+00;  3.9563141E+04;  6.1685028E+00;  0.0000000E+00; -4.2222762E-01;  3.9725247E+03;
  1.1486958E+00;  9.9999998E-03;  1.1071088E-01;8404;  6.7536604E-01;  0.0000000E+00; -7.0354261E-02;  9.9425848E+02;  1.5537716E-01; -4.7477827E+03;3; -1.4013184E+02;  0.0000000E+00; -2.0089275E+01;0;  5.6084085E+00;  1.6536186E+04;  0.0000000E+00;  1.1446518E-01;  4.0000000E+04;  0.0000000E+00;  3.9570668E+04;  6.0180974E+00;  0.0000000E+00; -4.0968883E-01;  3.0007178E+03;
  1.1485302E+00;  9.9999998E-03;  1.2072772E-01;8405;  6.6433138E-01;  0.0000000E+00; -7.6287627E-02;  9.9387274E+02;  1.5539263E-01; -5.0667505E+03;3; -1.3173402E+02;  0.0000000E+00; -2.1392582E+01;0;  5.4540572E+00;  1.6517570E+04;  0.0000000E+00; -8.9125685E-02;  4.0000000E+04;  0.0000000E+00;  3.9577285E+04;  5.8505702E+00;  0.0000000E+00; -3.9651310E-01;  2.2560012E+03;
  1.1483063E+00;  9.9999998E-03;  1.3073619E-01;8406;  6.5134710E-01;  0.0000000E+00; -8.2192056E-02;  9.9340454E+02;  1.5541504E-01; -5.4539453E+03;3; -1.2236357E+02;  0.0000000E+00; -2.2466909E+01;0;  5.2823815E+00;  1.6495574E+04;  0.0000000E+00; -3.4334671E-01;  4.0000000E+04;  0.0000000E+00;  3.9583293E+04;  5.6646218E+00;  0.0000000E+00; -3.8224009E-01;  2.0604187E+03;
  1.1480720E+00;  9.9999998E-03;  1.4075738E-01;8407;  6.3727063E-01;  0.0000000E+00; -8.8036768E-02;  9.9287433E+02;  1.5543371E-01; -5.8924561E+03;3; -1.1189999E+02;  0.0000000E+00; -2.3755020E+01;0;  5.0951061E+00;  1.6473037E+04;  0.0000000E+00; -6.2533814E-01;  4.0000000E+04;  0.0000000E+00;  3.9589246E+04;  5.4610462E+00;  0.0000000E+00; -3.6593986E-01;  2.5703013E+03;
  1.1478505E+00;  9.9999998E-03;  1.5081541E-01;8408;  6.2259471E-01;  0.0000000E+00; -9.3735434E-02;  9.9233545E+02;  1.5544640E-01; -6.3381177E+03;3; -1.0066812E+02;  0.0000000E+00; -2.4311329E+01;0;  4.8939643E+00;  1.6451334E+04;  0.0000000E+00; -9.0319002E-01;  4.0000000E+04;  0.0000000E+00;  3.9595531E+04;  5.2405314E+00;  0.0000000E+00; -3.4656724E-01;  3.4655645E+03;
  1.1476539E+00;  9.9999998E-03;  1.6088846E-01;8409;  6.0744005E-01;  0.0000000E+00; -9.9205531E-02;  9.9179980E+02;  1.5545057E-01; -6.7810688E+03;3; -8.8469772E+01;  0.0000000E+00; -2.5184608E+01;0;  4.6815953E+00;  1.6431697E+04;  0.0000000E+00; -1.1334362E+00;  4.0000000E+04;  0.0000000E+00;  3.9602789E+04;  5.0051770E+00;  0.0000000E+00; -3.2358187E-01;  4.4442261E+03;
  1.1474624E+00;  9.9999998E-03;  1.7095752E-01;8410;  5.9159273E-01;  0.0000000E+00; -1.0446096E-01;  9.9129633E+02;  1.5544641E-01; -7.1974565E+03;3; -7.5633858E+01;  0.0000000E+00; -2.5400414E+01;0;  4.4595704E+00;  1.6414266E+04;  0.0000000E+00; -1.2705290E+00;  4.0000000E+04;  0.0000000E+00;  3.9610906E+04;  4.7568579E+00;  0.0000000E+00; -2.9728767E-01;  5.3380474E+03;
  1.1472572E+00;  9.9999998E-03;  1.8101102E-01;8411;  5.7535654E-01;  0.0000000E+00; -1.0961471E-01;  9.9082825E+02;  1.5544076E-01; -7.5845732E+03;3; -6.1780891E+01;  0.0000000E+00; -2.5953320E+01;0;  4.2292008E+00;  1.6398139E+04;  0.0000000E+00; -1.2830507E+00;  4.0000000E+04;  0.0000000E+00;  3.9619391E+04;  4.4980316E+00;  0.0000000E+00; -2.6883078E-01;  6.0567622E+03;
  1.1470708E+00;  9.9999998E-03;  1.9104362E-01;8412;  5.6028080E-01;  0.0000000E+00; -1.1458062E-01;  9.9041418E+02;  1.5543269E-01; -7.9270322E+03;3; -4.7035500E+01;  0.0000000E+00; -2.6267113E+01;0;  3.9936988E+00;  1.6384221E+04;  0.0000000E+00; -1.1640797E+00;  4.0000000E+04;  0.0000000E+00;  3.9628238E+04;  4.2339959E+00;  0.0000000E+00; -2.4029718E-01;  6.6024214E+03;
  1.1469718E+00;  9.9999998E-03;  2.0106441E-01;8413;  5.4823440E-01;  0.0000000E+00; -1.1947812E-01;  9.9007965E+02;  1.5540770E-01; -8.2037217E+03;3; -3.0164164E+01;  0.0000000E+00; -2.6961586E+01;0;  3.7572336E+00;  1.6375062E+04;  0.0000000E+00; -9.4786543E-01;  4.0000000E+04;  0.0000000E+00;  3.9637473E+04;  3.9721966E+00;  0.0000000E+00; -2.1496293E-01;  7.1219546E+03;
  1.1469990E+00;  9.9999998E-03;  2.1108891E-01;8414;  5.4088980E-01;  0.0000000E+00; -1.2470728E-01;  9.8981940E+02;  1.5536416E-01; -8.4189180E+03;3; -7.8380566E+00;  0.0000000E+00; -2.9556503E+01;0;  3.5209038E+00;  1.6371791E+04;  0.0000000E+00; -7.1026647E-01;  4.0000000E+04;  0.0000000E+00;  3.9647867E+04;  3.7186930E+00;  0.0000000E+00; -1.9778928E-01;  7.8220605E+03;
  1.1471483E+00;  9.9999998E-03;  2.2113845E-01;8415;  5.3977603E-01;  0.0000000E+00; -1.2993330E-01;  9.8959399E+02;  1.5530449E-01; -8.6052988E+03;3;  2.4370096E+01;  0.0000000E+00; -2.9597193E+01;0;  3.2812762E+00;  1.6373066E+04;  0.0000000E+00; -5.6255823E-01;  4.0000000E+04;  0.0000000E+00;  3.9656762E+04;  3.4765928E+00;  0.0000000E+00; -1.9531658E-01;  8.5569844E+03;
  1.1474344E+00;  9.9999998E-03;  2.3121469E-01;8416;  5.4602557E-01;  0.0000000E+00; -1.3456027E-01;  9.8932452E+02;  1.5522808E-01; -8.8280713E+03;3;  5.4808792E+01;  0.0000000E+00; -2.4238129E+01;0;  3.0341959E+00;  1.6379310E+04;  0.0000000E+00; -6.4848483E-01;  4.0000000E+04;  0.0000000E+00;  3.9658824E+04;  3.2494936E+00;  0.0000000E+00; -2.1529759E-01;  8.7247949E+03;
  1.1639960E+00;  9.9999998E-03;  7.0392966E-02;8461;  8.4710813E-01;  0.0000000E+00; -3.6290273E-02;  9.9733881E+02;  1.5117489E-01; -2.1995020E+03;3; -1.5750876E+02;  0.0000000E+00; -1.6096788E+01;0;  6.1852779E+00;  1.7597268E+04;  0.0000000E+00;  4.1721058E-01;  4.0000000E+04;  0.0000000E+00;  3.9523043E+04;  6.5759821E+00;  0.0000000E+00; -3.9070395E-01;  9.8481943E+03;
  1.1639423E+00;  9.9999998E-03;  8.0475427E-02;8462;  8.3970296E-01;  0.0000000E+00; -4.1140638E-02;  9.9723639E+02;  1.5117569E-01; -2.2841914E+03;3; -1.5504016E+02;  0.0000000E+00; -1.8274044E+01;0;  6.1239271E+00;  1.7589930E+04;  0.0000000E+00;  4.7299126E-01;  4.0000000E+04;  0.0000000E+00;  3.9530660E+04;  6.5067101E+00;  0.0000000E+00; -3.8278279E-01;  8.9207178E+03;
  1.1638744E+00;  9.9999998E-03;  9.0574339E-02;8463;  8.3133918E-01;  0.0000000E+00; -4.5935001E-02;  9.9707098E+02;  1.5118068E-01; -2.4209060E+03;3; -1.5197549E+02;  0.0000000E+00; -2.0373131E+01;0;  6.0507774E+00;  1.7579551E+04;  0.0000000E+00;  4.8368734E-01;  4.0000000E+04;  0.0000000E+00;  3.9538742E+04;  6.4258347E+00;  0.0000000E+00; -3.7505698E-01;  7.9169214E+03;
  1.1637806E+00;  9.9999998E-03;  1.0067745E-01;8464;  8.2183301E-01;  0.0000000E+00; -5.0699163E-02;  9.9682147E+02;  1.5119065E-01; -2.6271357E+03;3; -1.4824586E+02;  0.0000000E+00; -2.2330992E+01;0;  5.9650059E+00;  1.7565268E+04;  0.0000000E+00;  4.2890704E-01;  4.0000000E+04;  0.0000000E+00;  3.9546836E+04;  6.3326836E+00;  0.0000000E+00; -3.6767787E-01;  6.8697588E+03;
  1.1636510E+00;  9.9999998E-03;  1.1073595E-01;8465;  8.1096691E-01;  0.0000000E+00; -5.5452552E-02;  9.9647321E+02;  1.5120614E-01; -2.9150024E+03;3; -1.4382495E+02;  0.0000000E+00; -2.4440655E+01;0;  5.8661752E+00;  1.7546695E+04;  0.0000000E+00;  2.9382929E-01;  4.0000000E+04;  0.0000000E+00;  3.9554746E+04;  6.2268806E+00;  0.0000000E+00; -3.6070523E-01;  5.8301982E+03;
  1.1635020E+00;  9.9999998E-03;  1.2076488E-01;8466;  7.9874939E-01;  0.0000000E+00; -6.0231231E-02;  9.9602893E+02;  1.5122408E-01; -3.2821909E+03;3; -1.3863408E+02;  0.0000000E+00; -2.6443987E+01;0;  5.7536564E+00;  1.7524535E+04;  0.0000000E+00;  7.3782511E-02;  4.0000000E+04;  0.0000000E+00;  3.9562234E+04;  6.1075668E+00;  0.0000000E+00; -3.5391027E-01;  4.8624097E+03;
  1.1633812E+00;  9.9999998E-03;  1.3078359E-01;8467;  7.8554356E-01;  0.0000000E+00; -6.4950384E-02;  9.9549677E+02;  1.5123552E-01; -3.7220950E+03;3; -1.3256429E+02;  0.0000000E+00; -2.8240356E+01;0;  5.6275043E+00;  1.7501635E+04;  0.0000000E+00; -2.2211732E-01;  4.0000000E+04;  0.0000000E+00;  3.9569309E+04;  5.9742994E+00;  0.0000000E+00; -3.4679502E-01;  4.0742000E+03;
  1.1633016E+00;  9.9999998E-03;  1.4082253E-01;8468;  7.7107328E-01;  0.0000000E+00; -6.9576070E-02;  9.9490424E+02;  1.5123570E-01; -4.2118535E+03;3; -1.2564503E+02;  0.0000000E+00; -2.9921911E+01;0;  5.4880948E+00;  1.7479297E+04;  0.0000000E+00; -5.6988025E-01;  4.0000000E+04;  0.0000000E+00;  3.9576543E+04;  5.8268533E+00;  0.0000000E+00; -3.3875853E-01;  3.6177971E+03;
  1.1631848E+00;  9.9999998E-03;  1.5088865E-01;8469;  7.5429928E-01;  0.0000000E+00; -7.4240811E-02;  9.9425525E+02;  1.5123464E-01; -4.7482754E+03;3; -1.1801565E+02;  0.0000000E+00; -3.1468634E+01;0;  5.3349395E+00;  1.7455061E+04;  0.0000000E+00; -9.3187606E-01;  4.0000000E+04;  0.0000000E+00;  3.9584809E+04;  5.6641116E+00;  0.0000000E+00; -3.2917219E-01;  3.6179617E+03;
  1.1629612E+00;  9.9999998E-03;  1.6096447E-01;8470;  7.3454225E-01;  0.0000000E+00; -7.8999907E-02;  9.9357581E+02;  1.5124379E-01; -5.3098965E+03;3; -1.0994427E+02;  0.0000000E+00; -3.2550209E+01;0;  5.1672506E+00;  1.7426861E+04;  0.0000000E+00; -1.2579479E+00;  4.0000000E+04;  0.0000000E+00;  3.9594082E+04;  5.4845705E+00;  0.0000000E+00; -3.1732002E-01;  4.0442390E+03;
  1.1627182E+00;  9.9999998E-03;  1.7103200E-01;8471;  7.1328986E-01;  0.0000000E+00; -8.3755374E-02;  9.9290094E+02;  1.5124701E-01; -5.8677368E+03;3; -1.0131163E+02;  0.0000000E+00; -3.3801231E+01;0;  4.9875045E+00;  1.7399562E+04;  0.0000000E+00; -1.4938523E+00;  4.0000000E+04;  0.0000000E+00;  3.9603887E+04;  5.2902317E+00;  0.0000000E+00; -3.0272725E-01;  4.6868525E+03;
  1.1625141E+00;  9.9999998E-03;  1.8108723E-01;8472;  6.9151324E-01;  0.0000000E+00; -8.8350736E-02;  9.9225989E+02;  1.5123613E-01; -6.3976919E+03;3; -9.2547287E+01;  0.0000000E+00; -3.4535831E+01;0;  4.7986770E+00;  1.7376047E+04;  0.0000000E+00; -1.5963527E+00;  4.0000000E+04;  0.0000000E+00;  3.9613934E+04;  5.0845246E+00;  0.0000000E+00; -2.8584766E-01;  5.3064692E+03;
  1.1623857E+00;  9.9999998E-03;  1.9113369E-01;8473;  6.7052096E-01;  0.0000000E+00; -9.2811815E-02;  9.9167194E+02;  1.5120974E-01; -6.8836904E+03;3; -8.3629951E+01;  0.0000000E+00; -3.5273594E+01;0;  4.6036777E+00;  1.7357764E+04;  0.0000000E+00; -1.5618485E+00;  4.0000000E+04;  0.0000000E+00;  3.9623402E+04;  4.8717184E+00;  0.0000000E+00; -2.6804072E-01;  5.7843013E+03;
  1.1623245E+00;  9.9999998E-03;  2.0117077E-01;8474;  6.5087146E-01;  0.0000000E+00; -9.7042561E-02;  9.9114233E+02;  1.5117410E-01; -7.3214438E+03;3; -7.4930710E+01;  0.0000000E+00; -3.6077724E+01;0;  4.4042921E+00;  1.7343588E+04;  0.0000000E+00; -1.4402907E+00;  4.0000000E+04;  0.0000000E+00;  3.9632020E+04;  4.6556482E+00;  0.0000000E+00; -2.5135607E-01;  6.1652192E+03;
  1.1623254E+00;  9.9999998E-03;  2.1120414E-01;8475;  6.3291937E-01;  0.0000000E+00; -1.0106452E-01;  9.9067657E+02;  1.5113202E-01; -7.7064175E+03;3; -6.6556076E+01;  0.0000000E+00; -3.6181015E+01;0;  4.2016139E+00;  1.7332805E+04;  0.0000000E+00; -1.3313568E+00;  4.0000000E+04;  0.0000000E+00;  3.9640000E+04;  4.4401712E+00;  0.0000000E+00; -2.3855725E-01;  6.5899922E+03;
  1.1624200E+00;  9.9999998E-03;  2.2124144E-01;8476;  6.1774093E-01;  0.0000000E+00; -1.0495517E-01;  9.9027319E+02;  1.5108411E-01; -8.0398315E+03;3; -5.7787735E+01;  0.0000000E+00; -3.7698017E+01;0;  3.9968853E+00;  1.7325799E+04;  0.0000000E+00; -1.3706740E+00;  4.0000000E+04;  0.0000000E+00;  3.9646426E+04;  4.2303209E+00;  0.0000000E+00; -2.3343569E-01;  7.1367998E+03;
  1.1625506E+00;  9.9999998E-03;  2.3128948E-01;8477;  6.0348564E-01;  0.0000000E+00; -1.0896706E-01;  9.8988007E+02;  1.5104042E-01; -8.3647090E+03;3; -4.9061256E+01;  0.0000000E+00; -3.8724640E+01;0;  3.7861593E+00;  1.7319496E+04;  0.0000000E+00; -1.7068321E+00;  4.0000000E+04;  0.0000000E+00;  3.9649801E+04;  4.0274434E+00;  0.0000000E+00; -2.4128409E-01;  7.6749482E+03;
  1.1769716E+00;  9.9999998E-03;  2.0125540E-01;8535;  7.5926113E-01;  0.0000000E+00; -7.3573910E-02;  9.9280377E+02;  1.4717428E-01; -5.9448042E+03;3; -1.0175449E+02;  0.0000000E+00; -4.0027096E+01;0;  4.8324900E+00;  1.8364061E+04;  0.0000000E+00; -1.6581619E+00;  4.0000000E+04;  0.0000000E+00;  3.9625340E+04;  5.1023259E+00;  0.0000000E+00; -2.6983592E-01;  4.9128599E+03;
  1.1770817E+00;  9.9999998E-03;  1.9121505E-01;8534;  7.8236967E-01;  0.0000000E+00; -6.9709577E-02;  9.9342957E+02;  1.4719872E-01; -5.4278154E+03;3; -1.0616535E+02;  0.0000000E+00; -3.9602055E+01;0;  4.9780817E+00;  1.8386037E+04;  0.0000000E+00; -1.6317254E+00;  4.0000000E+04;  0.0000000E+00;  3.9617355E+04;  5.2546835E+00;  0.0000000E+00; -2.7660185E-01;  4.5231138E+03;
  1.1769598E+00;  9.9999998E-03;  2.1128637E-01;8536;  7.3770964E-01;  0.0000000E+00; -7.7251755E-02;  9.9223718E+02;  1.4713524E-01; -6.4128267E+03;3; -9.7649193E+01;  0.0000000E+00; -4.0639175E+01;0;  4.6823173E+00;  1.8348006E+04;  0.0000000E+00; -1.7472714E+00;  4.0000000E+04;  0.0000000E+00;  3.9631789E+04;  4.9466805E+00;  0.0000000E+00; -2.6436344E-01;  5.3720933E+03;
  1.1772990E+00;  9.9999998E-03;  1.8116769E-01;8533;  8.0665624E-01;  0.0000000E+00; -6.5725915E-02;  9.9410962E+02;  1.4720617E-01; -4.8659526E+03;3; -1.1079529E+02;  0.0000000E+00; -3.8812145E+01;0;  5.1171474E+00;  1.8414785E+04;  0.0000000E+00; -1.5556781E+00;  4.0000000E+04;  0.0000000E+00;  3.9607270E+04;  5.4000807E+00;  0.0000000E+00; -2.8293338E-01;  4.1454214E+03;
  1.1770303E+00;  9.9999998E-03;  2.2131433E-01;8537;  7.1795756E-01;  0.0000000E+00; -8.0920540E-02;  9.9173346E+02;  1.4708973E-01; -6.8289771E+03;3; -9.4428658E+01;  0.0000000E+00; -4.0548199E+01;0;  4.5282016E+00;  1.8336107E+04;  0.0000000E+00; -2.0530024E+00;  4.0000000E+04;  0.0000000E+00;  3.9636750E+04;  4.7908792E+00;  0.0000000E+00; -2.6267782E-01;  6.0655142E+03;
  1.1772016E+00;  9.9999998E-03;  2.3134537E-01;8538;  7.0000648E-01;  0.0000000E+00; -8.4600657E-02;  9.9126813E+02;  1.4703697E-01; -7.2133335E+03;3; -9.1553719E+01;  0.0000000E+00; -4.0920540E+01;0;  4.3708067E+00;  1.8328262E+04;  0.0000000E+00; -2.7426240E+00;  4.0000000E+04;  0.0000000E+00;  3.9640527E+04;  4.6388364E+00;  0.0000000E+00; -2.6802966E-01;  7.2080410E+03;
  1.1776346E+00;  9.9999998E-03;  1.7111577E-01;8532;  8.3158815E-01;  0.0000000E+00; -6.1565854E-02;  9.9484277E+02;  1.4718984E-01; -4.2602559E+03;3; -1.1540987E+02;  0.0000000E+00; -3.7802525E+01;0;  5.2474375E+00;  1.8451129E+04;  0.0000000E+00; -1.3759612E+00;  4.0000000E+04;  0.0000000E+00;  3.9596055E+04;  5.5349407E+00;  0.0000000E+00; -2.8750303E-01;  3.9107332E+03;
  1.1779690E+00;  9.9999998E-03;  1.6106185E-01;8531;  8.5512167E-01;  0.0000000E+00; -5.7492010E-02;  9.9558789E+02;  1.4716561E-01; -3.6446804E+03;3; -1.1965332E+02;  0.0000000E+00; -3.6785187E+01;0;  5.3661718E+00;  1.8489482E+04;  0.0000000E+00; -1.0962247E+00;  4.0000000E+04;  0.0000000E+00;  3.9584414E+04;  5.6560163E+00;  0.0000000E+00; -2.8984457E-01;  4.0501895E+03;
  1.1781548E+00;  9.9999998E-03;  1.5100306E-01;8530;  8.7538147E-01;  0.0000000E+00; -5.3748649E-02;  9.9630157E+02;  1.4715637E-01; -3.0550903E+03;3; -1.2370082E+02;  0.0000000E+00; -3.5325268E+01;0;  5.4729047E+00;  1.8522279E+04;  0.0000000E+00; -7.5755823E-01;  4.0000000E+04;  0.0000000E+00;  3.9573605E+04;  5.7634649E+00;  0.0000000E+00; -2.9056007E-01;  4.6239873E+03;
  1.1782793E+00;  9.9999998E-03;  1.2079772E-01;8527;  9.2118853E-01;  0.0000000E+00; -4.3387666E-02;  9.9810327E+02;  1.4715329E-01; -1.5668029E+03;3; -1.3379738E+02;  0.0000000E+00; -2.9869429E+01;0;  5.7297187E+00;  1.8595594E+04;  0.0000000E+00;  1.5922385E-01;  4.0000000E+04;  0.0000000E+00;  3.9547305E+04;  6.0203485E+00;  0.0000000E+00; -2.9062977E-01;  7.3904141E+03;
  1.1782612E+00;  9.9999998E-03;  1.3085304E-01;8528;  9.0774173E-01;  0.0000000E+00; -4.6794448E-02;  9.9757684E+02;  1.4715374E-01; -2.0016609E+03;3; -1.3089746E+02;  0.0000000E+00; -3.1814615E+01;0;  5.6546388E+00;  1.8574400E+04;  0.0000000E+00; -9.3144141E-02;  4.0000000E+04;  0.0000000E+00;  3.9555176E+04;  5.9449053E+00;  0.0000000E+00; -2.9026642E-01;  6.4123208E+03;
  1.1782333E+00;  9.9999998E-03;  1.4093100E-01;8529;  8.9268053E-01;  0.0000000E+00; -5.0219037E-02;  9.9696729E+02;  1.4715381E-01; -2.5052058E+03;3; -1.2750253E+02;  0.0000000E+00; -3.3565063E+01;0;  5.5689411E+00;  1.8550148E+04;  0.0000000E+00; -4.0926304E-01;  4.0000000E+04;  0.0000000E+00;  3.9563836E+04;  5.8593783E+00;  0.0000000E+00; -2.9043707E-01;  5.4666240E+03;
  1.1783378E+00;  9.9999998E-03;  1.1074097E-01;8526;  9.3384898E-01;  0.0000000E+00; -3.9972879E-02;  9.9854401E+02;  1.4714628E-01; -1.2027452E+03;3; -1.3608774E+02;  0.0000000E+00; -2.7729370E+01;0;  5.7938747E+00;  1.8615324E+04;  0.0000000E+00;  3.3168975E-01;  4.0000000E+04;  0.0000000E+00;  3.9539766E+04;  6.0855546E+00;  0.0000000E+00; -2.9167974E-01;  8.3847529E+03;
  1.1783948E+00;  9.9999998E-03;  1.0066000E-01;8525;  9.4539315E-01;  0.0000000E+00; -3.6565837E-02;  9.9888544E+02;  1.4714073E-01; -9.2066809E+02;3; -1.3786064E+02;  0.0000000E+00; -2.5685425E+01;0;  5.8480821E+00;  1.8631148E+04;  0.0000000E+00;  4.2249793E-01;  4.0000000E+04;  0.0000000E+00;  3.9532012E+04;  6.1418710E+00;  0.0000000E+00; -2.9378903E-01;  9.3757227E+03;
  1.1784467E+00;  9.9999998E-03;  9.0582386E-02;8524;  9.5582271E-01;  0.0000000E+00; -3.3152521E-02;  9.9912756E+02;  1.4713854E-01; -7.2066882E+02;3; -1.3910521E+02;  0.0000000E+00; -2.3457388E+01;0;  5.8928962E+00;  1.8643043E+04;  0.0000000E+00;  4.4216880E-01;  4.0000000E+04;  0.0000000E+00;  3.9524504E+04;  6.1899099E+00;  0.0000000E+00; -2.9701376E-01;  1.0341547E+04;
  1.1784910E+00;  9.9999998E-03;  8.0511250E-02;8523;  9.6512604E-01;  0.0000000E+00; -2.9722940E-02;  9.9928473E+02;  1.4713801E-01; -5.9083215E+02;3; -1.3990857E+02;  0.0000000E+00; -2.1024048E+01;0;  5.9291668E+00;  1.8651383E+04;  0.0000000E+00;  4.0905505E-01;  4.0000000E+04;  0.0000000E+00;  3.9516918E+04;  6.2304797E+00;  0.0000000E+00; -3.0131313E-01;  1.1264397E+04;
  1.1785278E+00;  9.9999998E-03;  7.0447005E-02;8522;  9.7334129E-01;  0.0000000E+00; -2.6258945E-02;  9.9938226E+02;  1.4713967E-01; -5.1028116E+02;3; -1.4038763E+02;  0.0000000E+00; -1.8490650E+01;0;  5.9578099E+00;  1.8657002E+04;  0.0000000E+00;  3.4366748E-01;  4.0000000E+04;  0.0000000E+00;  3.9509891E+04;  6.2643456E+00;  0.0000000E+00; -3.0653575E-01;  1.2130059E+04;
  1.1912929E+00;  9.9999998E-03;  2.1135090E-01;8597;  8.4321374E-01;  0.0000000E+00; -5.3671986E-02;  9.9407697E+02;  1.4332910E-01; -4.8896455E+03;3; -1.1352620E+02;  0.0000000E+00; -4.3181763E+01;0;  4.9434662E+00;  1.9413479E+04;  0.0000000E+00; -1.8638026E+00;  4.0000000E+04;  0.0000000E+00;  3.9621648E+04;  5.2182803E+00;  0.0000000E+00; -2.7481413E-01;  4.0545933E+03;
  1.1913899E+00;  9.9999998E-03;  2.0132081E-01;8596;  8.6571538E-01;  0.0000000E+00; -5.0216056E-02;  9.9468225E+02;  1.4333984E-01; -4.3899414E+03;3; -1.1432807E+02;  0.0000000E+00; -4.2847824E+01;0;  5.0308146E+00;  1.9439223E+04;  0.0000000E+00; -1.5336913E+00;  4.0000000E+04;  0.0000000E+00;  3.9617055E+04;  5.3025684E+00;  0.0000000E+00; -2.7175388E-01;  3.4286917E+03;
  1.1913441E+00;  9.9999998E-03;  2.2136933E-01;8598;  8.2284313E-01;  0.0000000E+00; -5.7062719E-02;  9.9353949E+02;  1.4329787E-01; -5.3333169E+03;3; -1.1319945E+02;  0.0000000E+00; -4.3786434E+01;0;  4.8510642E+00;  1.9396174E+04;  0.0000000E+00; -2.4692268E+00;  4.0000000E+04;  0.0000000E+00;  3.9625406E+04;  5.1294832E+00;  0.0000000E+00; -2.7841884E-01;  5.1270015E+03;
  1.1915972E+00;  9.9999998E-03;  1.9127966E-01;8595;  8.8935059E-01;  0.0000000E+00; -4.6730842E-02;  9.9534009E+02;  1.4333530E-01; -3.8468210E+03;3; -1.1522988E+02;  0.0000000E+00; -4.2454655E+01;0;  5.1107793E+00;  1.9471803E+04;  0.0000000E+00; -1.3363097E+00;  4.0000000E+04;  0.0000000E+00;  3.9609605E+04;  5.3787141E+00;  0.0000000E+00; -2.6793480E-01;  3.0606062E+03;
  1.1914958E+00;  9.9999998E-03;  2.3138745E-01;8599;  8.0387700E-01;  0.0000000E+00; -6.0622312E-02;  9.9305664E+02;  1.4325576E-01; -5.7318833E+03;3; -1.1304068E+02;  0.0000000E+00; -4.3886623E+01;0;  4.7540979E+00;  1.9383859E+04;  0.0000000E+00; -3.5089912E+00;  4.0000000E+04;  0.0000000E+00;  3.9629059E+04;  5.0387783E+00;  0.0000000E+00; -2.8468013E-01;  7.0023823E+03;
  1.1918608E+00;  9.9999998E-03;  1.8123086E-01;8594;  9.1325843E-01;  0.0000000E+00; -4.3245036E-02;  9.9603290E+02;  1.4332071E-01; -3.2748691E+03;3; -1.1634937E+02;  0.0000000E+00; -4.1880547E+01;0;  5.1816359E+00;  1.9509158E+04;  0.0000000E+00; -1.1656740E+00;  4.0000000E+04;  0.0000000E+00;  3.9599523E+04;  5.4441843E+00;  0.0000000E+00; -2.6254845E-01;  3.0880576E+03;
  1.1921456E+00;  9.9999998E-03;  1.7118226E-01;8593;  9.3668330E-01;  0.0000000E+00; -3.9876524E-02;  9.9674725E+02;  1.4329867E-01; -2.6851184E+03;3; -1.1734473E+02;  0.0000000E+00; -4.1229572E+01;0;  5.2425804E+00;  1.9549527E+04;  0.0000000E+00; -9.6188164E-01;  4.0000000E+04;  0.0000000E+00;  3.9587738E+04;  5.4978943E+00;  0.0000000E+00; -2.5531378E-01;  3.6955776E+03;
  1.1924255E+00;  9.9999998E-03;  1.6113563E-01;8592;  9.5886552E-01;  0.0000000E+00; -3.6651116E-02;  9.9746039E+02;  1.4327049E-01; -2.0964192E+03;3; -1.1818004E+02;  0.0000000E+00; -4.0285591E+01;0;  5.2936406E+00;  1.9591338E+04;  0.0000000E+00; -7.1588439E-01;  4.0000000E+04;  0.0000000E+00;  3.9575059E+04;  5.5400906E+00;  0.0000000E+00; -2.4644989E-01;  4.7750391E+03;
  1.1927595E+00;  9.9999998E-03;  7.0521116E-02;8583;  1.0789407E+00;  0.0000000E+00; -1.5382507E-02;  1.0010042E+03;  1.4327715E-01;  8.2894830E+02;3; -1.1556799E+02;  0.0000000E+00; -2.3910959E+01;0;  5.4585166E+00;  1.9746742E+04;  0.0000000E+00;  1.5936133E-01;  4.0000000E+04;  0.0000000E+00;  3.9500348E+04;  5.6719642E+00;  0.0000000E+00; -2.1344745E-01;  1.3774058E+04;
  1.1927575E+00;  9.9999998E-03;  8.0568798E-02;8584;  1.0707669E+00;  0.0000000E+00; -1.7501839E-02;  1.0009324E+03;  1.4326823E-01;  7.6970972E+02;3; -1.1678397E+02;  0.0000000E+00; -2.6477327E+01;0;  5.4606628E+00;  1.9744529E+04;  0.0000000E+00;  2.0772548E-01;  4.0000000E+04;  0.0000000E+00;  3.9506465E+04;  5.6706471E+00;  0.0000000E+00; -2.0998411E-01;  1.3015585E+04;
  1.1927698E+00;  9.9999998E-03;  9.0612493E-02;8585;  1.0616473E+00;  0.0000000E+00; -1.9620994E-02;  1.0007968E+03;  1.4325817E-01;  6.5772638E+02;3; -1.1782439E+02;  0.0000000E+00; -2.8864048E+01;0;  5.4586554E+00;  1.9740809E+04;  0.0000000E+00;  2.4345388E-01;  4.0000000E+04;  0.0000000E+00;  3.9512914E+04;  5.6667004E+00;  0.0000000E+00; -2.0804495E-01;  1.2217468E+04;
  1.1927963E+00;  9.9999998E-03;  1.0065843E-01;8586;  1.0514979E+00;  0.0000000E+00; -2.1755954E-02;  1.0005844E+03;  1.4324588E-01;  4.8237140E+02;3; -1.1866296E+02;  0.0000000E+00; -3.1141479E+01;0;  5.4518175E+00;  1.9734633E+04;  0.0000000E+00;  2.5225160E-01;  4.0000000E+04;  0.0000000E+00;  3.9519594E+04;  5.6596847E+00;  0.0000000E+00; -2.0786713E-01;  1.1383860E+04;
  1.1928408E+00;  9.9999998E-03;  1.1071962E-01;8587;  1.0402306E+00;  0.0000000E+00; -2.3923647E-02;  1.0002823E+03;  1.4323263E-01;  2.3311607E+02;3; -1.1919994E+02;  0.0000000E+00; -3.3129311E+01;0;  5.4394135E+00;  1.9725514E+04;  0.0000000E+00;  2.1951741E-01;  4.0000000E+04;  0.0000000E+00;  3.9526531E+04;  5.6489859E+00;  0.0000000E+00; -2.0957214E-01;  1.0509551E+04;
  1.1926900E+00;  9.9999998E-03;  1.5107520E-01;8591;  9.7951519E-01;  0.0000000E+00; -3.3644337E-02;  9.9816302E+02;  1.4323919E-01; -1.5163495E+03;3; -1.1874145E+02;  0.0000000E+00; -3.9257690E+01;0;  5.3351645E+00;  1.9632377E+04;  0.0000000E+00; -4.5450571E-01;  4.0000000E+04;  0.0000000E+00;  3.9562820E+04;  5.5717750E+00;  0.0000000E+00; -2.3661058E-01;  6.0686460E+03;
  1.1928993E+00;  9.9999998E-03;  1.2080479E-01;8588;  1.0278075E+00;  0.0000000E+00; -2.6108632E-02;  9.9988855E+02;  1.4321980E-01; -9.2006264E+01;3; -1.1937994E+02;  0.0000000E+00; -3.4977814E+01;0;  5.4210515E+00;  1.9712678E+04;  0.0000000E+00;  1.3345215E-01;  4.0000000E+04;  0.0000000E+00;  3.9533875E+04;  5.6343079E+00;  0.0000000E+00; -2.1325614E-01;  9.5714512E+03;
  1.1929339E+00;  9.9999998E-03;  1.3090852E-01;8589;  1.0139574E+00;  0.0000000E+00; -2.8398709E-02;  9.9939917E+02;  1.4321077E-01; -4.9594730E+02;3; -1.1933497E+02;  0.0000000E+00; -3.6718742E+01;0;  5.3972383E+00;  1.9694441E+04;  0.0000000E+00; -1.1492240E-02;  4.0000000E+04;  0.0000000E+00;  3.9542160E+04;  5.6163125E+00;  0.0000000E+00; -2.1907422E-01;  8.5322256E+03;
  1.1928812E+00;  9.9999998E-03;  1.4099722E-01;8590;  9.9805135E-01;  0.0000000E+00; -3.0869963E-02;  9.9881860E+02;  1.4321439E-01; -9.7521820E+02;3; -1.1908234E+02;  0.0000000E+00; -3.8145542E+01;0;  5.3687592E+00;  1.9668326E+04;  0.0000000E+00; -2.1164355E-01;  4.0000000E+04;  0.0000000E+00;  3.9551742E+04;  5.5957794E+00;  0.0000000E+00; -2.2702026E-01;  7.3602104E+03;
  1.2054981E+00;  9.9999998E-03;  2.2135834E-01;8659;  9.2585349E-01;  0.0000000E+00; -3.3835538E-02;  9.9545410E+02;  1.3966705E-01; -3.7496460E+03;3; -1.1816595E+02;  0.0000000E+00; -4.6484997E+01;0;  4.9541383E+00;  2.0501076E+04;  0.0000000E+00; -2.6257315E+00;  4.0000000E+04;  0.0000000E+00;  3.9619691E+04;  5.2332006E+00;  0.0000000E+00; -2.7906224E-01;  4.6513594E+03;
  1.2054571E+00;  9.9999998E-03;  2.1133876E-01;8658;  9.4405347E-01;  0.0000000E+00; -3.0778756E-02;  9.9595502E+02;  1.3968378E-01; -3.3364802E+03;3; -1.1630350E+02;  0.0000000E+00; -4.6012451E+01;0;  4.9817958E+00;  2.0522891E+04;  0.0000000E+00; -1.6685663E+00;  4.0000000E+04;  0.0000000E+00;  3.9614938E+04;  5.2511954E+00;  0.0000000E+00; -2.6939943E-01;  2.9520459E+03;
  1.2056191E+00;  9.9999998E-03;  2.3138763E-01;8660;  9.0853888E-01;  0.0000000E+00; -3.7114900E-02;  9.9497284E+02;  1.3964096E-01; -4.1465640E+03;3; -1.2005887E+02;  0.0000000E+00; -4.6503014E+01;0;  4.9212265E+00;  2.0483594E+04;  0.0000000E+00; -4.1337128E+00;  4.0000000E+04;  0.0000000E+00;  3.9622977E+04;  5.2087059E+00;  0.0000000E+00; -2.8747916E-01;  7.4391021E+03;
  1.2055006E+00;  9.9999998E-03;  2.0132014E-01;8657;  9.6356463E-01;  0.0000000E+00; -2.7810078E-02;  9.9650702E+02;  1.3968860E-01; -2.8811128E+03;3; -1.1485700E+02;  0.0000000E+00; -4.5677326E+01;0;  5.0030689E+00;  2.0550127E+04;  0.0000000E+00; -1.0957698E+00;  4.0000000E+04;  0.0000000E+00;  3.9609055E+04;  5.2609081E+00;  0.0000000E+00; -2.5783917E-01;  2.1056187E+03;
  1.2056384E+00;  9.9999998E-03;  1.9129506E-01;8656;  9.8405021E-01;  0.0000000E+00; -2.4884155E-02;  9.9710779E+02;  1.3967887E-01; -2.3855667E+03;3; -1.1333887E+02;  0.0000000E+00; -4.5295025E+01;0;  5.0165200E+00;  2.0584014E+04;  0.0000000E+00; -7.6187605E-01;  4.0000000E+04;  0.0000000E+00;  3.9601496E+04;  5.2606845E+00;  0.0000000E+00; -2.4416436E-01;  2.1426470E+03;
  1.2066807E+00;  9.9999998E-03;  7.0560880E-02;8644;  1.1613775E+00;  0.0000000E+00; -3.0523804E-03;  1.0021530E+03;  1.3962246E-01;  1.7757656E+03;3; -8.6576492E+01;  0.0000000E+00; -3.3692947E+01;0;  4.7827597E+00;  2.0848023E+04;  0.0000000E+00; -5.4469641E-02;  4.0000000E+04;  0.0000000E+00;  3.9494074E+04;  4.9023829E+00;  0.0000000E+00; -1.1962324E-01;  1.4778352E+04;
  1.2058916E+00;  9.9999998E-03;  1.8125835E-01;8655;  1.0055774E+00;  0.0000000E+00; -2.1956025E-02;  9.9774298E+02;  1.3964975E-01; -1.8615986E+03;3; -1.1184859E+02;  0.0000000E+00; -4.4776012E+01;0;  5.0205240E+00;  2.0625916E+04;  0.0000000E+00; -5.5224752E-01;  4.0000000E+04;  0.0000000E+00;  3.9591434E+04;  5.2487774E+00;  0.0000000E+00; -2.2825338E-01;  2.9945471E+03;
  1.2067056E+00;  9.9999998E-03;  8.0603041E-02;8645;  1.1539721E+00;  0.0000000E+00; -3.9049441E-03;  1.0020970E+03;  1.3960811E-01;  1.7295521E+03;3; -8.9055321E+01;  0.0000000E+00; -3.7017681E+01;0;  4.8113656E+00;  2.0849289E+04;  0.0000000E+00; -4.0976163E-02;  4.0000000E+04;  0.0000000E+00;  3.9499035E+04;  4.9283843E+00;  0.0000000E+00; -1.1701877E-01;  1.4167738E+04;
  1.2067530E+00;  9.9999998E-03;  9.0635091E-02;8646;  1.1455553E+00;  0.0000000E+00; -5.1181773E-03;  1.0019880E+03;  1.3958934E-01;  1.6396823E+03;3; -9.1608238E+01;  0.0000000E+00; -3.7229755E+01;0;  4.8390546E+00;  2.0849705E+04;  0.0000000E+00; -2.1567540E-02;  4.0000000E+04;  0.0000000E+00;  3.9504359E+04;  4.9555883E+00;  0.0000000E+00; -1.1653360E-01;  1.3521459E+04;
  1.2062138E+00;  9.9999998E-03;  1.7120828E-01;8654;  1.0272993E+00;  0.0000000E+00; -1.9064659E-02;  9.9840442E+02;  1.3960871E-01; -1.3160110E+03;3; -1.1007865E+02;  0.0000000E+00; -4.4269722E+01;0;  5.0149570E+00;  2.0672574E+04;  0.0000000E+00; -3.9551991E-01;  4.0000000E+04;  0.0000000E+00;  3.9579285E+04;  5.2253685E+00;  0.0000000E+00; -2.1041162E-01;  4.3355352E+03;
  1.2068290E+00;  9.9999998E-03;  1.0066905E-01;8647;  1.1361924E+00;  0.0000000E+00; -6.3521336E-03;  1.0018196E+03;  1.3956688E-01;  1.5007484E+03;3; -9.4134720E+01;  0.0000000E+00; -3.7593441E+01;0;  4.8650031E+00;  2.0848918E+04;  0.0000000E+00; -1.3671061E-03;  4.0000000E+04;  0.0000000E+00;  3.9509883E+04;  4.9834523E+00;  0.0000000E+00; -1.1844921E-01;  1.2832972E+04;
  1.2069266E+00;  9.9999998E-03;  1.1071330E-01;8648;  1.1257702E+00;  0.0000000E+00; -7.5786803E-03;  1.0015663E+03;  1.3954112E-01;  1.2918112E+03;3; -9.6614204E+01;  0.0000000E+00; -3.8540504E+01;0;  4.8890934E+00;  2.0845588E+04;  0.0000000E+00;  1.2656957E-02;  4.0000000E+04;  0.0000000E+00;  3.9516023E+04;  5.0121298E+00;  0.0000000E+00; -1.2303642E-01;  1.2077704E+04;
  1.2065520E+00;  9.9999998E-03;  1.6115175E-01;8653;  1.0483141E+00;  0.0000000E+00; -1.6357098E-02;  9.9906476E+02;  1.3956347E-01; -7.7137970E+02;3; -1.0813851E+02;  0.0000000E+00; -4.3604912E+01;0;  5.0009160E+00;  2.0719908E+04;  0.0000000E+00; -2.5942746E-01;  4.0000000E+04;  0.0000000E+00;  3.9566035E+04;  5.1923666E+00;  0.0000000E+00; -1.9145063E-01;  5.8975195E+03;
  1.2070359E+00;  9.9999998E-03;  1.2078285E-01;8649;  1.1140704E+00;  0.0000000E+00; -8.8440627E-03;  1.0012339E+03;  1.3951506E-01;  1.0176907E+03;3; -9.8966705E+01;  0.0000000E+00; -3.9624508E+01;0;  4.9113636E+00;  2.0838775E+04;  0.0000000E+00;  1.2562879E-02;  4.0000000E+04;  0.0000000E+00;  3.9522754E+04;  5.0418758E+00;  0.0000000E+00; -1.3051200E-01;  1.1211808E+04;
  1.2068634E+00;  9.9999998E-03;  1.5108027E-01;8652;  1.0679759E+00;  0.0000000E+00; -1.3938707E-02;  9.9970807E+02;  1.3952176E-01; -2.4078386E+02;3; -1.0590649E+02;  0.0000000E+00; -4.2841637E+01;0;  4.9800911E+00;  2.0764768E+04;  0.0000000E+00; -1.4330491E-01;  4.0000000E+04;  0.0000000E+00;  3.9552969E+04;  5.1526461E+00;  0.0000000E+00; -1.7255509E-01;  7.4802778E+03;
  1.2070963E+00;  9.9999998E-03;  1.3087848E-01;8650;  1.1007547E+00;  0.0000000E+00; -1.0242955E-02;  1.0008103E+03;  1.3949728E-01;  6.6826550E+02;3; -1.0128807E+02;  0.0000000E+00; -4.0833302E+01;0;  4.9336329E+00;  2.0824779E+04;  0.0000000E+00; -8.9260582E-03;  4.0000000E+04;  0.0000000E+00;  3.9531094E+04;  5.0749063E+00;  0.0000000E+00; -1.4127350E-01;  1.0177678E+04;
  1.2070489E+00;  9.9999998E-03;  1.4098616E-01;8651;  1.0854729E+00;  0.0000000E+00; -1.1908597E-02;  1.0002961E+03;  1.3949884E-01;  2.4422197E+02;3; -1.0361558E+02;  0.0000000E+00; -4.1855133E+01;0;  4.9568467E+00;  2.0800389E+04;  0.0000000E+00; -5.9012998E-02;  4.0000000E+04;  0.0000000E+00;  3.9541238E+04;  5.1122856E+00;  0.0000000E+00; -1.5543899E-01;  8.9325635E+03;
  1.2194066E+00;  9.9999998E-03;  2.3137264E-01;8721;  1.0071632E+00;  0.0000000E+00; -1.5493705E-02;  9.9675183E+02;  1.3623054E-01; -2.6764800E+03;3; -1.1664756E+02;  0.0000000E+00; -4.7893238E+01;0;  4.8774881E+00;  2.1604430E+04;  0.0000000E+00; -4.4504514E+00;  4.0000000E+04;  0.0000000E+00;  3.9617102E+04;  5.1543283E+00;  0.0000000E+00; -2.7684036E-01;  7.5160264E+03;
  1.2192628E+00;  9.9999998E-03;  2.2133712E-01;8720;  1.0211333E+00;  0.0000000E+00; -1.2678565E-02;  9.9719299E+02;  1.3624948E-01; -2.3130122E+03;3; -1.1341016E+02;  0.0000000E+00; -4.7386448E+01;0;  4.8504467E+00;  2.1623854E+04;  0.0000000E+00; -2.4266708E+00;  4.0000000E+04;  0.0000000E+00;  3.9612586E+04;  5.1160321E+00;  0.0000000E+00; -2.6558545E-01;  3.8361274E+03;
  1.2192082E+00;  9.9999998E-03;  2.1132675E-01;8719;  1.0356956E+00;  0.0000000E+00; -1.0019251E-02;  9.9762537E+02;  1.3625605E-01; -1.9567424E+03;3; -1.1010323E+02;  0.0000000E+00; -4.6997501E+01;0;  4.8190680E+00;  2.1647898E+04;  0.0000000E+00; -1.1761308E+00;  4.0000000E+04;  0.0000000E+00;  3.9605840E+04;  5.0690370E+00;  0.0000000E+00; -2.4996917E-01;  2.0170096E+03;
  1.2192631E+00;  9.9999998E-03;  2.0132209E-01;8718;  1.0515901E+00;  0.0000000E+00; -7.4351961E-03;  9.9810547E+02;  1.3624713E-01; -1.5611139E+03;3; -1.0703966E+02;  0.0000000E+00; -4.6381767E+01;0;  4.7811275E+00;  2.1678137E+04;  0.0000000E+00; -4.5274523E-01;  4.0000000E+04;  0.0000000E+00;  3.9599344E+04;  5.0118003E+00;  0.0000000E+00; -2.3067269E-01;  1.9653954E+03;
  1.2202975E+00;  9.9999998E-03;  7.0534535E-02;8705;  1.2211304E+00;  0.0000000E+00;  4.1147466E-03;  1.0028414E+03;  1.3619968E-01;  2.3412041E+03;3; -5.6120644E+01;  0.0000000E+00; -2.1176350E+01;0;  4.0251474E+00;  2.1944980E+04;  0.0000000E+00; -2.2090127E-01;  4.0000000E+04;  0.0000000E+00;  3.9490645E+04;  4.0568705E+00;  0.0000000E+00; -3.1723246E-02;  1.5199532E+04;
  1.2203162E+00;  9.9999998E-03;  8.0587693E-02;8706;  1.2151304E+00;  0.0000000E+00;  7.0865606E-03;  1.0028061E+03;  1.3618469E-01;  2.3120291E+03;3; -5.9505253E+01;  0.0000000E+00; -2.5844522E+01;0;  4.0757689E+00;  2.1947898E+04;  0.0000000E+00; -2.4779513E-01;  4.0000000E+04;  0.0000000E+00;  3.9494258E+04;  4.1050248E+00;  0.0000000E+00; -2.9255992E-02;  1.4758332E+04;
  1.2194353E+00;  9.9999998E-03;  1.9130675E-01;8717;  1.0688050E+00;  0.0000000E+00; -4.9086516E-03;  9.9864026E+02;  1.3622098E-01; -1.1204404E+03;3; -1.0375567E+02;  0.0000000E+00; -4.5617577E+01;0;  4.7349000E+00;  2.1715641E+04;  0.0000000E+00; -7.4887685E-02;  4.0000000E+04;  0.0000000E+00;  3.9592289E+04;  4.9431329E+00;  0.0000000E+00; -2.0823286E-01;  2.7689512E+03;
  1.2203515E+00;  9.9999998E-03;  9.0629846E-02;8707;  1.2080661E+00;  0.0000000E+00;  9.0744877E-03;  1.0027257E+03;  1.3616672E-01;  2.2458213E+03;3; -6.3235409E+01;  0.0000000E+00; -3.3317841E+01;0;  4.1287956E+00;  2.1950070E+04;  0.0000000E+00; -2.5737318E-01;  4.0000000E+04;  0.0000000E+00;  3.9498172E+04;  4.1582079E+00;  0.0000000E+00; -2.9412361E-02;  1.4273867E+04;
  1.2196963E+00;  9.9999998E-03;  1.8127675E-01;8716;  1.0869848E+00;  0.0000000E+00; -2.5218278E-03;  9.9920392E+02;  1.3618362E-01; -6.5595435E+02;3; -1.0026858E+02;  0.0000000E+00; -4.4983414E+01;0;  4.6802301E+00;  2.1758664E+04;  0.0000000E+00;  8.7728485E-02;  4.0000000E+04;  0.0000000E+00;  3.9583000E+04;  4.8635235E+00;  0.0000000E+00; -1.8329325E-01;  3.9266125E+03;
  1.2204152E+00;  9.9999998E-03;  1.0066518E-01;8708;  1.1999321E+00;  0.0000000E+00;  9.2396019E-03;  1.0026017E+03;  1.3614383E-01;  2.1436606E+03;3; -6.7183624E+01;  0.0000000E+00; -3.8942322E+01;0;  4.1829920E+00;  2.1951617E+04;  0.0000000E+00; -2.4532092E-01;  4.0000000E+04;  0.0000000E+00;  3.9502766E+04;  4.2155652E+00;  0.0000000E+00; -3.2573309E-02;  1.3721908E+04;
  1.2205011E+00;  9.9999998E-03;  1.1070998E-01;8709;  1.1907152E+00;  0.0000000E+00;  8.3241034E-03;  1.0024128E+03;  1.3611721E-01;  1.9879672E+03;3; -7.1238762E+01;  0.0000000E+00; -4.0920563E+01;0;  4.2383075E+00;  2.1951150E+04;  0.0000000E+00; -2.0975211E-01;  4.0000000E+04;  0.0000000E+00;  3.9508082E+04;  4.2774129E+00;  0.0000000E+00; -3.9105330E-02;  1.3068786E+04;
  1.2200054E+00;  9.9999998E-03;  1.7122443E-01;8715;  1.1054265E+00;  0.0000000E+00; -2.2068093E-04;  9.9978247E+02;  1.3614036E-01; -1.7925826E+02;3; -9.6412529E+01;  0.0000000E+00; -4.4351200E+01;0;  4.6182408E+00;  2.1804564E+04;  0.0000000E+00;  1.3031501E-01;  4.0000000E+04;  0.0000000E+00;  3.9571289E+04;  4.7749710E+00;  0.0000000E+00; -1.5673035E-01;  5.3589722E+03;
  1.2205930E+00;  9.9999998E-03;  1.2077081E-01;8710;  1.1803466E+00;  0.0000000E+00;  7.2349976E-03;  1.0021445E+03;  1.3608992E-01;  1.7669594E+03;3; -7.5364067E+01;  0.0000000E+00; -4.1497368E+01;0;  4.2951164E+00;  2.1947184E+04;  0.0000000E+00; -1.5223683E-01;  4.0000000E+04;  0.0000000E+00;  3.9514484E+04;  4.3444481E+00;  0.0000000E+00; -4.9331672E-02;  1.2265954E+04;
  1.2203071E+00;  9.9999998E-03;  1.6114469E-01;8714;  1.1233793E+00;  0.0000000E+00;  1.8564004E-03;  1.0003497E+03;  1.3609838E-01;  2.8818124E+02;3; -9.2323692E+01;  0.0000000E+00; -4.3839394E+01;0;  4.5513783E+00;  2.1849500E+04;  0.0000000E+00;  1.1383580E-01;  4.0000000E+04;  0.0000000E+00;  3.9558027E+04;  4.6812449E+00;  0.0000000E+00; -1.2986684E-01;  6.9624199E+03;
  1.2206539E+00;  9.9999998E-03;  1.3084494E-01;8711;  1.1685431E+00;  0.0000000E+00;  6.1840699E-03;  1.0018021E+03;  1.3606894E-01;  1.4847689E+03;3; -7.9547432E+01;  0.0000000E+00; -4.1905182E+01;0;  4.3545241E+00;  2.1936947E+04;  0.0000000E+00; -7.8737698E-02;  4.0000000E+04;  0.0000000E+00;  3.9522828E+04;  4.4181042E+00;  0.0000000E+00; -6.3579924E-02;  1.1262940E+04;
  1.2205312E+00;  9.9999998E-03;  1.5104698E-01;8713;  1.1400605E+00;  0.0000000E+00;  3.6243850E-03;  1.0008856E+03;  1.3606931E-01;  7.2967249E+02;3; -8.8042099E+01;  0.0000000E+00; -4.3186584E+01;0;  4.4834347E+00;  2.1888289E+04;  0.0000000E+00;  6.7229368E-02;  4.0000000E+04;  0.0000000E+00;  3.9544832E+04;  4.5878692E+00;  0.0000000E+00; -1.0443456E-01;  8.5684209E+03;
  1.2206452E+00;  9.9999998E-03;  1.4093941E-01;8712;  1.1551518E+00;  0.0000000E+00;  5.0303964E-03;  1.0013779E+03;  1.3605954E-01;  1.1353082E+03;3; -8.3774117E+01;  0.0000000E+00; -4.2475151E+01;0;  4.4172883E+00;  2.1917861E+04;  0.0000000E+00; -3.8237096E-04;  4.0000000E+04;  0.0000000E+00;  3.9532879E+04;  4.4993005E+00;  0.0000000E+00; -8.2012266E-02;  1.0028098E+04;
  1.2331741E+00;  9.9999998E-03;  2.3134790E-01;8782;  1.0978311E+00;  0.0000000E+00;  3.9022146E-03;  9.9825183E+02;  1.3300258E-01; -1.4386986E+03;3; -1.0552238E+02;  0.0000000E+00; -4.7712608E+01;0;  4.6484675E+00;  2.2740611E+04;  0.0000000E+00; -4.9423075E+00;  4.0000000E+04;  0.0000000E+00;  3.9611641E+04;  4.9022579E+00;  0.0000000E+00; -2.5379053E-01;  7.9183516E+03;
  1.2330079E+00;  9.9999998E-03;  2.2130027E-01;8781;  1.1078690E+00;  0.0000000E+00;  6.2354286E-03;  9.9870868E+02;  1.3301875E-01; -1.0627677E+03;3; -1.0115756E+02;  0.0000000E+00; -4.6810497E+01;0;  4.5697203E+00;  2.2761902E+04;  0.0000000E+00; -2.1993806E+00;  4.0000000E+04;  0.0000000E+00;  3.9606234E+04;  4.8091683E+00;  0.0000000E+00; -2.3944820E-01;  3.2495012E+03;
  1.2328826E+00;  9.9999998E-03;  2.1128365E-01;8780;  1.1176536E+00;  0.0000000E+00;  8.3508631E-03;  9.9910138E+02;  1.3302879E-01; -7.3955615E+02;3; -9.7144386E+01;  0.0000000E+00; -4.6012081E+01;0;  4.4899874E+00;  2.2783920E+04;  0.0000000E+00; -6.3015544E-01;  4.0000000E+04;  0.0000000E+00;  3.9597941E+04;  4.7086744E+00;  0.0000000E+00; -2.1868707E-01;  2.1041467E+03;
  1.2328500E+00;  9.9999998E-03;  2.0127667E-01;8779;  1.1285787E+00;  0.0000000E+00;  1.0295749E-02;  9.9951929E+02;  1.3302669E-01; -3.9563141E+02;3; -9.3083366E+01;  0.0000000E+00; -4.5278458E+01;0;  4.4059849E+00;  2.2809721E+04;  0.0000000E+00;  1.7141964E-01;  4.0000000E+04;  0.0000000E+00;  3.9590699E+04;  4.5991244E+00;  0.0000000E+00; -1.9313958E-01;  3.0038047E+03;
  1.2335631E+00;  9.9999998E-03;  7.0486844E-02;8766;  1.2602221E+00;  0.0000000E+00;  6.3302536E-03;  1.0031426E+03;  1.3303292E-01;  2.5862122E+03;3; -2.6959904E+01;  0.0000000E+00; -1.8778025E+01;0;  3.2696273E+00;  2.3020920E+04;  0.0000000E+00; -2.9607815E-01;  4.0000000E+04;  0.0000000E+00;  3.9488781E+04;  3.2240345E+00;  0.0000000E+00;  4.5592841E-02;  1.5134882E+04;
  1.2329247E+00;  9.9999998E-03;  1.9126694E-01;8778;  1.1409464E+00;  0.0000000E+00;  1.2157184E-02;  9.9995654E+02;  1.3301159E-01; -3.5761093E+01;3; -8.8806702E+01;  0.0000000E+00; -4.4412880E+01;0;  4.3159647E+00;  2.2840834E+04;  0.0000000E+00;  5.0780284E-01;  4.0000000E+04;  0.0000000E+00;  3.9583434E+04;  4.4799366E+00;  0.0000000E+00; -1.6397212E-01;  3.9596521E+03;
  1.2335805E+00;  9.9999998E-03;  8.0542490E-02;8767;  1.2561334E+00;  0.0000000E+00;  9.1240807E-03;  1.0031219E+03;  1.3301663E-01;  2.5692358E+03;3; -3.0876131E+01;  0.0000000E+00; -2.0886486E+01;0;  3.3346238E+00;  2.3025166E+04;  0.0000000E+00; -3.5949585E-01;  4.0000000E+04;  0.0000000E+00;  3.9491246E+04;  3.2860372E+00;  0.0000000E+00;  4.8586622E-02;  1.4851172E+04;
  1.2336038E+00;  9.9999998E-03;  9.0595424E-02;8768;  1.2510757E+00;  0.0000000E+00;  1.2346367E-02;  1.0030817E+03;  1.3299957E-01;  2.5360708E+03;3; -3.5285069E+01;  0.0000000E+00; -2.2918640E+01;0;  3.4050491E+00;  2.3029131E+04;  0.0000000E+00; -4.0460220E-01;  4.0000000E+04;  0.0000000E+00;  3.9494160E+04;  3.3563652E+00;  0.0000000E+00;  4.8683893E-02;  1.4511776E+04;
  1.2330979E+00;  9.9999998E-03;  1.8124415E-01;8777;  1.1545653E+00;  0.0000000E+00;  1.3909793E-02;  1.0004138E+03;  1.3298349E-01;  3.4053397E+02;3; -8.4046074E+01;  0.0000000E+00; -4.3982319E+01;0;  4.2196121E+00;  2.2877219E+04;  0.0000000E+00;  5.6745392E-01;  4.0000000E+04;  0.0000000E+00;  3.9574766E+04;  4.3519330E+00;  0.0000000E+00; -1.3232096E-01;  4.9878130E+03;
  1.2336313E+00;  9.9999998E-03;  1.0064571E-01;8769;  1.2449267E+00;  0.0000000E+00;  1.5861779E-02;  1.0030048E+03;  1.3298033E-01;  2.4727874E+03;3; -4.0124619E+01;  0.0000000E+00; -2.5448133E+01;0;  3.4803936E+00;  2.3031574E+04;  0.0000000E+00; -4.1851345E-01;  4.0000000E+04;  0.0000000E+00;  3.9497805E+04;  3.4351106E+00;  0.0000000E+00;  4.5283023E-02;  1.4079256E+04;
  1.2336625E+00;  9.9999998E-03;  1.1069503E-01;8770;  1.2376107E+00;  0.0000000E+00;  1.9089373E-02;  1.0028774E+03;  1.3296025E-01;  2.3679077E+03;3; -4.5313236E+01;  0.0000000E+00; -3.0204060E+01;0;  3.5601025E+00;  2.3031514E+04;  0.0000000E+00; -3.9044616E-01;  4.0000000E+04;  0.0000000E+00;  3.9502582E+04;  3.5221865E+00;  0.0000000E+00;  3.7915844E-02;  1.3509749E+04;
  1.2333292E+00;  9.9999998E-03;  1.7119679E-01;8776;  1.1688368E+00;  0.0000000E+00;  1.5614589E-02;  1.0008735E+03;  1.3294964E-01;  7.1882318E+02;3; -7.8895210E+01;  0.0000000E+00; -4.3380676E+01;0;  4.1184831E+00;  2.2916285E+04;  0.0000000E+00;  4.7413820E-01;  4.0000000E+04;  0.0000000E+00;  3.9563777E+04;  4.2179656E+00;  0.0000000E+00; -9.9482603E-02;  6.2429102E+03;
  1.2336842E+00;  9.9999998E-03;  1.2075014E-01;8771;  1.2290732E+00;  0.0000000E+00;  2.0665437E-02;  1.0026865E+03;  1.3294190E-01;  2.2108403E+03;3; -5.0793224E+01;  0.0000000E+00; -3.6935509E+01;0;  3.6442618E+00;  2.3027359E+04;  0.0000000E+00; -3.1470659E-01;  4.0000000E+04;  0.0000000E+00;  3.9508777E+04;  3.6181319E+00;  0.0000000E+00;  2.6129937E-02;  1.2759225E+04;
  1.2336906E+00;  9.9999998E-03;  1.3082002E-01;8772;  1.2193451E+00;  0.0000000E+00;  2.0376159E-02;  1.0024253E+03;  1.3292663E-01;  1.9958961E+03;3; -5.6429585E+01;  0.0000000E+00; -4.0481701E+01;0;  3.7324872E+00;  2.3017881E+04;  0.0000000E+00; -1.9320793E-01;  4.0000000E+04;  0.0000000E+00;  3.9516797E+04;  3.7228577E+00;  0.0000000E+00;  9.6294526E-03;  1.1794063E+04;
  1.2335385E+00;  9.9999998E-03;  1.6111434E-01;8775;  1.1829535E+00;  0.0000000E+00;  1.7127967E-02;  1.0013177E+03;  1.3292156E-01;  1.0844419E+03;3; -7.3357452E+01;  0.0000000E+00; -4.2726433E+01;0;  4.0164700E+00;  2.2952908E+04;  0.0000000E+00;  3.1355315E-01;  4.0000000E+04;  0.0000000E+00;  3.9551211E+04;  4.0836620E+00;  0.0000000E+00; -6.7192145E-02;  7.7017075E+03;
  1.2336844E+00;  9.9999998E-03;  1.4090478E-01;8773;  1.2083809E+00;  0.0000000E+00;  1.9426372E-02;  1.0021085E+03;  1.3291556E-01;  1.7352389E+03;3; -6.2104076E+01;  0.0000000E+00; -4.1524223E+01;0;  3.8238037E+00;  2.3002951E+04;  0.0000000E+00; -3.7214879E-02;  4.0000000E+04;  0.0000000E+00;  3.9526680E+04;  3.8354158E+00;  0.0000000E+00; -1.1612186E-02;  1.0603002E+04;
  1.2336477E+00;  9.9999998E-03;  1.5100397E-01;8774;  1.1962035E+00;  0.0000000E+00;  1.8367445E-02;  1.0017335E+03;  1.3291128E-01;  1.4265153E+03;3; -6.7759514E+01;  0.0000000E+00; -4.2080265E+01;0;  3.9181409E+00;  2.2981795E+04;  0.0000000E+00;  1.3594478E-01;  4.0000000E+04;  0.0000000E+00;  3.9538418E+04;  3.9555733E+00;  0.0000000E+00; -3.7432551E-02;  9.2104521E+03;
  1.2464900E+00;  9.9999998E-03;  2.3132677E-01;8843;  1.1742605E+00;  0.0000000E+00;  2.0666035E-02;  9.9943262E+02;  1.3005000E-01; -4.6626492E+02;3; -8.9425110E+01;  0.0000000E+00; -4.6123631E+01;0;  4.2856264E+00;  2.3847023E+04;  0.0000000E+00; -5.2732315E+00;  4.0000000E+04;  0.0000000E+00;  3.9605262E+04;  4.5044003E+00;  0.0000000E+00; -2.1877378E-01;  7.8809131E+03;
  1.2462825E+00;  9.9999998E-03;  2.2125480E-01;8842;  1.1806015E+00;  0.0000000E+00;  2.2538330E-02;  9.9997675E+02;  1.3006812E-01; -1.9103672E+01;3; -8.4469353E+01;  0.0000000E+00; -4.5023842E+01;0;  4.1672902E+00;  2.3870049E+04;  0.0000000E+00; -1.8441540E+00;  4.0000000E+04;  0.0000000E+00;  3.9601691E+04;  4.3699679E+00;  0.0000000E+00; -2.0267762E-01;  2.5448123E+03;
  1.2460884E+00;  9.9999998E-03;  2.1121840E-01;8841;  1.1859529E+00;  0.0000000E+00;  2.4046704E-02;  1.0003774E+03;  1.3008338E-01;  3.1017245E+02;3; -7.9924789E+01;  0.0000000E+00; -4.4218239E+01;0;  4.0523224E+00;  2.3890602E+04;  0.0000000E+00; -8.0540277E-02;  4.0000000E+04;  0.0000000E+00;  3.9592238E+04;  4.2311430E+00;  0.0000000E+00; -1.7882052E-01;  2.6570986E+03;
  1.2464783E+00;  9.9999998E-03;  7.0445761E-02;8827;  1.2819991E+00;  0.0000000E+00;  9.0831183E-03;  1.0031414E+03;  1.3012885E-01;  2.5815803E+03;3; -7.6180351E-01;  0.0000000E+00; -1.7174479E+01;0;  2.5752113E+00;  2.4063486E+04;  0.0000000E+00; -2.7700758E-01;  4.0000000E+04;  0.0000000E+00;  3.9488172E+04;  2.4649036E+00;  0.0000000E+00;  1.1030763E-01;  1.4672598E+04;
  1.2459744E+00;  9.9999998E-03;  2.0120843E-01;8840;  1.1921130E+00;  0.0000000E+00;  2.5453100E-02;  1.0007186E+03;  1.3008979E-01;  5.9057007E+02;3; -7.5466919E+01;  0.0000000E+00; -4.3717743E+01;0;  3.9369404E+00;  2.3911967E+04;  0.0000000E+00;  6.7331481E-01;  4.0000000E+04;  0.0000000E+00;  3.9582812E+04;  4.0861087E+00;  0.0000000E+00; -1.4916822E-01;  4.0206484E+03;
  1.2464759E+00;  9.9999998E-03;  8.0499813E-02;8828;  1.2799276E+00;  0.0000000E+00;  1.1330741E-02;  1.0031384E+03;  1.3011506E-01;  2.5791316E+03;3; -4.8617792E+00;  0.0000000E+00; -1.9402233E+01;0;  2.6481984E+00;  2.4067736E+04;  0.0000000E+00; -3.6705467E-01;  4.0000000E+04;  0.0000000E+00;  3.9489625E+04;  2.5341139E+00;  0.0000000E+00;  1.1408454E-01;  1.4510315E+04;
  1.2459645E+00;  9.9999998E-03;  1.9120298E-01;8839;  1.1998175E+00;  0.0000000E+00;  2.6795156E-02;  1.0010607E+03;  1.3008285E-01;  8.7174835E+02;3; -7.0655792E+01;  0.0000000E+00; -4.3119984E+01;0;  3.8185332E+00;  2.3936273E+04;  0.0000000E+00;  8.8850135E-01;  4.0000000E+04;  0.0000000E+00;  3.9574840E+04;  3.9341140E+00;  0.0000000E+00; -1.1558086E-01;  4.9387593E+03;
  1.2464722E+00;  9.9999998E-03;  9.0557002E-02;8829;  1.2771175E+00;  0.0000000E+00;  1.3859403E-02;  1.0031193E+03;  1.3010049E-01;  2.5633604E+03;3; -9.6486931E+00;  0.0000000E+00; -2.1478388E+01;0;  2.7285972E+00;  2.4071793E+04;  0.0000000E+00; -4.4707486E-01;  4.0000000E+04;  0.0000000E+00;  3.9491684E+04;  2.6136580E+00;  0.0000000E+00;  1.1493919E-01;  1.4278337E+04;
  1.2464645E+00;  9.9999998E-03;  1.0061586E-01;8830;  1.2733947E+00;  0.0000000E+00;  1.6755048E-02;  1.0030908E+03;  1.3008626E-01;  2.5399492E+03;3; -1.5029621E+01;  0.0000000E+00; -2.3332476E+01;0;  2.8160038E+00;  2.4074727E+04;  0.0000000E+00; -4.9860609E-01;  4.0000000E+04;  0.0000000E+00;  3.9494695E+04;  2.7038794E+00;  0.0000000E+00;  1.1212446E-01;  1.3933358E+04;
  1.2460507E+00;  9.9999998E-03;  1.8118621E-01;8838;  1.2089320E+00;  0.0000000E+00;  2.8087003E-02;  1.0013998E+03;  1.3006653E-01;  1.1503668E+03;3; -6.5297829E+01;  0.0000000E+00; -4.2363064E+01;0;  3.6966732E+00;  2.3963967E+04;  0.0000000E+00;  8.1811321E-01;  4.0000000E+04;  0.0000000E+00;  3.9566648E+04;  3.7762754E+00;  0.0000000E+00; -7.9602286E-02;  5.7813237E+03;
  1.2464492E+00;  9.9999998E-03;  1.1067373E-01;8831;  1.2686117E+00;  0.0000000E+00;  2.0179959E-02;  1.0030251E+03;  1.3007127E-01;  2.4860725E+03;3; -2.0920374E+01;  0.0000000E+00; -2.4902428E+01;0;  2.9099867E+00;  2.4075246E+04;  0.0000000E+00; -5.0333309E-01;  4.0000000E+04;  0.0000000E+00;  3.9499168E+04;  2.8049977E+00;  0.0000000E+00;  1.0498897E-01;  1.3430052E+04;
  1.2464243E+00;  9.9999998E-03;  1.2073097E-01;8832;  1.2626768E+00;  0.0000000E+00;  2.4285717E-02;  1.0029139E+03;  1.3005900E-01;  2.3945803E+03;3; -2.7203957E+01;  0.0000000E+00; -2.6432796E+01;0;  3.0099781E+00;  2.4072164E+04;  0.0000000E+00; -4.4756192E-01;  4.0000000E+04;  0.0000000E+00;  3.9505238E+04;  2.9169865E+00;  0.0000000E+00;  9.2991546E-02;  1.2731278E+04;
  1.2461725E+00;  9.9999998E-03;  1.7114565E-01;8837;  1.2188218E+00;  0.0000000E+00;  2.9291235E-02;  1.0017266E+03;  1.3004811E-01;  1.4189806E+03;3; -5.9471329E+01;  0.0000000E+00; -4.1665756E+01;0;  3.5740004E+00;  2.3992291E+04;  0.0000000E+00;  6.0250241E-01;  4.0000000E+04;  0.0000000E+00;  3.9556738E+04;  3.6169417E+00;  0.0000000E+00; -4.2941444E-02;  6.8118564E+03;
  1.2463838E+00;  9.9999998E-03;  1.3079642E-01;8833;  1.2555807E+00;  0.0000000E+00;  2.8621314E-02;  1.0027578E+03;  1.3004915E-01;  2.2663540E+03;3; -3.3726322E+01;  0.0000000E+00; -2.9632351E+01;0;  3.1155810E+00;  2.4064320E+04;  0.0000000E+00; -3.2628345E-01;  4.0000000E+04;  0.0000000E+00;  3.9513148E+04;  3.0398903E+00;  0.0000000E+00;  7.5690836E-02;  1.1817996E+04;
  1.2463378E+00;  9.9999998E-03;  1.4087999E-01;8834;  1.2474763E+00;  0.0000000E+00;  3.1141916E-02;  1.0025475E+03;  1.3004301E-01;  2.0935527E+03;3; -4.0307575E+01;  0.0000000E+00; -3.5995605E+01;0;  3.2255509E+00;  2.4052047E+04;  0.0000000E+00; -1.4668600E-01;  4.0000000E+04;  0.0000000E+00;  3.9522680E+04;  3.1726413E+00;  0.0000000E+00;  5.2909553E-02;  1.0697187E+04;
  1.2462603E+00;  9.9999998E-03;  1.6107270E-01;8836;  1.2288603E+00;  0.0000000E+00;  3.0303236E-02;  1.0020276E+03;  1.3003767E-01;  1.6663345E+03;3; -5.3295773E+01;  0.0000000E+00; -4.0850212E+01;0;  3.4540913E+00;  2.4016943E+04;  0.0000000E+00;  3.3540553E-01;  4.0000000E+04;  0.0000000E+00;  3.9545500E+04;  3.4615991E+00;  0.0000000E+00; -7.5078341E-03;  8.0645620E+03;
  1.2463015E+00;  9.9999998E-03;  1.5097807E-01;8835;  1.2385250E+00;  0.0000000E+00;  3.1127438E-02;  1.0023035E+03;  1.3003790E-01;  1.8930227E+03;3; -4.6884235E+01;  0.0000000E+00; -3.9564011E+01;0;  3.3383648E+00;  2.4036250E+04;  0.0000000E+00;  7.7172011E-02;  4.0000000E+04;  0.0000000E+00;  3.9533660E+04;  3.3134727E+00;  0.0000000E+00;  2.4892066E-02;  9.4125820E+03;
  1.2590952E+00;  9.9999998E-03;  7.0416704E-02;8888;  1.2909219E+00;  0.0000000E+00;  1.2242406E-02;  1.0029202E+03;  1.2748112E-01;  2.3957668E+03;3;  1.6227736E+01;  0.0000000E+00; -1.4621586E+01;0;  1.9741873E+00;  2.5064787E+04;  0.0000000E+00; -1.8895236E-01;  4.0000000E+04;  0.0000000E+00;  3.9487957E+04;  1.8118296E+00;  0.0000000E+00;  1.6235766E-01;  1.3882566E+04;
  1.2590697E+00;  9.9999998E-03;  8.0471680E-02;8889;  1.2904325E+00;  0.0000000E+00;  1.4314898E-02;  1.0029205E+03;  1.2747154E-01;  2.3960693E+03;3;  1.3896300E+01;  0.0000000E+00; -1.7146799E+01;0;  2.0489466E+00;  2.5068232E+04;  0.0000000E+00; -2.9338485E-01;  4.0000000E+04;  0.0000000E+00;  3.9488816E+04;  1.8819882E+00;  0.0000000E+00;  1.6695839E-01;  1.3792346E+04;
  1.2590401E+00;  9.9999998E-03;  9.0528764E-02;8890;  1.2896174E+00;  0.0000000E+00;  1.6485095E-02;  1.0029268E+03;  1.2746012E-01;  2.4011650E+03;3;  1.0724523E+01;  0.0000000E+00; -1.9648815E+01;0;  2.1319866E+00;  2.5071979E+04;  0.0000000E+00; -4.0186641E-01;  4.0000000E+04;  0.0000000E+00;  3.9490531E+04;  1.9631994E+00;  0.0000000E+00;  1.6878714E-01;  1.3622630E+04;
  1.2590013E+00;  9.9999998E-03;  1.0059270E-01;8891;  1.2883090E+00;  0.0000000E+00;  1.8868556E-02;  1.0029259E+03;  1.2744838E-01;  2.4004939E+03;3;  6.4272499E+00;  0.0000000E+00; -2.1923981E+01;0;  2.2231543E+00;  2.5075115E+04;  0.0000000E+00; -4.9354866E-01;  4.0000000E+04;  0.0000000E+00;  3.9493242E+04;  2.0561612E+00;  0.0000000E+00;  1.6699310E-01;  1.3331192E+04;
  1.2589557E+00;  9.9999998E-03;  1.1065965E-01;8892;  1.2862954E+00;  0.0000000E+00;  2.1703778E-02;  1.0029233E+03;  1.2743731E-01;  2.3984561E+03;3;  8.5568768E-01;  0.0000000E+00; -2.3712034E+01;0;  2.3217814E+00;  2.5076664E+04;  0.0000000E+00; -5.4507881E-01;  4.0000000E+04;  0.0000000E+00;  3.9497395E+04;  2.1609747E+00;  0.0000000E+00;  1.6080672E-01;  1.2878324E+04;
  1.2589024E+00;  9.9999998E-03;  1.2072288E-01;8893;  1.2833719E+00;  0.0000000E+00;  2.5331311E-02;  1.0028913E+03;  1.2742777E-01;  2.3721646E+03;3; -5.6868029E+00;  0.0000000E+00; -2.4866230E+01;0;  2.4271920E+00;  2.5075645E+04;  0.0000000E+00; -5.3560269E-01;  4.0000000E+04;  0.0000000E+00;  3.9503270E+04;  2.2776732E+00;  0.0000000E+00;  1.4951882E-01;  1.2236289E+04;
  1.2588409E+00;  9.9999998E-03;  1.3078800E-01;8894;  1.2794406E+00;  0.0000000E+00;  3.0087098E-02;  1.0028362E+03;  1.2742057E-01;  2.3269993E+03;3; -1.2650546E+01;  0.0000000E+00; -2.5528877E+01;0;  2.5386705E+00;  2.5071250E+04;  0.0000000E+00; -4.5226306E-01;  4.0000000E+04;  0.0000000E+00;  3.9510844E+04;  2.4061317E+00;  0.0000000E+00;  1.3253887E-01;  1.1398082E+04;
  1.2587774E+00;  9.9999998E-03;  1.4086606E-01;8895;  1.2745618E+00;  0.0000000E+00;  3.5750151E-02;  1.0027520E+03;  1.2741570E-01;  2.2578711E+03;3; -1.9725101E+01;  0.0000000E+00; -2.6638302E+01;0;  2.6552148E+00;  2.5063764E+04;  0.0000000E+00; -2.9553050E-01;  4.0000000E+04;  0.0000000E+00;  3.9519691E+04;  2.5456901E+00;  0.0000000E+00;  1.0952480E-01;  1.0386130E+04;
  1.2587242E+00;  9.9999998E-03;  1.5095517E-01;8896;  1.2689848E+00;  0.0000000E+00;  4.0236581E-02;  1.0026446E+03;  1.2741184E-01;  2.1697639E+03;3; -2.6623650E+01;  0.0000000E+00; -3.0974316E+01;0;  2.7756147E+00;  2.5053771E+04;  0.0000000E+00; -7.0527241E-02;  4.0000000E+04;  0.0000000E+00;  3.9529867E+04;  2.6949570E+00;  0.0000000E+00;  8.0657795E-02;  9.2563799E+03;
  1.2586714E+00;  9.9999998E-03;  1.9114752E-01;8900;  1.2466236E+00;  0.0000000E+00;  3.9630637E-02;  1.0019440E+03;  1.2741633E-01;  1.5949606E+03;3; -5.0953381E+01;  0.0000000E+00; -3.9889519E+01;0;  3.2886248E+00;  2.4995828E+04;  0.0000000E+00;  1.1025860E+00;  4.0000000E+04;  0.0000000E+00;  3.9565527E+04;  3.3546507E+00;  0.0000000E+00; -6.6025876E-02;  5.6709038E+03;
  1.2587640E+00;  9.9999998E-03;  2.0116124E-01;8901;  1.2432749E+00;  0.0000000E+00;  3.8791265E-02;  1.0016723E+03;  1.2741329E-01;  1.3720371E+03;3; -5.5643211E+01;  0.0000000E+00; -4.0469337E+01;0;  3.4219069E+00;  2.4978285E+04;  0.0000000E+00;  1.0864533E+00;  4.0000000E+04;  0.0000000E+00;  3.9573398E+04;  3.5233111E+00;  0.0000000E+00; -1.0140419E-01;  4.9788101E+03;
  1.2589270E+00;  9.9999998E-03;  2.1118976E-01;8902;  1.2413687E+00;  0.0000000E+00;  3.7844408E-02;  1.0013312E+03;  1.2740333E-01;  1.0921855E+03;3; -6.0010387E+01;  0.0000000E+00; -4.1097996E+01;0;  3.5572534E+00;  2.4959080E+04;  0.0000000E+00;  5.0393087E-01;  4.0000000E+04;  0.0000000E+00;  3.9582359E+04;  3.6897564E+00;  0.0000000E+00; -1.3250306E-01;  3.7955583E+03;
  1.2591305E+00;  9.9999998E-03;  2.2124928E-01;8903;  1.2399051E+00;  0.0000000E+00;  3.6856856E-02;  1.0008597E+03;  1.2739152E-01;  7.0534711E+02;3; -6.4499519E+01;  0.0000000E+00; -4.2102325E+01;0;  3.6980643E+00;  2.4935475E+04;  0.0000000E+00; -1.2712018E+00;  4.0000000E+04;  0.0000000E+00;  3.9589660E+04;  3.8547676E+00;  0.0000000E+00; -1.5670320E-01;  2.5258589E+03;
  1.2592833E+00;  9.9999998E-03;  2.3133418E-01;8904;  1.2369677E+00;  0.0000000E+00;  3.5264023E-02;  1.0002065E+03;  1.2738536E-01;  1.6948689E+02;3; -6.9529991E+01;  0.0000000E+00; -4.3314537E+01;0;  3.8485491E+00;  2.4904748E+04;  0.0000000E+00; -4.9619422E+00;  4.0000000E+04;  0.0000000E+00;  3.9590984E+04;  4.0208158E+00;  0.0000000E+00; -1.7226669E-01;  6.8021689E+03;
  1.2586877E+00;  9.9999998E-03;  1.6103646E-01;8897;  1.2630383E+00;  0.0000000E+00;  4.1441422E-02;  1.0025193E+03;  1.2741040E-01;  2.0669788E+03;3; -3.3302429E+01;  0.0000000E+00; -3.6036285E+01;0;  2.8992105E+00;  2.5042133E+04;  0.0000000E+00;  2.1835671E-01;  4.0000000E+04;  0.0000000E+00;  3.9540047E+04;  2.8522544E+00;  0.0000000E+00;  4.6955995E-02;  8.1109932E+03;
  1.2586447E+00;  9.9999998E-03;  1.8113087E-01;8899;  1.2513111E+00;  0.0000000E+00;  4.0411476E-02;  1.0021740E+03;  1.2741463E-01;  1.7837374E+03;3; -4.5625416E+01;  0.0000000E+00; -3.9183224E+01;0;  3.1565144E+00;  2.5012586E+04;  0.0000000E+00;  8.7397957E-01;  4.0000000E+04;  0.0000000E+00;  3.9558113E+04;  3.1847851E+00;  0.0000000E+00; -2.8270725E-02;  6.2924795E+03;
  1.2586628E+00;  9.9999998E-03;  1.7109650E-01;8898;  1.2569785E+00;  0.0000000E+00;  4.1106075E-02;  1.0023638E+03;  1.2741061E-01;  1.9394440E+03;3; -3.9722759E+01;  0.0000000E+00; -3.8025761E+01;0;  3.0261433E+00;  2.5028561E+04;  0.0000000E+00;  5.5056429E-01;  4.0000000E+04;  0.0000000E+00;  3.9549801E+04;  3.0161068E+00;  0.0000000E+00;  1.0036360E-02;  7.0897739E+03;
  1.2714643E+00;  9.9999998E-03;  7.0393004E-02;8948;  1.2938534E+00;  0.0000000E+00;  1.4942580E-02;  1.0025446E+03;  1.2508050E-01;  2.0836086E+03;3;  2.2549543E+01;  0.0000000E+00; -1.1267753E+01;0;  1.4790928E+00;  2.6018553E+04;  0.0000000E+00; -6.8690658E-02;  4.0000000E+04;  0.0000000E+00;  3.9487973E+04;  1.2765201E+00;  0.0000000E+00;  2.0257264E-01;  1.2819014E+04;
  1.2714264E+00;  9.9999998E-03;  8.0453381E-02;8949;  1.2940458E+00;  0.0000000E+00;  1.7190618E-02;  1.0025463E+03;  1.2507208E-01;  2.0849890E+03;3;  2.1430817E+01;  0.0000000E+00; -1.3589897E+01;0;  1.5504503E+00;  2.6021076E+04;  0.0000000E+00; -1.7445108E-01;  4.0000000E+04;  0.0000000E+00;  3.9488699E+04;  1.3425579E+00;  0.0000000E+00;  2.0789243E-01;  1.2750222E+04;
  1.2713817E+00;  9.9999998E-03;  9.0515353E-02;8950;  1.2941768E+00;  0.0000000E+00;  1.9460138E-02;  1.0025617E+03;  1.2506373E-01;  2.0975972E+03;3;  1.9873690E+01;  0.0000000E+00; -1.6087309E+01;0;  1.6302172E+00;  2.6024332E+04;  0.0000000E+00; -2.9962620E-01;  4.0000000E+04;  0.0000000E+00;  3.9490109E+04;  1.4195611E+00;  0.0000000E+00;  2.1065608E-01;  1.2602681E+04;
  1.2713286E+00;  9.9999998E-03;  1.0058050E-01;8951;  1.2942168E+00;  0.0000000E+00;  2.1838587E-02;  1.0025961E+03;  1.2505457E-01;  2.1258267E+03;3;  1.7777903E+01;  0.0000000E+00; -1.8644949E+01;0;  1.7181108E+00;  2.6027855E+04;  0.0000000E+00; -4.2405653E-01;  4.0000000E+04;  0.0000000E+00;  3.9492863E+04;  1.5081313E+00;  0.0000000E+00;  2.0997950E-01;  1.2338908E+04;
  1.2712600E+00;  9.9999998E-03;  1.1065494E-01;8952;  1.2940928E+00;  0.0000000E+00;  2.4524897E-02;  1.0026405E+03;  1.2504588E-01;  2.1621646E+03;3;  1.4941267E+01;  0.0000000E+00; -2.1015171E+01;0;  1.8140017E+00;  2.6030600E+04;  0.0000000E+00; -5.2261025E-01;  4.0000000E+04;  0.0000000E+00;  3.9496969E+04;  1.6090375E+00;  0.0000000E+00;  2.0496416E-01;  1.1927026E+04;
  1.2711835E+00;  9.9999998E-03;  1.2073354E-01;8953;  1.2937185E+00;  0.0000000E+00;  2.7846396E-02;  1.0026847E+03;  1.2503900E-01;  2.1984087E+03;3;  1.1064107E+01;  0.0000000E+00; -2.2900913E+01;0;  1.9169505E+00;  2.6031871E+04;  0.0000000E+00; -5.6968623E-01;  4.0000000E+04;  0.0000000E+00;  3.9502562E+04;  1.7221594E+00;  0.0000000E+00;  1.9479102E-01;  1.1350438E+04;
  1.2711072E+00;  9.9999998E-03;  1.3080421E-01;8954;  1.2929244E+00;  0.0000000E+00;  3.2212377E-02;  1.0027220E+03;  1.2503265E-01;  2.2289915E+03;3;  5.6170740E+00;  0.0000000E+00; -2.3803226E+01;0;  2.0257244E+00;  2.6031713E+04;  0.0000000E+00; -5.4567772E-01;  4.0000000E+04;  0.0000000E+00;  3.9509406E+04;  1.8469518E+00;  0.0000000E+00;  1.7877251E-01;  1.0617327E+04;
  1.2710334E+00;  9.9999998E-03;  1.4087772E-01;8955;  1.2914795E+00;  0.0000000E+00;  3.7921429E-02;  1.0027675E+03;  1.2502974E-01;  2.2662126E+03;3; -1.2085965E+00;  0.0000000E+00; -2.3826077E+01;0;  2.1395242E+00;  2.6029928E+04;  0.0000000E+00; -4.4404456E-01;  4.0000000E+04;  0.0000000E+00;  3.9517621E+04;  1.9830939E+00;  0.0000000E+00;  1.5643036E-01;  9.7605352E+03;
  1.2709650E+00;  9.9999998E-03;  1.5095337E-01;8956;  1.2893724E+00;  0.0000000E+00;  4.4243209E-02;  1.0027985E+03;  1.2502792E-01;  2.2916201E+03;3; -8.1912870E+00;  0.0000000E+00; -2.4673319E+01;0;  2.2577038E+00;  2.6026529E+04;  0.0000000E+00; -2.5682282E-01;  4.0000000E+04;  0.0000000E+00;  3.9526180E+04;  2.1298268E+00;  0.0000000E+00;  1.2787703E-01;  8.8371689E+03;
  1.2715677E+00;  9.9999998E-03;  2.3135662E-01;8964;  1.2850093E+00;  0.0000000E+00;  4.6346165E-02;  1.0006577E+03;  1.2499571E-01;  5.3851141E+02;3; -4.9045273E+01;  0.0000000E+00; -3.9956615E+01;0;  3.3799865E+00;  2.5904723E+04;  0.0000000E+00; -3.2403715E+00;  4.0000000E+04;  0.0000000E+00;  3.9571660E+04;  3.5022480E+00;  0.0000000E+00; -1.2226156E-01;  4.5484595E+03;
  1.2709143E+00;  9.9999998E-03;  1.6102032E-01;8957;  1.2869813E+00;  0.0000000E+00;  4.8583057E-02;  1.0028191E+03;  1.2502837E-01;  2.3085283E+03;3; -1.4687160E+01;  0.0000000E+00; -2.8414238E+01;0;  2.3798270E+00;  2.6022033E+04;  0.0000000E+00;  2.8516842E-02;  4.0000000E+04;  0.0000000E+00;  3.9534586E+04;  2.2855906E+00;  0.0000000E+00;  9.4236322E-02;  7.9354771E+03;
  1.2708912E+00;  9.9999998E-03;  1.7106818E-01;8958;  1.2846260E+00;  0.0000000E+00;  4.9813244E-02;  1.0027967E+03;  1.2502694E-01;  2.2901848E+03;3; -2.0834829E+01;  0.0000000E+00; -3.2485973E+01;0;  2.5059221E+00;  2.6016623E+04;  0.0000000E+00;  4.0486208E-01;  4.0000000E+04;  0.0000000E+00;  3.9541969E+04;  2.4486120E+00;  0.0000000E+00;  5.7310130E-02;  7.1699893E+03;
  1.2709054E+00;  9.9999998E-03;  1.8109821E-01;8959;  1.2826872E+00;  0.0000000E+00;  4.9780879E-02;  1.0027248E+03;  1.2502475E-01;  2.2313142E+03;3; -2.6546612E+01;  0.0000000E+00; -3.4681763E+01;0;  2.6360581E+00;  2.6009705E+04;  0.0000000E+00;  8.4694481E-01;  4.0000000E+04;  0.0000000E+00;  3.9548594E+04;  2.6170483E+00;  0.0000000E+00;  1.9009760E-02;  6.6279727E+03;
  1.2709751E+00;  9.9999998E-03;  1.9112153E-01;8960;  1.2816935E+00;  0.0000000E+00;  4.9449313E-02;  1.0025859E+03;  1.2501973E-01;  2.1175605E+03;3; -3.1596111E+01;  0.0000000E+00; -3.6097824E+01;0;  2.7700377E+00;  2.6001000E+04;  0.0000000E+00;  1.3079678E+00;  4.0000000E+04;  0.0000000E+00;  3.9554684E+04;  2.7887607E+00;  0.0000000E+00; -1.8722966E-02;  6.3222627E+03;
  1.2711084E+00;  9.9999998E-03;  2.0114924E-01;8961;  1.2819606E+00;  0.0000000E+00;  4.9001586E-02;  1.0023480E+03;  1.2501091E-01;  1.9226682E+03;3; -3.6044868E+01;  0.0000000E+00; -3.6913624E+01;0;  2.9083960E+00;  2.5988617E+04;  0.0000000E+00;  1.6518240E+00;  4.0000000E+04;  0.0000000E+00;  3.9561375E+04;  2.9623494E+00;  0.0000000E+00; -5.3953297E-02;  6.1256851E+03;
  1.2712924E+00;  9.9999998E-03;  2.1119802E-01;8962;  1.2834337E+00;  0.0000000E+00;  4.8427965E-02;  1.0019686E+03;  1.2499951E-01;  1.6119994E+03;3; -4.0072605E+01;  0.0000000E+00; -3.7769566E+01;0;  3.0533133E+00;  2.5970232E+04;  0.0000000E+00;  1.4947616E+00;  4.0000000E+04;  0.0000000E+00;  3.9567891E+04;  3.1378994E+00;  0.0000000E+00; -8.4586240E-02;  5.6594766E+03;
  1.2714717E+00;  9.9999998E-03;  2.2127247E-01;8963;  1.2850317E+00;  0.0000000E+00;  4.7728848E-02;  1.0013964E+03;  1.2499279E-01;  1.1434164E+03;3; -4.4274700E+01;  0.0000000E+00; -3.8606831E+01;0;  3.2094059E+00;  2.5942258E+04;  0.0000000E+00;  1.1253402E-01;  4.0000000E+04;  0.0000000E+00;  3.9571691E+04;  3.3173225E+00;  0.0000000E+00; -1.0791669E-01;  4.3086279E+03;
  1.2836164E+00;  9.9999998E-03;  7.0378087E-02;9007;  1.2946367E+00;  0.0000000E+00;  1.6746847E-02;  1.0020902E+03;  1.2291586E-01;  1.7075916E+03;3;  2.5532795E+01;  0.0000000E+00; -8.7307529E+00;0;  1.0884449E+00;  2.6919963E+04;  0.0000000E+00;  4.7718592E-02;  4.0000000E+04;  0.0000000E+00;  3.9487719E+04;  8.5638165E-01;  0.0000000E+00;  2.3206325E-01;  1.1532215E+04;
  1.2835779E+00;  9.9999998E-03;  8.0442026E-02;9008;  1.2951684E+00;  0.0000000E+00;  1.9251131E-02;  1.0020769E+03;  1.2290812E-01;  1.6966975E+03;3;  2.4798378E+01;  0.0000000E+00; -1.0623026E+01;0;  1.1530552E+00;  2.6921482E+04;  0.0000000E+00; -4.7201447E-02;  4.0000000E+04;  0.0000000E+00;  3.9488543E+04;  9.1519499E-01;  0.0000000E+00;  2.3786016E-01;  1.1444325E+04;
  1.2835258E+00;  9.9999998E-03;  9.0515755E-02;9009;  1.2957577E+00;  0.0000000E+00;  2.1808492E-02;  1.0021038E+03;  1.2290182E-01;  1.7187257E+03;3;  2.3834145E+01;  0.0000000E+00; -1.2668582E+01;0;  1.2257656E+00;  2.6924225E+04;  0.0000000E+00; -1.7416754E-01;  4.0000000E+04;  0.0000000E+00;  3.9490133E+04;  9.8443520E-01;  0.0000000E+00;  2.4133042E-01;  1.1289745E+04;
  1.2834649E+00;  9.9999998E-03;  1.0059299E-01;9010;  1.2964138E+00;  0.0000000E+00;  2.4505712E-02;  1.0021572E+03;  1.2289414E-01;  1.7623782E+03;3;  2.2622612E+01;  0.0000000E+00; -1.4814119E+01;0;  1.3061092E+00;  2.6927967E+04;  0.0000000E+00; -3.1647313E-01;  4.0000000E+04;  0.0000000E+00;  3.9492770E+04;  1.0645312E+00;  0.0000000E+00;  2.4157801E-01;  1.1039539E+04;
  1.2833931E+00;  9.9999998E-03;  1.1067102E-01;9011;  1.2971622E+00;  0.0000000E+00;  2.7494449E-02;  1.0022474E+03;  1.2288739E-01;  1.8360325E+03;3;  2.1036341E+01;  0.0000000E+00; -1.6966536E+01;0;  1.3936894E+00;  2.6932115E+04;  0.0000000E+00; -4.5031828E-01;  4.0000000E+04;  0.0000000E+00;  3.9496816E+04;  1.1560094E+00;  0.0000000E+00;  2.3767990E-01;  1.0671935E+04;
  1.2833011E+00;  9.9999998E-03;  1.2075759E-01;9012;  1.2980576E+00;  0.0000000E+00;  3.0996993E-02;  1.0023602E+03;  1.2288234E-01;  1.9282988E+03;3;  1.9086651E+01;  0.0000000E+00; -1.8970871E+01;0;  1.4882965E+00;  2.6936039E+04;  0.0000000E+00; -5.4881060E-01;  4.0000000E+04;  0.0000000E+00;  3.9502051E+04;  1.2595935E+00;  0.0000000E+00;  2.2870307E-01;  1.0182054E+04;
  1.2831960E+00;  9.9999998E-03;  1.3084503E-01;9013;  1.2991585E+00;  0.0000000E+00;  3.5299875E-02;  1.0024935E+03;  1.2288036E-01;  2.0372290E+03;3;  1.6560425E+01;  0.0000000E+00; -2.0470282E+01;0;  1.5889459E+00;  2.6939609E+04;  0.0000000E+00; -5.9005076E-01;  4.0000000E+04;  0.0000000E+00;  3.9508125E+04;  1.3750887E+00;  0.0000000E+00;  2.1385719E-01;  9.5903896E+03;
  1.2830951E+00;  9.9999998E-03;  1.4092158E-01;9014;  1.3003674E+00;  0.0000000E+00;  4.0731885E-02;  1.0026498E+03;  1.2288016E-01;  2.1649595E+03;3;  1.2931726E+01;  0.0000000E+00; -2.1158018E+01;0;  1.6942272E+00;  2.6942855E+04;  0.0000000E+00; -5.5754018E-01;  4.0000000E+04;  0.0000000E+00;  3.9514910E+04;  1.5015422E+00;  0.0000000E+00;  1.9268498E-01;  8.9353809E+03;
  1.2830064E+00;  9.9999998E-03;  1.5098688E-01;9015;  1.3014991E+00;  0.0000000E+00;  4.7035590E-02;  1.0028040E+03;  1.2288032E-01;  2.2910339E+03;3;  7.7097001E+00;  0.0000000E+00; -2.1460690E+01;0;  1.8035157E+00;  2.6945824E+04;  0.0000000E+00; -4.1853547E-01;  4.0000000E+04;  0.0000000E+00;  3.9521430E+04;  1.6381512E+00;  0.0000000E+00;  1.6536452E-01;  8.2643633E+03;
  1.2829392E+00;  9.9999998E-03;  1.6103993E-01;9016;  1.3024176E+00;  0.0000000E+00;  5.2443847E-02;  1.0029464E+03;  1.2288217E-01;  2.4073621E+03;3;  1.7572587E+00;  0.0000000E+00; -2.3764261E+01;0;  1.9169657E+00;  2.6948449E+04;  0.0000000E+00; -1.4276692E-01;  4.0000000E+04;  0.0000000E+00;  3.9527523E+04;  1.7839127E+00;  0.0000000E+00;  1.3305305E-01;  7.6478237E+03;
  1.2829124E+00;  9.9999998E-03;  1.7107715E-01;9017;  1.3033800E+00;  0.0000000E+00;  5.4845050E-02;  1.0030358E+03;  1.2288134E-01;  2.4804265E+03;3; -3.7407749E+00;  0.0000000E+00; -2.7272593E+01;0;  2.0348163E+00;  2.6950510E+04;  0.0000000E+00;  2.9105031E-01;  4.0000000E+04;  0.0000000E+00;  3.9532430E+04;  1.9372140E+00;  0.0000000E+00;  9.7602367E-02;  7.1789155E+03;
  1.2829405E+00;  9.9999998E-03;  1.8110187E-01;9018;  1.3045794E+00;  0.0000000E+00;  5.5486809E-02;  1.0030562E+03;  1.2287582E-01;  2.4970676E+03;3; -8.8754025E+00;  0.0000000E+00; -2.9654425E+01;0;  2.1574054E+00;  2.6951066E+04;  0.0000000E+00;  9.0939456E-01;  4.0000000E+04;  0.0000000E+00;  3.9536746E+04;  2.0965447E+00;  0.0000000E+00;  6.0860615E-02;  6.9574414E+03;
  1.2830309E+00;  9.9999998E-03;  1.9112672E-01;9019;  1.3065847E+00;  0.0000000E+00;  5.5625461E-02;  1.0029680E+03;  1.2286702E-01;  2.4249463E+03;3; -1.3441013E+01;  0.0000000E+00; -3.1630981E+01;0;  2.2855749E+00;  2.6948211E+04;  0.0000000E+00;  1.7242159E+00;  4.0000000E+04;  0.0000000E+00;  3.9541012E+04;  2.2608752E+00;  0.0000000E+00;  2.4699803E-02;  7.1081196E+03;
  1.2831721E+00;  9.9999998E-03;  2.0116274E-01;9020;  1.3095878E+00;  0.0000000E+00;  5.5485360E-02;  1.0027349E+03;  1.2285671E-01;  2.2344666E+03;3; -1.7327772E+01;  0.0000000E+00; -3.3456524E+01;0;  2.4211082E+00;  2.6938150E+04;  0.0000000E+00;  2.6207359E+00;  4.0000000E+04;  0.0000000E+00;  3.9545887E+04;  2.4301758E+00;  0.0000000E+00; -9.0676388E-03;  7.6867173E+03;
  1.2833360E+00;  9.9999998E-03;  2.1121994E-01;9021;  1.3134010E+00;  0.0000000E+00;  5.5207454E-02;  1.0023048E+03;  1.2284897E-01;  1.8829974E+03;3; -2.0893505E+01;  0.0000000E+00; -3.4950504E+01;0;  2.5671923E+00;  2.6917289E+04;  0.0000000E+00;  3.1702783E+00;  4.0000000E+04;  0.0000000E+00;  3.9550777E+04;  2.6054986E+00;  0.0000000E+00; -3.8306229E-02;  8.3174092E+03;
  1.2834731E+00;  9.9999998E-03;  2.2129548E-01;9022;  1.3171606E+00;  0.0000000E+00;  5.4624587E-02;  1.0016555E+03;  1.2284800E-01;  1.3524594E+03;3; -2.4637987E+01;  0.0000000E+00; -3.5817673E+01;0;  2.7277138E+00;  2.6883402E+04;  0.0000000E+00;  2.5641947E+00;  4.0000000E+04;  0.0000000E+00;  3.9553434E+04;  2.7885149E+00;  0.0000000E+00; -6.0801093E-02;  7.8938643E+03;
  1.2835103E+00;  9.9999998E-03;  2.3137148E-01;9023;  1.3195932E+00;  0.0000000E+00;  5.3619284E-02;  1.0009069E+03;  1.2286016E-01;  7.4093988E+02;3; -2.9373047E+01;  0.0000000E+00; -3.6948982E+01;0;  2.9067514E+00;  2.6839215E+04;  0.0000000E+00;  9.7246632E-02;  4.0000000E+04;  0.0000000E+00;  3.9555574E+04;  2.9807136E+00;  0.0000000E+00; -7.3962145E-02;  5.4891914E+03;
  1.2955725E+00;  9.9999998E-03;  7.0382863E-02;9066;  1.2943679E+00;  0.0000000E+00;  1.7815642E-02;  1.0015923E+03;  1.2097263E-01;  1.2973165E+03;3;  2.7253908E+01;  0.0000000E+00; -7.0348978E+00;0;  7.9179454E-01;  2.7765432E+04;  0.0000000E+00;  1.3239777E-01;  4.0000000E+04;  0.0000000E+00;  3.9486930E+04;  5.3977937E-01;  0.0000000E+00;  2.5201514E-01;  1.0071663E+04;
  1.2955422E+00;  9.9999998E-03;  8.0448091E-02;9067;  1.2951243E+00;  0.0000000E+00;  2.0550752E-02;  1.0015719E+03;  1.2096592E-01;  1.2807175E+03;3;  2.6850340E+01;  0.0000000E+00; -8.5529222E+00;0;  8.4798563E-01;  2.7766049E+04;  0.0000000E+00;  5.7359233E-02;  4.0000000E+04;  0.0000000E+00;  3.9488207E+04;  5.9003240E-01;  0.0000000E+00;  2.5795326E-01;  9.9433877E+03;
  1.2954942E+00;  9.9999998E-03;  9.0523355E-02;9068;  1.2960176E+00;  0.0000000E+00;  2.3377474E-02;  1.0016039E+03;  1.2096069E-01;  1.3067628E+03;3;  2.6238977E+01;  0.0000000E+00; -1.0199809E+01;0;  9.1138923E-01;  2.7768484E+04;  0.0000000E+00; -5.6592688E-02;  4.0000000E+04;  0.0000000E+00;  3.9490109E+04;  6.4958978E-01;  0.0000000E+00;  2.6179945E-01;  9.7724961E+03;
  1.2954252E+00;  9.9999998E-03;  1.0061213E-01;9069;  1.2970847E+00;  0.0000000E+00;  2.6385419E-02;  1.0016781E+03;  1.2095492E-01;  1.3672969E+03;3;  2.5452885E+01;  0.0000000E+00; -1.1893094E+01;0;  9.8185456E-01;  2.7772283E+04;  0.0000000E+00; -1.9847654E-01;  4.0000000E+04;  0.0000000E+00;  3.9492715E+04;  7.1920007E-01;  0.0000000E+00;  2.6265448E-01;  9.5395557E+03;
  1.2953417E+00;  9.9999998E-03;  1.1070949E-01;9070;  1.2983874E+00;  0.0000000E+00;  2.9717658E-02;  1.0018113E+03;  1.2095144E-01;  1.4758207E+03;3;  2.4504143E+01;  0.0000000E+00; -1.3526711E+01;0;  1.0588143E+00;  2.7777715E+04;  0.0000000E+00; -3.4895843E-01;  4.0000000E+04;  0.0000000E+00;  3.9496199E+04;  7.9922062E-01;  0.0000000E+00;  2.5959373E-01;  9.2335430E+03;
  1.2952470E+00;  9.9999998E-03;  1.2080058E-01;9071;  1.3000064E+00;  0.0000000E+00;  3.3564623E-02;  1.0019839E+03;  1.2094901E-01;  1.6165049E+03;3;  2.3284029E+01;  0.0000000E+00; -1.4981231E+01;0;  1.1415313E+00;  2.7784516E+04;  0.0000000E+00; -4.8383951E-01;  4.0000000E+04;  0.0000000E+00;  3.9500605E+04;  8.8981789E-01;  0.0000000E+00;  2.5171348E-01;  8.8631006E+03;
  1.2951299E+00;  9.9999998E-03;  1.3088922E-01;9072;  1.3020335E+00;  0.0000000E+00;  3.8137406E-02;  1.0022020E+03;  1.2094904E-01;  1.7942141E+03;3;  2.1796698E+01;  0.0000000E+00; -1.6169027E+01;0;  1.2296977E+00;  2.7792119E+04;  0.0000000E+00; -5.8201271E-01;  4.0000000E+04;  0.0000000E+00;  3.9505398E+04;  9.9150229E-01;  0.0000000E+00;  2.3819548E-01;  8.4552910E+03;
  1.2950033E+00;  9.9999998E-03;  1.4097023E-01;9073;  1.3045921E+00;  0.0000000E+00;  4.3540269E-02;  1.0024556E+03;  1.2095233E-01;  2.0009827E+03;3;  2.0241306E+01;  0.0000000E+00; -1.7097610E+01;0;  1.3224043E+00;  2.7800479E+04;  0.0000000E+00; -6.0424972E-01;  4.0000000E+04;  0.0000000E+00;  3.9510273E+04;  1.1037949E+00;  0.0000000E+00;  2.1860938E-01;  8.0408369E+03;
  1.2948874E+00;  9.9999998E-03;  1.5103292E-01;9074;  1.3076943E+00;  0.0000000E+00;  4.9497407E-02;  1.0027072E+03;  1.2095530E-01;  2.2060095E+03;3;  1.7905767E+01;  0.0000000E+00; -1.7923866E+01;0;  1.4189352E+00;  2.7809295E+04;  0.0000000E+00; -4.9482128E-01;  4.0000000E+04;  0.0000000E+00;  3.9514551E+04;  1.2256494E+00;  0.0000000E+00;  1.9328585E-01;  7.6565342E+03;
  1.2948040E+00;  9.9999998E-03;  1.6107461E-01;9075;  1.3111154E+00;  0.0000000E+00;  5.4694220E-02;  1.0029327E+03;  1.2095729E-01;  2.3899485E+03;3;  1.4701941E+01;  0.0000000E+00; -2.0518299E+01;0;  1.5193439E+00;  2.7818223E+04;  0.0000000E+00; -1.9595794E-01;  4.0000000E+04;  0.0000000E+00;  3.9517844E+04;  1.3558891E+00;  0.0000000E+00;  1.6345483E-01;  7.3540254E+03;
  1.2947699E+00;  9.9999998E-03;  1.7110017E-01;9076;  1.3146468E+00;  0.0000000E+00;  5.7149436E-02;  1.0031039E+03;  1.2095627E-01;  2.5294688E+03;3;  1.0756767E+01;  0.0000000E+00; -2.4111612E+01;0;  1.6243052E+00;  2.7826490E+04;  0.0000000E+00;  3.6373907E-01;  4.0000000E+04;  0.0000000E+00;  3.9520203E+04;  1.4935218E+00;  0.0000000E+00;  1.3078347E-01;  7.2172949E+03;
  1.2947987E+00;  9.9999998E-03;  1.8111791E-01;9077;  1.3182609E+00;  0.0000000E+00;  5.7947706E-02;  1.0031736E+03;  1.2095027E-01;  2.5861838E+03;3;  6.6754642E+00;  0.0000000E+00; -2.6238039E+01;0;  1.7345093E+00;  2.7832398E+04;  0.0000000E+00;  1.2844211E+00;  4.0000000E+04;  0.0000000E+00;  3.9522320E+04;  1.6376709E+00;  0.0000000E+00;  9.6838497E-02;  7.4095503E+03;
  1.2948939E+00;  9.9999998E-03;  1.9113910E-01;9078;  1.3223561E+00;  0.0000000E+00;  5.8391035E-02;  1.0031133E+03;  1.2094022E-01;  2.5370671E+03;3;  3.0036347E+00;  0.0000000E+00; -2.8182178E+01;0;  1.8513582E+00;  2.7832443E+04;  0.0000000E+00;  2.6394761E+00;  4.0000000E+04;  0.0000000E+00;  3.9525273E+04;  1.7879817E+00;  0.0000000E+00;  6.3376367E-02;  8.2295547E+03;
  1.2953327E+00;  9.9999998E-03;  2.3137610E-01;9082;  1.3424987E+00;  0.0000000E+00;  5.8184486E-02;  1.0008693E+03;  1.2094331E-01;  7.0828674E+02;3; -1.2555252E+01;  0.0000000E+00; -3.3948406E+01;0;  2.4481204E+00;  2.7703305E+04;  0.0000000E+00;  4.0066938E+00;  4.0000000E+04;  0.0000000E+00;  3.9545941E+04;  2.4745181E+00;  0.0000000E+00; -2.6397604E-02;  1.0178646E+04;
  1.2950385E+00;  9.9999998E-03;  2.0117579E-01;9079;  1.3270987E+00;  0.0000000E+00;  5.8772735E-02;  1.0028561E+03;  1.2092967E-01;  2.3273525E+03;3; -4.2614388E-01;  0.0000000E+00; -3.0091112E+01;0;  1.9774225E+00;  2.7821836E+04;  0.0000000E+00;  4.2989836E+00;  4.0000000E+04;  0.0000000E+00;  3.9529441E+04;  1.9451051E+00;  0.0000000E+00;  3.2317415E-02;  9.8688975E+03;
  1.2951969E+00;  9.9999998E-03;  2.1123317E-01;9080;  1.3324218E+00;  0.0000000E+00;  5.8996063E-02;  1.0023562E+03;  1.2092321E-01;  1.9198778E+03;3; -4.0183096E+00;  0.0000000E+00; -3.1776300E+01;0;  2.1163447E+00;  2.7796479E+04;  0.0000000E+00;  5.7048564E+00;  4.0000000E+04;  0.0000000E+00;  3.9534434E+04;  2.1106489E+00;  0.0000000E+00;  5.6959270E-03;  1.1753025E+04;
  1.2953181E+00;  9.9999998E-03;  2.2130455E-01;9081;  1.3378166E+00;  0.0000000E+00;  5.8833219E-02;  1.0016407E+03;  1.2092701E-01;  1.3368328E+03;3; -7.9444013E+00;  0.0000000E+00; -3.3001480E+01;0;  2.2719738E+00;  2.7755104E+04;  0.0000000E+00;  5.8637729E+00;  4.0000000E+04;  0.0000000E+00;  3.9539387E+04;  2.2865212E+00;  0.0000000E+00; -1.4547381E-02;  1.2348334E+04;
  1.3073473E+00;  9.9999998E-03;  7.0404597E-02;9125;  1.2935320E+00;  0.0000000E+00;  1.8363187E-02;  1.0010759E+03;  1.1923573E-01;  8.7392230E+02;3;  2.8525213E+01;  0.0000000E+00; -5.8154750E+00;0;  5.7404894E-01;  2.8552869E+04;  0.0000000E+00;  1.6946711E-01;  4.0000000E+04;  0.0000000E+00;  3.9485168E+04;  3.1046715E-01;  0.0000000E+00;  2.6358178E-01;  8.4982393E+03;
  1.3073198E+00;  9.9999998E-03;  8.0475092E-02;9126;  1.2944332E+00;  0.0000000E+00;  2.1295607E-02;  1.0010663E+03;  1.1923125E-01;  8.6608661E+02;3;  2.8117178E+01;  0.0000000E+00; -7.0528293E+00;0;  6.2157857E-01;  2.8552729E+04;  0.0000000E+00;  1.1866096E-01;  4.0000000E+04;  0.0000000E+00;  3.9486930E+04;  3.5229412E-01;  0.0000000E+00;  2.6928449E-01;  8.3303301E+03;
  1.3072780E+00;  9.9999998E-03;  9.0554684E-02;9127;  1.2955415E+00;  0.0000000E+00;  2.4368064E-02;  1.0011113E+03;  1.1922702E-01;  9.0259998E+02;3;  2.7755131E+01;  0.0000000E+00; -8.3007364E+00;0;  6.7511976E-01;  2.8555271E+04;  0.0000000E+00;  2.8579805E-02;  4.0000000E+04;  0.0000000E+00;  3.9488754E+04;  4.0199864E-01;  0.0000000E+00;  2.7312109E-01;  8.1548647E+03;
  1.3072150E+00;  9.9999998E-03;  1.0064371E-01;9128;  1.2968981E+00;  0.0000000E+00;  2.7657114E-02;  1.0012103E+03;  1.1922322E-01;  9.8307916E+02;3;  2.7241261E+01;  0.0000000E+00; -9.5841722E+00;0;  7.3453301E-01;  2.8560217E+04;  0.0000000E+00; -9.5906496E-02;  4.0000000E+04;  0.0000000E+00;  3.9491223E+04;  4.6029174E-01;  0.0000000E+00;  2.7424127E-01;  7.9630376E+03;
  1.3071311E+00;  9.9999998E-03;  1.1074366E-01;9129;  1.2985885E+00;  0.0000000E+00;  3.1280637E-02;  1.0013844E+03;  1.1922184E-01;  1.1244729E+03;3;  2.6698912E+01;  0.0000000E+00; -1.0775816E+01;0;  7.9944718E-01;  2.8567662E+04;  0.0000000E+00; -2.4226025E-01;  4.0000000E+04;  0.0000000E+00;  3.9493961E+04;  5.2769059E-01;  0.0000000E+00;  2.7175662E-01;  7.7536685E+03;
  1.3070368E+00;  9.9999998E-03;  1.2084191E-01;9130;  1.3007338E+00;  0.0000000E+00;  3.5374716E-02;  1.0016111E+03;  1.1922111E-01;  1.3086769E+03;3;  2.6111139E+01;  0.0000000E+00; -1.1798838E+01;0;  8.6909765E-01;  2.8577795E+04;  0.0000000E+00; -3.9476869E-01;  4.0000000E+04;  0.0000000E+00;  3.9497102E+04;  6.0428780E-01;  0.0000000E+00;  2.6480985E-01;  7.5427852E+03;
  1.3069241E+00;  9.9999998E-03;  1.3092780E-01;9131;  1.3034359E+00;  0.0000000E+00;  4.0078413E-02;  1.0018993E+03;  1.1922237E-01;  1.5427683E+03;3;  2.5300503E+01;  0.0000000E+00; -1.2511242E+01;0;  9.4303036E-01;  2.8590168E+04;  0.0000000E+00; -5.2398282E-01;  4.0000000E+04;  0.0000000E+00;  3.9500012E+04;  6.9032669E-01;  0.0000000E+00;  2.5270370E-01;  7.3554614E+03;
  1.3067989E+00;  9.9999998E-03;  1.4100327E-01;9132;  1.3067751E+00;  0.0000000E+00;  4.5407962E-02;  1.0022188E+03;  1.1922610E-01;  1.8023495E+03;3;  2.4251570E+01;  0.0000000E+00; -1.3026225E+01;0;  1.0207758E+00;  2.8603953E+04;  0.0000000E+00; -5.6317031E-01;  4.0000000E+04;  0.0000000E+00;  3.9502512E+04;  7.8562242E-01;  0.0000000E+00;  2.3515332E-01;  7.2066885E+03;
  1.3066803E+00;  9.9999998E-03;  1.5105779E-01;9133;  1.3107923E+00;  0.0000000E+00;  5.0968263E-02;  1.0025376E+03;  1.1923063E-01;  2.0614614E+03;3;  2.3218784E+01;  0.0000000E+00; -1.4008918E+01;0;  1.1020255E+00;  2.8618332E+04;  0.0000000E+00; -4.2820367E-01;  4.0000000E+04;  0.0000000E+00;  3.9504059E+04;  8.8940442E-01;  0.0000000E+00;  2.1262103E-01;  7.1179917E+03;
  1.3065878E+00;  9.9999998E-03;  1.6109034E-01;9134;  1.3154451E+00;  0.0000000E+00;  5.5441119E-02;  1.0028178E+03;  1.1923224E-01;  2.2891958E+03;3;  2.1714300E+01;  0.0000000E+00; -1.6998508E+01;0;  1.1872394E+00;  2.8632363E+04;  0.0000000E+00; -1.8760938E-02;  4.0000000E+04;  0.0000000E+00;  3.9504609E+04;  1.0009482E+00;  0.0000000E+00;  1.8629125E-01;  7.1335269E+03;
  1.3065424E+00;  9.9999998E-03;  1.7110708E-01;9135;  1.3203204E+00;  0.0000000E+00;  5.7429481E-02;  1.0030225E+03;  1.1923099E-01;  2.4555083E+03;3;  1.9056288E+01;  0.0000000E+00; -2.0512627E+01;0;  1.2770573E+00;  2.8644625E+04;  0.0000000E+00;  8.0571103E-01;  4.0000000E+04;  0.0000000E+00;  3.9504816E+04;  1.1195920E+00;  0.0000000E+00;  1.5746531E-01;  7.3722744E+03;
  1.3065575E+00;  9.9999998E-03;  1.8111865E-01;9136;  1.3252672E+00;  0.0000000E+00;  5.8383126E-02;  1.0031077E+03;  1.1922519E-01;  2.5246453E+03;3;  1.6097057E+01;  0.0000000E+00; -2.2630682E+01;0;  1.3724341E+00;  2.8652428E+04;  0.0000000E+00;  2.2242038E+00;  4.0000000E+04;  0.0000000E+00;  3.9505379E+04;  1.2449876E+00;  0.0000000E+00;  1.2744647E-01;  8.1465454E+03;
  1.3066332E+00;  9.9999998E-03;  1.9113691E-01;9137;  1.3306969E+00;  0.0000000E+00;  5.9133600E-02;  1.0030329E+03;  1.1921749E-01;  2.4638701E+03;3;  1.2855154E+01;  0.0000000E+00; -2.3997736E+01;0;  1.4751933E+00;  2.8651166E+04;  0.0000000E+00;  4.3487997E+00;  4.0000000E+04;  0.0000000E+00;  3.9508305E+04;  1.3774295E+00;  0.0000000E+00;  9.7763821E-02;  9.9586611E+03;
  1.3070220E+00;  9.9999998E-03;  2.3138708E-01;9141;  1.3575017E+00;  0.0000000E+00;  6.0859744E-02;  1.0005370E+03;  1.1922988E-01;  4.3622748E+02;3; -2.6288399E-01;  0.0000000E+00; -2.9167578E+01;0;  2.0273502E+00;  2.8493119E+04;  0.0000000E+00;  8.1695089E+00;  4.0000000E+04;  0.0000000E+00;  3.9538617E+04;  2.0066500E+00;  0.0000000E+00;  2.0700151E-02;  1.5253258E+04;
  1.3067554E+00;  9.9999998E-03;  2.0117351E-01;9138;  1.3368633E+00;  0.0000000E+00;  5.9923980E-02;  1.0027408E+03;  1.1920992E-01;  2.2264312E+03;3;  9.8157873E+00;  0.0000000E+00; -2.5259279E+01;0;  1.5882688E+00;  2.8636158E+04;  0.0000000E+00;  6.9811563E+00;  4.0000000E+04;  0.0000000E+00;  3.9514086E+04;  1.5179883E+00;  0.0000000E+00;  7.0280395E-02;  1.2946762E+04;
  1.3070087E+00;  9.9999998E-03;  2.2130837E-01;9140;  1.3510000E+00;  0.0000000E+00;  6.1067842E-02;  1.0013817E+03;  1.1921337E-01;  1.1223822E+03;3;  3.4813595E+00;  0.0000000E+00; -2.7901873E+01;0;  1.8610995E+00;  2.8552787E+04;  0.0000000E+00;  1.0055967E+01;  4.0000000E+04;  0.0000000E+00;  3.9529504E+04;  1.8308108E+00;  0.0000000E+00;  3.0288666E-02;  1.7495236E+04;
  1.3068975E+00;  9.9999998E-03;  2.1123341E-01;9139;  1.3438039E+00;  0.0000000E+00;  6.0691204E-02;  1.0021856E+03;  1.1920752E-01;  1.7753785E+03;3;  6.7145815E+00;  0.0000000E+00; -2.6525345E+01;0;  1.7156276E+00;  2.8603287E+04;  0.0000000E+00;  9.3251648E+00;  4.0000000E+04;  0.0000000E+00;  3.9521488E+04;  1.6684091E+00;  0.0000000E+00;  4.7218416E-02;  1.6133432E+04;
  1.3189484E+00;  9.9999998E-03;  7.0441313E-02;9183;  1.2923660E+00;  0.0000000E+00;  1.8593982E-02;  1.0005897E+03;  1.1769224E-01;  4.7724356E+02;3;  2.9301086E+01;  0.0000000E+00; -5.1021600E+00;0;  4.1829276E-01;  2.9281332E+04;  0.0000000E+00;  1.5616983E-01;  4.0000000E+04;  0.0000000E+00;  3.9481613E+04;  1.5042503E-01;  0.0000000E+00;  2.6786774E-01;  6.8913530E+03;
  1.3189257E+00;  9.9999998E-03;  8.0514558E-02;9184;  1.2934015E+00;  0.0000000E+00;  2.1657838E-02;  1.0005978E+03;  1.1768823E-01;  4.8380731E+02;3;  2.9039757E+01;  0.0000000E+00; -6.0267310E+00;0;  4.5745915E-01;  2.9281893E+04;  0.0000000E+00;  1.2913509E-01;  4.0000000E+04;  0.0000000E+00;  3.9483441E+04;  1.8447538E-01;  0.0000000E+00;  2.7298376E-01;  6.7053384E+03;
  1.3188862E+00;  9.9999998E-03;  9.0596959E-02;9185;  1.2946662E+00;  0.0000000E+00;  2.4895152E-02;  1.0006647E+03;  1.1768570E-01;  5.3793542E+02;3;  2.8734219E+01;  0.0000000E+00; -6.8913932E+00;0;  5.0155902E-01;  2.9285527E+04;  0.0000000E+00;  6.8462253E-02;  4.0000000E+04;  0.0000000E+00;  3.9485398E+04;  2.2510394E-01;  0.0000000E+00;  2.7645507E-01;  6.5568145E+03;
  1.3188304E+00;  9.9999998E-03;  1.0068854E-01;9186;  1.2962536E+00;  0.0000000E+00;  2.8387431E-02;  1.0008035E+03;  1.1768328E-01;  6.5024261E+02;3;  2.8451204E+01;  0.0000000E+00; -7.7497272E+00;0;  5.5031848E-01;  2.9292578E+04;  0.0000000E+00; -2.6756944E-02;  4.0000000E+04;  0.0000000E+00;  3.9487059E+04;  2.7280876E-01;  0.0000000E+00;  2.7750969E-01;  6.4461367E+03;
  1.3187585E+00;  9.9999998E-03;  1.1078296E-01;9187;  1.2982355E+00;  0.0000000E+00;  3.2206565E-02;  1.0010208E+03;  1.1768327E-01;  8.2613702E+02;3;  2.8142248E+01;  0.0000000E+00; -8.5311871E+00;0;  6.0334170E-01;  2.9303424E+04;  0.0000000E+00; -1.5491451E-01;  4.0000000E+04;  0.0000000E+00;  3.9488645E+04;  3.2799223E-01;  0.0000000E+00;  2.7534947E-01;  6.3803789E+03;
  1.3186765E+00;  9.9999998E-03;  1.2087558E-01;9188;  1.3007419E+00;  0.0000000E+00;  3.6423560E-02;  1.0013010E+03;  1.1768273E-01;  1.0529850E+03;3;  2.7868013E+01;  0.0000000E+00; -9.1761637E+00;0;  6.6006064E-01;  2.9318018E+04;  0.0000000E+00; -3.0548009E-01;  4.0000000E+04;  0.0000000E+00;  3.9489609E+04;  3.9082509E-01;  0.0000000E+00;  2.6923555E-01;  6.3708926E+03;
  1.3185889E+00;  9.9999998E-03;  1.3095476E-01;9189;  1.3038945E+00;  0.0000000E+00;  4.1082717E-02;  1.0016391E+03;  1.1768391E-01;  1.3266422E+03;3;  2.7567007E+01;  0.0000000E+00; -9.5582418E+00;0;  7.1986258E-01;  2.9335564E+04;  0.0000000E+00; -4.2280215E-01;  4.0000000E+04;  0.0000000E+00;  3.9490258E+04;  4.6118984E-01;  0.0000000E+00;  2.5867271E-01;  6.4249668E+03;
  1.3184847E+00;  9.9999998E-03;  1.4101614E-01;9190;  1.3077873E+00;  0.0000000E+00;  4.6070423E-02;  1.0019988E+03;  1.1768701E-01;  1.6177885E+03;3;  2.7276096E+01;  0.0000000E+00; -9.8577070E+00;0;  7.8267860E-01;  2.9354350E+04;  0.0000000E+00; -4.0941682E-01;  4.0000000E+04;  0.0000000E+00;  3.9490090E+04;  5.3908366E-01;  0.0000000E+00;  2.4359491E-01;  6.5436772E+03;
  1.3183798E+00;  9.9999998E-03;  1.5105535E-01;9191;  1.3123938E+00;  0.0000000E+00;  5.0883543E-02;  1.0023347E+03;  1.1768941E-01;  1.8897539E+03;3;  2.6505444E+01;  0.0000000E+00; -1.0987103E+01;0;  8.4858918E-01;  2.9373176E+04;  0.0000000E+00; -1.4464048E-01;  4.0000000E+04;  0.0000000E+00;  3.9489102E+04;  6.2404543E-01;  0.0000000E+00;  2.2454372E-01;  6.7383979E+03;
  1.3182935E+00;  9.9999998E-03;  1.6107509E-01;9192;  1.3176326E+00;  0.0000000E+00;  5.4220252E-02;  1.0026216E+03;  1.1769039E-01;  2.1219702E+03;3;  2.5439590E+01;  0.0000000E+00; -1.3750764E+01;0;  9.1819179E-01;  2.9390221E+04;  0.0000000E+00;  5.2798706E-01;  4.0000000E+04;  0.0000000E+00;  3.9487383E+04;  7.1570551E-01;  0.0000000E+00;  2.0248626E-01;  7.0796050E+03;
  1.3182415E+00;  9.9999998E-03;  1.7108455E-01;9193;  1.3230655E+00;  0.0000000E+00;  5.5824731E-02;  1.0028135E+03;  1.1768841E-01;  2.2774597E+03;3;  2.3306232E+01;  0.0000000E+00; -1.6507410E+01;0;  9.9222916E-01;  2.9403299E+04;  0.0000000E+00;  1.8241745E+00;  4.0000000E+04;  0.0000000E+00;  3.9486273E+04;  8.1396204E-01;  0.0000000E+00;  1.7826712E-01;  7.8122632E+03;
  1.3182348E+00;  9.9999998E-03;  1.8109494E-01;9194;  1.3288990E+00;  0.0000000E+00;  5.6860384E-02;  1.0028845E+03;  1.1768564E-01;  2.3348794E+03;3;  2.0982565E+01;  0.0000000E+00; -1.8052917E+01;0;  1.0719277E+00;  2.9408877E+04;  0.0000000E+00;  3.9826410E+00;  4.0000000E+04;  0.0000000E+00;  3.9487207E+04;  9.1908276E-01;  0.0000000E+00;  1.5284486E-01;  9.4772666E+03;
  1.3182812E+00;  9.9999998E-03;  1.9111669E-01;9195;  1.3353814E+00;  0.0000000E+00;  5.7879776E-02;  1.0027653E+03;  1.1768025E-01;  2.2383499E+03;3;  1.8481039E+01;  0.0000000E+00; -1.9292305E+01;0;  1.1592143E+00;  2.9402520E+04;  0.0000000E+00;  7.0953832E+00;  4.0000000E+04;  0.0000000E+00;  3.9492117E+04;  1.0316956E+00;  0.0000000E+00;  1.2751867E-01;  1.2624950E+04;
  1.3183697E+00;  9.9999998E-03;  2.0116198E-01;9196;  1.3428471E+00;  0.0000000E+00;  5.9137288E-02;  1.0024160E+03;  1.1767812E-01;  1.9554702E+03;3;  1.6193926E+01;  0.0000000E+00; -2.0410069E+01;0;  1.2576120E+00;  2.9379443E+04;  0.0000000E+00;  1.0796340E+01;  4.0000000E+04;  0.0000000E+00;  3.9500945E+04;  1.1534159E+00;  0.0000000E+00;  1.0419612E-01;  1.7060734E+04;
  1.3185464E+00;  9.9999998E-03;  2.3141767E-01;9199;  1.3674872E+00;  0.0000000E+00;  6.1740652E-02;  9.9995221E+02;  1.1770335E-01; -3.8690262E+01;3;  8.7754459E+00;  0.0000000E+00; -2.4479235E+01;0;  1.6571953E+00;  2.9211350E+04;  0.0000000E+00;  1.2461996E+01;  4.0000000E+04;  0.0000000E+00;  3.9528676E+04;  1.5924437E+00;  0.0000000E+00;  6.4751647E-02;  2.0007207E+04;
  1.3184788E+00;  9.9999998E-03;  2.1123517E-01;9197;  1.3512771E+00;  0.0000000E+00;  6.0611773E-02;  1.0017678E+03;  1.1767913E-01;  1.4308004E+03;3;  1.3942851E+01;  0.0000000E+00; -2.1422392E+01;0;  1.3719348E+00;  2.9336355E+04;  0.0000000E+00;  1.3945564E+01;  4.0000000E+04;  0.0000000E+00;  3.9511199E+04;  1.2863675E+00;  0.0000000E+00;  8.5567199E-02;  2.1288590E+04;
  1.3185582E+00;  9.9999998E-03;  2.2132605E-01;9198;  1.3599162E+00;  0.0000000E+00;  6.1655171E-02;  1.0008707E+03;  1.1768811E-01;  7.0471954E+02;3;  1.1544165E+01;  0.0000000E+00; -2.2879721E+01;0;  1.5054811E+00;  2.9276281E+04;  0.0000000E+00;  1.4870216E+01;  4.0000000E+04;  0.0000000E+00;  3.9520191E+04;  1.4326451E+00;  0.0000000E+00;  7.2836094E-02;  2.2882801E+04;
  1.3304164E+00;  9.9999998E-03;  7.0482761E-02;9240;  1.2910360E+00;  0.0000000E+00;  1.8629661E-02;  1.0001341E+03;  1.1632244E-01;  1.0807304E+02;3;  2.9896807E+01;  0.0000000E+00; -4.5339570E+00;0;  3.0818942E-01;  2.9952986E+04;  0.0000000E+00;  1.0227808E-01;  4.0000000E+04;  0.0000000E+00;  3.9474969E+04;  4.2285085E-02;  0.0000000E+00;  2.6590434E-01;  5.3417310E+03;
  1.3304031E+00;  9.9999998E-03;  8.0558047E-02;9241;  1.2921802E+00;  0.0000000E+00;  2.1745188E-02;  1.0001824E+03;  1.1631913E-01;  1.4698012E+02;3;  2.9832520E+01;  0.0000000E+00; -5.1818657E+00;0;  3.3978233E-01;  2.9955748E+04;  0.0000000E+00;  9.4569966E-02;  4.0000000E+04;  0.0000000E+00;  3.9476949E+04;  6.9645107E-02;  0.0000000E+00;  2.7013722E-01;  5.1782788E+03;
  1.3303756E+00;  9.9999998E-03;  9.0638064E-02;9242;  1.2935821E+00;  0.0000000E+00;  2.5063338E-02;  1.0002934E+03;  1.1631651E-01;  2.3641962E+02;3;  2.9497662E+01;  0.0000000E+00; -5.8496704E+00;0;  3.7524354E-01;  2.9962447E+04;  0.0000000E+00;  6.2852502E-02;  4.0000000E+04;  0.0000000E+00;  3.9478336E+04;  1.0228918E-01;  0.0000000E+00;  2.7295434E-01;  5.1017812E+03;
  1.3303350E+00;  9.9999998E-03;  1.0072267E-01;9243;  1.2953341E+00;  0.0000000E+00;  2.8626442E-02;  1.0004818E+03;  1.1631567E-01;  3.8830698E+02;3;  2.9398678E+01;  0.0000000E+00; -6.3848114E+00;0;  4.1431096E-01;  2.9973459E+04;  0.0000000E+00; -3.0492269E-03;  4.0000000E+04;  0.0000000E+00;  3.9478676E+04;  1.4061618E-01;  0.0000000E+00;  2.7369478E-01;  5.1216904E+03;
  1.3301231E+00;  9.9999998E-03;  1.3096067E-01;9246;  1.3038076E+00;  0.0000000E+00;  4.1068867E-02;  1.0014312E+03;  1.1631671E-01;  1.1534897E+03;3;  2.8990017E+01;  0.0000000E+00; -7.2310982E+00;0;  5.4945648E-01;  3.0029842E+04;  0.0000000E+00; -2.5836140E-01;  4.0000000E+04;  0.0000000E+00;  3.9475023E+04;  2.9176396E-01;  0.0000000E+00;  2.5769249E-01;  5.7573174E+03;
  1.3300381E+00;  9.9999998E-03;  1.4100394E-01;9247;  1.3080274E+00;  0.0000000E+00;  4.5467004E-02;  1.0017895E+03;  1.1631784E-01;  1.4422471E+03;3;  2.9063530E+01;  0.0000000E+00; -7.5299172E+00;0;  5.9912509E-01;  3.0052186E+04;  0.0000000E+00; -8.3783284E-02;  4.0000000E+04;  0.0000000E+00;  3.9472281E+04;  3.5359102E-01;  0.0000000E+00;  2.4553405E-01;  6.1263750E+03;
  1.3302784E+00;  9.9999998E-03;  1.1080988E-01;9244;  1.2975736E+00;  0.0000000E+00;  3.2493554E-02;  1.0007475E+03;  1.1631534E-01;  6.0236011E+02;3;  2.9166935E+01;  0.0000000E+00; -6.7672153E+00;0;  4.5667636E-01;  2.9989076E+04;  0.0000000E+00; -1.0983130E-01;  4.0000000E+04;  0.0000000E+00;  3.9478426E+04;  1.8497191E-01;  0.0000000E+00;  2.7170444E-01;  5.2427329E+03;
  1.3302057E+00;  9.9999998E-03;  1.2089314E-01;9245;  1.3003439E+00;  0.0000000E+00;  3.6660396E-02;  1.0010698E+03;  1.1631549E-01;  8.6215875E+02;3;  2.9071890E+01;  0.0000000E+00; -7.0569935E+00;0;  5.0189424E-01;  3.0008154E+04;  0.0000000E+00; -2.2371896E-01;  4.0000000E+04;  0.0000000E+00;  3.9477262E+04;  2.3543656E-01;  0.0000000E+00;  2.6645765E-01;  5.4592563E+03;
  1.3299545E+00;  9.9999998E-03;  1.5102343E-01;9248;  1.3130069E+00;  0.0000000E+00;  4.9172848E-02;  1.0021136E+03;  1.1631861E-01;  1.7036393E+03;3;  2.8635155E+01;  0.0000000E+00; -9.0909986E+00;0;  6.5123403E-01;  3.0073115E+04;  0.0000000E+00;  4.6989906E-01;  4.0000000E+04;  0.0000000E+00;  3.9469141E+04;  4.2074549E-01;  0.0000000E+00;  2.3048855E-01;  6.5999404E+03;
  1.3298827E+00;  9.9999998E-03;  1.6102919E-01;9249;  1.3184577E+00;  0.0000000E+00;  5.1190440E-02;  1.0023670E+03;  1.1631805E-01;  1.9078688E+03;3;  2.7761782E+01;  0.0000000E+00; -1.1302047E+01;0;  7.0631129E-01;  3.0090332E+04;  0.0000000E+00;  1.6238290E+00;  4.0000000E+04;  0.0000000E+00;  3.9466422E+04;  4.9324077E-01;  0.0000000E+00;  2.1307050E-01;  7.3531821E+03;
  1.3298328E+00;  9.9999998E-03;  1.7103277E-01;9250;  1.3243327E+00;  0.0000000E+00;  5.2490007E-02;  1.0025157E+03;  1.1631692E-01;  2.0278232E+03;3;  2.6013893E+01;  0.0000000E+00; -1.2550629E+01;0;  7.6520824E-01;  3.0100598E+04;  0.0000000E+00;  3.6546006E+00;  4.0000000E+04;  0.0000000E+00;  3.9466016E+04;  5.7144749E-01;  0.0000000E+00;  1.9376078E-01;  8.8484951E+03;
  1.3298115E+00;  9.9999998E-03;  1.8104568E-01;9251;  1.3307933E+00;  0.0000000E+00;  5.3716674E-02;  1.0025247E+03;  1.1631496E-01;  2.0349509E+03;3;  2.4398722E+01;  0.0000000E+00; -1.3875460E+01;0;  8.2941425E-01;  3.0100355E+04;  0.0000000E+00;  6.8099403E+00;  4.0000000E+04;  0.0000000E+00;  3.9470094E+04;  6.5615767E-01;  0.0000000E+00;  1.7325659E-01;  1.1764578E+04;
  1.3298817E+00;  9.9999998E-03;  2.3147415E-01;9256;  1.3740848E+00;  0.0000000E+00;  6.1096951E-02;  9.9924585E+02;  1.1634756E-01; -6.0788361E+02;3;  1.5416107E+01;  0.0000000E+00; -1.9860052E+01;0;  1.3416393E+00;  2.9867303E+04;  0.0000000E+00;  1.6988539E+01;  4.0000000E+04;  0.0000000E+00;  3.9512496E+04;  1.2380027E+00;  0.0000000E+00;  1.0363659E-01;  2.4560543E+04;
  1.3298215E+00;  9.9999998E-03;  1.9108108E-01;9252;  1.3382459E+00;  0.0000000E+00;  5.5196721E-02;  1.0023504E+03;  1.1631330E-01;  1.8945588E+03;3;  2.2502413E+01;  0.0000000E+00; -1.5159693E+01;0;  9.0158337E-01;  3.0085203E+04;  0.0000000E+00;  1.1081338E+01;  4.0000000E+04;  0.0000000E+00;  3.9479207E+04;  7.4887133E-01;  0.0000000E+00;  1.5271206E-01;  1.6440188E+04;
  1.3299310E+00;  9.9999998E-03;  2.2137274E-01;9255;  1.3661398E+00;  0.0000000E+00;  6.0876314E-02;  1.0001584E+03;  1.1633331E-01;  1.2769486E+02;3;  1.7829481E+01;  0.0000000E+00; -1.8473881E+01;0;  1.2085716E+00;  2.9931801E+04;  0.0000000E+00;  2.0337692E+01;  4.0000000E+04;  0.0000000E+00;  3.9506141E+04;  1.0967282E+00;  0.0000000E+00;  1.1184337E-01;  2.8472768E+04;
  1.3298556E+00;  9.9999998E-03;  2.0115203E-01;9253;  1.3469590E+00;  0.0000000E+00;  5.7224542E-02;  1.0019170E+03;  1.1631522E-01;  1.5451636E+03;3;  2.0810543E+01;  0.0000000E+00; -1.6163668E+01;0;  9.8637724E-01;  3.0051604E+04;  0.0000000E+00;  1.5857119E+01;  4.0000000E+04;  0.0000000E+00;  3.9491410E+04;  8.5191345E-01;  0.0000000E+00;  1.3446376E-01;  2.2237484E+04;
  1.3299035E+00;  9.9999998E-03;  2.1125770E-01;9254;  1.3566605E+00;  0.0000000E+00;  5.9466492E-02;  1.0011597E+03;  1.1632163E-01;  9.3480573E+02;3;  1.9402767E+01;  0.0000000E+00; -1.7298037E+01;0;  1.0887581E+00;  2.9998764E+04;  0.0000000E+00;  1.9612083E+01;  4.0000000E+04;  0.0000000E+00;  3.9500965E+04;  9.6760052E-01;  0.0000000E+00;  1.2115757E-01;  2.7173164E+04;
  1.3410821E+00;  9.9999998E-03;  2.3155266E-01;9313;  1.3782800E+00;  0.0000000E+00;  5.9098441E-02;  9.9847217E+02;  1.1514456E-01; -1.2256017E+03;3;  1.9930250E+01;  0.0000000E+00; -1.6436787E+01;0;  1.0758979E+00;  3.0465391E+04;  0.0000000E+00;  2.0585365E+01;  4.0000000E+04;  0.0000000E+00;  3.9490719E+04;  9.4080544E-01;  0.0000000E+00;  1.3509245E-01;  2.7556875E+04;
  1.3411895E+00;  9.9999998E-03;  2.2144870E-01;9312;  1.3703682E+00;  0.0000000E+00;  5.8982093E-02;  9.9924054E+02;  1.1513349E-01; -6.0920862E+02;3;  2.2205223E+01;  0.0000000E+00; -1.4907606E+01;0;  9.6503329E-01;  3.0520707E+04;  0.0000000E+00;  2.5207352E+01;  4.0000000E+04;  0.0000000E+00;  3.9486000E+04;  8.1872469E-01;  0.0000000E+00;  1.4630859E-01;  3.2669990E+04;
  1.3411958E+00;  9.9999998E-03;  2.1132027E-01;9311;  1.3607316E+00;  0.0000000E+00;  5.7615928E-02;  1.0003361E+03;  1.1512163E-01;  2.6955798E+02;3;  2.3705147E+01;  0.0000000E+00; -1.3548151E+01;0;  8.6197531E-01;  3.0592324E+04;  0.0000000E+00;  2.5753191E+01;  4.0000000E+04;  0.0000000E+00;  3.9484699E+04;  7.0790637E-01;  0.0000000E+00;  1.5406892E-01;  3.2925254E+04;
  1.3411824E+00;  9.9999998E-03;  2.0117739E-01;9310;  1.3501695E+00;  0.0000000E+00;  5.4894436E-02;  1.0012736E+03;  1.1511141E-01;  1.0215345E+03;3;  2.4692081E+01;  0.0000000E+00; -1.2548258E+01;0;  7.7139103E-01;  3.0655223E+04;  0.0000000E+00;  2.2175919E+01;  4.0000000E+04;  0.0000000E+00;  3.9481012E+04;  6.0941482E-01;  0.0000000E+00;  1.6197622E-01;  2.8343553E+04;
  1.3411918E+00;  9.9999998E-03;  1.9106364E-01;9309;  1.3401999E+00;  0.0000000E+00;  5.1919602E-02;  1.0018385E+03;  1.1510532E-01;  1.4746830E+03;3;  2.5586260E+01;  0.0000000E+00; -1.1639760E+01;0;  6.9779980E-01;  3.0699844E+04;  0.0000000E+00;  1.6542538E+01;  4.0000000E+04;  0.0000000E+00;  3.9468969E+04;  5.2384704E-01;  0.0000000E+00;  1.7395273E-01;  2.1612523E+04;
  1.3412293E+00;  9.9999998E-03;  1.8099780E-01;9308;  1.3317509E+00;  0.0000000E+00;  4.9617972E-02;  1.0020925E+03;  1.1510204E-01;  1.6784246E+03;3;  2.6557299E+01;  0.0000000E+00; -1.0831157E+01;0;  6.3850564E-01;  3.0725795E+04;  0.0000000E+00;  1.0975965E+01;  4.0000000E+04;  0.0000000E+00;  3.9455242E+04;  4.4942915E-01;  0.0000000E+00;  1.8907648E-01;  1.5373161E+04;
  1.3412827E+00;  9.9999998E-03;  1.7096972E-01;9307;  1.3247186E+00;  0.0000000E+00;  4.8110388E-02;  1.0021534E+03;  1.1510215E-01;  1.7272438E+03;3;  2.7827919E+01;  0.0000000E+00; -9.9937973E+00;0;  5.8806896E-01;  3.0735121E+04;  0.0000000E+00;  6.5592375E+00;  4.0000000E+04;  0.0000000E+00;  3.9446352E+04;  3.8336688E-01;  0.0000000E+00;  2.0470209E-01;  1.0892112E+04;
  1.3413469E+00;  9.9999998E-03;  1.6096354E-01;9306;  1.3185211E+00;  0.0000000E+00;  4.6923559E-02;  1.0020767E+03;  1.1510352E-01;  1.6657122E+03;3;  2.9110798E+01;  0.0000000E+00; -9.1497030E+00;0;  5.4246712E-01;  3.0731416E+04;  0.0000000E+00;  3.4941361E+00;  4.0000000E+04;  0.0000000E+00;  3.9443344E+04;  3.2333198E-01;  0.0000000E+00;  2.1913512E-01;  8.2291543E+03;
  1.3414189E+00;  9.9999998E-03;  1.5096419E-01;9305;  1.3129674E+00;  0.0000000E+00;  4.5675375E-02;  1.0018820E+03;  1.1510389E-01;  1.5094266E+03;3;  2.9801226E+01;  0.0000000E+00; -7.9106812E+00;0;  4.9987197E-01;  3.0718037E+04;  0.0000000E+00;  1.5840890E+00;  4.0000000E+04;  0.0000000E+00;  3.9444953E+04;  2.6800013E-01;  0.0000000E+00;  2.3187186E-01;  6.8098936E+03;
  1.3414965E+00;  9.9999998E-03;  1.4095816E-01;9304;  1.3078423E+00;  0.0000000E+00;  4.3493599E-02;  1.0016080E+03;  1.1510452E-01;  1.2896639E+03;3;  3.0308498E+01;  0.0000000E+00; -6.3450298E+00;0;  4.5930538E-01;  3.0698125E+04;  0.0000000E+00;  5.2483582E-01;  4.0000000E+04;  0.0000000E+00;  3.9448855E+04;  2.1661697E-01;  0.0000000E+00;  2.4268840E-01;  5.9869385E+03;
  1.3415726E+00;  9.9999998E-03;  1.3093311E-01;9303;  1.3033942E+00;  0.0000000E+00;  3.9986875E-02;  1.0012720E+03;  1.1510377E-01;  1.0202030E+03;3;  2.9983513E+01;  0.0000000E+00; -5.5212007E+00;0;  4.2048204E-01;  3.0674594E+04;  0.0000000E+00;  3.4086704E-02;  4.0000000E+04;  0.0000000E+00;  3.9453777E+04;  1.6898510E-01;  0.0000000E+00;  2.5149694E-01;  5.3818989E+03;
  1.3416419E+00;  9.9999998E-03;  1.2088222E-01;9302;  1.2997003E+00;  0.0000000E+00;  3.6050983E-02;  1.0009186E+03;  1.1510310E-01;  7.3670996E+02;3;  3.0031887E+01;  0.0000000E+00; -5.4561996E+00;0;  3.8325986E-01;  3.0650029E+04;  0.0000000E+00; -1.1732281E-01;  4.0000000E+04;  0.0000000E+00;  3.9458277E+04;  1.2517744E-01;  0.0000000E+00;  2.5808242E-01;  4.8672119E+03;
  1.3416976E+00;  9.9999998E-03;  1.1081497E-01;9301;  1.2966924E+00;  0.0000000E+00;  3.2140877E-02;  1.0005698E+03;  1.1510354E-01;  4.5696634E+02;3;  3.0064892E+01;  0.0000000E+00; -5.4665322E+00;0;  3.4777734E-01;  3.0626436E+04;  0.0000000E+00; -9.9849910E-02;  4.0000000E+04;  0.0000000E+00;  3.9461812E+04;  8.5533760E-02;  0.0000000E+00;  2.6224357E-01;  4.4343911E+03;
  1.3417336E+00;  9.9999998E-03;  1.0074407E-01;9300;  1.2942857E+00;  0.0000000E+00;  2.8415702E-02;  1.0002653E+03;  1.1510453E-01;  2.1270567E+02;3;  2.9936600E+01;  0.0000000E+00; -5.3160391E+00;0;  3.1443182E-01;  3.0605795E+04;  0.0000000E+00; -3.3323824E-02;  4.0000000E+04;  0.0000000E+00;  3.9464590E+04;  5.0394725E-02;  0.0000000E+00;  2.6403710E-01;  4.1094136E+03;
  1.3417560E+00;  9.9999998E-03;  9.0670563E-02;9299;  1.2923704E+00;  0.0000000E+00;  2.4906784E-02;  1.0000284E+03;  1.1510687E-01;  2.2752102E+01;3;  3.0274643E+01;  0.0000000E+00; -4.9593067E+00;0;  2.8355527E-01;  3.0589404E+04;  0.0000000E+00;  1.5554348E-02;  4.0000000E+04;  0.0000000E+00;  3.9465785E+04;  1.9819781E-02;  0.0000000E+00;  2.6373547E-01;  3.9175564E+03;
  1.3417667E+00;  9.9999998E-03;  7.0520177E-02;9297;  1.2895832E+00;  0.0000000E+00;  1.8498387E-02;  9.9974872E+02;  1.1511252E-01; -2.0151759E+02;3;  3.0636789E+01;  0.0000000E+00; -3.9907227E+00;0;  2.3035717E-01;  3.0570977E+04;  0.0000000E+00;  2.6261354E-02;  4.0000000E+04;  0.0000000E+00;  3.9464434E+04; -2.8269891E-02;  0.0000000E+00;  2.5862706E-01;  3.9548315E+03;
  1.3417660E+00;  9.9999998E-03;  8.0595277E-02;9298;  1.2908198E+00;  0.0000000E+00;  2.1608202E-02;  9.9985156E+02;  1.1510948E-01; -1.1901779E+02;3;  3.0357485E+01;  0.0000000E+00; -4.5290432E+00;0;  2.5546163E-01;  3.0577848E+04;  0.0000000E+00;  3.0681079E-02;  4.0000000E+04;  0.0000000E+00;  3.9465766E+04; -6.3038422E-03;  0.0000000E+00;  2.6176548E-01;  3.8692068E+03;
  1.3521366E+00;  9.9999998E-03;  2.3165131E-01;9369;  1.3811644E+00;  0.0000000E+00;  5.6492556E-02;  9.9786493E+02;  1.1408484E-01; -1.7033525E+03;3;  2.3742720E+01;  0.0000000E+00; -1.3166740E+01;0;  8.5985833E-01;  3.1020006E+04;  0.0000000E+00;  2.3273220E+01;  4.0000000E+04;  0.0000000E+00;  3.9462547E+04;  6.9877678E-01;  0.0000000E+00;  1.6108155E-01;  2.9194918E+04;
  1.3523275E+00;  9.9999998E-03;  2.2154753E-01;9368;  1.3731747E+00;  0.0000000E+00;  5.6349643E-02;  9.9826483E+02;  1.1407553E-01; -1.3841385E+03;3;  2.5665712E+01;  0.0000000E+00; -1.1803451E+01;0;  7.6962161E-01;  3.1051074E+04;  0.0000000E+00;  2.8791811E+01;  4.0000000E+04;  0.0000000E+00;  3.9460438E+04;  5.9383500E-01;  0.0000000E+00;  1.7578664E-01;  3.4860719E+04;
  1.3523972E+00;  9.9999998E-03;  2.0125158E-01;9366;  1.3529269E+00;  0.0000000E+00;  5.2440580E-02;  1.0004356E+03;  1.1405246E-01;  3.4745999E+02;3;  2.7598248E+01;  0.0000000E+00; -9.8233404E+00;0;  6.0533708E-01;  3.1190922E+04;  0.0000000E+00;  2.9029140E+01;  4.0000000E+04;  0.0000000E+00;  3.9465391E+04;  4.1768649E-01;  0.0000000E+00;  1.8765058E-01;  3.4269371E+04;
  1.3523849E+00;  9.9999998E-03;  2.1141915E-01;9367;  1.3636950E+00;  0.0000000E+00;  5.5189583E-02;  9.9930511E+02;  1.1406400E-01; -5.5428503E+02;3;  2.6997862E+01;  0.0000000E+00; -1.0407833E+01;0;  6.8397892E-01;  3.1119689E+04;  0.0000000E+00;  3.1260908E+01;  4.0000000E+04;  0.0000000E+00;  3.9461293E+04;  5.0008976E-01;  0.0000000E+00;  1.8388912E-01;  3.7178996E+04;
  1.3524363E+00;  9.9999998E-03;  1.9108777E-01;9365;  1.3420076E+00;  0.0000000E+00;  4.8801363E-02;  1.0012103E+03;  1.1404255E-01;  9.6533661E+02;3;  2.8196604E+01;  0.0000000E+00; -9.0538206E+00;0;  5.4027110E-01;  3.1246557E+04;  0.0000000E+00;  2.3287891E+01;  4.0000000E+04;  0.0000000E+00;  3.9459508E+04;  3.4739947E-01;  0.0000000E+00;  1.9287162E-01;  2.7632975E+04;
  1.3525169E+00;  9.9999998E-03;  1.8097450E-01;9364;  1.3324331E+00;  0.0000000E+00;  4.5479432E-02;  1.0015862E+03;  1.1403598E-01;  1.2651904E+03;3;  2.8280920E+01;  0.0000000E+00; -8.4913540E+00;0;  4.9024981E-01;  3.1283783E+04;  0.0000000E+00;  1.6585295E+01;  4.0000000E+04;  0.0000000E+00;  3.9443980E+04;  2.8874362E-01;  0.0000000E+00;  2.0150620E-01;  2.0238555E+04;
  1.3526164E+00;  9.9999998E-03;  1.7091447E-01;9363;  1.3247104E+00;  0.0000000E+00;  4.3418728E-02;  1.0017228E+03;  1.1403257E-01;  1.3740835E+03;3;  2.8907427E+01;  0.0000000E+00; -7.9821854E+00;0;  4.5093381E-01;  3.1304643E+04;  0.0000000E+00;  1.0745105E+01;  4.0000000E+04;  0.0000000E+00;  3.9429121E+04;  2.3891214E-01;  0.0000000E+00;  2.1202168E-01;  1.4155302E+04;
  1.3527068E+00;  9.9999998E-03;  1.6089210E-01;9362;  1.3181906E+00;  0.0000000E+00;  4.2068422E-02;  1.0017234E+03;  1.1403126E-01;  1.3744921E+03;3;  2.9885908E+01;  0.0000000E+00; -7.2647777E+00;0;  4.1650951E-01;  3.1311062E+04;  0.0000000E+00;  6.3761344E+00;  4.0000000E+04;  0.0000000E+00;  3.9420566E+04;  1.9481917E-01;  0.0000000E+00;  2.2169033E-01;  1.0013840E+04;
  1.3527867E+00;  9.9999998E-03;  1.5088928E-01;9361;  1.3124889E+00;  0.0000000E+00;  4.1071236E-02;  1.0016198E+03;  1.1403222E-01;  1.2918168E+03;3;  3.0401842E+01;  0.0000000E+00; -6.8571777E+00;0;  3.8439566E-01;  3.1305234E+04;  0.0000000E+00;  3.4145458E+00;  4.0000000E+04;  0.0000000E+00;  3.9418414E+04;  1.5451673E-01;  0.0000000E+00;  2.2987893E-01;  7.5557554E+03;
  1.3528608E+00;  9.9999998E-03;  1.4088856E-01;9360;  1.3073694E+00;  0.0000000E+00;  3.9890066E-02;  1.0014237E+03;  1.1403270E-01;  1.1353806E+03;3;  3.1112406E+01;  0.0000000E+00; -5.8589182E+00;0;  3.5342920E-01;  3.1289895E+04;  0.0000000E+00;  1.5869514E+00;  4.0000000E+04;  0.0000000E+00;  3.9421000E+04;  1.1691044E-01;  0.0000000E+00;  2.3651877E-01;  6.1694062E+03;
  1.3529263E+00;  9.9999998E-03;  1.3087684E-01;9359;  1.3027718E+00;  0.0000000E+00;  3.7829250E-02;  1.0011487E+03;  1.1403394E-01;  9.1602960E+02;3;  3.0940016E+01;  0.0000000E+00; -4.7135367E+00;0;  3.2337916E-01;  3.1268328E+04;  0.0000000E+00;  5.7468659E-01;  4.0000000E+04;  0.0000000E+00;  3.9426402E+04;  8.1600368E-02;  0.0000000E+00;  2.4177879E-01;  5.2822334E+03;
  1.3530315E+00;  9.9999998E-03;  7.0543885E-02;9353;  1.2880077E+00;  0.0000000E+00;  1.8203665E-02;  9.9946008E+02;  1.1404625E-01; -4.3051706E+02;3;  3.1326197E+01;  0.0000000E+00; -3.5054843E+00;0;  1.7416838E-01;  3.1140000E+04;  0.0000000E+00; -5.4853097E-02;  4.0000000E+04;  0.0000000E+00;  3.9448340E+04; -7.2710387E-02;  0.0000000E+00;  2.4687876E-01;  2.8323960E+03;
  1.3530462E+00;  9.9999998E-03;  8.0616422E-02;9354;  1.2893709E+00;  0.0000000E+00;  2.1232205E-02;  9.9963684E+02;  1.1404309E-01; -2.8959146E+02;3;  3.1041052E+01;  0.0000000E+00; -3.9312034E+00;0;  1.9396774E-01;  3.1152672E+04;  0.0000000E+00; -5.6451075E-02;  4.0000000E+04;  0.0000000E+00;  3.9448496E+04; -5.4857086E-02;  0.0000000E+00;  2.4882483E-01;  2.8803501E+03;
  1.3529817E+00;  9.9999998E-03;  1.2084558E-01;9358;  1.2988899E+00;  0.0000000E+00;  3.4621160E-02;  1.0008236E+03;  1.1403427E-01;  6.5677240E+02;3;  3.0772785E+01;  0.0000000E+00; -4.3715739E+00;0;  2.9437211E-01;  3.1243115E+04;  0.0000000E+00;  9.3399160E-02;  4.0000000E+04;  0.0000000E+00;  3.9432402E+04;  4.8577271E-02;  0.0000000E+00;  2.4579483E-01;  4.5818301E+03;
  1.3530515E+00;  9.9999998E-03;  9.0684272E-02;9355;  1.2910553E+00;  0.0000000E+00;  2.4403889E-02;  9.9987439E+02;  1.1404023E-01; -1.0014237E+02;3;  3.0927389E+01;  0.0000000E+00; -4.2806215E+00;0;  2.1612123E-01;  3.1170213E+04;  0.0000000E+00; -7.3657341E-02;  4.0000000E+04;  0.0000000E+00;  3.9446703E+04; -3.3790715E-02;  0.0000000E+00;  2.4991195E-01;  3.0925188E+03;
  1.3530442E+00;  9.9999998E-03;  1.0074562E-01;9356;  1.2931346E+00;  0.0000000E+00;  2.7734427E-02;  1.0001602E+03;  1.1403739E-01;  1.2766183E+02;3;  3.0690144E+01;  0.0000000E+00; -4.4237237E+00;0;  2.4043854E-01;  3.1192041E+04;  0.0000000E+00; -9.7482190E-02;  4.0000000E+04;  0.0000000E+00;  3.9443301E+04; -9.4296327E-03;  0.0000000E+00;  2.4986817E-01;  3.4661902E+03;
  1.3530216E+00;  9.9999998E-03;  1.1079988E-01;9357;  1.2957022E+00;  0.0000000E+00;  3.1176403E-02;  1.0004833E+03;  1.1403533E-01;  3.8546167E+02;3;  3.0645479E+01;  0.0000000E+00; -4.5245628E+00;0;  2.6663020E-01;  3.1216957E+04;  0.0000000E+00; -7.6655768E-02;  4.0000000E+04;  0.0000000E+00;  3.9438410E+04;  1.8115344E-02;  0.0000000E+00;  2.4851486E-01;  3.9744707E+03;
  1.3630555E+00;  9.9999998E-03;  2.3176920E-01;9424;  1.3833437E+00;  0.0000000E+00;  5.3550888E-02;  9.9763782E+02;  1.1315504E-01; -1.8727424E+03;3;  2.6610867E+01;  0.0000000E+00; -1.0147903E+01;0;  6.8955261E-01;  3.1547477E+04;  0.0000000E+00;  2.4805552E+01;  4.0000000E+04;  0.0000000E+00;  3.9426898E+04;  5.0791669E-01;  0.0000000E+00;  1.8163592E-01;  2.9176326E+04;
  1.3633163E+00;  9.9999998E-03;  2.2166915E-01;9423;  1.3751733E+00;  0.0000000E+00;  5.3284731E-02;  9.9748553E+02;  1.1314803E-01; -1.9931567E+03;3;  2.8142376E+01;  0.0000000E+00; -8.7748222E+00;0;  6.1721098E-01;  3.1541951E+04;  0.0000000E+00;  3.1219223E+01;  4.0000000E+04;  0.0000000E+00;  3.9427574E+04;  4.1730550E-01;  0.0000000E+00;  1.9990547E-01;  3.5385660E+04;
  1.3634472E+00;  9.9999998E-03;  2.1155171E-01;9422;  1.3658979E+00;  0.0000000E+00;  5.2154243E-02;  9.9821393E+02;  1.1313815E-01; -1.4156378E+03;3;  2.9474190E+01;  0.0000000E+00; -7.7745929E+00;0;  5.4674619E-01;  3.1592104E+04;  0.0000000E+00;  3.5420963E+01;  4.0000000E+04;  0.0000000E+00;  3.9427887E+04;  3.3784321E-01;  0.0000000E+00;  2.0890300E-01;  3.9309500E+04;
  1.3634866E+00;  9.9999998E-03;  2.0138648E-01;9421;  1.3553244E+00;  0.0000000E+00;  4.9860448E-02;  9.9941321E+02;  1.1312573E-01; -4.6509641E+02;3;  2.9830643E+01;  0.0000000E+00; -7.3181849E+00;0;  4.8072109E-01;  3.1665465E+04;  0.0000000E+00;  3.5542198E+01;  4.0000000E+04;  0.0000000E+00;  3.9436699E+04;  2.6929736E-01;  0.0000000E+00;  2.1142372E-01;  3.8952863E+04;
  1.3635309E+00;  9.9999998E-03;  1.9118604E-01;9420;  1.3439791E+00;  0.0000000E+00;  4.6168737E-02;  1.0004552E+03;  1.1311483E-01;  3.6072919E+02;3;  3.0155809E+01;  0.0000000E+00; -6.8201456E+00;0;  4.2262554E-01;  3.1731043E+04;  0.0000000E+00;  3.0971975E+01;  4.0000000E+04;  0.0000000E+00;  3.9441973E+04;  2.1170370E-01;  0.0000000E+00;  2.1092184E-01;  3.3813953E+04;
  1.3636266E+00;  9.9999998E-03;  1.8101351E-01;9419;  1.3333430E+00;  0.0000000E+00;  4.1945118E-02;  1.0010278E+03;  1.1310446E-01;  8.1456848E+02;3;  2.9862356E+01;  0.0000000E+00; -6.7282033E+00;0;  3.7760347E-01;  3.1779016E+04;  0.0000000E+00;  2.3767172E+01;  4.0000000E+04;  0.0000000E+00;  3.9432348E+04;  1.6553439E-01;  0.0000000E+00;  2.1206906E-01;  2.6174258E+04;
  1.3637565E+00;  9.9999998E-03;  1.7090759E-01;9418;  1.3247218E+00;  0.0000000E+00;  3.9049733E-02;  1.0012759E+03;  1.1309911E-01;  1.0110904E+03;3;  2.9826103E+01;  0.0000000E+00; -6.3722978E+00;0;  3.4574050E-01;  3.1810143E+04;  0.0000000E+00;  1.6507374E+01;  4.0000000E+04;  0.0000000E+00;  3.9414258E+04;  1.2899925E-01;  0.0000000E+00;  2.1674123E-01;  1.8766018E+04;
  1.3638821E+00;  9.9999998E-03;  1.6085702E-01;9417;  1.3177844E+00;  0.0000000E+00;  3.7275877E-02;  1.0013559E+03;  1.1309655E-01;  1.0743945E+03;3;  3.0510099E+01;  0.0000000E+00; -5.9401789E+00;0;  3.1994912E-01;  3.1827494E+04;  0.0000000E+00;  1.0578125E+01;  4.0000000E+04;  0.0000000E+00;  3.9399195E+04;  9.8277994E-02;  0.0000000E+00;  2.2167112E-01;  1.3030768E+04;
  1.3639894E+00;  9.9999998E-03;  1.5083677E-01;9416;  1.3118280E+00;  0.0000000E+00;  3.6187802E-02;  1.0013231E+03;  1.1309463E-01;  1.0483478E+03;3;  3.0990398E+01;  0.0000000E+00; -5.8717642E+00;0;  2.9614168E-01;  3.1831623E+04;  0.0000000E+00;  6.2524395E+00;  4.0000000E+04;  0.0000000E+00;  3.9391418E+04;  7.0603892E-02;  0.0000000E+00;  2.2553778E-01;  9.1785713E+03;
  1.3640795E+00;  9.9999998E-03;  1.4082849E-01;9415;  1.3066547E+00;  0.0000000E+00;  3.5395440E-02;  1.0012106E+03;  1.1309516E-01;  9.5922333E+02;3;  3.1372047E+01;  0.0000000E+00; -5.3397589E+00;0;  2.7284822E-01;  3.1824232E+04;  0.0000000E+00;  3.3502336E+00;  4.0000000E+04;  0.0000000E+00;  3.9390598E+04;  4.4629674E-02;  0.0000000E+00;  2.2821856E-01;  6.8493569E+03;
  1.3641552E+00;  9.9999998E-03;  1.3081741E-01;9414;  1.3020009E+00;  0.0000000E+00;  3.4317609E-02;  1.0010165E+03;  1.1309595E-01;  8.0532800E+02;3;  3.1540930E+01;  0.0000000E+00; -4.7657318E+00;0;  2.4968608E-01;  3.1807836E+04;  0.0000000E+00;  1.5536648E+00;  4.0000000E+04;  0.0000000E+00;  3.9394367E+04;  1.9691814E-02;  0.0000000E+00;  2.2999427E-01;  5.4680547E+03;
  1.3642181E+00;  9.9999998E-03;  1.2079645E-01;9413;  1.2979845E+00;  0.0000000E+00;  3.2432813E-02;  1.0007572E+03;  1.1309740E-01;  5.9988763E+02;3;  3.1353046E+01;  0.0000000E+00; -3.8530259E+00;0;  2.2692904E-01;  3.1785375E+04;  0.0000000E+00;  5.4438710E-01;  4.0000000E+04;  0.0000000E+00;  3.9400520E+04; -4.2818580E-03;  0.0000000E+00;  2.3121090E-01;  4.5413091E+03;
  1.3642534E+00;  9.9999998E-03;  7.0553802E-02;9408;  1.2863362E+00;  0.0000000E+00;  1.7695589E-02;  9.9928992E+02;  1.1310823E-01; -5.6252386E+02;3;  3.2084373E+01;  0.0000000E+00; -2.9902546E+00;0;  1.3179736E-01;  3.1666031E+04;  0.0000000E+00; -1.5084425E-01;  4.0000000E+04;  0.0000000E+00;  3.9425418E+04; -9.9605829E-02;  0.0000000E+00;  2.3140319E-01;  2.0526179E+03;
  1.3642660E+00;  9.9999998E-03;  1.1076636E-01;9412;  1.2946405E+00;  0.0000000E+00;  2.9590046E-02;  1.0004509E+03;  1.1309800E-01;  3.5725861E+02;3;  3.1266102E+01;  0.0000000E+00; -3.7843554E+00;0;  2.0498760E-01;  3.1759645E+04;  0.0000000E+00;  5.0687831E-02;  4.0000000E+04;  0.0000000E+00;  3.9407727E+04; -2.7080636E-02;  0.0000000E+00;  2.3206824E-01;  3.8008777E+03;
  1.3642830E+00;  9.9999998E-03;  8.0620095E-02;9409;  1.2878387E+00;  0.0000000E+00;  2.0573523E-02;  9.9953351E+02;  1.1310502E-01; -3.6953165E+02;3;  3.1803719E+01;  0.0000000E+00; -3.3090284E+00;0;  1.4742957E-01;  3.1684771E+04;  0.0000000E+00; -1.7296900E-01;  4.0000000E+04;  0.0000000E+00;  3.9423547E+04; -8.4800929E-02;  0.0000000E+00;  2.3223050E-01;  2.2645994E+03;
  1.3642989E+00;  9.9999998E-03;  9.0677820E-02;9410;  1.2896709E+00;  0.0000000E+00;  2.3551606E-02;  9.9981726E+02;  1.1310215E-01; -1.4477034E+02;3;  3.1496759E+01;  0.0000000E+00; -3.5555973E+00;0;  1.6495813E-01;  3.1707615E+04;  0.0000000E+00; -1.8482521E-01;  4.0000000E+04;  0.0000000E+00;  3.9419902E+04; -6.7670226E-02;  0.0000000E+00;  2.3262836E-01;  2.6408833E+03;
  1.3642950E+00;  9.9999998E-03;  1.0072657E-01;9411;  1.2919141E+00;  0.0000000E+00;  2.6578905E-02;  1.0001281E+03;  1.1309985E-01;  1.0151891E+02;3;  3.1400862E+01;  0.0000000E+00; -3.7009223E+00;0;  1.8422447E-01;  3.1733025E+04;  0.0000000E+00; -1.4160520E-01;  4.0000000E+04;  0.0000000E+00;  3.9414402E+04; -4.8339427E-02;  0.0000000E+00;  2.3256390E-01;  3.1636562E+03;
  1.3738900E+00;  9.9999998E-03;  2.3189807E-01;9478;  1.3847769E+00;  0.0000000E+00;  5.0220512E-02;  9.9787549E+02;  1.1234093E-01; -1.6722609E+03;3;  2.8764069E+01;  0.0000000E+00; -7.6326709E+00;0;  5.5604160E-01;  3.2054098E+04;  0.0000000E+00;  2.3579853E+01;  4.0000000E+04;  0.0000000E+00;  3.9386883E+04;  3.6146259E-01;  0.0000000E+00;  1.9457901E-01;  2.6122896E+04;
  1.3741856E+00;  9.9999998E-03;  2.2180702E-01;9477;  1.3765914E+00;  0.0000000E+00;  4.9790196E-02;  9.9710907E+02;  1.1233719E-01; -2.2750886E+03;3;  3.0148142E+01;  0.0000000E+00; -6.6061020E+00;0;  4.9967778E-01;  3.2007816E+04;  0.0000000E+00;  3.1674479E+01;  4.0000000E+04;  0.0000000E+00;  3.9387895E+04;  2.8277129E-01;  0.0000000E+00;  2.1690647E-01;  3.3598000E+04;
  1.3743886E+00;  9.9999998E-03;  2.1170270E-01;9476;  1.3673948E+00;  0.0000000E+00;  4.8628159E-02;  9.9728113E+02;  1.1232935E-01; -2.1393584E+03;3;  3.1149864E+01;  0.0000000E+00; -5.6282325E+00;0;  4.4188994E-01;  3.2024279E+04;  0.0000000E+00;  3.7475986E+01;  4.0000000E+04;  0.0000000E+00;  3.9387266E+04;  2.1398297E-01;  0.0000000E+00;  2.2790696E-01;  3.8833512E+04;
  1.3744763E+00;  9.9999998E-03;  2.0156084E-01;9475;  1.3572736E+00;  0.0000000E+00;  4.6862498E-02;  9.9827625E+02;  1.1231916E-01; -1.3562725E+03;3;  3.1938103E+01;  0.0000000E+00; -4.9983287E+00;0;  3.8806182E-01;  3.2086691E+04;  0.0000000E+00;  4.0261944E+01;  4.0000000E+04;  0.0000000E+00;  3.9394375E+04;  1.5637675E-01;  0.0000000E+00;  2.3168509E-01;  4.1032730E+04;
  1.3745095E+00;  9.9999998E-03;  1.9135796E-01;9474;  1.3460979E+00;  0.0000000E+00;  4.3750845E-02;  9.9953168E+02;  1.1230714E-01; -3.6846405E+02;3;  3.2151279E+01;  0.0000000E+00; -4.7041807E+00;0;  3.3720559E-01;  3.2159895E+04;  0.0000000E+00;  3.8510571E+01;  4.0000000E+04;  0.0000000E+00;  3.9409094E+04;  1.0883009E-01;  0.0000000E+00;  2.2837548E-01;  3.8815836E+04;
  1.3745782E+00;  9.9999998E-03;  1.8113939E-01;9473;  1.3347862E+00;  0.0000000E+00;  3.9317854E-02;  1.0004294E+03;  1.1229709E-01;  3.3782419E+02;3;  3.1534382E+01;  0.0000000E+00; -4.9028740E+00;0;  2.9434100E-01;  3.2218627E+04;  0.0000000E+00;  3.2288742E+01;  4.0000000E+04;  0.0000000E+00;  3.9412035E+04;  7.1684606E-02;  0.0000000E+00;  2.2265638E-01;  3.2492145E+04;
  1.3747115E+00;  9.9999998E-03;  1.7097425E-01;9472;  1.3250872E+00;  0.0000000E+00;  3.5458222E-02;  1.0008371E+03;  1.1228958E-01;  6.5851617E+02;3;  3.1006437E+01;  0.0000000E+00; -5.0060005E+00;0;  2.6501337E-01;  3.2258506E+04;  0.0000000E+00;  2.4105650E+01;  4.0000000E+04;  0.0000000E+00;  3.9398148E+04;  4.4718154E-02;  0.0000000E+00;  2.2029522E-01;  2.4544441E+04;
  1.3748742E+00;  9.9999998E-03;  1.6087624E-01;9471;  1.3175051E+00;  0.0000000E+00;  3.3023570E-02;  1.0009775E+03;  1.1228351E-01;  7.6889819E+02;3;  3.1141058E+01;  0.0000000E+00; -5.0031862E+00;0;  2.4463114E-01;  3.2284164E+04;  0.0000000E+00;  1.6490969E+01;  4.0000000E+04;  0.0000000E+00;  3.9379520E+04;  2.4511639E-02;  0.0000000E+00;  2.2011951E-01;  1.7381100E+04;
  1.3750293E+00;  9.9999998E-03;  1.5082437E-01;9470;  1.3112087E+00;  0.0000000E+00;  3.1600829E-02;  1.0010031E+03;  1.1228067E-01;  7.8887665E+02;3;  3.1437548E+01;  0.0000000E+00; -5.0536509E+00;0;  2.2696924E-01;  3.2297559E+04;  0.0000000E+00;  1.0485490E+01;  4.0000000E+04;  0.0000000E+00;  3.9365867E+04;  7.1940953E-03;  0.0000000E+00;  2.1977514E-01;  1.1977574E+04;
  1.3751607E+00;  9.9999998E-03;  1.4079453E-01;9469;  1.3058476E+00;  0.0000000E+00;  3.0766938E-02;  1.0009666E+03;  1.1227985E-01;  7.6011499E+02;3;  3.1568672E+01;  0.0000000E+00; -5.0199213E+00;0;  2.0963761E-01;  3.2299547E+04;  0.0000000E+00;  6.1626244E+00;  4.0000000E+04;  0.0000000E+00;  3.9359629E+04; -9.0781339E-03;  0.0000000E+00;  2.1871574E-01;  8.3394287E+03;
  1.3754343E+00;  9.9999998E-03;  7.0550352E-02;9462;  1.2845855E+00;  0.0000000E+00;  1.6929578E-02;  9.9925165E+02;  1.1228978E-01; -5.8839178E+02;3;  3.2771149E+01;  0.0000000E+00; -2.5201573E+00;0;  9.7917505E-02;  3.2151844E+04;  0.0000000E+00; -2.8062958E-01;  4.0000000E+04;  0.0000000E+00;  3.9394504E+04; -1.1509729E-01;  0.0000000E+00;  2.1301480E-01;  1.6352271E+03;
  1.3752664E+00;  9.9999998E-03;  1.3077173E-01;9468;  1.3011693E+00;  0.0000000E+00;  3.0093573E-02;  1.0008570E+03;  1.1227973E-01;  6.7390857E+02;3;  3.1837683E+01;  0.0000000E+00; -4.6028447E+00;0;  1.9195865E-01;  3.2291229E+04;  0.0000000E+00;  3.2582800E+00;  4.0000000E+04;  0.0000000E+00;  3.9359828E+04; -2.5222769E-02;  0.0000000E+00;  2.1718141E-01;  6.0870293E+03;
  1.3753513E+00;  9.9999998E-03;  1.2074958E-01;9467;  1.2970690E+00;  0.0000000E+00;  2.9209662E-02;  1.0006688E+03;  1.1227995E-01;  5.2585828E+02;3;  3.1900473E+01;  0.0000000E+00; -4.0111408E+00;0;  1.7412129E-01;  3.2274729E+04;  0.0000000E+00;  1.4499874E+00;  4.0000000E+04;  0.0000000E+00;  3.9364359E+04; -4.1497122E-02;  0.0000000E+00;  2.1561842E-01;  4.7263354E+03;
  1.3754673E+00;  9.9999998E-03;  8.0609314E-02;9463;  1.2862324E+00;  0.0000000E+00;  1.9595018E-02;  9.9952759E+02;  1.1228541E-01; -3.7144418E+02;3;  3.2485088E+01;  0.0000000E+00; -2.7796683E+00;0;  1.1038037E-01;  3.2175119E+04;  0.0000000E+00; -3.1152475E-01;  4.0000000E+04;  0.0000000E+00;  3.9390688E+04; -1.0265674E-01;  0.0000000E+00;  2.1303712E-01;  1.9968030E+03;
  1.3754174E+00;  9.9999998E-03;  1.1072627E-01;9466;  1.2935444E+00;  0.0000000E+00;  2.7451271E-02;  1.0004274E+03;  1.1228114E-01;  3.3602710E+02;3;  3.1883930E+01;  0.0000000E+00; -3.2881095E+00;0;  1.5658866E-01;  3.2252432E+04;  0.0000000E+00;  4.2735332E-01;  4.0000000E+04;  0.0000000E+00;  3.9371008E+04; -5.7752255E-02;  0.0000000E+00;  2.1434091E-01;  3.8165610E+03;
  1.3754789E+00;  9.9999998E-03;  9.0658262E-02;9464;  1.2882340E+00;  0.0000000E+00;  2.2293661E-02;  9.9982971E+02;  1.1228276E-01; -1.3388937E+02;3;  3.2232788E+01;  0.0000000E+00; -2.9702396E+00;0;  1.2442083E-01;  3.2200709E+04;  0.0000000E+00; -2.7415952E-01;  4.0000000E+04;  0.0000000E+00;  3.9385219E+04; -8.8738300E-02;  0.0000000E+00;  2.1315913E-01;  2.4920457E+03;
  1.3754623E+00;  9.9999998E-03;  1.0069721E-01;9465;  1.2906433E+00;  0.0000000E+00;  2.4956491E-02;  1.0001389E+03;  1.1228158E-01;  1.0919355E+02;3;  3.1998230E+01;  0.0000000E+00; -3.1466291E+00;0;  1.3990173E-01;  3.2227133E+04;  0.0000000E+00; -7.7223592E-02;  4.0000000E+04;  0.0000000E+00;  3.9378285E+04; -7.3637895E-02;  0.0000000E+00;  2.1353962E-01;  3.0997068E+03;
  1.3846765E+00;  9.9999998E-03;  2.3203100E-01;9531;  1.3855394E+00;  0.0000000E+00;  4.6745364E-02;  9.9858020E+02;  1.1163092E-01; -1.1084514E+03;3;  3.0207581E+01;  0.0000000E+00; -5.5571446E+00;0;  4.5499703E-01;  3.2541764E+04;  0.0000000E+00;  1.8503914E+01;  4.0000000E+04;  0.0000000E+00;  3.9346590E+04;  2.5398314E-01;  0.0000000E+00;  2.0101389E-01;  1.9639975E+04;
  1.3849711E+00;  9.9999998E-03;  2.2195137E-01;9530;  1.3773396E+00;  0.0000000E+00;  4.5924753E-02;  9.9727063E+02;  1.1162890E-01; -2.1303503E+03;3;  3.1546003E+01;  0.0000000E+00; -4.7076759E+00;0;  4.0888950E-01;  3.2460463E+04;  0.0000000E+00;  2.9038092E+01;  4.0000000E+04;  0.0000000E+00;  3.9345473E+04;  1.8370202E-01;  0.0000000E+00;  2.2518748E-01;  2.8859027E+04;
  1.3852189E+00;  9.9999998E-03;  2.1186244E-01;9529;  1.3682084E+00;  0.0000000E+00;  4.4612374E-02;  9.9676514E+02;  1.1162452E-01; -2.5244053E+03;3;  3.2660225E+01;  0.0000000E+00; -3.7654593E+00;0;  3.6074957E-01;  3.2434951E+04;  0.0000000E+00;  3.6860706E+01;  4.0000000E+04;  0.0000000E+00;  3.9341867E+04;  1.2207834E-01;  0.0000000E+00;  2.3867123E-01;  3.5590188E+04;
  1.3853698E+00;  9.9999998E-03;  2.0175046E-01;9528;  1.3584021E+00;  0.0000000E+00;  4.2998660E-02;  9.9723682E+02;  1.1161786E-01; -2.1560742E+03;3;  3.3663769E+01;  0.0000000E+00; -3.0060813E+00;0;  3.1585735E-01;  3.2468309E+04;  0.0000000E+00;  4.2040642E+01;  4.0000000E+04;  0.0000000E+00;  3.9342668E+04;  7.1522675E-02;  0.0000000E+00;  2.4433467E-01;  3.9829504E+04;
  1.3854191E+00;  9.9999998E-03;  1.9158046E-01;9527;  1.3478414E+00;  0.0000000E+00;  4.0806655E-02;  9.9842963E+02;  1.1160780E-01; -1.2252560E+03;3;  3.4069401E+01;  0.0000000E+00; -2.5767288E+00;0;  2.7405685E-01;  3.2538260E+04;  0.0000000E+00;  4.3896664E+01;  4.0000000E+04;  0.0000000E+00;  3.9356949E+04;  3.1428006E-02;  0.0000000E+00;  2.4262886E-01;  4.0900730E+04;
  1.3854477E+00;  9.9999998E-03;  1.8135069E-01;9526;  1.3366023E+00;  0.0000000E+00;  3.7141312E-02;  9.9967395E+02;  1.1159787E-01; -2.5438371E+02;3;  3.3590038E+01;  0.0000000E+00; -2.7993248E+00;0;  2.3425055E-01;  3.2608201E+04;  0.0000000E+00;  4.0774826E+01;  4.0000000E+04;  0.0000000E+00;  3.9374008E+04;  5.3512701E-04;  0.0000000E+00;  2.3371542E-01;  3.7608859E+04;
  1.3855423E+00;  9.9999998E-03;  1.7112711E-01;9525;  1.3260537E+00;  0.0000000E+00;  3.2866050E-02;  1.0004020E+03;  1.1158989E-01;  3.1370010E+02;3;  3.2708527E+01;  0.0000000E+00; -3.4529829E+00;0;  2.0384011E-01;  3.2657885E+04;  0.0000000E+00;  3.3311832E+01;  4.0000000E+04;  0.0000000E+00;  3.9374195E+04; -2.0560602E-02;  0.0000000E+00;  2.2440071E-01;  3.0749877E+04;
  1.3857154E+00;  9.9999998E-03;  1.6096388E-01;9524;  1.3175151E+00;  0.0000000E+00;  2.9573781E-02;  1.0006448E+03;  1.1158195E-01;  5.0298337E+02;3;  3.1973606E+01;  0.0000000E+00; -4.0575156E+00;0;  1.8458395E-01;  3.2688871E+04;  0.0000000E+00;  2.4465305E+01;  4.0000000E+04;  0.0000000E+00;  3.9359496E+04; -3.3553172E-02;  0.0000000E+00;  2.1813712E-01;  2.2901922E+04;
  1.3859204E+00;  9.9999998E-03;  1.5086061E-01;9523;  1.3107548E+00;  0.0000000E+00;  2.7616266E-02;  1.0006970E+03;  1.1157687E-01;  5.4362140E+02;3;  3.2006470E+01;  0.0000000E+00; -4.2108045E+00;0;  1.7068540E-01;  3.2707611E+04;  0.0000000E+00;  1.6595873E+01;  4.0000000E+04;  0.0000000E+00;  3.9342426E+04; -4.2705033E-02;  0.0000000E+00;  2.1339042E-01;  1.6086156E+04;
  1.3861109E+00;  9.9999998E-03;  1.4079630E-01;9522;  1.3051276E+00;  0.0000000E+00;  2.6488716E-02;  1.0006868E+03;  1.1157366E-01;  5.3563440E+02;3;  3.1991302E+01;  0.0000000E+00; -4.3028722E+00;0;  1.5774846E-01;  3.2717420E+04;  0.0000000E+00;  1.0487146E+01;  4.0000000E+04;  0.0000000E+00;  3.9330453E+04; -5.0953381E-02;  0.0000000E+00;  2.0870185E-01;  1.0969489E+04;
  1.3862686E+00;  9.9999998E-03;  1.3075180E-01;9521;  1.3003317E+00;  0.0000000E+00;  2.5838288E-02;  1.0006307E+03;  1.1157160E-01;  4.9169330E+02;3;  3.2131405E+01;  0.0000000E+00; -4.3420100E+00;0;  1.4442533E-01;  3.2717982E+04;  0.0000000E+00;  6.0922418E+00;  4.0000000E+04;  0.0000000E+00;  3.9325195E+04; -5.9625797E-02;  0.0000000E+00;  2.0405114E-01;  7.4796953E+03;
  1.3863921E+00;  9.9999998E-03;  1.2071840E-01;9520;  1.2961360E+00;  0.0000000E+00;  2.5304170E-02;  1.0005163E+03;  1.1157022E-01;  4.0251532E+02;3;  3.2317089E+01;  0.0000000E+00; -4.0130653E+00;0;  1.3056442E-01;  3.2709746E+04;  0.0000000E+00;  3.1312404E+00;  4.0000000E+04;  0.0000000E+00;  3.9325660E+04; -6.9245078E-02;  0.0000000E+00;  1.9980951E-01;  5.2960869E+03;
  1.3864833E+00;  9.9999998E-03;  1.1069104E-01;9519;  1.2924954E+00;  0.0000000E+00;  2.4498438E-02;  1.0003506E+03;  1.1157095E-01;  2.7331055E+02;3;  3.2497314E+01;  0.0000000E+00; -3.2774534E+00;0;  1.1660796E-01;  3.2694029E+04;  0.0000000E+00;  1.2817063E+00;  4.0000000E+04;  0.0000000E+00;  3.9330023E+04; -7.9766221E-02;  0.0000000E+00;  1.9637418E-01;  3.9910015E+03;
  1.3865588E+00;  9.9999998E-03;  7.0536740E-02;9515;  1.2828114E+00;  0.0000000E+00;  1.5914181E-02;  9.9928455E+02;  1.1157688E-01; -5.5769153E+02;3;  3.3415726E+01;  0.0000000E+00; -2.0473709E+00;0;  6.9011554E-02;  3.2598104E+04;  0.0000000E+00; -4.5073128E-01;  4.0000000E+04;  0.0000000E+00;  3.9355301E+04; -1.2363675E-01;  0.0000000E+00;  1.9264831E-01;  1.5184104E+03;
  1.3865465E+00;  9.9999998E-03;  1.0066506E-01;9518;  1.2893769E+00;  0.0000000E+00;  2.2886764E-02;  1.0001342E+03;  1.1157269E-01;  1.0463502E+02;3;  3.2670189E+01;  0.0000000E+00; -2.5829449E+00;0;  1.0307346E-01;  3.2672908E+04;  0.0000000E+00;  2.3892318E-01;  4.0000000E+04;  0.0000000E+00;  3.9336371E+04; -9.0901442E-02;  0.0000000E+00;  1.9397490E-01;  3.1508474E+03;
  1.3865854E+00;  9.9999998E-03;  8.0589436E-02;9516;  1.2846137E+00;  0.0000000E+00;  1.8311117E-02;  9.9957629E+02;  1.1157501E-01; -3.3029590E+02;3;  3.3175537E+01;  0.0000000E+00; -2.2376640E+00;0;  7.9062089E-02;  3.2623088E+04;  0.0000000E+00; -4.4487453E-01;  4.0000000E+04;  0.0000000E+00;  3.9350113E+04; -1.1327405E-01;  0.0000000E+00;  1.9233614E-01;  1.9686626E+03;
  1.3865818E+00;  9.9999998E-03;  9.0632334E-02;9517;  1.2867830E+00;  0.0000000E+00;  2.0666981E-02;  9.9986194E+02;  1.1157311E-01; -1.0760551E+02;3;  3.2917210E+01;  0.0000000E+00; -2.3936799E+00;0;  9.0462215E-02;  3.2648617E+04;  0.0000000E+00; -2.6546046E-01;  4.0000000E+04;  0.0000000E+00;  3.9343445E+04; -1.0222254E-01;  0.0000000E+00;  1.9268475E-01;  2.5093965E+03;
  1.3954405E+00;  9.9999998E-03;  2.3216420E-01;9583;  1.3862005E+00;  0.0000000E+00;  4.3683991E-02;  9.9961053E+02;  1.1101464E-01; -3.0123346E+02;3;  3.1804609E+01;  0.0000000E+00; -3.8263927E+00;0;  3.9164910E-01;  3.3004328E+04;  0.0000000E+00;  1.0078391E+01;  4.0000000E+04;  0.0000000E+00;  3.9307363E+04;  1.8435244E-01;  0.0000000E+00;  2.0729665E-01;  1.0894959E+04;
  1.3957059E+00;  9.9999998E-03;  2.2209495E-01;9582;  1.3778139E+00;  0.0000000E+00;  4.2310428E-02;  9.9803876E+02;  1.1101333E-01; -1.5165826E+03;3;  3.2775211E+01;  0.0000000E+00; -3.1249490E+00;0;  3.4698206E-01;  3.2905082E+04;  0.0000000E+00;  2.2420294E+01;  4.0000000E+04;  0.0000000E+00;  3.9303750E+04;  1.1724118E-01;  0.0000000E+00;  2.2974089E-01;  2.1172666E+04;
  1.3959684E+00;  9.9999998E-03;  2.1201982E-01;9581;  1.3685784E+00;  0.0000000E+00;  4.0500276E-02;  9.9689886E+02;  1.1101239E-01; -2.3974451E+03;3;  3.3846298E+01;  0.0000000E+00; -2.2507606E+00;0;  3.0034596E-01;  3.2838703E+04;  0.0000000E+00;  3.2754635E+01;  4.0000000E+04;  0.0000000E+00;  3.9296367E+04;  5.7982996E-02;  0.0000000E+00;  2.4236298E-01;  2.9461750E+04;
  1.3961701E+00;  9.9999998E-03;  2.0193326E-01;9580;  1.3588121E+00;  0.0000000E+00;  3.8598463E-02;  9.9662781E+02;  1.1100841E-01; -2.6065273E+03;3;  3.4861195E+01;  0.0000000E+00; -1.3839637E+00;0;  2.5810063E-01;  3.2830398E+04;  0.0000000E+00;  4.0372723E+01;  4.0000000E+04;  0.0000000E+00;  3.9289629E+04;  9.7323833E-03;  0.0000000E+00;  2.4836823E-01;  3.5476230E+04;
  1.3962747E+00;  9.9999998E-03;  1.9180912E-01;9579;  1.3486433E+00;  0.0000000E+00;  3.6724910E-02;  9.9733160E+02;  1.1100108E-01; -2.0623164E+03;3;  3.5723507E+01;  0.0000000E+00; -8.6278987E-01;0;  2.2169507E-01;  3.2876148E+04;  0.0000000E+00;  4.5351715E+01;  4.0000000E+04;  0.0000000E+00;  3.9294344E+04; -2.7054977E-02;  0.0000000E+00;  2.4875005E-01;  3.9087348E+04;
  1.3963033E+00;  9.9999998E-03;  1.8161291E-01;9578;  1.3380538E+00;  0.0000000E+00;  3.4311872E-02;  9.9863574E+02;  1.1099277E-01; -1.0543478E+03;3;  3.5576145E+01;  0.0000000E+00; -1.0547773E+00;0;  1.8831326E-01;  3.2947633E+04;  0.0000000E+00;  4.6543537E+01;  4.0000000E+04;  0.0000000E+00;  3.9314766E+04; -5.3669468E-02;  0.0000000E+00;  2.4198273E-01;  3.9434535E+04;
  1.3963423E+00;  9.9999998E-03;  1.7136484E-01;9577;  1.3274132E+00;  0.0000000E+00;  3.0741559E-02;  9.9977734E+02;  1.1098436E-01; -1.7209454E+02;3;  3.4543858E+01;  0.0000000E+00; -1.7520436E+00;0;  1.5799154E-01;  3.3010469E+04;  0.0000000E+00;  4.2458107E+01;  4.0000000E+04;  0.0000000E+00;  3.9332387E+04; -7.1345508E-02;  0.0000000E+00;  2.2933705E-01;  3.5657777E+04;
  1.3964720E+00;  9.9999998E-03;  1.6113439E-01;9576;  1.3179727E+00;  0.0000000E+00;  2.7018644E-02;  1.0003188E+03;  1.1097610E-01;  2.4631961E+02;3;  3.3186165E+01;  0.0000000E+00; -2.7909224E+00;0;  1.3641864E-01;  3.3049641E+04;  0.0000000E+00;  3.4222137E+01;  4.0000000E+04;  0.0000000E+00;  3.9331996E+04; -8.0526315E-02;  0.0000000E+00;  2.1694496E-01;  2.8814482E+04;
  1.3966887E+00;  9.9999998E-03;  1.5096268E-01;9575;  1.3105201E+00;  0.0000000E+00;  2.4378898E-02;  1.0004445E+03;  1.1097051E-01;  3.4334076E+02;3;  3.2684952E+01;  0.0000000E+00; -3.3688228E+00;0;  1.2318678E-01;  3.3070824E+04;  0.0000000E+00;  2.4954771E+01;  4.0000000E+04;  0.0000000E+00;  3.9318734E+04; -8.3975136E-02;  0.0000000E+00;  2.0716192E-01;  2.1323176E+04;
  1.3969351E+00;  9.9999998E-03;  1.4084634E-01;9574;  1.3045089E+00;  0.0000000E+00;  2.2782655E-02;  1.0004094E+03;  1.1096464E-01;  3.1619083E+02;3;  3.2452461E+01;  0.0000000E+00; -3.7290900E+00;0;  1.1291914E-01;  3.3083441E+04;  0.0000000E+00;  1.6839521E+01;  4.0000000E+04;  0.0000000E+00;  3.9303270E+04; -8.5800558E-02;  0.0000000E+00;  1.9871970E-01;  1.4870854E+04;
  1.3971630E+00;  9.9999998E-03;  1.3076927E-01;9573;  1.2995220E+00;  0.0000000E+00;  2.1915816E-02;  1.0003576E+03;  1.1096068E-01;  2.7617029E+02;3;  3.2519485E+01;  0.0000000E+00; -3.8335488E+00;0;  1.0292566E-01;  3.3090066E+04;  0.0000000E+00;  1.0549937E+01;  4.0000000E+04;  0.0000000E+00;  3.9292102E+04; -8.8125885E-02;  0.0000000E+00;  1.9105154E-01;  9.9895518E+03;
  1.3973472E+00;  9.9999998E-03;  1.2071589E-01;9572;  1.2952276E+00;  0.0000000E+00;  2.1387164E-02;  1.0003033E+03;  1.1095995E-01;  2.3415172E+02;3;  3.2759441E+01;  0.0000000E+00; -3.6284125E+00;0;  9.2358671E-02;  3.3090250E+04;  0.0000000E+00;  6.0241251E+00;  4.0000000E+04;  0.0000000E+00;  3.9286930E+04; -9.1892026E-02;  0.0000000E+00;  1.8425070E-01;  6.6284443E+03;
  1.3974845E+00;  9.9999998E-03;  1.1067630E-01;9571;  1.2914611E+00;  0.0000000E+00;  2.0908808E-02;  1.0001957E+03;  1.1095778E-01;  1.5101929E+02;3;  3.3067318E+01;  0.0000000E+00; -3.2019167E+00;0;  8.1407316E-02;  3.3083207E+04;  0.0000000E+00;  2.9724345E+00;  4.0000000E+04;  0.0000000E+00;  3.9286922E+04; -9.7280525E-02;  0.0000000E+00;  1.7868784E-01;  4.5207197E+03;
  1.3976364E+00;  9.9999998E-03;  7.0521109E-02;9567;  1.2810549E+00;  0.0000000E+00;  1.4620010E-02;  9.9935449E+02;  1.1096136E-01; -4.9826431E+02;3;  3.4037941E+01;  0.0000000E+00; -1.5613520E+00;0;  4.2808816E-02;  3.3004309E+04;  0.0000000E+00; -6.2564856E-01;  4.0000000E+04;  0.0000000E+00;  3.9308781E+04; -1.2837458E-01;  0.0000000E+00;  1.7118339E-01;  1.5708879E+03;
  1.3976499E+00;  9.9999998E-03;  8.0571011E-02;9568;  1.2830120E+00;  0.0000000E+00;  1.6694946E-02;  9.9961774E+02;  1.1095942E-01; -2.9504416E+02;3;  3.3788803E+01;  0.0000000E+00; -1.7126544E+00;0;  5.0961435E-02;  3.3028062E+04;  0.0000000E+00; -4.7985131E-01;  4.0000000E+04;  0.0000000E+00;  3.9302656E+04; -1.2008895E-01;  0.0000000E+00;  1.7105038E-01;  2.0285709E+03;
  1.3976306E+00;  9.9999998E-03;  9.0610698E-02;9569;  1.2853559E+00;  0.0000000E+00;  1.8636309E-02;  9.9985132E+02;  1.1095830E-01; -1.1474406E+02;3;  3.3545597E+01;  0.0000000E+00; -1.8764783E+00;0;  6.0266443E-02;  3.3050453E+04;  0.0000000E+00;  1.2823153E-02;  4.0000000E+04;  0.0000000E+00;  3.9296398E+04; -1.1182671E-01;  0.0000000E+00;  1.7209315E-01;  2.5642651E+03;
  1.3975766E+00;  9.9999998E-03;  1.0064381E-01;9570;  1.2881641E+00;  0.0000000E+00;  2.0126492E-02;  1.0000442E+03;  1.1095724E-01;  3.4139717E+01;3;  3.3325596E+01;  0.0000000E+00; -2.4791708E+00;0;  7.0548542E-02;  3.3069516E+04;  0.0000000E+00;  1.0721788E+00;  4.0000000E+04;  0.0000000E+00;  3.9290539E+04; -1.0406441E-01;  0.0000000E+00;  1.7461295E-01;  3.2995437E+03;
  1.4061999E+00;  9.9999998E-03;  2.3229629E-01;9633;  1.3872399E+00;  0.0000000E+00;  4.1227575E-02;  1.0006671E+03;  1.1048321E-01;  5.1053983E+02;3;  3.3541954E+01;  0.0000000E+00; -1.7298120E+00;0;  3.7033725E-01;  3.3426148E+04;  0.0000000E+00;  1.8810135E+00;  4.0000000E+04;  0.0000000E+00;  3.9268172E+04;  1.5351517E-01;  0.0000000E+00;  2.1682207E-01;  3.0833494E+03;
  1.4064155E+00;  9.9999998E-03;  2.2223552E-01;9632;  1.3784107E+00;  0.0000000E+00;  3.9184678E-02;  9.9926703E+02;  1.1048125E-01; -5.6081927E+02;3;  3.4124882E+01;  0.0000000E+00; -1.4117147E+00;0;  3.1662402E-01;  3.3337582E+04;  0.0000000E+00;  1.2397758E+01;  4.0000000E+04;  0.0000000E+00;  3.9263664E+04;  8.2938917E-02;  0.0000000E+00;  2.3368509E-01;  1.1747815E+04;
  1.4066589E+00;  9.9999998E-03;  2.1216977E-01;9631;  1.3689791E+00;  0.0000000E+00;  3.6867108E-02;  9.9777020E+02;  1.1048076E-01; -1.7056906E+03;3;  3.5067028E+01;  0.0000000E+00; -7.8390014E-01;0;  2.6484483E-01;  3.3246957E+04;  0.0000000E+00;  2.4923368E+01;  4.0000000E+04;  0.0000000E+00;  3.9254305E+04;  2.1205720E-02;  0.0000000E+00;  2.4363911E-01;  2.1161408E+04;
  1.4068884E+00;  9.9999998E-03;  2.0209850E-01;9630;  1.3589654E+00;  0.0000000E+00;  3.4386761E-02;  9.9676935E+02;  1.1047934E-01; -2.4706702E+03;3;  3.5835693E+01;  0.0000000E+00; -1.4023966E-01;0;  2.1660885E-01;  3.3193254E+04;  0.0000000E+00;  3.5179817E+01;  4.0000000E+04;  0.0000000E+00;  3.9242301E+04; -3.0437130E-02;  0.0000000E+00;  2.4704598E-01;  2.8663662E+04;
  1.4070605E+00;  9.9999998E-03;  1.9201006E-01;9629;  1.3487029E+00;  0.0000000E+00;  3.2070115E-02;  9.9665051E+02;  1.1047634E-01; -2.5610979E+03;3;  3.6665943E+01;  0.0000000E+00;  3.1259784E-01;0;  1.7654151E-01;  3.3193676E+04;  0.0000000E+00;  4.2579399E+01;  4.0000000E+04;  0.0000000E+00;  3.9235133E+04; -6.9655381E-02;  0.0000000E+00;  2.4619688E-01;  3.3923418E+04;
  1.4071472E+00;  9.9999998E-03;  1.8187067E-01;9628;  1.3385022E+00;  0.0000000E+00;  3.0129148E-02;  9.9746472E+02;  1.1046986E-01; -1.9383629E+03;3;  3.6721016E+01;  0.0000000E+00;  2.4353829E-01;0;  1.4607424E-01;  3.3242570E+04;  0.0000000E+00;  4.7339085E+01;  4.0000000E+04;  0.0000000E+00;  3.9244633E+04; -9.5875621E-02;  0.0000000E+00;  2.4194986E-01;  3.6951445E+04;
  1.4071820E+00;  9.9999998E-03;  1.7165409E-01;9627;  1.3283885E+00;  0.0000000E+00;  2.7847543E-02;  9.9874286E+02;  1.1046276E-01; -9.6110266E+02;3;  3.5967793E+01;  0.0000000E+00; -3.2221657E-01;0;  1.1983492E-01;  3.3309625E+04;  0.0000000E+00;  4.8087265E+01;  4.0000000E+04;  0.0000000E+00;  3.9268230E+04; -1.1164904E-01;  0.0000000E+00;  2.3148397E-01;  3.6898766E+04;
  1.4072477E+00;  9.9999998E-03;  1.6139394E-01;9626;  1.3187540E+00;  0.0000000E+00;  2.4762159E-02;  9.9974426E+02;  1.1045482E-01; -1.9552437E+02;3;  3.4689163E+01;  0.0000000E+00; -1.3861617E+00;0;  9.7255789E-02;  3.3363809E+04;  0.0000000E+00;  4.3488491E+01;  4.0000000E+04;  0.0000000E+00;  3.9286020E+04; -1.1907054E-01;  0.0000000E+00;  2.1632633E-01;  3.3111852E+04;
  1.4074117E+00;  9.9999998E-03;  1.5115429E-01;9625;  1.3105913E+00;  0.0000000E+00;  2.1823799E-02;  1.0001628E+03;  1.1044868E-01;  1.2446507E+02;3;  3.3556648E+01;  0.0000000E+00; -2.3688519E+00;0;  8.2212754E-02;  3.3393715E+04;  0.0000000E+00;  3.4921875E+01;  4.0000000E+04;  0.0000000E+00;  3.9286422E+04; -1.1951137E-01;  0.0000000E+00;  2.0172413E-01;  2.6676926E+04;
  1.4076638E+00;  9.9999998E-03;  1.4097117E-01;9624;  1.3040761E+00;  0.0000000E+00;  1.9742424E-02;  1.0001841E+03;  1.1044284E-01;  1.4073717E+02;3;  3.3127621E+01;  0.0000000E+00; -2.9150395E+00;0;  7.2599120E-02;  3.3407156E+04;  0.0000000E+00;  2.5422552E+01;  4.0000000E+04;  0.0000000E+00;  3.9274703E+04; -1.1664905E-01;  0.0000000E+00;  1.8924817E-01;  1.9704910E+04;
  1.4079468E+00;  9.9999998E-03;  1.3084388E-01;9623;  1.2988009E+00;  0.0000000E+00;  1.8521529E-02;  1.0000816E+03;  1.1043789E-01;  6.2379192E+01;3;  3.3038982E+01;  0.0000000E+00; -3.2176311E+00;0;  6.4817674E-02;  3.3414293E+04;  0.0000000E+00;  1.7092945E+01;  4.0000000E+04;  0.0000000E+00;  3.9260262E+04; -1.1369502E-01;  0.0000000E+00;  1.7851269E-01;  1.3660096E+04;
  1.4082063E+00;  9.9999998E-03;  1.2075674E-01;9622;  1.2943442E+00;  0.0000000E+00;  1.7815864E-02;  9.9999298E+02;  1.1043411E-01; -5.3713145E+00;3;  3.3260490E+01;  0.0000000E+00; -3.0793993E+00;0;  5.6917183E-02;  3.3418516E+04;  0.0000000E+00;  1.0621904E+01;  4.0000000E+04;  0.0000000E+00;  3.9249352E+04; -1.1230577E-01;  0.0000000E+00;  1.6922295E-01;  9.0386025E+03;
  1.4084095E+00;  9.9999998E-03;  1.1069527E-01;9621;  1.2904522E+00;  0.0000000E+00;  1.7323010E-02;  9.9992267E+02;  1.1043074E-01; -5.9026066E+01;3;  3.3582001E+01;  0.0000000E+00; -2.7622740E+00;0;  4.8576795E-02;  3.3419309E+04;  0.0000000E+00;  5.9608760E+00;  4.0000000E+04;  0.0000000E+00;  3.9243684E+04; -1.1299255E-01;  0.0000000E+00;  1.6156934E-01;  5.8228208E+03;
  1.4085532E+00;  9.9999998E-03;  1.0064822E-01;9620;  1.2870135E+00;  0.0000000E+00;  1.6822495E-02;  9.9985059E+02;  1.1042942E-01; -1.1407516E+02;3;  3.3879364E+01;  0.0000000E+00; -2.3482907E+00;0;  4.0108725E-02;  3.3414773E+04;  0.0000000E+00;  2.8201368E+00;  4.0000000E+04;  0.0000000E+00;  3.9242645E+04; -1.1567433E-01;  0.0000000E+00;  1.5578306E-01;  3.8024971E+03;
  1.4086791E+00;  9.9999998E-03;  7.0513904E-02;9617;  1.2793524E+00;  0.0000000E+00;  1.3025294E-02;  9.9938068E+02;  1.1043099E-01; -4.7275406E+02;3;  3.4591621E+01;  0.0000000E+00; -1.1127222E+00;0;  1.7925620E-02;  3.3369172E+04;  0.0000000E+00; -6.6982466E-01;  4.0000000E+04;  0.0000000E+00;  3.9255742E+04; -1.3144070E-01;  0.0000000E+00;  1.4936632E-01;  1.6367489E+03;
  1.4086826E+00;  9.9999998E-03;  8.0564529E-02;9618;  1.2814651E+00;  0.0000000E+00;  1.4720930E-02;  9.9958240E+02;  1.1043014E-01; -3.1874722E+02;3;  3.4360001E+01;  0.0000000E+00; -1.2993213E+00;0;  2.4459124E-02;  3.3388391E+04;  0.0000000E+00; -1.9746038E-01;  4.0000000E+04;  0.0000000E+00;  3.9250105E+04; -1.2539499E-01;  0.0000000E+00;  1.4985411E-01;  2.0568870E+03;
  1.4086421E+00;  9.9999998E-03;  9.0607151E-02;9619;  1.2840087E+00;  0.0000000E+00;  1.6068429E-02;  9.9974432E+02;  1.1042976E-01; -1.9518776E+02;3;  3.4149155E+01;  0.0000000E+00; -1.7524526E+00;0;  3.1947441E-02;  3.3404164E+04;  0.0000000E+00;  8.7251395E-01;  4.0000000E+04;  0.0000000E+00;  3.9245363E+04; -1.1997380E-01;  0.0000000E+00;  1.5192124E-01;  2.6735093E+03;
  1.4169375E+00;  9.9999998E-03;  2.3242705E-01;9681;  1.3886189E+00;  0.0000000E+00;  3.8971961E-02;  1.0016124E+03;  1.1002623E-01;  1.2193503E+03;3;  3.5596912E+01;  0.0000000E+00;  7.0016766E-01;0;  3.8461590E-01;  3.3803398E+04;  0.0000000E+00;  1.3330749E+00;  4.0000000E+04;  0.0000000E+00;  3.9225832E+04;  1.5893185E-01;  0.0000000E+00;  2.2568405E-01;  1.1653280E+03;
  1.4171281E+00;  9.9999998E-03;  2.2237356E-01;9680;  1.3793306E+00;  0.0000000E+00;  3.6472593E-02;  1.0005355E+03;  1.1002395E-01;  4.0485635E+02;3;  3.5943768E+01;  0.0000000E+00;  7.9609758E-01;0;  3.1806704E-01;  3.3735613E+04;  0.0000000E+00;  2.3535395E+00;  4.0000000E+04;  0.0000000E+00;  3.9222477E+04;  8.0509819E-02;  0.0000000E+00;  2.3755723E-01;  3.1785723E+03;
  1.4173274E+00;  9.9999998E-03;  2.1231404E-01;9679;  1.3697222E+00;  0.0000000E+00;  3.3856168E-02;  9.9917157E+02;  1.1002328E-01; -6.2619879E+02;3;  3.6642765E+01;  0.0000000E+00;  1.1106229E+00;0;  2.5799766E-01;  3.3651434E+04;  0.0000000E+00;  1.3629724E+01;  4.0000000E+04;  0.0000000E+00;  3.9213867E+04;  1.2786569E-02;  0.0000000E+00;  2.4521109E-01;  1.1530950E+04;
  1.4175481E+00;  9.9999998E-03;  2.0224994E-01;9678;  1.3593731E+00;  0.0000000E+00;  3.0870236E-02;  9.9776093E+02;  1.1002228E-01; -1.6919917E+03;3;  3.7170700E+01;  0.0000000E+00;  1.4049447E+00;0;  1.9767976E-01;  3.3569098E+04;  0.0000000E+00;  2.6292837E+01;  4.0000000E+04;  0.0000000E+00;  3.9200652E+04; -4.7097266E-02;  0.0000000E+00;  2.4477702E-01;  2.0118939E+04;
  1.4177587E+00;  9.9999998E-03;  1.9217861E-01;9677;  1.3486260E+00;  0.0000000E+00;  2.7790792E-02;  9.9682281E+02;  1.1002133E-01; -2.4003013E+03;3;  3.7520718E+01;  0.0000000E+00;  1.4381902E+00;0;  1.4383239E-01;  3.3520219E+04;  0.0000000E+00;  3.6383579E+01;  4.0000000E+04;  0.0000000E+00;  3.9186652E+04; -9.5303513E-02;  0.0000000E+00;  2.3913591E-01;  2.6807609E+04;
  1.4179219E+00;  9.9999998E-03;  1.8208449E-01;9676;  1.3382030E+00;  0.0000000E+00;  2.5296697E-02;  9.9672766E+02;  1.1001860E-01; -2.4717339E+03;3;  3.7610863E+01;  0.0000000E+00;  1.2564338E+00;0;  1.0535039E-01;  3.3520801E+04;  0.0000000E+00;  4.3509167E+01;  4.0000000E+04;  0.0000000E+00;  3.9180551E+04; -1.2752931E-01;  0.0000000E+00;  2.3287970E-01;  3.1320834E+04;
  1.4180179E+00;  9.9999998E-03;  1.7193310E-01;9675;  1.3283960E+00;  0.0000000E+00;  2.3478214E-02;  9.9750403E+02;  1.1001306E-01; -1.8850657E+03;3;  3.6978146E+01;  0.0000000E+00;  6.9289017E-01;0;  8.0176756E-02;  3.3564695E+04;  0.0000000E+00;  4.7880245E+01;  4.0000000E+04;  0.0000000E+00;  3.9192234E+04; -1.4485529E-01;  0.0000000E+00;  2.2503205E-01;  3.3747711E+04;
  1.4180789E+00;  9.9999998E-03;  1.6170765E-01;9674;  1.3191639E+00;  0.0000000E+00;  2.1582760E-02;  9.9865790E+02;  1.1000708E-01; -1.0135624E+03;3;  3.5912128E+01;  0.0000000E+00; -1.9126943E-01;0;  6.0745180E-02;  3.3624203E+04;  0.0000000E+00;  4.8244614E+01;  4.0000000E+04;  0.0000000E+00;  3.9215605E+04; -1.5154500E-01;  0.0000000E+00;  2.1229018E-01;  3.3439953E+04;
  1.4181777E+00;  9.9999998E-03;  1.5144463E-01;9673;  1.3108139E+00;  0.0000000E+00;  1.9276571E-02;  9.9952411E+02;  1.1000005E-01; -3.5934296E+02;3;  3.4575920E+01;  0.0000000E+00; -1.2689840E+00;0;  4.5440719E-02;  3.3670523E+04;  0.0000000E+00;  4.3489956E+01;  4.0000000E+04;  0.0000000E+00;  3.9232332E+04; -1.5067907E-01;  0.0000000E+00;  1.9611979E-01;  2.9926951E+04;
  1.4183669E+00;  9.9999998E-03;  1.4119899E-01;9672;  1.3038398E+00;  0.0000000E+00;  1.7139975E-02;  9.9986365E+02;  1.0999466E-01; -1.0295470E+02;3;  3.3918697E+01;  0.0000000E+00; -2.0120573E+00;0;  3.5344347E-02;  3.3694117E+04;  0.0000000E+00;  3.5045723E+01;  4.0000000E+04;  0.0000000E+00;  3.9233930E+04; -1.4500727E-01;  0.0000000E+00;  1.8035161E-01;  2.4193439E+04;
  1.4186376E+00;  9.9999998E-03;  1.3100411E-01;9671;  1.2981814E+00;  0.0000000E+00;  1.5621737E-02;  9.9983105E+02;  1.0998921E-01; -1.2748197E+02;3;  3.3625961E+01;  0.0000000E+00; -2.5060966E+00;0;  2.8595448E-02;  3.3702312E+04;  0.0000000E+00;  2.5641617E+01;  4.0000000E+04;  0.0000000E+00;  3.9224391E+04; -1.3798776E-01;  0.0000000E+00;  1.6658321E-01;  1.7946037E+04;
  1.4189371E+00;  9.9999998E-03;  1.2086611E-01;9670;  1.2935061E+00;  0.0000000E+00;  1.4678732E-02;  9.9968793E+02;  1.0998522E-01; -2.3544627E+02;3;  3.3766338E+01;  0.0000000E+00; -2.4687886E+00;0;  2.2779405E-02;  3.3705512E+04;  0.0000000E+00;  1.7255764E+01;  4.0000000E+04;  0.0000000E+00;  3.9211234E+04; -1.3209216E-01;  0.0000000E+00;  1.5487157E-01;  1.2422092E+04;
  1.4192098E+00;  9.9999998E-03;  1.1076856E-01;9669;  1.2894653E+00;  0.0000000E+00;  1.4062589E-02;  9.9958051E+02;  1.0998217E-01; -3.1637216E+02;3;  3.4072079E+01;  0.0000000E+00; -2.2520711E+00;0;  1.6736716E-02;  3.3708195E+04;  0.0000000E+00;  1.0682895E+01;  4.0000000E+04;  0.0000000E+00;  3.9200469E+04; -1.2846585E-01;  0.0000000E+00;  1.4520256E-01;  8.1318218E+03;
  1.4194189E+00;  9.9999998E-03;  1.0069563E-01;9668;  1.2859070E+00;  0.0000000E+00;  1.3563487E-02;  9.9951251E+02;  1.0997831E-01; -3.6756921E+02;3;  3.4382347E+01;  0.0000000E+00; -1.9946324E+00;0;  1.0483593E-02;  3.3709895E+04;  0.0000000E+00;  5.9314013E+00;  4.0000000E+04;  0.0000000E+00;  3.9194281E+04; -1.2722167E-01;  0.0000000E+00;  1.3770527E-01;  5.1031021E+03;
  1.4195566E+00;  9.9999998E-03;  9.0636544E-02;9667;  1.2827713E+00;  0.0000000E+00;  1.3064994E-02;  9.9946521E+02;  1.0997646E-01; -4.0313971E+02;3;  3.4679302E+01;  0.0000000E+00; -1.6052190E+00;0;  4.3580830E-03;  3.3708238E+04;  0.0000000E+00;  2.7281134E+00;  4.0000000E+04;  0.0000000E+00;  3.9192473E+04; -1.2808527E-01;  0.0000000E+00;  1.3244335E-01;  3.1825891E+03;
  1.4196293E+00;  9.9999998E-03;  8.0582798E-02;9666;  1.2800440E+00;  0.0000000E+00;  1.2359627E-02;  9.9940509E+02;  1.0997739E-01; -4.4843759E+02;3;  3.4916130E+01;  0.0000000E+00; -1.1223813E+00;0; -1.3424605E-03;  3.3701402E+04;  0.0000000E+00;  7.5038487E-01;  4.0000000E+04;  0.0000000E+00;  3.9194062E+04; -1.3060084E-01;  0.0000000E+00;  1.2925838E-01;  2.1380947E+03;
  1.4196444E+00;  9.9999998E-03;  7.0526749E-02;9665;  1.2777507E+00;  0.0000000E+00;  1.1172379E-02;  9.9929669E+02;  1.0997812E-01; -5.3015393E+02;3;  3.5113522E+01;  0.0000000E+00; -7.5385630E-01;0; -6.3793063E-03;  3.3689805E+04;  0.0000000E+00; -3.1613678E-01;  4.0000000E+04;  0.0000000E+00;  3.9197559E+04; -1.3423596E-01;  0.0000000E+00;  1.2785666E-01;  1.6307137E+03;
  1.4275767E+00;  9.9999998E-03;  2.3255335E-01;9728;  1.3907325E+00;  0.0000000E+00;  3.6730271E-02;  1.0030705E+03;  1.0962959E-01;  2.2912571E+03;3;  3.8014622E+01;  0.0000000E+00;  2.8205295E+00;0;  4.3476933E-01;  3.4183191E+04;  0.0000000E+00;  1.3729684E+01;  4.0000000E+04;  0.0000000E+00;  3.9178922E+04;  2.0236896E-01;  0.0000000E+00;  2.3240036E-01;  4.4836777E+03;
  1.4278369E+00;  9.9999998E-03;  2.2250797E-01;9727;  1.3802499E+00;  0.0000000E+00;  3.3537526E-02;  1.0015744E+03;  1.0963400E-01;  1.1744460E+03;3;  3.7814339E+01;  0.0000000E+00;  3.0882754E+00;0;  3.3978370E-01;  3.4084609E+04;  0.0000000E+00;  4.5665473E-01;  4.0000000E+04;  0.0000000E+00;  3.9178070E+04;  1.0513311E-01;  0.0000000E+00;  2.3465058E-01;  5.0310446E+02;
  1.4280119E+00;  9.9999998E-03;  2.1245542E-01;9726;  1.3703482E+00;  0.0000000E+00;  3.0520674E-02;  1.0005315E+03;  1.0963217E-01;  3.9634021E+02;3;  3.8285809E+01;  0.0000000E+00;  3.2023492E+00;0;  2.6613289E-01;  3.4021125E+04;  0.0000000E+00;  2.2856472E+00;  4.0000000E+04;  0.0000000E+00;  3.9171031E+04;  2.8129779E-02;  0.0000000E+00;  2.3800310E-01;  2.8638467E+03;
  1.4281924E+00;  9.9999998E-03;  2.0239718E-01;9725;  1.3599497E+00;  0.0000000E+00;  2.7453078E-02;  9.9924585E+02;  1.0963086E-01; -5.6232489E+02;3;  3.8747967E+01;  0.0000000E+00;  3.2408392E+00;0;  1.9708884E-01;  3.3945242E+04;  0.0000000E+00;  1.3742632E+01;  4.0000000E+04;  0.0000000E+00;  3.9158176E+04; -4.0314194E-02;  0.0000000E+00;  2.3740304E-01;  1.0492487E+04;
  1.4283928E+00;  9.9999998E-03;  1.9233301E-01;9724;  1.3488976E+00;  0.0000000E+00;  2.4090813E-02;  9.9792871E+02;  1.0963073E-01; -1.5439481E+03;3;  3.8781288E+01;  0.0000000E+00;  2.8138905E+00;0;  1.2945057E-01;  3.3870266E+04;  0.0000000E+00;  2.6459211E+01;  4.0000000E+04;  0.0000000E+00;  3.9142223E+04; -1.0025786E-01;  0.0000000E+00;  2.2970843E-01;  1.8262287E+04;
  1.4285918E+00;  9.9999998E-03;  1.8225850E-01;9723;  1.3379583E+00;  0.0000000E+00;  2.0926377E-02;  9.9700543E+02;  1.0962880E-01; -2.2316228E+03;3;  3.8579563E+01;  0.0000000E+00;  2.3447008E+00;0;  7.4794874E-02;  3.3822660E+04;  0.0000000E+00;  3.6385857E+01;  4.0000000E+04;  0.0000000E+00;  3.9127836E+04; -1.4459968E-01;  0.0000000E+00;  2.1939455E-01;  2.4170467E+04;
  1.4287612E+00;  9.9999998E-03;  1.7215666E-01;9722;  1.3278048E+00;  0.0000000E+00;  1.8573623E-02;  9.9683508E+02;  1.0962622E-01; -2.3579919E+03;3;  3.7782486E+01;  0.0000000E+00;  1.5311965E+00;0;  3.9641693E-02;  3.3816805E+04;  0.0000000E+00;  4.3018471E+01;  4.0000000E+04;  0.0000000E+00;  3.9122891E+04; -1.7028518E-01;  0.0000000E+00;  2.0992687E-01;  2.7904188E+04;
  1.4288852E+00;  9.9999998E-03;  1.6199708E-01;9721;  1.3187177E+00;  0.0000000E+00;  1.7062198E-02;  9.9743689E+02;  1.0962094E-01; -1.9093284E+03;3;  3.6640701E+01;  0.0000000E+00;  5.3965378E-01;0;  2.0054683E-02;  3.3849266E+04;  0.0000000E+00;  4.6737434E+01;  4.0000000E+04;  0.0000000E+00;  3.9134578E+04; -1.7980501E-01;  0.0000000E+00;  1.9985969E-01;  2.9690137E+04;
  1.4289911E+00;  9.9999998E-03;  1.5177368E-01;9720;  1.3106172E+00;  0.0000000E+00;  1.5690550E-02;  9.9835980E+02;  1.0961520E-01; -1.2216511E+03;3;  3.5403839E+01;  0.0000000E+00; -3.8145405E-01;0;  7.4769109E-03;  3.3895926E+04;  0.0000000E+00;  4.6588383E+01;  4.0000000E+04;  0.0000000E+00;  3.9154738E+04; -1.7870520E-01;  0.0000000E+00;  1.8618211E-01;  2.9132430E+04;
  1.4291254E+00;  9.9999998E-03;  1.4151788E-01;9719;  1.3035871E+00;  0.0000000E+00;  1.4237476E-02;  9.9910730E+02;  1.0961203E-01; -6.6477826E+02;3;  3.4690517E+01;  0.0000000E+00; -1.1018988E+00;0; -1.0981560E-03;  3.3934652E+04;  0.0000000E+00;  4.2006569E+01;  4.0000000E+04;  0.0000000E+00;  3.9169520E+04; -1.7140806E-01;  0.0000000E+00;  1.7030990E-01;  2.6077365E+04;
  1.4293213E+00;  9.9999998E-03;  1.3127244E-01;9718;  1.2976795E+00;  0.0000000E+00;  1.2913770E-02;  9.9944214E+02;  1.0960793E-01; -4.1530490E+02;3;  3.4303780E+01;  0.0000000E+00; -1.6462655E+00;0; -6.6863745E-03;  3.3956316E+04;  0.0000000E+00;  3.4214279E+01;  4.0000000E+04;  0.0000000E+00;  3.9172340E+04; -1.6149569E-01;  0.0000000E+00;  1.5480931E-01;  2.1285637E+04;
  1.4295810E+00;  9.9999998E-03;  1.2106555E-01;9717;  1.2927431E+00;  0.0000000E+00;  1.1905544E-02;  9.9942816E+02;  1.0960279E-01; -4.2558398E+02;3;  3.4266159E+01;  0.0000000E+00; -1.8286853E+00;0; -1.0828078E-02;  3.3963625E+04;  0.0000000E+00;  2.5379869E+01;  4.0000000E+04;  0.0000000E+00;  3.9165414E+04; -1.5191552E-01;  0.0000000E+00;  1.4108744E-01;  1.5980387E+04;
  1.4305056E+00;  9.9999998E-03;  7.0563845E-02;9712;  1.2763026E+00;  0.0000000E+00;  9.0262229E-03;  9.9903497E+02;  1.0959132E-01; -7.1727856E+02;3;  3.5562588E+01;  0.0000000E+00; -7.0705450E-01;0; -3.0622356E-02;  3.3965422E+04;  0.0000000E+00;  7.9771113E-01;  4.0000000E+04;  0.0000000E+00;  3.9135676E+04; -1.3763946E-01;  0.0000000E+00;  1.0701711E-01;  1.7169229E+03;
  1.4304529E+00;  9.9999998E-03;  8.0634288E-02;9713;  1.2787567E+00;  0.0000000E+00;  9.6551199E-03;  9.9905719E+02;  1.0959136E-01; -7.0084790E+02;3;  3.5392826E+01;  0.0000000E+00; -9.8628885E-01;0; -2.7109891E-02;  3.3968285E+04;  0.0000000E+00;  2.7675354E+00;  4.0000000E+04;  0.0000000E+00;  3.9135391E+04; -1.3651305E-01;  0.0000000E+00;  1.0940316E-01;  2.6917683E+03;
  1.4298669E+00;  9.9999998E-03;  1.1091048E-01;9716;  1.2885160E+00;  0.0000000E+00;  1.1151138E-02;  9.9928522E+02;  1.0959952E-01; -5.3175226E+02;3;  3.4560253E+01;  0.0000000E+00; -1.7133176E+00;0; -1.4867350E-02;  3.3965008E+04;  0.0000000E+00;  1.7259695E+01;  4.0000000E+04;  0.0000000E+00;  3.9154570E+04; -1.4442156E-01;  0.0000000E+00;  1.2955421E-01;  1.1142656E+04;
  1.4303277E+00;  9.9999998E-03;  9.0709403E-02;9714;  1.2816012E+00;  0.0000000E+00;  1.0134179E-02;  9.9908801E+02;  1.0959304E-01; -6.7805676E+02;3;  3.5131680E+01;  0.0000000E+00; -1.2862384E+00;0; -2.3165114E-02;  3.3968008E+04;  0.0000000E+00;  5.9826894E+00;  4.0000000E+04;  0.0000000E+00;  3.9137996E+04; -1.3694923E-01;  0.0000000E+00;  1.1378411E-01;  4.4917456E+03;
  1.4301281E+00;  9.9999998E-03;  1.0079733E-01;9715;  1.2848384E+00;  0.0000000E+00;  1.0601885E-02;  9.9915869E+02;  1.0959622E-01; -6.2566931E+02;3;  3.4857754E+01;  0.0000000E+00; -1.5240744E+00;0; -1.9003302E-02;  3.3966047E+04;  0.0000000E+00;  1.0745202E+01;  4.0000000E+04;  0.0000000E+00;  3.9144551E+04; -1.3946085E-01;  0.0000000E+00;  1.2045754E-01;  7.2792783E+03;
  1.4384578E+00;  9.9999998E-03;  2.2263372E-01;9773;  1.3819652E+00;  0.0000000E+00;  3.0862089E-02;  1.0030703E+03;  1.0929647E-01;  2.2565867E+03;3;  3.9789940E+01;  0.0000000E+00;  5.1621919E+00;0;  3.9551193E-01;  3.4434941E+04;  0.0000000E+00;  1.3738167E+01;  4.0000000E+04;  0.0000000E+00;  3.9130934E+04;  1.6330543E-01;  0.0000000E+00;  2.3220648E-01;  4.0965630E+03;
  1.4386983E+00;  9.9999998E-03;  2.1259071E-01;9772;  1.3708498E+00;  0.0000000E+00;  2.6799915E-02;  1.0016063E+03;  1.0930072E-01;  1.1800925E+03;3;  3.9857182E+01;  0.0000000E+00;  5.0995326E+00;0;  2.8614876E-01;  3.4341875E+04;  0.0000000E+00;  9.7754113E-02;  4.0000000E+04;  0.0000000E+00;  3.9124785E+04;  6.4849153E-02;  0.0000000E+00;  2.2129960E-01;  3.9401804E+02;
  1.4388628E+00;  9.9999998E-03;  2.0253932E-01;9771;  1.3601955E+00;  0.0000000E+00;  2.3380455E-02;  1.0005911E+03;  1.0929987E-01;  4.3421817E+02;3;  4.0125950E+01;  0.0000000E+00;  4.9011135E+00;0;  2.0227279E-01;  3.4282938E+04;  0.0000000E+00;  1.5593607E+00;  4.0000000E+04;  0.0000000E+00;  3.9113285E+04; -1.4987079E-02;  0.0000000E+00;  2.1725987E-01;  2.1758896E+03;
  1.4390264E+00;  9.9999998E-03;  1.9248061E-01;9770;  1.3491230E+00;  0.0000000E+00;  2.0073961E-02;  9.9943127E+02;  1.0929824E-01; -4.1765536E+02;3;  4.0077011E+01;  0.0000000E+00;  4.2916789E+00;0;  1.2506311E-01;  3.4217379E+04;  0.0000000E+00;  1.2523341E+01;  4.0000000E+04;  0.0000000E+00;  3.9097508E+04; -8.5878700E-02;  0.0000000E+00;  2.1094181E-01;  8.7509756E+03;
  1.4392079E+00;  9.9999998E-03;  1.8241321E-01;9769;  1.3380786E+00;  0.0000000E+00;  1.6987342E-02;  9.9823737E+02;  1.0929721E-01; -1.2940243E+03;3;  3.9684586E+01;  0.0000000E+00;  3.5787225E+00;0;  5.9625715E-02;  3.4152000E+04;  0.0000000E+00;  2.5006826E+01;  4.0000000E+04;  0.0000000E+00;  3.9080305E+04; -1.4237747E-01;  0.0000000E+00;  2.0200318E-01;  1.5600870E+04;
  1.4393979E+00;  9.9999998E-03;  1.7233211E-01;9768;  1.3275280E+00;  0.0000000E+00;  1.4284851E-02;  9.9735577E+02;  1.0929582E-01; -1.9407070E+03;3;  3.8785271E+01;  0.0000000E+00;  2.5291998E+00;0;  1.0128856E-02;  3.4105531E+04;  0.0000000E+00;  3.4641891E+01;  4.0000000E+04;  0.0000000E+00;  3.9065914E+04; -1.8099783E-01;  0.0000000E+00;  1.9112669E-01;  2.0728693E+04;
  1.4395798E+00;  9.9999998E-03;  1.6221960E-01;9767;  1.3180411E+00;  0.0000000E+00;  1.2390126E-02;  9.9706171E+02;  1.0929319E-01; -2.1559224E+03;3;  3.7355556E+01;  0.0000000E+00;  1.3387854E+00;0; -1.9602552E-02;  3.4089945E+04;  0.0000000E+00;  4.0736813E+01;  4.0000000E+04;  0.0000000E+00;  3.9062281E+04; -2.0012414E-01;  0.0000000E+00;  1.8052159E-01;  2.3775648E+04;
  1.4397426E+00;  9.9999998E-03;  1.5205717E-01;9766;  1.3098644E+00;  0.0000000E+00;  1.1222552E-02;  9.9737299E+02;  1.0929073E-01; -1.9270745E+03;3;  3.6117004E+01;  0.0000000E+00;  2.7202037E-01;0; -3.4136370E-02;  3.4104188E+04;  0.0000000E+00;  4.3598083E+01;  4.0000000E+04;  0.0000000E+00;  3.9071516E+04; -2.0315990E-01;  0.0000000E+00;  1.6902353E-01;  2.4946916E+04;
  1.4398917E+00;  9.9999998E-03;  1.4184564E-01;9765;  1.3029234E+00;  0.0000000E+00;  1.0408864E-02;  9.9799506E+02;  1.0928529E-01; -1.4704036E+03;3;  3.5207634E+01;  0.0000000E+00; -5.1391363E-01;0; -4.0424585E-02;  3.4135383E+04;  0.0000000E+00;  4.3011871E+01;  4.0000000E+04;  0.0000000E+00;  3.9086180E+04; -1.9600886E-01;  0.0000000E+00;  1.5558428E-01;  2.4250791E+04;
  1.4400505E+00;  9.9999998E-03;  1.3160372E-01;9764;  1.2970386E+00;  0.0000000E+00;  9.7111817E-03;  9.9859796E+02;  1.0928193E-01; -1.0279935E+03;3;  3.4815891E+01;  0.0000000E+00; -9.4932622E-01;0; -4.3174252E-02;  3.4167102E+04;  0.0000000E+00;  3.8935783E+01;  4.0000000E+04;  0.0000000E+00;  3.9098047E+04; -1.8420480E-01;  0.0000000E+00;  1.4103055E-01;  2.1779482E+04;
  1.4402406E+00;  9.9999998E-03;  1.2135755E-01;9763;  1.2919922E+00;  0.0000000E+00;  9.0512317E-03;  9.9895416E+02;  1.0927816E-01; -7.6660315E+02;3;  3.4778011E+01;  0.0000000E+00; -1.1636909E+00;0; -4.4936597E-02;  3.4188914E+04;  0.0000000E+00;  3.2293827E+01;  4.0000000E+04;  0.0000000E+00;  3.9102555E+04; -1.7177773E-01;  0.0000000E+00;  1.2684113E-01;  1.8061713E+04;
  1.4404678E+00;  9.9999998E-03;  1.1113761E-01;9762;  1.2876256E+00;  0.0000000E+00;  8.4368214E-03;  9.9902307E+02;  1.0927456E-01; -7.1585217E+02;3;  3.5023834E+01;  0.0000000E+00; -1.0866634E+00;0; -4.6727240E-02;  3.4198406E+04;  0.0000000E+00;  2.4515959E+01;  4.0000000E+04;  0.0000000E+00;  3.9099117E+04; -1.6093972E-01;  0.0000000E+00;  1.1421248E-01;  1.3834115E+04;
  1.4407129E+00;  9.9999998E-03;  1.0096273E-01;9761;  1.2838140E+00;  0.0000000E+00;  7.9047261E-03;  9.9892896E+02;  1.0927216E-01; -7.8452734E+02;3;  3.5259144E+01;  0.0000000E+00; -1.0447110E+00;0; -4.8764028E-02;  3.4200594E+04;  0.0000000E+00;  1.7033237E+01;  4.0000000E+04;  0.0000000E+00;  3.9090680E+04; -1.5260868E-01;  0.0000000E+00;  1.0384465E-01;  9.8108564E+03;
  1.4409425E+00;  9.9999998E-03;  9.0828843E-02;9760;  1.2804749E+00;  0.0000000E+00;  7.4653281E-03;  9.9879315E+02;  1.0927005E-01; -8.8372266E+02;3;  3.5529316E+01;  0.0000000E+00; -9.2256594E-01;0; -5.0964460E-02;  3.4200277E+04;  0.0000000E+00;  1.0804836E+01;  4.0000000E+04;  0.0000000E+00;  3.9081723E+04; -1.4690162E-01;  0.0000000E+00;  9.5937163E-02;  6.4708203E+03;
  1.4412360E+00;  9.9999998E-03;  7.0624039E-02;9758;  1.2749952E+00;  0.0000000E+00;  6.6462685E-03;  9.9867706E+02;  1.0926757E-01; -9.6826971E+02;3;  3.6004333E+01;  0.0000000E+00; -5.3188515E-01;0; -5.5197686E-02;  3.4201070E+04;  0.0000000E+00;  3.0200405E+00;  4.0000000E+04;  0.0000000E+00;  3.9071516E+04; -1.4214264E-01;  0.0000000E+00;  8.6944953E-02;  2.3458582E+03;
  1.4411246E+00;  9.9999998E-03;  8.0720142E-02;9759;  1.2775402E+00;  0.0000000E+00;  7.0610964E-03;  9.9869727E+02;  1.0926805E-01; -9.5364142E+02;3;  3.5789440E+01;  0.0000000E+00; -7.2455031E-01;0; -5.3189643E-02;  3.4200270E+04;  0.0000000E+00;  6.1645937E+00;  4.0000000E+04;  0.0000000E+00;  3.9075047E+04; -1.4357209E-01;  0.0000000E+00;  9.0382449E-02;  3.9902979E+03;
  1.4493002E+00;  9.9999998E-03;  2.1271195E-01;9816;  1.3722252E+00;  0.0000000E+00;  2.3558848E-02;  1.0031479E+03;  1.0901348E-01;  2.2749353E+03;3;  4.1532036E+01;  0.0000000E+00;  7.0750256E+00;0;  3.3901685E-01;  3.4666562E+04;  0.0000000E+00;  1.5027301E+01;  4.0000000E+04;  0.0000000E+00;  3.9078145E+04;  1.3228138E-01;  0.0000000E+00;  2.0673548E-01;  4.2862285E+03;
  1.4495305E+00;  9.9999998E-03;  2.0267215E-01;9815;  1.3603947E+00;  0.0000000E+00;  1.8971009E-02;  1.0016554E+03;  1.0901777E-01;  1.1958602E+03;3;  4.1373566E+01;  0.0000000E+00;  6.3353572E+00;0;  2.1667260E-01;  3.4576160E+04;  0.0000000E+00;  2.8829515E-01;  4.0000000E+04;  0.0000000E+00;  3.9065145E+04;  2.9358583E-02;  0.0000000E+00;  1.8731402E-01;  7.6259753E+02;
  1.4496896E+00;  9.9999998E-03;  1.9262016E-01;9814;  1.3489980E+00;  0.0000000E+00;  1.5339166E-02;  1.0006844E+03;  1.0901757E-01;  4.9428537E+02;3;  4.1001469E+01;  0.0000000E+00;  5.5864143E+00;0;  1.2256306E-01;  3.4522602E+04;  0.0000000E+00;  1.7621475E-01;  4.0000000E+04;  0.0000000E+00;  3.9050234E+04; -5.5552389E-02;  0.0000000E+00;  1.7811546E-01;  1.2808596E+03;
  1.4498414E+00;  9.9999998E-03;  1.8255723E-01;9813;  1.3379731E+00;  0.0000000E+00;  1.2403360E-02;  9.9968195E+02;  1.0901609E-01; -2.2965092E+02;3;  4.0671444E+01;  0.0000000E+00;  4.6708789E+00;0;  4.8438601E-02;  3.4468957E+04;  0.0000000E+00;  9.6743650E+00;  4.0000000E+04;  0.0000000E+00;  3.9032797E+04; -1.2365624E-01;  0.0000000E+00;  1.7209484E-01;  6.3937139E+03;
  1.4500095E+00;  9.9999998E-03;  1.7248362E-01;9812;  1.3273975E+00;  0.0000000E+00;  9.9642640E-03;  9.9863800E+02;  1.0901455E-01; -9.8319122E+02;3;  3.9815369E+01;  0.0000000E+00;  3.5496202E+00;0; -9.5511228E-03;  3.4413551E+04;  0.0000000E+00;  2.1189190E+01;  4.0000000E+04;  0.0000000E+00;  3.9014664E+04; -1.7446174E-01;  0.0000000E+00;  1.6491061E-01;  1.2073645E+04;
  1.4503729E+00;  9.9999998E-03;  1.5227351E-01;9810;  1.3092058E+00;  0.0000000E+00;  6.8434961E-03;  9.9745050E+02;  1.0901224E-01; -1.8393026E+03;3;  3.6895859E+01;  0.0000000E+00;  1.0346934E+00;0; -7.1849123E-02;  3.4350113E+04;  0.0000000E+00;  3.6174107E+01;  4.0000000E+04;  0.0000000E+00;  3.8996117E+04; -2.1809985E-01;  0.0000000E+00;  1.4625072E-01;  1.9021059E+04;
  1.4501897E+00;  9.9999998E-03;  1.6239382E-01;9811;  1.3176897E+00;  0.0000000E+00;  8.0666915E-03;  9.9782361E+02;  1.0901362E-01; -1.5705928E+03;3;  3.8396305E+01;  0.0000000E+00;  2.3273671E+00;0; -4.9637035E-02;  3.4370965E+04;  0.0000000E+00;  3.0367016E+01;  4.0000000E+04;  0.0000000E+00;  3.9000555E+04; -2.0568846E-01;  0.0000000E+00;  1.5605143E-01;  1.6429893E+04;
  1.4505512E+00;  9.9999998E-03;  1.4211076E-01;9809;  1.3021269E+00;  0.0000000E+00;  6.2781284E-03;  9.9752338E+02;  1.0900882E-01; -1.7861887E+03;3;  3.5731892E+01;  0.0000000E+00;  4.6099655E-02;0; -7.9807922E-02;  3.4351438E+04;  0.0000000E+00;  3.8762047E+01;  4.0000000E+04;  0.0000000E+00;  3.9002059E+04; -2.1539737E-01;  0.0000000E+00;  1.3558945E-01;  1.9963986E+04;
  1.4507251E+00;  9.9999998E-03;  1.3190845E-01;9808;  1.2962171E+00;  0.0000000E+00;  6.0130623E-03;  9.9786835E+02;  1.0900519E-01; -1.5369342E+03;3;  3.5221851E+01;  0.0000000E+00; -4.0529636E-01;0; -8.0981947E-02;  3.4367078E+04;  0.0000000E+00;  3.8177959E+01;  4.0000000E+04;  0.0000000E+00;  3.9012137E+04; -2.0437787E-01;  0.0000000E+00;  1.2339593E-01;  1.9372332E+04;
  1.4508996E+00;  9.9999998E-03;  1.2167412E-01;9807;  1.2911429E+00;  0.0000000E+00;  5.7901279E-03;  9.9828687E+02;  1.0900170E-01; -1.2348468E+03;3;  3.5260250E+01;  0.0000000E+00; -5.2438730E-01;0; -8.0318503E-02;  3.4388195E+04;  0.0000000E+00;  3.4881218E+01;  4.0000000E+04;  0.0000000E+00;  3.9022074E+04; -1.9073810E-01;  0.0000000E+00;  1.1041959E-01;  1.7532648E+04;
  1.4510833E+00;  9.9999998E-03;  1.1142800E-01;9806;  1.2867187E+00;  0.0000000E+00;  5.5299718E-03;  9.9859149E+02;  1.0899832E-01; -1.0149535E+03;3;  3.5429756E+01;  0.0000000E+00; -5.2775627E-01;0; -7.9543546E-02;  3.4405754E+04;  0.0000000E+00;  2.9522551E+01;  4.0000000E+04;  0.0000000E+00;  3.9027516E+04; -1.7755561E-01;  0.0000000E+00;  9.8012060E-02;  1.4794146E+04;
  1.4512787E+00;  9.9999998E-03;  1.0120144E-01;9805;  1.2828249E+00;  0.0000000E+00;  5.2352101E-03;  9.9869910E+02;  1.0899601E-01; -9.3712506E+02;3;  3.5681370E+01;  0.0000000E+00; -5.0878489E-01;0; -7.9241000E-02;  3.4415613E+04;  0.0000000E+00;  2.2984016E+01;  4.0000000E+04;  0.0000000E+00;  3.9025828E+04; -1.6645007E-01;  0.0000000E+00;  8.7209068E-02;  1.1576678E+04;
  1.4518143E+00;  9.9999998E-03;  7.0714168E-02;9802;  1.2737426E+00;  0.0000000E+00;  4.3499488E-03;  9.9842004E+02;  1.0899360E-01; -1.1370961E+03;3;  3.6403408E+01;  0.0000000E+00; -2.5052297E-01;0; -8.0368064E-02;  3.4415656E+04;  0.0000000E+00;  6.4904819E+00;  4.0000000E+04;  0.0000000E+00;  3.9005582E+04; -1.4808309E-01;  0.0000000E+00;  6.7715026E-02;  3.5815630E+03;
  1.4516593E+00;  9.9999998E-03;  8.0854580E-02;9803;  1.2763777E+00;  0.0000000E+00;  4.6466230E-03;  9.9853485E+02;  1.0899387E-01; -1.0547469E+03;3;  3.6180779E+01;  0.0000000E+00; -3.5865024E-01;0; -7.9811111E-02;  3.4418316E+04;  0.0000000E+00;  1.0780411E+01;  4.0000000E+04;  0.0000000E+00;  3.9011559E+04; -1.5191600E-01;  0.0000000E+00;  7.2104886E-02;  5.6677412E+03;
  1.4514756E+00;  9.9999998E-03;  9.1012806E-02;9804;  1.2793961E+00;  0.0000000E+00;  4.9376129E-03;  9.9865039E+02;  1.0899467E-01; -9.7188611E+02;3;  3.5935474E+01;  0.0000000E+00; -4.5762390E-01;0; -7.9372615E-02;  3.4419203E+04;  0.0000000E+00;  1.6412491E+01;  4.0000000E+04;  0.0000000E+00;  3.9019219E+04; -1.5791784E-01;  0.0000000E+00;  7.8545228E-02;  8.3920576E+03;
  1.4611493E+00;  9.9999998E-03;  1.4231306E-01;9851;  1.3015065E+00;  0.0000000E+00;  2.1320903E-03;  9.9794250E+02;  1.0877321E-01; -1.4570121E+03;3;  3.6290066E+01;  0.0000000E+00;  6.6741103E-01;0; -1.1394218E-01;  3.4597414E+04;  0.0000000E+00;  2.8990257E+01;  4.0000000E+04;  0.0000000E+00;  3.8924801E+04; -2.2404137E-01;  0.0000000E+00;  1.1009919E-01;  1.3818510E+04;
  1.4609778E+00;  9.9999998E-03;  1.5244263E-01;9852;  1.3086374E+00;  0.0000000E+00;  2.3404169E-03;  9.9828473E+02;  1.0877448E-01; -1.2150233E+03;3;  3.7497223E+01;  0.0000000E+00;  1.5010905E+00;0; -1.0359436E-01;  3.4616176E+04;  0.0000000E+00;  2.3093006E+01;  4.0000000E+04;  0.0000000E+00;  3.8929770E+04; -2.1962768E-01;  0.0000000E+00;  1.1603332E-01;  1.1462541E+04;
  1.4608098E+00;  9.9999998E-03;  1.6254182E-01;9853;  1.3171538E+00;  0.0000000E+00;  3.2117716E-03;  9.9898376E+02;  1.0877624E-01; -7.2010315E+02;3;  3.9129513E+01;  0.0000000E+00;  2.9979029E+00;0; -7.6764330E-02;  3.4650785E+04;  0.0000000E+00;  1.4659763E+01;  4.0000000E+04;  0.0000000E+00;  3.8944133E+04; -1.9720516E-01;  0.0000000E+00;  1.2044083E-01;  7.8911694E+03;
  1.4613200E+00;  9.9999998E-03;  1.3214457E-01;9850;  1.2954947E+00;  0.0000000E+00;  2.2145382E-03;  9.9793878E+02;  1.0877114E-01; -1.4592220E+03;3;  3.5734779E+01;  0.0000000E+00;  2.0732996E-01;0; -1.1588380E-01;  3.4594379E+04;  0.0000000E+00;  3.2125931E+01;  4.0000000E+04;  0.0000000E+00;  3.8929117E+04; -2.1741827E-01;  0.0000000E+00;  1.0153447E-01;  1.4905615E+04;
  1.4606509E+00;  9.9999998E-03;  1.7262277E-01;9854;  1.3268764E+00;  0.0000000E+00;  4.8399493E-03;  9.9987085E+02;  1.0877784E-01; -9.1548912E+01;3;  4.0610851E+01;  0.0000000E+00;  4.4132032E+00;0; -2.9998966E-02;  3.4695059E+04;  0.0000000E+00;  5.0744596E+00;  4.0000000E+04;  0.0000000E+00;  3.8963273E+04; -1.5429211E-01;  0.0000000E+00;  1.2429314E-01;  3.6307168E+03;
  1.4623058E+00;  9.9999998E-03;  7.0864499E-02;9844;  1.2725594E+00;  0.0000000E+00;  2.0723119E-03;  9.9843567E+02;  1.0876184E-01; -1.1054581E+03;3;  3.6757156E+01;  0.0000000E+00;  1.2229291E-01;0; -1.0641754E-01;  3.4627227E+04;  0.0000000E+00;  1.0471939E+01;  4.0000000E+04;  0.0000000E+00;  3.8934996E+04; -1.5546328E-01;  0.0000000E+00;  4.9045745E-02;  4.8021045E+03;
  1.4621580E+00;  9.9999998E-03;  8.1050813E-02;9845;  1.2752702E+00;  0.0000000E+00;  2.1855675E-03;  9.9856049E+02;  1.0876227E-01; -1.0175307E+03;3;  3.6559246E+01;  0.0000000E+00;  1.0894822E-01;0; -1.0734534E-01;  3.4630688E+04;  0.0000000E+00;  1.5210672E+01;  4.0000000E+04;  0.0000000E+00;  3.8940762E+04; -1.6134040E-01;  0.0000000E+00;  5.3995065E-02;  6.8735503E+03;
  1.4620004E+00;  9.9999998E-03;  9.1249980E-02;9846;  1.2783568E+00;  0.0000000E+00;  2.2899006E-03;  9.9861005E+02;  1.0876246E-01; -9.8280017E+02;3;  3.6328316E+01;  0.0000000E+00;  9.8421074E-02;0; -1.0863072E-01;  3.4628477E+04;  0.0000000E+00;  2.0654314E+01;  4.0000000E+04;  0.0000000E+00;  3.8946258E+04; -1.6945611E-01;  0.0000000E+00;  6.0825385E-02;  9.2538564E+03;
  1.4618332E+00;  9.9999998E-03;  1.0147253E-01;9847;  1.2818599E+00;  0.0000000E+00;  2.3681251E-03;  9.9855249E+02;  1.0876387E-01; -1.0237794E+03;3;  3.6073502E+01;  0.0000000E+00;  8.1662670E-02;0; -1.1031728E-01;  3.4622062E+04;  0.0000000E+00;  2.5969038E+01;  4.0000000E+04;  0.0000000E+00;  3.8948316E+04; -1.7988759E-01;  0.0000000E+00;  6.9570310E-02;  1.1617871E+04;
  1.4616618E+00;  9.9999998E-03;  1.1171104E-01;9848;  1.2858304E+00;  0.0000000E+00;  2.3822619E-03;  9.9837311E+02;  1.0876618E-01; -1.1510287E+03;3;  3.5846951E+01;  0.0000000E+00;  7.1171336E-02;0; -1.1240507E-01;  3.4612312E+04;  0.0000000E+00;  3.0131824E+01;  4.0000000E+04;  0.0000000E+00;  3.8944668E+04; -1.9227678E-01;  0.0000000E+00;  7.9871707E-02;  1.3557187E+04;
  1.4614904E+00;  9.9999998E-03;  1.2194088E-01;9849;  1.2903430E+00;  0.0000000E+00;  2.3303214E-03;  9.9813470E+02;  1.0876881E-01; -1.3200756E+03;3;  3.5698570E+01;  0.0000000E+00;  1.0049932E-01;0; -1.1451598E-01;  3.4601645E+04;  0.0000000E+00;  3.2388870E+01;  4.0000000E+04;  0.0000000E+00;  3.8937164E+04; -2.0547915E-01;  0.0000000E+00;  9.0963170E-02;  1.4749723E+04;
  1.4604999E+00;  9.9999998E-03;  1.8269205E-01;9855;  1.3376639E+00;  0.0000000E+00;  7.3111760E-03;  1.0007751E+03;  1.0877939E-01;  5.4952686E+02;3;  4.1513237E+01;  0.0000000E+00;  5.4660182E+00;0;  4.0439293E-02;  3.4741301E+04;  0.0000000E+00; -1.5264019E+00;  4.0000000E+04;  0.0000000E+00;  3.8981770E+04; -8.9204505E-02;  0.0000000E+00;  1.2964380E-01;  8.1069574E+02;
  1.4601120E+00;  9.9999998E-03;  2.0278439E-01;9857;  1.3614545E+00;  0.0000000E+00;  1.5207238E-02;  1.0032635E+03;  1.0877525E-01;  2.3153330E+03;3;  4.2875786E+01;  0.0000000E+00;  7.8549199E+00;0;  2.6183605E-01;  3.4878617E+04;  0.0000000E+00;  1.8109047E+01;  4.0000000E+04;  0.0000000E+00;  3.9020055E+04;  1.0142354E-01;  0.0000000E+00;  1.6041252E-01;  5.0331279E+03;
  1.4603384E+00;  9.9999998E-03;  1.9274779E-01;9856;  1.3491464E+00;  0.0000000E+00;  1.0599863E-02;  1.0017182E+03;  1.0877950E-01;  1.2184902E+03;3;  4.1970398E+01;  0.0000000E+00;  6.7242441E+00;0;  1.3369492E-01;  3.4790949E+04;  0.0000000E+00;  1.4595222E+00;  4.0000000E+04;  0.0000000E+00;  3.8999188E+04; -4.7192289E-03;  0.0000000E+00;  1.3841414E-01;  1.0851914E+03;
  1.4711262E+00;  9.9999998E-03;  1.8280888E-01;9894;  1.3379432E+00;  0.0000000E+00;  2.7122516E-03;  1.0018103E+03;  1.0858034E-01;  1.2582316E+03;3;  4.2390724E+01;  0.0000000E+00;  6.3871665E+00;0;  5.3544834E-02;  3.4988090E+04;  0.0000000E+00;  4.7174292E+00;  4.0000000E+04;  0.0000000E+00;  3.8928773E+04; -3.1633534E-02;  0.0000000E+00;  8.5178368E-02;  1.6480846E+03;
  1.4717586E+00;  9.9999998E-03;  1.4246780E-01;9890;  1.3008978E+00;  0.0000000E+00; -2.2442427E-03;  9.9877600E+02;  1.0857614E-01; -8.4966278E+02;3;  3.6737259E+01;  0.0000000E+00;  1.1548249E+00;0; -1.4232035E-01;  3.4841188E+04;  0.0000000E+00;  1.4100337E+01;  4.0000000E+04;  0.0000000E+00;  3.8857473E+04; -2.1952637E-01;  0.0000000E+00;  7.7206016E-02;  6.6728477E+03;
  1.4716011E+00;  9.9999998E-03;  1.5257937E-01;9891;  1.3081052E+00;  0.0000000E+00; -2.2834425E-03;  9.9934241E+02;  1.0857767E-01; -4.5664536E+02;3;  3.7962162E+01;  0.0000000E+00;  1.9597385E+00;0; -1.2771520E-01;  3.4868043E+04;  0.0000000E+00;  6.9297471E+00;  4.0000000E+04;  0.0000000E+00;  3.8871012E+04; -2.0546143E-01;  0.0000000E+00;  7.7746220E-02;  3.9490085E+03;
  1.4714482E+00;  9.9999998E-03;  1.6267230E-01;9892;  1.3167601E+00;  0.0000000E+00; -1.6181781E-03;  1.0000573E+03;  1.0857958E-01;  3.9745331E+01;3;  3.9803917E+01;  0.0000000E+00;  3.3869193E+00;0; -9.3531854E-02;  3.4901977E+04;  0.0000000E+00;  1.0394442E-01;  4.0000000E+04;  0.0000000E+00;  3.8888668E+04; -1.7059869E-01;  0.0000000E+00;  7.7066831E-02;  1.2924269E+03;
  1.4712958E+00;  9.9999998E-03;  1.7274934E-01;9893;  1.3267629E+00;  0.0000000E+00; -2.1571932E-05;  1.0008526E+03;  1.0858124E-01;  5.9238123E+02;3;  4.1287251E+01;  0.0000000E+00;  4.9281564E+00;0; -3.4627363E-02;  3.4940188E+04;  0.0000000E+00; -2.3896484E+00;  4.0000000E+04;  0.0000000E+00;  3.8907902E+04; -1.1268225E-01;  0.0000000E+00;  7.8054890E-02;  1.2032977E+03;
  1.4719185E+00;  9.9999998E-03;  1.3232678E-01;9889;  1.2948060E+00;  0.0000000E+00; -1.8584973E-03;  9.9846399E+02;  1.0857359E-01; -1.0659349E+03;3;  3.6194950E+01;  0.0000000E+00;  7.7672327E-01;0; -1.4648587E-01;  3.4825105E+04;  0.0000000E+00;  1.9856247E+01;  4.0000000E+04;  0.0000000E+00;  3.8852363E+04; -2.2007084E-01;  0.0000000E+00;  7.3584974E-02;  8.7326240E+03;
  1.4728017E+00;  9.9999998E-03;  7.1065567E-02;9883;  1.2714757E+00;  0.0000000E+00; -2.7349158E-04;  9.9860876E+02;  1.0856763E-01; -9.6379205E+02;3;  3.7071846E+01;  0.0000000E+00;  4.2006660E-01;0; -1.3316865E-01;  3.4833797E+04;  0.0000000E+00;  1.3065800E+01;  4.0000000E+04;  0.0000000E+00;  3.8857406E+04; -1.6363278E-01;  0.0000000E+00;  3.0464133E-02;  5.2085439E+03;
  1.4722375E+00;  9.9999998E-03;  1.1195089E-01;9887;  1.2849835E+00;  0.0000000E+00; -9.9831354E-04;  9.9844995E+02;  1.0857020E-01; -1.0750251E+03;3;  3.6202534E+01;  0.0000000E+00;  5.5558807E-01;0; -1.4349818E-01;  3.4820145E+04;  0.0000000E+00;  2.4635050E+01;  4.0000000E+04;  0.0000000E+00;  3.8858680E+04; -2.0216936E-01;  0.0000000E+00;  5.8671169E-02;  1.0128020E+04;
  1.4720802E+00;  9.9999998E-03;  1.2215263E-01;9888;  1.2895547E+00;  0.0000000E+00; -1.4010484E-03;  9.9837048E+02;  1.0857172E-01; -1.1304763E+03;3;  3.6081528E+01;  0.0000000E+00;  5.7423592E-01;0; -1.4598915E-01;  3.4818023E+04;  0.0000000E+00;  2.3442984E+01;  4.0000000E+04;  0.0000000E+00;  3.8854172E+04; -2.1297172E-01;  0.0000000E+00;  6.6982575E-02;  9.8939775E+03;
  1.4726728E+00;  9.9999998E-03;  8.1278294E-02;9884;  1.2742419E+00;  0.0000000E+00; -3.7806641E-04;  9.9868652E+02;  1.0856724E-01; -9.1013690E+02;3;  3.6878803E+01;  0.0000000E+00;  4.7562262E-01;0; -1.3528681E-01;  3.4835512E+04;  0.0000000E+00;  1.7115608E+01;  4.0000000E+04;  0.0000000E+00;  3.8861664E+04; -1.7078206E-01;  0.0000000E+00;  3.5495244E-02;  6.8205635E+03;
  1.4725343E+00;  9.9999998E-03;  9.1498323E-02;9885;  1.2773886E+00;  0.0000000E+00; -5.1354372E-04;  9.9868726E+02;  1.0856751E-01; -9.0988898E+02;3;  3.6659687E+01;  0.0000000E+00;  5.2623063E-01;0; -1.3778612E-01;  3.4832836E+04;  0.0000000E+00;  2.0965439E+01;  4.0000000E+04;  0.0000000E+00;  3.8864246E+04; -1.7985339E-01;  0.0000000E+00;  4.2067267E-02;  8.3843535E+03;
  1.4723889E+00;  9.9999998E-03;  1.0172672E-01;9886;  1.2809521E+00;  0.0000000E+00; -7.0940610E-04;  9.9859070E+02;  1.0856879E-01; -9.7709558E+02;3;  3.6405483E+01;  0.0000000E+00;  5.2537560E-01;0; -1.4059030E-01;  3.4826535E+04;  0.0000000E+00;  2.3707569E+01;  4.0000000E+04;  0.0000000E+00;  3.8863152E+04; -1.9058654E-01;  0.0000000E+00;  4.9996246E-02;  9.5763320E+03;
  1.4833446E+00;  9.9999998E-03;  7.1291126E-02;9919;  1.2704865E+00;  0.0000000E+00; -2.4749560E-03;  9.9862854E+02;  1.0840455E-01; -9.2987482E+02;3;  3.7337608E+01;  0.0000000E+00;  6.0876769E-01;0; -1.5917727E-01;  3.5017992E+04;  0.0000000E+00;  1.1831296E+01;  4.0000000E+04;  0.0000000E+00;  3.8771930E+04; -1.7116687E-01;  0.0000000E+00;  1.1989596E-02;  4.2587324E+03;
  1.4832305E+00;  9.9999998E-03;  8.1514478E-02;9920;  1.2732927E+00;  0.0000000E+00; -2.8737430E-03;  9.9866541E+02;  1.0840444E-01; -9.0511713E+02;3;  3.7151329E+01;  0.0000000E+00;  7.0237172E-01;0; -1.6185130E-01;  3.5018441E+04;  0.0000000E+00;  1.3967291E+01;  4.0000000E+04;  0.0000000E+00;  3.8774203E+04; -1.7834517E-01;  0.0000000E+00;  1.6493870E-02;  5.0897212E+03;
  1.4831057E+00;  9.9999998E-03;  9.1735512E-02;9921;  1.2764937E+00;  0.0000000E+00; -3.3135561E-03;  9.9866229E+02;  1.0840504E-01; -9.0745746E+02;3;  3.6937481E+01;  0.0000000E+00;  7.8827292E-01;0; -1.6461945E-01;  3.5016715E+04;  0.0000000E+00;  1.5212096E+01;  4.0000000E+04;  0.0000000E+00;  3.8774973E+04; -1.8663895E-01;  0.0000000E+00;  2.2019506E-02;  5.6478755E+03;
  1.4829686E+00;  9.9999998E-03;  1.0195034E-01;9922;  1.2801397E+00;  0.0000000E+00; -3.8341568E-03;  9.9866333E+02;  1.0840543E-01; -9.0703186E+02;3;  3.6733139E+01;  0.0000000E+00;  8.5818839E-01;0; -1.6713211E-01;  3.5017637E+04;  0.0000000E+00;  1.5053587E+01;  4.0000000E+04;  0.0000000E+00;  3.8774117E+04; -1.9526948E-01;  0.0000000E+00;  2.8137371E-02;  5.7556084E+03;
  1.4828203E+00;  9.9999998E-03;  1.1214964E-01;9923;  1.2843423E+00;  0.0000000E+00; -4.4235531E-03;  9.9875226E+02;  1.0840602E-01; -8.4695135E+02;3;  3.6561451E+01;  0.0000000E+00;  9.2323887E-01;0; -1.6812329E-01;  3.5024641E+04;  0.0000000E+00;  1.3257122E+01;  4.0000000E+04;  0.0000000E+00;  3.8773008E+04; -2.0230675E-01;  0.0000000E+00;  3.4183457E-02;  5.3140439E+03;
  1.4826691E+00;  9.9999998E-03;  1.2232497E-01;9924;  1.2890787E+00;  0.0000000E+00; -5.1319939E-03;  9.9893463E+02;  1.0840661E-01; -7.2337909E+02;3;  3.6385994E+01;  0.0000000E+00;  9.2411500E-01;0; -1.6800351E-01;  3.5035906E+04;  0.0000000E+00;  9.8233395E+00;  4.0000000E+04;  0.0000000E+00;  3.8774512E+04; -2.0676543E-01;  0.0000000E+00;  3.8761910E-02;  4.2913096E+03;
  1.4825176E+00;  9.9999998E-03;  1.3247170E-01;9925;  1.2944177E+00;  0.0000000E+00; -5.8688424E-03;  9.9927209E+02;  1.0840809E-01; -4.9438943E+02;3;  3.6507671E+01;  0.0000000E+00;  1.1048652E+00;0; -1.6586868E-01;  3.5052359E+04;  0.0000000E+00;  5.1947155E+00;  4.0000000E+04;  0.0000000E+00;  3.8782066E+04; -2.0648058E-01;  0.0000000E+00;  4.0611897E-02;  2.7961423E+03;
  1.4823672E+00;  9.9999998E-03;  1.4259605E-01;9926;  1.3006924E+00;  0.0000000E+00; -6.4106146E-03;  9.9975403E+02;  1.0840975E-01; -1.6712981E+02;3;  3.7282104E+01;  0.0000000E+00;  1.6190825E+00;0; -1.5622842E-01;  3.5074676E+04;  0.0000000E+00;  2.2324950E-01;  4.0000000E+04;  0.0000000E+00;  3.8794527E+04; -1.9560787E-01;  0.0000000E+00;  3.9379455E-02;  1.1572277E+03;
  1.4822195E+00;  9.9999998E-03;  1.5270108E-01;9927;  1.3081652E+00;  0.0000000E+00; -6.5326151E-03;  1.0003185E+03;  1.0841218E-01;  2.1648125E+02;3;  3.8708576E+01;  0.0000000E+00;  2.5168972E+00;0; -1.3302028E-01;  3.5099449E+04;  0.0000000E+00; -2.8664656E+00;  4.0000000E+04;  0.0000000E+00;  3.8810332E+04; -1.6849041E-01;  0.0000000E+00;  3.5470136E-02;  9.6501288E+02;
  1.4818890E+00;  9.9999998E-03;  1.7284670E-01;9929;  1.3273176E+00;  0.0000000E+00; -4.1726413E-03;  1.0020045E+03;  1.0841198E-01;  1.3632670E+03;3;  4.2117073E+01;  0.0000000E+00;  5.4903355E+00;0; -1.5551630E-02;  3.5174402E+04;  0.0000000E+00;  1.1539843E+01;  4.0000000E+04;  0.0000000E+00;  3.8856906E+04; -4.8139431E-02;  0.0000000E+00;  3.2587800E-02;  3.0171958E+03;
  1.4820663E+00;  9.9999998E-03;  1.6278546E-01;9928;  1.3171473E+00;  0.0000000E+00; -5.8517535E-03;  1.0010090E+03;  1.0841309E-01;  6.8595984E+02;3;  4.0610424E+01;  0.0000000E+00;  3.9166875E+00;0; -8.6530820E-02;  3.5129316E+04;  0.0000000E+00; -3.5606366E-01;  4.0000000E+04;  0.0000000E+00;  3.8830367E+04; -1.1856452E-01;  0.0000000E+00;  3.2033693E-02;  1.3077189E+03;
  1.4938900E+00;  9.9999998E-03;  7.1479559E-02;9953;  1.2696586E+00;  0.0000000E+00; -4.5658085E-03;  9.9880621E+02;  1.0826949E-01; -7.9104913E+02;3;  3.7564930E+01;  0.0000000E+00;  7.4186432E-01;0; -1.8138283E-01;  3.5195922E+04;  0.0000000E+00;  7.0170226E+00;  4.0000000E+04;  0.0000000E+00;  3.8686559E+04; -1.7491049E-01;  0.0000000E+00; -6.4723440E-03;  2.4708064E+03;
  1.4937786E+00;  9.9999998E-03;  8.1707366E-02;9954;  1.2725931E+00;  0.0000000E+00; -5.2765487E-03;  9.9892767E+02;  1.0826928E-01; -7.1077069E+02;3;  3.7404625E+01;  0.0000000E+00;  8.6438012E-01;0; -1.8247598E-01;  3.5203629E+04;  0.0000000E+00;  6.9302616E+00;  4.0000000E+04;  0.0000000E+00;  3.8687371E+04; -1.7936970E-01;  0.0000000E+00; -3.1062805E-03;  2.5580432E+03;
  1.4936553E+00;  9.9999998E-03;  9.1928065E-02;9955;  1.2759809E+00;  0.0000000E+00; -6.0462290E-03;  9.9905334E+02;  1.0826938E-01; -6.2762329E+02;3;  3.7224648E+01;  0.0000000E+00;  9.6998823E-01;0; -1.8262735E-01;  3.5213156E+04;  0.0000000E+00;  5.7993188E+00;  4.0000000E+04;  0.0000000E+00;  3.8686875E+04; -1.8320921E-01;  0.0000000E+00;  5.8185915E-04;  2.3400674E+03;
  1.4935265E+00;  9.9999998E-03;  1.0212869E-01;9956;  1.2798003E+00;  0.0000000E+00; -6.8674367E-03;  9.9918890E+02;  1.0826929E-01; -5.3791449E+02;3;  3.7055584E+01;  0.0000000E+00;  1.0878587E+00;0; -1.8202898E-01;  3.5221672E+04;  0.0000000E+00;  3.7897573E+00;  4.0000000E+04;  0.0000000E+00;  3.8687812E+04; -1.8615574E-01;  0.0000000E+00;  4.1267634E-03;  1.8518942E+03;
  1.4933926E+00;  9.9999998E-03;  1.1230561E-01;9957;  1.2841191E+00;  0.0000000E+00; -7.7410797E-03;  9.9939001E+02;  1.0826997E-01; -4.0466364E+02;3;  3.6868828E+01;  0.0000000E+00;  1.1388419E+00;0; -1.7987399E-01;  3.5231746E+04;  0.0000000E+00;  1.1279155E+00;  4.0000000E+04;  0.0000000E+00;  3.8692062E+04; -1.8660595E-01;  0.0000000E+00;  6.7319507E-03;  1.1517202E+03;
  1.4932530E+00;  9.9999998E-03;  1.2246080E-01;9958;  1.2890099E+00;  0.0000000E+00; -8.6599747E-03;  9.9970868E+02;  1.0827170E-01; -1.9333716E+02;3;  3.6796036E+01;  0.0000000E+00;  1.2210339E+00;0; -1.7547661E-01;  3.5246355E+04;  0.0000000E+00; -1.6530524E+00;  4.0000000E+04;  0.0000000E+00;  3.8700129E+04; -1.8271163E-01;  0.0000000E+00;  7.2350157E-03;  5.5857025E+02;
  1.4931105E+00;  9.9999998E-03;  1.3259462E-01;9959;  1.2945330E+00;  0.0000000E+00; -9.5347734E-03;  1.0001142E+03;  1.0827291E-01;  7.5808449E+01;3;  3.7059284E+01;  0.0000000E+00;  1.4377316E+00;0; -1.6797912E-01;  3.5263906E+04;  0.0000000E+00; -3.3149009E+00;  4.0000000E+04;  0.0000000E+00;  3.8712191E+04; -1.7264168E-01;  0.0000000E+00;  4.6625510E-03;  8.7062720E+02;
  1.4929631E+00;  9.9999998E-03;  1.4270556E-01;9960;  1.3011141E+00;  0.0000000E+00; -1.0066599E-02;  1.0006464E+03;  1.0827429E-01;  4.2919467E+02;3;  3.8160294E+01;  0.0000000E+00;  2.0697067E+00;0; -1.4938372E-01;  3.5285609E+04;  0.0000000E+00; -1.6159551E+00;  4.0000000E+04;  0.0000000E+00;  3.8729492E+04; -1.4922886E-01;  0.0000000E+00; -1.5486730E-04;  1.1237429E+03;
  1.4928042E+00;  9.9999998E-03;  1.5279385E-01;9961;  1.3089594E+00;  0.0000000E+00; -1.0059291E-02;  1.0013482E+03;  1.0827374E-01;  8.9559357E+02;3;  3.9939083E+01;  0.0000000E+00;  3.1194847E+00;0; -1.1403792E-01;  3.5313797E+04;  0.0000000E+00;  6.3530993E+00;  4.0000000E+04;  0.0000000E+00;  3.8752398E+04; -1.0799634E-01;  0.0000000E+00; -6.0415817E-03;  1.8576465E+03;
  1.4926186E+00;  9.9999998E-03;  1.6285421E-01;9962;  1.3178599E+00;  0.0000000E+00; -9.4006434E-03;  1.0024271E+03;  1.0827015E-01;  1.6128927E+03;3;  4.1575535E+01;  0.0000000E+00;  4.4232736E+00;0; -6.2009513E-02;  3.5358164E+04;  0.0000000E+00;  2.2901697E+01;  4.0000000E+04;  0.0000000E+00;  3.8786555E+04; -5.0519276E-02;  0.0000000E+00; -1.1490235E-02;  5.2998994E+03;
  1.5044166E+00;  9.9999998E-03;  7.1627863E-02;9984;  1.2692741E+00;  0.0000000E+00; -6.5308851E-03;  9.9936206E+02;  1.0815566E-01; -4.1264603E+02;3;  3.7813446E+01;  0.0000000E+00;  8.8976264E-01;0; -1.9302249E-01;  3.5384238E+04;  0.0000000E+00;  8.1762159E-01;  4.0000000E+04;  0.0000000E+00;  3.8604941E+04; -1.6808271E-01;  0.0000000E+00; -2.4939770E-02;  8.8016278E+02;
  1.5043170E+00;  9.9999998E-03;  8.1853300E-02;9985;  1.2722886E+00;  0.0000000E+00; -7.5449315E-03;  9.9947046E+02;  1.0815524E-01; -3.4259592E+02;3;  3.7657112E+01;  0.0000000E+00;  1.0243144E+00;0; -1.9169533E-01;  3.5390965E+04;  0.0000000E+00; -4.7477120E-01;  4.0000000E+04;  0.0000000E+00;  3.8606031E+04; -1.6838537E-01;  0.0000000E+00; -2.3309961E-02;  7.2323462E+02;
  1.5042052E+00;  9.9999998E-03;  9.2061266E-02;9986;  1.2757860E+00;  0.0000000E+00; -8.5812937E-03;  9.9963818E+02;  1.0815518E-01; -2.3414038E+02;3;  3.7497005E+01;  0.0000000E+00;  1.1509653E+00;0; -1.8854307E-01;  3.5400977E+04;  0.0000000E+00; -1.9601661E+00;  4.0000000E+04;  0.0000000E+00;  3.8608199E+04; -1.6661055E-01;  0.0000000E+00; -2.1932514E-02;  6.4483441E+02;
  1.5040855E+00;  9.9999998E-03;  1.0224891E-01;9987;  1.2797259E+00;  0.0000000E+00; -9.6432772E-03;  9.9984314E+02;  1.0815588E-01; -1.0155366E+02;3;  3.7330704E+01;  0.0000000E+00;  1.2506289E+00;0; -1.8422769E-01;  3.5411605E+04;  0.0000000E+00; -3.1943574E+00;  4.0000000E+04;  0.0000000E+00;  3.8612777E+04; -1.6285811E-01;  0.0000000E+00; -2.1369571E-02;  7.8718512E+02;
  1.5039587E+00;  9.9999998E-03;  1.1241472E-01;9988;  1.2841889E+00;  0.0000000E+00; -1.0723859E-02;  1.0001130E+03;  1.0815721E-01;  7.3177437E+01;3;  3.7214340E+01;  0.0000000E+00;  1.3469913E+00;0; -1.7783147E-01;  3.5423230E+04;  0.0000000E+00; -3.3263099E+00;  4.0000000E+04;  0.0000000E+00;  3.8620520E+04; -1.5542051E-01;  0.0000000E+00; -2.2410963E-02;  9.6966760E+02;
  1.5038230E+00;  9.9999998E-03;  1.2255701E-01;9989;  1.2892418E+00;  0.0000000E+00; -1.1773978E-02;  1.0004932E+03;  1.0815801E-01;  3.1944241E+02;3;  3.7287495E+01;  0.0000000E+00;  1.4695050E+00;0; -1.6861865E-01;  3.5438664E+04;  0.0000000E+00; -9.9174398E-01;  4.0000000E+04;  0.0000000E+00;  3.8633090E+04; -1.4277796E-01;  0.0000000E+00; -2.5840688E-02;  1.0139036E+03;
  1.5036757E+00;  9.9999998E-03;  1.3267502E-01;9990;  1.2950156E+00;  0.0000000E+00; -1.2671067E-02;  1.0010335E+03;  1.0815756E-01;  6.6969330E+02;3;  3.7872314E+01;  0.0000000E+00;  1.8327742E+00;0; -1.5442063E-01;  3.5459359E+04;  0.0000000E+00;  5.6771240E+00;  4.0000000E+04;  0.0000000E+00;  3.8651520E+04; -1.2240946E-01;  0.0000000E+00; -3.2011177E-02;  1.6164501E+03;
  1.5035102E+00;  9.9999998E-03;  1.4276494E-01;9991;  1.3017989E+00;  0.0000000E+00; -1.3215688E-02;  1.0018356E+03;  1.0815577E-01;  1.1898427E+03;3;  3.9264084E+01;  0.0000000E+00;  2.6284337E+00;0; -1.2933537E-01;  3.5490168E+04;  0.0000000E+00;  1.8627260E+01;  4.0000000E+04;  0.0000000E+00;  3.8679484E+04; -8.9184888E-02;  0.0000000E+00; -4.0150493E-02;  3.9841169E+03;
  1.5143555E+00;  9.9999998E-03;  1.2259340E-01;10016;  1.2894626E+00;  0.0000000E+00; -1.4425600E-02;  1.0015677E+03;  1.0806128E-01;  9.9021399E+02;3;  3.7920666E+01;  0.0000000E+00;  1.8396775E+00;0; -1.5608947E-01;  3.5619867E+04;  0.0000000E+00;  1.8986376E+01;  4.0000000E+04;  0.0000000E+00;  3.8585102E+04; -9.6614473E-02;  0.0000000E+00; -5.9474993E-02;  3.8041199E+03;
  1.5145026E+00;  9.9999998E-03;  1.1247304E-01;10015;  1.2843515E+00;  0.0000000E+00; -1.3278693E-02;  1.0009352E+03;  1.0806202E-01;  5.9048340E+02;3;  3.7638351E+01;  0.0000000E+00;  1.5995896E+00;0; -1.6738713E-01;  3.5597102E+04;  0.0000000E+00;  8.0373783E+00;  4.0000000E+04;  0.0000000E+00;  3.8561574E+04; -1.1518229E-01;  0.0000000E+00; -5.2204832E-02;  1.9826061E+03;
  1.5146327E+00;  9.9999998E-03;  1.0232884E-01;10014;  1.2798016E+00;  0.0000000E+00; -1.2097719E-02;  1.0004940E+03;  1.0806224E-01;  3.1181488E+02;3;  3.7635311E+01;  0.0000000E+00;  1.4691279E+00;0; -1.7684647E-01;  3.5581336E+04;  0.0000000E+00;  1.6271414E+00;  4.0000000E+04;  0.0000000E+00;  3.8544914E+04; -1.2903474E-01;  0.0000000E+00; -4.7811724E-02;  1.1969176E+03;
  1.5147486E+00;  9.9999998E-03;  9.2159562E-02;10013;  1.2758181E+00;  0.0000000E+00; -1.0876912E-02;  1.0002056E+03;  1.0806162E-01;  1.2976085E+02;3;  3.7728168E+01;  0.0000000E+00;  1.3299153E+00;0; -1.8353508E-01;  3.5571070E+04;  0.0000000E+00; -1.5795553E+00;  4.0000000E+04;  0.0000000E+00;  3.8534156E+04; -1.3824010E-01;  0.0000000E+00; -4.5294989E-02;  1.0403125E+03;
  1.5148538E+00;  9.9999998E-03;  8.1969537E-02;10012;  1.2722774E+00;  0.0000000E+00; -9.6179852E-03;  9.9998389E+02;  1.0806143E-01; -1.0152593E+01;3;  3.7875793E+01;  0.0000000E+00;  1.1892772E+00;0; -1.8905839E-01;  3.5561980E+04;  0.0000000E+00; -2.7773135E+00;  4.0000000E+04;  0.0000000E+00;  3.8526867E+04; -1.4507689E-01;  0.0000000E+00; -4.3981500E-02;  1.0106054E+03;
  1.5149488E+00;  9.9999998E-03;  7.1761459E-02;10011;  1.2691430E+00;  0.0000000E+00; -8.3699515E-03;  9.9979053E+02;  1.0806059E-01; -1.3210347E+02;3;  3.8028507E+01;  0.0000000E+00;  1.0478325E+00;0; -1.9393885E-01;  3.5553012E+04;  0.0000000E+00; -2.8689582E+00;  4.0000000E+04;  0.0000000E+00;  3.8522062E+04; -1.5039819E-01;  0.0000000E+00; -4.3540660E-02;  9.6737781E+02;
  1.5252701E+00;  9.9999998E-03;  9.2187487E-02;10035;  1.2757086E+00;  0.0000000E+00; -1.2803555E-02;  1.0009545E+03;  1.0798149E-01;  5.8685614E+02;3;  3.7961815E+01;  0.0000000E+00;  1.5647308E+00;0; -1.7652315E-01;  3.5725633E+04;  0.0000000E+00;  1.2426600E+01;  4.0000000E+04;  0.0000000E+00;  3.8479527E+04; -1.0775625E-01;  0.0000000E+00; -6.8766892E-02;  2.6541396E+03;
  1.5253789E+00;  9.9999998E-03;  8.2023539E-02;10034;  1.2721624E+00;  0.0000000E+00; -1.1425137E-02;  1.0005254E+03;  1.0798186E-01;  3.2291376E+02;3;  3.8065613E+01;  0.0000000E+00;  1.3809683E+00;0; -1.8305197E-01;  3.5712324E+04;  0.0000000E+00;  6.2786250E+00;  4.0000000E+04;  0.0000000E+00;  3.8461266E+04; -1.1818196E-01;  0.0000000E+00; -6.4870022E-02;  1.7767855E+03;
  1.5254751E+00;  9.9999998E-03;  7.1840368E-02;10033;  1.2690016E+00;  0.0000000E+00; -1.0019344E-02;  1.0001818E+03;  1.0798174E-01;  1.1171435E+02;3;  3.8198269E+01;  0.0000000E+00;  1.2131484E+00;0; -1.8947622E-01;  3.5700031E+04;  0.0000000E+00;  2.4586513E+00;  4.0000000E+04;  0.0000000E+00;  3.8448008E+04; -1.2726700E-01;  0.0000000E+00; -6.2209211E-02;  1.3407747E+03;
  1.7707578E-03;  9.9999998E-03;  2.3987064E-01;2501; -1.9412031E-03;  0.0000000E+00;  1.1489411E-03;  9.8822919E+02;  1.0000000E-01; -9.7518721E+03;3;  6.5703163E+01;  0.0000000E+00; -1.8863997E+01;0; -7.3929161E-02;  3.9044941E+04;  0.0000000E+00; -5.7347769E-01;  4.0000000E+04;  0.0000000E+00;  4.0026871E+04; -7.4819148E-02;  0.0000000E+00;  8.8998326E-04;  4.4260820E+03;
  1.4377396E-03;  9.9999998E-03;  2.4984530E-01;2502; -1.7303618E-03;  0.0000000E+00;  1.2390071E-03;  9.8954102E+02;  1.0000000E-01; -8.6650879E+03;3;  5.5752735E+01;  0.0000000E+00; -2.0724787E+01;0; -6.8144791E-02;  3.9149480E+04;  0.0000000E+00; -5.3527015E-01;  4.0000000E+04;  0.0000000E+00;  4.0023832E+04; -6.8294004E-02;  0.0000000E+00;  1.4921441E-04;  3.8915894E+03;
  1.0863877E-03;  9.9999998E-03;  2.5982261E-01;2503; -1.5702655E-03;  0.0000000E+00;  1.3061477E-03;  9.9088416E+02;  1.0000000E-01; -7.5522803E+03;3;  4.4141045E+01;  0.0000000E+00; -2.2119724E+01;0; -6.2158227E-02;  3.9259199E+04;  0.0000000E+00; -4.8931298E-01;  4.0000000E+04;  0.0000000E+00;  4.0017285E+04; -6.1406657E-02;  0.0000000E+00; -7.5157126E-04;  3.0493018E+03;
  7.3015766E-04;  9.9999998E-03;  2.6981282E-01;2504; -1.4606665E-03;  0.0000000E+00;  1.3469276E-03;  9.9221844E+02;  1.0000000E-01; -6.4468794E+03;3;  3.2074162E+01;  0.0000000E+00; -2.3073513E+01;0; -5.6015048E-02;  3.9370359E+04;  0.0000000E+00; -4.4091508E-01;  4.0000000E+04;  0.0000000E+00;  4.0010008E+04; -5.4280221E-02;  0.0000000E+00; -1.7348255E-03;  1.9842784E+03;
  4.0094298E-04;  9.9999998E-03;  2.7982172E-01;2505; -1.3954517E-03;  0.0000000E+00;  1.3619289E-03;  9.9349609E+02;  1.0000000E-01; -5.3883413E+03;3;  2.0933023E+01;  0.0000000E+00; -2.3628185E+01;0; -4.9770948E-02;  3.9478766E+04;  0.0000000E+00; -3.9292049E-01;  4.0000000E+04;  0.0000000E+00;  4.0000926E+04; -4.7069870E-02;  0.0000000E+00; -2.7010764E-03;  8.7936157E+02;
  1.3011813E-04;  9.9999998E-03;  2.8984371E-01;2506; -1.3632539E-03;  0.0000000E+00;  1.3613172E-03;  9.9468634E+02;  1.0000000E-01; -4.4022461E+03;3;  1.1860911E+01;  0.0000000E+00; -2.3683819E+01;0; -4.3490846E-02;  3.9580785E+04;  0.0000000E+00; -3.4516203E-01;  4.0000000E+04;  0.0000000E+00;  3.9992227E+04; -3.9951537E-02;  0.0000000E+00; -3.5393098E-03;  7.0049164E+02;
  1.1796229E-02;  9.9999998E-03;  2.3992002E-01;2561; -3.0843893E-03;  0.0000000E+00;  1.0766514E-03;  9.8940234E+02;  1.0000000E-01; -8.7799492E+03;3;  4.2771927E+01;  0.0000000E+00; -1.7337923E+01;0; -8.0825724E-02;  3.9132945E+04;  0.0000000E+00; -6.4282238E-01;  4.0000000E+04;  0.0000000E+00;  4.0030414E+04; -8.1986256E-02;  0.0000000E+00;  1.1605322E-03;  4.7702104E+03;
  1.1484616E-02;  9.9999998E-03;  2.4988306E-01;2562; -2.7637177E-03;  0.0000000E+00;  1.1567721E-03;  9.9051141E+02;  1.0000000E-01; -7.8611108E+03;3;  3.6582909E+01;  0.0000000E+00; -1.8759535E+01;0; -7.4748918E-02;  3.9221230E+04;  0.0000000E+00; -5.8583367E-01;  4.0000000E+04;  0.0000000E+00;  4.0027309E+04; -7.5111203E-02;  0.0000000E+00;  3.6228285E-04;  4.3249824E+03;
  1.1143962E-02;  9.9999998E-03;  2.5984448E-01;2563; -2.4920206E-03;  0.0000000E+00;  1.2154918E-03;  9.9166052E+02;  1.0000000E-01; -6.9090884E+03;3;  2.8404263E+01;  0.0000000E+00; -1.9959408E+01;0; -6.8410359E-02;  3.9315688E+04;  0.0000000E+00; -5.2863008E-01;  4.0000000E+04;  0.0000000E+00;  4.0021746E+04; -6.7770295E-02;  0.0000000E+00; -6.4006425E-04;  3.5133074E+03;
  1.0780740E-02;  9.9999998E-03;  2.6981577E-01;2564; -2.2686385E-03;  0.0000000E+00;  1.2484416E-03;  9.9280695E+02;  1.0000000E-01; -5.9592881E+03;3;  1.9319057E+01;  0.0000000E+00; -2.1120388E+01;0; -6.1852984E-02;  3.9413102E+04;  0.0000000E+00; -4.7833762E-01;  4.0000000E+04;  0.0000000E+00;  4.0013602E+04; -6.0093649E-02;  0.0000000E+00; -1.7593342E-03;  2.4121626E+03;
  1.0434808E-02;  9.9999998E-03;  2.7980086E-01;2565; -2.0874776E-03;  0.0000000E+00;  1.2581084E-03;  9.9392688E+02;  1.0000000E-01; -5.0314624E+03;3;  1.0514781E+01;  0.0000000E+00; -2.2212271E+01;0; -5.5139877E-02;  3.9509742E+04;  0.0000000E+00; -4.3646783E-01;  4.0000000E+04;  0.0000000E+00;  4.0004059E+04; -5.2259762E-02;  0.0000000E+00; -2.8801169E-03;  1.1919915E+03;
  1.0153850E-02;  9.9999998E-03;  2.8979081E-01;2566; -1.9363615E-03;  0.0000000E+00;  1.2551608E-03;  9.9497699E+02;  1.0000000E-01; -4.1614624E+03;3;  3.2332194E+00;  0.0000000E+00; -2.3087576E+01;0; -4.8350677E-02;  3.9602285E+04;  0.0000000E+00; -3.9871234E-01;  4.0000000E+04;  0.0000000E+00;  3.9994387E+04; -4.4478908E-02;  0.0000000E+00; -3.8717703E-03;  6.3848407E+02;
  9.9567678E-03;  9.9999998E-03;  2.9977888E-01;2567; -1.8089385E-03;  0.0000000E+00;  1.2637435E-03;  9.9593451E+02;  1.0000000E-01; -3.3682009E+03;3; -1.5435925E+00;  0.0000000E+00; -2.3428087E+01;0; -4.1565642E-02;  3.9686973E+04;  0.0000000E+00; -3.5755855E-01;  4.0000000E+04;  0.0000000E+00;  3.9985621E+04; -3.6959186E-02;  0.0000000E+00; -4.6064546E-03;  1.5406632E+03;
  2.1769976E-02;  9.9999998E-03;  2.3999408E-01;2622; -4.4274954E-03;  0.0000000E+00;  9.8221062E-04;  9.9105865E+02;  1.0000000E-01; -7.4077412E+03;3;  1.7769735E+01;  0.0000000E+00; -1.3855589E+01;0; -8.5628100E-02;  3.9259617E+04;  0.0000000E+00; -6.6881734E-01;  4.0000000E+04;  0.0000000E+00;  4.0032371E+04; -8.7096453E-02;  0.0000000E+00;  1.4683495E-03;  4.9321084E+03;
  2.1477230E-02;  9.9999998E-03;  2.4995677E-01;2623; -3.9784927E-03;  0.0000000E+00;  1.0693979E-03;  9.9191382E+02;  1.0000000E-01; -6.6992671E+03;3;  1.5500402E+01;  0.0000000E+00; -1.4506619E+01;0; -7.9456791E-02;  3.9327586E+04;  0.0000000E+00; -6.0021198E-01;  4.0000000E+04;  0.0000000E+00;  4.0030723E+04; -8.0091029E-02;  0.0000000E+00;  6.3423952E-04;  4.6165366E+03;
  2.1150481E-02;  9.9999998E-03;  2.5991330E-01;2624; -3.5781662E-03;  0.0000000E+00;  1.1316342E-03;  9.9280811E+02;  1.0000000E-01; -5.9583501E+03;3;  1.1150793E+01;  0.0000000E+00; -1.5207010E+01;0; -7.2969086E-02;  3.9402168E+04;  0.0000000E+00; -5.3931594E-01;  4.0000000E+04;  0.0000000E+00;  4.0025773E+04; -7.2517827E-02;  0.0000000E+00; -4.5125838E-04;  3.8851384E+03;
  2.0789722E-02;  9.9999998E-03;  2.6987779E-01;2625; -3.2267740E-03;  0.0000000E+00;  1.1642800E-03;  9.9371899E+02;  1.0000000E-01; -5.2037046E+03;3;  5.5003357E+00;  0.0000000E+00; -1.6285425E+01;0; -6.6201463E-02;  3.9480824E+04;  0.0000000E+00; -4.9437189E-01;  4.0000000E+04;  0.0000000E+00;  4.0017621E+04; -6.4509287E-02;  0.0000000E+00; -1.6921787E-03;  2.8059656E+03;
  2.0430749E-02;  9.9999998E-03;  2.7985659E-01;2626; -2.9187046E-03;  0.0000000E+00;  1.1729293E-03;  9.9461542E+02;  1.0000000E-01; -4.4610098E+03;3; -3.7519583E-01;  0.0000000E+00; -1.7855852E+01;0; -5.9209693E-02;  3.9560953E+04;  0.0000000E+00; -4.6507156E-01;  4.0000000E+04;  0.0000000E+00;  4.0007637E+04; -5.6251980E-02;  0.0000000E+00; -2.9577138E-03;  1.5383765E+03;
  2.0132827E-02;  9.9999998E-03;  2.8983516E-01;2627; -2.6428534E-03;  0.0000000E+00;  1.1713799E-03;  9.9548199E+02;  1.0000000E-01; -3.7431040E+03;3; -5.4322944E+00;  0.0000000E+00; -1.9636436E+01;0; -5.2082583E-02;  3.9639320E+04;  0.0000000E+00; -4.4278893E-01;  4.0000000E+04;  0.0000000E+00;  3.9996668E+04; -4.7985353E-02;  0.0000000E+00; -4.0972298E-03;  6.2731885E+02;
  1.9931881E-02;  9.9999998E-03;  2.9979852E-01;2628; -2.3875115E-03;  0.0000000E+00;  1.1799637E-03;  9.9628607E+02;  1.0000000E-01; -3.0769006E+03;3; -8.5878944E+00;  0.0000000E+00; -2.1131382E+01;0; -4.4923160E-02;  3.9712992E+04;  0.0000000E+00; -4.1436040E-01;  4.0000000E+04;  0.0000000E+00;  3.9987219E+04; -3.9958540E-02;  0.0000000E+00; -4.9646189E-03;  1.3990208E+03;
  3.1739913E-02;  9.9999998E-03;  2.4004273E-01;2683; -5.8670398E-03;  0.0000000E+00;  8.5759803E-04;  9.9297498E+02;  1.0000000E-01; -5.8200825E+03;3; -3.6458259E+00;  0.0000000E+00; -8.4262981E+00;0; -8.8219613E-02;  3.9408887E+04;  0.0000000E+00; -6.2160861E-01;  4.0000000E+04;  0.0000000E+00;  4.0033836E+04; -9.0042874E-02;  0.0000000E+00;  1.8232591E-03;  4.9071924E+03;
  3.1466372E-02;  9.9999998E-03;  2.5001076E-01;2684; -5.2863914E-03;  0.0000000E+00;  9.6437405E-04;  9.9354541E+02;  1.0000000E-01; -5.3475029E+03;3; -2.6510632E+00;  0.0000000E+00; -8.0228386E+00;0; -8.2156926E-02;  3.9453688E+04;  0.0000000E+00; -5.5574781E-01;  4.0000000E+04;  0.0000000E+00;  4.0032906E+04; -8.3135448E-02;  0.0000000E+00;  9.7852433E-04;  4.7464409E+03;
  3.1151187E-02;  9.9999998E-03;  2.5997144E-01;2685; -4.7547296E-03;  0.0000000E+00;  1.0391902E-03;  9.9416364E+02;  1.0000000E-01; -4.8353198E+03;3; -3.7462070E+00;  0.0000000E+00; -7.9789877E+00;0; -7.5725548E-02;  3.9505914E+04;  0.0000000E+00; -5.0646043E-01;  4.0000000E+04;  0.0000000E+00;  4.0028605E+04; -7.5556010E-02;  0.0000000E+00; -1.6953703E-04;  4.1278037E+03;
  3.0792503E-02;  9.9999998E-03;  2.6994088E-01;2686; -4.2726160E-03;  0.0000000E+00;  1.0787899E-03;  9.9480597E+02;  1.0000000E-01; -4.3031377E+03;3; -6.3473482E+00;  0.0000000E+00; -8.8555698E+00;0; -6.8954885E-02;  3.9563363E+04;  0.0000000E+00; -4.8136416E-01;  4.0000000E+04;  0.0000000E+00;  4.0020289E+04; -6.7437723E-02;  0.0000000E+00; -1.5171585E-03;  3.1076680E+03;
  3.0423125E-02;  9.9999998E-03;  2.7992529E-01;2687; -3.8355365E-03;  0.0000000E+00;  1.0900086E-03;  9.9545911E+02;  1.0000000E-01; -3.7620664E+03;3; -9.6298838E+00;  0.0000000E+00; -1.0832635E+01;0; -6.1890837E-02;  3.9624035E+04;  0.0000000E+00; -4.7681624E-01;  4.0000000E+04;  0.0000000E+00;  4.0010438E+04; -5.8972843E-02;  0.0000000E+00; -2.9179938E-03;  1.8395033E+03;
  3.0105427E-02;  9.9999998E-03;  2.8990841E-01;2688; -3.4330757E-03;  0.0000000E+00;  1.0868193E-03;  9.9610620E+02;  1.0000000E-01; -3.2259333E+03;3; -1.2641319E+01;  0.0000000E+00; -1.3612229E+01;0; -5.4619212E-02;  3.9686008E+04;  0.0000000E+00; -4.7872898E-01;  4.0000000E+04;  0.0000000E+00;  3.9999371E+04; -5.0418176E-02;  0.0000000E+00; -4.2010364E-03;  7.3475476E+02;
  2.9896813E-02;  9.9999998E-03;  2.9987046E-01;2689; -3.0445198E-03;  0.0000000E+00;  1.1025388E-03;  9.9673315E+02;  1.0000000E-01; -2.7065408E+03;3; -1.4442999E+01;  0.0000000E+00; -1.6454042E+01;0; -4.7259226E-02;  3.9746199E+04;  0.0000000E+00; -4.6808851E-01;  4.0000000E+04;  0.0000000E+00;  3.9989488E+04; -4.2059064E-02;  0.0000000E+00; -5.2001630E-03;  1.2400563E+03;
  4.1709162E-02;  9.9999998E-03;  2.4006331E-01;2744; -7.3069651E-03;  0.0000000E+00;  7.1666768E-04;  9.9492969E+02;  1.0000000E-01; -4.2006714E+03;3; -1.8138308E+01;  0.0000000E+00; -1.9027498E+00;0; -8.8635683E-02;  3.9563578E+04;  0.0000000E+00; -4.7338125E-01;  4.0000000E+04;  0.0000000E+00;  4.0034281E+04; -9.0867043E-02;  0.0000000E+00;  2.2313583E-03;  4.7544336E+03;
  4.1455798E-02;  9.9999998E-03;  2.5003803E-01;2745; -6.6052023E-03;  0.0000000E+00;  8.5063279E-04;  9.9522766E+02;  1.0000000E-01; -3.9538142E+03;3; -1.5133828E+01;  0.0000000E+00; -2.2699811E-01;0; -8.2873769E-02;  3.9585551E+04;  0.0000000E+00; -4.3004134E-01;  4.0000000E+04;  0.0000000E+00;  4.0034223E+04; -8.4274240E-02;  0.0000000E+00;  1.4004738E-03;  4.7546177E+03;
  4.1155532E-02;  9.9999998E-03;  2.6000470E-01;2746; -5.9446893E-03;  0.0000000E+00;  9.5304888E-04;  9.9556372E+02;  1.0000000E-01; -3.6753528E+03;3; -1.3996130E+01;  0.0000000E+00;  7.7055222E-01;0; -7.6702222E-02;  3.9614668E+04;  0.0000000E+00; -4.1466317E-01;  4.0000000E+04;  0.0000000E+00;  4.0030633E+04; -7.6912582E-02;  0.0000000E+00;  2.1035597E-04;  4.2591396E+03;
  4.0805567E-02;  9.9999998E-03;  2.6997933E-01;2747; -5.3370078E-03;  0.0000000E+00;  1.0061441E-03;  9.9593335E+02;  1.0000000E-01; -3.3691392E+03;3; -1.4456959E+01;  0.0000000E+00;  2.7095273E-01;0; -7.0138782E-02;  3.9650320E+04;  0.0000000E+00; -4.3116859E-01;  4.0000000E+04;  0.0000000E+00;  4.0023203E+04; -6.8910472E-02;  0.0000000E+00; -1.2283134E-03;  3.3123530E+03;
  4.0435560E-02;  9.9999998E-03;  2.7996927E-01;2748; -4.7787251E-03;  0.0000000E+00;  1.0173692E-03;  9.9633429E+02;  1.0000000E-01; -3.0369512E+03;3; -1.5913499E+01;  0.0000000E+00; -2.0526366E+00;0; -6.3214645E-02;  3.9691062E+04;  0.0000000E+00; -4.6994337E-01;  4.0000000E+04;  0.0000000E+00;  4.0012898E+04; -6.0459942E-02;  0.0000000E+00; -2.7547025E-03;  2.0650535E+03;
  4.0103447E-02;  9.9999998E-03;  2.8996086E-01;2749; -4.2533344E-03;  0.0000000E+00;  1.0131293E-03;  9.9676196E+02;  1.0000000E-01; -2.6826401E+03;3; -1.7579416E+01;  0.0000000E+00; -5.8307581E+00;0; -5.6002952E-02;  3.9735684E+04;  0.0000000E+00; -5.0950944E-01;  4.0000000E+04;  0.0000000E+00;  4.0001832E+04; -5.1824883E-02;  0.0000000E+00; -4.1780705E-03;  8.8393964E+02;
  3.9876133E-02;  9.9999998E-03;  2.9994145E-01;2750; -3.7328508E-03;  0.0000000E+00;  1.0399906E-03;  9.9720154E+02;  1.0000000E-01; -2.3184529E+03;3; -1.8594908E+01;  0.0000000E+00; -1.0238593E+01;0; -4.8618048E-02;  3.9781359E+04;  0.0000000E+00; -5.2439940E-01;  4.0000000E+04;  0.0000000E+00;  3.9991145E+04; -4.3306742E-02;  0.0000000E+00; -5.3113080E-03;  1.1386570E+03;
  5.1673803E-02;  9.9999998E-03;  2.4006800E-01;2805; -8.6628487E-03;  0.0000000E+00;  5.8350572E-04;  9.9676605E+02;  1.0000000E-01; -2.6792822E+03;3; -2.5027222E+01;  0.0000000E+00;  4.9639068E+00;0; -8.7099947E-02;  3.9709570E+04;  0.0000000E+00; -2.1088640E-01;  4.0000000E+04;  0.0000000E+00;  4.0034348E+04; -8.9796059E-02;  0.0000000E+00;  2.6961083E-03;  4.5754600E+03;
  5.1442079E-02;  9.9999998E-03;  2.5004718E-01;2806; -7.8623509E-03;  0.0000000E+00;  7.4738171E-04;  9.9679968E+02;  1.0000000E-01; -2.6513818E+03;3; -2.1244509E+01;  0.0000000E+00;  7.9259949E+00;0; -8.1807710E-02;  3.9709785E+04;  0.0000000E+00; -2.1124949E-01;  4.0000000E+04;  0.0000000E+00;  4.0035480E+04; -8.3707035E-02;  0.0000000E+00;  1.8993241E-03;  4.7197915E+03;
  5.1160425E-02;  9.9999998E-03;  2.6001889E-01;2807; -7.0926435E-03;  0.0000000E+00;  8.8221679E-04;  9.9687366E+02;  1.0000000E-01; -2.5900996E+03;3; -1.9116138E+01;  0.0000000E+00;  9.9268417E+00;0; -7.6074570E-02;  3.9717379E+04;  0.0000000E+00; -2.5556964E-01;  4.0000000E+04;  0.0000000E+00;  4.0032219E+04; -7.6760054E-02;  0.0000000E+00;  6.8548461E-04;  4.3304985E+03;
  5.0827425E-02;  9.9999998E-03;  2.6999500E-01;2808; -6.3684084E-03;  0.0000000E+00;  9.6132298E-04;  9.9698877E+02;  1.0000000E-01; -2.4947441E+03;3; -1.8521790E+01;  0.0000000E+00;  9.8993216E+00;0; -6.9907144E-02;  3.9732293E+04;  0.0000000E+00; -3.3976710E-01;  4.0000000E+04;  0.0000000E+00;  4.0025074E+04; -6.9077678E-02;  0.0000000E+00; -8.2946289E-04;  3.4433604E+03;
  5.0466359E-02;  9.9999998E-03;  2.7998650E-01;2809; -5.6906459E-03;  0.0000000E+00;  9.8530098E-04;  9.9715247E+02;  1.0000000E-01; -2.3591431E+03;3; -1.9058176E+01;  0.0000000E+00;  7.3132219E+00;0; -6.3316792E-02;  3.9754168E+04;  0.0000000E+00; -4.4424474E-01;  4.0000000E+04;  0.0000000E+00;  4.0015164E+04; -6.0844593E-02;  0.0000000E+00; -2.4721976E-03;  2.2113630E+03;
  5.0127726E-02;  9.9999998E-03;  2.8998542E-01;2810; -5.0511104E-03;  0.0000000E+00;  9.7828230E-04;  9.9736383E+02;  1.0000000E-01; -2.1840371E+03;3; -2.0141874E+01;  0.0000000E+00;  2.4491296E+00;0; -5.6355748E-02;  3.9782047E+04;  0.0000000E+00; -5.3794831E-01;  4.0000000E+04;  0.0000000E+00;  4.0003262E+04; -5.2322425E-02;  0.0000000E+00; -4.0333224E-03;  1.0028142E+03;
  4.9880147E-02;  9.9999998E-03;  2.9998684E-01;2811; -4.4054235E-03;  0.0000000E+00;  1.0145676E-03;  9.9762683E+02;  1.0000000E-01; -1.9661172E+03;3; -2.1001123E+01;  0.0000000E+00; -3.6178277E+00;0; -4.9124159E-02;  3.9813871E+04;  0.0000000E+00; -5.8849525E-01;  4.0000000E+04;  0.0000000E+00;  3.9992094E+04; -4.3820396E-02;  0.0000000E+00; -5.3037638E-03;  1.1335669E+03;
  6.1631612E-02;  9.9999998E-03;  2.4006714E-01;2866; -9.8804440E-03;  0.0000000E+00;  4.7394825E-04;  9.9834283E+02;  1.0000000E-01; -1.3729489E+03;3; -2.5527725E+01;  0.0000000E+00;  1.1436712E+01;0; -8.4000200E-02;  3.9835859E+04;  0.0000000E+00;  1.5552811E-01;  4.0000000E+04;  0.0000000E+00;  4.0034645E+04; -8.7216869E-02;  0.0000000E+00;  3.2166664E-03;  4.4931152E+03;
  6.1421532E-02;  9.9999998E-03;  2.5004876E-01;2867; -9.0090595E-03;  0.0000000E+00;  6.6846516E-04;  9.9815088E+02;  1.0000000E-01; -1.5319567E+03;3; -2.2009399E+01;  0.0000000E+00;  1.5648237E+01;0; -7.9316042E-02;  3.9817012E+04;  0.0000000E+00;  9.5928289E-02;  4.0000000E+04;  0.0000000E+00;  4.0036512E+04; -8.1784353E-02;  0.0000000E+00;  2.4683131E-03;  4.7389663E+03;
  6.1161708E-02;  9.9999998E-03;  2.6002306E-01;2868; -8.1513589E-03;  0.0000000E+00;  8.4155065E-04;  9.9799280E+02;  1.0000000E-01; -1.6629159E+03;3; -1.9904015E+01;  0.0000000E+00;  1.8591085E+01;0; -7.4171469E-02;  3.9805570E+04;  0.0000000E+00; -2.5413292E-02;  4.0000000E+04;  0.0000000E+00;  4.0033926E+04; -7.5417034E-02;  0.0000000E+00;  1.2455666E-03;  4.4102261E+03;
  6.0852252E-02;  9.9999998E-03;  2.6999748E-01;2869; -7.3293978E-03;  0.0000000E+00;  9.5340319E-04;  9.9788098E+02;  1.0000000E-01; -1.7555553E+03;3; -1.9219988E+01;  0.0000000E+00;  1.8967602E+01;0; -6.8557292E-02;  3.9802145E+04;  0.0000000E+00; -1.9304812E-01;  4.0000000E+04;  0.0000000E+00;  4.0027094E+04; -6.8224877E-02;  0.0000000E+00; -3.3241231E-04;  3.5372283E+03;
  6.0507156E-02;  9.9999998E-03;  2.7998567E-01;2870; -6.5452675E-03;  0.0000000E+00;  9.9611108E-04;  9.9782660E+02;  1.0000000E-01; -1.8006404E+03;3; -1.9674515E+01;  0.0000000E+00;  1.6020876E+01;0; -6.2464502E-02;  3.9807188E+04;  0.0000000E+00; -3.7634188E-01;  4.0000000E+04;  0.0000000E+00;  4.0015965E+04; -6.0382370E-02;  0.0000000E+00; -2.0821332E-03;  2.2791709E+03;
  6.0168628E-02;  9.9999998E-03;  2.8999045E-01;2871; -5.7854918E-03;  0.0000000E+00;  1.0013796E-03;  9.9785028E+02;  1.0000000E-01; -1.7809867E+03;3; -2.0820429E+01;  0.0000000E+00;  1.0085095E+01;0; -5.5917192E-02;  3.9820039E+04;  0.0000000E+00; -5.3532666E-01;  4.0000000E+04;  0.0000000E+00;  4.0003961E+04; -5.2139319E-02;  0.0000000E+00; -3.7778742E-03;  1.0278337E+03;
  5.9905253E-02;  9.9999998E-03;  3.0001125E-01;2872; -5.0190925E-03;  0.0000000E+00;  1.0481436E-03;  9.9795135E+02;  1.0000000E-01; -1.6972853E+03;3; -2.2002630E+01;  0.0000000E+00;  2.2705910E+00;0; -4.8994601E-02;  3.9839547E+04;  0.0000000E+00; -6.3179129E-01;  4.0000000E+04;  0.0000000E+00;  3.9992266E+04; -4.3806560E-02;  0.0000000E+00; -5.1880414E-03;  1.1979453E+03;
  7.1583524E-02;  9.9999998E-03;  2.4006596E-01;2927; -1.0931259E-02;  0.0000000E+00;  3.9893723E-04;  9.9959021E+02;  1.0000000E-01; -3.3949658E+02;3; -2.1932140E+01;  0.0000000E+00;  1.7099754E+01;0; -7.9846464E-02;  3.9935301E+04;  0.0000000E+00;  6.0309011E-01;  4.0000000E+04;  0.0000000E+00;  4.0035812E+04; -8.3632007E-02;  0.0000000E+00;  3.7855464E-03;  4.6164985E+03;
  7.1393333E-02;  9.9999998E-03;  2.5004935E-01;2928; -1.0013126E-02;  0.0000000E+00;  6.3288724E-04;  9.9920807E+02;  1.0000000E-01; -6.5608020E+02;3; -1.9291130E+01;  0.0000000E+00;  2.2435730E+01;0; -7.5884126E-02;  3.9900633E+04;  0.0000000E+00;  4.9827108E-01;  4.0000000E+04;  0.0000000E+00;  4.0038141E+04; -7.8979045E-02;  0.0000000E+00;  3.0949155E-03;  4.9054844E+03;
  7.1158066E-02;  9.9999998E-03;  2.6002350E-01;2929; -9.0900036E-03;  0.0000000E+00;  8.4850728E-04;  9.9885461E+02;  1.0000000E-01; -9.4891144E+02;3; -1.7875093E+01;  0.0000000E+00;  2.6183107E+01;0; -7.1452424E-02;  3.9873227E+04;  0.0000000E+00;  3.1810763E-01;  4.0000000E+04;  0.0000000E+00;  4.0035730E+04; -7.3327571E-02;  0.0000000E+00;  1.8751468E-03;  4.5738540E+03;
  7.0875615E-02;  9.9999998E-03;  2.6999414E-01;2930; -8.1864968E-03;  0.0000000E+00;  9.9732017E-04;  9.9854724E+02;  1.0000000E-01; -1.2035709E+03;3; -1.7743378E+01;  0.0000000E+00;  2.6800108E+01;0; -6.6521317E-02;  3.9854547E+04;  0.0000000E+00;  8.5117817E-02;  4.0000000E+04;  0.0000000E+00;  4.0028234E+04; -6.6767633E-02;  0.0000000E+00;  2.4631387E-04;  3.6443577E+03;
  7.0553467E-02;  9.9999998E-03;  2.7997485E-01;2931; -7.3082340E-03;  0.0000000E+00;  1.0652289E-03;  9.9831042E+02;  1.0000000E-01; -1.3997629E+03;3; -1.8716534E+01;  0.0000000E+00;  2.3376884E+01;0; -6.1057962E-02;  3.9845379E+04;  0.0000000E+00; -1.6463511E-01;  4.0000000E+04;  0.0000000E+00;  4.0016996E+04; -5.9458029E-02;  0.0000000E+00; -1.5999358E-03;  2.2731501E+03;
  7.0222944E-02;  9.9999998E-03;  2.8998262E-01;2932; -6.4368346E-03;  0.0000000E+00;  1.0863534E-03;  9.9816992E+02;  1.0000000E-01; -1.5162040E+03;3; -2.0406378E+01;  0.0000000E+00;  1.6203190E+01;0; -5.5052504E-02;  3.9845910E+04;  0.0000000E+00; -3.8736570E-01;  4.0000000E+04;  0.0000000E+00;  4.0003828E+04; -5.1627606E-02;  0.0000000E+00; -3.4248978E-03;  8.3967395E+02;
  6.9948725E-02;  9.9999998E-03;  3.0002084E-01;2933; -5.5397679E-03;  0.0000000E+00;  1.1548431E-03;  9.9813745E+02;  1.0000000E-01; -1.5430675E+03;3; -2.2176088E+01;  0.0000000E+00;  6.6295834E+00;0; -4.8556633E-02;  3.9855293E+04;  0.0000000E+00; -5.4136932E-01;  4.0000000E+04;  0.0000000E+00;  3.9990992E+04; -4.3582059E-02;  0.0000000E+00; -4.9745752E-03;  1.2306041E+03;
  8.1532754E-02;  9.9999998E-03;  2.4006569E-01;2988; -1.1814232E-02;  0.0000000E+00;  3.6533046E-04;  1.0004805E+03;  1.0000000E-01;  3.9801343E+02;3; -1.6598272E+01;  0.0000000E+00;  2.1781727E+01;0; -7.5213738E-02;  4.0005059E+04;  0.0000000E+00;  1.1339732E+00;  4.0000000E+04;  0.0000000E+00;  4.0038141E+04; -7.9601526E-02;  0.0000000E+00;  4.3877885E-03;  5.0141211E+03;
  8.1359930E-02;  9.9999998E-03;  2.5005037E-01;2989; -1.0867687E-02;  0.0000000E+00;  6.4561219E-04;  9.9994336E+02;  1.0000000E-01; -4.6912254E+01;3; -1.5079792E+01;  0.0000000E+00;  2.8068048E+01;0; -7.2067857E-02;  3.9957746E+04;  0.0000000E+00;  1.0497358E+00;  4.0000000E+04;  0.0000000E+00;  4.0040480E+04; -7.5828552E-02;  0.0000000E+00;  3.7606924E-03;  5.3126685E+03;
  8.1150688E-02;  9.9999998E-03;  2.6002210E-01;2990; -9.8999124E-03;  0.0000000E+00;  9.0559624E-04;  9.9942828E+02;  1.0000000E-01; -4.7366562E+02;3; -1.4655175E+01;  0.0000000E+00;  3.2425953E+01;0; -6.8452567E-02;  3.9917598E+04;  0.0000000E+00;  8.8531768E-01;  4.0000000E+04;  0.0000000E+00;  4.0037922E+04; -7.1006902E-02;  0.0000000E+00;  2.5543347E-03;  4.9383638E+03;
  8.0897160E-02;  9.9999998E-03;  2.6998726E-01;2991; -8.9262668E-03;  0.0000000E+00;  1.1016452E-03;  9.9896167E+02;  1.0000000E-01; -8.6022260E+02;3; -1.5408845E+01;  0.0000000E+00;  3.3125629E+01;0; -6.4309493E-02;  3.9886730E+04;  0.0000000E+00;  6.5650702E-01;  4.0000000E+04;  0.0000000E+00;  4.0029598E+04; -6.5197840E-02;  0.0000000E+00;  8.8834623E-04;  3.9022949E+03;
  8.0604590E-02;  9.9999998E-03;  2.7995822E-01;2992; -7.9661310E-03;  0.0000000E+00;  1.1942961E-03;  9.9857416E+02;  1.0000000E-01; -1.1812999E+03;3; -1.7203905E+01;  0.0000000E+00;  2.9026669E+01;0; -5.9576601E-02;  3.9866410E+04;  0.0000000E+00;  3.9090943E-01;  4.0000000E+04;  0.0000000E+00;  4.0017156E+04; -5.8535062E-02;  0.0000000E+00; -1.0415372E-03;  2.3485171E+03;
  8.0290325E-02;  9.9999998E-03;  2.8996402E-01;2993; -6.9906432E-03;  0.0000000E+00;  1.2302949E-03;  9.9829987E+02;  1.0000000E-01; -1.4085527E+03;3; -1.9684044E+01;  0.0000000E+00;  2.0439360E+01;0; -5.4205921E-02;  3.9857617E+04;  0.0000000E+00;  1.2555647E-01;  4.0000000E+04;  0.0000000E+00;  4.0002836E+04; -5.1219843E-02;  0.0000000E+00; -2.9860782E-03;  5.3046515E+02;
  8.0011018E-02;  9.9999998E-03;  3.0001724E-01;2994; -5.9510474E-03;  0.0000000E+00;  1.3303253E-03;  9.9815894E+02;  1.0000000E-01; -1.5252902E+03;3; -2.2133074E+01;  0.0000000E+00;  9.0198374E+00;0; -4.8208173E-02;  3.9859746E+04;  0.0000000E+00; -9.8943181E-02;  4.0000000E+04;  0.0000000E+00;  3.9988770E+04; -4.3537684E-02;  0.0000000E+00; -4.6704886E-03;  1.2728019E+03;
  9.1483004E-02;  9.9999998E-03;  2.4006283E-01;3049; -1.2558860E-02;  0.0000000E+00;  3.5563653E-04;  1.0010200E+03;  1.0000000E-01;  8.4511188E+02;3; -1.1349154E+01;  0.0000000E+00;  2.5457499E+01;0; -7.0671007E-02;  4.0045785E+04;  0.0000000E+00;  1.7847340E+00;  4.0000000E+04;  0.0000000E+00;  4.0041715E+04; -7.5671479E-02;  0.0000000E+00;  5.0004716E-03;  5.7256519E+03;
  9.1324858E-02;  9.9999998E-03;  2.5004834E-01;3050; -1.1601117E-02;  0.0000000E+00;  6.8502157E-04;  1.0003636E+03;  1.0000000E-01;  3.0122604E+02;3; -1.0934402E+01;  0.0000000E+00;  3.2517742E+01;0; -6.8419181E-02;  3.9988680E+04;  0.0000000E+00;  1.8464001E+00;  4.0000000E+04;  0.0000000E+00;  4.0043945E+04; -7.2860286E-02;  0.0000000E+00;  4.4411030E-03;  6.0823418E+03;
  9.1137901E-02;  9.9999998E-03;  2.6001737E-01;3051; -1.0601464E-02;  0.0000000E+00;  9.9916162E-04;  9.9971967E+02;  1.0000000E-01; -2.3224034E+02;3; -1.1533123E+01;  0.0000000E+00;  3.7331455E+01;0; -6.5706372E-02;  3.9938730E+04;  0.0000000E+00;  1.8373444E+00;  4.0000000E+04;  0.0000000E+00;  4.0040477E+04; -6.8966284E-02;  0.0000000E+00;  3.2599103E-03;  5.7348169E+03;
  9.0912387E-02;  9.9999998E-03;  2.6997623E-01;3052; -9.5779076E-03;  0.0000000E+00;  1.2278032E-03;  9.9912384E+02;  1.0000000E-01; -7.2590540E+02;3; -1.3231904E+01;  0.0000000E+00;  3.7885033E+01;0; -6.2438544E-02;  3.9898344E+04;  0.0000000E+00;  1.7443271E+00;  4.0000000E+04;  0.0000000E+00;  4.0031270E+04; -6.4010553E-02;  0.0000000E+00;  1.5720101E-03;  4.7059468E+03;
  9.0654686E-02;  9.9999998E-03;  2.7993605E-01;3053; -8.5372198E-03;  0.0000000E+00;  1.3456319E-03;  9.9861176E+02;  1.0000000E-01; -1.1501403E+03;3; -1.5904099E+01;  0.0000000E+00;  3.2901585E+01;0; -5.8512617E-02;  3.9869887E+04;  0.0000000E+00;  1.5637057E+00;  4.0000000E+04;  0.0000000E+00;  4.0017316E+04; -5.8089186E-02;  0.0000000E+00; -4.2343047E-04;  3.2155435E+03;
  9.0365380E-02;  9.9999998E-03;  2.8993434E-01;3054; -7.4522356E-03;  0.0000000E+00;  1.4021470E-03;  9.9823389E+02;  1.0000000E-01; -1.4631685E+03;3; -1.9217899E+01;  0.0000000E+00;  2.2761858E+01;0; -5.3835515E-02;  3.9854328E+04;  0.0000000E+00;  1.3076955E+00;  4.0000000E+04;  0.0000000E+00;  4.0001215E+04; -5.1364742E-02;  0.0000000E+00; -2.4707718E-03;  1.9037255E+03;
  9.0092428E-02;  9.9999998E-03;  2.9999784E-01;3055; -6.2483004E-03;  0.0000000E+00;  1.5519849E-03;  9.9801544E+02;  1.0000000E-01; -1.6441510E+03;3; -2.2321863E+01;  0.0000000E+00;  9.4668417E+00;0; -4.8357159E-02;  3.9851535E+04;  0.0000000E+00;  1.0060024E+00;  4.0000000E+04;  0.0000000E+00;  3.9985203E+04; -4.4080660E-02;  0.0000000E+00; -4.2764973E-03;  2.2141882E+03;
  1.0143829E-01;  9.9999998E-03;  2.4005292E-01;3110; -1.3207440E-02;  0.0000000E+00;  3.5063931E-04;  1.0012594E+03;  1.0000000E-01;  1.0434272E+03;3; -7.2268343E+00;  0.0000000E+00;  2.8271854E+01;0; -6.6703856E-02;  4.0061059E+04;  0.0000000E+00;  2.6036055E+00;  4.0000000E+04;  0.0000000E+00;  4.0046082E+04; -7.2299652E-02;  0.0000000E+00;  5.5957991E-03;  6.7768628E+03;
  1.0129046E-01;  9.9999998E-03;  2.5003758E-01;3111; -1.2260415E-02;  0.0000000E+00;  7.2225300E-04;  1.0005046E+03;  1.0000000E-01;  4.1806226E+02;3; -7.7213926E+00;  0.0000000E+00;  3.5927460E+01;0; -6.5410338E-02;  3.9996453E+04;  0.0000000E+00;  2.9880116E+00;  4.0000000E+04;  0.0000000E+00;  4.0048293E+04; -7.0518695E-02;  0.0000000E+00;  5.1083574E-03;  7.3667119E+03;
  1.0111684E-01;  9.9999998E-03;  2.6000479E-01;3112; -1.1248458E-02;  0.0000000E+00;  1.0702806E-03;  9.9975494E+02;  1.0000000E-01; -2.0300661E+02;3; -9.1723785E+00;  0.0000000E+00;  4.1000568E+01;0; -6.3677274E-02;  3.9938832E+04;  0.0000000E+00;  3.3357253E+00;  4.0000000E+04;  0.0000000E+00;  4.0043750E+04; -6.7641720E-02;  0.0000000E+00;  3.9644460E-03;  7.3097495E+03;
  1.0091858E-01;  9.9999998E-03;  2.6995510E-01;3113; -1.0186989E-02;  0.0000000E+00;  1.3192261E-03;  9.9905237E+02;  1.0000000E-01; -7.8511359E+02;3; -1.1672984E+01;  0.0000000E+00;  4.1240425E+01;0; -6.1362777E-02;  3.9891305E+04;  0.0000000E+00;  3.5782559E+00;  4.0000000E+04;  0.0000000E+00;  4.0033559E+04; -6.3637473E-02;  0.0000000E+00;  2.2746967E-03;  6.6781562E+03;
  1.0069467E-01;  9.9999998E-03;  2.7990463E-01;3114; -9.0597356E-03;  0.0000000E+00;  1.4657866E-03;  9.9844543E+02;  1.0000000E-01; -1.2879142E+03;3; -1.5131414E+01;  0.0000000E+00;  3.5320110E+01;0; -5.8305226E-02;  3.9856621E+04;  0.0000000E+00;  3.6467516E+00;  4.0000000E+04;  0.0000000E+00;  4.0017766E+04; -5.8543298E-02;  0.0000000E+00;  2.3807120E-04;  5.7515898E+03;
  1.0044187E-01;  9.9999998E-03;  2.8989005E-01;3115; -7.8579001E-03;  0.0000000E+00;  1.5458665E-03;  9.9798315E+02;  1.0000000E-01; -1.6709156E+03;3; -1.9217827E+01;  0.0000000E+00;  2.3533260E+01;0; -5.4357350E-02;  3.9836586E+04;  0.0000000E+00;  3.5014856E+00;  4.0000000E+04;  0.0000000E+00;  3.9999695E+04; -5.2470062E-02;  0.0000000E+00; -1.8872889E-03;  5.0304121E+03;
  1.0019144E-01;  9.9999998E-03;  2.9995573E-01;3116; -6.4759119E-03;  0.0000000E+00;  1.7506912E-03;  9.9770599E+02;  1.0000000E-01; -1.9005388E+03;3; -2.2942980E+01;  0.0000000E+00;  8.2591696E+00;0; -4.9377121E-02;  3.9831129E+04;  0.0000000E+00;  3.1401258E+00;  4.0000000E+04;  0.0000000E+00;  3.9981414E+04; -4.5586780E-02;  0.0000000E+00; -3.7903422E-03;  4.9845029E+03;
  1.1140444E-01;  9.9999998E-03;  2.4003232E-01;3171; -1.3830763E-02;  0.0000000E+00;  2.9749988E-04;  1.0012661E+03;  1.0000000E-01;  1.0488593E+03;3; -4.5299282E+00;  0.0000000E+00;  3.0366045E+01;0; -6.3659944E-02;  4.0056613E+04;  0.0000000E+00;  3.6107812E+00;  4.0000000E+04;  0.0000000E+00;  4.0051695E+04; -6.9800690E-02;  0.0000000E+00;  6.1407462E-03;  8.1626719E+03;
  1.1125834E-01;  9.9999998E-03;  2.5001332E-01;3172; -1.2914252E-02;  0.0000000E+00;  6.9578295E-04;  1.0004318E+03;  1.0000000E-01;  3.5771829E+02;3; -5.6351433E+00;  0.0000000E+00;  3.8505413E+01;0; -6.3382782E-02;  3.9985938E+04;  0.0000000E+00;  4.5247869E+00;  4.0000000E+04;  0.0000000E+00;  4.0053312E+04; -6.9111899E-02;  0.0000000E+00;  5.7291142E-03;  9.2810000E+03;
  1.1109205E-01;  9.9999998E-03;  2.5997645E-01;3173; -1.1899774E-02;  0.0000000E+00;  1.0676089E-03;  9.9959528E+02;  1.0000000E-01; -3.3529916E+02;3; -7.6419630E+00;  0.0000000E+00;  4.3775616E+01;0; -6.2702991E-02;  3.9922059E+04;  0.0000000E+00;  5.4805408E+00;  4.0000000E+04;  0.0000000E+00;  4.0048414E+04; -6.7341767E-02;  0.0000000E+00;  4.6387771E-03;  9.9488076E+03;
  1.1090989E-01;  9.9999998E-03;  2.6991990E-01;3174; -1.0811134E-02;  0.0000000E+00;  1.3219322E-03;  9.9880402E+02;  1.0000000E-01; -9.9083618E+02;3; -1.0665530E+01;  0.0000000E+00;  4.3698128E+01;0; -6.1426461E-02;  3.9868859E+04;  0.0000000E+00;  6.3275056E+00;  4.0000000E+04;  0.0000000E+00;  4.0036402E+04; -6.4394876E-02;  0.0000000E+00;  2.9684147E-03;  1.0231878E+04;
  1.1071355E-01;  9.9999998E-03;  2.7985990E-01;3175; -9.6197575E-03;  0.0000000E+00;  1.4685723E-03;  9.9811041E+02;  1.0000000E-01; -1.5654866E+03;3; -1.4690768E+01;  0.0000000E+00;  3.6789257E+01;0; -5.9317086E-02;  3.9829449E+04;  0.0000000E+00;  6.8939829E+00;  4.0000000E+04;  0.0000000E+00;  4.0019094E+04; -6.0230773E-02;  0.0000000E+00;  9.1368705E-04;  1.0250800E+04;
  1.1050487E-01;  9.9999998E-03;  2.8982905E-01;3176; -8.2835201E-03;  0.0000000E+00;  1.5824223E-03;  9.9757629E+02;  1.0000000E-01; -2.0079926E+03;3; -1.9432890E+01;  0.0000000E+00;  2.3487879E+01;0; -5.6127518E-02;  3.9805742E+04;  0.0000000E+00;  7.0403614E+00;  4.0000000E+04;  0.0000000E+00;  3.9999027E+04; -5.4870747E-02;  0.0000000E+00; -1.2567723E-03;  1.0128237E+04;
  1.1029623E-01;  9.9999998E-03;  2.9988772E-01;3177; -6.6953273E-03;  0.0000000E+00;  1.8625566E-03;  9.9724377E+02;  1.0000000E-01; -2.2834910E+03;3; -2.3818178E+01;  0.0000000E+00;  6.2033958E+00;0; -5.1583573E-02;  3.9798547E+04;  0.0000000E+00;  6.6896968E+00;  4.0000000E+04;  0.0000000E+00;  3.9978332E+04; -4.8367046E-02;  0.0000000E+00; -3.2165274E-03;  9.9312998E+03;
  1.2138224E-01;  9.9999998E-03;  2.4000253E-01;3232; -1.4464349E-02;  0.0000000E+00;  1.9775788E-04;  1.0011237E+03;  1.0000000E-01;  9.3093665E+02;3; -3.0538306E+00;  0.0000000E+00;  3.1955854E+01;0; -6.1712507E-02;  4.0039613E+04;  0.0000000E+00;  4.7592921E+00;  4.0000000E+04;  0.0000000E+00;  4.0056801E+04; -6.8316691E-02;  0.0000000E+00;  6.6041849E-03;  9.8037441E+03;
  1.2123620E-01;  9.9999998E-03;  2.4997407E-01;3233; -1.3603664E-02;  0.0000000E+00;  5.8953965E-04;  1.0002210E+03;  1.0000000E-01;  1.8310593E+02;3; -4.4138026E+00;  0.0000000E+00;  4.0546677E+01;0; -6.2510878E-02;  3.9963668E+04;  0.0000000E+00;  6.4087386E+00;  4.0000000E+04;  0.0000000E+00;  4.0058777E+04; -6.8779893E-02;  0.0000000E+00;  6.2690144E-03;  1.1802060E+04;
  1.2107000E-01;  9.9999998E-03;  2.5992763E-01;3234; -1.2621132E-02;  0.0000000E+00;  9.4326789E-04;  9.9930542E+02;  1.0000000E-01; -5.7544049E+02;3; -6.5638838E+00;  0.0000000E+00;  4.6063240E+01;0; -6.2982380E-02;  3.9894305E+04;  0.0000000E+00;  8.2543802E+00;  4.0000000E+04;  0.0000000E+00;  4.0053625E+04; -6.8223864E-02;  0.0000000E+00;  5.2414825E-03;  1.3692796E+04;
  1.2089175E-01;  9.9999998E-03;  2.6986441E-01;3235; -1.1528658E-02;  0.0000000E+00;  1.1728448E-03;  9.9843915E+02;  1.0000000E-01; -1.2931486E+03;3; -9.6697216E+00;  0.0000000E+00;  4.5871861E+01;0; -6.2868908E-02;  3.9835879E+04;  0.0000000E+00;  1.0045444E+01;  4.0000000E+04;  0.0000000E+00;  4.0041074E+04; -6.6473052E-02;  0.0000000E+00;  3.6041434E-03;  1.5425424E+04;
  1.2071591E-01;  9.9999998E-03;  2.7979383E-01;3236; -1.0294493E-02;  0.0000000E+00;  1.2975605E-03;  9.9767603E+02;  1.0000000E-01; -1.9253777E+03;3; -1.3862687E+01;  0.0000000E+00;  3.8390503E+01;0; -6.1840318E-02;  3.9791926E+04;  0.0000000E+00;  1.1471981E+01;  4.0000000E+04;  0.0000000E+00;  4.0022754E+04; -6.3388847E-02;  0.0000000E+00;  1.5485287E-03;  1.6831861E+04;
  1.2054142E-01;  9.9999998E-03;  2.8975025E-01;3237; -8.8173533E-03;  0.0000000E+00;  1.4510199E-03;  9.9707550E+02;  1.0000000E-01; -2.4228945E+03;3; -1.9049650E+01;  0.0000000E+00;  2.4003391E+01;0; -5.9464917E-02;  3.9765160E+04;  0.0000000E+00;  1.2224694E+01;  4.0000000E+04;  0.0000000E+00;  4.0000492E+04; -5.8831841E-02;  0.0000000E+00; -6.3307770E-04;  1.7630578E+04;
  1.2038650E-01;  9.9999998E-03;  2.9979587E-01;3238; -6.9992188E-03;  0.0000000E+00;  1.8235362E-03;  9.9667151E+02;  1.0000000E-01; -2.7576011E+03;3; -2.4199844E+01;  0.0000000E+00;  4.7903738E+00;0; -5.5275775E-02;  3.9755090E+04;  0.0000000E+00;  1.2056191E+01;  4.0000000E+04;  0.0000000E+00;  3.9977254E+04; -5.2683968E-02;  0.0000000E+00; -2.5918083E-03;  1.7545092E+04;
  1.3138439E-01;  9.9999998E-03;  2.3996726E-01;3293; -1.5152398E-02;  0.0000000E+00;  3.7021397E-05;  1.0009156E+03;  1.0000000E-01;  7.5859583E+02;3; -2.3636439E+00;  0.0000000E+00;  3.3154526E+01;0; -6.0864013E-02;  4.0017418E+04;  0.0000000E+00;  5.9118385E+00;  4.0000000E+04;  0.0000000E+00;  4.0062203E+04; -6.7814052E-02;  0.0000000E+00;  6.9500394E-03;  1.1506933E+04;
  1.3123481E-01;  9.9999998E-03;  2.4992433E-01;3294; -1.4378851E-02;  0.0000000E+00;  3.8337489E-04;  9.9995483E+02;  1.0000000E-01; -3.7431042E+01;3; -3.5929604E+00;  0.0000000E+00;  4.2288136E+01;0; -6.2817939E-02;  3.9936301E+04;  0.0000000E+00;  8.4631968E+00;  4.0000000E+04;  0.0000000E+00;  4.0065395E+04; -6.9497913E-02;  0.0000000E+00;  6.6799764E-03;  1.4705779E+04;
  1.3106023E-01;  9.9999998E-03;  2.5986502E-01;3295; -1.3460664E-02;  0.0000000E+00;  6.8747671E-04;  9.9897705E+02;  1.0000000E-01; -8.4748218E+02;3; -5.3736205E+00;  0.0000000E+00;  4.8410633E+01;0; -6.4580783E-02;  3.9861316E+04;  0.0000000E+00;  1.1484637E+01;  4.0000000E+04;  0.0000000E+00;  4.0060414E+04; -7.0291430E-02;  0.0000000E+00;  5.7106474E-03;  1.8299285E+04;
  1.3088080E-01;  9.9999998E-03;  2.6978949E-01;3296; -1.2388017E-02;  0.0000000E+00;  8.8473473E-04;  9.9804480E+02;  1.0000000E-01; -1.6198555E+03;3; -7.9287453E+00;  0.0000000E+00;  4.8803406E+01;0; -6.5817773E-02;  3.9797922E+04;  0.0000000E+00;  1.4639188E+01;  4.0000000E+04;  0.0000000E+00;  4.0047953E+04; -6.9929503E-02;  0.0000000E+00;  4.1117277E-03;  2.2088369E+04;
  1.3070828E-01;  9.9999998E-03;  2.7971172E-01;3297; -1.1126280E-02;  0.0000000E+00;  9.8368630E-04;  9.9722296E+02;  1.0000000E-01; -2.3007251E+03;3; -1.1599307E+01;  0.0000000E+00;  4.1623249E+01;0; -6.6081829E-02;  3.9749738E+04;  0.0000000E+00;  1.7433153E+01;  4.0000000E+04;  0.0000000E+00;  4.0030066E+04; -6.8142273E-02;  0.0000000E+00;  2.0604446E-03;  2.5542160E+04;
  1.3056195E-01;  9.9999998E-03;  2.8965119E-01;3298; -9.5494166E-03;  0.0000000E+00;  1.1517263E-03;  9.9656122E+02;  1.0000000E-01; -2.8489565E+03;3; -1.6697268E+01;  0.0000000E+00;  2.7113707E+01;0; -6.4701907E-02;  3.9718488E+04;  0.0000000E+00;  1.9309229E+01;  4.0000000E+04;  0.0000000E+00;  4.0007453E+04; -6.4590402E-02;  0.0000000E+00; -1.1150446E-04;  2.7935857E+04;
  1.3045199E-01;  9.9999998E-03;  2.9968312E-01;3299; -7.4886237E-03;  0.0000000E+00;  1.6301386E-03;  9.9606897E+02;  1.0000000E-01; -3.2567969E+03;3; -2.2575090E+01;  0.0000000E+00;  6.3952966E+00;0; -6.0803287E-02;  3.9703785E+04;  0.0000000E+00;  1.9685535E+01;  4.0000000E+04;  0.0000000E+00;  3.9982062E+04; -5.8809798E-02;  0.0000000E+00; -1.9934904E-03;  2.8465266E+04;
  1.4140768E-01;  9.9999998E-03;  2.3993866E-01;3354; -1.5904073E-02;  0.0000000E+00; -1.4668732E-04;  1.0007308E+03;  1.0000000E-01;  6.0541498E+02;3; -2.0597596E+00;  0.0000000E+00;  3.4035858E+01;0; -6.0953416E-02;  3.9997426E+04;  0.0000000E+00;  6.8461165E+00;  4.0000000E+04;  0.0000000E+00;  4.0066754E+04; -6.8099521E-02;  0.0000000E+00;  7.1461052E-03;  1.2952700E+04;
  1.4127138E-01;  9.9999998E-03;  2.4987562E-01;3355; -1.5243256E-02;  0.0000000E+00;  1.3836286E-04;  9.9971460E+02;  1.0000000E-01; -2.3643776E+02;3; -2.7876854E+00;  0.0000000E+00;  4.3942329E+01;0; -6.4158298E-02;  3.9910547E+04;  0.0000000E+00;  1.0372088E+01;  4.0000000E+04;  0.0000000E+00;  4.0071918E+04; -7.1078055E-02;  0.0000000E+00;  6.9197556E-03;  1.7548998E+04;
  1.4109716E-01;  9.9999998E-03;  2.5979760E-01;3356; -1.4423202E-02;  0.0000000E+00;  3.8596982E-04;  9.9867688E+02;  1.0000000E-01; -1.0961665E+03;3; -3.6083093E+00;  0.0000000E+00;  5.1295731E+01;0; -6.7399062E-02;  3.9829113E+04;  0.0000000E+00;  1.4821522E+01;  4.0000000E+04;  0.0000000E+00;  4.0069262E+04; -7.3392913E-02;  0.0000000E+00;  5.9938524E-03;  2.3265658E+04;
  1.4089474E-01;  9.9999998E-03;  2.6971439E-01;3357; -1.3408921E-02;  0.0000000E+00;  5.4480048E-04;  9.9769818E+02;  1.0000000E-01; -1.9070078E+03;3; -4.7433519E+00;  0.0000000E+00;  5.3277927E+01;0; -7.0260495E-02;  3.9760027E+04;  0.0000000E+00;  1.9825651E+01;  4.0000000E+04;  0.0000000E+00;  4.0058840E+04; -7.4680723E-02;  0.0000000E+00;  4.4202283E-03;  2.9797965E+04;
  1.4071120E-01;  9.9999998E-03;  2.7962396E-01;3358; -1.2137259E-02;  0.0000000E+00;  6.4900564E-04;  9.9683734E+02;  1.0000000E-01; -2.6202222E+03;3; -6.7476063E+00;  0.0000000E+00;  4.8019390E+01;0; -7.2114065E-02;  3.9707215E+04;  0.0000000E+00;  2.4690239E+01;  4.0000000E+04;  0.0000000E+00;  4.0042457E+04; -7.4502997E-02;  0.0000000E+00;  2.3889351E-03;  3.6273340E+04;
  1.4057215E-01;  9.9999998E-03;  2.8955242E-01;3359; -1.0494356E-02;  0.0000000E+00;  8.3632197E-04;  9.9612677E+02;  1.0000000E-01; -3.2088970E+03;3; -1.0573704E+01;  0.0000000E+00;  3.4855335E+01;0; -7.2028175E-02;  3.9671422E+04;  0.0000000E+00;  2.8465715E+01;  4.0000000E+04;  0.0000000E+00;  4.0021309E+04; -7.2277494E-02;  0.0000000E+00;  2.4932111E-04;  4.1333332E+04;
  1.4050312E-01;  9.9999998E-03;  2.9956678E-01;3360; -8.1896102E-03;  0.0000000E+00;  1.4424622E-03;  9.9551556E+02;  1.0000000E-01; -3.7152529E+03;3; -1.6453438E+01;  0.0000000E+00;  1.3536050E+01;0; -6.8408549E-02;  3.9648574E+04;  0.0000000E+00;  3.0028353E+01;  4.0000000E+04;  0.0000000E+00;  3.9995293E+04; -6.6967577E-02;  0.0000000E+00; -1.4409721E-03;  4.3372367E+04;
  1.5147179E-01;  9.9999998E-03;  2.3992720E-01;3415; -1.6700510E-02;  0.0000000E+00; -2.7780829E-04;  1.0006177E+03;  1.0000000E-01;  5.1178799E+02;3; -1.9284379E+00;  0.0000000E+00;  3.4489891E+01;0; -6.1655924E-02;  3.9985258E+04;  0.0000000E+00;  7.2790713E+00;  4.0000000E+04;  0.0000000E+00;  4.0069516E+04; -6.8837941E-02;  0.0000000E+00;  7.1820188E-03;  1.3719095E+04;
  1.5135729E-01;  9.9999998E-03;  2.4984875E-01;3416; -1.6170859E-02;  0.0000000E+00; -3.8587401E-05;  9.9955273E+02;  1.0000000E-01; -3.7055743E+02;3; -1.8883930E+00;  0.0000000E+00;  4.5383087E+01;0; -6.6195033E-02;  3.9891898E+04;  0.0000000E+00;  1.1690598E+01;  4.0000000E+04;  0.0000000E+00;  4.0077023E+04; -7.3176838E-02;  0.0000000E+00;  6.9818059E-03;  1.9668582E+04;
  1.5119781E-01;  9.9999998E-03;  2.5975278E-01;3417; -1.5474203E-02;  0.0000000E+00;  1.7857236E-04;  9.9845233E+02;  1.0000000E-01; -1.2822354E+03;3; -1.1833180E+00;  0.0000000E+00;  5.4624458E+01;0; -7.1099386E-02;  3.9801523E+04;  0.0000000E+00;  1.7664877E+01;  4.0000000E+04;  0.0000000E+00;  4.0078500E+04; -7.7195629E-02;  0.0000000E+00;  6.0962429E-03;  2.7705557E+04;
  1.5098730E-01;  9.9999998E-03;  2.6965082E-01;3418; -1.4556509E-02;  0.0000000E+00;  3.3880307E-04;  9.9742297E+02;  1.0000000E-01; -2.1350015E+03;3;  1.9466884E-01;  0.0000000E+00;  5.9570934E+01;0; -7.5886615E-02;  3.9724219E+04;  0.0000000E+00;  2.4968332E+01;  4.0000000E+04;  0.0000000E+00;  4.0073230E+04; -8.0459043E-02;  0.0000000E+00;  4.5724288E-03;  3.7658297E+04;
  1.5075627E-01;  9.9999998E-03;  2.7955711E-01;3419; -1.3303426E-02;  0.0000000E+00;  5.0699973E-04;  9.9656384E+02;  1.0000000E-01; -2.8467837E+03;3;  1.4623796E+00;  0.0000000E+00;  5.7833694E+01;0; -7.9661258E-02;  3.9667227E+04;  0.0000000E+00;  3.2773838E+01;  4.0000000E+04;  0.0000000E+00;  4.0061090E+04; -8.2293428E-02;  0.0000000E+00;  2.6321707E-03;  4.8371949E+04;
  1.5059906E-01;  9.9999998E-03;  2.8948292E-01;3420; -1.1558220E-02;  0.0000000E+00;  8.4035506E-04;  9.9582770E+02;  1.0000000E-01; -3.4566924E+03;3;  9.2792535E-01;  0.0000000E+00;  4.7709709E+01;0; -8.1026308E-02;  3.9626926E+04;  0.0000000E+00;  3.9525402E+01;  4.0000000E+04;  0.0000000E+00;  4.0042922E+04; -8.1731237E-02;  0.0000000E+00;  7.0492970E-04;  5.7607852E+04;
  1.5056249E-01;  9.9999998E-03;  2.9949853E-01;3421; -8.9858687E-03;  0.0000000E+00;  1.6424453E-03;  9.9503821E+02;  1.0000000E-01; -4.1107480E+03;3; -3.2647154E+00;  0.0000000E+00;  2.5744816E+01;0; -7.7558786E-02;  3.9591066E+04;  0.0000000E+00;  4.3036587E+01;  4.0000000E+04;  0.0000000E+00;  4.0016379E+04; -7.7002883E-02;  0.0000000E+00; -5.5590551E-04;  6.2222359E+04;
  1.6157587E-01;  9.9999998E-03;  2.3994680E-01;3476; -1.7529687E-02;  0.0000000E+00; -3.2122270E-04;  1.0005978E+03;  1.0000000E-01;  4.9529465E+02;3; -1.9994186E+00;  0.0000000E+00;  3.4132549E+01;0; -6.2519133E-02;  3.9984602E+04;  0.0000000E+00;  6.9232769E+00;  4.0000000E+04;  0.0000000E+00;  4.0068473E+04; -6.9579735E-02;  0.0000000E+00;  7.0605986E-03;  1.3332416E+04;
  1.6152556E-01;  9.9999998E-03;  2.4986006E-01;3477; -1.7130904E-02;  0.0000000E+00; -6.9986832E-05;  9.9946539E+02;  1.0000000E-01; -4.4290106E+02;3; -1.1598912E+00;  0.0000000E+00;  4.5885254E+01;0; -6.8386264E-02;  3.9882461E+04;  0.0000000E+00;  1.1822710E+01;  4.0000000E+04;  0.0000000E+00;  4.0079594E+04; -7.5295724E-02;  0.0000000E+00;  6.9094608E-03;  2.0151639E+04;
  1.6138862E-01;  9.9999998E-03;  2.5975087E-01;3478; -1.6570190E-02;  0.0000000E+00;  1.7987084E-04;  9.9828693E+02;  1.0000000E-01; -1.4192686E+03;3;  1.3417711E+00;  0.0000000E+00;  5.7260468E+01;0; -7.5031593E-02;  3.9780320E+04;  0.0000000E+00;  1.9042238E+01;  4.0000000E+04;  0.0000000E+00;  4.0086586E+04; -8.1158407E-02;  0.0000000E+00;  6.1268155E-03;  3.0178383E+04;
  1.6117467E-01;  9.9999998E-03;  2.6963109E-01;3479; -1.5763050E-02;  0.0000000E+00;  4.4183471E-04;  9.9719373E+02;  1.0000000E-01; -2.3249219E+03;3;  6.1143670E+00;  0.0000000E+00;  6.6128784E+01;0; -8.1880108E-02;  3.9690234E+04;  0.0000000E+00;  2.8741550E+01;  4.0000000E+04;  0.0000000E+00;  4.0088750E+04; -8.6693123E-02;  0.0000000E+00;  4.8130117E-03;  4.3748082E+04;
  1.6091499E-01;  9.9999998E-03;  2.7953610E-01;3480; -1.4530607E-02;  0.0000000E+00;  8.1706588E-04;  9.9629309E+02;  1.0000000E-01; -3.0711230E+03;3;  1.2432403E+01;  0.0000000E+00;  6.8791039E+01;0; -8.7689474E-02;  3.9623754E+04;  0.0000000E+00;  4.0123634E+01;  4.0000000E+04;  0.0000000E+00;  4.0082891E+04; -9.0972811E-02;  0.0000000E+00;  3.2833405E-03;  5.9622660E+04;
  1.6071163E-01;  9.9999998E-03;  2.8949293E-01;3481; -1.2606506E-02;  0.0000000E+00;  1.4814851E-03;  9.9550116E+02;  1.0000000E-01; -3.7272031E+03;3;  1.7228127E+01;  0.0000000E+00;  6.0383289E+01;0; -9.0238765E-02;  3.9577648E+04;  0.0000000E+00;  5.0728828E+01;  4.0000000E+04;  0.0000000E+00;  4.0066488E+04; -9.2323780E-02;  0.0000000E+00;  2.0850152E-03;  7.4217922E+04;
  1.6069961E-01;  9.9999998E-03;  2.9955789E-01;3482; -9.5887007E-03;  0.0000000E+00;  2.6151778E-03;  9.9435956E+02;  1.0000000E-01; -4.6730034E+03;3;  1.6186615E+01;  0.0000000E+00;  3.3058273E+01;0; -8.5960448E-02;  3.9519699E+04;  0.0000000E+00;  5.6156036E+01;  4.0000000E+04;  0.0000000E+00;  4.0034059E+04; -8.7782212E-02;  0.0000000E+00;  1.8217620E-03;  8.1299953E+04;
  1.7166559E-01;  9.9999998E-03;  2.4001053E-01;3537; -1.8351143E-02;  0.0000000E+00; -2.6286158E-04;  1.0006711E+03;  1.0000000E-01;  5.5593488E+02;3; -2.5421324E+00;  0.0000000E+00;  3.2431145E+01;0; -6.2943019E-02;  3.9997500E+04;  0.0000000E+00;  5.6277866E+00;  4.0000000E+04;  0.0000000E+00;  4.0061082E+04; -6.9750123E-02;  0.0000000E+00;  6.8071047E-03;  1.1414340E+04;
  1.7169599E-01;  9.9999998E-03;  2.4993396E-01;3538; -1.8069780E-02;  0.0000000E+00;  4.2730520E-05;  9.9945258E+02;  1.0000000E-01; -4.5351804E+02;3; -1.3360586E+00;  0.0000000E+00;  4.4070023E+01;0; -6.9978282E-02;  3.9887020E+04;  0.0000000E+00;  1.0261432E+01;  4.0000000E+04;  0.0000000E+00;  4.0073609E+04; -7.6741934E-02;  0.0000000E+00;  6.7636487E-03;  1.8052953E+04;
  1.7163038E-01;  9.9999998E-03;  2.5982106E-01;3539; -1.7642921E-02;  0.0000000E+00;  3.9073368E-04;  9.9814221E+02;  1.0000000E-01; -1.5391664E+03;3;  2.4264565E+00;  0.0000000E+00;  5.6531944E+01;0; -7.8218050E-02;  3.9769309E+04;  0.0000000E+00;  1.7704508E+01;  4.0000000E+04;  0.0000000E+00;  4.0086031E+04; -8.4454097E-02;  0.0000000E+00;  6.2360484E-03;  2.8702826E+04;
  1.7145693E-01;  9.9999998E-03;  2.6969638E-01;3540; -1.6947515E-02;  0.0000000E+00;  8.4302900E-04;  9.9689020E+02;  1.0000000E-01; -2.5764209E+03;3;  1.0208566E+01;  0.0000000E+00;  6.8046463E+01;0; -8.6974174E-02;  3.9658590E+04;  0.0000000E+00;  2.8796253E+01;  4.0000000E+04;  0.0000000E+00;  4.0096059E+04; -9.2431165E-02;  0.0000000E+00;  5.4569901E-03;  4.4543316E+04;
  1.7121133E-01;  9.9999998E-03;  2.7961114E-01;3541; -1.5713334E-02;  0.0000000E+00;  1.5603569E-03;  9.9578748E+02;  1.0000000E-01; -3.4899753E+03;3;  2.1667410E+01;  0.0000000E+00;  7.2882278E+01;0; -9.4467357E-02;  3.9569949E+04;  0.0000000E+00;  4.3021770E+01;  4.0000000E+04;  0.0000000E+00;  4.0096391E+04; -9.9446736E-02;  0.0000000E+00;  4.9793813E-03;  6.4591828E+04;
  1.7101158E-01;  9.9999998E-03;  2.8962743E-01;3542; -1.3498726E-02;  0.0000000E+00;  2.6141698E-03;  9.9461938E+02;  1.0000000E-01; -4.4577505E+03;3;  3.1462605E+01;  0.0000000E+00;  5.8948837E+01;0; -9.7465895E-02;  3.9498812E+04;  0.0000000E+00;  5.6375645E+01;  4.0000000E+04;  0.0000000E+00;  4.0074168E+04; -1.0274044E-01;  0.0000000E+00;  5.2745398E-03;  8.2933883E+04;
  1.7104296E-01;  9.9999998E-03;  2.9980090E-01;3543; -9.8992102E-03;  0.0000000E+00;  3.7289015E-03;  9.9260114E+02;  1.0000000E-01; -6.1298018E+03;3;  3.0072695E+01;  0.0000000E+00;  1.0422184E+01;0; -9.1742717E-02;  3.9393102E+04;  0.0000000E+00;  6.0639664E+01;  4.0000000E+04;  0.0000000E+00;  4.0019461E+04; -9.7681724E-02;  0.0000000E+00;  5.9390068E-03;  8.8043898E+04;
  1.8167108E-01;  9.9999998E-03;  2.4010476E-01;3598; -1.9123945E-02;  0.0000000E+00; -1.6259134E-04;  1.0008327E+03;  1.0000000E-01;  6.8985706E+02;3; -3.8238750E+00;  0.0000000E+00;  2.9172756E+01;0; -6.2292464E-02;  4.0026027E+04;  0.0000000E+00;  3.5823328E+00;  4.0000000E+04;  0.0000000E+00;  4.0045293E+04; -6.8701588E-02;  0.0000000E+00;  6.4091231E-03;  8.0366528E+03;
  1.8175015E-01;  9.9999998E-03;  2.5005409E-01;3599; -1.8920707E-02;  0.0000000E+00;  1.8496678E-04;  9.9956549E+02;  1.0000000E-01; -3.5998981E+02;3; -3.1624629E+00;  0.0000000E+00;  3.9188145E+01;0; -7.0200890E-02;  3.9913656E+04;  0.0000000E+00;  7.1951022E+00;  4.0000000E+04;  0.0000000E+00;  4.0055742E+04; -7.6700076E-02;  0.0000000E+00;  6.4991899E-03;  1.3338026E+04;
  1.8176438E-01;  9.9999998E-03;  2.5996077E-01;3600; -1.8590884E-02;  0.0000000E+00;  5.8750581E-04;  9.9811395E+02;  1.0000000E-01; -1.5625731E+03;3;  2.0829125E-01;  0.0000000E+00;  5.0020477E+01;0; -7.9744846E-02;  3.9784078E+04;  0.0000000E+00;  1.3480472E+01;  4.0000000E+04;  0.0000000E+00;  4.0068621E+04; -8.6003616E-02;  0.0000000E+00;  6.2587745E-03;  2.2622232E+04;
  1.8169779E-01;  9.9999998E-03;  2.6985681E-01;3601; -1.7998710E-02;  0.0000000E+00;  1.1289146E-03;  9.9656677E+02;  1.0000000E-01; -2.8443640E+03;3;  8.2187290E+00;  0.0000000E+00;  5.9531738E+01;0; -9.0226062E-02;  3.9647426E+04;  0.0000000E+00;  2.3539106E+01;  4.0000000E+04;  0.0000000E+00;  4.0081215E+04; -9.6280441E-02;  0.0000000E+00;  6.0543790E-03;  3.7316941E+04;
  1.8157837E-01;  9.9999998E-03;  2.7980009E-01;3602; -1.6831590E-02;  0.0000000E+00;  1.8680935E-03;  9.9489905E+02;  1.0000000E-01; -4.2260532E+03;3;  2.0630812E+01;  0.0000000E+00;  5.8648487E+01;0; -9.9854231E-02;  3.9514066E+04;  0.0000000E+00;  3.6766899E+01;  4.0000000E+04;  0.0000000E+00;  4.0080633E+04; -1.0620515E-01;  0.0000000E+00;  6.3509233E-03;  5.6157965E+04;
  1.8151508E-01;  9.9999998E-03;  2.8986791E-01;3603; -1.4634976E-02;  0.0000000E+00;  2.4974239E-03;  9.9269263E+02;  1.0000000E-01; -6.0540015E+03;3;  2.9104710E+01;  0.0000000E+00;  2.6580406E+01;0; -1.0600854E-01;  3.9373172E+04;  0.0000000E+00;  4.7423519E+01;  4.0000000E+04;  0.0000000E+00;  4.0045051E+04; -1.1249811E-01;  0.0000000E+00;  6.4895656E-03;  7.0642195E+04;
  1.8171917E-01;  9.9999998E-03;  3.0009392E-01;3604; -1.1617028E-02;  0.0000000E+00;  1.8757646E-03;  9.8881812E+02;  1.0000000E-01; -9.2639854E+03;3;  1.6708839E+01;  0.0000000E+00; -5.6172234E+01;0; -1.0930322E-01;  3.9145980E+04;  0.0000000E+00;  4.3385941E+01;  4.0000000E+04;  0.0000000E+00;  3.9963480E+04; -1.1204384E-01;  0.0000000E+00;  2.7406188E-03;  6.3810730E+04;
  1.9158910E-01;  9.9999998E-03;  2.4019226E-01;3659; -1.9802658E-02;  0.0000000E+00; -6.8213762E-05;  1.0010767E+03;  1.0000000E-01;  8.9202417E+02;3; -5.8088760E+00;  0.0000000E+00;  2.4962048E+01;0; -5.9962519E-02;  4.0067367E+04;  0.0000000E+00;  1.2926009E+00;  4.0000000E+04;  0.0000000E+00;  4.0023621E+04; -6.5798715E-02;  0.0000000E+00;  5.8361972E-03;  3.8749102E+03;
  1.9168682E-01;  9.9999998E-03;  2.5016508E-01;3660; -1.9652797E-02;  0.0000000E+00;  2.1006192E-04;  9.9984058E+02;  1.0000000E-01; -1.3209503E+02;3; -6.5757337E+00;  0.0000000E+00;  3.2375309E+01;0; -6.8516657E-02;  3.9962254E+04;  0.0000000E+00;  3.4849231E+00;  4.0000000E+04;  0.0000000E+00;  4.0029281E+04; -7.4397966E-02;  0.0000000E+00;  5.8813104E-03;  7.2051021E+03;
  1.9173710E-01;  9.9999998E-03;  2.6009458E-01;3661; -1.9356841E-02;  0.0000000E+00;  5.2881287E-04;  9.9836438E+02;  1.0000000E-01; -1.3550728E+03;3; -5.2768469E+00;  0.0000000E+00;  3.9897823E+01;0; -7.9148203E-02;  3.9833980E+04;  0.0000000E+00;  7.9137316E+00;  4.0000000E+04;  0.0000000E+00;  4.0038707E+04; -8.4758952E-02;  0.0000000E+00;  5.6107515E-03;  1.4087562E+04;
  1.9174206E-01;  9.9999998E-03;  2.7002022E-01;3662; -1.8814135E-02;  0.0000000E+00;  8.8328926E-04;  9.9664447E+02;  1.0000000E-01; -2.7799707E+03;3; -2.1997428E-01;  0.0000000E+00;  4.4297245E+01;0; -9.1520160E-02;  3.9685930E+04;  0.0000000E+00;  1.5501417E+01;  4.0000000E+04;  0.0000000E+00;  4.0047969E+04; -9.6704721E-02;  0.0000000E+00;  5.1845629E-03;  2.5519420E+04;
  1.9179398E-01;  9.9999998E-03;  2.7999392E-01;3663; -1.7828973E-02;  0.0000000E+00;  1.0549459E-03;  9.9432843E+02;  1.0000000E-01; -4.6987808E+03;3;  7.1736913E+00;  0.0000000E+00;  3.3311253E+01;0; -1.0524590E-01;  3.9506402E+04;  0.0000000E+00;  2.3703499E+01;  4.0000000E+04;  0.0000000E+00;  4.0041488E+04; -1.0926948E-01;  0.0000000E+00;  4.0235897E-03;  3.7380062E+04;
  1.9208260E-01;  9.9999998E-03;  2.9003906E-01;3664; -1.6735829E-02;  0.0000000E+00;  5.1818948E-05;  9.9044922E+02;  1.0000000E-01; -7.9126650E+03;3;  6.4879313E+00;  0.0000000E+00; -1.0111160E+01;0; -1.2427387E-01;  3.9232074E+04;  0.0000000E+00;  2.2429211E+01;  4.0000000E+04;  0.0000000E+00;  4.0005965E+04; -1.2222220E-01;  0.0000000E+00; -2.0516671E-03;  3.4788309E+04;
  1.9265066E-01;  9.9999998E-03;  3.0009824E-01;3665; -1.6650945E-02;  0.0000000E+00; -2.5602099E-03;  9.8418976E+02;  1.0000000E-01; -1.3098494E+04;3; -1.1844501E+01;  0.0000000E+00; -7.0286583E+01;0; -1.5563235E-01;  3.8780816E+04;  0.0000000E+00;  4.9174509E+00;  4.0000000E+04;  0.0000000E+00;  3.9963840E+04; -1.3989565E-01;  0.0000000E+00; -1.5736707E-02;  7.7572554E+03;
  2.0145135E-01;  9.9999998E-03;  2.4022439E-01;3720; -2.0382065E-02;  0.0000000E+00; -5.0311799E-05;  1.0014150E+03;  1.0000000E-01;  1.1723125E+03;3; -7.9283633E+00;  0.0000000E+00;  2.1278513E+01;0; -5.5549856E-02;  4.0114910E+04;  0.0000000E+00; -6.1229593E-01;  4.0000000E+04;  0.0000000E+00;  4.0003746E+04; -6.0519397E-02;  0.0000000E+00;  4.9695396E-03;  3.7132620E+02;
  2.0155564E-01;  9.9999998E-03;  2.5020650E-01;3721; -2.0244176E-02;  0.0000000E+00;  1.3113284E-04;  1.0003201E+03;  1.0000000E-01;  2.6517767E+02;3; -1.0355672E+01;  0.0000000E+00;  2.6929802E+01;0; -6.4385399E-02;  4.0024711E+04;  0.0000000E+00;  2.6465133E-01;  4.0000000E+04;  0.0000000E+00;  4.0005793E+04; -6.9191828E-02;  0.0000000E+00;  4.8064310E-03;  1.8203944E+03;
  2.0161527E-01;  9.9999998E-03;  2.6014799E-01;3722; -1.9956479E-02;  0.0000000E+00;  3.6589423E-04;  9.9899957E+02;  1.0000000E-01; -8.2881604E+02;3; -1.1628963E+01;  0.0000000E+00;  3.2757599E+01;0; -7.5600848E-02;  3.9909613E+04;  0.0000000E+00;  3.0120044E+00;  4.0000000E+04;  0.0000000E+00;  4.0013867E+04; -7.9951569E-02;  0.0000000E+00;  4.3507237E-03;  6.5632979E+03;
  2.0164944E-01;  9.9999998E-03;  2.7008969E-01;3723; -1.9392401E-02;  0.0000000E+00;  6.7640323E-04;  9.9736597E+02;  1.0000000E-01; -2.1822593E+03;3; -1.0571284E+01;  0.0000000E+00;  3.5569878E+01;0; -8.8688366E-02;  3.9768434E+04;  0.0000000E+00;  8.4319258E+00;  4.0000000E+04;  0.0000000E+00;  4.0022719E+04; -9.2626438E-02;  0.0000000E+00;  3.9380714E-03;  1.5079771E+04;
  2.0179977E-01;  9.9999998E-03;  2.8007221E-01;3724; -1.8599421E-02;  0.0000000E+00;  4.8315522E-04;  9.9484998E+02;  1.0000000E-01; -4.2666943E+03;3; -9.6339006E+00;  0.0000000E+00;  2.3386606E+01;0; -1.0566690E-01;  3.9570555E+04;  0.0000000E+00;  1.1916772E+01;  4.0000000E+04;  0.0000000E+00;  4.0017836E+04; -1.0685234E-01;  0.0000000E+00;  1.1854372E-03;  2.0122537E+04;
  2.0233734E-01;  9.9999998E-03;  2.9004568E-01;3725; -1.8896500E-02;  0.0000000E+00; -1.0687361E-03;  9.9019885E+02;  1.0000000E-01; -8.1200664E+03;3; -1.7930212E+01;  0.0000000E+00;  1.4409322E+00;0; -1.3595518E-01;  3.9203754E+04;  0.0000000E+00; -1.1868016E+00;  4.0000000E+04;  0.0000000E+00;  4.0014086E+04; -1.2671767E-01;  0.0000000E+00; -9.2375055E-03;  2.7845828E+03;
  2.0294775E-01;  9.9999998E-03;  2.9993165E-01;3726; -2.1570927E-02;  0.0000000E+00; -3.1995915E-03;  9.8402789E+02;  1.0000000E-01; -1.3232564E+04;3; -2.5339615E+01;  0.0000000E+00;  5.7107153E+00;0; -1.8627828E-01;  3.8679738E+04;  0.0000000E+00; -2.0190437E+01;  4.0000000E+04;  0.0000000E+00;  4.0055562E+04; -1.6235849E-01;  0.0000000E+00; -2.3919797E-02;  3.2638732E+04;
  2.1130091E-01;  9.9999998E-03;  2.4019012E-01;3781; -2.0854246E-02;  0.0000000E+00; -2.1532236E-05;  1.0018409E+03;  1.0000000E-01;  1.5250927E+03;3; -9.5669403E+00;  0.0000000E+00;  1.9174923E+01;0; -4.8589587E-02;  4.0160332E+04;  0.0000000E+00; -1.7873110E+00;  4.0000000E+04;  0.0000000E+00;  3.9992926E+04; -5.2519448E-02;  0.0000000E+00;  3.9298618E-03;  2.0537268E+03;
  2.1140805E-01;  9.9999998E-03;  2.5016922E-01;3782; -2.0721789E-02;  0.0000000E+00;  1.8329440E-04;  1.0010040E+03;  1.0000000E-01;  8.3177893E+02;3; -1.3274365E+01;  0.0000000E+00;  2.5077684E+01;0; -5.6916848E-02;  4.0089402E+04;  0.0000000E+00; -1.8322035E+00;  4.0000000E+04;  0.0000000E+00;  3.9996594E+04; -6.0749508E-02;  0.0000000E+00;  3.8326615E-03;  1.4173844E+03;
  2.1146892E-01;  9.9999998E-03;  2.6011807E-01;3783; -2.0402074E-02;  0.0000000E+00;  6.2369276E-04;  9.9997595E+02;  1.0000000E-01; -1.9900671E+01;3; -1.6774158E+01;  0.0000000E+00;  3.2255787E+01;0; -6.6849947E-02;  3.9994680E+04;  0.0000000E+00; -2.4914230E-01;  4.0000000E+04;  0.0000000E+00;  4.0007992E+04; -7.1197987E-02;  0.0000000E+00;  4.3480359E-03;  1.9055419E+03;
  2.1151708E-01;  9.9999998E-03;  2.7007863E-01;3784; -1.9780163E-02;  0.0000000E+00;  1.2015178E-03;  9.9858618E+02;  1.0000000E-01; -1.1713250E+03;3; -1.9756674E+01;  0.0000000E+00;  3.6825768E+01;0; -7.7840254E-02;  3.9871262E+04;  0.0000000E+00;  3.5979779E+00;  4.0000000E+04;  0.0000000E+00;  4.0018125E+04; -8.3679602E-02;  0.0000000E+00;  5.8393516E-03;  8.0822329E+03;
  2.1172868E-01;  9.9999998E-03;  2.8006431E-01;3785; -1.9182380E-02;  0.0000000E+00;  9.7571302E-04;  9.9619440E+02;  1.0000000E-01; -3.1528491E+03;3; -2.4643398E+01;  0.0000000E+00;  3.0351336E+01;0; -9.5143542E-02;  3.9676660E+04;  0.0000000E+00;  3.2288027E+00;  4.0000000E+04;  0.0000000E+00;  4.0018891E+04; -9.8464996E-02;  0.0000000E+00;  3.3214530E-03;  7.5107598E+03;
  2.1225242E-01;  9.9999998E-03;  2.8999820E-01;3786; -2.0342475E-02;  0.0000000E+00; -3.3925581E-04;  9.9213666E+02;  1.0000000E-01; -6.5146304E+03;3; -3.5624722E+01;  0.0000000E+00;  3.3759270E+01;0; -1.2893172E-01;  3.9324809E+04;  0.0000000E+00; -1.3086547E+01;  4.0000000E+04;  0.0000000E+00;  4.0045957E+04; -1.2192501E-01;  0.0000000E+00; -7.0066983E-03;  1.9654102E+04;
  2.1276174E-01;  9.9999998E-03;  2.9986078E-01;3787; -2.4422430E-02;  0.0000000E+00; -1.3793776E-03;  9.8706500E+02;  1.0000000E-01; -1.0716389E+04;3; -4.6322388E+01;  0.0000000E+00;  7.0846619E+01;0; -1.8261951E-01;  3.8852137E+04;  0.0000000E+00; -3.1346977E+01;  4.0000000E+04;  0.0000000E+00;  4.0121375E+04; -1.6620116E-01;  0.0000000E+00; -1.6418356E-02;  5.1830980E+04;
  2.2116520E-01;  9.9999998E-03;  2.4012983E-01;3842; -2.1229496E-02;  0.0000000E+00;  1.0903490E-04;  1.0022498E+03;  1.0000000E-01;  1.8638485E+03;3; -1.0479716E+01;  0.0000000E+00;  1.7431219E+01;0; -3.8726479E-02;  4.0196512E+04;  0.0000000E+00; -2.2895873E+00;  4.0000000E+04;  0.0000000E+00;  3.9989793E+04; -4.1692633E-02;  0.0000000E+00;  2.9661544E-03;  2.9217183E+03;
  2.2127846E-01;  9.9999998E-03;  2.5011167E-01;3843; -2.1081839E-02;  0.0000000E+00;  5.1209779E-04;  1.0016995E+03;  1.0000000E-01;  1.4079602E+03;3; -1.5182993E+01;  0.0000000E+00;  2.3864042E+01;0; -4.5345634E-02;  4.0146312E+04;  0.0000000E+00; -2.9991775E+00;  4.0000000E+04;  0.0000000E+00;  3.9996934E+04; -4.9032390E-02;  0.0000000E+00;  3.6867566E-03;  3.1393108E+03;
  2.2134863E-01;  9.9999998E-03;  2.6008102E-01;3844; -2.0711927E-02;  0.0000000E+00;  1.3195082E-03;  1.0009393E+03;  1.0000000E-01;  7.7824957E+02;3; -2.0884684E+01;  0.0000000E+00;  3.1553949E+01;0; -5.1972665E-02;  4.0073129E+04;  0.0000000E+00; -2.5640135E+00;  4.0000000E+04;  0.0000000E+00;  4.0008281E+04; -5.8582656E-02;  0.0000000E+00;  6.6099898E-03;  2.1105730E+03;
  2.2141325E-01;  9.9999998E-03;  2.7007365E-01;3845; -2.0056330E-02;  0.0000000E+00;  1.9665174E-03;  9.9973218E+02;  1.0000000E-01; -2.2187027E+02;3; -2.8142042E+01;  0.0000000E+00;  3.4714703E+01;0; -6.0128689E-02;  3.9971027E+04;  0.0000000E+00; -5.6991976E-01;  4.0000000E+04;  0.0000000E+00;  4.0011582E+04; -7.0206136E-02;  0.0000000E+00;  1.0077449E-02;  2.0909031E+03;
  2.2167115E-01;  9.9999998E-03;  2.8006750E-01;3846; -1.9729303E-02;  0.0000000E+00;  1.5111280E-03;  9.9754968E+02;  1.0000000E-01; -2.0300660E+03;3; -3.8622089E+01;  0.0000000E+00;  3.0858191E+01;0; -7.7952713E-02;  3.9792227E+04;  0.0000000E+00; -4.9757195E+00;  4.0000000E+04;  0.0000000E+00;  4.0012695E+04; -8.4826171E-02;  0.0000000E+00;  6.8734554E-03;  5.5726245E+03;
  2.2211984E-01;  9.9999998E-03;  2.9000336E-01;3847; -2.1274799E-02;  0.0000000E+00;  5.5455259E-04;  9.9427539E+02;  1.0000000E-01; -4.7427300E+03;3; -5.3937191E+01;  0.0000000E+00;  4.2860172E+01;0; -1.1037919E-01;  3.9492391E+04;  0.0000000E+00; -2.1966612E+01;  4.0000000E+04;  0.0000000E+00;  4.0049039E+04; -1.0883003E-01;  0.0000000E+00; -1.5491634E-03;  3.2369900E+04;
  2.2252744E-01;  9.9999998E-03;  2.9989061E-01;3848; -2.6224446E-02;  0.0000000E+00;  1.0779634E-03;  9.9027594E+02;  1.0000000E-01; -8.0562168E+03;3; -7.5770500E+01;  0.0000000E+00;  8.6954224E+01;0; -1.5427434E-01;  3.9100543E+04;  0.0000000E+00; -3.9784588E+01;  4.0000000E+04;  0.0000000E+00;  4.0124875E+04; -1.5615073E-01;  0.0000000E+00;  1.8763877E-03;  6.3323543E+04;
  2.3104864E-01;  9.9999998E-03;  2.4007259E-01;3903; -2.1520112E-02;  0.0000000E+00;  3.6854466E-04;  1.0025493E+03;  1.0000000E-01;  2.1120391E+03;3; -1.0601373E+01;  0.0000000E+00;  1.5378557E+01;0; -2.5843861E-02;  4.0220039E+04;  0.0000000E+00; -2.2990911E+00;  4.0000000E+04;  0.0000000E+00;  3.9991047E+04; -2.8122244E-02;  0.0000000E+00;  2.2783843E-03;  2.9493706E+03;
  2.3117206E-01;  9.9999998E-03;  2.5006661E-01;3904; -2.1343866E-02;  0.0000000E+00;  1.0366923E-03;  1.0022501E+03;  1.0000000E-01;  1.8641447E+03;3; -1.6001038E+01;  0.0000000E+00;  2.1521391E+01;0; -2.9763801E-02;  4.0189617E+04;  0.0000000E+00; -3.4928095E+00;  4.0000000E+04;  0.0000000E+00;  3.9998445E+04; -3.4255475E-02;  0.0000000E+00;  4.4916742E-03;  3.9622007E+03;
  2.3126236E-01;  9.9999998E-03;  2.6006427E-01;3905; -2.0986324E-02;  0.0000000E+00;  1.9399180E-03;  1.0016737E+03;  1.0000000E-01;  1.3866273E+03;3; -2.3406454E+01;  0.0000000E+00;  2.7533268E+01;0; -3.3255965E-02;  4.0137785E+04;  0.0000000E+00; -4.3154993E+00;  4.0000000E+04;  0.0000000E+00;  4.0004379E+04; -4.2580716E-02;  0.0000000E+00;  9.3247499E-03;  4.6364863E+03;
  2.3134470E-01;  9.9999998E-03;  2.7008003E-01;3906; -2.0413879E-02;  0.0000000E+00;  2.1685795E-03;  1.0006332E+03;  1.0000000E-01;  5.2462708E+02;3; -3.3434959E+01;  0.0000000E+00;  2.7848419E+01;0; -4.1305877E-02;  4.0058703E+04;  0.0000000E+00; -4.3014512E+00;  4.0000000E+04;  0.0000000E+00;  3.9998332E+04; -5.3085174E-02;  0.0000000E+00;  1.1779295E-02;  4.2421533E+03;
  2.3158781E-01;  9.9999998E-03;  2.8007776E-01;3907; -2.0247158E-02;  0.0000000E+00;  1.4406500E-03;  9.9886212E+02;  1.0000000E-01; -9.4268933E+02;3; -4.6578026E+01;  0.0000000E+00;  2.4492678E+01;0; -6.0186263E-02;  3.9914703E+04;  0.0000000E+00; -1.0177676E+01;  4.0000000E+04;  0.0000000E+00;  3.9997586E+04; -6.6748857E-02;  0.0000000E+00;  6.5625934E-03;  1.2937630E+04;
  2.3195347E-01;  9.9999998E-03;  2.9003021E-01;3908; -2.1744510E-02;  0.0000000E+00;  8.6242397E-04;  9.9635071E+02;  1.0000000E-01; -3.0233711E+03;3; -6.4383797E+01;  0.0000000E+00;  3.4268856E+01;0; -8.8060014E-02;  3.9679523E+04;  0.0000000E+00; -2.5660587E+01;  4.0000000E+04;  0.0000000E+00;  4.0028676E+04; -8.8834889E-02;  0.0000000E+00;  7.7487808E-04;  3.6871848E+04;
  2.3227830E-01;  9.9999998E-03;  2.9995614E-01;3909; -2.6381699E-02;  0.0000000E+00;  2.1534767E-03;  9.9321222E+02;  1.0000000E-01; -5.6235444E+03;3; -9.1121841E+01;  0.0000000E+00;  6.5714157E+01;0; -1.1794245E-01;  3.9372035E+04;  0.0000000E+00; -4.2105473E+01;  4.0000000E+04;  0.0000000E+00;  4.0085867E+04; -1.3135515E-01;  0.0000000E+00;  1.3412695E-02;  6.4138207E+04;
  2.4096327E-01;  9.9999998E-03;  2.4003194E-01;3964; -2.1747602E-02;  0.0000000E+00;  7.0602837E-04;  1.0026829E+03;  1.0000000E-01;  2.2226531E+03;3; -9.9678297E+00;  0.0000000E+00;  1.2785118E+01;0; -1.0185492E-02;  4.0229180E+04;  0.0000000E+00; -2.0842435E+00;  4.0000000E+04;  0.0000000E+00;  3.9992809E+04; -1.2039867E-02;  0.0000000E+00;  1.8543748E-03;  2.6737910E+03;
  2.4109887E-01;  9.9999998E-03;  2.5004178E-01;3965; -2.1589871E-02;  0.0000000E+00;  1.4550633E-03;  1.0025656E+03;  1.0000000E-01;  2.1255693E+03;3; -1.5601168E+01;  0.0000000E+00;  1.7754875E+01;0; -1.1673605E-02;  4.0216707E+04;  0.0000000E+00; -3.6527355E+00;  4.0000000E+04;  0.0000000E+00;  3.9997711E+04; -1.6836310E-02;  0.0000000E+00;  5.1627052E-03;  4.3689600E+03;
  2.4120609E-01;  9.9999998E-03;  2.6006106E-01;3966; -2.1296652E-02;  0.0000000E+00;  2.0606974E-03;  1.0021429E+03;  1.0000000E-01;  1.7753571E+03;3; -2.3589842E+01;  0.0000000E+00;  2.1482338E+01;0; -1.4136692E-02;  4.0185570E+04;  0.0000000E+00; -5.5279012E+00;  4.0000000E+04;  0.0000000E+00;  3.9995777E+04; -2.3778526E-02;  0.0000000E+00;  9.6418345E-03;  6.6420591E+03;
  2.4128844E-01;  9.9999998E-03;  2.7008319E-01;3967; -2.0851441E-02;  0.0000000E+00;  1.7798044E-03;  1.0013525E+03;  1.0000000E-01;  1.1205608E+03;3; -3.4250317E+01;  0.0000000E+00;  2.0445221E+01;0; -2.3990981E-02;  4.0132324E+04;  0.0000000E+00; -6.7711535E+00;  4.0000000E+04;  0.0000000E+00;  3.9984816E+04; -3.2991629E-02;  0.0000000E+00;  9.0006487E-03;  8.2893467E+03;
  2.4147017E-01;  9.9999998E-03;  2.8008181E-01;3968; -2.0611549E-02;  0.0000000E+00;  1.1212945E-03;  1.0001217E+03;  1.0000000E-01;  1.0083665E+02;3; -4.7507839E+01;  0.0000000E+00;  1.7440767E+01;0; -4.1356973E-02;  4.0032371E+04;  0.0000000E+00; -1.1344325E+01;  4.0000000E+04;  0.0000000E+00;  3.9983148E+04; -4.4956408E-02;  0.0000000E+00;  3.5994332E-03;  1.4822393E+04;
  2.4175234E-01;  9.9999998E-03;  2.9005194E-01;3969; -2.1581788E-02;  0.0000000E+00;  8.4577419E-04;  9.9831573E+02;  1.0000000E-01; -1.3953678E+03;3; -6.4401871E+01;  0.0000000E+00;  2.1274055E+01;0; -6.2766984E-02;  3.9863555E+04;  0.0000000E+00; -2.3088270E+01;  4.0000000E+04;  0.0000000E+00;  4.0004434E+04; -6.3205034E-02;  0.0000000E+00;  4.3805060E-04;  3.2412357E+04;
  2.4202168E-01;  9.9999998E-03;  3.0000713E-01;3970; -2.5110526E-02;  0.0000000E+00;  1.9743983E-03;  9.9591650E+02;  1.0000000E-01; -3.3831140E+03;3; -8.8135986E+01;  0.0000000E+00;  3.7177208E+01;0; -8.3293788E-02;  3.9631328E+04;  0.0000000E+00; -3.7069405E+01;  4.0000000E+04;  0.0000000E+00;  4.0042770E+04; -9.6667551E-02;  0.0000000E+00;  1.3373764E-02;  5.4573332E+04;
  2.5090405E-01;  9.9999998E-03;  2.4000786E-01;4025; -2.1930609E-02;  0.0000000E+00;  1.0229596E-03;  1.0026420E+03;  1.0000000E-01;  2.1887773E+03;3; -8.6848392E+00;  0.0000000E+00;  9.8638496E+00;0;  7.5998423E-03;  4.0225309E+04;  0.0000000E+00; -1.7829907E+00;  4.0000000E+04;  0.0000000E+00;  3.9993879E+04;  6.1419914E-03;  0.0000000E+00;  1.4578509E-03;  2.3269653E+03;
  2.5104269E-01;  9.9999998E-03;  2.5002974E-01;4026; -2.1835279E-02;  0.0000000E+00;  1.6449933E-03;  1.0026778E+03;  1.0000000E-01;  2.2185049E+03;3; -1.3993829E+01;  0.0000000E+00;  1.3552575E+01;0;  7.6163271E-03;  4.0228863E+04;  0.0000000E+00; -3.4644854E+00;  4.0000000E+04;  0.0000000E+00;  3.9995320E+04;  2.6881248E-03;  0.0000000E+00;  4.9282024E-03;  4.3182583E+03;
  2.5115651E-01;  9.9999998E-03;  2.6006007E-01;4027; -2.1595180E-02;  0.0000000E+00;  1.8161638E-03;  1.0024110E+03;  1.0000000E-01;  1.9974742E+03;3; -2.1521473E+01;  0.0000000E+00;  1.5622880E+01;0;  4.6614236E-03;  4.0217305E+04;  0.0000000E+00; -5.8413258E+00;  4.0000000E+04;  0.0000000E+00;  3.9987027E+04; -2.7836468E-03;  0.0000000E+00;  7.4450704E-03;  7.5135532E+03;
  2.5122985E-01;  9.9999998E-03;  2.7008003E-01;4028; -2.1244995E-02;  0.0000000E+00;  1.3111406E-03;  1.0019170E+03;  1.0000000E-01;  1.5882019E+03;3; -3.1451208E+01;  0.0000000E+00;  1.4757028E+01;0; -5.8402428E-03;  4.0188812E+04;  0.0000000E+00; -7.6716590E+00;  4.0000000E+04;  0.0000000E+00;  3.9975812E+04; -1.0525407E-02;  0.0000000E+00;  4.6851644E-03;  1.0095761E+04;
  2.5133559E-01;  9.9999998E-03;  2.8008026E-01;4029; -2.0843416E-02;  0.0000000E+00;  8.8670012E-04;  1.0011970E+03;  1.0000000E-01;  9.9167560E+02;3; -4.3542305E+01;  0.0000000E+00;  1.2180206E+01;0; -1.9744826E-02;  4.0131320E+04;  0.0000000E+00; -9.8018522E+00;  4.0000000E+04;  0.0000000E+00;  3.9973445E+04; -2.0604014E-02;  0.0000000E+00;  8.5918850E-04;  1.3010743E+04;
  2.5153396E-01;  9.9999998E-03;  2.9006448E-01;4030; -2.1032186E-02;  0.0000000E+00;  7.5693335E-04;  1.0000300E+03;  1.0000000E-01;  2.4888184E+01;3; -5.7853676E+01;  0.0000000E+00;  1.1250175E+01;0; -3.5291933E-02;  4.0022762E+04;  0.0000000E+00; -1.6626308E+01;  4.0000000E+04;  0.0000000E+00;  3.9985465E+04; -3.4622446E-02;  0.0000000E+00; -6.6948682E-04;  2.2802762E+04;
  2.5175896E-01;  9.9999998E-03;  3.0003816E-01;4031; -2.2922397E-02;  0.0000000E+00;  1.2817368E-03;  9.9831305E+02;  1.0000000E-01; -1.3975900E+03;3; -7.5278320E+01;  0.0000000E+00;  1.5826421E+01;0; -5.1795721E-02;  3.9857582E+04;  0.0000000E+00; -2.7064249E+01;  4.0000000E+04;  0.0000000E+00;  4.0010160E+04; -5.7976320E-02;  0.0000000E+00;  6.1806012E-03;  3.8671715E+04;
  2.6084837E-01;  9.9999998E-03;  2.3999609E-01;4086; -2.2095628E-02;  0.0000000E+00;  1.2078083E-03;  1.0024707E+03;  1.0000000E-01;  2.0469543E+03;3; -6.9407954E+00;  0.0000000E+00;  7.0643611E+00;0;  2.6474522E-02;  4.0211691E+04;  0.0000000E+00; -1.3906667E+00;  4.0000000E+04;  0.0000000E+00;  3.9993871E+04;  2.5776874E-02;  0.0000000E+00;  6.9764763E-04;  1.9031797E+03;
  2.6097712E-01;  9.9999998E-03;  2.5002521E-01;4087; -2.2028619E-02;  0.0000000E+00;  1.6436293E-03;  1.0026250E+03;  1.0000000E-01;  2.1747532E+03;3; -1.1510303E+01;  0.0000000E+00;  9.6363916E+00;0;  2.7374398E-02;  4.0228109E+04;  0.0000000E+00; -2.8562591E+00;  4.0000000E+04;  0.0000000E+00;  3.9992184E+04;  2.3613498E-02;  0.0000000E+00;  3.7609013E-03;  3.7313931E+03;
  2.6108989E-01;  9.9999998E-03;  2.6005846E-01;4088; -2.1820964E-02;  0.0000000E+00;  1.4590614E-03;  1.0025256E+03;  1.0000000E-01;  2.0924839E+03;3; -1.7949478E+01;  0.0000000E+00;  1.0873165E+01;0;  2.3680147E-02;  4.0233828E+04;  0.0000000E+00; -5.1202450E+00;  4.0000000E+04;  0.0000000E+00;  3.9980832E+04;  1.9608987E-02;  0.0000000E+00;  4.0711598E-03;  7.0005986E+03;
  2.6115730E-01;  9.9999998E-03;  2.7007464E-01;4089; -2.1541486E-02;  0.0000000E+00;  9.8246674E-04;  1.0023054E+03;  1.0000000E-01;  1.9099706E+03;3; -2.6457872E+01;  0.0000000E+00;  1.0577229E+01;0;  1.4439316E-02;  4.0226918E+04;  0.0000000E+00; -7.0566854E+00;  4.0000000E+04;  0.0000000E+00;  3.9970922E+04;  1.3423838E-02;  0.0000000E+00;  1.0154792E-03;  9.7513418E+03;
  2.6121831E-01;  9.9999998E-03;  2.8007594E-01;4090; -2.1099869E-02;  0.0000000E+00;  7.2330510E-04;  1.0019716E+03;  1.0000000E-01;  1.6334352E+03;3; -3.6851826E+01;  0.0000000E+00;  8.8847485E+00;0;  3.7185932E-03;  4.0201250E+04;  0.0000000E+00; -8.0458832E+00;  4.0000000E+04;  0.0000000E+00;  3.9968633E+04;  5.0432123E-03;  0.0000000E+00; -1.3246191E-03;  1.0992797E+04;
  2.6133218E-01;  9.9999998E-03;  2.9006946E-01;4091; -2.0652287E-02;  0.0000000E+00;  6.6064438E-04;  1.0013411E+03;  1.0000000E-01;  1.1110796E+03;3; -4.8616718E+01;  0.0000000E+00;  6.2366190E+00;0; -7.5667575E-03;  4.0142652E+04;  0.0000000E+00; -1.0343941E+01;  4.0000000E+04;  0.0000000E+00;  3.9974129E+04; -5.7813898E-03;  0.0000000E+00; -1.7853680E-03;  1.3991323E+04;
  2.6149714E-01;  9.9999998E-03;  3.0005667E-01;4092; -2.0819027E-02;  0.0000000E+00;  7.5240113E-04;  1.0002477E+03;  1.0000000E-01;  2.0522874E+02;3; -6.1104397E+01;  0.0000000E+00;  4.5451732E+00;0; -2.1048203E-02;  4.0038711E+04;  0.0000000E+00; -1.5987475E+01;  4.0000000E+04;  0.0000000E+00;  3.9987895E+04; -2.0987097E-02;  0.0000000E+00; -6.1106635E-05;  2.2092287E+04;
  2.7080533E-01;  9.9999998E-03;  2.3999387E-01;4147; -2.2188297E-02;  0.0000000E+00;  1.2870302E-03;  1.0021996E+03;  1.0000000E-01;  1.8223680E+03;3; -5.0093842E+00;  0.0000000E+00;  4.6362615E+00;0;  4.5752376E-02;  4.0190367E+04;  0.0000000E+00; -1.0294708E+00;  4.0000000E+04;  0.0000000E+00;  3.9993375E+04;  4.6076197E-02;  0.0000000E+00; -3.2382074E-04;  1.5780408E+03;
  2.7089942E-01;  9.9999998E-03;  2.5002569E-01;4148; -2.2128159E-02;  0.0000000E+00;  1.5135072E-03;  1.0024376E+03;  1.0000000E-01;  2.0194983E+03;3; -8.6326475E+00;  0.0000000E+00;  6.3575206E+00;0;  4.6973094E-02;  4.0216289E+04;  0.0000000E+00; -2.0542433E+00;  4.0000000E+04;  0.0000000E+00;  3.9989020E+04;  4.5031883E-02;  0.0000000E+00;  1.9412102E-03;  2.9781809E+03;
  2.7099526E-01;  9.9999998E-03;  2.6005712E-01;4149; -2.1961911E-02;  0.0000000E+00;  1.1463425E-03;  1.0024939E+03;  1.0000000E-01;  2.0661143E+03;3; -1.3752025E+01;  0.0000000E+00;  7.2812605E+00;0;  4.3197211E-02;  4.0235852E+04;  0.0000000E+00; -3.6901009E+00;  4.0000000E+04;  0.0000000E+00;  3.9976805E+04;  4.2365406E-02;  0.0000000E+00;  8.3180447E-04;  5.6077749E+03;
  2.7106661E-01;  9.9999998E-03;  2.7007017E-01;4150; -2.1714021E-02;  0.0000000E+00;  7.7611645E-04;  1.0024964E+03;  1.0000000E-01;  2.0681882E+03;3; -2.0511522E+01;  0.0000000E+00;  7.4097333E+00;0;  3.6185421E-02;  4.0245773E+04;  0.0000000E+00; -5.4440041E+00;  4.0000000E+04;  0.0000000E+00;  3.9968703E+04;  3.7764780E-02;  0.0000000E+00; -1.5793610E-03;  8.0750908E+03;
  2.7112103E-01;  9.9999998E-03;  2.8007212E-01;4151; -2.1327866E-02;  0.0000000E+00;  6.1110978E-04;  1.0024279E+03;  1.0000000E-01;  2.0113998E+03;3; -2.8903252E+01;  0.0000000E+00;  6.5632553E+00;0;  2.8281577E-02;  4.0241949E+04;  0.0000000E+00; -6.5489731E+00;  4.0000000E+04;  0.0000000E+00;  3.9966977E+04;  3.1045834E-02;  0.0000000E+00; -2.7642562E-03;  9.3782373E+03;
  2.7117726E-01;  9.9999998E-03;  2.9007044E-01;4152; -2.0676192E-02;  0.0000000E+00;  5.5956986E-04;  1.0021830E+03;  1.0000000E-01;  1.8086400E+03;3; -3.8514362E+01;  0.0000000E+00;  4.4013319E+00;0;  1.9541707E-02;  4.0218754E+04;  0.0000000E+00; -6.7999663E+00;  4.0000000E+04;  0.0000000E+00;  3.9969125E+04;  2.2244748E-02;  0.0000000E+00; -2.7030411E-03;  9.4929883E+03;
  2.7126944E-01;  9.9999998E-03;  3.0006623E-01;4153; -1.9750729E-02;  0.0000000E+00;  6.0420256E-04;  1.0016153E+03;  1.0000000E-01;  1.3382336E+03;3; -4.8319588E+01;  0.0000000E+00;  1.2893755E+00;0;  1.0360038E-02;  4.0165176E+04;  0.0000000E+00; -8.2527885E+00;  4.0000000E+04;  0.0000000E+00;  3.9975219E+04;  1.1531621E-02;  0.0000000E+00; -1.1715831E-03;  1.1186003E+04;
  2.8078553E-01;  9.9999998E-03;  2.3999824E-01;4208; -2.2160588E-02;  0.0000000E+00;  1.3111865E-03;  1.0018747E+03;  1.0000000E-01;  1.5531411E+03;3; -3.1647906E+00;  0.0000000E+00;  2.7268224E+00;0;  6.4636037E-02;  4.0164957E+04;  0.0000000E+00; -7.2538531E-01;  4.0000000E+04;  0.0000000E+00;  3.9992918E+04;  6.5974161E-02;  0.0000000E+00; -1.3381253E-03;  1.3677317E+03;
  2.8083315E-01;  9.9999998E-03;  2.5002980E-01;4209; -2.2111690E-02;  0.0000000E+00;  1.3300144E-03;  1.0021455E+03;  1.0000000E-01;  1.7775298E+03;3; -5.8187780E+00;  0.0000000E+00;  3.8346841E+00;0;  6.5792397E-02;  4.0195461E+04;  0.0000000E+00; -1.3969138E+00;  4.0000000E+04;  0.0000000E+00;  3.9986695E+04;  6.5815717E-02;  0.0000000E+00; -2.3321714E-05;  2.5210552E+03;
  2.8089550E-01;  9.9999998E-03;  2.6005718E-01;4210; -2.1973152E-02;  0.0000000E+00;  9.5148006E-04;  1.0023211E+03;  1.0000000E-01;  1.9230072E+03;3; -9.5763655E+00;  0.0000000E+00;  4.6225853E+00;0;  6.2960081E-02;  4.0223781E+04;  0.0000000E+00; -2.3566823E+00;  4.0000000E+04;  0.0000000E+00;  3.9975020E+04;  6.4297482E-02;  0.0000000E+00; -1.3373987E-03;  4.4491685E+03;
  2.8096119E-01;  9.9999998E-03;  2.7006766E-01;4211; -2.1735754E-02;  0.0000000E+00;  6.3229736E-04;  1.0024887E+03;  1.0000000E-01;  2.0618674E+03;3; -1.4563315E+01;  0.0000000E+00;  4.9193993E+00;0;  5.7912927E-02;  4.0245805E+04;  0.0000000E+00; -3.5787561E+00;  4.0000000E+04;  0.0000000E+00;  3.9968395E+04;  6.1167467E-02;  0.0000000E+00; -3.2545386E-03;  6.1605781E+03;
  2.8102276E-01;  9.9999998E-03;  2.8007016E-01;4212; -2.1409681E-02;  0.0000000E+00;  4.9552374E-04;  1.0026063E+03;  1.0000000E-01;  2.1592473E+03;3; -2.0854528E+01;  0.0000000E+00;  4.6041679E+00;0;  5.2295629E-02;  4.0257711E+04;  0.0000000E+00; -4.7965608E+00;  4.0000000E+04;  0.0000000E+00;  3.9966887E+04;  5.6140326E-02;  0.0000000E+00; -3.8446966E-03;  7.4987354E+03;
  2.8107342E-01;  9.9999998E-03;  2.9007068E-01;4213; -2.0890882E-02;  0.0000000E+00;  4.4667820E-04;  1.0025976E+03;  1.0000000E-01;  2.1520378E+03;3; -2.8335476E+01;  0.0000000E+00;  3.4286857E+00;0;  4.5659602E-02;  4.0256031E+04;  0.0000000E+00; -5.5170627E+00;  4.0000000E+04;  0.0000000E+00;  3.9967816E+04;  4.9012806E-02;  0.0000000E+00; -3.3532064E-03;  8.1685962E+03;
  2.8112367E-01;  9.9999998E-03;  3.0007017E-01;4214; -1.9826787E-02;  0.0000000E+00;  4.4768243E-04;  1.0023876E+03;  1.0000000E-01;  1.9781167E+03;3; -3.6332413E+01;  0.0000000E+00;  1.3086200E+00;0;  3.8112607E-02;  4.0236121E+04;  0.0000000E+00; -6.0285974E+00;  4.0000000E+04;  0.0000000E+00;  3.9970629E+04;  4.0194321E-02;  0.0000000E+00; -2.0817146E-03;  8.5171426E+03;
  2.9080108E-01;  9.9999998E-03;  2.4000916E-01;4269; -2.1963662E-02;  0.0000000E+00;  1.3196704E-03;  1.0015347E+03;  1.0000000E-01;  1.2714701E+03;3; -1.6357462E+00;  0.0000000E+00;  1.3071221E+00;0;  8.2055278E-02;  4.0138910E+04;  0.0000000E+00; -4.5698005E-01;  4.0000000E+04;  0.0000000E+00;  3.9991566E+04;  8.4124722E-02;  0.0000000E+00; -2.0694437E-03;  1.3074034E+03;
  2.9079843E-01;  9.9999998E-03;  2.5003710E-01;4270; -2.1924900E-02;  0.0000000E+00;  1.1950635E-03;  1.0017986E+03;  1.0000000E-01;  1.4901306E+03;3; -3.3925331E+00;  0.0000000E+00;  2.0250595E+00;0;  8.3206192E-02;  4.0169352E+04;  0.0000000E+00; -9.4332200E-01;  4.0000000E+04;  0.0000000E+00;  3.9984824E+04;  8.4558725E-02;  0.0000000E+00; -1.3525330E-03;  2.3532131E+03;
  2.9080591E-01;  9.9999998E-03;  2.6005927E-01;4271; -2.1811701E-02;  0.0000000E+00;  7.8117091E-04;  1.0020375E+03;  1.0000000E-01;  1.6880509E+03;3; -5.9257030E+00;  0.0000000E+00;  2.6020842E+00;0;  8.1016369E-02;  4.0201074E+04;  0.0000000E+00; -1.4075738E+00;  4.0000000E+04;  0.0000000E+00;  3.9974582E+04;  8.3905272E-02;  0.0000000E+00; -2.8889063E-03;  3.7856633E+03;
  2.9084751E-01;  9.9999998E-03;  2.7006716E-01;4272; -2.1581145E-02;  0.0000000E+00;  4.7506150E-04;  1.0023128E+03;  1.0000000E-01;  1.9160939E+03;3; -9.3140659E+00;  0.0000000E+00;  2.9482801E+00;0;  7.7424340E-02;  4.0230367E+04;  0.0000000E+00; -2.0249133E+00;  4.0000000E+04;  0.0000000E+00;  3.9969555E+04;  8.2006164E-02;  0.0000000E+00; -4.5818216E-03;  4.7476099E+03;
  2.9092035E-01;  9.9999998E-03;  2.8006980E-01;4273; -2.1288082E-02;  0.0000000E+00;  3.5047080E-04;  1.0025515E+03;  1.0000000E-01;  2.1139153E+03;3; -1.3648053E+01;  0.0000000E+00;  2.9147630E+00;0;  7.3826849E-02;  4.0252352E+04;  0.0000000E+00; -3.1454332E+00;  4.0000000E+04;  0.0000000E+00;  3.9968160E+04;  7.8592040E-02;  0.0000000E+00; -4.7651930E-03;  5.8011035E+03;
  2.9099473E-01;  9.9999998E-03;  2.9007155E-01;4274; -2.0902529E-02;  0.0000000E+00;  2.9678206E-04;  1.0026882E+03;  1.0000000E-01;  2.2270974E+03;3; -1.8964569E+01;  0.0000000E+00;  2.3775742E+00;0;  6.9299832E-02;  4.0264352E+04;  0.0000000E+00; -4.6730065E+00;  4.0000000E+04;  0.0000000E+00;  3.9968277E+04;  7.3309153E-02;  0.0000000E+00; -4.0093251E-03;  7.3577686E+03;
  2.9106101E-01;  9.9999998E-03;  3.0007258E-01;4275; -2.0249004E-02;  0.0000000E+00;  2.6179035E-04;  1.0026738E+03;  1.0000000E-01;  2.2152458E+03;3; -2.5057339E+01;  0.0000000E+00;  1.3352032E+00;0;  6.2987909E-02;  4.0262871E+04;  0.0000000E+00; -6.5380850E+00;  4.0000000E+04;  0.0000000E+00;  3.9969730E+04;  6.5986432E-02;  0.0000000E+00; -2.9985262E-03;  9.4360410E+03;
  3.0084309E-01;  9.9999998E-03;  2.4002536E-01;4330; -2.1402379E-02;  0.0000000E+00;  1.3492984E-03;  1.0012260E+03;  1.0000000E-01;  1.0157737E+03;3; -5.0454551E-01;  0.0000000E+00;  2.9788387E-01;0;  9.6690632E-02;  4.0116020E+04;  0.0000000E+00; -1.7987238E-01;  4.0000000E+04;  0.0000000E+00;  3.9989840E+04;  9.8936915E-02;  0.0000000E+00; -2.2462825E-03;  1.4125200E+03;
  3.0079135E-01;  9.9999998E-03;  2.5004733E-01;4331; -2.1359004E-02;  0.0000000E+00;  1.1280782E-03;  1.0014521E+03;  1.0000000E-01;  1.2031263E+03;3; -1.5415083E+00;  0.0000000E+00;  7.0278257E-01;0;  9.7873263E-02;  4.0142402E+04;  0.0000000E+00; -5.6221008E-01;  4.0000000E+04;  0.0000000E+00;  3.9983445E+04;  9.9601611E-02;  0.0000000E+00; -1.7283449E-03;  2.3109265E+03;
  3.0074930E-01;  9.9999998E-03;  2.6006326E-01;4332; -2.1333171E-02;  0.0000000E+00;  5.9932424E-04;  1.0017023E+03;  1.0000000E-01;  1.4103303E+03;3; -3.0248494E+00;  0.0000000E+00;  1.1329449E+00;0;  9.5510066E-02;  4.0172895E+04;  0.0000000E+00; -8.5665655E-01;  4.0000000E+04;  0.0000000E+00;  3.9975242E+04;  9.9485710E-02;  0.0000000E+00; -3.9756419E-03;  3.4252312E+03;
  3.0076489E-01;  9.9999998E-03;  2.7006835E-01;4333; -2.1125544E-02;  0.0000000E+00;  2.8202118E-04;  1.0020181E+03;  1.0000000E-01;  1.6719526E+03;3; -5.0930243E+00;  0.0000000E+00;  1.3993229E+00;0;  9.2819214E-02;  4.0203578E+04;  0.0000000E+00; -1.2271080E+00;  4.0000000E+04;  0.0000000E+00;  3.9971871E+04;  9.8500296E-02;  0.0000000E+00; -5.6810807E-03;  4.0195640E+03;
  3.0083239E-01;  9.9999998E-03;  2.8007066E-01;4334; -2.0817539E-02;  0.0000000E+00;  1.5401257E-04;  1.0023223E+03;  1.0000000E-01;  1.9239949E+03;3; -7.7940292E+00;  0.0000000E+00;  1.4708607E+00;0;  9.0677723E-02;  4.0230965E+04;  0.0000000E+00; -2.0577350E+00;  4.0000000E+04;  0.0000000E+00;  3.9970641E+04;  9.6420884E-02;  0.0000000E+00; -5.7431641E-03;  4.6908657E+03;
  3.0092189E-01;  9.9999998E-03;  2.9007295E-01;4335; -2.0384852E-02;  0.0000000E+00;  7.4146337E-05;  1.0025529E+03;  1.0000000E-01;  2.1150017E+03;3; -1.1146570E+01;  0.0000000E+00;  1.2332904E+00;0;  8.7769911E-02;  4.0251680E+04;  0.0000000E+00; -3.6147113E+00;  4.0000000E+04;  0.0000000E+00;  3.9970105E+04;  9.2955701E-02;  0.0000000E+00; -5.1857913E-03;  6.2005801E+03;
  3.0101618E-01;  9.9999998E-03;  3.0007493E-01;4336; -1.9779401E-02;  0.0000000E+00;  1.3959952E-06;  1.0026683E+03;  1.0000000E-01;  2.2106040E+03;3; -1.5143533E+01;  0.0000000E+00;  7.0625997E-01;0;  8.3190702E-02;  4.0262812E+04;  0.0000000E+00; -6.0255609E+00;  4.0000000E+04;  0.0000000E+00;  3.9970223E+04;  8.7807342E-02;  0.0000000E+00; -4.6166377E-03;  8.9875010E+03;
  3.1090978E-01;  9.9999998E-03;  2.4004456E-01;4391; -1.9010080E-02;  0.0000000E+00;  1.5464266E-03;  1.0009896E+03;  1.0000000E-01;  8.1982861E+02;3;  8.3154988E-01;  0.0000000E+00; -4.3788049E-01;0;  1.0769940E-01;  4.0098785E+04;  0.0000000E+00;  8.5920013E-02;  4.0000000E+04;  0.0000000E+00;  3.9987527E+04;  1.0882439E-01;  0.0000000E+00; -1.1249930E-03;  1.6671687E+03;
  3.1082365E-01;  9.9999998E-03;  2.5005955E-01;4392; -1.8952806E-02;  0.0000000E+00;  1.0531918E-03;  1.0011488E+03;  1.0000000E-01;  9.5177545E+02;3;  3.9715576E-01;  0.0000000E+00; -2.9341173E-01;0;  1.0781225E-01;  4.0118828E+04;  0.0000000E+00; -2.3063369E-01;  4.0000000E+04;  0.0000000E+00;  3.9982102E+04;  1.0933767E-01;  0.0000000E+00; -1.5254157E-03;  2.3646006E+03;
  3.1074390E-01;  9.9999998E-03;  2.6006880E-01;4393; -1.8877942E-02;  0.0000000E+00;  2.7649957E-04;  1.0013724E+03;  1.0000000E-01;  1.1370542E+03;3; -1.9420293E-01;  0.0000000E+00; -1.0472977E-01;0;  1.0381953E-01;  4.0144289E+04;  0.0000000E+00; -5.1174057E-01;  4.0000000E+04;  0.0000000E+00;  3.9976422E+04;  1.0943115E-01;  0.0000000E+00; -5.6116190E-03;  3.1474351E+03;
  3.1073618E-01;  9.9999998E-03;  2.7007079E-01;4394; -1.8072739E-02;  0.0000000E+00; -1.2580195E-04;  1.0016787E+03;  1.0000000E-01;  1.3907754E+03;3; -1.0162275E+00;  0.0000000E+00;  2.2367558E-02;0;  1.0058796E-01;  4.0172379E+04;  0.0000000E+00; -8.6489522E-01;  4.0000000E+04;  0.0000000E+00;  3.9974562E+04;  1.0911673E-01;  0.0000000E+00; -8.5287718E-03;  3.4974648E+03;
  3.1079227E-01;  9.9999998E-03;  2.8007224E-01;4395; -1.7009927E-02;  0.0000000E+00; -2.7095145E-04;  1.0019911E+03;  1.0000000E-01;  1.6496322E+03;3; -2.2274225E+00;  0.0000000E+00;  7.1832091E-02;0;  9.9027097E-02;  4.0199789E+04;  0.0000000E+00; -1.5337973E+00;  4.0000000E+04;  0.0000000E+00;  3.9974230E+04;  1.0825428E-01;  0.0000000E+00; -9.2271827E-03;  3.9716973E+03;
  3.1087825E-01;  9.9999998E-03;  2.9007447E-01;4396; -1.5641281E-02;  0.0000000E+00; -3.5082694E-04;  1.0022632E+03;  1.0000000E-01;  1.8750085E+03;3; -3.7835340E+00;  0.0000000E+00; -8.2631104E-02;0;  9.7767770E-02;  4.0224391E+04;  0.0000000E+00; -2.7497618E+00;  4.0000000E+04;  0.0000000E+00;  3.9973305E+04;  1.0672668E-01;  0.0000000E+00; -8.9589162E-03;  5.1303013E+03;
  3.1097254E-01;  9.9999998E-03;  3.0007696E-01;4397; -1.3860791E-02;  0.0000000E+00; -4.3124534E-04;  1.0024662E+03;  1.0000000E-01;  2.0432013E+03;3; -5.6703010E+00;  0.0000000E+00; -4.1045362E-01;0;  9.5855966E-02;  4.0243641E+04;  0.0000000E+00; -4.6117792E+00;  4.0000000E+04;  0.0000000E+00;  3.9972336E+04;  1.0448248E-01;  0.0000000E+00; -8.6265095E-03;  7.2737261E+03;
  3.2099989E-01;  9.9999998E-03;  2.4006334E-01;4452; -1.0576916E-02;  0.0000000E+00;  1.1138213E-03;  1.0008434E+03;  1.0000000E-01;  6.9874561E+02;3;  3.4705908E+00;  0.0000000E+00; -1.1550691E+00;0;  1.1018328E-01;  4.0088691E+04;  0.0000000E+00;  2.9633710E-01;  4.0000000E+04;  0.0000000E+00;  3.9985492E+04;  1.1244416E-01;  0.0000000E+00; -2.2608878E-03;  1.9397959E+03;
  3.2090890E-01;  9.9999998E-03;  2.5007135E-01;4453; -9.1388924E-03;  0.0000000E+00;  4.9982819E-04;  1.0009316E+03;  1.0000000E-01;  7.7182996E+02;3;  3.4736617E+00;  0.0000000E+00; -1.1814306E+00;0;  1.0868727E-01;  4.0101312E+04;  0.0000000E+00;  5.1034454E-02;  4.0000000E+04;  0.0000000E+00;  3.9981508E+04;  1.1247327E-01;  0.0000000E+00; -3.7860048E-03;  2.4124500E+03;
  3.2080847E-01;  9.9999998E-03;  2.6007476E-01;4454; -8.3295377E-03;  0.0000000E+00; -2.3175220E-04;  1.0011027E+03;  1.0000000E-01;  9.1355432E+02;3;  3.2126420E+00;  0.0000000E+00; -1.0981102E+00;0;  1.0424735E-01;  4.0120031E+04;  0.0000000E+00; -2.2821505E-01;  4.0000000E+04;  0.0000000E+00;  3.9978211E+04;  1.1247587E-01;  0.0000000E+00; -8.2285283E-03;  2.8582556E+03;
  3.2077217E-01;  9.9999998E-03;  2.7007419E-01;4455; -7.8776237E-03;  0.0000000E+00; -5.9243274E-04;  1.0013615E+03;  1.0000000E-01;  1.1279680E+03;3;  2.6839943E+00;  0.0000000E+00; -9.9983329E-01;0;  1.0093075E-01;  4.0142605E+04;  0.0000000E+00; -5.8325380E-01;  4.0000000E+04;  0.0000000E+00;  3.9977785E+04;  1.1233661E-01;  0.0000000E+00; -1.1405866E-02;  3.0119250E+03;
  3.2080966E-01;  9.9999998E-03;  2.8007478E-01;4456; -7.5208503E-03;  0.0000000E+00; -7.4903527E-04;  1.0016398E+03;  1.0000000E-01;  1.3585787E+03;3;  1.9720117E+00;  0.0000000E+00; -9.6091223E-01;0;  9.9075630E-02;  4.0166723E+04;  0.0000000E+00; -1.1382445E+00;  4.0000000E+04;  0.0000000E+00;  3.9977539E+04;  1.1194355E-01;  0.0000000E+00; -1.2867921E-02;  3.3517375E+03;
  3.2087770E-01;  9.9999998E-03;  2.9007661E-01;4457; -7.1880859E-03;  0.0000000E+00; -8.6312543E-04;  1.0019012E+03;  1.0000000E-01;  1.5750664E+03;3;  1.0843301E+00;  0.0000000E+00; -9.5938432E-01;0;  9.7497225E-02;  4.0190695E+04;  0.0000000E+00; -1.9823655E+00;  4.0000000E+04;  0.0000000E+00;  3.9976348E+04;  1.1118194E-01;  0.0000000E+00; -1.3684721E-02;  4.1476196E+03;
  3.2094756E-01;  9.9999998E-03;  3.0007917E-01;4458; -6.8330034E-03;  0.0000000E+00; -9.6878858E-04;  1.0021331E+03;  1.0000000E-01;  1.7672585E+03;3; -4.6762966E-02;  0.0000000E+00; -1.0253012E+00;0;  9.5800437E-02;  4.0212762E+04;  0.0000000E+00; -3.1254401E+00;  4.0000000E+04;  0.0000000E+00;  3.9974883E+04;  1.0993383E-01;  0.0000000E+00; -1.4133391E-02;  5.4546064E+03;
  3.3108515E-01;  9.9999998E-03;  2.4007793E-01;4513; -8.2589779E-03;  0.0000000E+00; -3.0386509E-04;  1.0008000E+03;  1.0000000E-01;  6.6279602E+02;3;  3.6364102E+00;  0.0000000E+00; -1.4854441E+00;0;  1.0199786E-01;  4.0085301E+04;  0.0000000E+00;  4.2348227E-01;  4.0000000E+04;  0.0000000E+00;  3.9984812E+04;  1.0941970E-01;  0.0000000E+00; -7.4218363E-03;  2.0691519E+03;
  3.3099937E-01;  9.9999998E-03;  2.5007972E-01;4514; -7.7646440E-03;  0.0000000E+00; -7.1171200E-04;  1.0008234E+03;  1.0000000E-01;  6.8215350E+02;3;  3.4866574E+00;  0.0000000E+00; -1.4692519E+00;0;  9.8505981E-02;  4.0090766E+04;  0.0000000E+00;  2.7818671E-01;  4.0000000E+04;  0.0000000E+00;  3.9982488E+04;  1.0841031E-01;  0.0000000E+00; -9.9043222E-03;  2.3100547E+03;
  3.3089349E-01;  9.9999998E-03;  2.6007941E-01;4515; -7.3973830E-03;  0.0000000E+00; -1.0380039E-03;  1.0009314E+03;  1.0000000E-01;  7.7163245E+02;3;  3.3175519E+00;  0.0000000E+00; -1.4174795E+00;0;  9.4543204E-02;  4.0102176E+04;  0.0000000E+00;  6.8320602E-02;  4.0000000E+04;  0.0000000E+00;  3.9980766E+04;  1.0759424E-01;  0.0000000E+00; -1.3051034E-02;  2.4962075E+03;
  3.3082974E-01;  9.9999998E-03;  2.7007744E-01;4516; -7.1156407E-03;  0.0000000E+00; -1.1381664E-03;  1.0011196E+03;  1.0000000E-01;  9.2757861E+02;3;  3.0811679E+00;  0.0000000E+00; -1.3484929E+00;0;  9.2124037E-02;  4.0118203E+04;  0.0000000E+00; -2.1638532E-01;  4.0000000E+04;  0.0000000E+00;  3.9981109E+04;  1.0685942E-01;  0.0000000E+00; -1.4735384E-02;  2.4943411E+03;
  3.3083150E-01;  9.9999998E-03;  2.8007737E-01;4517; -6.8281079E-03;  0.0000000E+00; -1.1668948E-03;  1.0013347E+03;  1.0000000E-01;  1.1057465E+03;3;  2.7556539E+00;  0.0000000E+00; -1.3006502E+00;0;  9.0852842E-02;  4.0137184E+04;  0.0000000E+00; -6.1285806E-01;  4.0000000E+04;  0.0000000E+00;  3.9980637E+04;  1.0610474E-01;  0.0000000E+00; -1.5251899E-02;  2.6721570E+03;
  3.3087254E-01;  9.9999998E-03;  2.9007882E-01;4518; -6.5113571E-03;  0.0000000E+00; -1.2133955E-03;  1.0015512E+03;  1.0000000E-01;  1.2850994E+03;3;  2.3324924E+00;  0.0000000E+00; -1.2847219E+00;0;  8.9831330E-02;  4.0157430E+04;  0.0000000E+00; -1.1456631E+00;  4.0000000E+04;  0.0000000E+00;  3.9979355E+04;  1.0527322E-01;  0.0000000E+00; -1.5441890E-02;  3.1527170E+03;
  3.3091778E-01;  9.9999998E-03;  3.0008116E-01;4519; -6.1164000E-03;  0.0000000E+00; -1.2638008E-03;  1.0017590E+03;  1.0000000E-01;  1.4572427E+03;3;  1.7941384E+00;  0.0000000E+00; -1.2797997E+00;0;  8.9150131E-02;  4.0177746E+04;  0.0000000E+00; -1.7915686E+00;  4.0000000E+04;  0.0000000E+00;  3.9977332E+04;  1.0433957E-01;  0.0000000E+00; -1.5189437E-02;  3.8954587E+03;
  3.4114692E-01;  9.9999998E-03;  2.4009006E-01;4574; -7.8258077E-03;  0.0000000E+00; -1.1322914E-03;  1.0008150E+03;  1.0000000E-01;  6.7524011E+02;3;  3.6638644E+00;  0.0000000E+00; -1.5214273E+00;0;  9.1431215E-02;  4.0086438E+04;  0.0000000E+00;  4.5140994E-01;  4.0000000E+04;  0.0000000E+00;  3.9984340E+04;  1.0097747E-01;  0.0000000E+00; -9.5462473E-03;  2.1411199E+03;
  3.4107196E-01;  9.9999998E-03;  2.5008675E-01;4575; -7.5437916E-03;  0.0000000E+00; -1.3151723E-03;  1.0007887E+03;  1.0000000E-01;  6.5341357E+02;3;  3.5514016E+00;  0.0000000E+00; -1.5147035E+00;0;  8.7288134E-02;  4.0085707E+04;  0.0000000E+00;  3.9013368E-01;  4.0000000E+04;  0.0000000E+00;  3.9983691E+04;  9.8934591E-02;  0.0000000E+00; -1.1646455E-02;  2.2056763E+03;
  3.4097075E-01;  9.9999998E-03;  2.6008314E-01;4576; -7.3077520E-03;  0.0000000E+00; -1.4728276E-03;  1.0008375E+03;  1.0000000E-01;  6.9380750E+02;3;  3.4276028E+00;  0.0000000E+00; -1.4975777E+00;0;  8.3101861E-02;  4.0090316E+04;  0.0000000E+00;  2.6615351E-01;  4.0000000E+04;  0.0000000E+00;  3.9983602E+04;  9.7243451E-02;  0.0000000E+00; -1.4141590E-02;  2.1732458E+03;
  3.4089306E-01;  9.9999998E-03;  2.7008000E-01;4577; -7.0545422E-03;  0.0000000E+00; -1.4732080E-03;  1.0009534E+03;  1.0000000E-01;  7.8990350E+02;3;  3.2806063E+00;  0.0000000E+00; -1.4497354E+00;0;  8.0547631E-02;  4.0099758E+04;  0.0000000E+00;  7.5263351E-02;  4.0000000E+04;  0.0000000E+00;  3.9984496E+04;  9.5806092E-02;  0.0000000E+00; -1.5258465E-02;  2.0426133E+03;
  3.4085685E-01;  9.9999998E-03;  2.8007928E-01;4578; -6.7419289E-03;  0.0000000E+00; -1.4251781E-03;  1.0010946E+03;  1.0000000E-01;  9.0683850E+02;3;  3.1051912E+00;  0.0000000E+00; -1.4028175E+00;0;  7.9450183E-02;  4.0112516E+04;  0.0000000E+00; -1.8607076E-01;  4.0000000E+04;  0.0000000E+00;  3.9984238E+04;  9.4549403E-02;  0.0000000E+00; -1.5099217E-02;  2.0935327E+03;
  3.4085527E-01;  9.9999998E-03;  2.9008028E-01;4579; -6.3730795E-03;  0.0000000E+00; -1.4232203E-03;  1.0012511E+03;  1.0000000E-01;  1.0365138E+03;3;  2.8933558E+00;  0.0000000E+00; -1.3751713E+00;0;  7.8664809E-02;  4.0127398E+04;  0.0000000E+00; -5.1302475E-01;  4.0000000E+04;  0.0000000E+00;  3.9982719E+04;  9.3439296E-02;  0.0000000E+00; -1.4774489E-02;  2.3865173E+03;
  3.4087178E-01;  9.9999998E-03;  3.0008224E-01;4580; -5.8875624E-03;  0.0000000E+00; -1.4505934E-03;  1.0014037E+03;  1.0000000E-01;  1.1629299E+03;3;  2.6400716E+00;  0.0000000E+00; -1.3583201E+00;0;  7.8150526E-02;  4.0143238E+04;  0.0000000E+00; -8.7703466E-01;  4.0000000E+04;  0.0000000E+00;  3.9980574E+04;  9.2474543E-02;  0.0000000E+00; -1.4324021E-02;  2.8434558E+03;
  3.5116410E-01;  9.9999998E-03;  2.4009816E-01;4635; -7.8008506E-03;  0.0000000E+00; -1.6181030E-03;  1.0008579E+03;  1.0000000E-01;  7.1079468E+02;3;  3.6377940E+00;  0.0000000E+00; -1.4736515E+00;0;  7.8747772E-02;  4.0088750E+04;  0.0000000E+00;  4.0297249E-01;  4.0000000E+04;  0.0000000E+00;  3.9984488E+04;  8.8621870E-02;  0.0000000E+00; -9.8740999E-03;  2.1138276E+03;
  3.5110024E-01;  9.9999998E-03;  2.5009108E-01;4636; -7.6040179E-03;  0.0000000E+00; -1.7066838E-03;  1.0007930E+03;  1.0000000E-01;  6.5696899E+02;3;  3.5363600E+00;  0.0000000E+00; -1.4615763E+00;0;  7.3947653E-02;  4.0083289E+04;  0.0000000E+00;  3.8780579E-01;  4.0000000E+04;  0.0000000E+00;  3.9985180E+04;  8.5731447E-02;  0.0000000E+00; -1.1783793E-02;  2.0203229E+03;
  3.5100952E-01;  9.9999998E-03;  2.6008523E-01;4637; -7.3919673E-03;  0.0000000E+00; -1.7148751E-03;  1.0007891E+03;  1.0000000E-01;  6.5380859E+02;3;  3.4232171E+00;  0.0000000E+00; -1.4420512E+00;0;  6.9949299E-02;  4.0082336E+04;  0.0000000E+00;  3.2185233E-01;  4.0000000E+04;  0.0000000E+00;  3.9986535E+04;  8.3274804E-02;  0.0000000E+00; -1.3325501E-02;  1.8375659E+03;
  3.5093099E-01;  9.9999998E-03;  2.7008155E-01;4638; -7.1449424E-03;  0.0000000E+00; -1.6360729E-03;  1.0008375E+03;  1.0000000E-01;  6.9390625E+02;3;  3.3109627E+00;  0.0000000E+00; -1.4118937E+00;0;  6.7518853E-02;  4.0085414E+04;  0.0000000E+00;  2.0245323E-01;  4.0000000E+04;  0.0000000E+00;  3.9987566E+04;  8.1174783E-02;  0.0000000E+00; -1.3655929E-02;  1.6607595E+03;
  3.5087296E-01;  9.9999998E-03;  2.8008044E-01;4639; -6.8493788E-03;  0.0000000E+00; -1.5696173E-03;  1.0009073E+03;  1.0000000E-01;  7.5168237E+02;3;  3.1836827E+00;  0.0000000E+00; -1.3851467E+00;0;  6.6107556E-02;  4.0092066E+04;  0.0000000E+00;  3.2680690E-02;  4.0000000E+04;  0.0000000E+00;  3.9987574E+04;  7.9391807E-02;  0.0000000E+00; -1.3284251E-02;  1.6615519E+03;
  3.5082805E-01;  9.9999998E-03;  2.9008088E-01;4640; -6.4770160E-03;  0.0000000E+00; -1.5576226E-03;  1.0009924E+03;  1.0000000E-01;  8.2219891E+02;3;  3.0580070E+00;  0.0000000E+00; -1.3480612E+00;0;  6.4980298E-02;  4.0100965E+04;  0.0000000E+00; -1.7844349E-01;  4.0000000E+04;  0.0000000E+00;  3.9986113E+04;  7.7917688E-02;  0.0000000E+00; -1.2937388E-02;  1.8539373E+03;
  3.5080698E-01;  9.9999998E-03;  3.0008233E-01;4641; -5.9571406E-03;  0.0000000E+00; -1.5759679E-03;  1.0010807E+03;  1.0000000E-01;  8.9528326E+02;3;  2.9226885E+00;  0.0000000E+00; -1.3246126E+00;0;  6.4191595E-02;  4.0111312E+04;  0.0000000E+00; -4.0780225E-01;  4.0000000E+04;  0.0000000E+00;  3.9983957E+04;  7.6723807E-02;  0.0000000E+00; -1.2532211E-02;  2.1847129E+03;
  3.6113143E-01;  9.9999998E-03;  2.4010134E-01;4696; -7.9099489E-03;  0.0000000E+00; -1.9304210E-03;  1.0008876E+03;  1.0000000E-01;  7.3538654E+02;3;  3.6109924E+00;  0.0000000E+00; -1.3930874E+00;0;  6.4608544E-02;  4.0089398E+04;  0.0000000E+00;  3.2099476E-01;  4.0000000E+04;  0.0000000E+00;  3.9985336E+04;  7.3948853E-02;  0.0000000E+00; -9.3403086E-03;  1.9755779E+03;
  3.6107939E-01;  9.9999998E-03;  2.5009209E-01;4697; -7.7596623E-03;  0.0000000E+00; -1.9337684E-03;  1.0007991E+03;  1.0000000E-01;  6.6210468E+02;3;  3.5046315E+00;  0.0000000E+00; -1.3761377E+00;0;  5.9669048E-02;  4.0080512E+04;  0.0000000E+00;  3.1903499E-01;  4.0000000E+04;  0.0000000E+00;  3.9987219E+04;  7.0487730E-02;  0.0000000E+00; -1.0818682E-02;  1.7434126E+03;
  3.6100355E-01;  9.9999998E-03;  2.6008525E-01;4698; -7.5679505E-03;  0.0000000E+00; -1.8501532E-03;  1.0007531E+03;  1.0000000E-01;  6.2398230E+02;3;  3.3954501E+00;  0.0000000E+00; -1.3389474E+00;0;  5.5883564E-02;  4.0075059E+04;  0.0000000E+00;  2.7690271E-01;  4.0000000E+04;  0.0000000E+00;  3.9989371E+04;  6.7476124E-02;  0.0000000E+00; -1.1592559E-02;  1.4616681E+03;
  3.6093307E-01;  9.9999998E-03;  2.7008167E-01;4699; -7.3432522E-03;  0.0000000E+00; -1.7096740E-03;  1.0007414E+03;  1.0000000E-01;  6.1420483E+02;3;  3.2905712E+00;  0.0000000E+00; -1.2929133E+00;0;  5.3725425E-02;  4.0073023E+04;  0.0000000E+00;  1.9338003E-01;  4.0000000E+04;  0.0000000E+00;  3.9990395E+04;  6.4860761E-02;  0.0000000E+00; -1.1135336E-02;  1.2857784E+03;
  3.6086699E-01;  9.9999998E-03;  2.8008041E-01;4700; -7.0707849E-03;  0.0000000E+00; -1.6078277E-03;  1.0007447E+03;  1.0000000E-01;  6.1697015E+02;3;  3.1867588E+00;  0.0000000E+00; -1.2644299E+00;0;  5.2473664E-02;  4.0073914E+04;  0.0000000E+00;  7.3060006E-02;  4.0000000E+04;  0.0000000E+00;  3.9990219E+04;  6.2631451E-02;  0.0000000E+00; -1.0157784E-02;  1.2816473E+03;
  3.6079872E-01;  9.9999998E-03;  2.9008043E-01;4701; -6.7254324E-03;  0.0000000E+00; -1.5802307E-03;  1.0007639E+03;  1.0000000E-01;  6.3287097E+02;3;  3.0754075E+00;  0.0000000E+00; -1.2511928E+00;0;  5.1264457E-02;  4.0077332E+04;  0.0000000E+00; -7.6107726E-02;  4.0000000E+04;  0.0000000E+00;  3.9989355E+04;  6.0791653E-02;  0.0000000E+00; -9.5271962E-03;  1.4294807E+03;
  3.6074087E-01;  9.9999998E-03;  3.0008134E-01;4702; -6.2422417E-03;  0.0000000E+00; -1.6060886E-03;  1.0007913E+03;  1.0000000E-01;  6.5558636E+02;3;  2.9490259E+00;  0.0000000E+00; -1.2455903E+00;0;  4.9937181E-02;  4.0081961E+04;  0.0000000E+00; -2.4007383E-01;  4.0000000E+04;  0.0000000E+00;  3.9987266E+04;  5.9312206E-02;  0.0000000E+00; -9.3750264E-03;  1.6916995E+03;
  3.7106532E-01;  9.9999998E-03;  2.4009912E-01;4757; -8.0672400E-03;  0.0000000E+00; -2.1107134E-03;  1.0008793E+03;  1.0000000E-01;  7.2847314E+02;3;  3.5915303E+00;  0.0000000E+00; -1.2937144E+00;0;  5.0148834E-02;  4.0085699E+04;  0.0000000E+00;  2.3336177E-01;  4.0000000E+04;  0.0000000E+00;  3.9987219E+04;  5.8427230E-02;  0.0000000E+00; -8.2783960E-03;  1.7162963E+03;
  3.7102216E-01;  9.9999998E-03;  2.5008935E-01;4758; -7.9516461E-03;  0.0000000E+00; -2.0556918E-03;  1.0007744E+03;  1.0000000E-01;  6.4156207E+02;3;  3.4760807E+00;  0.0000000E+00; -1.2703170E+00;0;  4.5390919E-02;  4.0074730E+04;  0.0000000E+00;  2.3096471E-01;  4.0000000E+04;  0.0000000E+00;  3.9989898E+04;  5.4699481E-02;  0.0000000E+00; -9.3085635E-03;  1.3751570E+03;
  3.7096336E-01;  9.9999998E-03;  2.6008302E-01;4759; -7.7992580E-03;  0.0000000E+00; -1.9044452E-03;  1.0006976E+03;  1.0000000E-01;  5.7795892E+02;3;  3.3650072E+00;  0.0000000E+00; -1.2116925E+00;0;  4.2032115E-02;  4.0066062E+04;  0.0000000E+00;  1.9544591E-01;  4.0000000E+04;  0.0000000E+00;  3.9992297E+04;  5.1387254E-02;  0.0000000E+00; -9.3551371E-03;  1.0621061E+03;
  3.7090519E-01;  9.9999998E-03;  2.7008018E-01;4760; -7.6113120E-03;  0.0000000E+00; -1.7388762E-03;  1.0006349E+03;  1.0000000E-01;  5.2600977E+02;3;  3.2627676E+00;  0.0000000E+00; -1.1727089E+00;0;  4.0073097E-02;  4.0059996E+04;  0.0000000E+00;  1.2746130E-01;  4.0000000E+04;  0.0000000E+00;  3.9993379E+04;  4.8466440E-02;  0.0000000E+00; -8.3933426E-03;  9.2291565E+02;
  3.7084094E-01;  9.9999998E-03;  2.8007898E-01;4761; -7.3775360E-03;  0.0000000E+00; -1.6145043E-03;  1.0005816E+03;  1.0000000E-01;  4.8186288E+02;3;  3.1634471E+00;  0.0000000E+00; -1.1420422E+00;0;  3.9003219E-02;  4.0056508E+04;  0.0000000E+00;  3.2926589E-02;  4.0000000E+04;  0.0000000E+00;  3.9993039E+04;  4.5944221E-02;  0.0000000E+00; -6.9410019E-03;  9.2642316E+02;
  3.7076554E-01;  9.9999998E-03;  2.9007876E-01;4762; -7.0831310E-03;  0.0000000E+00; -1.5610022E-03;  1.0005485E+03;  1.0000000E-01;  4.5440686E+02;3;  3.0600350E+00;  0.0000000E+00; -1.1226904E+00;0;  3.7980758E-02;  4.0054895E+04;  0.0000000E+00; -8.1132844E-02;  4.0000000E+04;  0.0000000E+00;  3.9992074E+04;  4.3826435E-02;  0.0000000E+00; -5.8456785E-03;  1.0491292E+03;
  3.7068802E-01;  9.9999998E-03;  3.0007911E-01;4763; -6.6793971E-03;  0.0000000E+00; -1.5745002E-03;  1.0005220E+03;  1.0000000E-01;  4.3248157E+02;3;  2.9357319E+00;  0.0000000E+00; -1.1288923E+00;0;  3.6520842E-02;  4.0054844E+04;  0.0000000E+00; -2.0650065E-01;  4.0000000E+04;  0.0000000E+00;  3.9990605E+04;  4.2090133E-02;  0.0000000E+00; -5.5692894E-03;  1.2464525E+03;
  3.8098487E-01;  9.9999998E-03;  2.4009214E-01;4818; -8.2458276E-03;  0.0000000E+00; -2.1936696E-03;  1.0008165E+03;  1.0000000E-01;  6.7652405E+02;3;  3.5697348E+00;  0.0000000E+00; -1.1791743E+00;0;  3.6363460E-02;  4.0076859E+04;  0.0000000E+00;  1.4579371E-01;  4.0000000E+04;  0.0000000E+00;  3.9989852E+04;  4.3321200E-02;  0.0000000E+00; -6.9577391E-03;  1.3611237E+03;
  3.8094729E-01;  9.9999998E-03;  2.5008321E-01;4819; -8.1703151E-03;  0.0000000E+00; -2.0983487E-03;  1.0007067E+03;  1.0000000E-01;  5.8546490E+02;3;  3.4508271E+00;  0.0000000E+00; -1.1415535E+00;0;  3.2062951E-02;  4.0064633E+04;  0.0000000E+00;  1.3943626E-01;  4.0000000E+04;  0.0000000E+00;  3.9993102E+04;  3.9608225E-02;  0.0000000E+00; -7.5452751E-03;  9.4373584E+02;
  3.8090262E-01;  9.9999998E-03;  2.6007855E-01;4820; -8.0629988E-03;  0.0000000E+00; -1.9117137E-03;  1.0006011E+03;  1.0000000E-01;  4.9796118E+02;3;  3.3428445E+00;  0.0000000E+00; -1.0822712E+00;0;  2.9209498E-02;  4.0054094E+04;  0.0000000E+00;  1.0828096E-01;  4.0000000E+04;  0.0000000E+00;  3.9995480E+04;  3.6252145E-02;  0.0000000E+00; -7.0426469E-03;  6.5320532E+02;
  3.8085869E-01;  9.9999998E-03;  2.7007693E-01;4821; -7.9220114E-03;  0.0000000E+00; -1.7571420E-03;  1.0004991E+03;  1.0000000E-01;  4.1351913E+02;3;  3.2447019E+00;  0.0000000E+00; -1.0411868E+00;0;  2.7295351E-02;  4.0045238E+04;  0.0000000E+00;  5.2618004E-02;  4.0000000E+04;  0.0000000E+00;  3.9995938E+04;  3.3249367E-02;  0.0000000E+00; -5.9540160E-03;  5.7643420E+02;
  3.8080338E-01;  9.9999998E-03;  2.8007612E-01;4822; -7.7416021E-03;  0.0000000E+00; -1.6364709E-03;  1.0004064E+03;  1.0000000E-01;  3.3668182E+02;3;  3.1457393E+00;  0.0000000E+00; -1.0177780E+00;0;  2.6195193E-02;  4.0038410E+04;  0.0000000E+00; -2.0832665E-02;  4.0000000E+04;  0.0000000E+00;  3.9995535E+04;  3.0618368E-02;  0.0000000E+00; -4.4231745E-03;  6.0418555E+02;
  3.8073182E-01;  9.9999998E-03;  2.9007575E-01;4823; -7.5090900E-03;  0.0000000E+00; -1.5485795E-03;  1.0003295E+03;  1.0000000E-01;  2.7297992E+02;3;  3.0449605E+00;  0.0000000E+00; -1.0055125E+00;0;  2.5603345E-02;  4.0033133E+04;  0.0000000E+00; -1.0681024E-01;  4.0000000E+04;  0.0000000E+00;  3.9994723E+04;  2.8365301E-02;  0.0000000E+00; -2.7619570E-03;  7.0054303E+02;
  3.8065028E-01;  9.9999998E-03;  3.0007577E-01;4824; -7.2008623E-03;  0.0000000E+00; -1.5259874E-03;  1.0002668E+03;  1.0000000E-01;  2.2103076E+02;3;  2.9354842E+00;  0.0000000E+00; -1.0065323E+00;0;  2.4524927E-02;  4.0029238E+04;  0.0000000E+00; -2.0139229E-01;  4.0000000E+04;  0.0000000E+00;  3.9993867E+04;  2.6471497E-02;  0.0000000E+00; -1.9465712E-03;  8.4214642E+02;
  3.9090839E-01;  9.9999998E-03;  2.4008171E-01;4879; -8.4383078E-03;  0.0000000E+00; -2.2171244E-03;  1.0007023E+03;  1.0000000E-01;  5.8181067E+02;3;  3.5507486E+00;  0.0000000E+00; -1.0411639E+00;0;  2.4018623E-02;  4.0064031E+04;  0.0000000E+00;  6.0522363E-02;  4.0000000E+04;  0.0000000E+00;  3.9992617E+04;  2.9641597E-02;  0.0000000E+00; -5.6229727E-03;  9.6535339E+02;
  3.9087525E-01;  9.9999998E-03;  2.5007433E-01;4880; -8.4082149E-03;  0.0000000E+00; -2.0843071E-03;  1.0005961E+03;  1.0000000E-01;  4.9381317E+02;3;  3.4363389E+00;  0.0000000E+00; -1.0036695E+00;0;  2.0431435E-02;  4.0051395E+04;  0.0000000E+00;  4.9406841E-02;  4.0000000E+04;  0.0000000E+00;  3.9996398E+04;  2.6178114E-02;  0.0000000E+00; -5.7466789E-03;  4.8763821E+02;
  3.9083940E-01;  9.9999998E-03;  2.6007217E-01;4881; -8.3511667E-03;  0.0000000E+00; -1.8979461E-03;  1.0004719E+03;  1.0000000E-01;  3.9100125E+02;3;  3.3301497E+00;  0.0000000E+00; -9.4840235E-01;0;  1.8048413E-02;  4.0039637E+04;  0.0000000E+00;  2.3090625E-02;  4.0000000E+04;  0.0000000E+00;  3.9998391E+04;  2.3008637E-02;  0.0000000E+00; -4.9602236E-03;  2.6138272E+02;
  3.9080724E-01;  9.9999998E-03;  2.7007204E-01;4882; -8.2615707E-03;  0.0000000E+00; -1.7643742E-03;  1.0003425E+03;  1.0000000E-01;  2.8374503E+02;3;  3.2318912E+00;  0.0000000E+00; -9.1669804E-01;0;  1.6271314E-02;  4.0029125E+04;  0.0000000E+00; -1.9236825E-02;  4.0000000E+04;  0.0000000E+00;  3.9998176E+04;  2.0136816E-02;  0.0000000E+00; -3.8655032E-03;  2.5951297E+02;
  3.9076653E-01;  9.9999998E-03;  2.8007185E-01;4883; -8.1390180E-03;  0.0000000E+00; -1.6592809E-03;  1.0002231E+03;  1.0000000E-01;  1.8478488E+02;3;  3.1379206E+00;  0.0000000E+00; -8.8994676E-01;0;  1.5145021E-02;  4.0019996E+04;  0.0000000E+00; -7.2631657E-02;  4.0000000E+04;  0.0000000E+00;  3.9997840E+04;  1.7581416E-02;  0.0000000E+00; -2.4363950E-03;  3.2180954E+02;
  3.9070612E-01;  9.9999998E-03;  2.9007170E-01;4884; -7.9792291E-03;  0.0000000E+00; -1.5813697E-03;  1.0001186E+03;  1.0000000E-01;  9.8268822E+01;3;  3.0425453E+00;  0.0000000E+00; -8.8590187E-01;0;  1.4416117E-02;  4.0012195E+04;  0.0000000E+00; -1.3219489E-01;  4.0000000E+04;  0.0000000E+00;  3.9996992E+04;  1.5355395E-02;  0.0000000E+00; -9.3927793E-04;  4.1580042E+02;
  3.9063111E-01;  9.9999998E-03;  3.0007160E-01;4885; -7.7689970E-03;  0.0000000E+00; -1.5410139E-03;  1.0000280E+03;  1.0000000E-01;  2.3110456E+01;3;  2.9467361E+00;  0.0000000E+00; -8.8370126E-01;0;  1.3528788E-02;  4.0005746E+04;  0.0000000E+00; -1.9816118E-01;  4.0000000E+04;  0.0000000E+00;  3.9996582E+04;  1.3442681E-02;  0.0000000E+00;  8.6107546E-05;  5.1825745E+02;
  4.0084934E-01;  9.9999998E-03;  2.4006966E-01;4940; -8.6412737E-03;  0.0000000E+00; -2.1938228E-03;  1.0005686E+03;  1.0000000E-01;  4.7109775E+02;3;  3.5380533E+00;  0.0000000E+00; -8.9257258E-01;0;  1.3756708E-02;  4.0049625E+04;  0.0000000E+00; -2.0253021E-02;  4.0000000E+04;  0.0000000E+00;  3.9995461E+04;  1.8113844E-02;  0.0000000E+00; -4.3571359E-03;  6.1608807E+02;
  4.0082332E-01;  9.9999998E-03;  2.5006393E-01;4941; -8.6604562E-03;  0.0000000E+00; -2.0291118E-03;  1.0004705E+03;  1.0000000E-01;  3.8981610E+02;3;  3.4234836E+00;  0.0000000E+00; -8.5947680E-01;0;  1.1047726E-02;  4.0037160E+04;  0.0000000E+00; -3.4785662E-02;  4.0000000E+04;  0.0000000E+00;  3.9999605E+04;  1.5081233E-02;  0.0000000E+00; -4.0335073E-03;  9.8566978E+01;
  4.0079540E-01;  9.9999998E-03;  2.6006454E-01;4942; -8.6543011E-03;  0.0000000E+00; -1.8564323E-03;  1.0003349E+03;  1.0000000E-01;  2.7742422E+02;3;  3.3197286E+00;  0.0000000E+00; -8.1515044E-01;0;  9.2332009E-03;  4.0025254E+04;  0.0000000E+00; -5.5490367E-02;  4.0000000E+04;  0.0000000E+00;  4.0000637E+04;  1.2282125E-02;  0.0000000E+00; -3.0489240E-03;  9.6311554E+01;
  4.0077201E-01;  9.9999998E-03;  2.7006599E-01;4943; -8.6196726E-03;  0.0000000E+00; -1.7653855E-03;  1.0001890E+03;  1.0000000E-01;  1.5663753E+02;3;  3.2242246E+00;  0.0000000E+00; -7.9669714E-01;0;  7.5483811E-03;  4.0013922E+04;  0.0000000E+00; -8.3973944E-02;  4.0000000E+04;  0.0000000E+00;  4.0000129E+04;  9.7240908E-03;  0.0000000E+00; -2.1757097E-03;  1.1688382E+02;
  4.0074316E-01;  9.9999998E-03;  2.8006658E-01;4944; -8.5590463E-03;  0.0000000E+00; -1.6930456E-03;  1.0000550E+03;  1.0000000E-01;  4.5529572E+01;3;  3.1339281E+00;  0.0000000E+00; -7.7758574E-01;0;  6.3287979E-03;  4.0003738E+04;  0.0000000E+00; -1.1808610E-01;  4.0000000E+04;  0.0000000E+00;  3.9999547E+04;  7.4220444E-03;  0.0000000E+00; -1.0932464E-03;  1.7576663E+02;
  4.0070003E-01;  9.9999998E-03;  2.9006681E-01;4945; -8.4758941E-03;  0.0000000E+00; -1.6390819E-03;  9.9993591E+02;  1.0000000E-01; -5.3084915E+01;3;  3.0402806E+00;  0.0000000E+00; -7.8484899E-01;0;  5.3967768E-03;  3.9994703E+04;  0.0000000E+00; -1.5482105E-01;  4.0000000E+04;  0.0000000E+00;  3.9999023E+04;  5.3851097E-03;  0.0000000E+00;  1.1667118E-05;  2.4761061E+02;
  4.0064070E-01;  9.9999998E-03;  3.0006689E-01;4946; -8.3680432E-03;  0.0000000E+00; -1.6047497E-03;  9.9982977E+02;  1.0000000E-01; -1.4103304E+02;3;  2.9467852E+00;  0.0000000E+00; -7.9146791E-01;0;  4.4677556E-03;  3.9986832E+04;  0.0000000E+00; -1.9296895E-01;  4.0000000E+04;  0.0000000E+00;  3.9998613E+04;  3.6062356E-03;  0.0000000E+00;  8.6152018E-04;  3.1598874E+02;
  4.1082591E-01;  9.9999998E-03;  2.4005753E-01;5001; -8.8516846E-03;  0.0000000E+00; -2.1314314E-03;  1.0004476E+03;  1.0000000E-01;  3.7085367E+02;3;  3.5289524E+00;  0.0000000E+00; -7.4197048E-01;0;  5.9732352E-03;  4.0037246E+04;  0.0000000E+00; -9.3907714E-02;  4.0000000E+04;  0.0000000E+00;  3.9997246E+04;  9.1514047E-03;  0.0000000E+00; -3.1781695E-03;  3.9712381E+02;
  4.1081077E-01;  9.9999998E-03;  2.5005326E-01;5002; -8.9201499E-03;  0.0000000E+00; -1.9407955E-03;  1.0003635E+03;  1.0000000E-01;  3.0112726E+02;3;  3.4141207E+00;  0.0000000E+00; -7.1310174E-01;0;  4.2538922E-03;  4.0025711E+04;  0.0000000E+00; -1.0995895E-01;  4.0000000E+04;  0.0000000E+00;  4.0001762E+04;  6.6816900E-03;  0.0000000E+00; -2.4277978E-03;  2.4886711E+02;
  4.1079429E-01;  9.9999998E-03;  2.6005650E-01;5003; -8.9645935E-03;  0.0000000E+00; -1.8010772E-03;  1.0002259E+03;  1.0000000E-01;  1.8715518E+02;3;  3.3145475E+00;  0.0000000E+00; -6.9129503E-01;0;  3.0069179E-03;  4.0014367E+04;  0.0000000E+00; -1.2541072E-01;  4.0000000E+04;  0.0000000E+00;  4.0002262E+04;  4.3901815E-03;  0.0000000E+00; -1.3832636E-03;  3.1087454E+02;
  4.1078010E-01;  9.9999998E-03;  2.7005947E-01;5004; -8.9816265E-03;  0.0000000E+00; -1.7579282E-03;  1.0000767E+03;  1.0000000E-01;  6.3603134E+01;3;  3.2198098E+00;  0.0000000E+00; -6.8746150E-01;0;  1.5064413E-03;  4.0003414E+04;  0.0000000E+00; -1.4173445E-01;  4.0000000E+04;  0.0000000E+00;  4.0001109E+04;  2.2879380E-03;  0.0000000E+00; -7.8149675E-04;  2.4998669E+02;
  4.1076025E-01;  9.9999998E-03;  2.8006092E-01;5005; -8.9824293E-03;  0.0000000E+00; -1.7281172E-03;  9.9994000E+02;  1.0000000E-01; -4.9726986E+01;3;  3.1275167E+00;  0.0000000E+00; -6.8686974E-01;0;  2.2976357E-04;  3.9992824E+04;  0.0000000E+00; -1.5856279E-01;  4.0000000E+04;  0.0000000E+00;  4.0000543E+04;  3.8606679E-04;  0.0000000E+00; -1.5630323E-04;  2.3551346E+02;
  4.1072625E-01;  9.9999998E-03;  2.9006165E-01;5006; -8.9742672E-03;  0.0000000E+00; -1.6978224E-03;  9.9981775E+02;  1.0000000E-01; -1.5100806E+02;3;  3.0378468E+00;  0.0000000E+00; -6.9074619E-01;0; -7.2559464E-04;  3.9983383E+04;  0.0000000E+00; -1.7165811E-01;  4.0000000E+04;  0.0000000E+00;  4.0000168E+04; -1.3077225E-03;  0.0000000E+00;  5.8212789E-04;  2.4231859E+02;
  4.1067693E-01;  9.9999998E-03;  3.0006206E-01;5007; -8.9703854E-03;  0.0000000E+00; -1.6844695E-03;  9.9970947E+02;  1.0000000E-01; -2.4068454E+02;3;  2.9471354E+00;  0.0000000E+00; -7.0591974E-01;0; -1.7532302E-03;  3.9975152E+04;  0.0000000E+00; -1.7571603E-01;  4.0000000E+04;  0.0000000E+00;  3.9999742E+04; -2.7981400E-03;  0.0000000E+00;  1.0449098E-03;  2.4675409E+02;
  4.2085168E-01;  9.9999998E-03;  2.4004656E-01;5062; -9.0617770E-03;  0.0000000E+00; -2.0289805E-03;  1.0003886E+03;  1.0000000E-01;  3.2196619E+02;3;  3.5175583E+00;  0.0000000E+00; -5.9210521E-01;0;  8.3975890E-04;  4.0031320E+04;  0.0000000E+00; -1.5655531E-01;  4.0000000E+04;  0.0000000E+00;  3.9997980E+04;  2.8700314E-03;  0.0000000E+00; -2.0302725E-03;  3.6565085E+02;
  4.2085093E-01;  9.9999998E-03;  2.5004378E-01;5063; -9.1786478E-03;  0.0000000E+00; -1.8311503E-03;  1.0003199E+03;  1.0000000E-01;  2.6507889E+02;3;  3.4086158E+00;  0.0000000E+00; -5.7870710E-01;0;  1.1729624E-04;  4.0021215E+04;  0.0000000E+00; -1.7233746E-01;  4.0000000E+04;  0.0000000E+00;  4.0002496E+04;  1.0485824E-03;  0.0000000E+00; -9.3128614E-04;  3.7032312E+02;
  4.2084631E-01;  9.9999998E-03;  2.6004916E-01;5064; -9.2670768E-03;  0.0000000E+00; -1.7344565E-03;  1.0001899E+03;  1.0000000E-01;  1.5732887E+02;3;  3.3173807E+00;  0.0000000E+00; -5.8709186E-01;0; -5.2363990E-04;  4.0010902E+04;  0.0000000E+00; -1.8237118E-01;  4.0000000E+04;  0.0000000E+00;  4.0002195E+04; -6.3946215E-04;  0.0000000E+00;  1.1582222E-04;  3.7005093E+02;
  4.2083615E-01;  9.9999998E-03;  2.7005333E-01;5065; -9.3318000E-03;  0.0000000E+00; -1.7391911E-03;  1.0000468E+03;  1.0000000E-01;  3.8714951E+01;3;  3.2196159E+00;  0.0000000E+00; -5.9414124E-01;0; -1.7063513E-03;  4.0000641E+04;  0.0000000E+00; -1.8606113E-01;  4.0000000E+04;  0.0000000E+00;  4.0001066E+04; -2.1834006E-03;  0.0000000E+00;  4.7704921E-04;  2.9272928E+02;
  4.2081681E-01;  9.9999998E-03;  2.8005552E-01;5066; -9.3876999E-03;  0.0000000E+00; -1.7477580E-03;  9.9991962E+02;  1.0000000E-01; -6.6615395E+01;3;  3.1285882E+00;  0.0000000E+00; -6.0040778E-01;0; -2.8240837E-03;  3.9990891E+04;  0.0000000E+00; -1.8107969E-01;  4.0000000E+04;  0.0000000E+00;  4.0000176E+04; -3.5772836E-03;  0.0000000E+00;  7.5319991E-04;  2.5916827E+02;
  4.2078358E-01;  9.9999998E-03;  2.9005677E-01;5067; -9.4508203E-03;  0.0000000E+00; -1.7527264E-03;  9.9980206E+02;  1.0000000E-01; -1.6399535E+02;3;  3.0396590E+00;  0.0000000E+00; -6.0906249E-01;0; -3.8048974E-03;  3.9982059E+04;  0.0000000E+00; -1.6173679E-01;  4.0000000E+04;  0.0000000E+00;  3.9999941E+04; -4.8161433E-03;  0.0000000E+00;  1.0112460E-03;  2.2696796E+02;
  4.2073303E-01;  9.9999998E-03;  3.0005759E-01;5068; -9.5472150E-03;  0.0000000E+00; -1.7577031E-03;  9.9970172E+02;  1.0000000E-01; -2.4710411E+02;3;  2.9559972E+00;  0.0000000E+00; -6.2155068E-01;0; -4.7171991E-03;  3.9974188E+04;  0.0000000E+00; -1.2021725E-01;  4.0000000E+04;  0.0000000E+00;  3.9999543E+04; -5.9004729E-03;  0.0000000E+00;  1.1832740E-03;  1.6885646E+02;
  4.3090835E-01;  9.9999998E-03;  2.4003728E-01;5123; -9.2616072E-03;  0.0000000E+00; -1.8829231E-03;  1.0004285E+03;  1.0000000E-01;  3.5505167E+02;3;  3.5157790E+00;  0.0000000E+00; -4.5438972E-01;0; -1.7102206E-03;  4.0034984E+04;  0.0000000E+00; -2.0130073E-01;  4.0000000E+04;  0.0000000E+00;  3.9997293E+04; -8.9250604E-04;  0.0000000E+00; -8.1771455E-04;  4.7170007E+02;
  4.3091649E-01;  9.9999998E-03;  2.5003663E-01;5124; -9.4217304E-03;  0.0000000E+00; -1.7049563E-03;  1.0003732E+03;  1.0000000E-01;  3.0912704E+02;3;  3.4123154E+00;  0.0000000E+00; -4.6899235E-01;0; -1.4921224E-03;  4.0026652E+04;  0.0000000E+00; -2.1240261E-01;  4.0000000E+04;  0.0000000E+00;  4.0001223E+04; -2.0269230E-03;  0.0000000E+00;  5.3480058E-04;  3.2253113E+02;
  4.3091869E-01;  9.9999998E-03;  2.6004341E-01;5125; -9.5458971E-03;  0.0000000E+00; -1.6663492E-03;  1.0002594E+03;  1.0000000E-01;  2.1490749E+02;3;  3.3151138E+00;  0.0000000E+00; -4.8736328E-01;0; -1.5710496E-03;  4.0018031E+04;  0.0000000E+00; -2.1305653E-01;  4.0000000E+04;  0.0000000E+00;  4.0000473E+04; -3.0645297E-03;  0.0000000E+00;  1.4934802E-03;  3.0368427E+02;
  4.3091002E-01;  9.9999998E-03;  2.7004826E-01;5126; -9.6498802E-03;  0.0000000E+00; -1.7133697E-03;  1.0001321E+03;  1.0000000E-01;  1.0942899E+02;3;  3.2265358E+00;  0.0000000E+00; -5.0215214E-01;0; -2.2862852E-03;  4.0009188E+04;  0.0000000E+00; -2.0065191E-01;  4.0000000E+04;  0.0000000E+00;  3.9999273E+04; -3.9994409E-03;  0.0000000E+00;  1.7131558E-03;  3.0289941E+02;
  4.3089157E-01;  9.9999998E-03;  2.8005102E-01;5127; -9.7578140E-03;  0.0000000E+00; -1.7575062E-03;  1.0000197E+03;  1.0000000E-01;  1.6295834E+01;3;  3.1388817E+00;  0.0000000E+00; -5.1344240E-01;0; -3.0878291E-03;  4.0000688E+04;  0.0000000E+00; -1.7027315E-01;  4.0000000E+04;  0.0000000E+00;  3.9998496E+04; -4.8299865E-03;  0.0000000E+00;  1.7421574E-03;  3.0450751E+02;
  4.3085927E-01;  9.9999998E-03;  2.9005274E-01;5128; -9.8919114E-03;  0.0000000E+00; -1.7898589E-03;  9.9991913E+02;  1.0000000E-01; -6.7010445E+01;3;  3.0549736E+00;  0.0000000E+00; -5.2752250E-01;0; -3.8320911E-03;  3.9992871E+04;  0.0000000E+00; -1.1381983E-01;  4.0000000E+04;  0.0000000E+00;  3.9998219E+04; -5.5532372E-03;  0.0000000E+00;  1.7211462E-03;  2.7647092E+02;
  4.3080920E-01;  9.9999998E-03;  3.0005398E-01;5129; -1.0095295E-02;  0.0000000E+00; -1.8124647E-03;  9.9982800E+02;  1.0000000E-01; -1.4251448E+02;3;  2.9751737E+00;  0.0000000E+00; -5.4455227E-01;0; -4.4833734E-03;  3.9985789E+04;  0.0000000E+00; -2.1460904E-02;  4.0000000E+04;  0.0000000E+00;  3.9997723E+04; -6.1676381E-03;  0.0000000E+00;  1.6842649E-03;  2.4670677E+02;
  4.4097656E-01;  9.9999998E-03;  2.4003074E-01;5184; -9.4421264E-03;  0.0000000E+00; -1.7008629E-03;  1.0005847E+03;  1.0000000E-01;  4.8443069E+02;3;  3.5087578E+00;  0.0000000E+00; -3.3297098E-01;0; -2.0509954E-03;  4.0049707E+04;  0.0000000E+00; -2.2400305E-01;  4.0000000E+04;  0.0000000E+00;  3.9995023E+04; -2.5743672E-03;  0.0000000E+00;  5.2337191E-04;  7.2472687E+02;
  4.4098970E-01;  9.9999998E-03;  2.5003257E-01;5185; -9.6303476E-03;  0.0000000E+00; -1.5769495E-03;  1.0005421E+03;  1.0000000E-01;  4.4917245E+02;3;  3.4292116E+00;  0.0000000E+00; -3.6886600E-01;0; -1.0342277E-03;  4.0043449E+04;  0.0000000E+00; -2.2740592E-01;  4.0000000E+04;  0.0000000E+00;  3.9997902E+04; -3.0373028E-03;  0.0000000E+00;  2.0030751E-03;  4.4551315E+02;
  4.4099593E-01;  9.9999998E-03;  2.6003978E-01;5186; -9.7874701E-03;  0.0000000E+00; -1.5924177E-03;  1.0004459E+03;  1.0000000E-01;  3.6937225E+02;3;  3.3300130E+00;  0.0000000E+00; -3.9453325E-01;0; -4.7111418E-04;  4.0036730E+04;  0.0000000E+00; -2.1654159E-01;  4.0000000E+04;  0.0000000E+00;  3.9996844E+04; -3.4305297E-03;  0.0000000E+00;  2.9594155E-03;  5.2570032E+02;
  4.4099104E-01;  9.9999998E-03;  2.7004483E-01;5187; -9.9283205E-03;  0.0000000E+00; -1.6777681E-03;  1.0003449E+03;  1.0000000E-01;  2.8572031E+02;3;  3.2379866E+00;  0.0000000E+00; -4.1118491E-01;0; -5.9766253E-04;  4.0029652E+04;  0.0000000E+00; -1.8716894E-01;  4.0000000E+04;  0.0000000E+00;  3.9995512E+04; -3.7550954E-03;  0.0000000E+00;  3.1574329E-03;  6.3923090E+02;
  4.4097790E-01;  9.9999998E-03;  2.8004783E-01;5188; -1.0080333E-02;  0.0000000E+00; -1.7545462E-03;  1.0002510E+03;  1.0000000E-01;  2.0799409E+02;3;  3.1491930E+00;  0.0000000E+00; -4.2175061E-01;0; -9.4408449E-04;  4.0022914E+04;  0.0000000E+00; -1.3240653E-01;  4.0000000E+04;  0.0000000E+00;  3.9994914E+04; -4.0138159E-03;  0.0000000E+00;  3.0697314E-03;  6.7929260E+02;
  4.4095081E-01;  9.9999998E-03;  2.9004988E-01;5189; -1.0279317E-02;  0.0000000E+00; -1.8126641E-03;  1.0001653E+03;  1.0000000E-01;  1.3688501E+02;3;  3.0696647E+00;  0.0000000E+00; -4.3809816E-01;0; -1.3306453E-03;  4.0016328E+04;  0.0000000E+00; -4.2653631E-02;  4.0000000E+04;  0.0000000E+00;  3.9994641E+04; -4.2087324E-03;  0.0000000E+00;  2.8780871E-03;  6.8093213E+02;
  4.4090661E-01;  9.9999998E-03;  3.0005160E-01;5190; -1.0594334E-02;  0.0000000E+00; -1.8504255E-03;  1.0000904E+03;  1.0000000E-01;  7.4862076E+01;3;  2.9958866E+00;  0.0000000E+00; -4.6303171E-01;0; -1.6067089E-03;  4.0010582E+04;  0.0000000E+00;  9.3165949E-02;  4.0000000E+04;  0.0000000E+00;  3.9994555E+04; -4.3392912E-03;  0.0000000E+00;  2.7325824E-03;  7.1779865E+02;
  4.5105186E-01;  9.9999998E-03;  2.4002731E-01;5245; -9.5829042E-03;  0.0000000E+00; -1.5023882E-03;  1.0008419E+03;  1.0000000E-01;  6.9756049E+02;3;  3.5126777E+00;  0.0000000E+00; -2.4870762E-01;0; -8.0628740E-04;  4.0073957E+04;  0.0000000E+00; -2.2608729E-01;  4.0000000E+04;  0.0000000E+00;  3.9991855E+04; -2.8195139E-03;  0.0000000E+00;  2.0132265E-03;  1.1377812E+03;
  4.5106620E-01;  9.9999998E-03;  2.5003159E-01;5246; -9.7890897E-03;  0.0000000E+00; -1.4513178E-03;  1.0008057E+03;  1.0000000E-01;  6.6743787E+02;3;  3.4292431E+00;  0.0000000E+00; -2.7091518E-01;0;  9.1230939E-04;  4.0069910E+04;  0.0000000E+00; -2.2160925E-01;  4.0000000E+04;  0.0000000E+00;  3.9992945E+04; -2.6774537E-03;  0.0000000E+00;  3.5897631E-03;  1.0008419E+03;
  4.5107546E-01;  9.9999998E-03;  2.6003841E-01;5247; -9.9665625E-03;  0.0000000E+00; -1.5220912E-03;  1.0007341E+03;  1.0000000E-01;  6.0818030E+02;3;  3.3358481E+00;  0.0000000E+00; -3.0058599E-01;0;  2.1232485E-03;  4.0065363E+04;  0.0000000E+00; -1.9973446E-01;  4.0000000E+04;  0.0000000E+00;  3.9991648E+04; -2.4830664E-03;  0.0000000E+00;  4.6063149E-03;  1.1371829E+03;
  4.5107836E-01;  9.9999998E-03;  2.7004308E-01;5248; -1.0135245E-02;  0.0000000E+00; -1.6360541E-03;  1.0006592E+03;  1.0000000E-01;  5.4615735E+02;3;  3.2447798E+00;  0.0000000E+00; -3.1702161E-01;0;  2.7314886E-03;  4.0060488E+04;  0.0000000E+00; -1.5506776E-01;  4.0000000E+04;  0.0000000E+00;  3.9990391E+04; -2.2440613E-03;  0.0000000E+00;  4.9755499E-03;  1.2656306E+03;
  4.5107475E-01;  9.9999998E-03;  2.8004605E-01;5249; -1.0322618E-02;  0.0000000E+00; -1.7487111E-03;  1.0005876E+03;  1.0000000E-01;  4.8689978E+02;3;  3.1631694E+00;  0.0000000E+00; -3.4055549E-01;0;  2.8579074E-03;  4.0055379E+04;  0.0000000E+00; -8.0223784E-02;  4.0000000E+04;  0.0000000E+00;  3.9989930E+04; -1.9708418E-03;  0.0000000E+00;  4.8287492E-03;  1.3137330E+03;
  4.5105740E-01;  9.9999998E-03;  2.9004833E-01;5250; -1.0571121E-02;  0.0000000E+00; -1.8473312E-03;  1.0005234E+03;  1.0000000E-01;  4.3366672E+02;3;  3.0871685E+00;  0.0000000E+00; -3.6879066E-01;0;  2.6220542E-03;  4.0050297E+04;  0.0000000E+00;  3.3773232E-02;  4.0000000E+04;  0.0000000E+00;  3.9989762E+04; -1.6750044E-03;  0.0000000E+00;  4.2970586E-03;  1.3315037E+03;
  4.5102334E-01;  9.9999998E-03;  3.0005047E-01;5251; -1.0955764E-02;  0.0000000E+00; -1.9255080E-03;  1.0004649E+03;  1.0000000E-01;  3.8517426E+02;3;  3.0254333E+00;  0.0000000E+00; -4.0303469E-01;0;  2.2650333E-03;  4.0045957E+04;  0.0000000E+00;  1.9790548E-01;  4.0000000E+04;  0.0000000E+00;  3.9989227E+04; -1.3627972E-03;  0.0000000E+00;  3.6278304E-03;  1.3960610E+03;
  4.6111599E-01;  9.9999998E-03;  2.4002744E-01;5306; -9.6615199E-03;  0.0000000E+00; -1.3292852E-03;  1.0011583E+03;  1.0000000E-01;  9.5967651E+02;3;  3.4593320E+00;  0.0000000E+00; -1.9299623E-01;0;  1.1789941E-03;  4.0104094E+04;  0.0000000E+00; -2.1045561E-01;  4.0000000E+04;  0.0000000E+00;  3.9987441E+04; -2.3841702E-03;  0.0000000E+00;  3.5631643E-03;  1.6897504E+03;
  4.6112826E-01;  9.9999998E-03;  2.5003326E-01;5307; -9.8572941E-03;  0.0000000E+00; -1.3571716E-03;  1.0011251E+03;  1.0000000E-01;  9.3212170E+02;3;  3.4011903E+00;  0.0000000E+00; -1.8869017E-01;0;  3.4890999E-03;  4.0101910E+04;  0.0000000E+00; -1.9944824E-01;  4.0000000E+04;  0.0000000E+00;  3.9987020E+04; -1.7545432E-03;  0.0000000E+00;  5.2436432E-03;  1.7449503E+03;
  4.6113643E-01;  9.9999998E-03;  2.6003879E-01;5308; -1.0038359E-02;  0.0000000E+00; -1.4690342E-03;  1.0010771E+03;  1.0000000E-01;  8.9232037E+02;3;  3.3265288E+00;  0.0000000E+00; -2.0924540E-01;0;  5.3997519E-03;  4.0099426E+04;  0.0000000E+00; -1.6794978E-01;  4.0000000E+04;  0.0000000E+00;  3.9985641E+04; -1.0811839E-03;  0.0000000E+00;  6.4809360E-03;  1.9019200E+03;
  4.6113816E-01;  9.9999998E-03;  2.7004260E-01;5309; -1.0218188E-02;  0.0000000E+00; -1.6252035E-03;  1.0010281E+03;  1.0000000E-01;  8.5172894E+02;3;  3.2441585E+00;  0.0000000E+00; -2.3838708E-01;0;  6.5482296E-03;  4.0096375E+04;  0.0000000E+00; -1.0989957E-01;  4.0000000E+04;  0.0000000E+00;  3.9984570E+04; -3.7976302E-04;  0.0000000E+00;  6.9279927E-03;  2.0161588E+03;
  4.6113345E-01;  9.9999998E-03;  2.8004530E-01;5310; -1.0404382E-02;  0.0000000E+00; -1.7998943E-03;  1.0009825E+03;  1.0000000E-01;  8.1400159E+02;3;  3.1688099E+00;  0.0000000E+00; -2.6489967E-01;0;  6.6830339E-03;  4.0093027E+04;  0.0000000E+00; -1.9306509E-02;  4.0000000E+04;  0.0000000E+00;  3.9984152E+04;  3.2857503E-04;  0.0000000E+00;  6.3544591E-03;  2.0568594E+03;
  4.6111837E-01;  9.9999998E-03;  2.9004753E-01;5311; -1.0647269E-02;  0.0000000E+00; -1.9538682E-03;  1.0009387E+03;  1.0000000E-01;  7.7775574E+02;3;  3.0993845E+00;  0.0000000E+00; -2.9859444E-01;0;  6.2056328E-03;  4.0089746E+04;  0.0000000E+00;  1.0957936E-01;  4.0000000E+04;  0.0000000E+00;  3.9984254E+04;  1.0203519E-03;  0.0000000E+00;  5.1852809E-03;  2.0644495E+03;
  4.6109000E-01;  9.9999998E-03;  3.0004978E-01;5312; -1.1006446E-02;  0.0000000E+00; -2.0811204E-03;  1.0008955E+03;  1.0000000E-01;  7.4190491E+02;3;  3.0459700E+00;  0.0000000E+00; -3.2892096E-01;0;  5.4524625E-03;  4.0086422E+04;  0.0000000E+00;  2.8466997E-01;  4.0000000E+04;  0.0000000E+00;  3.9984043E+04;  1.6766165E-03;  0.0000000E+00;  3.7758457E-03;  2.1084072E+03;
  4.7110584E-01;  9.9999998E-03;  2.4003001E-01;5367; -9.6672382E-03;  0.0000000E+00; -1.2523867E-03;  1.0014636E+03;  1.0000000E-01;  1.2126075E+03;3;  3.3363447E+00;  0.0000000E+00; -1.7813478E-01;0;  2.8972600E-03;  4.0133801E+04;  0.0000000E+00; -1.7997095E-01;  4.0000000E+04;  0.0000000E+00;  3.9982934E+04; -2.0340194E-03;  0.0000000E+00;  4.9312795E-03;  2.2706602E+03;
  4.7110909E-01;  9.9999998E-03;  2.5003618E-01;5368; -9.8089986E-03;  0.0000000E+00; -1.3290824E-03;  1.0014332E+03;  1.0000000E-01;  1.1874231E+03;3;  3.3250270E+00;  0.0000000E+00; -1.3404691E-01;0;  5.7650669E-03;  4.0132945E+04;  0.0000000E+00; -1.6505396E-01;  4.0000000E+04;  0.0000000E+00;  3.9981191E+04; -1.0820902E-03;  0.0000000E+00;  6.8471571E-03;  2.4893994E+03;
  4.7111210E-01;  9.9999998E-03;  2.6003993E-01;5369; -9.9536767E-03;  0.0000000E+00; -1.4874164E-03;  1.0014022E+03;  1.0000000E-01;  1.1617449E+03;3;  3.2646170E+00;  0.0000000E+00; -1.3548636E-01;0;  8.1365202E-03;  4.0131898E+04;  0.0000000E+00; -1.2827358E-01;  4.0000000E+04;  0.0000000E+00;  3.9979883E+04; -8.8216933E-05;  0.0000000E+00;  8.2247369E-03;  2.6403508E+03;
  4.7110957E-01;  9.9999998E-03;  2.7004254E-01;5370; -1.0088743E-02;  0.0000000E+00; -1.7073004E-03;  1.0013775E+03;  1.0000000E-01;  1.1412021E+03;3;  3.2087295E+00;  0.0000000E+00; -1.5175347E-01;0;  9.3440572E-03;  4.0130449E+04;  0.0000000E+00; -6.3738160E-02;  4.0000000E+04;  0.0000000E+00;  3.9979180E+04;  9.2506415E-04;  0.0000000E+00;  8.4189931E-03;  2.7207537E+03;
  4.7109768E-01;  9.9999998E-03;  2.8004467E-01;5371; -1.0223989E-02;  0.0000000E+00; -1.9499664E-03;  1.0013566E+03;  1.0000000E-01;  1.1239187E+03;3;  3.1446776E+00;  0.0000000E+00; -1.8563662E-01;0;  9.1163134E-03;  4.0128707E+04;  0.0000000E+00;  3.1921100E-02;  4.0000000E+04;  0.0000000E+00;  3.9979109E+04;  1.9269240E-03;  0.0000000E+00;  7.1893893E-03;  2.7332920E+03;
  4.7107965E-01;  9.9999998E-03;  2.9004669E-01;5372; -1.0398244E-02;  0.0000000E+00; -2.1600768E-03;  1.0013326E+03;  1.0000000E-01;  1.1040675E+03;3;  3.0850489E+00;  0.0000000E+00; -2.1197572E-01;0;  8.0983136E-03;  4.0126723E+04;  0.0000000E+00;  1.5973814E-01;  4.0000000E+04;  0.0000000E+00;  3.9979316E+04;  2.8808420E-03;  0.0000000E+00;  5.2174712E-03;  2.7052126E+03;
  4.7105440E-01;  9.9999998E-03;  3.0004886E-01;5373; -1.0664999E-02;  0.0000000E+00; -2.3259784E-03;  1.0013053E+03;  1.0000000E-01;  1.0814508E+03;3;  3.0408156E+00;  0.0000000E+00; -2.3616938E-01;0;  6.9016898E-03;  4.0124316E+04;  0.0000000E+00;  3.2253778E-01;  4.0000000E+04;  0.0000000E+00;  3.9979598E+04;  3.7532165E-03;  0.0000000E+00;  3.1484733E-03;  2.6962690E+03;
  4.8095211E-01;  9.9999998E-03;  3.0004701E-01;5434; -9.8333824E-03;  0.0000000E+00; -2.6657628E-03;  1.0016309E+03;  1.0000147E-01;  1.3511715E+03;3;  2.8745368E+00;  0.0000000E+00; -1.2088203E-02;0;  5.7561849E-03;  4.0152254E+04;  0.0000000E+00;  2.8786343E-01;  4.0000000E+04;  0.0000000E+00;  3.9977133E+04;  4.0827175E-03;  0.0000000E+00;  1.6734673E-03;  3.0239055E+03;
  4.8097306E-01;  9.9999998E-03;  2.9004499E-01;5433; -9.7066099E-03;  0.0000000E+00; -2.4885058E-03;  1.0016418E+03;  1.0000147E-01;  1.3601589E+03;3;  2.8999314E+00;  0.0000000E+00;  2.9492062E-03;0;  7.1955221E-03;  4.0153977E+04;  0.0000000E+00;  1.5821436E-01;  4.0000000E+04;  0.0000000E+00;  3.9976523E+04;  3.1243665E-03;  0.0000000E+00;  4.0711556E-03;  3.0956545E+03;
  4.8098826E-01;  9.9999998E-03;  2.8004333E-01;5432; -9.6418550E-03;  0.0000000E+00; -2.2515899E-03;  1.0016484E+03;  1.0000148E-01;  1.3656897E+03;3;  2.9505489E+00;  0.0000000E+00;  1.2335333E-02;0;  8.6856261E-03;  4.0155012E+04;  0.0000000E+00;  4.9162466E-02;  4.0000000E+04;  0.0000000E+00;  3.9975742E+04;  2.0576222E-03;  0.0000000E+00;  6.6280044E-03;  3.1792598E+03;
  4.8101115E-01;  9.9999998E-03;  2.4003217E-01;5428; -9.5810015E-03;  0.0000000E+00; -1.3626827E-03;  1.0017065E+03;  1.0000148E-01;  1.4138859E+03;3;  3.1850247E+00;  0.0000000E+00; -3.6562551E-02;0;  3.3241671E-03;  4.0156062E+04;  0.0000000E+00; -1.4142962E-01;  4.0000000E+04;  0.0000000E+00;  3.9979602E+04; -2.4120000E-03;  0.0000000E+00;  5.7361671E-03;  2.7033101E+03;
  4.8100671E-01;  9.9999998E-03;  2.5003842E-01;5429; -9.5965602E-03;  0.0000000E+00; -1.4908299E-03;  1.0016743E+03;  1.0000146E-01;  1.3871212E+03;3;  3.0755157E+00;  0.0000000E+00; -1.4845638E-02;0;  6.3067647E-03;  4.0156090E+04;  0.0000000E+00; -1.2850063E-01;  4.0000000E+04;  0.0000000E+00;  3.9976844E+04; -1.3338443E-03;  0.0000000E+00;  7.6406091E-03;  3.0549453E+03;
  4.8100400E-01;  9.9999998E-03;  2.6004046E-01;5430; -9.6125491E-03;  0.0000000E+00; -1.6943193E-03;  1.0016583E+03;  1.0000145E-01;  1.3738870E+03;3;  3.0558310E+00;  0.0000000E+00;  2.6257541E-03;0;  8.6311586E-03;  4.0155953E+04;  0.0000000E+00; -9.5311150E-02;  4.0000000E+04;  0.0000000E+00;  3.9975605E+04; -2.1170972E-04;  0.0000000E+00;  8.8428687E-03;  3.1926890E+03;
  4.8099989E-01;  9.9999998E-03;  2.7004185E-01;5431; -9.6235424E-03;  0.0000000E+00; -1.9658664E-03;  1.0016525E+03;  1.0000148E-01;  1.3690476E+03;3;  3.0025334E+00;  0.0000000E+00;  4.0760399E-03;0;  9.4680171E-03;  4.0155590E+04;  0.0000000E+00; -3.6363125E-02;  4.0000000E+04;  0.0000000E+00;  3.9975230E+04;  9.3023159E-04;  0.0000000E+00;  8.5377852E-03;  3.2230725E+03;
  4.9088776E-01;  9.9999998E-03;  2.4003130E-01;5489; -9.2528677E-03;  0.0000000E+00; -1.8404530E-03;  1.0018145E+03;  1.0000210E-01;  1.5032659E+03;3;  2.6744323E+00;  0.0000000E+00;  4.7037166E-01;0;  1.2055980E-03;  4.0165359E+04;  0.0000000E+00; -1.0317250E-01;  4.0000000E+04;  0.0000000E+00;  3.9978648E+04; -3.9553265E-03;  0.0000000E+00;  5.1609245E-03;  2.8310945E+03;
  4.9087697E-01;  9.9999998E-03;  2.5003770E-01;5490; -9.0536624E-03;  0.0000000E+00; -2.0686376E-03;  1.0017747E+03;  1.0000207E-01;  1.4702792E+03;3;  2.2443173E+00;  0.0000000E+00;  5.6068689E-01;0;  3.1453688E-03;  4.0165512E+04;  0.0000000E+00; -9.8734438E-02;  4.0000000E+04;  0.0000000E+00;  3.9975219E+04; -2.9557552E-03;  0.0000000E+00;  6.1011240E-03;  3.2568835E+03;
  4.9086782E-01;  9.9999998E-03;  2.6003864E-01;5491; -8.7831384E-03;  0.0000000E+00; -2.3107720E-03;  1.0017654E+03;  1.0000200E-01;  1.4626744E+03;3;  1.8436493E+00;  0.0000000E+00;  6.2767255E-01;0;  4.3603331E-03;  4.0165777E+04;  0.0000000E+00; -7.8423455E-02;  4.0000000E+04;  0.0000000E+00;  3.9974246E+04; -1.9080911E-03;  0.0000000E+00;  6.2684244E-03;  3.3671987E+03;
  4.9086183E-01;  9.9999998E-03;  2.7003926E-01;5492; -8.5045649E-03;  0.0000000E+00; -2.5646603E-03;  1.0017736E+03;  1.0000207E-01;  1.4693903E+03;3;  1.5624923E+00;  0.0000000E+00;  6.4566416E-01;0;  4.4270037E-03;  4.0166000E+04;  0.0000000E+00; -3.7325624E-02;  4.0000000E+04;  0.0000000E+00;  3.9974617E+04; -8.3334086E-04;  0.0000000E+00;  5.2603446E-03;  3.3413362E+03;
  4.9085271E-01;  9.9999998E-03;  2.8004023E-01;5493; -8.2411245E-03;  0.0000000E+00; -2.7957219E-03;  1.0017824E+03;  1.0000204E-01;  1.4766987E+03;3;  1.2892976E+00;  0.0000000E+00;  6.4999837E-01;0;  3.5127602E-03;  4.0165914E+04;  0.0000000E+00;  2.4071889E-02;  4.0000000E+04;  0.0000000E+00;  3.9975297E+04;  2.3702606E-04;  0.0000000E+00;  3.2757341E-03;  3.2360945E+03;
  4.9084175E-01;  9.9999998E-03;  2.9004169E-01;5494; -7.9898359E-03;  0.0000000E+00; -2.9732930E-03;  1.0017902E+03;  1.0000199E-01;  1.4831183E+03;3;  1.0960511E+00;  0.0000000E+00;  6.7392391E-01;0;  2.3235776E-03;  4.0165391E+04;  0.0000000E+00;  1.0006606E-01;  4.0000000E+04;  0.0000000E+00;  3.9976539E+04;  1.2558552E-03;  0.0000000E+00;  1.0677226E-03;  3.0914993E+03;
  4.9082777E-01;  9.9999998E-03;  3.0004346E-01;5495; -7.7362577E-03;  0.0000000E+00; -3.0914643E-03;  1.0017908E+03;  1.0000207E-01;  1.4836122E+03;3;  9.6907729E-01;  0.0000000E+00;  6.4646965E-01;0;  1.5604577E-03;  4.0164379E+04;  0.0000000E+00;  1.8412149E-01;  4.0000000E+04;  0.0000000E+00;  3.9977695E+04;  2.1725937E-03;  0.0000000E+00; -6.1213592E-04;  2.9466267E+03;
  5.0076675E-01;  9.9999998E-03;  2.4002743E-01;5550; -8.8148182E-03;  0.0000000E+00; -2.5474976E-03;  1.0017646E+03;  1.0000383E-01;  1.4618844E+03;3;  2.2516434E+00;  0.0000000E+00;  8.7326705E-01;0; -2.9421002E-03;  4.0158566E+04;  0.0000000E+00; -7.1736984E-02;  4.0000000E+04;  0.0000000E+00;  3.9980164E+04; -6.8485057E-03;  0.0000000E+00;  3.9064055E-03;  2.6368630E+03;
  5.0075084E-01;  9.9999998E-03;  2.5003451E-01;5551; -8.5453875E-03;  0.0000000E+00; -2.7714751E-03;  1.0017131E+03;  1.0000373E-01;  1.4192189E+03;3;  1.8653603E+00;  0.0000000E+00;  8.9747334E-01;0; -1.8156082E-03;  4.0158266E+04;  0.0000000E+00; -7.9890601E-02;  4.0000000E+04;  0.0000000E+00;  3.9976273E+04; -6.1160554E-03;  0.0000000E+00;  4.3004472E-03;  3.1101272E+03;
  5.0073534E-01;  9.9999998E-03;  2.6003581E-01;5552; -8.2307719E-03;  0.0000000E+00; -2.9860535E-03;  1.0016966E+03;  1.0000370E-01;  1.4055897E+03;3;  1.5241554E+00;  0.0000000E+00;  8.8443017E-01;0; -1.3928046E-03;  4.0158090E+04;  0.0000000E+00; -7.7150084E-02;  4.0000000E+04;  0.0000000E+00;  3.9975113E+04; -5.3264028E-03;  0.0000000E+00;  3.9335983E-03;  3.2667866E+03;
  5.0072271E-01;  9.9999998E-03;  2.7003673E-01;5553; -7.8711445E-03;  0.0000000E+00; -3.2088591E-03;  1.0016965E+03;  1.0000364E-01;  1.4055897E+03;3;  1.2195737E+00;  0.0000000E+00;  8.5854197E-01;0; -2.0946912E-03;  4.0158316E+04;  0.0000000E+00; -5.8815788E-02;  4.0000000E+04;  0.0000000E+00;  3.9974832E+04; -4.4965283E-03;  0.0000000E+00;  2.4018371E-03;  3.2982825E+03;
  5.0071436E-01;  9.9999998E-03;  2.8003803E-01;5554; -7.4967388E-03;  0.0000000E+00; -3.4176426E-03;  1.0017017E+03;  1.0000388E-01;  1.4098364E+03;3;  9.6366102E-01;  0.0000000E+00;  8.4623754E-01;0; -3.7820039E-03;  4.0158316E+04;  0.0000000E+00; -2.6543370E-02;  4.0000000E+04;  0.0000000E+00;  3.9975223E+04; -3.6537284E-03;  0.0000000E+00; -1.2827544E-04;  3.2585938E+03;
  5.0070816E-01;  9.9999998E-03;  2.9003975E-01;5555; -7.1046832E-03;  0.0000000E+00; -3.5734510E-03;  1.0017084E+03;  1.0000371E-01;  1.4153672E+03;3;  7.2841352E-01;  0.0000000E+00;  8.6584896E-01;0; -5.5286689E-03;  4.0158199E+04;  0.0000000E+00;  1.3682400E-02;  4.0000000E+04;  0.0000000E+00;  3.9975770E+04; -2.8355352E-03;  0.0000000E+00; -2.6931334E-03;  3.1746321E+03;
  5.0070459E-01;  9.9999998E-03;  3.0004185E-01;5556; -6.6197049E-03;  0.0000000E+00; -3.6752219E-03;  1.0017071E+03;  1.0000388E-01;  1.4142808E+03;3;  4.6644083E-01;  0.0000000E+00;  8.5353482E-01;0; -6.6402135E-03;  4.0157508E+04;  0.0000000E+00;  5.5874091E-02;  4.0000000E+04;  0.0000000E+00;  3.9976504E+04; -2.0825828E-03;  0.0000000E+00; -4.5576310E-03;  3.0863679E+03;
  5.1066965E-01;  9.9999998E-03;  2.4002142E-01;5611; -8.5846139E-03;  0.0000000E+00; -3.2228322E-03;  1.0015437E+03;  1.0000615E-01;  1.2789760E+03;3;  2.1318591E+00;  0.0000000E+00;  1.0659963E+00;0; -7.8708977E-03;  4.0135344E+04;  0.0000000E+00; -5.2023225E-02;  4.0000000E+04;  0.0000000E+00;  3.9983816E+04; -1.1035711E-02;  0.0000000E+00;  3.1648134E-03;  2.1618574E+03;
  5.1065052E-01;  9.9999998E-03;  2.5002858E-01;5612; -8.3447564E-03;  0.0000000E+00; -3.3649621E-03;  1.0014855E+03;  1.0000618E-01;  1.2306810E+03;3;  1.7922966E+00;  0.0000000E+00;  1.0915271E+00;0; -6.9944514E-03;  4.0134199E+04;  0.0000000E+00; -7.3548928E-02;  4.0000000E+04;  0.0000000E+00;  3.9980090E+04; -1.0743928E-02;  0.0000000E+00;  3.7494767E-03;  2.5949312E+03;
  5.1063037E-01;  9.9999998E-03;  2.6003072E-01;5613; -8.0571845E-03;  0.0000000E+00; -3.5111047E-03;  1.0014568E+03;  1.0000620E-01;  1.2068793E+03;3;  1.4668299E+00;  0.0000000E+00;  1.0864924E+00;0; -6.7518288E-03;  4.0133352E+04;  0.0000000E+00; -8.7392859E-02;  4.0000000E+04;  0.0000000E+00;  3.9978898E+04; -1.0378842E-02;  0.0000000E+00;  3.6270132E-03;  2.7756174E+03;
  5.1060969E-01;  9.9999998E-03;  2.7003244E-01;5614; -7.7193775E-03;  0.0000000E+00; -3.6734352E-03;  1.0014485E+03;  1.0000632E-01;  1.2000647E+03;3;  1.1856500E+00;  0.0000000E+00;  1.0669485E+00;0; -7.5151999E-03;  4.0133035E+04;  0.0000000E+00; -8.7616473E-02;  4.0000000E+04;  0.0000000E+00;  3.9978113E+04; -9.9515263E-03;  0.0000000E+00;  2.4363264E-03;  2.8681978E+03;
  5.1060063E-01;  9.9999998E-03;  2.8003436E-01;5615; -7.3277918E-03;  0.0000000E+00; -3.8414388E-03;  1.0014452E+03;  1.0000617E-01;  1.1972993E+03;3;  9.1863823E-01;  0.0000000E+00;  1.0600380E+00;0; -9.3345232E-03;  4.0133000E+04;  0.0000000E+00; -7.7476278E-02;  4.0000000E+04;  0.0000000E+00;  3.9977777E+04; -9.4879046E-03;  0.0000000E+00;  1.5338135E-04;  2.9041785E+03;
  5.1059878E-01;  9.9999998E-03;  2.9003650E-01;5616; -6.8586799E-03;  0.0000000E+00; -3.9794170E-03;  1.0014451E+03;  1.0000617E-01;  1.1972993E+03;3;  6.4786220E-01;  0.0000000E+00;  1.0477546E+00;0; -1.1433170E-02;  4.0133020E+04;  0.0000000E+00; -6.2263392E-02;  4.0000000E+04;  0.0000000E+00;  3.9977781E+04; -9.0114791E-03;  0.0000000E+00; -2.4216911E-03;  2.8941155E+03;
  5.1060408E-01;  9.9999998E-03;  3.0003902E-01;5617; -6.2489393E-03;  0.0000000E+00; -4.0821284E-03;  1.0014413E+03;  1.0000626E-01;  1.1940402E+03;3;  3.7418959E-01;  0.0000000E+00;  1.0284960E+00;0; -1.3158631E-02;  4.0132773E+04;  0.0000000E+00; -4.6585903E-02;  4.0000000E+04;  0.0000000E+00;  3.9977895E+04; -8.5479999E-03;  0.0000000E+00; -4.6106311E-03;  2.8840767E+03;
  5.2060670E-01;  9.9999998E-03;  2.4001457E-01;5672; -8.5849371E-03;  0.0000000E+00; -3.8611868E-03;  1.0011911E+03;  1.0001042E-01;  9.8683612E+02;3;  2.0837710E+00;  0.0000000E+00;  1.2323952E+00;0; -1.3354866E-02;  4.0098105E+04;  0.0000000E+00; -4.5507748E-02;  4.0000000E+04;  0.0000000E+00;  3.9988941E+04; -1.6250614E-02;  0.0000000E+00;  2.8957480E-03;  1.4922156E+03;
  5.2058792E-01;  9.9999998E-03;  2.5002098E-01;5673; -8.3905086E-03;  0.0000000E+00; -3.8945978E-03;  1.0011326E+03;  1.0001062E-01;  9.3834369E+02;3;  1.7446361E+00;  0.0000000E+00;  1.2904761E+00;0; -1.2500329E-02;  4.0095891E+04;  0.0000000E+00; -7.7665210E-02;  4.0000000E+04;  0.0000000E+00;  3.9986336E+04; -1.6558552E-02;  0.0000000E+00;  4.0582232E-03;  1.8069121E+03;
  5.2056509E-01;  9.9999998E-03;  2.6002434E-01;5674; -8.1326040E-03;  0.0000000E+00; -3.9620111E-03;  1.0010936E+03;  1.0001060E-01;  9.0604834E+02;3;  1.4327903E+00;  0.0000000E+00;  1.3085667E+00;0; -1.2203652E-02;  4.0094430E+04;  0.0000000E+00; -1.0146418E-01;  4.0000000E+04;  0.0000000E+00;  3.9984668E+04; -1.6763246E-02;  0.0000000E+00;  4.5595928E-03;  2.0068429E+03;
  5.2053905E-01;  9.9999998E-03;  2.7002716E-01;5675; -7.8065181E-03;  0.0000000E+00; -4.0758196E-03;  1.0010691E+03;  1.0001048E-01;  8.8570319E+02;3;  1.1430985E+00;  0.0000000E+00;  1.3092031E+00;0; -1.3008231E-02;  4.0093656E+04;  0.0000000E+00; -1.0796934E-01;  4.0000000E+04;  0.0000000E+00;  3.9983395E+04; -1.6872842E-02;  0.0000000E+00;  3.8646103E-03;  2.1597622E+03;
  5.2052677E-01;  9.9999998E-03;  2.8002980E-01;5676; -7.4068294E-03;  0.0000000E+00; -4.2092330E-03;  1.0010556E+03;  1.0001054E-01;  8.7454303E+02;3;  8.6859083E-01;  0.0000000E+00;  1.2836766E+00;0; -1.4945791E-02;  4.0093348E+04;  0.0000000E+00; -1.0183278E-01;  4.0000000E+04;  0.0000000E+00;  3.9982570E+04; -1.6911959E-02;  0.0000000E+00;  1.9661679E-03;  2.2631760E+03;
  5.2052993E-01;  9.9999998E-03;  2.9003245E-01;5677; -6.9029913E-03;  0.0000000E+00; -4.3271296E-03;  1.0010512E+03;  1.0001048E-01;  8.7088879E+02;3;  6.1321086E-01;  0.0000000E+00;  1.2781163E+00;0; -1.7390959E-02;  4.0093441E+04;  0.0000000E+00; -9.2895292E-02;  4.0000000E+04;  0.0000000E+00;  3.9982074E+04; -1.6898828E-02;  0.0000000E+00; -4.9213169E-04;  2.3269370E+03;
  5.2054381E-01;  9.9999998E-03;  3.0003536E-01;5678; -6.2093576E-03;  0.0000000E+00; -4.4232127E-03;  1.0010458E+03;  1.0001039E-01;  8.6644452E+02;3;  3.3398065E-01;  0.0000000E+00;  1.2540898E+00;0; -1.9710196E-02;  4.0093598E+04;  0.0000000E+00; -8.6081780E-02;  4.0000000E+04;  0.0000000E+00;  3.9981430E+04; -1.6844705E-02;  0.0000000E+00; -2.8654917E-03;  2.3990557E+03;
  5.3058118E-01;  9.9999998E-03;  2.4000810E-01;5733; -8.7770158E-03;  0.0000000E+00; -4.4945977E-03;  1.0007646E+03;  1.0001750E-01;  6.3346344E+02;3;  2.0288327E+00;  0.0000000E+00;  1.3648041E+00;0; -1.9165760E-02;  4.0052348E+04;  0.0000000E+00; -4.9773391E-02;  4.0000000E+04;  0.0000000E+00;  3.9994582E+04; -2.2066548E-02;  0.0000000E+00;  2.9007883E-03;  7.3449738E+02;
  5.3056645E-01;  9.9999998E-03;  2.5001296E-01;5734; -8.6269025E-03;  0.0000000E+00; -4.4042952E-03;  1.0007128E+03;  1.0001737E-01;  5.9050171E+02;3;  1.6769580E+00;  0.0000000E+00;  1.4799032E+00;0; -1.8261941E-02;  4.0049324E+04;  0.0000000E+00; -8.6681135E-02;  4.0000000E+04;  0.0000000E+00;  3.9993527E+04; -2.3119856E-02;  0.0000000E+00;  4.8579150E-03;  8.7612341E+02;
  5.3054392E-01;  9.9999998E-03;  2.6001775E-01;5735; -8.3858958E-03;  0.0000000E+00; -4.3968414E-03;  1.0006644E+03;  1.0001739E-01;  5.5050287E+02;3;  1.3756899E+00;  0.0000000E+00;  1.5214115E+00;0; -1.7919192E-02;  4.0047344E+04;  0.0000000E+00; -1.1027204E-01;  4.0000000E+04;  0.0000000E+00;  3.9991699E+04; -2.4023026E-02;  0.0000000E+00;  6.1038337E-03;  1.0886272E+03;
  5.3051436E-01;  9.9999998E-03;  2.7002189E-01;5736; -8.0715800E-03;  0.0000000E+00; -4.4563310E-03;  1.0006275E+03;  1.0001741E-01;  5.1988647E+02;3;  1.1019260E+00;  0.0000000E+00;  1.5341458E+00;0; -1.8677205E-02;  4.0045867E+04;  0.0000000E+00; -1.0664186E-01;  4.0000000E+04;  0.0000000E+00;  3.9989938E+04; -2.4783213E-02;  0.0000000E+00;  6.1060078E-03;  1.3082164E+03;
  5.3049916E-01;  9.9999998E-03;  2.8002533E-01;5737; -7.6812687E-03;  0.0000000E+00; -4.5441263E-03;  1.0006069E+03;  1.0001760E-01;  5.0280051E+02;3;  8.3923364E-01;  0.0000000E+00;  1.5282873E+00;0; -2.0593865E-02;  4.0045578E+04;  0.0000000E+00; -8.2364574E-02;  4.0000000E+04;  0.0000000E+00;  3.9988441E+04; -2.5427315E-02;  0.0000000E+00;  4.8334505E-03;  1.4814681E+03;
  5.3050613E-01;  9.9999998E-03;  2.9002845E-01;5738; -7.1843881E-03;  0.0000000E+00; -4.6258369E-03;  1.0005971E+03;  1.0001747E-01;  4.9470200E+02;3;  5.8840048E-01;  0.0000000E+00;  1.5259409E+00;0; -2.3158032E-02;  4.0045766E+04;  0.0000000E+00; -6.0300872E-02;  4.0000000E+04;  0.0000000E+00;  3.9987559E+04; -2.5974976E-02;  0.0000000E+00;  2.8169442E-03;  1.6113262E+03;
  5.3052723E-01;  9.9999998E-03;  3.0003172E-01;5739; -6.4949677E-03;  0.0000000E+00; -4.7203982E-03;  1.0005935E+03;  1.0001730E-01;  4.9173911E+02;3;  3.1231606E-01;  0.0000000E+00;  1.4987490E+00;0; -2.6260115E-02;  4.0046793E+04;  0.0000000E+00; -5.1396176E-02;  4.0000000E+04;  0.0000000E+00;  3.9986258E+04; -2.6431436E-02;  0.0000000E+00;  1.7132048E-04;  1.7550940E+03;
  5.4059601E-01;  9.9999998E-03;  2.4000347E-01;5794; -9.1061024E-03;  0.0000000E+00; -5.1925299E-03;  1.0003543E+03;  1.0002956E-01;  2.9352249E+02;3;  1.9784294E+00;  0.0000000E+00;  1.4455677E+00;0; -2.5162121E-02;  4.0003863E+04;  0.0000000E+00; -5.9327148E-02;  4.0000000E+04;  0.0000000E+00;  3.9999898E+04; -2.7970424E-02;  0.0000000E+00;  2.8083026E-03;  8.2183525E+01;
  5.4058957E-01;  9.9999998E-03;  2.5000608E-01;5795; -8.9883571E-03;  0.0000000E+00; -4.9600224E-03;  1.0003153E+03;  1.0002953E-01;  2.6122711E+02;3;  1.6059587E+00;  0.0000000E+00;  1.6373363E+00;0; -2.4277933E-02;  4.0000516E+04;  0.0000000E+00; -9.4221219E-02;  4.0000000E+04;  0.0000000E+00;  4.0000473E+04; -2.9903250E-02;  0.0000000E+00;  5.6253169E-03;  1.3947501E+02;
  5.4056931E-01;  9.9999998E-03;  2.6001224E-01;5796; -8.7758414E-03;  0.0000000E+00; -4.8529417E-03;  1.0002625E+03;  1.0002952E-01;  2.1747528E+02;3;  1.3213500E+00;  0.0000000E+00;  1.7321531E+00;0; -2.3825262E-02;  3.9998047E+04;  0.0000000E+00; -1.0839925E-01;  4.0000000E+04;  0.0000000E+00;  3.9998574E+04; -3.1618346E-02;  0.0000000E+00;  7.7930847E-03;  2.2208263E+02;
  5.4053938E-01;  9.9999998E-03;  2.7001771E-01;5797; -8.4892176E-03;  0.0000000E+00; -4.8386795E-03;  1.0002138E+03;  1.0002949E-01;  1.7718013E+02;3;  1.0578561E+00;  0.0000000E+00;  1.7634243E+00;0; -2.4407962E-02;  3.9996707E+04;  0.0000000E+00; -8.2898989E-02;  4.0000000E+04;  0.0000000E+00;  3.9996176E+04; -3.3126913E-02;  0.0000000E+00;  8.7189507E-03;  4.7657562E+02;
  5.4052222E-01;  9.9999998E-03;  2.8002203E-01;5798; -8.1243031E-03;  0.0000000E+00; -4.8642824E-03;  1.0001868E+03;  1.0002955E-01;  1.5476102E+02;3;  8.0766332E-01;  0.0000000E+00;  1.7783667E+00;0; -2.6125811E-02;  3.9996281E+04;  0.0000000E+00; -2.6732540E-02;  4.0000000E+04;  0.0000000E+00;  3.9994164E+04; -3.4458786E-02;  0.0000000E+00;  8.3329743E-03;  7.2290332E+02;
  5.4053026E-01;  9.9999998E-03;  2.9002565E-01;5799; -7.6548769E-03;  0.0000000E+00; -4.8899506E-03;  1.0001754E+03;  1.0002948E-01;  1.4527982E+02;3;  5.6435311E-01;  0.0000000E+00;  1.7654028E+00;0; -2.8529800E-02;  3.9997039E+04;  0.0000000E+00;  1.8831158E-02;  4.0000000E+04;  0.0000000E+00;  3.9992438E+04; -3.5639517E-02;  0.0000000E+00;  7.1097165E-03;  9.3014319E+02;
  5.4055446E-01;  9.9999998E-03;  3.0002919E-01;5800; -7.0102615E-03;  0.0000000E+00; -4.9372027E-03;  1.0001804E+03;  1.0002959E-01;  1.4942784E+02;3;  3.1754470E-01;  0.0000000E+00;  1.7376664E+00;0; -3.1693738E-02;  3.9998895E+04;  0.0000000E+00;  3.2245595E-02;  4.0000000E+04;  0.0000000E+00;  3.9990867E+04; -3.6677297E-02;  0.0000000E+00;  4.9835606E-03;  1.1325037E+03;
  5.5065447E-01;  9.9999998E-03;  2.4000087E-01;5855; -9.5347762E-03;  0.0000000E+00; -5.9783529E-03;  1.0000231E+03;  1.0004855E-01;  1.9159948E+01;3;  1.8789412E+00;  0.0000000E+00;  1.5253545E+00;0; -3.0994579E-02;  3.9957000E+04;  0.0000000E+00; -6.8023525E-02;  4.0000000E+04;  0.0000000E+00;  4.0004285E+04; -3.3441719E-02;  0.0000000E+00;  2.4471395E-03;  5.8495947E+02;
  5.5065989E-01;  9.9999998E-03;  2.5000125E-01;5856; -9.4588082E-03;  0.0000000E+00; -5.6053400E-03;  1.0000062E+03;  1.0004877E-01;  5.1356559E+00;3;  1.5359021E+00;  0.0000000E+00;  1.7569990E+00;0; -3.0398015E-02;  3.9954012E+04;  0.0000000E+00; -9.7772487E-02;  4.0000000E+04;  0.0000000E+00;  4.0006332E+04; -3.6372866E-02;  0.0000000E+00;  5.9748515E-03;  8.4925580E+02;
  5.5064511E-01;  9.9999998E-03;  2.6000860E-01;5857; -9.2881145E-03;  0.0000000E+00; -5.3643677E-03;  9.9995477E+02;  1.0004857E-01; -3.7480412E+01;3;  1.2593937E+00;  0.0000000E+00;  1.9187274E+00;0; -2.9807704E-02;  3.9951758E+04;  0.0000000E+00; -1.0281218E-01;  4.0000000E+04;  0.0000000E+00;  4.0004555E+04; -3.8998071E-02;  0.0000000E+00;  9.1903675E-03;  6.2576874E+02;
  5.5061686E-01;  9.9999998E-03;  2.7001545E-01;5858; -9.0380358E-03;  0.0000000E+00; -5.2507939E-03;  9.9990265E+02;  1.0004877E-01; -8.0639679E+01;3;  1.0102062E+00;  0.0000000E+00;  1.9680510E+00;0; -3.0114152E-02;  3.9950551E+04;  0.0000000E+00; -6.0181554E-02;  4.0000000E+04;  0.0000000E+00;  4.0001316E+04; -4.1334774E-02;  0.0000000E+00;  1.1220623E-02;  2.4084116E+02;
  5.5059612E-01;  9.9999998E-03;  2.8002062E-01;5859; -8.7168822E-03;  0.0000000E+00; -5.1817023E-03;  9.9986884E+02;  1.0004848E-01; -1.0868826E+02;3;  7.8008819E-01;  0.0000000E+00;  1.9906368E+00;0; -3.1290352E-02;  3.9950637E+04;  0.0000000E+00;  2.2011219E-02;  4.0000000E+04;  0.0000000E+00;  3.9998566E+04; -4.3414909E-02;  0.0000000E+00;  1.2124559E-02;  1.2889484E+02;
  5.5060285E-01;  9.9999998E-03;  2.9002491E-01;5860; -8.2971090E-03;  0.0000000E+00; -5.1383451E-03;  9.9985785E+02;  1.0004845E-01; -1.1777442E+02;3;  5.5647230E-01;  0.0000000E+00;  1.9759547E+00;0; -3.3388797E-02;  3.9952074E+04;  0.0000000E+00;  8.2082637E-02;  4.0000000E+04;  0.0000000E+00;  3.9996145E+04; -4.5276716E-02;  0.0000000E+00;  1.1887920E-02;  4.4479642E+02;
  5.5062532E-01;  9.9999998E-03;  3.0002877E-01;5861; -7.7207084E-03;  0.0000000E+00; -5.1298998E-03;  9.9986615E+02;  1.0004847E-01; -1.1091042E+02;3;  3.2169175E-01;  0.0000000E+00;  1.9435709E+00;0; -3.6531623E-02;  3.9955133E+04;  0.0000000E+00;  9.4110504E-02;  4.0000000E+04;  0.0000000E+00;  3.9994062E+04; -4.6935432E-02;  0.0000000E+00;  1.0403807E-02;  7.0873285E+02;
  5.6075639E-01;  9.9999998E-03;  2.4000017E-01;5916; -1.0060413E-02;  0.0000000E+00; -6.7782844E-03;  9.9982025E+02;  1.0007975E-01; -1.4893402E+02;3;  1.7809539E+00;  0.0000000E+00;  1.6176372E+00;0; -3.5920974E-02;  3.9912520E+04;  0.0000000E+00; -7.2712317E-02;  4.0000000E+04;  0.0000000E+00;  4.0007164E+04; -3.8024150E-02;  0.0000000E+00;  2.1031769E-03;  9.9263385E+02;
  5.6077784E-01;  9.9999998E-03;  2.4999905E-01;5917; -1.0032685E-02;  0.0000000E+00; -6.3087405E-03;  9.9983051E+02;  1.0007986E-01; -1.4044044E+02;3;  1.4456930E+00;  0.0000000E+00;  1.8711772E+00;0; -3.6045194E-02;  3.9910406E+04;  0.0000000E+00; -1.0360725E-01;  4.0000000E+04;  0.0000000E+00;  4.0010492E+04; -4.2052791E-02;  0.0000000E+00;  6.0075955E-03;  1.4003171E+03;
  5.6077445E-01;  9.9999998E-03;  2.6000729E-01;5918; -9.9155465E-03;  0.0000000E+00; -5.9422860E-03;  9.9978418E+02;  1.0007985E-01; -1.7880972E+02;3;  1.1747054E+00;  0.0000000E+00;  2.0664649E+00;0; -3.5620093E-02;  3.9908695E+04;  0.0000000E+00; -1.1930832E-01;  4.0000000E+04;  0.0000000E+00;  4.0008531E+04; -4.5667291E-02;  0.0000000E+00;  1.0047199E-02;  1.1849539E+03;
  5.6074703E-01;  9.9999998E-03;  2.7001530E-01;5919; -9.7229285E-03;  0.0000000E+00; -5.6972909E-03;  9.9973041E+02;  1.0007992E-01; -2.2335165E+02;3;  9.4707525E-01;  0.0000000E+00;  2.1442180E+00;0; -3.5524756E-02;  3.9908035E+04;  0.0000000E+00; -8.9643769E-02;  4.0000000E+04;  0.0000000E+00;  4.0004961E+04; -4.8887752E-02;  0.0000000E+00;  1.3362996E-02;  7.3593982E+02;
  5.6071943E-01;  9.9999998E-03;  2.8002149E-01;5920; -9.4581544E-03;  0.0000000E+00; -5.5282405E-03;  9.9969452E+02;  1.0007984E-01; -2.5307921E+02;3;  7.3570937E-01;  0.0000000E+00;  2.1628144E+00;0; -3.6229178E-02;  3.9908613E+04;  0.0000000E+00; -1.4834389E-02;  4.0000000E+04;  0.0000000E+00;  4.0001352E+04; -5.1754281E-02;  0.0000000E+00;  1.5525104E-02;  2.8098010E+02;
  5.6071997E-01;  9.9999998E-03;  2.9002658E-01;5921; -9.1012381E-03;  0.0000000E+00; -5.4063229E-03;  9.9968304E+02;  1.0007969E-01; -2.6260980E+02;3;  5.3249729E-01;  0.0000000E+00;  2.1699080E+00;0; -3.7985198E-02;  3.9911055E+04;  0.0000000E+00;  3.0713778E-02;  4.0000000E+04;  0.0000000E+00;  3.9998172E+04; -5.4318953E-02;  0.0000000E+00;  1.6333753E-02;  1.5805624E+02;
  5.6073356E-01;  9.9999998E-03;  3.0003101E-01;5922; -8.6034499E-03;  0.0000000E+00; -5.3326958E-03;  9.9969568E+02;  1.0007991E-01; -2.5214096E+02;3;  3.3175477E-01;  0.0000000E+00;  2.1139162E+00;0; -4.0991221E-02;  3.9915227E+04;  0.0000000E+00;  3.4690704E-02;  4.0000000E+04;  0.0000000E+00;  3.9995207E+04; -5.6607213E-02;  0.0000000E+00;  1.5615992E-02;  5.0583997E+02;
  5.7088685E-01;  9.9999998E-03;  2.4000047E-01;5977; -1.0674279E-02;  0.0000000E+00; -7.5381072E-03;  9.9975079E+02;  1.0013139E-01; -2.0646321E+02;3;  1.6599009E+00;  0.0000000E+00;  1.7618455E+00;0; -3.9424803E-02;  3.9864312E+04;  0.0000000E+00; -7.3398821E-02;  4.0000000E+04;  0.0000000E+00;  4.0008621E+04; -4.1388966E-02;  0.0000000E+00;  1.9641647E-03;  1.2183425E+03;
  5.7092059E-01;  9.9999998E-03;  2.4999939E-01;5978; -1.0701451E-02;  0.0000000E+00; -7.0356652E-03;  9.9978107E+02;  1.0013139E-01; -1.8137752E+02;3;  1.3368640E+00;  0.0000000E+00;  2.0121174E+00;0; -4.0750116E-02;  3.9863195E+04;  0.0000000E+00; -1.1656735E-01;  4.0000000E+04;  0.0000000E+00;  4.0012344E+04; -4.6579994E-02;  0.0000000E+00;  5.8298777E-03;  1.6963108E+03;
  5.7092965E-01;  9.9999998E-03;  2.6000831E-01;5979; -1.0659915E-02;  0.0000000E+00; -6.5525519E-03;  9.9974951E+02;  1.0013117E-01; -2.0750023E+02;3;  1.0799098E+00;  0.0000000E+00;  2.2165439E+00;0; -4.0738314E-02;  3.9862531E+04;  0.0000000E+00; -1.7038161E-01;  4.0000000E+04;  0.0000000E+00;  4.0010969E+04; -5.1226426E-02;  0.0000000E+00;  1.0488110E-02;  1.5130216E+03;
  5.7090443E-01;  9.9999998E-03;  2.7001742E-01;5980; -1.0538858E-02;  0.0000000E+00; -6.1741597E-03;  9.9970044E+02;  1.0013127E-01; -2.4819041E+02;3;  8.6969173E-01;  0.0000000E+00;  2.2943804E+00;0; -4.0392429E-02;  3.9862680E+04;  0.0000000E+00; -1.9713984E-01;  4.0000000E+04;  0.0000000E+00;  4.0006949E+04; -5.5358939E-02;  0.0000000E+00;  1.4966510E-02;  1.0398556E+03;
  5.7086951E-01;  9.9999998E-03;  2.8002468E-01;5981; -1.0344676E-02;  0.0000000E+00; -5.8986414E-03;  9.9966071E+02;  1.0013135E-01; -2.8107837E+02;3;  6.8914390E-01;  0.0000000E+00;  2.3256664E+00;0; -4.0687412E-02;  3.9863957E+04;  0.0000000E+00; -1.7924878E-01;  4.0000000E+04;  0.0000000E+00;  4.0002629E+04; -5.9024990E-02;  0.0000000E+00;  1.8337579E-02;  5.1874738E+02;
  5.7085645E-01;  9.9999998E-03;  2.9003066E-01;5982; -1.0067135E-02;  0.0000000E+00; -5.6894859E-03;  9.9964734E+02;  1.0013096E-01; -2.9218915E+02;3;  5.1407558E-01;  0.0000000E+00;  2.3016052E+00;0; -4.2020675E-02;  3.9867137E+04;  0.0000000E+00; -1.7609736E-01;  4.0000000E+04;  0.0000000E+00;  3.9998379E+04; -6.2285259E-02;  0.0000000E+00;  2.0264585E-02;  2.0076233E+02;
  5.7085294E-01;  9.9999998E-03;  3.0003574E-01;5983; -9.6627306E-03;  0.0000000E+00; -5.5699055E-03;  9.9965973E+02;  1.0013086E-01; -2.8191785E+02;3;  3.4280658E-01;  0.0000000E+00;  2.2284894E+00;0; -4.5252420E-02;  3.9871973E+04;  0.0000000E+00; -1.7916001E-01;  4.0000000E+04;  0.0000000E+00;  3.9994816E+04; -6.5182030E-02;  0.0000000E+00;  1.9929612E-02;  5.3434875E+02;
  5.8101213E-01;  9.9999998E-03;  2.4000131E-01;6038; -1.1353059E-02;  0.0000000E+00; -8.2477462E-03;  9.9974823E+02;  1.0021478E-01; -2.0858661E+02;3;  1.5330446E+00;  0.0000000E+00;  1.9378264E+00;0; -4.1376676E-02;  3.9798203E+04;  0.0000000E+00; -6.5861695E-02;  4.0000000E+04;  0.0000000E+00;  4.0008594E+04; -4.3391518E-02;  0.0000000E+00;  2.0148424E-03;  1.2694943E+03;
  5.8104593E-01;  9.9999998E-03;  2.5000161E-01;6039; -1.1450864E-02;  0.0000000E+00; -7.7531002E-03;  9.9979059E+02;  1.0021477E-01; -1.7347652E+02;3;  1.2305487E+00;  0.0000000E+00;  2.1657994E+00;0; -4.4224955E-02;  3.9797887E+04;  0.0000000E+00; -1.2130248E-01;  4.0000000E+04;  0.0000000E+00;  4.0012492E+04; -4.9762674E-02;  0.0000000E+00;  5.5377185E-03;  1.7709104E+03;
  5.8105600E-01;  9.9999998E-03;  2.6001099E-01;6040; -1.1496307E-02;  0.0000000E+00; -7.1766251E-03;  9.9977997E+02;  1.0021447E-01; -1.8231577E+02;3;  9.8261881E-01;  0.0000000E+00;  2.3615146E+00;0; -4.4953771E-02;  3.9798242E+04;  0.0000000E+00; -2.0989469E-01;  4.0000000E+04;  0.0000000E+00;  4.0011512E+04; -5.5437759E-02;  0.0000000E+00;  1.0483986E-02;  1.6655345E+03;
  5.8103287E-01;  9.9999998E-03;  2.7002114E-01;6041; -1.1464801E-02;  0.0000000E+00; -6.6678198E-03;  9.9973901E+02;  1.0021449E-01; -2.1624072E+02;3;  7.9273200E-01;  0.0000000E+00;  2.4347048E+00;0; -4.4544056E-02;  3.9799129E+04;  0.0000000E+00; -2.9879245E-01;  4.0000000E+04;  0.0000000E+00;  4.0007523E+04; -6.0469136E-02;  0.0000000E+00;  1.5925080E-02;  1.2265188E+03;
  5.8099085E-01;  9.9999998E-03;  2.8002962E-01;6042; -1.1356833E-02;  0.0000000E+00; -6.2896772E-03;  9.9969684E+02;  1.0021434E-01; -2.5115329E+02;3;  6.2834531E-01;  0.0000000E+00;  2.4532347E+00;0; -4.4598207E-02;  3.9801027E+04;  0.0000000E+00; -3.4543741E-01;  4.0000000E+04;  0.0000000E+00;  4.0002855E+04; -6.4912699E-02;  0.0000000E+00;  2.0314492E-02;  7.1531628E+02;
  5.8096063E-01;  9.9999998E-03;  2.9003665E-01;6043; -1.1172124E-02;  0.0000000E+00; -6.0074045E-03;  9.9967816E+02;  1.0021405E-01; -2.6665903E+02;3;  4.8299146E-01;  0.0000000E+00;  2.3942437E+00;0; -4.5814116E-02;  3.9804520E+04;  0.0000000E+00; -3.7596002E-01;  4.0000000E+04;  0.0000000E+00;  3.9997887E+04; -6.8834394E-02;  0.0000000E+00;  2.3020279E-02;  4.8119250E+02;
  5.8093536E-01;  9.9999998E-03;  3.0004257E-01;6044; -1.0880029E-02;  0.0000000E+00; -5.8396733E-03;  9.9968469E+02;  1.0021381E-01; -2.6122708E+02;3;  3.5031933E-01;  0.0000000E+00;  2.2911372E+00;0; -4.9238414E-02;  3.9809676E+04;  0.0000000E+00; -3.6312714E-01;  4.0000000E+04;  0.0000000E+00;  3.9993578E+04; -7.2292723E-02;  0.0000000E+00;  2.3054309E-02;  7.3548077E+02;
  5.9108758E-01;  9.9999998E-03;  2.4000429E-01;6099; -1.2068651E-02;  0.0000000E+00; -8.9170719E-03;  9.9972058E+02;  1.0034949E-01; -2.3149953E+02;3;  1.4063345E+00;  0.0000000E+00;  2.1632380E+00;0; -4.1970685E-02;  3.9692406E+04;  0.0000000E+00; -3.4078464E-02;  4.0000000E+04;  0.0000000E+00;  4.0006191E+04; -4.4108093E-02;  0.0000000E+00;  2.1374074E-03;  1.0933923E+03;
  5.9111226E-01;  9.9999998E-03;  2.5000533E-01;6100; -1.2251051E-02;  0.0000000E+00; -8.4532723E-03;  9.9977460E+02;  1.0034920E-01; -1.8676007E+02;3;  1.0994337E+00;  0.0000000E+00;  2.3689718E+00;0; -4.6579313E-02;  3.9692625E+04;  0.0000000E+00; -8.0114618E-02;  4.0000000E+04;  0.0000000E+00;  4.0010695E+04; -5.1624142E-02;  0.0000000E+00;  5.0448277E-03;  1.6725115E+03;
  5.9111309E-01;  9.9999998E-03;  2.6001462E-01;6101; -1.2398694E-02;  0.0000000E+00; -7.7916565E-03;  9.9978241E+02;  1.0034929E-01; -1.8029112E+02;3;  8.8006961E-01;  0.0000000E+00;  2.5338771E+00;0; -4.8232827E-02;  3.9693203E+04;  0.0000000E+00; -1.6176721E-01;  4.0000000E+04;  0.0000000E+00;  4.0011195E+04; -5.8278643E-02;  0.0000000E+00;  1.0045814E-02;  1.7251864E+03;
  5.9108269E-01;  9.9999998E-03;  2.7002579E-01;6102; -1.2474131E-02;  0.0000000E+00; -7.1460120E-03;  9.9974896E+02;  1.0034879E-01; -2.0799402E+02;3;  7.1084827E-01;  0.0000000E+00;  2.5882921E+00;0; -4.7790408E-02;  3.9694262E+04;  0.0000000E+00; -2.4650307E-01;  4.0000000E+04;  0.0000000E+00;  4.0007895E+04; -6.4149365E-02;  0.0000000E+00;  1.6358955E-02;  1.3416624E+03;
  5.9103334E-01;  9.9999998E-03;  2.8003582E-01;6103; -1.2469769E-02;  0.0000000E+00; -6.6808164E-03;  9.9970892E+02;  1.0034849E-01; -2.4112888E+02;3;  5.6599414E-01;  0.0000000E+00;  2.5776551E+00;0; -4.7874130E-02;  3.9696195E+04;  0.0000000E+00; -2.8981593E-01;  4.0000000E+04;  0.0000000E+00;  4.0002754E+04; -6.9309264E-02;  0.0000000E+00;  2.1435134E-02;  7.6127435E+02;
  5.9098667E-01;  9.9999998E-03;  2.9004407E-01;6104; -1.2393212E-02;  0.0000000E+00; -6.3459859E-03;  9.9967938E+02;  1.0034816E-01; -2.6562201E+02;3;  4.4493085E-01;  0.0000000E+00;  2.4724777E+00;0; -4.9332835E-02;  3.9699695E+04;  0.0000000E+00; -2.8265306E-01;  4.0000000E+04;  0.0000000E+00;  3.9997355E+04; -7.3829331E-02;  0.0000000E+00;  2.4496498E-02;  3.5390494E+02;
  5.9093958E-01;  9.9999998E-03;  3.0005097E-01;6105; -1.2237255E-02;  0.0000000E+00; -6.1217821E-03;  9.9967462E+02;  1.0034749E-01; -2.6957251E+02;3;  3.3760718E-01;  0.0000000E+00;  2.3451521E+00;0; -5.2778993E-02;  3.9704492E+04;  0.0000000E+00; -1.8273512E-01;  4.0000000E+04;  0.0000000E+00;  3.9992652E+04; -7.7777706E-02;  0.0000000E+00;  2.4998713E-02;  6.2745471E+02;
  6.0108900E-01;  9.9999998E-03;  2.4000843E-01;6160; -1.2798388E-02;  0.0000000E+00; -9.5139584E-03;  9.9960229E+02;  1.0056426E-01; -3.2947198E+02;3;  1.2535133E+00;  0.0000000E+00;  2.4235177E+00;0; -4.1426647E-02;  3.9519066E+04;  0.0000000E+00;  3.5743520E-02;  4.0000000E+04;  0.0000000E+00;  4.0002289E+04; -4.3832302E-02;  0.0000000E+00;  2.4056532E-03;  7.9202362E+02;
  6.0110199E-01;  9.9999998E-03;  2.5000969E-01;6161; -1.3074217E-02;  0.0000000E+00; -9.0927361E-03;  9.9966547E+02;  1.0056369E-01; -2.7717719E+02;3;  9.9152976E-01;  0.0000000E+00;  2.5787759E+00;0; -4.7870670E-02;  3.9518617E+04;  0.0000000E+00;  3.2655373E-02;  4.0000000E+04;  0.0000000E+00;  4.0008055E+04; -5.2399114E-02;  0.0000000E+00;  4.5284438E-03;  1.5214845E+03;
  6.0109204E-01;  9.9999998E-03;  2.6001897E-01;6162; -1.3336048E-02;  0.0000000E+00; -8.3659040E-03;  9.9968787E+02;  1.0056348E-01; -2.5860983E+02;3;  7.8484863E-01;  0.0000000E+00;  2.7158604E+00;0; -5.0639234E-02;  3.9518992E+04;  0.0000000E+00;  9.3844021E-03;  4.0000000E+04;  0.0000000E+00;  4.0010195E+04; -5.9938837E-02;  0.0000000E+00;  9.2996033E-03;  1.7877184E+03;
  6.0105550E-01;  9.9999998E-03;  2.7003136E-01;6163; -1.3534079E-02;  0.0000000E+00; -7.5944508E-03;  9.9966309E+02;  1.0056274E-01; -2.7910306E+02;3;  6.3197380E-01;  0.0000000E+00;  2.7529192E+00;0; -5.0329134E-02;  3.9519797E+04;  0.0000000E+00; -6.9439760E-03;  4.0000000E+04;  0.0000000E+00;  4.0007945E+04; -6.6553414E-02;  0.0000000E+00;  1.6224280E-02;  1.5057903E+03;
  6.0100281E-01;  9.9999998E-03;  2.8004304E-01;6164; -1.3646749E-02;  0.0000000E+00; -7.0503494E-03;  9.9961725E+02;  1.0056198E-01; -3.1712668E+02;3;  5.3161925E-01;  0.0000000E+00;  2.6786096E+00;0; -5.0568789E-02;  3.9521605E+04;  0.0000000E+00;  2.1864617E-02;  4.0000000E+04;  0.0000000E+00;  4.0003102E+04; -7.2336212E-02;  0.0000000E+00;  2.1767421E-02;  8.9326727E+02;
  6.0094655E-01;  9.9999998E-03;  2.9005271E-01;6165; -1.3699154E-02;  0.0000000E+00; -6.6649844E-03;  9.9957458E+02;  1.0056148E-01; -3.5243430E+02;3;  4.2388150E-01;  0.0000000E+00;  2.5569208E+00;0; -5.2300088E-02;  3.9524402E+04;  0.0000000E+00;  1.2797348E-01;  4.0000000E+04;  0.0000000E+00;  3.9997441E+04; -7.7364139E-02;  0.0000000E+00;  2.5064049E-02;  3.0316568E+02;
  6.0088480E-01;  9.9999998E-03;  3.0006066E-01;6166; -1.3697725E-02;  0.0000000E+00; -6.3961032E-03;  9.9954620E+02;  1.0056042E-01; -3.7593979E+02;3;  3.4133267E-01;  0.0000000E+00;  2.3998613E+00;0; -5.5895869E-02;  3.9528230E+04;  0.0000000E+00;  3.7065017E-01;  4.0000000E+04;  0.0000000E+00;  3.9992648E+04; -8.1715107E-02;  0.0000000E+00;  2.5819238E-02;  7.0268573E+02;
  6.1104214E-01;  9.9999998E-03;  2.4000980E-01;6221; -1.3518676E-02;  0.0000000E+00; -9.9704806E-03;  9.9941589E+02;  1.0089970E-01; -4.8393665E+02;3;  1.1265656E+00;  0.0000000E+00;  2.7035358E+00;0; -3.9971344E-02;  3.9247562E+04;  0.0000000E+00;  1.2664776E-01;  4.0000000E+04;  0.0000000E+00;  3.9998461E+04; -4.3026574E-02;  0.0000000E+00;  3.0552289E-03;  6.4354626E+02;
  6.1104292E-01;  9.9999998E-03;  2.5001431E-01;6222; -1.3902181E-02;  0.0000000E+00; -9.6040396E-03;  9.9947009E+02;  1.0089895E-01; -4.3899966E+02;3;  8.6774468E-01;  0.0000000E+00;  2.8355181E+00;0; -4.8177533E-02;  3.9246051E+04;  0.0000000E+00;  1.8152240E-01;  4.0000000E+04;  0.0000000E+00;  4.0004961E+04; -5.2491896E-02;  0.0000000E+00;  4.3143635E-03;  1.4481555E+03;
  6.1102682E-01;  9.9999998E-03;  2.6002494E-01;6223; -1.4281824E-02;  0.0000000E+00; -8.8739507E-03;  9.9949799E+02;  1.0089819E-01; -4.1588922E+02;3;  6.9721687E-01;  0.0000000E+00;  2.9349284E+00;0; -5.2463375E-02;  3.9245387E+04;  0.0000000E+00;  2.3092043E-01;  4.0000000E+04;  0.0000000E+00;  4.0008629E+04; -6.0778394E-02;  0.0000000E+00;  8.3150212E-03;  1.9016602E+03;
  6.1098742E-01;  9.9999998E-03;  2.7003860E-01;6224; -1.4614488E-02;  0.0000000E+00; -7.9962686E-03;  9.9947534E+02;  1.0089751E-01; -4.3465411E+02;3;  5.8605075E-01;  0.0000000E+00;  2.9158311E+00;0; -5.2474957E-02;  3.9245383E+04;  0.0000000E+00;  2.9763287E-01;  4.0000000E+04;  0.0000000E+00;  4.0007660E+04; -6.8004943E-02;  0.0000000E+00;  1.5529987E-02;  1.8212131E+03;
  6.1093122E-01;  9.9999998E-03;  2.8005192E-01;6225; -1.4856553E-02;  0.0000000E+00; -7.3745786E-03;  9.9941779E+02;  1.0089610E-01; -4.8235645E+02;3;  4.9978670E-01;  0.0000000E+00;  2.7897635E+00;0; -5.2891973E-02;  3.9246246E+04;  0.0000000E+00;  4.1814229E-01;  4.0000000E+04;  0.0000000E+00;  4.0003289E+04; -7.4286759E-02;  0.0000000E+00;  2.1394785E-02;  1.3808070E+03;
  6.1086869E-01;  9.9999998E-03;  2.9006305E-01;6226; -1.5048076E-02;  0.0000000E+00; -6.9529447E-03;  9.9935645E+02;  1.0089499E-01; -5.3316980E+02;3;  4.2177173E-01;  0.0000000E+00;  2.6293311E+00;0; -5.5071741E-02;  3.9248301E+04;  0.0000000E+00;  6.2979305E-01;  4.0000000E+04;  0.0000000E+00;  3.9998020E+04; -7.9709858E-02;  0.0000000E+00;  2.4638114E-02;  1.0922069E+03;
  6.1079741E-01;  9.9999998E-03;  3.0007216E-01;6227; -1.5218898E-02;  0.0000000E+00; -6.6367593E-03;  9.9930554E+02;  1.0089329E-01; -5.7534143E+02;3;  3.6279505E-01;  0.0000000E+00;  2.4473593E+00;0; -5.8683980E-02;  3.9250707E+04;  0.0000000E+00;  1.0089352E+00;  4.0000000E+04;  0.0000000E+00;  3.9993258E+04; -8.4359139E-02;  0.0000000E+00;  2.5675159E-02;  1.4775972E+03;
  6.2096548E-01;  9.9999998E-03;  2.4001211E-01;6282; -1.4210613E-02;  0.0000000E+00; -1.0277895E-02;  9.9925580E+02;  1.0140960E-01; -6.1657471E+02;3;  9.6015394E-01;  0.0000000E+00;  3.0586903E+00;0; -3.8262621E-02;  3.8847887E+04;  0.0000000E+00;  2.0875818E-01;  4.0000000E+04;  0.0000000E+00;  3.9993965E+04; -4.2284228E-02;  0.0000000E+00;  4.0216064E-03;  5.7894586E+02;
  6.2095445E-01;  9.9999998E-03;  2.5002235E-01;6283; -1.4710110E-02;  0.0000000E+00; -9.9810110E-03;  9.9928082E+02;  1.0140868E-01; -5.9583453E+02;3;  7.5795925E-01;  0.0000000E+00;  3.1352210E+00;0; -4.8120871E-02;  3.8844477E+04;  0.0000000E+00;  3.0813563E-01;  4.0000000E+04;  0.0000000E+00;  4.0000172E+04; -5.2435350E-02;  0.0000000E+00;  4.3144790E-03;  1.3390814E+03;
  6.2093139E-01;  9.9999998E-03;  2.6003465E-01;6284; -1.5213104E-02;  0.0000000E+00; -9.2780059E-03;  9.9929633E+02;  1.0140751E-01; -5.8299542E+02;3;  6.2231648E-01;  0.0000000E+00;  3.1568599E+00;0; -5.4006398E-02;  3.8842086E+04;  0.0000000E+00;  4.0910393E-01;  4.0000000E+04;  0.0000000E+00;  4.0004824E+04; -6.1281007E-02;  0.0000000E+00;  7.2746077E-03;  1.9511385E+03;
  6.2088913E-01;  9.9999998E-03;  2.7004936E-01;6285; -1.5680611E-02;  0.0000000E+00; -8.3429208E-03;  9.9926990E+02;  1.0140579E-01; -6.0487134E+02;3;  5.4946071E-01;  0.0000000E+00;  3.0784833E+00;0; -5.4799683E-02;  3.8840797E+04;  0.0000000E+00;  5.2292907E-01;  4.0000000E+04;  0.0000000E+00;  4.0005621E+04; -6.8954811E-02;  0.0000000E+00;  1.4155127E-02;  2.0951975E+03;
  6.2082905E-01;  9.9999998E-03;  2.8006396E-01;6286; -1.6066264E-02;  0.0000000E+00; -7.6268744E-03;  9.9920172E+02;  1.0140418E-01; -6.6136353E+02;3;  4.9895397E-01;  0.0000000E+00;  2.9043596E+00;0; -5.5132899E-02;  3.8840355E+04;  0.0000000E+00;  6.8514073E-01;  4.0000000E+04;  0.0000000E+00;  4.0002430E+04; -7.5584807E-02;  0.0000000E+00;  2.0451907E-02;  1.8466791E+03;
  6.2076157E-01;  9.9999998E-03;  2.9007638E-01;6287; -1.6411725E-02;  0.0000000E+00; -7.1472558E-03;  9.9911768E+02;  1.0140157E-01; -7.3099115E+02;3;  4.4102788E-01;  0.0000000E+00;  2.7094297E+00;0; -5.7320356E-02;  3.8840812E+04;  0.0000000E+00;  9.3902481E-01;  4.0000000E+04;  0.0000000E+00;  3.9997523E+04; -8.1271470E-02;  0.0000000E+00;  2.3951111E-02;  1.6790858E+03;
  6.2068135E-01;  9.9999998E-03;  3.0008653E-01;6288; -1.6758453E-02;  0.0000000E+00; -6.8138693E-03;  9.9903485E+02;  1.0139902E-01; -7.9963110E+02;3;  3.9873439E-01;  0.0000000E+00;  2.5098326E+00;0; -6.1345838E-02;  3.8841656E+04;  0.0000000E+00;  1.3735949E+00;  4.0000000E+04;  0.0000000E+00;  3.9993098E+04; -8.6109556E-02;  0.0000000E+00;  2.4763718E-02;  2.0440515E+03;
  6.3085926E-01;  9.9999998E-03;  2.4002515E-01;6343; -1.4838125E-02;  0.0000000E+00; -1.0507992E-02;  9.9925696E+02;  1.0215342E-01; -6.1558704E+02;3;  7.9707807E-01;  0.0000000E+00;  3.4333363E+00;0; -3.7420556E-02;  3.8292945E+04;  0.0000000E+00;  2.4589902E-01;  4.0000000E+04;  0.0000000E+00;  3.9985551E+04; -4.2281464E-02;  0.0000000E+00;  4.8609073E-03;  3.6794153E+02;
  6.3083446E-01;  9.9999998E-03;  2.5003931E-01;6344; -1.5466226E-02;  0.0000000E+00; -1.0299669E-02;  9.9923615E+02;  1.0215217E-01; -6.3282111E+02;3;  6.4687139E-01;  0.0000000E+00;  3.4729857E+00;0; -4.8972968E-02;  3.8287250E+04;  0.0000000E+00;  3.4398991E-01;  4.0000000E+04;  0.0000000E+00;  3.9991238E+04; -5.2847717E-02;  0.0000000E+00;  3.8747499E-03;  9.1800220E+02;
  6.3080156E-01;  9.9999998E-03;  2.6005161E-01;6345; -1.6102489E-02;  0.0000000E+00; -9.5953820E-03;  9.9923499E+02;  1.0215039E-01; -6.3380872E+02;3;  5.4530144E-01;  0.0000000E+00;  3.4436722E+00;0; -5.6201320E-02;  3.8282910E+04;  0.0000000E+00;  4.2289355E-01;  4.0000000E+04;  0.0000000E+00;  3.9997207E+04; -6.2024493E-02;  0.0000000E+00;  5.8231717E-03;  1.6440287E+03;
  6.3075513E-01;  9.9999998E-03;  2.7006596E-01;6346; -1.6712816E-02;  0.0000000E+00; -8.5738339E-03;  9.9919861E+02;  1.0214785E-01; -6.6393127E+02;3;  5.1142770E-01;  0.0000000E+00;  3.2937484E+00;0; -5.7365544E-02;  3.8279598E+04;  0.0000000E+00;  4.7924140E-01;  4.0000000E+04;  0.0000000E+00;  4.0000008E+04; -6.9952585E-02;  0.0000000E+00;  1.2587039E-02;  1.9914662E+03;
  6.3069350E-01;  9.9999998E-03;  2.8008106E-01;6347; -1.7247554E-02;  0.0000000E+00; -7.7421418E-03;  9.9911670E+02;  1.0214505E-01; -7.3178119E+02;3;  4.9232933E-01;  0.0000000E+00;  3.0420687E+00;0; -5.7158303E-02;  3.8277684E+04;  0.0000000E+00;  5.3819913E-01;  4.0000000E+04;  0.0000000E+00;  3.9998129E+04; -7.6767124E-02;  0.0000000E+00;  1.9608822E-02;  1.8237140E+03;
  6.3062292E-01;  9.9999998E-03;  2.9009435E-01;6348; -1.7741658E-02;  0.0000000E+00; -7.2247721E-03;  9.9900818E+02;  1.0214166E-01; -8.2170447E+02;3;  4.5900214E-01;  0.0000000E+00;  2.8148606E+00;0; -5.9498306E-02;  3.8276320E+04;  0.0000000E+00;  6.6163987E-01;  4.0000000E+04;  0.0000000E+00;  3.9994262E+04; -8.2581647E-02;  0.0000000E+00;  2.3083340E-02;  1.5179351E+03;
  6.3053578E-01;  9.9999998E-03;  3.0010539E-01;6349; -1.8273087E-02;  0.0000000E+00; -6.8541924E-03;  9.9889587E+02;  1.0213718E-01; -9.1473883E+02;3;  4.5375115E-01;  0.0000000E+00;  2.5381210E+00;0; -6.3415036E-02;  3.8275836E+04;  0.0000000E+00;  9.5632541E-01;  4.0000000E+04;  0.0000000E+00;  3.9990191E+04; -8.7497100E-02;  0.0000000E+00;  2.4082066E-02;  1.5524978E+03;
  6.4073741E-01;  9.9999998E-03;  2.4005672E-01;6404; -1.5368554E-02;  0.0000000E+00; -1.0685616E-02;  9.9953876E+02;  1.0318413E-01; -3.8211230E+02;3;  5.7309854E-01;  0.0000000E+00;  3.8848395E+00;0; -3.8352109E-02;  3.7564941E+04;  0.0000000E+00;  1.8804763E-01;  4.0000000E+04;  0.0000000E+00;  3.9971305E+04; -4.3672591E-02;  0.0000000E+00;  5.3204810E-03;  9.5043616E+02;
  6.4069986E-01;  9.9999998E-03;  2.5007039E-01;6405; -1.6144453E-02;  0.0000000E+00; -1.0596219E-02;  9.9947107E+02;  1.0318229E-01; -4.3820944E+02;3;  4.9693373E-01;  0.0000000E+00;  3.8919432E+00;0; -5.1750544E-02;  3.7556906E+04;  0.0000000E+00;  1.9281848E-01;  4.0000000E+04;  0.0000000E+00;  3.9975918E+04; -5.4348636E-02;  0.0000000E+00;  2.5980927E-03;  4.1978647E+02;
  6.4065635E-01;  9.9999998E-03;  2.6007906E-01;6406; -1.6927475E-02;  0.0000000E+00; -9.8930188E-03;  9.9945166E+02;  1.0317974E-01; -4.5430774E+02;3;  4.8141262E-01;  0.0000000E+00;  3.7993720E+00;0; -6.0436904E-02;  3.7550039E+04;  0.0000000E+00;  1.0173245E-01;  4.0000000E+04;  0.0000000E+00;  3.9983520E+04; -6.3606948E-02;  0.0000000E+00;  3.1700446E-03;  6.5508295E+02;
  6.4060467E-01;  9.9999998E-03;  2.7009049E-01;6407; -1.7690169E-02;  0.0000000E+00; -8.6611602E-03;  9.9941290E+02;  1.0317664E-01; -4.8640555E+02;3;  4.9837232E-01;  0.0000000E+00;  3.5668483E+00;0; -6.0646873E-02;  3.7544887E+04;  0.0000000E+00; -1.1065660E-01;  4.0000000E+04;  0.0000000E+00;  3.9988926E+04; -7.1586780E-02;  0.0000000E+00;  1.0939907E-02;  1.3339659E+03;
  6.4054370E-01;  9.9999998E-03;  2.8010491E-01;6408; -1.8367779E-02;  0.0000000E+00; -7.6633077E-03;  9.9931635E+02;  1.0317304E-01; -5.6640320E+02;3;  5.0956315E-01;  0.0000000E+00;  3.2060232E+00;0; -5.8971249E-02;  3.7541266E+04;  0.0000000E+00; -4.2073977E-01;  4.0000000E+04;  0.0000000E+00;  3.9988961E+04; -7.8421377E-02;  0.0000000E+00;  1.9450128E-02;  1.4729080E+03;
  6.4047396E-01;  9.9999998E-03;  2.9011855E-01;6409; -1.9009545E-02;  0.0000000E+00; -7.0816162E-03;  9.9918427E+02;  1.0316797E-01; -6.7583215E+02;3;  5.1578104E-01;  0.0000000E+00;  2.8409240E+00;0; -6.0709767E-02;  3.7538695E+04;  0.0000000E+00; -7.3195219E-01;  4.0000000E+04;  0.0000000E+00;  3.9985930E+04; -8.4229328E-02;  0.0000000E+00;  2.3519561E-02;  1.4731591E+03;
  6.4038557E-01;  9.9999998E-03;  3.0013025E-01;6410; -1.9692037E-02;  0.0000000E+00; -6.7320867E-03;  9.9904474E+02;  1.0316148E-01; -7.9143372E+02;3;  5.0411111E-01;  0.0000000E+00;  2.5855441E+00;0; -6.5363243E-02;  3.7537477E+04;  0.0000000E+00; -8.9432853E-01;  4.0000000E+04;  0.0000000E+00;  3.9982555E+04; -8.9123964E-02;  0.0000000E+00;  2.3760719E-02;  1.4648612E+03;
  6.5027690E-01;  9.9999998E-03;  3.0016142E-01;6471; -2.0957438E-02;  0.0000000E+00; -6.3681868E-03;  9.9950140E+02;  1.0450038E-01; -4.1307428E+02;3;  6.0023677E-01;  0.0000000E+00;  2.4641876E+00;0; -6.6628464E-02;  3.6623117E+04;  0.0000000E+00; -4.4966292E+00;  4.0000000E+04;  0.0000000E+00;  3.9969676E+04; -9.1611974E-02;  0.0000000E+00;  2.4983510E-02;  6.9507510E+03;
  6.5035510E-01;  9.9999998E-03;  2.9014915E-01;6470; -2.0157350E-02;  0.0000000E+00; -6.6749817E-03;  9.9965344E+02;  1.0450910E-01; -2.8710266E+02;3;  5.8516479E-01;  0.0000000E+00;  2.7933507E+00;0; -6.1140869E-02;  3.6624074E+04;  0.0000000E+00; -3.5531521E+00;  4.0000000E+04;  0.0000000E+00;  3.9972438E+04; -8.6829871E-02;  0.0000000E+00;  2.5689002E-02;  5.5153906E+03;
  6.5041655E-01;  9.9999998E-03;  2.8013551E-01;6469; -1.9412294E-02;  0.0000000E+00; -7.3155160E-03;  9.9979932E+02;  1.0451502E-01; -1.6626671E+02;3;  5.6506395E-01;  0.0000000E+00;  3.3083458E+00;0; -6.0301755E-02;  3.6627418E+04;  0.0000000E+00; -2.4501040E+00;  4.0000000E+04;  0.0000000E+00;  3.9974680E+04; -8.1149079E-02;  0.0000000E+00;  2.0847324E-02;  3.8607502E+03;
  6.5047216E-01;  9.9999998E-03;  2.7012312E-01;6468; -1.8592328E-02;  0.0000000E+00; -8.6681936E-03;  9.9990228E+02;  1.0452000E-01; -8.0935890E+01;3;  4.7732499E-01;  0.0000000E+00;  3.8937075E+00;0; -6.6195972E-02;  3.6632680E+04;  0.0000000E+00; -1.4370185E+00;  4.0000000E+04;  0.0000000E+00;  3.9972387E+04; -7.4447446E-02;  0.0000000E+00;  8.2514724E-03;  2.2835791E+03;
  6.5052730E-01;  9.9999998E-03;  2.6011688E-01;6467; -1.7669294E-02;  0.0000000E+00; -1.0135051E-02;  9.9993390E+02;  1.0452373E-01; -5.4763821E+01;3;  3.8630748E-01;  0.0000000E+00;  4.2127371E+00;0; -6.7140840E-02;  3.6639570E+04;  0.0000000E+00; -6.7862207E-01;  4.0000000E+04;  0.0000000E+00;  3.9964109E+04; -6.6606700E-02;  0.0000000E+00; -5.3414324E-04;  1.3180616E+03;
  6.5058357E-01;  9.9999998E-03;  2.5011626E-01;6466; -1.6711455E-02;  0.0000000E+00; -1.0869465E-02;  9.9996063E+02;  1.0452656E-01; -3.2591633E+01;3;  2.7727169E-01;  0.0000000E+00;  4.4328308E+00;0; -5.7175457E-02;  3.6648031E+04;  0.0000000E+00; -2.1794510E-01;  4.0000000E+04;  0.0000000E+00;  3.9954090E+04; -5.7508387E-02;  0.0000000E+00;  3.3292844E-04;  2.0235129E+03;
  6.5063995E-01;  9.9999998E-03;  2.4011101E-01;6465; -1.5762305E-02;  0.0000000E+00; -1.0875660E-02;  1.0000599E+03;  1.0452793E-01;  4.9578789E+01;3;  2.6483920E-01;  0.0000000E+00;  4.4698429E+00;0; -4.2060807E-02;  3.6657938E+04;  0.0000000E+00; -2.8241824E-03;  4.0000000E+04;  0.0000000E+00;  3.9949355E+04; -4.7027703E-02;  0.0000000E+00;  4.9668974E-03;  2.5822256E+03;
  6.6033804E-01;  9.9999998E-03;  3.0019769E-01;6532; -2.2006927E-02;  0.0000000E+00; -5.8378037E-03;  1.0000887E+03;  1.0615198E-01;  7.3479309E+01;3;  6.8473291E-01;  0.0000000E+00;  2.3482256E+00;0; -6.9652356E-02;  3.5542539E+04;  0.0000000E+00; -9.1878471E+00;  4.0000000E+04;  0.0000000E+00;  3.9952727E+04; -9.5609143E-02;  0.0000000E+00;  2.5956785E-02;  1.4587250E+04;
  6.6072011E-01;  9.9999998E-03;  2.4018127E-01;6526; -1.6112214E-02;  0.0000000E+00; -1.0843482E-02;  1.0005831E+03;  1.0617972E-01;  4.8304745E+02;3; -1.9292528E-02;  0.0000000E+00;  5.0585628E+00;0; -4.8092224E-02;  3.5578535E+04;  0.0000000E+00; -2.8624105E-01;  4.0000000E+04;  0.0000000E+00;  3.9922902E+04; -5.2875914E-02;  0.0000000E+00;  4.7836918E-03;  4.6343135E+03;
  6.6039556E-01;  9.9999998E-03;  2.9018462E-01;6531; -2.1174887E-02;  0.0000000E+00; -5.9664566E-03;  1.0002330E+03;  1.0616223E-01;  1.9308072E+02;3;  6.8652129E-01;  0.0000000E+00;  2.6985707E+00;0; -6.1182156E-02;  3.5541742E+04;  0.0000000E+00; -7.3183646E+00;  4.0000000E+04;  0.0000000E+00;  3.9955672E+04; -9.1026455E-02;  0.0000000E+00;  2.9844301E-02;  1.1642950E+04;
  6.6065681E-01;  9.9999998E-03;  2.5017959E-01;6527; -1.7222866E-02;  0.0000000E+00; -1.1099012E-02;  1.0004243E+03;  1.0617909E-01;  3.5149579E+02;3;  1.0652480E-01;  0.0000000E+00;  5.0129766E+00;0; -6.5826572E-02;  3.5567555E+04;  0.0000000E+00; -8.0186552E-01;  4.0000000E+04;  0.0000000E+00;  3.9924422E+04; -6.2906638E-02;  0.0000000E+00; -2.9199312E-03;  4.6082900E+03;
  6.6049153E-01;  9.9999998E-03;  2.7016395E-01;6529; -1.9366009E-02;  0.0000000E+00; -8.9574400E-03;  1.0004398E+03;  1.0617333E-01;  3.6433490E+02;3;  4.5346040E-01;  0.0000000E+00;  4.2768083E+00;0; -7.9181157E-02;  3.5551121E+04;  0.0000000E+00; -3.2915323E+00;  4.0000000E+04;  0.0000000E+00;  3.9950402E+04; -7.9138875E-02;  0.0000000E+00; -4.2283376E-05;  5.4183550E+03;
  6.6056657E-01;  9.9999998E-03;  2.6016724E-01;6528; -1.8308317E-02;  0.0000000E+00; -1.0578206E-02;  1.0004265E+03;  1.0617708E-01;  3.5327350E+02;3;  2.6651934E-01;  0.0000000E+00;  4.7585831E+00;0; -7.9480492E-02;  3.5558805E+04;  0.0000000E+00; -1.7804257E+00;  4.0000000E+04;  0.0000000E+00;  3.9937188E+04; -7.1615033E-02;  0.0000000E+00; -7.8654587E-03;  4.0444722E+03;
  6.6044432E-01;  9.9999998E-03;  2.8017163E-01;6530; -2.0343989E-02;  0.0000000E+00; -6.9700861E-03;  1.0003715E+03;  1.0616936E-01;  3.0784274E+02;3;  5.9497678E-01;  0.0000000E+00;  3.6006086E+00;0; -6.6130072E-02;  3.5544895E+04;  0.0000000E+00; -5.2135611E+00;  4.0000000E+04;  0.0000000E+00;  3.9956676E+04; -8.5581131E-02;  0.0000000E+00;  1.9451061E-02;  8.3332979E+03;
  6.7072403E-01;  9.9999998E-03;  2.4023302E-01;6587; -1.6533816E-02;  0.0000000E+00; -1.0009438E-02;  1.0009747E+03;  1.0811506E-01;  8.0748212E+02;3; -9.3008190E-02;  0.0000000E+00;  5.0364628E+00;0; -5.3867701E-02;  3.4349672E+04;  0.0000000E+00; -7.1145695E-01;  4.0000000E+04;  0.0000000E+00;  3.9904281E+04; -6.1358269E-02;  0.0000000E+00;  7.4905665E-03;  5.5742500E+03;
  6.7069203E-01;  9.9999998E-03;  2.5023633E-01;6588; -1.7769137E-02;  0.0000000E+00; -1.0552634E-02;  1.0007411E+03;  1.0811606E-01;  6.1400641E+02;3;  8.7966792E-02;  0.0000000E+00;  5.0101767E+00;0; -7.2997458E-02;  3.4339270E+04;  0.0000000E+00; -1.6043451E+00;  4.0000000E+04;  0.0000000E+00;  3.9899445E+04; -7.0803732E-02;  0.0000000E+00; -2.1937273E-03;  6.6305542E+03;
  6.7066365E-01;  9.9999998E-03;  2.6022509E-01;6589; -1.8966522E-02;  0.0000000E+00; -1.0659908E-02;  1.0006610E+03;  1.0811608E-01;  5.4763800E+02;3;  2.8747746E-01;  0.0000000E+00;  4.9240046E+00;0; -9.2690505E-02;  3.4329527E+04;  0.0000000E+00; -3.0992815E+00;  4.0000000E+04;  0.0000000E+00;  3.9906129E+04; -7.9053722E-02;  0.0000000E+00; -1.3636783E-02;  7.3444497E+03;
  6.7066073E-01;  9.9999998E-03;  2.7021420E-01;6590; -2.0083325E-02;  0.0000000E+00; -9.7846994E-03;  1.0006970E+03;  1.0811607E-01;  5.7746429E+02;3;  4.5302799E-01;  0.0000000E+00;  4.7684846E+00;0; -1.0341265E-01;  3.4319930E+04;  0.0000000E+00; -5.2355366E+00;  4.0000000E+04;  0.0000000E+00;  3.9921297E+04; -8.6194940E-02;  0.0000000E+00; -1.7217711E-02;  9.2866035E+03;
  6.7066699E-01;  9.9999998E-03;  2.8021419E-01;6591; -2.1113005E-02;  0.0000000E+00; -7.7281948E-03;  1.0007139E+03;  1.0811489E-01;  5.9148853E+02;3;  6.1909801E-01;  0.0000000E+00;  4.2535887E+00;0; -9.3352281E-02;  3.4312789E+04;  0.0000000E+00; -7.8893080E+00;  4.0000000E+04;  0.0000000E+00;  3.9933258E+04; -9.2304662E-02;  0.0000000E+00; -1.0476210E-03;  1.3108465E+04;
  6.7066461E-01;  9.9999998E-03;  2.9022375E-01;6592; -2.2036651E-02;  0.0000000E+00; -5.7112966E-03;  1.0006497E+03;  1.0810889E-01;  5.3825555E+02;3;  7.3737758E-01;  0.0000000E+00;  3.2888699E+00;0; -7.4635722E-02;  3.4310746E+04;  0.0000000E+00; -1.0721696E+01;  4.0000000E+04;  0.0000000E+00;  3.9936914E+04; -9.7466394E-02;  0.0000000E+00;  2.2830671E-02;  1.7607775E+04;
  6.7066908E-01;  9.9999998E-03;  3.0023682E-01;6593; -2.2880493E-02;  0.0000000E+00; -4.9263081E-03;  1.0005474E+03;  1.0809863E-01;  4.5351736E+02;3;  7.9316479E-01;  0.0000000E+00;  2.3181636E+00;0; -7.1897067E-02;  3.4313535E+04;  0.0000000E+00; -1.3040623E+01;  4.0000000E+04;  0.0000000E+00;  3.9935328E+04; -1.0180894E-01;  0.0000000E+00;  2.9911878E-02;  2.1324338E+04;
  6.8085968E-01;  9.9999998E-03;  2.4025962E-01;6648; -1.7002512E-02;  0.0000000E+00; -8.5335765E-03;  1.0010858E+03;  1.1032353E-01;  8.9952863E+02;3; -1.3114929E-01;  0.0000000E+00;  4.6340828E+00;0; -6.0424224E-02;  3.2996711E+04;  0.0000000E+00; -1.1930783E+00;  4.0000000E+04;  0.0000000E+00;  3.9895785E+04; -7.2736539E-02;  0.0000000E+00;  1.2312315E-02;  5.2646274E+03;
  6.8086857E-01;  9.9999998E-03;  2.5027084E-01;6649; -1.8363304E-02;  0.0000000E+00; -9.0917554E-03;  1.0008362E+03;  1.1033116E-01;  6.9281879E+02;3;  1.0908554E-01;  0.0000000E+00;  4.6354098E+00;0; -7.8150794E-02;  3.2985547E+04;  0.0000000E+00; -2.4606938E+00;  4.0000000E+04;  0.0000000E+00;  3.9886891E+04; -8.1533723E-02;  0.0000000E+00;  3.3829273E-03;  7.3254478E+03;
  6.8091804E-01;  9.9999998E-03;  2.6026714E-01;6650; -1.9689372E-02;  0.0000000E+00; -9.4948867E-03;  1.0007123E+03;  1.1034176E-01;  5.9010577E+02;3;  3.5634485E-01;  0.0000000E+00;  4.6020393E+00;0; -9.9085324E-02;  3.2972043E+04;  0.0000000E+00; -4.3931508E+00;  4.0000000E+04;  0.0000000E+00;  3.9887504E+04; -8.9309469E-02;  0.0000000E+00; -9.7758574E-03;  9.5923975E+03;
  6.8099403E-01;  9.9999998E-03;  2.7025902E-01;6651; -2.0919461E-02;  0.0000000E+00; -9.0965349E-03;  1.0007299E+03;  1.1035369E-01;  6.0472260E+02;3;  5.6802201E-01;  0.0000000E+00;  4.5828576E+00;0; -1.1482733E-01;  3.2958500E+04;  0.0000000E+00; -7.0052071E+00;  4.0000000E+04;  0.0000000E+00;  3.9898742E+04; -9.6072540E-02;  0.0000000E+00; -1.8754797E-02;  1.2838784E+04;
  6.8107575E-01;  9.9999998E-03;  2.8025803E-01;6652; -2.1991683E-02;  0.0000000E+00; -7.7615790E-03;  1.0007892E+03;  1.1036298E-01;  6.5380756E+02;3;  7.4452633E-01;  0.0000000E+00;  4.3573194E+00;0; -1.1593184E-01;  3.2947980E+04;  0.0000000E+00; -1.0078279E+01;  4.0000000E+04;  0.0000000E+00;  3.9910766E+04; -1.0185507E-01;  0.0000000E+00; -1.4076767E-02;  1.7456357E+04;
  6.8116915E-01;  9.9999998E-03;  2.9026619E-01;6653; -2.2876019E-02;  0.0000000E+00; -5.6931889E-03;  1.0007934E+03;  1.1036934E-01;  6.5726422E+02;3;  8.6528140E-01;  0.0000000E+00;  3.7618964E+00;0; -9.8524995E-02;  3.2941684E+04;  0.0000000E+00; -1.2970566E+01;  4.0000000E+04;  0.0000000E+00;  3.9916648E+04; -1.0674701E-01;  0.0000000E+00;  8.2220118E-03;  2.2138912E+04;
  6.8127239E-01;  9.9999998E-03;  3.0027959E-01;6654; -2.3659378E-02;  0.0000000E+00; -4.3904176E-03;  1.0007564E+03;  1.1036929E-01;  6.2664783E+02;3;  9.3024033E-01;  0.0000000E+00;  2.8280344E+00;0; -8.7861314E-02;  3.2941641E+04;  0.0000000E+00; -1.4923003E+01;  4.0000000E+04;  0.0000000E+00;  3.9916535E+04; -1.1087515E-01;  0.0000000E+00;  2.3013839E-02;  2.5323721E+04;
  6.9177932E-01;  9.9999998E-03;  2.4027216E-01;6709; -1.7586168E-02;  0.0000000E+00; -6.5796804E-03;  1.0008724E+03;  1.1291512E-01;  7.2274353E+02;3; -2.4269952E-01;  0.0000000E+00;  4.0266495E+00;0; -6.9790453E-02;  3.1489250E+04;  0.0000000E+00; -1.3351423E+00;  4.0000000E+04;  0.0000000E+00;  3.9892508E+04; -8.8012733E-02;  0.0000000E+00;  1.8222280E-02;  4.1661118E+03;
  6.9189179E-01;  9.9999998E-03;  2.5029132E-01;6710; -1.9074496E-02;  0.0000000E+00; -6.9622369E-03;  1.0006737E+03;  1.1294329E-01;  5.5810651E+02;3;  8.8701025E-02;  0.0000000E+00;  4.0348735E+00;0; -8.4521584E-02;  3.1471398E+04;  0.0000000E+00; -2.6403291E+00;  4.0000000E+04;  0.0000000E+00;  3.9882137E+04; -9.6240364E-02;  0.0000000E+00;  1.1718783E-02;  6.7061548E+03;
  6.9204909E-01;  9.9999998E-03;  2.6030031E-01;6711; -2.0521136E-02;  0.0000000E+00; -7.4494425E-03;  1.0005576E+03;  1.1297821E-01;  4.6191193E+02;3;  3.9841717E-01;  0.0000000E+00;  4.0439658E+00;0; -1.0395410E-01;  3.1450748E+04;  0.0000000E+00; -4.4981575E+00;  4.0000000E+04;  0.0000000E+00;  3.9876402E+04; -1.0360389E-01;  0.0000000E+00; -3.5021018E-04;  9.7825869E+03;
  6.9226426E-01;  9.9999998E-03;  2.7030072E-01;6712; -2.1878470E-02;  0.0000000E+00; -7.3832097E-03;  1.0005889E+03;  1.1302113E-01;  4.8788644E+02;3;  6.7985898E-01;  0.0000000E+00;  4.0647593E+00;0; -1.2168843E-01;  3.1426635E+04;  0.0000000E+00; -6.7658505E+00;  4.0000000E+04;  0.0000000E+00;  3.9881066E+04; -1.1011455E-01;  0.0000000E+00; -1.1573875E-02;  1.3152382E+04;
  6.9251198E-01;  9.9999998E-03;  2.8030387E-01;6713; -2.3058951E-02;  0.0000000E+00; -6.5034125E-03;  1.0006949E+03;  1.1306658E-01;  5.7578503E+02;3;  9.2465878E-01;  0.0000000E+00;  3.9772134E+00;0; -1.2866706E-01;  3.1402875E+04;  0.0000000E+00; -9.0423517E+00;  4.0000000E+04;  0.0000000E+00;  3.9889691E+04; -1.1576101E-01;  0.0000000E+00; -1.2906040E-02;  1.6725875E+04;
  6.9274402E-01;  9.9999998E-03;  2.9031408E-01;6714; -2.3958065E-02;  0.0000000E+00; -4.8293471E-03;  1.0007830E+03;  1.1310297E-01;  6.4867169E+02;3;  1.0768675E+00;  0.0000000E+00;  3.6720657E+00;0; -1.1828000E-01;  3.1386443E+04;  0.0000000E+00; -1.0795672E+01;  4.0000000E+04;  0.0000000E+00;  3.9894805E+04; -1.2052900E-01;  0.0000000E+00;  2.2490020E-03;  1.9642840E+04;
  6.9293147E-01;  9.9999998E-03;  3.0032957E-01;6715; -2.4674160E-02;  0.0000000E+00; -3.5043790E-03;  1.0008454E+03;  1.1312354E-01;  7.0042322E+02;3;  1.1691523E+00;  0.0000000E+00;  2.9137545E+00;0; -1.0798466E-01;  3.1381490E+04;  0.0000000E+00; -1.1606572E+01;  4.0000000E+04;  0.0000000E+00;  3.9894625E+04; -1.2451028E-01;  0.0000000E+00;  1.6525622E-02;  2.1000639E+04;
  7.0399582E-01;  9.9999998E-03;  2.4028601E-01;6770; -1.8419215E-02;  0.0000000E+00; -4.1644131E-03;  1.0006304E+03;  1.1607365E-01;  5.2225555E+02;3; -4.1923633E-01;  0.0000000E+00;  3.3172097E+00;0; -8.3745949E-02;  2.9794629E+04;  0.0000000E+00; -9.8510069E-01;  4.0000000E+04;  0.0000000E+00;  3.9888047E+04; -1.0839933E-01;  0.0000000E+00;  2.4653384E-02;  2.7176086E+03;
  7.0417720E-01;  9.9999998E-03;  2.5030980E-01;6771; -2.0016259E-02;  0.0000000E+00; -4.2097820E-03;  1.0005703E+03;  1.1612593E-01;  4.7247931E+02;3;  3.5365457E-03;  0.0000000E+00;  3.3569477E+00;0; -9.4250344E-02;  2.9772768E+04;  0.0000000E+00; -2.0796359E+00;  4.0000000E+04;  0.0000000E+00;  3.9878824E+04; -1.1611533E-01;  0.0000000E+00;  2.1864988E-02;  5.0883174E+03;
  7.0442182E-01;  9.9999998E-03;  2.6033404E-01;6772; -2.1568628E-02;  0.0000000E+00; -4.6641403E-03;  1.0005130E+03;  1.1619013E-01;  4.2497461E+02;3;  4.0110198E-01;  0.0000000E+00;  3.2770903E+00;0; -1.1058437E-01;  2.9746482E+04;  0.0000000E+00; -3.5573883E+00;  4.0000000E+04;  0.0000000E+00;  3.9866922E+04; -1.2316913E-01;  0.0000000E+00;  1.2584763E-02;  8.2602344E+03;
  7.0471025E-01;  9.9999998E-03;  2.7034640E-01;6773; -2.3025833E-02;  0.0000000E+00; -4.8006680E-03;  1.0005949E+03;  1.1626185E-01;  4.9282437E+02;3;  7.6605725E-01;  0.0000000E+00;  3.3175118E+00;0; -1.2786655E-01;  2.9718139E+04;  0.0000000E+00; -5.2965956E+00;  4.0000000E+04;  0.0000000E+00;  3.9863805E+04; -1.2948778E-01;  0.0000000E+00;  1.6212292E-03;  1.1412020E+04;
  7.0496184E-01;  9.9999998E-03;  2.8035644E-01;6774; -2.4299782E-02;  0.0000000E+00; -4.2863991E-03;  1.0007776E+03;  1.1632186E-01;  6.4422711E+02;3;  1.0728213E+00;  0.0000000E+00;  3.3622537E+00;0; -1.3796872E-01;  2.9697602E+04;  0.0000000E+00; -7.0685034E+00;  4.0000000E+04;  0.0000000E+00;  3.9866949E+04; -1.3494277E-01;  0.0000000E+00; -3.0259474E-03;  1.4465124E+04;
  7.0515645E-01;  9.9999998E-03;  2.9037076E-01;6775; -2.5223503E-02;  0.0000000E+00; -3.0273513E-03;  1.0009583E+03;  1.1636340E-01;  7.9395093E+02;3;  1.3010991E+00;  0.0000000E+00;  3.1361547E+00;0; -1.3338445E-01;  2.9687438E+04;  0.0000000E+00; -8.4643898E+00;  4.0000000E+04;  0.0000000E+00;  3.9868953E+04; -1.3952456E-01;  0.0000000E+00;  6.1401119E-03;  1.6953404E+04;
  7.0528406E-01;  9.9999998E-03;  3.0038914E-01;6776; -2.5845334E-02;  0.0000000E+00; -1.9546121E-03;  1.0010950E+03;  1.1638027E-01;  9.0723138E+02;3;  1.4661109E+00;  0.0000000E+00;  2.5828316E+00;0; -1.2734780E-01;  2.9689889E+04;  0.0000000E+00; -9.1014290E+00;  4.0000000E+04;  0.0000000E+00;  3.9867316E+04; -1.4331712E-01;  0.0000000E+00;  1.5969325E-02;  1.8126551E+04;
  7.1634442E-01;  9.9999998E-03;  2.4029984E-01;6831; -1.9597322E-02;  0.0000000E+00; -1.5433764E-03;  1.0005034E+03;  1.1959329E-01;  4.1707343E+02;3; -6.0916728E-01;  0.0000000E+00;  2.5350420E+00;0; -1.0122889E-01;  2.8070588E+04;  0.0000000E+00; -8.0497283E-01;  4.0000000E+04;  0.0000000E+00;  3.9883695E+04; -1.3180995E-01;  0.0000000E+00;  3.0581065E-02;  2.3654363E+03;
  7.1649039E-01;  9.9999998E-03;  2.5033191E-01;6832; -2.1245953E-02;  0.0000000E+00; -1.1718579E-03;  1.0005428E+03;  1.1964629E-01;  4.4976376E+02;3; -9.8485358E-02;  0.0000000E+00;  2.6662774E+00;0; -1.0695651E-01;  2.8054777E+04;  0.0000000E+00; -1.9111007E+00;  4.0000000E+04;  0.0000000E+00;  3.9874867E+04; -1.3909931E-01;  0.0000000E+00;  3.2142807E-02;  4.5361411E+03;
  7.1666300E-01;  9.9999998E-03;  2.6036996E-01;6833; -2.2848155E-02;  0.0000000E+00; -1.5272317E-03;  1.0005245E+03;  1.1970384E-01;  4.3455435E+02;3;  3.6924624E-01;  0.0000000E+00;  2.6711304E+00;0; -1.1917328E-01;  2.8038668E+04;  0.0000000E+00; -3.4717412E+00;  4.0000000E+04;  0.0000000E+00;  3.9858266E+04; -1.4580546E-01;  0.0000000E+00;  2.6632182E-02;  8.0324014E+03;
  7.1672952E-01;  9.9999998E-03;  2.7039292E-01;6834; -2.4338385E-02;  0.0000000E+00; -1.8419658E-03;  1.0006138E+03;  1.1973146E-01;  5.0852737E+02;3;  7.9938161E-01;  0.0000000E+00;  2.6981428E+00;0; -1.3442478E-01;  2.8037857E+04;  0.0000000E+00; -5.5023894E+00;  4.0000000E+04;  0.0000000E+00;  3.9848957E+04; -1.5161110E-01;  0.0000000E+00;  1.7186323E-02;  1.2215896E+04;
  7.1673888E-01;  9.9999998E-03;  2.8040934E-01;6835; -2.5633346E-02;  0.0000000E+00; -1.5721715E-03;  1.0007994E+03;  1.1973976E-01;  6.6230035E+02;3;  1.2034127E+00;  0.0000000E+00;  2.7103093E+00;0; -1.4442599E-01;  2.8046609E+04;  0.0000000E+00; -7.7120767E+00;  4.0000000E+04;  0.0000000E+00;  3.9847094E+04; -1.5660277E-01;  0.0000000E+00;  1.2176776E-02;  1.6459922E+04;
  7.1670496E-01;  9.9999998E-03;  2.9042721E-01;6836; -2.6554191E-02;  0.0000000E+00; -6.6787330E-04;  1.0009822E+03;  1.1973085E-01;  8.1380182E+02;3;  1.5049027E+00;  0.0000000E+00;  2.4568563E+00;0; -1.4315455E-01;  2.8062711E+04;  0.0000000E+00; -9.5959482E+00;  4.0000000E+04;  0.0000000E+00;  3.9846398E+04; -1.6081405E-01;  0.0000000E+00;  1.7659497E-02;  2.0055727E+04;
  7.1662891E-01;  9.9999998E-03;  3.0044797E-01;6837; -2.7064329E-02;  0.0000000E+00;  9.5401039E-05;  1.0011094E+03;  1.1970326E-01;  9.1918127E+02;3;  1.7434069E+00;  0.0000000E+00;  1.9738286E+00;0; -1.4128898E-01;  2.8086365E+04;  0.0000000E+00; -1.0671840E+01;  4.0000000E+04;  0.0000000E+00;  3.9843609E+04; -1.6430774E-01;  0.0000000E+00;  2.3018768E-02;  2.2127043E+04;
  7.2829068E-01;  9.9999998E-03;  2.4030794E-01;6892; -2.1190023E-02;  0.0000000E+00;  8.3787198E-04;  9.9997345E+02;  1.2325463E-01; -2.1974611E+01;3; -7.8739738E-01;  0.0000000E+00;  1.6931406E+00;0; -1.2194718E-01;  2.6407975E+04;  0.0000000E+00; -7.4893045E-01;  4.0000000E+04;  0.0000000E+00;  3.9881055E+04; -1.5609068E-01;  0.0000000E+00;  3.4143500E-02;  3.7383030E+03;
  7.2823972E-01;  9.9999998E-03;  2.5034967E-01;6893; -2.2854175E-02;  0.0000000E+00;  1.6643987E-03;  1.0000386E+03;  1.2325583E-01;  3.1998983E+01;3; -1.9359462E-01;  0.0000000E+00;  1.8836681E+00;0; -1.2303174E-01;  2.6415277E+04;  0.0000000E+00; -1.8052709E+00;  4.0000000E+04;  0.0000000E+00;  3.9874148E+04; -1.6294295E-01;  0.0000000E+00;  3.9911203E-02;  4.9871060E+03;
  7.2818398E-01;  9.9999998E-03;  2.6040068E-01;6894; -2.4448412E-02;  0.0000000E+00;  1.5410039E-03;  9.9999493E+02;  1.2325364E-01; -4.1973977E+00;3;  3.4798893E-01;  0.0000000E+00;  1.9470228E+00;0; -1.3015108E-01;  2.6425959E+04;  0.0000000E+00; -3.2747424E+00;  4.0000000E+04;  0.0000000E+00;  3.9855070E+04; -1.6923922E-01;  0.0000000E+00;  3.9088145E-02;  7.5943623E+03;
  7.2811234E-01;  9.9999998E-03;  2.7043411E-01;6895; -2.5944237E-02;  0.0000000E+00;  1.2147564E-03;  1.0000372E+03;  1.2324436E-01;  3.0813837E+01;3;  8.5658973E-01;  0.0000000E+00;  1.9677135E+00;0; -1.4200461E-01;  2.6441164E+04;  0.0000000E+00; -5.0778961E+00;  4.0000000E+04;  0.0000000E+00;  3.9841598E+04; -1.7488338E-01;  0.0000000E+00;  3.2878775E-02;  1.1466326E+04;
  7.2803086E-01;  9.9999998E-03;  2.8045771E-01;6896; -2.7248921E-02;  0.0000000E+00;  1.3235998E-03;  1.0001726E+03;  1.2322944E-01;  1.4300780E+02;3;  1.3239584E+00;  0.0000000E+00;  1.9312558E+00;0; -1.5117587E-01;  2.6459467E+04;  0.0000000E+00; -6.9619427E+00;  4.0000000E+04;  0.0000000E+00;  3.9835711E+04; -1.7986640E-01;  0.0000000E+00;  2.8690537E-02;  1.5371750E+04;
  7.2792202E-01;  9.9999998E-03;  2.9048002E-01;6897; -2.8196586E-02;  0.0000000E+00;  1.9819937E-03;  1.0003196E+03;  1.2320331E-01;  2.6478171E+02;3;  1.7137321E+00;  0.0000000E+00;  1.6659952E+00;0; -1.5192075E-01;  2.6481498E+04;  0.0000000E+00; -8.4745588E+00;  4.0000000E+04;  0.0000000E+00;  3.9832539E+04; -1.8415548E-01;  0.0000000E+00;  3.2234732E-02;  1.8457184E+04;
  7.2776592E-01;  9.9999998E-03;  3.0050376E-01;6898; -2.8654344E-02;  0.0000000E+00;  2.5850178E-03;  1.0004150E+03;  1.2316087E-01;  3.4389032E+02;3;  2.0157013E+00;  0.0000000E+00;  1.1433325E+00;0; -1.5198560E-01;  2.6508906E+04;  0.0000000E+00; -9.1736784E+00;  4.0000000E+04;  0.0000000E+00;  3.9828703E+04; -1.8773992E-01;  0.0000000E+00;  3.5754323E-02;  1.9930670E+04;
  7.4027026E-01;  9.9999998E-03;  2.4031249E-01;6953; -2.3312850E-02;  0.0000000E+00;  2.9149782E-03;  9.9882904E+02;  1.2709244E-01; -9.7009198E+02;3; -9.2736363E-01;  0.0000000E+00;  8.0497724E-01;0; -1.4612171E-01;  2.4786680E+04;  0.0000000E+00; -5.3853637E-01;  4.0000000E+04;  0.0000000E+00;  3.9879676E+04; -1.8074588E-01;  0.0000000E+00;  3.4624182E-02;  5.8194878E+03;
  7.4021322E-01;  9.9999998E-03;  2.5036407E-01;6954; -2.5009846E-02;  0.0000000E+00;  4.2789145E-03;  9.9890192E+02;  1.2709603E-01; -9.0974829E+02;3; -2.6293781E-01;  0.0000000E+00;  1.0028838E+00;0; -1.4362507E-01;  2.4789918E+04;  0.0000000E+00; -1.1322759E+00;  4.0000000E+04;  0.0000000E+00;  3.9876797E+04; -1.8786702E-01;  0.0000000E+00;  4.4241954E-02;  6.0353174E+03;
  7.4015021E-01;  9.9999998E-03;  2.6042864E-01;6955; -2.6615269E-02;  0.0000000E+00;  4.5621442E-03;  9.9881036E+02;  1.2709554E-01; -9.8559766E+02;3;  3.4698588E-01;  0.0000000E+00;  1.0690632E+00;0; -1.4583382E-01;  2.4796662E+04;  0.0000000E+00; -1.8019357E+00;  4.0000000E+04;  0.0000000E+00;  3.9857570E+04; -1.9449136E-01;  0.0000000E+00;  4.8657529E-02;  5.3825605E+03;
  7.4009454E-01;  9.9999998E-03;  2.7047473E-01;6956; -2.8121570E-02;  0.0000000E+00;  4.3350500E-03;  9.9875580E+02;  1.2709516E-01; -1.0307814E+03;3;  9.2609501E-01;  0.0000000E+00;  1.0600171E+00;0; -1.5429944E-01;  2.4804848E+04;  0.0000000E+00; -2.4029939E+00;  4.0000000E+04;  0.0000000E+00;  3.9840555E+04; -2.0056154E-01;  0.0000000E+00;  4.6262100E-02;  5.9501509E+03;
  7.4006593E-01;  9.9999998E-03;  2.8050703E-01;6957; -2.9462285E-02;  0.0000000E+00;  4.3473132E-03;  9.9880090E+02;  1.2710094E-01; -9.9344928E+02;3;  1.4732057E+00;  0.0000000E+00;  1.0198947E+00;0; -1.6285954E-01;  2.4811371E+04;  0.0000000E+00; -2.7313204E+00;  4.0000000E+04;  0.0000000E+00;  3.9831070E+04; -2.0609547E-01;  0.0000000E+00;  4.3235932E-02;  6.6372900E+03;
  7.3998696E-01;  9.9999998E-03;  2.9053482E-01;6958; -3.0487981E-02;  0.0000000E+00;  4.7739856E-03;  9.9887897E+02;  1.2709305E-01; -9.2876001E+02;3;  1.9737272E+00;  0.0000000E+00;  8.1457913E-01;0; -1.6625376E-01;  2.4822484E+04;  0.0000000E+00; -2.5103753E+00;  4.0000000E+04;  0.0000000E+00;  3.9825641E+04; -2.1092808E-01;  0.0000000E+00;  4.4674322E-02;  6.2902891E+03;
  7.3985219E-01;  9.9999998E-03;  3.0056199E-01;6959; -3.0968390E-02;  0.0000000E+00;  5.4000556E-03;  9.9893829E+02;  1.2707227E-01; -8.7957642E+02;3;  2.3342304E+00;  0.0000000E+00;  2.4342488E-01;0; -1.6582026E-01;  2.4837863E+04;  0.0000000E+00; -1.5849502E+00;  4.0000000E+04;  0.0000000E+00;  3.9821438E+04; -2.1506618E-01;  0.0000000E+00;  4.9245924E-02;  4.6398198E+03;
  7.5350738E-01;  9.9999998E-03;  2.4034344E-01;7014; -2.6240915E-02;  0.0000000E+00;  4.7150478E-03;  9.9744281E+02;  1.3146023E-01; -2.1185959E+03;3; -1.0194688E+00;  0.0000000E+00; -3.0273312E-01;0; -1.7578945E-01;  2.3113102E+04;  0.0000000E+00; -2.8298330E-01;  4.0000000E+04;  0.0000000E+00;  3.9870680E+04; -2.0638433E-01;  0.0000000E+00;  3.0594880E-02;  7.4575771E+03;
  7.5335699E-01;  9.9999998E-03;  2.5039440E-01;7015; -2.7993483E-02;  0.0000000E+00;  6.5419595E-03;  9.9752509E+02;  1.3143672E-01; -2.0504009E+03;3; -3.0328426E-01;  0.0000000E+00; -3.8691595E-02;0; -1.7136012E-01;  2.3120840E+04;  0.0000000E+00; -2.8249419E-01;  4.0000000E+04;  0.0000000E+00;  3.9875359E+04; -2.1399914E-01;  0.0000000E+00;  4.2639017E-02;  7.9928096E+03;
  7.5310373E-01;  9.9999998E-03;  2.6046544E-01;7016; -2.9582398E-02;  0.0000000E+00;  7.4767345E-03;  9.9737646E+02;  1.3138343E-01; -2.1735571E+03;3;  3.7135255E-01;  0.0000000E+00;  4.3956690E-02;0; -1.6752693E-01;  2.3140605E+04;  0.0000000E+00;  7.9119131E-02;  4.0000000E+04;  0.0000000E+00;  3.9860395E+04; -2.2097221E-01;  0.0000000E+00;  5.3445272E-02;  6.0055405E+03;
  7.5287879E-01;  9.9999998E-03;  2.7052265E-01;7017; -3.1058300E-02;  0.0000000E+00;  7.4304533E-03;  9.9719800E+02;  1.3133980E-01; -2.3214041E+03;3;  1.0201131E+00;  0.0000000E+00;  2.5930054E-02;0; -1.7194778E-01;  2.3158711E+04;  0.0000000E+00;  9.9680364E-01;  4.0000000E+04;  0.0000000E+00;  3.9841246E+04; -2.2743350E-01;  0.0000000E+00;  5.5485729E-02;  4.1130034E+03;
  7.5274354E-01;  9.9999998E-03;  2.8056318E-01;7018; -3.2380484E-02;  0.0000000E+00;  7.3879617E-03;  9.9711627E+02;  1.3132024E-01; -2.3891057E+03;3;  1.6315211E+00;  0.0000000E+00; -1.5852557E-02;0; -1.7921835E-01;  2.3169312E+04;  0.0000000E+00;  2.5621924E+00;  4.0000000E+04;  0.0000000E+00;  3.9828914E+04; -2.3347469E-01;  0.0000000E+00;  5.4256327E-02;  6.0659419E+03;
  7.5258857E-01;  9.9999998E-03;  2.9059616E-01;7019; -3.3424135E-02;  0.0000000E+00;  7.5817397E-03;  9.9709839E+02;  1.3129668E-01; -2.4039199E+03;3;  2.2215428E+00;  0.0000000E+00; -1.0867543E-01;0; -1.8514246E-01;  2.3181922E+04;  0.0000000E+00;  4.8912129E+00;  4.0000000E+04;  0.0000000E+00;  3.9821238E+04; -2.3888962E-01;  0.0000000E+00;  5.3747170E-02;  1.1147785E+04;
  7.5238127E-01;  9.9999998E-03;  3.0062613E-01;7020; -3.3961944E-02;  0.0000000E+00;  8.0269855E-03;  9.9710614E+02;  1.3126212E-01; -2.3975005E+03;3;  2.7479963E+00;  0.0000000E+00; -3.3793274E-01;0; -1.8767413E-01;  2.3198465E+04;  0.0000000E+00;  7.9900193E+00;  4.0000000E+04;  0.0000000E+00;  3.9816453E+04; -2.4364230E-01;  0.0000000E+00;  5.5968169E-02;  1.8121646E+04;
  7.6739568E-01;  9.9999998E-03;  2.4042657E-01;7075; -2.9895743E-02;  0.0000000E+00;  6.2781381E-03;  9.9645898E+02;  1.3627304E-01; -2.9336272E+03;3; -1.0703820E+00;  0.0000000E+00; -1.5369681E+00;0; -2.0082335E-01;  2.1478496E+04;  0.0000000E+00; -3.1865355E-01;  4.0000000E+04;  0.0000000E+00;  3.9847633E+04; -2.2252980E-01;  0.0000000E+00;  2.1706447E-02;  7.7072993E+03;
  7.6720172E-01;  9.9999998E-03;  2.5046656E-01;7076; -3.1777188E-02;  0.0000000E+00;  8.2624517E-03;  9.9655017E+02;  1.3623381E-01; -2.8581238E+03;3; -3.1636858E-01;  0.0000000E+00; -1.2373013E+00;0; -1.9777030E-01;  2.1486512E+04;  0.0000000E+00; -5.8518507E-02;  4.0000000E+04;  0.0000000E+00;  3.9859641E+04; -2.3108812E-01;  0.0000000E+00;  3.3317812E-02;  9.1104023E+03;
  7.6689357E-01;  9.9999998E-03;  2.6052985E-01;7077; -3.3417810E-02;  0.0000000E+00;  9.9455258E-03;  9.9639789E+02;  1.3615976E-01; -2.9842429E+03;3;  4.1905546E-01;  0.0000000E+00; -1.1074135E+00;0; -1.8965562E-01;  2.1505582E+04;  0.0000000E+00;  8.1325644E-01;  4.0000000E+04;  0.0000000E+00;  3.9854035E+04; -2.3923193E-01;  0.0000000E+00;  4.9576316E-02;  8.6518320E+03;
  7.6665652E-01;  9.9999998E-03;  2.7059194E-01;7078; -3.4922730E-02;  0.0000000E+00;  1.0379010E-02;  9.9611609E+02;  1.3610871E-01; -3.2177163E+03;3;  1.1185483E+00;  0.0000000E+00; -1.1016612E+00;0; -1.8915744E-01;  2.1519057E+04;  0.0000000E+00;  2.5276573E+00;  4.0000000E+04;  0.0000000E+00;  3.9835668E+04; -2.4694957E-01;  0.0000000E+00;  5.7792131E-02;  9.1706914E+03;
  7.6659083E-01;  9.9999998E-03;  2.8063923E-01;7079; -3.6297373E-02;  0.0000000E+00;  1.0466159E-02;  9.9592297E+02;  1.3611206E-01; -3.3777107E+03;3;  1.7841837E+00;  0.0000000E+00; -1.0879643E+00;0; -1.9434927E-01;  2.1517760E+04;  0.0000000E+00;  4.9843202E+00;  4.0000000E+04;  0.0000000E+00;  3.9820375E+04; -2.5430065E-01;  0.0000000E+00;  5.9951376E-02;  1.4001543E+04;
  7.6653594E-01;  9.9999998E-03;  2.9067740E-01;7080; -3.7385896E-02;  0.0000000E+00;  1.0657924E-02;  9.9580121E+02;  1.3612226E-01; -3.4785962E+03;3;  2.4390504E+00;  0.0000000E+00; -1.1358159E+00;0; -2.0043291E-01;  2.1515107E+04;  0.0000000E+00;  8.2112198E+00;  4.0000000E+04;  0.0000000E+00;  3.9810062E+04; -2.6122531E-01;  0.0000000E+00;  6.0792401E-02;  2.1889078E+04;
  7.6642436E-01;  9.9999998E-03;  3.0071104E-01;7081; -3.7963178E-02;  0.0000000E+00;  1.0976523E-02;  9.9574377E+02;  1.3612194E-01; -3.5261997E+03;3;  3.0736990E+00;  0.0000000E+00; -1.1565541E+00;0; -2.0617235E-01;  2.1517160E+04;  0.0000000E+00;  1.2195727E+01;  4.0000000E+04;  0.0000000E+00;  3.9803316E+04; -2.6773414E-01;  0.0000000E+00;  6.1561797E-02;  3.1828266E+04;
  7.8208536E-01;  9.9999998E-03;  2.4057414E-01;7136; -3.4270767E-02;  0.0000000E+00;  7.9459753E-03;  9.9592517E+02;  1.4164189E-01; -3.3758782E+03;3; -1.0771383E+00;  0.0000000E+00; -2.8153794E+00;0; -1.9531657E-01;  1.9869326E+04;  0.0000000E+00; -4.8717901E-01;  4.0000000E+04;  0.0000000E+00;  3.9807203E+04; -2.0321858E-01;  0.0000000E+00;  7.9020131E-03;  6.1201777E+03;
  7.8188640E-01;  9.9999998E-03;  2.5059074E-01;7137; -3.6353372E-02;  0.0000000E+00;  9.5358370E-03;  9.9602191E+02;  1.4159952E-01; -3.2957334E+03;3; -2.9317757E-01;  0.0000000E+00; -2.5816326E+00;0; -1.9800200E-01;  1.9873859E+04;  0.0000000E+00; -3.6265463E-01;  4.0000000E+04;  0.0000000E+00;  3.9826047E+04; -2.1298286E-01;  0.0000000E+00;  1.4980872E-02;  8.2871035E+03;
  7.8161240E-01;  9.9999998E-03;  2.6063147E-01;7138; -3.8176894E-02;  0.0000000E+00;  1.1822874E-02;  9.9594666E+02;  1.4153536E-01; -3.3581013E+03;3;  4.6122786E-01;  0.0000000E+00; -2.3523262E+00;0; -1.8933517E-01;  1.9884252E+04;  0.0000000E+00;  3.1373024E-01;  4.0000000E+04;  0.0000000E+00;  3.9833500E+04; -2.2296409E-01;  0.0000000E+00;  3.3628918E-02;  9.3696758E+03;
  7.8145182E-01;  9.9999998E-03;  2.7068931E-01;7139; -3.9830241E-02;  0.0000000E+00;  1.2986671E-02;  9.9563776E+02;  1.4151494E-01; -3.6139934E+03;3;  1.1954796E+00;  0.0000000E+00; -2.2638755E+00;0; -1.8363187E-01;  1.9883596E+04;  0.0000000E+00;  1.7911427E+00;  4.0000000E+04;  0.0000000E+00;  3.9820273E+04; -2.3248614E-01;  0.0000000E+00;  4.8854273E-02;  1.0144910E+04;
  7.8163737E-01;  9.9999998E-03;  2.8074086E-01;7140; -4.1402407E-02;  0.0000000E+00;  1.3388525E-02;  9.9537976E+02;  1.4161302E-01; -3.8277634E+03;3;  1.9122478E+00;  0.0000000E+00; -2.2674313E+00;0; -1.8523987E-01;  1.9853455E+04;  0.0000000E+00;  3.6408949E+00;  4.0000000E+04;  0.0000000E+00;  3.9803258E+04; -2.4083298E-01;  0.0000000E+00;  5.5593118E-02;  1.4017785E+04;
  7.8181750E-01;  9.9999998E-03;  2.9078314E-01;7141; -4.2677872E-02;  0.0000000E+00;  1.3693390E-02;  9.9516193E+02;  1.4171523E-01; -4.0082014E+03;3;  2.6180685E+00;  0.0000000E+00; -2.2362027E+00;0; -1.9003738E-01;  1.9822346E+04;  0.0000000E+00;  6.1188998E+00;  4.0000000E+04;  0.0000000E+00;  3.9790449E+04; -2.4917822E-01;  0.0000000E+00;  5.9140831E-02;  2.1196480E+04;
  7.8192168E-01;  9.9999998E-03;  3.0082017E-01;7142; -4.3452088E-02;  0.0000000E+00;  1.4074448E-02;  9.9498334E+02;  1.4180043E-01; -4.1561963E+03;3;  3.3175530E+00;  0.0000000E+00; -2.0649734E+00;0; -1.9595951E-01;  1.9795805E+04;  0.0000000E+00;  9.3949766E+00;  4.0000000E+04;  0.0000000E+00;  3.9782020E+04; -2.5784728E-01;  0.0000000E+00;  6.1887778E-02;  3.0991834E+04;
  7.9717904E-01;  9.9999998E-03;  2.4077800E-01;7197; -3.9114591E-02;  0.0000000E+00;  1.0037607E-02;  9.9506525E+02;  1.4748205E-01; -4.0882888E+03;3; -1.0778195E+00;  0.0000000E+00; -4.2122865E+00;0; -1.1100183E-01;  1.8303650E+04;  0.0000000E+00; -4.2253652E-01;  4.0000000E+04;  0.0000000E+00;  3.9751355E+04; -1.0046760E-01;  0.0000000E+00; -1.0534238E-02;  2.8887585E+03;
  7.9714268E-01;  9.9999998E-03;  2.5075525E-01;7198; -4.1528899E-02;  0.0000000E+00;  1.0965962E-02;  9.9520270E+02;  1.4749755E-01; -3.9744165E+03;3; -2.8317308E-01;  0.0000000E+00; -4.0788817E+00;0; -1.1983254E-01;  1.8289949E+04;  0.0000000E+00; -4.7100931E-01;  4.0000000E+04;  0.0000000E+00;  3.9778605E+04; -1.0946884E-01;  0.0000000E+00; -1.0363698E-02;  6.0189346E+03;
  7.9702181E-01;  9.9999998E-03;  2.6076284E-01;7199; -4.3707822E-02;  0.0000000E+00;  1.3179579E-02;  9.9525824E+02;  1.4748745E-01; -3.9284436E+03;3;  4.8861864E-01;  0.0000000E+00; -3.7274845E+00;0; -1.1632696E-01;  1.8282498E+04;  0.0000000E+00; -1.5883449E-01;  4.0000000E+04;  0.0000000E+00;  3.9802316E+04; -1.2002263E-01;  0.0000000E+00;  3.6956714E-03;  8.9664062E+03;
  7.9699314E-01;  9.9999998E-03;  2.7080747E-01;7200; -4.5674078E-02;  0.0000000E+00;  1.4924563E-02;  9.9498523E+02;  1.4751531E-01; -4.1546079E+03;3;  1.2276069E+00;  0.0000000E+00; -3.5842814E+00;0; -1.0814638E-01;  1.8266197E+04;  0.0000000E+00;  7.7041507E-01;  4.0000000E+04;  0.0000000E+00;  3.9799695E+04; -1.3021155E-01;  0.0000000E+00;  2.2065165E-02;  9.9398252E+03;
  7.9719216E-01;  9.9999998E-03;  2.8085616E-01;7201; -4.7502216E-02;  0.0000000E+00;  1.5638787E-02;  9.9460199E+02;  1.4763045E-01; -4.4721260E+03;3;  1.9698073E+00;  0.0000000E+00; -3.4295559E+00;0; -1.0618361E-01;  1.8229352E+04;  0.0000000E+00;  2.2338991E+00;  4.0000000E+04;  0.0000000E+00;  3.9785953E+04; -1.3851714E-01;  0.0000000E+00;  3.2333530E-02;  1.2884611E+04;
  7.9730642E-01;  9.9999998E-03;  2.9089755E-01;7202; -4.9035203E-02;  0.0000000E+00;  1.6123442E-02;  9.9419507E+02;  1.4771965E-01; -4.8092490E+03;3;  2.6863971E+00;  0.0000000E+00; -3.1613126E+00;0; -1.0817974E-01;  1.8197459E+04;  0.0000000E+00;  4.6549206E+00;  4.0000000E+04;  0.0000000E+00;  3.9774426E+04; -1.4827231E-01;  0.0000000E+00;  4.0092565E-02;  2.0398154E+04;
  7.9719919E-01;  9.9999998E-03;  3.0093282E-01;7203; -5.0072577E-02;  0.0000000E+00;  1.6492093E-02;  9.9377869E+02;  1.4773811E-01; -5.1541738E+03;3;  3.4395726E+00;  0.0000000E+00; -2.8648970E+00;0; -1.1528297E-01;  1.8182568E+04;  0.0000000E+00;  8.4729538E+00;  4.0000000E+04;  0.0000000E+00;  3.9767613E+04; -1.6098154E-01;  0.0000000E+00;  4.5698572E-02;  3.2562236E+04;
  8.1193674E-01;  9.9999998E-03;  2.4093793E-01;7258; -4.3976255E-02;  0.0000000E+00;  1.3067801E-02;  9.9364825E+02;  1.5337270E-01; -5.2622563E+03;3; -1.1100754E+00;  0.0000000E+00; -5.4790392E+00;0;  1.0250945E-01;  1.6879041E+04;  0.0000000E+00;  1.0742029E-01;  4.0000000E+04;  0.0000000E+00;  3.9712199E+04;  1.3369380E-01;  0.0000000E+00; -3.1184347E-02;  1.1363744E+03;
  8.1191564E-01;  9.9999998E-03;  2.5089976E-01;7259; -4.6792962E-02;  0.0000000E+00;  1.3408504E-02;  9.9372125E+02;  1.5338922E-01; -5.2017651E+03;3; -3.1278479E-01;  0.0000000E+00; -5.3638701E+00;0;  8.9825258E-02;  1.6863143E+04;  0.0000000E+00;  1.8304107E-01;  4.0000000E+04;  0.0000000E+00;  3.9742035E+04;  1.2655857E-01;  0.0000000E+00; -3.6733314E-02;  4.9243691E+03;
  8.1167883E-01;  9.9999998E-03;  2.6089060E-01;7260; -4.9331661E-02;  0.0000000E+00;  1.4771963E-02;  9.9375317E+02;  1.5332843E-01; -5.1752969E+03;3;  4.4294912E-01;  0.0000000E+00; -5.1960635E+00;0;  8.1234641E-02;  1.6863766E+04;  0.0000000E+00;  5.0993407E-01;  4.0000000E+04;  0.0000000E+00;  3.9772934E+04;  1.1323233E-01;  0.0000000E+00; -3.1997688E-02;  8.9549980E+03;
  8.1143796E-01;  9.9999998E-03;  2.7092028E-01;7261; -5.1613148E-02;  0.0000000E+00;  1.6129354E-02;  9.9349634E+02;  1.5326789E-01; -5.3880791E+03;3;  1.1621242E+00;  0.0000000E+00; -4.8178420E+00;0;  7.7919006E-02;  1.6864943E+04;  0.0000000E+00;  1.3052511E+00;  4.0000000E+04;  0.0000000E+00;  3.9780957E+04;  9.8375820E-02;  0.0000000E+00; -2.0456811E-02;  1.0971046E+04;
  8.1147963E-01;  9.9999998E-03;  2.8096250E-01;7262; -5.3770605E-02;  0.0000000E+00;  1.6924806E-02;  9.9307782E+02;  1.5331393E-01; -5.7348306E+03;3;  1.8822997E+00;  0.0000000E+00; -4.4930396E+00;0;  7.7555098E-02;  1.6843674E+04;  0.0000000E+00;  2.3658595E+00;  4.0000000E+04;  0.0000000E+00;  3.9773742E+04;  8.8328138E-02;  0.0000000E+00; -1.0773043E-02;  1.2784005E+04;
  8.1152791E-01;  9.9999998E-03;  2.9100159E-01;7263; -5.5738483E-02;  0.0000000E+00;  1.7444445E-02;  9.9259863E+02;  1.5337095E-01; -6.1318022E+03;3;  2.5910676E+00;  0.0000000E+00; -4.0594473E+00;0;  7.5371198E-02;  1.6818918E+04;  0.0000000E+00;  3.8650162E+00;  4.0000000E+04;  0.0000000E+00;  3.9765273E+04;  7.7400610E-02;  0.0000000E+00; -2.0294129E-03;  1.6755555E+04;
  8.1145078E-01;  9.9999998E-03;  3.0103630E-01;7264; -5.7466120E-02;  0.0000000E+00;  1.7841412E-02;  9.9205322E+02;  1.5339924E-01; -6.5836855E+03;3;  3.3515244E+00;  0.0000000E+00; -3.5532911E+00;0;  6.9157705E-02;  1.6798758E+04;  0.0000000E+00;  6.2941546E+00;  4.0000000E+04;  0.0000000E+00;  3.9760203E+04;  6.2860027E-02;  0.0000000E+00;  6.2976778E-03;  2.4286977E+04;
  8.2516861E-01;  9.9999998E-03;  2.7103540E-01;7322; -5.7418860E-02;  0.0000000E+00;  1.7667314E-02;  9.9185828E+02;  1.5885952E-01; -6.7451416E+03;3;  9.8074609E-01;  0.0000000E+00; -6.1457992E+00;0;  4.0698925E-01;  1.5655720E+04;  0.0000000E+00;  1.7458553E+00;  4.0000000E+04;  0.0000000E+00;  3.9756125E+04;  4.7577703E-01;  0.0000000E+00; -6.8787783E-02;  1.0588125E+04;
  8.2515293E-01;  9.9999998E-03;  2.8107083E-01;7323; -6.0055975E-02;  0.0000000E+00;  1.7839726E-02;  9.9134045E+02;  1.5888590E-01; -7.1741602E+03;3;  1.6379838E+00;  0.0000000E+00; -5.7758455E+00;0;  3.9582676E-01;  1.5635443E+04;  0.0000000E+00;  2.1371388E+00;  4.0000000E+04;  0.0000000E+00;  3.9756000E+04;  4.6553221E-01;  0.0000000E+00; -6.9705464E-02;  1.0939810E+04;
  8.2521224E-01;  9.9999998E-03;  2.9110664E-01;7324; -6.2645525E-02;  0.0000000E+00;  1.7962530E-02;  9.9075427E+02;  1.5894747E-01; -7.6598184E+03;3;  2.2957129E+00;  0.0000000E+00; -5.2801743E+00;0;  3.8867173E-01;  1.5607974E+04;  0.0000000E+00;  2.6574347E+00;  4.0000000E+04;  0.0000000E+00;  3.9752633E+04;  4.5654479E-01;  0.0000000E+00; -6.7873053E-02;  1.1279526E+04;
  8.2537395E-01;  9.9999998E-03;  2.6101264E-01;7321; -5.4655507E-02;  0.0000000E+00;  1.7075151E-02;  9.9218903E+02;  1.5890692E-01; -6.4711284E+03;3;  2.9535425E-01;  0.0000000E+00; -6.4179049E+00;0;  4.2141610E-01;  1.5660849E+04;  0.0000000E+00;  1.4077317E+00;  4.0000000E+04;  0.0000000E+00;  3.9743406E+04;  4.9058145E-01;  0.0000000E+00; -6.9165334E-02;  8.8408555E+03;
  8.2523757E-01;  9.9999998E-03;  3.0114067E-01;7325; -6.5310791E-02;  0.0000000E+00;  1.8181918E-02;  9.9011676E+02;  1.5901066E-01; -8.1879429E+03;3;  2.9966333E+00;  0.0000000E+00; -4.6314125E+00;0;  3.8467592E-01;  1.5579614E+04;  0.0000000E+00;  3.5108051E+00;  4.0000000E+04;  0.0000000E+00;  3.9750246E+04;  4.4547734E-01;  0.0000000E+00; -6.0801405E-02;  1.2623929E+04;
  8.2564849E-01;  9.9999998E-03;  2.5101981E-01;7320; -5.1683094E-02;  0.0000000E+00;  1.6590271E-02;  9.9231110E+02;  1.5898287E-01; -6.3699966E+03;3; -4.3633699E-01;  0.0000000E+00; -6.5799246E+00;0;  4.4086546E-01;  1.5660203E+04;  0.0000000E+00;  1.1046920E+00;  4.0000000E+04;  0.0000000E+00;  3.9715066E+04;  5.0540251E-01;  0.0000000E+00; -6.4537041E-02;  5.3718755E+03;
  8.2582814E-01;  9.9999998E-03;  2.4104477E-01;7319; -4.8494712E-02;  0.0000000E+00;  1.6872060E-02;  9.9242090E+02;  1.5902691E-01; -6.2790371E+03;3; -1.2068037E+00;  0.0000000E+00; -6.6906290E+00;0;  4.6084934E-01;  1.5665001E+04;  0.0000000E+00;  8.1522679E-01;  4.0000000E+04;  0.0000000E+00;  3.9690277E+04;  5.1442468E-01;  0.0000000E+00; -5.3575352E-02;  2.5871548E+03;
  8.4122491E-01;  9.9999998E-03;  2.8121349E-01;7384; -6.6890202E-02;  0.0000000E+00;  1.9527407E-02;  9.9072150E+02;  1.6511291E-01; -7.6868975E+03;3;  1.1122301E+00;  0.0000000E+00; -6.9085765E+00;0;  9.8124552E-01;  1.4486451E+04;  0.0000000E+00;  1.4722883E+00;  4.0000000E+04;  0.0000000E+00;  3.9712418E+04;  1.1327624E+00;  0.0000000E+00; -1.5151694E-01;  7.9893813E+03;
  8.4136742E-01;  9.9999998E-03;  2.9124293E-01;7385; -7.0377536E-02;  0.0000000E+00;  1.9237613E-02;  9.9008673E+02;  1.6520688E-01; -8.2127979E+03;3;  1.5843230E+00;  0.0000000E+00; -6.3083339E+00;0;  9.7643751E-01;  1.4453260E+04;  0.0000000E+00;  8.4479403E-01;  4.0000000E+04;  0.0000000E+00;  3.9715918E+04;  1.1335995E+00;  0.0000000E+00; -1.5716203E-01;  9.8607881E+03;
  8.4136587E-01;  9.9999998E-03;  3.0127299E-01;7386; -7.4211307E-02;  0.0000000E+00;  1.9196879E-02;  9.8939569E+02;  1.6527177E-01; -8.7853135E+03;3;  2.0519693E+00;  0.0000000E+00; -5.5834475E+00;0;  9.7645742E-01;  1.4425444E+04;  0.0000000E+00;  2.1134548E-01;  4.0000000E+04;  0.0000000E+00;  3.9718754E+04;  1.1269424E+00;  0.0000000E+00; -1.5048499E-01;  1.2424900E+04;
  8.4108937E-01;  9.9999998E-03;  2.7118549E-01;7383; -6.3519217E-02;  0.0000000E+00;  2.0111166E-02;  9.9131433E+02;  1.6503648E-01; -7.1957603E+03;3;  5.7878774E-01;  0.0000000E+00; -7.3246884E+00;0;  9.9517310E-01;  1.4516896E+04;  0.0000000E+00;  1.9002746E+00;  4.0000000E+04;  0.0000000E+00;  3.9708164E+04;  1.1311448E+00;  0.0000000E+00; -1.3597164E-01;  7.4601323E+03;
  8.4123498E-01;  9.9999998E-03;  2.6116577E-01;7382; -6.0172401E-02;  0.0000000E+00;  2.0722164E-02;  9.9183752E+02;  1.6506179E-01; -6.7623481E+03;3; -3.4784947E-02;  0.0000000E+00; -7.5889554E+00;0;  1.0217782E+00;  1.4529225E+04;  0.0000000E+00;  1.9795291E+00;  4.0000000E+04;  0.0000000E+00;  3.9697770E+04;  1.1408416E+00;  0.0000000E+00; -1.1906343E-01;  7.0140137E+03;
  8.4141868E-01;  9.9999998E-03;  2.5116321E-01;7381; -5.6678880E-02;  0.0000000E+00;  2.1265998E-02;  9.9222522E+02;  1.6510688E-01; -6.4411279E+03;3; -7.1712148E-01;  0.0000000E+00; -7.7475824E+00;0;  1.0471158E+00;  1.4537711E+04;  0.0000000E+00;  1.6870415E+00;  4.0000000E+04;  0.0000000E+00;  3.9678809E+04;  1.1490504E+00;  0.0000000E+00; -1.0193457E-01;  5.5444937E+03;
  8.4145027E-01;  9.9999998E-03;  2.4117807E-01;7380; -5.3010110E-02;  0.0000000E+00;  2.1942100E-02;  9.9253247E+02;  1.6510634E-01; -6.1865723E+03;3; -1.4615754E+00;  0.0000000E+00; -7.8380070E+00;0;  1.0622356E+00;  1.4552467E+04;  0.0000000E+00;  1.1944300E+00;  4.0000000E+04;  0.0000000E+00;  3.9659391E+04;  1.1461241E+00;  0.0000000E+00; -8.3888575E-02;  3.9692158E+03;
  8.5810244E-01;  9.9999998E-03;  2.4133396E-01;7441; -5.6822773E-02;  0.0000000E+00;  2.8542109E-02;  9.9502411E+02;  1.7146714E-01; -4.1223511E+03;3; -1.8656759E+00;  0.0000000E+00; -9.0998840E+00;0;  1.9096322E+00;  1.3587166E+04;  0.0000000E+00;  6.6574991E-01;  4.0000000E+04;  0.0000000E+00;  3.9617953E+04;  2.0289395E+00;  0.0000000E+00; -1.1930724E-01;  3.3510654E+03;
  8.5795546E-01;  9.9999998E-03;  2.5133795E-01;7442; -6.0814496E-02;  0.0000000E+00;  2.7242474E-02;  9.9441254E+02;  1.7144231E-01; -4.6289917E+03;3; -1.1560997E+00;  0.0000000E+00; -8.9817820E+00;0;  1.8900235E+00;  1.3575759E+04;  0.0000000E+00;  1.1923182E+00;  4.0000000E+04;  0.0000000E+00;  3.9623793E+04;  2.0372899E+00;  0.0000000E+00; -1.4726633E-01;  3.4454504E+03;
  8.5788101E-01;  9.9999998E-03;  2.6134619E-01;7443; -6.4756520E-02;  0.0000000E+00;  2.5728779E-02;  9.9375293E+02;  1.7144868E-01; -5.1754321E+03;3; -5.5200285E-01;  0.0000000E+00; -8.7852011E+00;0;  1.8654366E+00;  1.3558507E+04;  0.0000000E+00;  1.4153461E+00;  4.0000000E+04;  0.0000000E+00;  3.9630734E+04;  2.0446067E+00;  0.0000000E+00; -1.7917010E-01;  2.3384375E+03;
  8.5802078E-01;  9.9999998E-03;  2.7136368E-01;7444; -6.8706155E-02;  0.0000000E+00;  2.3853051E-02;  9.9304419E+02;  1.7153230E-01; -5.7626108E+03;3; -9.2756107E-02;  0.0000000E+00; -8.4081678E+00;0;  1.8426691E+00;  1.3528558E+04;  0.0000000E+00;  1.2167550E+00;  4.0000000E+04;  0.0000000E+00;  3.9634305E+04;  2.0606058E+00;  0.0000000E+00; -2.1793664E-01;  1.2767782E+03;
  8.5819238E-01;  9.9999998E-03;  2.8138056E-01;7445; -7.2807878E-02;  0.0000000E+00;  2.2246381E-02;  9.9239056E+02;  1.7163266E-01; -6.3041128E+03;3;  1.9134276E-01;  0.0000000E+00; -7.7441812E+00;0;  1.8231059E+00;  1.3495425E+04;  0.0000000E+00;  6.8973404E-01;  4.0000000E+04;  0.0000000E+00;  3.9642348E+04;  2.0758927E+00;  0.0000000E+00; -2.5278676E-01;  5.2651143E+03;
  8.5813719E-01;  9.9999998E-03;  2.9139811E-01;7446; -7.7260956E-02;  0.0000000E+00;  2.1521386E-02;  9.9176660E+02;  1.7166881E-01; -6.8210732E+03;3;  3.1911495E-01;  0.0000000E+00; -6.8235245E+00;0;  1.8113631E+00;  1.3472532E+04;  0.0000000E+00; -3.1006572E-01;  4.0000000E+04;  0.0000000E+00;  3.9654668E+04;  2.0760193E+00;  0.0000000E+00; -2.6465622E-01;  1.1111885E+04;
  8.5796106E-01;  9.9999998E-03;  3.0142167E-01;7447; -8.2417600E-02;  0.0000000E+00;  2.1369636E-02;  9.9108453E+02;  1.7167829E-01; -7.3861309E+03;3;  3.5221323E-01;  0.0000000E+00; -5.7888923E+00;0;  1.8146884E+00;  1.3454548E+04;  0.0000000E+00; -1.6757473E+00;  4.0000000E+04;  0.0000000E+00;  3.9664219E+04;  2.0685349E+00;  0.0000000E+00; -2.5384647E-01;  1.7776471E+04;
  8.7680292E-01;  9.9999998E-03;  2.4153844E-01;7502; -5.9681125E-02;  0.0000000E+00;  3.7127454E-02;  9.9899713E+02;  1.7765300E-01; -8.3081409E+02;3; -2.6565006E+00;  0.0000000E+00; -1.0184834E+01;0;  3.0007567E+00;  1.2795579E+04;  0.0000000E+00; -2.1759237E-01;  4.0000000E+04;  0.0000000E+00;  3.9549895E+04;  3.1588471E+00;  0.0000000E+00; -1.5809043E-01;  6.9518164E+03;
  8.7659436E-01;  9.9999998E-03;  2.5154522E-01;7503; -6.3893788E-02;  0.0000000E+00;  3.5056930E-02;  9.9814050E+02;  1.7762163E-01; -1.5404998E+03;3; -2.0036893E+00;  0.0000000E+00; -9.9915514E+00;0;  2.9814398E+00;  1.2786075E+04;  0.0000000E+00;  1.3315986E-01;  4.0000000E+04;  0.0000000E+00;  3.9541531E+04;  3.1830549E+00;  0.0000000E+00; -2.0161502E-01;  7.9610010E+03;
  8.7681574E-01;  9.9999998E-03;  2.6154670E-01;7504; -6.8151876E-02;  0.0000000E+00;  3.2498397E-02;  9.9734680E+02;  1.7772660E-01; -2.1980403E+03;3; -1.5558956E+00;  0.0000000E+00; -9.7221785E+00;0;  2.9720635E+00;  1.2757739E+04;  0.0000000E+00;  3.3940253E-01;  4.0000000E+04;  0.0000000E+00;  3.9538492E+04;  3.2274971E+00;  0.0000000E+00; -2.5543344E-01;  8.2344795E+03;
  8.7721026E-01;  9.9999998E-03;  2.7154583E-01;7505; -7.2552539E-02;  0.0000000E+00;  2.9709110E-02;  9.9668030E+02;  1.7789051E-01; -2.7502039E+03;3; -1.3239963E+00;  0.0000000E+00; -9.0728045E+00;0;  2.9608431E+00;  1.2720631E+04;  0.0000000E+00;  5.7625037E-01;  4.0000000E+04;  0.0000000E+00;  3.9544277E+04;  3.2781317E+00;  0.0000000E+00; -3.1728855E-01;  7.3911064E+03;
  8.7726128E-01;  9.9999998E-03;  2.8154179E-01;7506; -7.7396691E-02;  0.0000000E+00;  2.7915414E-02;  9.9616461E+02;  1.7795594E-01; -3.1774373E+03;3; -1.3579365E+00;  0.0000000E+00; -8.0014114E+00;0;  2.9419644E+00;  1.2695611E+04;  0.0000000E+00;  7.3510265E-01;  4.0000000E+04;  0.0000000E+00;  3.9565098E+04;  3.3029120E+00;  0.0000000E+00; -3.6094758E-01;  4.8028335E+03;
  8.7705350E-01;  9.9999998E-03;  2.9154748E-01;7507; -8.3222903E-02;  0.0000000E+00;  2.7326802E-02;  9.9564313E+02;  1.7794751E-01; -3.6094607E+03;3; -1.8295685E+00;  0.0000000E+00; -6.8018680E+00;0;  2.9383416E+00;  1.2680315E+04;  0.0000000E+00;  4.9448824E-01;  4.0000000E+04;  0.0000000E+00;  3.9588426E+04;  3.3077562E+00;  0.0000000E+00; -3.6941460E-01;  3.5157812E+03;
  8.7670803E-01;  9.9999998E-03;  3.0156642E-01;7508; -9.0466090E-02;  0.0000000E+00;  2.7568141E-02;  9.9501001E+02;  1.7790303E-01; -4.1339731E+03;3; -2.6181414E+00;  0.0000000E+00; -5.2682796E+00;0;  2.9577985E+00;  1.2670403E+04;  0.0000000E+00; -2.5705066E-01;  4.0000000E+04;  0.0000000E+00;  3.9604062E+04;  3.3016665E+00;  0.0000000E+00; -3.4386802E-01;  6.6644238E+03;
  8.9552611E-01;  9.9999998E-03;  2.4164847E-01;7563; -6.1150923E-02;  0.0000000E+00;  4.7408532E-02;  1.0025775E+03;  1.8225123E-01;  2.1353550E+03;3; -4.3970213E+00;  0.0000000E+00; -1.0963376E+01;0;  4.0144477E+00;  1.2273424E+04;  0.0000000E+00; -2.8702128E-01;  4.0000000E+04;  0.0000000E+00;  3.9499305E+04;  4.1950889E+00;  0.0000000E+00; -1.8064126E-01;  1.1260659E+04;
  8.9546418E-01;  9.9999998E-03;  2.5166598E-01;7564; -6.5637052E-02;  0.0000000E+00;  4.4801097E-02;  1.0017302E+03;  1.8228269E-01;  1.4333800E+03;3; -3.8914871E+00;  0.0000000E+00; -1.0494238E+01;0;  4.0137787E+00;  1.2261061E+04;  0.0000000E+00; -2.7511054E-01;  4.0000000E+04;  0.0000000E+00;  3.9481434E+04;  4.2548738E+00;  0.0000000E+00; -2.4109526E-01;  1.3466029E+04;
  8.9598572E-01;  9.9999998E-03;  2.6165110E-01;7565; -7.0341617E-02;  0.0000000E+00;  4.2228993E-02;  1.0010993E+03;  1.8241873E-01;  9.1075018E+02;3; -3.7832694E+00;  0.0000000E+00; -9.7058716E+00;0;  4.0269680E+00;  1.2233740E+04;  0.0000000E+00; -2.8735396E-01;  4.0000000E+04;  0.0000000E+00;  3.9483867E+04;  4.3362160E+00;  0.0000000E+00; -3.0924785E-01;  1.3091790E+04;
  8.9645123E-01;  9.9999998E-03;  2.7162403E-01;7566; -7.5570688E-02;  0.0000000E+00;  4.1073643E-02;  1.0007751E+03;  1.8253312E-01;  6.4212701E+02;3; -4.4172583E+00;  0.0000000E+00; -8.2891159E+00;0;  4.0473499E+00;  1.2207215E+04;  0.0000000E+00; -1.2702657E-01;  4.0000000E+04;  0.0000000E+00;  3.9511344E+04;  4.4092126E+00;  0.0000000E+00; -3.6186251E-01;  9.5560381E+03;
  8.9666474E-01;  9.9999998E-03;  2.8161037E-01;7567; -8.1849948E-02;  0.0000000E+00;  4.2186145E-02;  1.0005535E+03;  1.8260568E-01;  4.5853510E+02;3; -6.1742921E+00;  0.0000000E+00; -5.3589530E+00;0;  4.0973172E+00;  1.2185329E+04;  0.0000000E+00;  2.0087744E-01;  4.0000000E+04;  0.0000000E+00;  3.9548160E+04;  4.4639034E+00;  0.0000000E+00; -3.6658621E-01;  5.0534780E+03;
  8.9652592E-01;  9.9999998E-03;  2.9161796E-01;7568; -9.0076201E-02;  0.0000000E+00;  4.5250140E-02;  1.0002217E+03;  1.8262139E-01;  1.8369060E+02;3; -7.6924009E+00;  0.0000000E+00; -2.8499746E+00;0;  4.1867595E+00;  1.2170702E+04;  0.0000000E+00;  3.7531480E-01;  4.0000000E+04;  0.0000000E+00;  3.9576938E+04;  4.4939466E+00;  0.0000000E+00; -3.0718696E-01;  2.2339346E+03;
  8.9619350E-01;  9.9999998E-03;  3.0164108E-01;7569; -1.0131797E-01;  0.0000000E+00;  5.0028801E-02;  9.9974701E+02;  1.8260147E-01; -2.0956532E+02;3; -1.0637664E+01;  0.0000000E+00;  6.0024202E-01;0;  4.3161526E+00;  1.2160940E+04;  0.0000000E+00;  2.0967954E-01;  4.0000000E+04;  0.0000000E+00;  3.9594148E+04;  4.5063882E+00;  0.0000000E+00; -1.9023541E-01;  1.5796776E+03;
  9.1556263E-01;  9.9999998E-03;  2.4166022E-01;7624;  2.6764044E-01;  0.0000000E+00;  9.3060978E-02;  1.0043119E+03;  1.8496788E-01;  3.5721387E+03;3; -7.7626968E+01;  0.0000000E+00; -8.8382435E+00;0;  4.7797923E+00;  1.1973809E+04;  0.0000000E+00; -2.5089017E-01;  4.0000000E+04;  0.0000000E+00;  3.9468438E+04;  4.7900109E+00;  0.0000000E+00; -1.0218857E-02;  1.3762239E+04;
  9.1559291E-01;  9.9999998E-03;  2.5169584E-01;7625;  2.6412803E-01;  0.0000000E+00;  8.5424945E-02;  1.0035330E+03;  1.8502821E-01;  2.9268604E+03;3; -8.4263992E+01;  0.0000000E+00; -9.5190716E+00;0;  4.8347960E+00;  1.1962600E+04;  0.0000000E+00; -3.3466512E-01;  4.0000000E+04;  0.0000000E+00;  3.9443168E+04;  4.8835034E+00;  0.0000000E+00; -4.8707247E-02;  1.6877559E+04;
  9.1594207E-01;  9.9999998E-03;  2.6170540E-01;7626;  2.6348868E-01;  0.0000000E+00;  7.5944468E-02;  1.0028393E+03;  1.8511727E-01;  2.3521929E+03;3; -8.9019951E+01;  0.0000000E+00; -1.0138062E+01;0;  4.8523998E+00;  1.1945553E+04;  0.0000000E+00; -3.9331713E-01;  4.0000000E+04;  0.0000000E+00;  3.9428801E+04;  4.9718356E+00;  0.0000000E+00; -1.1943594E-01;  1.8658445E+04;
  9.1630083E-01;  9.9999998E-03;  2.7170467E-01;7627;  2.5777352E-01;  0.0000000E+00;  6.5668143E-02;  1.0023178E+03;  1.8519801E-01;  1.9201306E+03;3; -9.3444389E+01;  0.0000000E+00; -9.9093628E+00;0;  4.8238764E+00;  1.1927484E+04;  0.0000000E+00; -3.5780910E-01;  4.0000000E+04;  0.0000000E+00;  3.9429555E+04;  5.0532036E+00;  0.0000000E+00; -2.2932728E-01;  1.8512451E+04;
  9.1652417E-01;  9.9999998E-03;  2.8169957E-01;7628;  2.4965703E-01;  0.0000000E+00;  5.8034711E-02;  1.0020620E+03;  1.8526207E-01;  1.7081980E+03;3; -9.8028244E+01;  0.0000000E+00; -9.1447649E+00;0;  4.7926202E+00;  1.1910658E+04;  0.0000000E+00; -1.5648925E-01;  4.0000000E+04;  0.0000000E+00;  3.9452641E+04;  5.1254578E+00;  0.0000000E+00; -3.3283776E-01;  1.5662504E+04;
  9.1649115E-01;  9.9999998E-03;  2.9170623E-01;7629;  2.3968118E-01;  0.0000000E+00;  5.3030480E-02;  1.0018860E+03;  1.8529662E-01;  1.5624329E+03;3; -1.0304022E+02;  0.0000000E+00; -8.1677456E+00;0;  4.7857594E+00;  1.1897331E+04;  0.0000000E+00;  1.7008093E-01;  4.0000000E+04;  0.0000000E+00;  3.9482297E+04;  5.1860046E+00;  0.0000000E+00; -4.0024513E-01;  1.2192799E+04;
  9.1631126E-01;  9.9999998E-03;  3.0172640E-01;7630;  2.2975826E-01;  0.0000000E+00;  4.9394641E-02;  1.0016785E+03;  1.8530883E-01;  1.3905961E+03;3; -1.0765564E+02;  0.0000000E+00; -7.3646569E+00;0;  4.8023334E+00;  1.1886897E+04;  0.0000000E+00;  5.3434891E-01;  4.0000000E+04;  0.0000000E+00;  3.9508941E+04;  5.2344275E+00;  0.0000000E+00; -4.3209410E-01;  9.6119717E+03;
  9.3486685E-01;  9.9999998E-03;  2.4148029E-01;7685;  4.3904594E-01;  0.0000000E+00;  1.1807854E-01;  1.0050750E+03;  1.8612865E-01;  4.2042007E+03;3; -3.8264301E+01;  0.0000000E+00;  2.3477721E-01;0;  4.6565256E+00;  1.1837172E+04;  0.0000000E+00; -3.7710202E-01;  4.0000000E+04;  0.0000000E+00;  3.9496863E+04;  4.5416012E+00;  0.0000000E+00;  1.1492445E-01;  9.3200332E+03;
  9.3475229E-01;  9.9999998E-03;  2.5155336E-01;7686;  4.3852147E-01;  0.0000000E+00;  1.1294740E-01;  1.0044214E+03;  1.8617669E-01;  3.6628264E+03;3; -4.5552063E+01;  0.0000000E+00; -1.6899842E+00;0;  4.7691922E+00;  1.1828771E+04;  0.0000000E+00; -2.2657278E-01;  4.0000000E+04;  0.0000000E+00;  3.9474812E+04;  4.6530757E+00;  0.0000000E+00;  1.1611658E-01;  1.2049601E+04;
  9.3502539E-01;  9.9999998E-03;  2.6160610E-01;7687;  4.3854201E-01;  0.0000000E+00;  1.0533901E-01;  1.0037168E+03;  1.8623434E-01;  3.0790837E+03;3; -5.1591770E+01;  0.0000000E+00; -3.1685729E+00;0;  4.8442039E+00;  1.1816650E+04;  0.0000000E+00;  5.3806096E-02;  4.0000000E+04;  0.0000000E+00;  3.9452379E+04;  4.7461400E+00;  0.0000000E+00;  9.8064154E-02;  1.4855945E+04;
  9.3542790E-01;  9.9999998E-03;  2.7164757E-01;7688;  4.3633237E-01;  0.0000000E+00;  9.4962806E-02;  1.0030284E+03;  1.8629019E-01;  2.5087720E+03;3; -5.6842331E+01;  0.0000000E+00; -4.6744008E+00;0;  4.8601117E+00;  1.1803017E+04;  0.0000000E+00;  4.8598886E-01;  4.0000000E+04;  0.0000000E+00;  3.9433621E+04;  4.8288083E+00;  0.0000000E+00;  3.1303234E-02;  1.7326926E+04;
  9.3573737E-01;  9.9999998E-03;  2.8167412E-01;7689;  4.3211955E-01;  0.0000000E+00;  8.4957734E-02;  1.0025596E+03;  1.8634048E-01;  2.1204670E+03;3; -6.1573467E+01;  0.0000000E+00; -5.6948166E+00;0;  4.8407631E+00;  1.1789133E+04;  0.0000000E+00;  1.1477467E+00;  4.0000000E+04;  0.0000000E+00;  3.9434613E+04;  4.9065142E+00;  0.0000000E+00; -6.5750994E-02;  1.7691564E+04;
  9.3588221E-01;  9.9999998E-03;  2.9169953E-01;7690;  4.2849892E-01;  0.0000000E+00;  7.7534050E-02;  1.0022745E+03;  1.8638125E-01;  1.8842446E+03;3; -6.6047539E+01;  0.0000000E+00; -6.0009332E+00;0;  4.8304682E+00;  1.1776321E+04;  0.0000000E+00;  2.0850766E+00;  4.0000000E+04;  0.0000000E+00;  3.9450652E+04;  4.9796557E+00;  0.0000000E+00; -1.4918762E-01;  1.7211189E+04;
  9.3594325E-01;  9.9999998E-03;  3.0173224E-01;7691;  4.2787492E-01;  0.0000000E+00;  7.2009809E-02;  1.0020515E+03;  1.8641134E-01;  1.6994739E+03;3; -6.9611938E+01;  0.0000000E+00; -5.8446226E+00;0;  4.8369293E+00;  1.1765331E+04;  0.0000000E+00;  3.1437798E+00;  4.0000000E+04;  0.0000000E+00;  3.9469699E+04;  5.0448942E+00;  0.0000000E+00; -2.0796502E-01;  1.7708100E+04;
  9.5453757E-01;  9.9999998E-03;  2.4130759E-01;7746;  5.2197969E-01;  0.0000000E+00;  1.2753114E-01;  1.0050977E+03;  1.8623623E-01;  4.2228535E+03;3;  2.8826296E+00;  0.0000000E+00;  1.0953623E+01;0;  3.9508734E+00;  1.1812399E+04;  0.0000000E+00; -6.8763882E-01;  4.0000000E+04;  0.0000000E+00;  3.9517598E+04;  3.7247248E+00;  0.0000000E+00;  2.2614852E-01;  6.3458926E+03;
  9.5442700E-01;  9.9999998E-03;  2.5138858E-01;7747;  5.2939999E-01;  0.0000000E+00;  1.2543611E-01;  1.0045461E+03;  1.8627398E-01;  3.7659263E+03;3; -4.8402395E+00;  0.0000000E+00;  8.8210907E+00;0;  4.0916858E+00;  1.1802910E+04;  0.0000000E+00; -2.2502911E-01;  4.0000000E+04;  0.0000000E+00;  3.9505199E+04;  3.8383114E+00;  0.0000000E+00;  2.5337422E-01;  7.8598071E+03;
  9.5468092E-01;  9.9999998E-03;  2.6146203E-01;7748;  5.3446734E-01;  0.0000000E+00;  1.2029989E-01;  1.0038841E+03;  1.8630657E-01;  3.2175525E+03;3; -1.1759946E+01;  0.0000000E+00;  6.4733214E+00;0;  4.1984477E+00;  1.1791876E+04;  0.0000000E+00;  5.2126992E-01;  4.0000000E+04;  0.0000000E+00;  3.9487082E+04;  3.9282596E+00;  0.0000000E+00;  2.7018818E-01;  1.0384202E+04;
  9.5514566E-01;  9.9999998E-03;  2.7153060E-01;7749;  5.3704548E-01;  0.0000000E+00;  1.1126871E-01;  1.0031548E+03;  1.8633924E-01;  2.6133831E+03;3; -1.7044615E+01;  0.0000000E+00;  5.1791563E+00;0;  4.2384071E+00;  1.1780409E+04;  0.0000000E+00;  1.5182736E+00;  4.0000000E+04;  0.0000000E+00;  3.9463145E+04;  4.0018029E+00;  0.0000000E+00;  2.3660402E-01;  1.4111108E+04;
  9.5553493E-01;  9.9999998E-03;  2.8158259E-01;7750;  5.3776658E-01;  0.0000000E+00;  1.0196096E-01;  1.0025649E+03;  1.8637067E-01;  2.1247551E+03;3; -2.1910858E+01;  0.0000000E+00;  4.6127124E+00;0;  4.2366738E+00;  1.1768268E+04;  0.0000000E+00;  2.7217412E+00;  4.0000000E+04;  0.0000000E+00;  3.9452812E+04;  4.0722923E+00;  0.0000000E+00;  1.6438144E-01;  1.7158104E+04;
  9.5587194E-01;  9.9999998E-03;  2.9162574E-01;7751;  5.4044104E-01;  0.0000000E+00;  9.4757996E-02;  1.0021690E+03;  1.8640397E-01;  1.7967975E+03;3; -2.5092117E+01;  0.0000000E+00;  3.5018675E+00;0;  4.2279310E+00;  1.1756230E+04;  0.0000000E+00;  4.0219808E+00;  4.0000000E+04;  0.0000000E+00;  3.9459145E+04;  4.1363673E+00;  0.0000000E+00;  9.1563888E-02;  1.9706973E+04;
  9.5617133E-01;  9.9999998E-03;  3.0167094E-01;7752;  5.4676861E-01;  0.0000000E+00;  8.9738205E-02;  1.0018963E+03;  1.8643351E-01;  1.5708516E+03;3; -2.7521267E+01;  0.0000000E+00;  3.3442018E+00;0;  4.2299995E+00;  1.1745729E+04;  0.0000000E+00;  5.0541773E+00;  4.0000000E+04;  0.0000000E+00;  3.9471203E+04;  4.1925817E+00;  0.0000000E+00;  3.7418090E-02;  2.1898121E+04;
  9.7342783E-01;  9.9999998E-03;  2.4117778E-01;7807;  5.5655158E-01;  0.0000000E+00;  1.2296569E-01;  1.0050664E+03;  1.8565612E-01;  4.1968389E+03;3;  3.6881485E+01;  0.0000000E+00;  2.3417969E+01;0;  3.0408001E+00;  1.1872478E+04;  0.0000000E+00; -7.9095030E-01;  4.0000000E+04;  0.0000000E+00;  3.9528965E+04;  2.7205141E+00;  0.0000000E+00;  3.2028615E-01;  4.9784917E+03;
  9.7357118E-01;  9.9999998E-03;  2.5125867E-01;7808;  5.6998098E-01;  0.0000000E+00;  1.2263505E-01;  1.0046008E+03;  1.8567570E-01;  3.8111233E+03;3;  3.0642582E+01;  0.0000000E+00;  2.0847586E+01;0;  3.1690319E+00;  1.1863577E+04;  0.0000000E+00; -2.3584744E-01;  4.0000000E+04;  0.0000000E+00;  3.9521355E+04;  2.8112643E+00;  0.0000000E+00;  3.5776755E-01;  5.9588491E+03;
  9.7390056E-01;  9.9999998E-03;  2.6133475E-01;7809;  5.8074546E-01;  0.0000000E+00;  1.2024069E-01;  1.0040435E+03;  1.8568717E-01;  3.3494690E+03;3;  2.4917961E+01;  0.0000000E+00;  1.8035822E+01;0;  3.2816012E+00;  1.1853678E+04;  0.0000000E+00;  5.5909550E-01;  4.0000000E+04;  0.0000000E+00;  3.9510375E+04;  2.8867614E+00;  0.0000000E+00;  3.9483970E-01;  7.7494360E+03;
  9.7445756E-01;  9.9999998E-03;  2.7141425E-01;7810;  5.8857352E-01;  0.0000000E+00;  1.1337889E-01;  1.0033741E+03;  1.8569830E-01;  2.7949902E+03;3;  1.8595547E+01;  0.0000000E+00;  1.5244393E+01;0;  3.3285975E+00;  1.1844215E+04;  0.0000000E+00;  1.5482737E+00;  4.0000000E+04;  0.0000000E+00;  3.9488988E+04;  2.9444201E+00;  0.0000000E+00;  3.8417754E-01;  1.1308199E+04;
  9.7489887E-01;  9.9999998E-03;  2.8148258E-01;7811;  5.9347695E-01;  0.0000000E+00;  1.0394050E-01;  1.0027285E+03;  1.8571337E-01;  2.2601636E+03;3;  1.4277075E+01;  0.0000000E+00;  1.4662987E+01;0;  3.3076649E+00;  1.1833509E+04;  0.0000000E+00;  2.6372368E+00;  4.0000000E+04;  0.0000000E+00;  3.9473145E+04;  3.0028059E+00;  0.0000000E+00;  3.0485895E-01;  1.4996882E+04;
  9.7535920E-01;  9.9999998E-03;  2.9153821E-01;7812;  5.9974051E-01;  0.0000000E+00;  9.6971519E-02;  1.0022725E+03;  1.8573207E-01;  1.8824476E+03;3;  1.0863074E+01;  0.0000000E+00;  1.4727231E+01;0;  3.2753563E+00;  1.1822528E+04;  0.0000000E+00;  3.5567832E+00;  4.0000000E+04;  0.0000000E+00;  3.9473625E+04;  3.0519178E+00;  0.0000000E+00;  2.2343846E-01;  1.7446385E+04;
  9.7579396E-01;  9.9999998E-03;  3.0159089E-01;7813;  6.0973567E-01;  0.0000000E+00;  9.3113281E-02;  1.0019370E+03;  1.8575656E-01;  1.6045670E+03;3;  9.0493546E+00;  0.0000000E+00;  1.4327748E+01;0;  3.2666540E+00;  1.1811902E+04;  0.0000000E+00;  3.9697046E+00;  4.0000000E+04;  0.0000000E+00;  3.9483375E+04;  3.0930464E+00;  0.0000000E+00;  1.7360748E-01;  1.8206842E+04;
  9.9210668E-01;  9.9999998E-03;  2.4108781E-01;7868;  5.7042634E-01;  0.0000000E+00;  1.0818695E-01;  1.0052451E+03;  1.8459870E-01;  4.3446724E+03;3;  6.3456837E+01;  0.0000000E+00;  3.5150677E+01;0;  2.1639721E+00;  1.1999485E+04;  0.0000000E+00; -4.1246673E-01;  4.0000000E+04;  0.0000000E+00;  3.9539887E+04;  1.7610958E+00;  0.0000000E+00;  4.0287641E-01;  4.2199307E+03;
  9.9241096E-01;  9.9999998E-03;  2.5117430E-01;7869;  5.8771044E-01;  0.0000000E+00;  1.0959452E-01;  1.0048613E+03;  1.8459709E-01;  4.0268093E+03;3;  5.9745697E+01;  0.0000000E+00;  3.1316225E+01;0;  2.2778254E+00;  1.1993946E+04;  0.0000000E+00; -8.7399006E-02;  4.0000000E+04;  0.0000000E+00;  3.9529961E+04;  1.8294673E+00;  0.0000000E+00;  4.4835818E-01;  5.2205898E+03;
  9.9274594E-01;  9.9999998E-03;  2.6124969E-01;7870;  6.0221714E-01;  0.0000000E+00;  1.0884283E-01;  1.0044094E+03;  1.8459561E-01;  3.6523660E+03;3;  5.5646370E+01;  0.0000000E+00;  2.9107359E+01;0;  2.3818154E+00;  1.1986789E+04;  0.0000000E+00;  2.6528642E-01;  4.0000000E+04;  0.0000000E+00;  3.9521664E+04;  1.8918422E+00;  0.0000000E+00;  4.8997322E-01;  6.2533657E+03;
  9.9318743E-01;  9.9999998E-03;  2.7133113E-01;7871;  6.1455572E-01;  0.0000000E+00;  1.0430438E-01;  1.0038030E+03;  1.8459027E-01;  3.1501470E+03;3;  5.1658035E+01;  0.0000000E+00;  2.6579849E+01;0;  2.4344528E+00;  1.1979072E+04;  0.0000000E+00;  6.3993496E-01;  4.0000000E+04;  0.0000000E+00;  3.9503543E+04;  1.9437796E+00;  0.0000000E+00;  4.9067321E-01;  8.5744072E+03;
  9.9358177E-01;  9.9999998E-03;  2.8140718E-01;7872;  6.2389845E-01;  0.0000000E+00;  9.5755681E-02;  1.0031427E+03;  1.8459094E-01;  2.6031985E+03;3;  4.6671879E+01;  0.0000000E+00;  2.3597458E+01;0;  2.4005265E+00;  1.1969873E+04;  0.0000000E+00;  1.0115596E+00;  4.0000000E+04;  0.0000000E+00;  3.9484840E+04;  1.9927504E+00;  0.0000000E+00;  4.0777600E-01;  1.1221438E+04;
  9.9407852E-01;  9.9999998E-03;  2.9146945E-01;7873;  6.3370293E-01;  0.0000000E+00;  8.8911273E-02;  1.0026525E+03;  1.8459858E-01;  2.1970596E+03;3;  4.3247631E+01;  0.0000000E+00;  2.3521339E+01;0;  2.3382227E+00;  1.1960082E+04;  0.0000000E+00;  1.1277692E+00;  4.0000000E+04;  0.0000000E+00;  3.9482027E+04;  2.0296924E+00;  0.0000000E+00;  3.0853033E-01;  1.1929973E+04;
  9.9452382E-01;  9.9999998E-03;  3.0152532E-01;7874;  6.4558524E-01;  0.0000000E+00;  8.5573100E-02;  1.0022499E+03;  1.8461779E-01;  1.8635980E+03;3;  4.2778564E+01;  0.0000000E+00;  2.3573271E+01;0;  2.3069451E+00;  1.1948646E+04;  0.0000000E+00;  9.9273098E-01;  4.0000000E+04;  0.0000000E+00;  3.9491867E+04;  2.0618062E+00;  0.0000000E+00;  2.4513894E-01;  1.0877977E+04;
  1.0097498E+00;  9.9999998E-03;  2.4103455E-01;7929;  5.7476550E-01;  0.0000000E+00;  8.6052276E-02;  1.0054371E+03;  1.8315998E-01;  4.5034048E+03;3;  7.7845619E+01;  0.0000000E+00;  4.5097389E+01;0;  1.4843737E+00;  1.2182715E+04;  0.0000000E+00; -5.1636584E-02;  4.0000000E+04;  0.0000000E+00;  3.9553605E+04;  1.0224174E+00;  0.0000000E+00;  4.6195629E-01;  3.2568376E+03;
  1.0100471E+00;  9.9999998E-03;  2.5112844E-01;7930;  5.9466010E-01;  0.0000000E+00;  8.9415126E-02;  1.0051162E+03;  1.8315187E-01;  4.2376924E+03;3;  7.6182678E+01;  0.0000000E+00;  3.8115501E+01;0;  1.5895754E+00;  1.2180510E+04;  0.0000000E+00; -1.6163040E-02;  4.0000000E+04;  0.0000000E+00;  3.9539027E+04;  1.0752627E+00;  0.0000000E+00;  5.1431274E-01;  4.2163354E+03;
  1.0102794E+00;  9.9999998E-03;  2.6120764E-01;7931;  6.1137885E-01;  0.0000000E+00;  8.9226790E-02;  1.0047033E+03;  1.8314768E-01;  3.8956562E+03;3;  7.6758972E+01;  0.0000000E+00;  3.5862949E+01;0;  1.6751376E+00;  1.2176031E+04;  0.0000000E+00; -2.5297761E-02;  4.0000000E+04;  0.0000000E+00;  3.9526152E+04;  1.1274893E+00;  0.0000000E+00;  5.4764831E-01;  5.4261724E+03;
  1.0104709E+00;  9.9999998E-03;  2.7128562E-01;7932;  6.2667292E-01;  0.0000000E+00;  8.6370826E-02;  1.0041683E+03;  1.8314101E-01;  3.4525125E+03;3;  7.6157082E+01;  0.0000000E+00;  3.3263004E+01;0;  1.7207433E+00;  1.2169756E+04;  0.0000000E+00; -7.5968965E-03;  4.0000000E+04;  0.0000000E+00;  3.9509391E+04;  1.1773975E+00;  0.0000000E+00;  5.4334581E-01;  7.3900254E+03;
  1.0107015E+00;  9.9999998E-03;  2.8136113E-01;7933;  6.4008373E-01;  0.0000000E+00;  7.9846658E-02;  1.0035532E+03;  1.8313798E-01;  2.9431150E+03;3;  7.3928658E+01;  0.0000000E+00;  3.1070152E+01;0;  1.6828502E+00;  1.2161920E+04;  0.0000000E+00;  9.6644126E-02;  4.0000000E+04;  0.0000000E+00;  3.9491266E+04;  1.2214020E+00;  0.0000000E+00;  4.6144816E-01;  9.8190049E+03;
  1.0110036E+00;  9.9999998E-03;  2.9142502E-01;7934;  6.5293014E-01;  0.0000000E+00;  7.4291736E-02;  1.0030433E+03;  1.8314223E-01;  2.5207065E+03;3;  7.2522163E+01;  0.0000000E+00;  3.0437412E+01;0;  1.6132575E+00;  1.2152256E+04;  0.0000000E+00;  2.9802451E-01;  4.0000000E+04;  0.0000000E+00;  3.9487367E+04;  1.2576642E+00;  0.0000000E+00;  3.5559329E-01;  1.0925182E+04;
  1.0113029E+00;  9.9999998E-03;  3.0148187E-01;7935;  6.6600633E-01;  0.0000000E+00;  7.1606271E-02;  1.0025863E+03;  1.8316092E-01;  2.1421389E+03;3;  7.2729729E+01;  0.0000000E+00;  3.0169655E+01;0;  1.5670481E+00;  1.2139665E+04;  0.0000000E+00;  6.7458880E-01;  4.0000000E+04;  0.0000000E+00;  3.9497082E+04;  1.2889766E+00;  0.0000000E+00;  2.7807149E-01;  1.1151203E+04;
  1.0263277E+00;  9.9999998E-03;  2.4101953E-01;7990;  5.7517600E-01;  0.0000000E+00;  5.5758644E-02;  1.0054417E+03;  1.8137795E-01;  4.5069561E+03;3;  8.3615242E+01;  0.0000000E+00;  5.9269573E+01;0;  1.0109318E+00;  1.2419079E+04;  0.0000000E+00; -2.4928600E-02;  4.0000000E+04;  0.0000000E+00;  3.9565734E+04;  5.3602773E-01;  0.0000000E+00;  4.7490409E-01;  2.2272244E+03;
  1.0264882E+00;  9.9999998E-03;  2.5111589E-01;7991;  5.9690773E-01;  0.0000000E+00;  6.5653749E-02;  1.0051656E+03;  1.8137358E-01;  4.2782876E+03;3;  8.3417908E+01;  0.0000000E+00;  3.9628677E+01;0;  1.1301472E+00;  1.2418976E+04;  0.0000000E+00; -1.7507961E-01;  4.0000000E+04;  0.0000000E+00;  3.9546582E+04;  5.7387084E-01;  0.0000000E+00;  5.5627638E-01;  2.9053530E+03;
  1.0267117E+00;  9.9999998E-03;  2.6119557E-01;7992;  6.1487722E-01;  0.0000000E+00;  6.5648422E-02;  1.0047899E+03;  1.8137047E-01;  3.9671765E+03;3;  8.4235695E+01;  0.0000000E+00;  3.6291153E+01;0;  1.1909783E+00;  1.2417190E+04;  0.0000000E+00; -3.0289143E-01;  4.0000000E+04;  0.0000000E+00;  3.9528570E+04;  6.0904431E-01;  0.0000000E+00;  5.8193392E-01;  4.8302383E+03;
  1.0269749E+00;  9.9999998E-03;  2.7126691E-01;7993;  6.3103163E-01;  0.0000000E+00;  6.3513160E-02;  1.0043445E+03;  1.8136100E-01;  3.5983071E+03;3;  8.6066650E+01;  0.0000000E+00;  3.4067139E+01;0;  1.2097089E+00;  1.2413727E+04;  0.0000000E+00; -3.0877104E-01;  4.0000000E+04;  0.0000000E+00;  3.9512113E+04;  6.4136857E-01;  0.0000000E+00;  5.6834036E-01;  7.0568877E+03;
  1.0272354E+00;  9.9999998E-03;  2.8133643E-01;7994;  6.4628685E-01;  0.0000000E+00;  5.8765750E-02;  1.0038301E+03;  1.8135250E-01;  3.1721738E+03;3;  8.6704529E+01;  0.0000000E+00;  3.3474751E+01;0;  1.1585181E+00;  1.2408023E+04;  0.0000000E+00; -6.3061386E-02;  4.0000000E+04;  0.0000000E+00;  3.9496590E+04;  6.7142034E-01;  0.0000000E+00;  4.8709777E-01;  9.7867070E+03;
  1.0274597E+00;  9.9999998E-03;  2.9139829E-01;7995;  6.6064513E-01;  0.0000000E+00;  5.4643549E-02;  1.0033597E+03;  1.8135531E-01;  2.7825728E+03;3;  8.7065018E+01;  0.0000000E+00;  3.3151310E+01;0;  1.0778716E+00;  1.2399540E+04;  0.0000000E+00;  5.4068565E-01;  4.0000000E+04;  0.0000000E+00;  3.9492672E+04;  6.9965553E-01;  0.0000000E+00;  3.7821600E-01;  1.2308646E+04;
  1.0276475E+00;  9.9999998E-03;  3.0145469E-01;7996;  6.7454767E-01;  0.0000000E+00;  5.2705906E-02;  1.0029096E+03;  1.8137163E-01;  2.4098564E+03;3;  8.7475853E+01;  0.0000000E+00;  3.3540207E+01;0;  1.0141412E+00;  1.2387702E+04;  0.0000000E+00;  1.5626731E+00;  4.0000000E+04;  0.0000000E+00;  3.9501004E+04;  7.2600287E-01;  0.0000000E+00;  2.8813833E-01;  1.5476136E+04;
  1.0433701E+00;  9.9999998E-03;  2.5111929E-01;8052;  5.9597772E-01;  0.0000000E+00;  3.5202239E-02;  1.0047788E+03;  1.7913893E-01;  3.9576533E+03;3;  8.9454239E+01;  0.0000000E+00;  5.1523048E+01;0;  8.2554817E-01;  1.2720764E+04;  0.0000000E+00; -7.0161361E-01;  4.0000000E+04;  0.0000000E+00;  3.9560746E+04;  2.7305636E-01;  0.0000000E+00;  5.5249184E-01;  5.5491382E+02;
  1.0432841E+00;  9.9999998E-03;  2.4103352E-01;8051;  5.7454669E-01;  0.0000000E+00;  1.6162362E-02;  1.0049545E+03;  1.7913052E-01;  4.1031753E+03;3;  8.5864616E+01;  0.0000000E+00;  5.6126247E+01;0;  6.9723326E-01;  1.2719544E+04;  0.0000000E+00; -3.6407885E-01;  4.0000000E+04;  0.0000000E+00;  3.9578945E+04;  2.6108694E-01;  0.0000000E+00;  4.3614632E-01;  1.8376180E+03;
  1.0435133E+00;  9.9999998E-03;  2.6119646E-01;8053;  6.1592281E-01;  0.0000000E+00;  4.0067293E-02;  1.0044402E+03;  1.7914261E-01;  3.6771750E+03;3;  8.8071899E+01;  0.0000000E+00;  3.4410355E+01;0;  8.9781058E-01;  1.2720369E+04;  0.0000000E+00; -9.5142144E-01;  4.0000000E+04;  0.0000000E+00;  3.9539938E+04;  2.8698549E-01;  0.0000000E+00;  6.1082506E-01;  3.0837158E+03;
  1.0436857E+00;  9.9999998E-03;  2.7126351E-01;8054;  6.3248628E-01;  0.0000000E+00;  3.8549449E-02;  1.0040356E+03;  1.7913696E-01;  3.3421025E+03;3;  8.8904366E+01;  0.0000000E+00;  3.2543541E+01;0;  8.9392823E-01;  1.2718308E+04;  0.0000000E+00; -9.7606951E-01;  4.0000000E+04;  0.0000000E+00;  3.9522035E+04;  3.0094129E-01;  0.0000000E+00;  5.9298694E-01;  5.3817510E+03;
  1.0439550E+00;  9.9999998E-03;  2.8132659E-01;8055;  6.4783996E-01;  0.0000000E+00;  3.4780078E-02;  1.0035758E+03;  1.7912742E-01;  2.9613196E+03;3;  9.0461433E+01;  0.0000000E+00;  3.1995077E+01;0;  8.2339591E-01;  1.2714187E+04;  0.0000000E+00; -5.9615433E-01;  4.0000000E+04;  0.0000000E+00;  3.9508113E+04;  3.1382632E-01;  0.0000000E+00;  5.0956959E-01;  7.9981553E+03;
  1.0441922E+00;  9.9999998E-03;  2.9138488E-01;8056;  6.6250402E-01;  0.0000000E+00;  3.1846803E-02;  1.0031499E+03;  1.7912503E-01;  2.6085757E+03;3;  9.1489540E+01;  0.0000000E+00;  3.2823170E+01;0;  7.2771156E-01;  1.2707721E+04;  0.0000000E+00;  3.0611080E-01;  4.0000000E+04;  0.0000000E+00;  3.9503871E+04;  3.2710275E-01;  0.0000000E+00;  4.0060881E-01;  1.1453075E+04;
  1.0443869E+00;  9.9999998E-03;  3.0144018E-01;8057;  6.7701256E-01;  0.0000000E+00;  3.0935302E-02;  1.0027540E+03;  1.7913195E-01;  2.2807117E+03;3;  9.2905472E+01;  0.0000000E+00;  3.3536633E+01;0;  6.5025502E-01;  1.2698902E+04;  0.0000000E+00;  1.7030439E+00;  4.0000000E+04;  0.0000000E+00;  3.9509523E+04;  3.4083760E-01;  0.0000000E+00;  3.0941743E-01;  1.6541635E+04;
  1.0611080E+00;  9.9999998E-03;  2.4105172E-01;8112;  5.7272226E-01;  0.0000000E+00; -2.3414180E-02;  1.0031509E+03;  1.7621385E-01;  2.6091670E+03;3;  8.7147858E+01;  0.0000000E+00;  4.8535961E+01;0;  5.7089221E-01;  1.3096460E+04;  0.0000000E+00; -8.5335535E-01;  4.0000000E+04;  0.0000000E+00;  3.9600066E+04;  1.9878550E-01;  0.0000000E+00;  3.7210673E-01;  4.1450220E+03;
  1.0611935E+00;  9.9999998E-03;  2.5112277E-01;8113;  5.9351504E-01;  0.0000000E+00; -1.0115169E-02;  1.0031203E+03;  1.7623484E-01;  2.5837961E+03;3;  8.9010742E+01;  0.0000000E+00;  5.1408836E+01;0;  6.1184025E-01;  1.3099029E+04;  0.0000000E+00; -1.3934214E+00;  4.0000000E+04;  0.0000000E+00;  3.9588176E+04;  1.7363521E-01;  0.0000000E+00;  4.3820503E-01;  3.6348354E+03;
  1.0613263E+00;  9.9999998E-03;  2.6119113E-01;8114;  6.1404759E-01;  0.0000000E+00;  9.9761337E-03;  1.0028947E+03;  1.7624252E-01;  2.3969312E+03;3;  9.2262047E+01;  0.0000000E+00;  4.2605785E+01;0;  7.5165451E-01;  1.3100336E+04;  0.0000000E+00; -1.8168701E+00;  4.0000000E+04;  0.0000000E+00;  3.9573246E+04;  1.5499304E-01;  0.0000000E+00;  5.9666145E-01;  3.4486033E+03;
  1.0614009E+00;  9.9999998E-03;  2.7125844E-01;8115;  6.3174093E-01;  0.0000000E+00;  1.2947846E-02;  1.0025223E+03;  1.7624198E-01;  2.0886516E+03;3;  9.0665085E+01;  0.0000000E+00;  2.9275110E+01;0;  7.6759124E-01;  1.3099404E+04;  0.0000000E+00; -1.9952072E+00;  4.0000000E+04;  0.0000000E+00;  3.9553633E+04;  1.4086424E-01;  0.0000000E+00;  6.2672698E-01;  3.3290129E+03;
  1.0615726E+00;  9.9999998E-03;  2.8132075E-01;8116;  6.4688522E-01;  0.0000000E+00;  9.8331217E-03;  1.0020769E+03;  1.7623663E-01;  1.7197618E+03;3;  9.1607033E+01;  0.0000000E+00;  2.8462755E+01;0;  6.7752677E-01;  1.3096330E+04;  0.0000000E+00; -1.7969444E+00;  4.0000000E+04;  0.0000000E+00;  3.9537113E+04;  1.2962455E-01;  0.0000000E+00;  5.4790223E-01;  3.8029719E+03;
  1.0618162E+00;  9.9999998E-03;  2.9137766E-01;8117;  6.6134727E-01;  0.0000000E+00;  7.2384928E-03;  1.0016530E+03;  1.7622939E-01;  1.3687391E+03;3;  9.2874252E+01;  0.0000000E+00;  3.0857918E+01;0;  5.5640441E-01;  1.3091430E+04;  0.0000000E+00; -1.0478107E+00;  4.0000000E+04;  0.0000000E+00;  3.9530453E+04;  1.2099306E-01;  0.0000000E+00;  4.3541133E-01;  5.6303906E+03;
  1.0620451E+00;  9.9999998E-03;  3.0143201E-01;8118;  6.7563266E-01;  0.0000000E+00;  7.3093153E-03;  1.0012888E+03;  1.7622656E-01;  1.0671724E+03;3;  9.4828476E+01;  0.0000000E+00;  3.1377199E+01;0;  4.6478277E-01;  1.3085202E+04;  0.0000000E+00;  2.6965043E-01;  4.0000000E+04;  0.0000000E+00;  3.9532473E+04;  1.1483045E-01;  0.0000000E+00;  3.4995234E-01;  1.0253777E+04;
  1.0795196E+00;  9.9999998E-03;  2.4107715E-01;8173;  5.6992847E-01;  0.0000000E+00; -6.1963286E-02;  9.9981409E+02;  1.7253941E-01; -1.5391718E+02;3;  8.7374481E+01;  0.0000000E+00;  4.1107571E+01;0;  6.3014007E-01;  1.3567668E+04;  0.0000000E+00; -9.2376882E-01;  4.0000000E+04;  0.0000000E+00;  3.9623445E+04;  3.6010581E-01;  0.0000000E+00;  2.7003422E-01;  6.7903032E+03;
  1.0798769E+00;  9.9999998E-03;  2.5113016E-01;8174;  5.8993500E-01;  0.0000000E+00; -5.4418836E-02;  9.9987128E+02;  1.7252104E-01; -1.0659182E+02;3;  8.9472832E+01;  0.0000000E+00;  4.2690186E+01;0;  5.8387363E-01;  1.3576344E+04;  0.0000000E+00; -1.5271256E+00;  4.0000000E+04;  0.0000000E+00;  3.9622430E+04;  2.9162723E-01;  0.0000000E+00;  2.9224643E-01;  7.2750649E+03;
  1.0804551E+00;  9.9999998E-03;  2.6117918E-01;8175;  6.0932976E-01;  0.0000000E+00; -3.7768416E-02;  9.9975879E+02;  1.7247000E-01; -1.9971043E+02;3;  9.1030861E+01;  0.0000000E+00;  4.6270615E+01;0;  6.2934589E-01;  1.3584465E+04;  0.0000000E+00; -2.0867445E+00;  4.0000000E+04;  0.0000000E+00;  3.9625113E+04;  2.3432443E-01;  0.0000000E+00;  3.9502147E-01;  8.1593887E+03;
  1.0807822E+00;  9.9999998E-03;  2.7124023E-01;8176;  6.2834394E-01;  0.0000000E+00; -1.6231585E-02;  9.9945239E+02;  1.7244224E-01; -4.5335648E+02;3;  9.2746735E+01;  0.0000000E+00;  3.6365269E+01;0;  7.8818196E-01;  1.3586969E+04;  0.0000000E+00; -2.3985665E+00;  4.0000000E+04;  0.0000000E+00;  3.9616039E+04;  1.8202101E-01;  0.0000000E+00;  6.0616094E-01;  7.3025273E+03;
  1.0809653E+00;  9.9999998E-03;  2.8130877E-01;8177;  6.4404023E-01;  0.0000000E+00; -1.3202167E-02;  9.9894629E+02;  1.7243083E-01; -8.7236542E+02;3;  9.2006927E+01;  0.0000000E+00;  2.2151415E+01;0;  7.5963509E-01;  1.3585334E+04;  0.0000000E+00; -2.3446529E+00;  4.0000000E+04;  0.0000000E+00;  3.9594555E+04;  1.3534319E-01;  0.0000000E+00;  6.2429190E-01;  4.3606846E+03;
  1.0812849E+00;  9.9999998E-03;  2.9137126E-01;8178;  6.5782583E-01;  0.0000000E+00; -1.7638592E-02;  9.9842114E+02;  1.7240541E-01; -1.3071620E+03;3;  9.3622383E+01;  0.0000000E+00;  2.3122417E+01;0;  5.8860421E-01;  1.3583489E+04;  0.0000000E+00; -1.7714051E+00;  4.0000000E+04;  0.0000000E+00;  3.9578684E+04;  9.5558889E-02;  0.0000000E+00;  4.9304533E-01;  1.0653651E+03;
  1.0816836E+00;  9.9999998E-03;  3.0142620E-01;8179;  6.7115211E-01;  0.0000000E+00; -1.6898364E-02;  9.9801093E+02;  1.7237052E-01; -1.6467638E+03;3;  9.5429558E+01;  0.0000000E+00;  2.6638170E+01;0;  4.8101375E-01;  1.3582129E+04;  0.0000000E+00; -5.6457078E-01;  4.0000000E+04;  0.0000000E+00;  3.9575156E+04;  6.1020356E-02;  0.0000000E+00;  4.1999340E-01;  5.2277344E+03;
  1.0977697E+00;  9.9999998E-03;  2.4110247E-01;8234;  5.6634510E-01;  0.0000000E+00; -9.6068792E-02;  9.9565393E+02;  1.6832522E-01; -3.5974688E+03;3;  8.7723297E+01;  0.0000000E+00;  3.4317608E+01;0;  8.9214039E-01;  1.4129866E+04;  0.0000000E+00; -5.8405167E-01;  4.0000000E+04;  0.0000000E+00;  3.9647438E+04;  7.5689679E-01;  0.0000000E+00;  1.3524356E-01;  9.1895596E+03;
  1.0984240E+00;  9.9999998E-03;  2.5114414E-01;8235;  5.8544409E-01;  0.0000000E+00; -9.1834284E-02;  9.9569641E+02;  1.6824244E-01; -3.5622603E+03;3;  9.0112633E+01;  0.0000000E+00;  3.4083817E+01;0;  7.7462739E-01;  1.4146127E+04;  0.0000000E+00; -1.1168900E+00;  4.0000000E+04;  0.0000000E+00;  3.9656594E+04;  6.4803296E-01;  0.0000000E+00;  1.2659444E-01;  1.0513881E+04;
  1.0993382E+00;  9.9999998E-03;  2.6117939E-01;8236;  6.0422951E-01;  0.0000000E+00; -7.9979189E-02;  9.9565271E+02;  1.6811781E-01; -3.5983801E+03;3;  9.1830536E+01;  0.0000000E+00;  3.7860867E+01;0;  7.2490770E-01;  1.4163480E+04;  0.0000000E+00; -1.7364975E+00;  4.0000000E+04;  0.0000000E+00;  3.9673867E+04;  5.5668908E-01;  0.0000000E+00;  1.6821860E-01;  1.2828478E+04;
  1.0998858E+00;  9.9999998E-03;  2.7122414E-01;8237;  6.2248564E-01;  0.0000000E+00; -5.6311946E-02;  9.9552826E+02;  1.6804416E-01; -3.7013679E+03;3;  9.2379753E+01;  0.0000000E+00;  4.2403828E+01;0;  8.3604562E-01;  1.4171359E+04;  0.0000000E+00; -2.2764466E+00;  4.0000000E+04;  0.0000000E+00;  3.9685711E+04;  4.6666488E-01;  0.0000000E+00;  3.6938077E-01;  1.4345660E+04;
  1.1002666E+00;  9.9999998E-03;  2.8128996E-01;8238;  6.3912064E-01;  0.0000000E+00; -3.3633199E-02;  9.9505780E+02;  1.6799529E-01; -4.0907593E+03;3;  9.2775131E+01;  0.0000000E+00;  2.7808792E+01;0;  1.0319670E+00;  1.4173743E+04;  0.0000000E+00; -2.5218923E+00;  4.0000000E+04;  0.0000000E+00;  3.9672953E+04;  3.8341573E-01;  0.0000000E+00;  6.4855134E-01;  1.2657692E+04;
  1.1007162E+00;  9.9999998E-03;  2.9136229E-01;8239;  6.5245253E-01;  0.0000000E+00; -3.2813687E-02;  9.9433398E+02;  1.6793801E-01; -4.6898687E+03;3;  9.3343102E+01;  0.0000000E+00;  1.2482420E+01;0;  9.4239485E-01;  1.4175685E+04;  0.0000000E+00; -2.2588103E+00;  4.0000000E+04;  0.0000000E+00;  3.9645621E+04;  3.1155261E-01;  0.0000000E+00;  6.3084221E-01;  8.9542998E+03;
  1.1012447E+00;  9.9999998E-03;  3.0142215E-01;8240;  6.6490388E-01;  0.0000000E+00; -3.7245482E-02;  9.9374194E+02;  1.6787234E-01; -5.1798843E+03;3;  9.5486671E+01;  0.0000000E+00;  1.8348570E+01;0;  7.3277974E-01;  1.4177966E+04;  0.0000000E+00; -1.3860675E+00;  4.0000000E+04;  0.0000000E+00;  3.9631773E+04;  2.4937147E-01;  0.0000000E+00;  4.8340827E-01;  8.1392681E+03;
  1.1154102E+00;  9.9999998E-03;  2.4114661E-01;8295;  5.6140161E-01;  0.0000000E+00; -1.2433258E-01;  9.9198944E+02;  1.6389214E-01; -6.6289932E+03;3;  8.7588570E+01;  0.0000000E+00;  2.5939754E+01;0;  1.3578787E+00;  1.4785762E+04;  0.0000000E+00; -2.5003517E-01;  4.0000000E+04;  0.0000000E+00;  3.9661461E+04;  1.3829188E+00;  0.0000000E+00; -2.5040122E-02;  1.0265663E+04;
  1.1160668E+00;  9.9999998E-03;  2.5117880E-01;8296;  5.7966632E-01;  0.0000000E+00; -1.1997313E-01;  9.9202490E+02;  1.6378418E-01; -6.5995708E+03;3;  9.3019363E+01;  0.0000000E+00;  2.6424866E+01;0;  1.1832029E+00;  1.4804624E+04;  0.0000000E+00; -8.1329411E-01;  4.0000000E+04;  0.0000000E+00;  3.9676520E+04;  1.2341344E+00;  0.0000000E+00; -5.0931543E-02;  1.2219003E+04;
  1.1169292E+00;  9.9999998E-03;  2.6120532E-01;8297;  5.9811395E-01;  0.0000000E+00; -1.1137771E-01;  9.9206384E+02;  1.6363871E-01; -6.5672632E+03;3;  9.2806465E+01;  0.0000000E+00;  2.5960548E+01;0;  1.0501922E+00;  1.4825836E+04;  0.0000000E+00; -1.7113600E+00;  4.0000000E+04;  0.0000000E+00;  3.9701156E+04;  1.1076885E+00;  0.0000000E+00; -5.7496361E-02;  1.5415557E+04;
  1.1175302E+00;  9.9999998E-03;  2.7123490E-01;8298;  6.1581767E-01;  0.0000000E+00; -9.3406253E-02;  9.9209058E+02;  1.6353737E-01; -6.5450479E+03;3;  9.2472870E+01;  0.0000000E+00;  3.5561382E+01;0;  1.0354193E+00;  1.4837496E+04;  0.0000000E+00; -2.7922246E+00;  4.0000000E+04;  0.0000000E+00;  3.9728699E+04;  9.8527211E-01;  0.0000000E+00;  5.0147276E-02;  1.9022770E+04;
  1.1179792E+00;  9.9999998E-03;  2.8128314E-01;8299;  6.3181204E-01;  0.0000000E+00; -6.4231001E-02;  9.9183795E+02;  1.6346191E-01; -6.7540239E+03;3;  9.3666618E+01;  0.0000000E+00;  4.0034973E+01;0;  1.2538835E+00;  1.4842375E+04;  0.0000000E+00; -3.6667383E+00;  4.0000000E+04;  0.0000000E+00;  3.9738363E+04;  8.7168121E-01;  0.0000000E+00;  3.8220227E-01;  2.0362744E+04;
  1.1184944E+00;  9.9999998E-03;  2.9135224E-01;8300;  6.4495140E-01;  0.0000000E+00; -4.4264134E-02;  9.9110559E+02;  1.6337810E-01; -7.3599814E+03;3;  9.5282608E+01;  0.0000000E+00;  2.2774855E+01;0;  1.4456656E+00;  1.4846858E+04;  0.0000000E+00; -3.9377122E+00;  4.0000000E+04;  0.0000000E+00;  3.9716883E+04;  7.7467537E-01;  0.0000000E+00;  6.7099017E-01;  1.7598359E+04;
  1.1190993E+00;  9.9999998E-03;  3.0142075E-01;8301;  6.5660089E-01;  0.0000000E+00; -4.6780307E-02;  9.9021814E+02;  1.6328591E-01; -8.0942485E+03;3;  9.6877975E+01;  0.0000000E+00;  8.3795538E+00;0;  1.2799060E+00;  1.4851251E+04;  0.0000000E+00; -3.3446548E+00;  4.0000000E+04;  0.0000000E+00;  3.9689148E+04;  6.9323850E-01;  0.0000000E+00;  5.8666760E-01;  1.3811485E+04;
  1.1321129E+00;  9.9999998E-03;  2.4120693E-01;8356;  5.5629343E-01;  0.0000000E+00; -1.3929960E-01;  9.8977930E+02;  1.5946080E-01; -8.4551982E+03;3;  8.7983604E+01;  0.0000000E+00;  7.0236354E+00;0;  2.0137289E+00;  1.5541132E+04;  0.0000000E+00; -3.3170417E-01;  4.0000000E+04;  0.0000000E+00;  3.9664730E+04;  2.1804254E+00;  0.0000000E+00; -1.6669647E-01;  9.9818516E+03;
  1.1326698E+00;  9.9999998E-03;  2.5123698E-01;8357;  5.7334280E-01;  0.0000000E+00; -1.3798942E-01;  9.8973248E+02;  1.5935558E-01; -8.4937998E+03;3;  9.3610680E+01;  0.0000000E+00;  8.3451757E+00;0;  1.7751241E+00;  1.5557444E+04;  0.0000000E+00; -1.1118258E+00;  4.0000000E+04;  0.0000000E+00;  3.9678684E+04;  2.0002217E+00;  0.0000000E+00; -2.2509760E-01;  1.1888530E+04;
  1.1333879E+00;  9.9999998E-03;  2.6125801E-01;8358;  5.9030795E-01;  0.0000000E+00; -1.3267052E-01;  9.8974316E+02;  1.5921707E-01; -8.4848379E+03;3;  9.1151497E+01;  0.0000000E+00;  1.8403727E+01;0;  1.5629878E+00;  1.5577204E+04;  0.0000000E+00; -2.4971893E+00;  4.0000000E+04;  0.0000000E+00;  3.9703676E+04;  1.8449259E+00;  0.0000000E+00; -2.8193805E-01;  1.5449917E+04;
  1.1339505E+00;  9.9999998E-03;  2.7127686E-01;8359;  6.0722345E-01;  0.0000000E+00; -1.1928348E-01;  9.8978943E+02;  1.5910496E-01; -8.4464688E+03;3;  9.6168488E+01;  0.0000000E+00;  2.4680998E+01;0;  1.4501444E+00;  1.5589509E+04;  0.0000000E+00; -4.2308135E+00;  4.0000000E+04;  0.0000000E+00;  3.9737395E+04;  1.6987013E+00;  0.0000000E+00; -2.4855682E-01;  2.0351438E+04;
  1.1342621E+00;  9.9999998E-03;  2.8130624E-01;8360;  6.2303853E-01;  0.0000000E+00; -9.8140359E-02;  9.8968231E+02;  1.5903987E-01; -8.5350117E+03;3;  9.3779053E+01;  0.0000000E+00;  3.2650085E+01;0;  1.5006217E+00;  1.5590193E+04;  0.0000000E+00; -5.5598621E+00;  4.0000000E+04;  0.0000000E+00;  3.9765375E+04;  1.5573903E+00;  0.0000000E+00; -5.6768674E-02;  2.4200383E+04;
  1.1345160E+00;  9.9999998E-03;  2.9135567E-01;8361;  6.3538182E-01;  0.0000000E+00; -7.0553392E-02;  9.8916565E+02;  1.5899803E-01; -8.9623467E+03;3;  9.5555054E+01;  0.0000000E+00;  3.7924679E+01;0;  1.7525544E+00;  1.5584972E+04;  0.0000000E+00; -5.8143868E+00;  4.0000000E+04;  0.0000000E+00;  3.9767098E+04;  1.4319922E+00;  0.0000000E+00;  3.2056221E-01;  2.4168381E+04;
  1.1348624E+00;  9.9999998E-03;  3.0142155E-01;8362;  6.4542741E-01;  0.0000000E+00; -5.4406065E-02;  9.8820801E+02;  1.5895654E-01; -9.7544678E+03;3;  9.8360497E+01;  0.0000000E+00;  1.9376539E+01;0;  1.8943832E+00;  1.5578346E+04;  0.0000000E+00; -4.8076835E+00;  4.0000000E+04;  0.0000000E+00;  3.9740414E+04;  1.3281745E+00;  0.0000000E+00;  5.6620878E-01;  2.0081865E+04;
  1.1477937E+00;  9.9999998E-03;  2.4127249E-01;8417;  5.5634058E-01;  0.0000000E+00; -1.3791211E-01;  9.8905408E+02;  1.5514816E-01; -9.0516094E+03;3;  7.3701569E+01;  0.0000000E+00; -1.8220545E+01;0;  2.7755907E+00;  1.6387662E+04;  0.0000000E+00; -1.1430146E+00;  4.0000000E+04;  0.0000000E+00;  3.9660203E+04;  3.0385113E+00;  0.0000000E+00; -2.6292056E-01;  9.0613623E+03;
  1.1482080E+00;  9.9999998E-03;  2.5130540E-01;8418;  5.6883621E-01;  0.0000000E+00; -1.3978989E-01;  9.8884479E+02;  1.5506163E-01; -9.2245576E+03;3;  8.4359917E+01;  0.0000000E+00; -1.1455051E+01;0;  2.5041788E+00;  1.6396697E+04;  0.0000000E+00; -2.2116499E+00;  4.0000000E+04;  0.0000000E+00;  3.9668762E+04;  2.8451607E+00;  0.0000000E+00; -3.4098193E-01;  1.0728626E+04;
  1.1486135E+00;  9.9999998E-03;  2.6132512E-01;8419;  5.8202624E-01;  0.0000000E+00; -1.3901119E-01;  9.8871875E+02;  1.5497921E-01; -9.3286982E+03;3;  8.9616020E+01;  0.0000000E+00; -2.6784949E+00;0;  2.2323565E+00;  1.6403273E+04;  0.0000000E+00; -3.8729205E+00;  4.0000000E+04;  0.0000000E+00;  3.9688031E+04;  2.6674123E+00;  0.0000000E+00; -4.3505570E-01;  1.4275723E+04;
  1.1489512E+00;  9.9999998E-03;  2.7133730E-01;8420;  5.9660059E-01;  0.0000000E+00; -1.3278265E-01;  9.8867883E+02;  1.5490784E-01; -9.3616309E+03;3;  9.6560013E+01;  0.0000000E+00;  7.0439963E+00;0;  2.0147932E+00;  1.6405262E+04;  0.0000000E+00; -5.7384362E+00;  4.0000000E+04;  0.0000000E+00;  3.9720805E+04;  2.5024893E+00;  0.0000000E+00; -4.8769626E-01;  1.9470250E+04;
  1.1491506E+00;  9.9999998E-03;  2.8135464E-01;8421;  6.1199784E-01;  0.0000000E+00; -1.1788933E-01;  9.8858228E+02;  1.5486278E-01; -9.4414238E+03;3;  1.0230350E+02;  0.0000000E+00;  1.7189011E+01;0;  1.9526734E+00;  1.6399215E+04;  0.0000000E+00; -6.9002290E+00;  4.0000000E+04;  0.0000000E+00;  3.9756129E+04;  2.3470647E+00;  0.0000000E+00; -3.9439124E-01;  2.4017791E+04;
  1.1493872E+00;  9.9999998E-03;  2.9138714E-01;8422;  6.2407321E-01;  0.0000000E+00; -1.0031615E-01;  9.8820203E+02;  1.5482530E-01; -9.7557637E+03;3;  9.7332947E+01;  0.0000000E+00;  2.3090231E+01;0;  2.0242209E+00;  1.6390012E+04;  0.0000000E+00; -6.6707206E+00;  4.0000000E+04;  0.0000000E+00;  3.9776301E+04;  2.2133455E+00;  0.0000000E+00; -1.8912446E-01;  2.5518568E+04;
  1.1497637E+00;  9.9999998E-03;  3.0143586E-01;8423;  6.3157994E-01;  0.0000000E+00; -7.5465389E-02;  9.8741333E+02;  1.5478157E-01; -1.0407820E+04;3;  1.0092971E+02;  0.0000000E+00;  3.0195440E+01;0;  2.3036251E+00;  1.6380607E+04;  0.0000000E+00; -4.8373299E+00;  4.0000000E+04;  0.0000000E+00;  3.9771590E+04;  2.1078799E+00;  0.0000000E+00;  1.9574523E-01;  2.3440592E+04;
  1.1626725E+00;  9.9999998E-03;  2.4133527E-01;8478;  5.8953553E-01;  0.0000000E+00; -1.1423758E-01;  9.8948218E+02;  1.5100816E-01; -8.6935771E+03;3; -3.2180340E+01;  0.0000000E+00; -4.3725368E+01;0;  3.5592465E+00;  1.7311924E+04;  0.0000000E+00; -2.4535220E+00;  4.0000000E+04;  0.0000000E+00;  3.9650777E+04;  3.8325367E+00;  0.0000000E+00; -2.7329022E-01;  8.4664189E+03;
  1.1628090E+00;  9.9999998E-03;  2.5137052E-01;8479;  5.8092713E-01;  0.0000000E+00; -1.2146407E-01;  9.8910443E+02;  1.5097748E-01; -9.0057363E+03;3;  1.8484606E+01;  0.0000000E+00; -4.6206642E+01;0;  3.2975502E+00;  1.7304346E+04;  0.0000000E+00; -3.6557066E+00;  4.0000000E+04;  0.0000000E+00;  3.9653527E+04;  3.6475298E+00;  0.0000000E+00; -3.4997952E-01;  1.0175051E+04;
  1.1631352E+00;  9.9999998E-03;  2.6139313E-01;8480;  5.8209306E-01;  0.0000000E+00; -1.2705293E-01;  9.8879327E+02;  1.5090823E-01; -9.2628506E+03;3;  5.7290211E+01;  0.0000000E+00; -3.7661926E+01;0;  3.0163515E+00;  1.7304658E+04;  0.0000000E+00; -5.3857074E+00;  4.0000000E+04;  0.0000000E+00;  3.9665027E+04;  3.4818311E+00;  0.0000000E+00; -4.6547952E-01;  1.3562779E+04;
  1.1635250E+00;  9.9999998E-03;  2.7140617E-01;8481;  5.8933538E-01;  0.0000000E+00; -1.2905465E-01;  9.8858746E+02;  1.5083042E-01; -9.4328359E+03;3;  8.2047569E+01;  0.0000000E+00; -2.5886024E+01;0;  2.7470818E+00;  1.7305408E+04;  0.0000000E+00; -7.1793523E+00;  4.0000000E+04;  0.0000000E+00;  3.9690125E+04;  3.3318114E+00;  0.0000000E+00; -5.8472961E-01;  1.8150332E+04;
  1.1638482E+00;  9.9999998E-03;  2.8141934E-01;8482;  5.9941822E-01;  0.0000000E+00; -1.2480041E-01;  9.8839996E+02;  1.5076844E-01; -9.5876650E+03;3;  9.7199356E+01;  0.0000000E+00; -1.3475175E+01;0;  2.5663862E+00;  1.7300475E+04;  0.0000000E+00; -8.0145006E+00;  4.0000000E+04;  0.0000000E+00;  3.9724250E+04;  3.1927063E+00;  0.0000000E+00; -6.2632000E-01;  2.1940895E+04;
  1.1642329E+00;  9.9999998E-03;  2.9144251E-01;8483;  6.0879445E-01;  0.0000000E+00; -1.1390430E-01;  9.8803156E+02;  1.5070671E-01; -9.8920342E+03;3;  1.0301266E+02;  0.0000000E+00; -5.4748619E-01;0;  2.5477293E+00;  1.7293350E+04;  0.0000000E+00; -7.0452805E+00;  4.0000000E+04;  0.0000000E+00;  3.9752426E+04;  3.0740955E+00;  0.0000000E+00; -5.2636617E-01;  2.3074832E+04;
  1.1647767E+00;  9.9999998E-03;  3.0147609E-01;8484;  6.1378008E-01;  0.0000000E+00; -9.8044515E-02;  9.8736877E+02;  1.5063272E-01; -1.0439646E+04;3;  1.0631307E+02;  0.0000000E+00;  1.4425525E+01;0;  2.6933258E+00;  1.7286887E+04;  0.0000000E+00; -3.7357278E+00;  4.0000000E+04;  0.0000000E+00;  3.9767238E+04;  2.9837534E+00;  0.0000000E+00; -2.9042774E-01;  2.1797445E+04;
  1.1774273E+00;  9.9999998E-03;  2.4138373E-01;8539;  6.8293524E-01;  0.0000000E+00; -8.8747971E-02;  9.9079913E+02;  1.4698511E-01; -7.6006699E+03;3; -8.9521309E+01;  0.0000000E+00; -3.9867455E+01;0;  4.2054453E+00;  1.8321154E+04;  0.0000000E+00; -3.9410717E+00;  4.0000000E+04;  0.0000000E+00;  3.9641273E+04;  4.4918938E+00;  0.0000000E+00; -2.8644860E-01;  9.0426768E+03;
  1.1776487E+00;  9.9999998E-03;  2.5142479E-01;8540;  6.6325027E-01;  0.0000000E+00; -9.4297662E-02;  9.9027393E+02;  1.4693986E-01; -8.0344312E+03;3; -8.8183998E+01;  0.0000000E+00; -3.6804420E+01;0;  4.0195675E+00;  1.8312697E+04;  0.0000000E+00; -5.6408801E+00;  4.0000000E+04;  0.0000000E+00;  3.9638699E+04;  4.3504276E+00;  0.0000000E+00; -3.3085996E-01;  1.1851480E+04;
  1.1779521E+00;  9.9999998E-03;  2.6145351E-01;8541;  6.4161736E-01;  0.0000000E+00; -1.0087736E-01;  9.8978369E+02;  1.4688011E-01; -8.4393008E+03;3; -8.7280670E+01;  0.0000000E+00; -3.4278442E+01;0;  3.8067336E+00;  1.8307789E+04;  0.0000000E+00; -7.7539644E+00;  4.0000000E+04;  0.0000000E+00;  3.9642359E+04;  4.2198505E+00;  0.0000000E+00; -4.1311684E-01;  1.5973446E+04;
  1.1782945E+00;  9.9999998E-03;  2.7147216E-01;8542;  6.1958683E-01;  0.0000000E+00; -1.0635786E-01;  9.8936536E+02;  1.4681379E-01; -8.7847656E+03;3; -7.8048958E+01;  0.0000000E+00; -3.2162666E+01;0;  3.5825136E+00;  1.8302662E+04;  0.0000000E+00; -9.6138277E+00;  4.0000000E+04;  0.0000000E+00;  3.9657660E+04;  4.0997577E+00;  0.0000000E+00; -5.1724410E-01;  2.0146629E+04;
  1.1786476E+00;  9.9999998E-03;  2.8148785E-01;8543;  6.0584831E-01;  0.0000000E+00; -1.0973077E-01;  9.8899286E+02;  1.4674859E-01; -9.0923018E+03;3; -1.4878181E+01;  0.0000000E+00; -3.4194389E+01;0;  3.3790903E+00;  1.8295350E+04;  0.0000000E+00; -1.0041209E+01;  4.0000000E+04;  0.0000000E+00;  3.9683852E+04;  3.9891694E+00;  0.0000000E+00; -6.1007893E-01;  2.2136771E+04;
  1.1791592E+00;  9.9999998E-03;  2.9150826E-01;8544;  6.0252357E-01;  0.0000000E+00; -1.0888961E-01;  9.8851086E+02;  1.4666767E-01; -9.4902559E+03;3;  3.1912592E+01;  0.0000000E+00; -2.3493511E+01;0;  3.2589264E+00;  1.8289129E+04;  0.0000000E+00; -7.9470634E+00;  4.0000000E+04;  0.0000000E+00;  3.9712266E+04;  3.8967052E+00;  0.0000000E+00; -6.3777870E-01;  2.0403023E+04;
  1.1798540E+00;  9.9999998E-03;  3.0153519E-01;8545;  6.0235900E-01;  0.0000000E+00; -1.0495159E-01;  9.8777917E+02;  1.4656994E-01; -1.0094297E+04;3;  4.7776409E+01;  0.0000000E+00; -7.1892819E+00;0;  3.2381582E+00;  1.8283332E+04;  0.0000000E+00; -1.9556592E+00;  4.0000000E+04;  0.0000000E+00;  3.9735492E+04;  3.8261018E+00;  0.0000000E+00; -5.8794361E-01;  1.6637551E+04;
  1.1917287E+00;  9.9999998E-03;  2.4141902E-01;8600;  7.8587979E-01;  0.0000000E+00; -6.4733647E-02;  9.9255963E+02;  1.4320639E-01; -6.1421265E+03;3; -1.1295203E+02;  0.0000000E+00; -4.3763168E+01;0;  4.6505346E+00;  1.9374070E+04;  0.0000000E+00; -5.1220889E+00;  4.0000000E+04;  0.0000000E+00;  3.9629969E+04;  4.9483352E+00;  0.0000000E+00; -2.9780045E-01;  9.9523193E+03;
  1.1919881E+00;  9.9999998E-03;  2.5146368E-01;8601;  7.6604158E-01;  0.0000000E+00; -7.0509903E-02;  9.9196350E+02;  1.4315943E-01; -6.6341265E+03;3; -1.1292812E+02;  0.0000000E+00; -4.3507736E+01;0;  4.5289955E+00;  1.9364059E+04;  0.0000000E+00; -7.2912493E+00;  4.0000000E+04;  0.0000000E+00;  3.9624660E+04;  4.8589678E+00;  0.0000000E+00; -3.2997206E-01;  1.4057367E+04;
  1.1922615E+00;  9.9999998E-03;  2.6149920E-01;8602;  7.4233657E-01;  0.0000000E+00; -7.8106768E-02;  9.9135681E+02;  1.4310755E-01; -7.1348657E+03;3; -1.1390112E+02;  0.0000000E+00; -4.2139400E+01;0;  4.3745141E+00;  1.9354365E+04;  0.0000000E+00; -9.7059126E+00;  4.0000000E+04;  0.0000000E+00;  3.9622234E+04;  4.7716684E+00;  0.0000000E+00; -3.9715451E-01;  1.8966977E+04;
  1.1926185E+00;  9.9999998E-03;  2.7152503E-01;8603;  7.1844661E-01;  0.0000000E+00; -8.5560150E-02;  9.9078290E+02;  1.4304303E-01; -7.6084438E+03;3; -1.1528172E+02;  0.0000000E+00; -3.9402096E+01;0;  4.1959252E+00;  1.9346926E+04;  0.0000000E+00; -1.1689235E+01;  4.0000000E+04;  0.0000000E+00;  3.9629348E+04;  4.6895800E+00;  0.0000000E+00; -4.9365455E-01;  2.3241320E+04;
  1.1931000E+00;  9.9999998E-03;  2.8154606E-01;8604;  6.9761992E-01;  0.0000000E+00; -9.0942390E-02;  9.9022491E+02;  1.4296292E-01; -8.0688618E+03;3; -1.1734848E+02;  0.0000000E+00; -3.6078506E+01;0;  4.0296707E+00;  1.9340033E+04;  0.0000000E+00; -1.1861833E+01;  4.0000000E+04;  0.0000000E+00;  3.9647953E+04;  4.6156240E+00;  0.0000000E+00; -5.8595318E-01;  2.4123283E+04;
  1.1937859E+00;  9.9999998E-03;  2.9156846E-01;8605;  6.8273818E-01;  0.0000000E+00; -9.3823716E-02;  9.8953760E+02;  1.4286320E-01; -8.6358682E+03;3; -1.2018873E+02;  0.0000000E+00; -3.2408642E+01;0;  3.9132955E+00;  1.9333400E+04;  0.0000000E+00; -8.2795172E+00;  4.0000000E+04;  0.0000000E+00;  3.9672887E+04;  4.5544853E+00;  0.0000000E+00; -6.4118987E-01;  1.8224414E+04;
  1.1945856E+00;  9.9999998E-03;  3.0159503E-01;8606;  6.7164880E-01;  0.0000000E+00; -9.5845088E-02;  9.8856763E+02;  1.4275524E-01; -9.4360615E+03;3; -1.2351941E+02;  0.0000000E+00; -2.9395702E+01;0;  3.8394036E+00;  1.9321973E+04;  0.0000000E+00;  1.9239869E+00;  4.0000000E+04;  0.0000000E+00;  3.9697082E+04;  4.5034041E+00;  0.0000000E+00; -6.6400057E-01;  1.2241858E+04;
  1.2058117E+00;  9.9999998E-03;  2.4143285E-01;8661;  8.9163387E-01;  0.0000000E+00; -4.0925056E-02;  9.9443903E+02;  1.3960701E-01; -4.5868159E+03;3; -1.2203136E+02;  0.0000000E+00; -4.6889736E+01;0;  4.8827085E+00;  2.0468674E+04;  0.0000000E+00; -6.3423696E+00;  4.0000000E+04;  0.0000000E+00;  3.9621359E+04;  5.1794343E+00;  0.0000000E+00; -2.9672572E-01;  1.1657443E+04;
  1.2060431E+00;  9.9999998E-03;  2.5148728E-01;8662;  8.7251264E-01;  0.0000000E+00; -4.6369363E-02;  9.9378809E+02;  1.3956945E-01; -5.1236470E+03;3; -1.2424956E+02;  0.0000000E+00; -4.7029907E+01;0;  4.8294454E+00;  2.0454652E+04;  0.0000000E+00; -9.2266102E+00;  4.0000000E+04;  0.0000000E+00;  3.9612750E+04;  5.1463733E+00;  0.0000000E+00; -3.1692776E-01;  1.7439107E+04;
  1.2063142E+00;  9.9999998E-03;  2.6153094E-01;8663;  8.4913063E-01;  0.0000000E+00; -5.3962361E-02;  9.9310364E+02;  1.3952240E-01; -5.6880752E+03;3; -1.2719000E+02;  0.0000000E+00; -4.7050625E+01;0;  4.7446618E+00;  2.0442309E+04;  0.0000000E+00; -1.2427107E+01;  4.0000000E+04;  0.0000000E+00;  3.9605906E+04;  5.1098752E+00;  0.0000000E+00; -3.6521360E-01;  2.4127260E+04;
  1.2066990E+00;  9.9999998E-03;  2.7156496E-01;8664;  8.2494825E-01;  0.0000000E+00; -6.2642887E-02;  9.9240045E+02;  1.3945557E-01; -6.2678716E+03;3; -1.3025723E+02;  0.0000000E+00; -4.5323536E+01;0;  4.6225662E+00;  2.0433305E+04;  0.0000000E+00; -1.5132298E+01;  4.0000000E+04;  0.0000000E+00;  3.9606539E+04;  5.0718999E+00;  0.0000000E+00; -4.4933391E-01;  2.9889426E+04;
  1.2072356E+00;  9.9999998E-03;  2.8159228E-01;8665;  8.0549181E-01;  0.0000000E+00; -7.0091262E-02;  9.9165399E+02;  1.3937072E-01; -6.8833057E+03;3; -1.3345493E+02;  0.0000000E+00; -4.2715408E+01;0;  4.4933386E+00;  2.0424371E+04;  0.0000000E+00; -1.5336169E+01;  4.0000000E+04;  0.0000000E+00;  3.9619004E+04;  5.0355616E+00;  0.0000000E+00; -5.4222292E-01;  3.0565934E+04;
  1.2080057E+00;  9.9999998E-03;  2.9161796E-01;8666;  7.9421937E-01;  0.0000000E+00; -7.5380549E-02;  9.9069196E+02;  1.3926370E-01; -7.6763213E+03;3; -1.3672937E+02;  0.0000000E+00; -4.0118736E+01;0;  4.3945351E+00;  2.0411338E+04;  0.0000000E+00; -9.7682610E+00;  4.0000000E+04;  0.0000000E+00;  3.9640820E+04;  5.0055428E+00;  0.0000000E+00; -6.1100751E-01;  1.9792248E+04;
  1.2088065E+00;  9.9999998E-03;  3.0164549E-01;8667;  7.8251088E-01;  0.0000000E+00; -7.9394631E-02;  9.8939001E+02;  1.3915937E-01; -8.7495518E+03;3; -1.4112744E+02;  0.0000000E+00; -3.8000122E+01;0;  4.3288007E+00;  2.0386787E+04;  0.0000000E+00;  6.5112863E+00;  4.0000000E+04;  0.0000000E+00;  3.9665520E+04;  4.9751015E+00;  0.0000000E+00; -6.4630097E-01;  1.5452622E+04;
  1.2195987E+00;  9.9999998E-03;  2.4143372E-01;8722;  9.9255538E-01;  0.0000000E+00; -1.9028654E-02;  9.9619092E+02;  1.3620436E-01; -3.1386453E+03;3; -1.2053822E+02;  0.0000000E+00; -4.8778996E+01;0;  4.9001427E+00;  2.1587076E+04;  0.0000000E+00; -7.4751239E+00;  4.0000000E+04;  0.0000000E+00;  3.9613504E+04;  5.1852021E+00;  0.0000000E+00; -2.8505939E-01;  1.3298785E+04;
  1.2198254E+00;  9.9999998E-03;  2.5149763E-01;8723;  9.7531432E-01;  0.0000000E+00; -2.3859324E-02;  9.9551288E+02;  1.3617195E-01; -3.6972432E+03;3; -1.2448662E+02;  0.0000000E+00; -4.9054047E+01;0;  4.9123311E+00;  2.1571020E+04;  0.0000000E+00; -1.1545991E+01;  4.0000000E+04;  0.0000000E+00;  3.9602957E+04;  5.2085938E+00;  0.0000000E+00; -2.9626256E-01;  2.1427123E+04;
  1.2201130E+00;  9.9999998E-03;  2.6154914E-01;8724;  9.5289832E-01;  0.0000000E+00; -3.0852783E-02;  9.9477380E+02;  1.3612421E-01; -4.3061382E+03;3; -1.2937732E+02;  0.0000000E+00; -4.8785816E+01;0;  4.8956504E+00;  2.1557789E+04;  0.0000000E+00; -1.6321760E+01;  4.0000000E+04;  0.0000000E+00;  3.9593863E+04;  5.2230763E+00;  0.0000000E+00; -3.2742593E-01;  3.1152820E+04;
  1.2204914E+00;  9.9999998E-03;  2.7159128E-01;8725;  9.2751545E-01;  0.0000000E+00; -3.9887138E-02;  9.9396594E+02;  1.3605712E-01; -4.9716406E+03;3; -1.3447426E+02;  0.0000000E+00; -4.8701679E+01;0;  4.8323612E+00;  2.1547303E+04;  0.0000000E+00; -2.0457598E+01;  4.0000000E+04;  0.0000000E+00;  3.9590281E+04;  5.2280831E+00;  0.0000000E+00; -3.9572188E-01;  3.9544531E+04;
  1.2210702E+00;  9.9999998E-03;  2.8162533E-01;8726;  9.0919876E-01;  0.0000000E+00; -4.8501488E-02;  9.9300958E+02;  1.3596696E-01; -5.7593345E+03;3; -1.3858714E+02;  0.0000000E+00; -4.6883408E+01;0;  4.7457008E+00;  2.1534598E+04;  0.0000000E+00; -2.1195230E+01;  4.0000000E+04;  0.0000000E+00;  3.9598449E+04;  5.2285595E+00;  0.0000000E+00; -4.8285872E-01;  4.1143633E+04;
  1.2219682E+00;  9.9999998E-03;  2.9165453E-01;8727;  9.0290344E-01;  0.0000000E+00; -5.5157818E-02;  9.9163043E+02;  1.3585235E-01; -6.8950693E+03;3; -1.4209235E+02;  0.0000000E+00; -4.5430035E+01;0;  4.6772709E+00;  2.1509658E+04;  0.0000000E+00; -1.3161860E+01;  4.0000000E+04;  0.0000000E+00;  3.9619180E+04;  5.2316704E+00;  0.0000000E+00; -5.5439949E-01;  2.5681822E+04;
  1.2227168E+00;  9.9999998E-03;  3.0168387E-01;8728;  8.9069122E-01;  0.0000000E+00; -6.0555499E-02;  9.8991925E+02;  1.3576163E-01; -8.3042695E+03;3; -1.4758588E+02;  0.0000000E+00; -4.3762669E+01;0;  4.6297026E+00;  2.1464791E+04;  0.0000000E+00;  1.2181170E+01;  4.0000000E+04;  0.0000000E+00;  3.9644113E+04;  5.2249708E+00;  0.0000000E+00; -5.9526825E-01;  2.4152477E+04;
  1.2333699E+00;  9.9999998E-03;  2.5149783E-01;8784;  1.0688862E+00;  0.0000000E+00; -3.9069820E-03;  9.9696051E+02;  1.3298157E-01; -2.5014004E+03;3; -1.1641154E+02;  0.0000000E+00; -4.8994614E+01;0;  4.7976365E+00;  2.2692762E+04;  0.0000000E+00; -1.4358023E+01;  4.0000000E+04;  0.0000000E+00;  3.9595809E+04;  5.0668330E+00;  0.0000000E+00; -2.6919666E-01;  2.5595572E+04;
  1.2332866E+00;  9.9999998E-03;  2.4142367E-01;8783;  1.0852643E+00;  0.0000000E+00;  7.4375060E-04;  9.9765625E+02;  1.3299194E-01; -1.9288716E+03;3; -1.1074378E+02;  0.0000000E+00; -4.8541523E+01;0;  4.7273135E+00;  2.2716703E+04;  0.0000000E+00; -9.0404215E+00;  4.0000000E+04;  0.0000000E+00;  3.9607219E+04;  4.9891953E+00;  0.0000000E+00; -2.6188177E-01;  1.5461983E+04;
  1.2335202E+00;  9.9999998E-03;  2.6155835E-01;8785;  1.0461150E+00;  0.0000000E+00; -1.0534263E-02;  9.9621844E+02;  1.3295318E-01; -3.1120620E+03;3; -1.2357026E+02;  0.0000000E+00; -4.9761681E+01;0;  4.8399792E+00;  2.2673949E+04;  0.0000000E+00; -2.0516266E+01;  4.0000000E+04;  0.0000000E+00;  3.9585211E+04;  5.1293926E+00;  0.0000000E+00; -2.8941330E-01;  3.7431070E+04;
  1.2337985E+00;  9.9999998E-03;  2.7160862E-01;8786;  1.0189792E+00;  0.0000000E+00; -1.9014940E-02;  9.9537946E+02;  1.3289870E-01; -3.8024138E+03;3; -1.3126392E+02;  0.0000000E+00; -4.9937527E+01;0;  4.8348408E+00;  2.2659822E+04;  0.0000000E+00; -2.5929054E+01;  4.0000000E+04;  0.0000000E+00;  3.9579324E+04;  5.1735415E+00;  0.0000000E+00; -3.3870062E-01;  4.7661488E+04;
  1.2343664E+00;  9.9999998E-03;  2.8164959E-01;8787;  1.0012921E+00;  0.0000000E+00; -2.7827354E-02;  9.9423773E+02;  1.3281512E-01; -4.7417114E+03;3; -1.3602739E+02;  0.0000000E+00; -4.8969074E+01;0;  4.7937136E+00;  2.2640303E+04;  0.0000000E+00; -2.7264105E+01;  4.0000000E+04;  0.0000000E+00;  3.9584453E+04;  5.2063770E+00;  0.0000000E+00; -4.1266361E-01;  5.0237363E+04;
  1.2353796E+00;  9.9999998E-03;  2.9168168E-01;8788;  9.9966496E-01;  0.0000000E+00; -3.5225485E-02;  9.9233105E+02;  1.3269766E-01; -6.3100586E+03;3; -1.3933238E+02;  0.0000000E+00; -4.8285748E+01;0;  4.7569375E+00;  2.2595354E+04;  0.0000000E+00; -1.6368412E+01;  4.0000000E+04;  0.0000000E+00;  3.9605969E+04;  5.2393417E+00;  0.0000000E+00; -4.8240426E-01;  3.0444867E+04;
  1.2358663E+00;  9.9999998E-03;  3.0171487E-01;8789;  9.8540187E-01;  0.0000000E+00; -4.1491192E-02;  9.9045764E+02;  1.3264647E-01; -7.8510854E+03;3; -1.4632339E+02;  0.0000000E+00; -4.8019253E+01;0;  4.7369881E+00;  2.2530096E+04;  0.0000000E+00;  1.9623812E+01;  4.0000000E+04;  0.0000000E+00;  3.9628711E+04;  5.2575421E+00;  0.0000000E+00; -5.2055413E-01;  3.5803062E+04;
  1.2466213E+00;  9.9999998E-03;  2.5149336E-01;8845;  1.1491042E+00;  0.0000000E+00;  1.3592023E-02;  9.9800562E+02;  1.3003659E-01; -1.6389304E+03;3; -1.0284725E+02;  0.0000000E+00; -4.7821110E+01;0;  4.5277081E+00;  2.3791109E+04;  0.0000000E+00; -1.7515673E+01;  4.0000000E+04;  0.0000000E+00;  3.9590410E+04;  4.7588716E+00;  0.0000000E+00; -2.3116334E-01;  2.9382697E+04;
  1.2466003E+00;  9.9999998E-03;  2.4141447E-01;8844;  1.1643819E+00;  0.0000000E+00;  1.7899983E-02;  9.9873724E+02;  1.3004027E-01; -1.0377306E+03;3; -9.5402626E+01;  0.0000000E+00; -4.7002266E+01;0;  4.4090333E+00;  2.3819428E+04;  0.0000000E+00; -1.0630090E+01;  4.0000000E+04;  0.0000000E+00;  3.9600047E+04;  4.6357217E+00;  0.0000000E+00; -2.2668834E-01;  1.7168549E+04;
  1.2466069E+00;  9.9999998E-03;  2.6156124E-01;8846;  1.1259316E+00;  0.0000000E+00;  7.3957588E-03;  9.9729926E+02;  1.3002546E-01; -2.2194175E+03;3; -1.1253910E+02;  0.0000000E+00; -4.8780251E+01;0;  4.6214137E+00;  2.3768129E+04;  0.0000000E+00; -2.4594891E+01;  4.0000000E+04;  0.0000000E+00;  3.9580098E+04;  4.8649335E+00;  0.0000000E+00; -2.4351995E-01;  4.1952469E+04;
  1.2467068E+00;  9.9999998E-03;  2.7162015E-01;8847;  1.0993665E+00;  0.0000000E+00; -4.6846893E-04;  9.9653601E+02;  1.2999284E-01; -2.8465959E+03;3; -1.2187283E+02;  0.0000000E+00; -4.8677776E+01;0;  4.6685700E+00;  2.3751227E+04;  0.0000000E+00; -3.0064758E+01;  4.0000000E+04;  0.0000000E+00;  3.9572137E+04;  4.9464960E+00;  0.0000000E+00; -2.7792597E-01;  5.1467363E+04;
  1.2472091E+00;  9.9999998E-03;  2.8166780E-01;8848;  1.0835302E+00;  0.0000000E+00; -8.9237597E-03;  9.9527557E+02;  1.2992212E-01; -3.8821672E+03;3; -1.2743391E+02;  0.0000000E+00; -4.9364277E+01;0;  4.6730652E+00;  2.3723689E+04;  0.0000000E+00; -3.1175602E+01;  4.0000000E+04;  0.0000000E+00;  3.9575477E+04;  5.0091758E+00;  0.0000000E+00; -3.3611071E-01;  5.3544352E+04;
  1.2482307E+00;  9.9999998E-03;  2.9170302E-01;8849;  1.0849735E+00;  0.0000000E+00; -1.6270371E-02;  9.9286749E+02;  1.2981918E-01; -5.8602070E+03;3; -1.3029767E+02;  0.0000000E+00; -4.9611584E+01;0;  4.6750183E+00;  2.3652467E+04;  0.0000000E+00; -1.6147062E+01;  4.0000000E+04;  0.0000000E+00;  3.9597797E+04;  5.0695233E+00;  0.0000000E+00; -3.9450514E-01;  2.8243094E+04;
  1.2482404E+00;  9.9999998E-03;  3.0174428E-01;8850;  1.0671145E+00;  0.0000000E+00; -2.3157708E-02;  9.9146893E+02;  1.2982406E-01; -7.0092817E+03;3; -1.3938472E+02;  0.0000000E+00; -4.9713112E+01;0;  4.6896515E+00;  2.3588133E+04;  0.0000000E+00;  2.9496717E+01;  4.0000000E+04;  0.0000000E+00;  3.9612871E+04;  5.1179214E+00;  0.0000000E+00; -4.2826968E-01;  5.0080855E+04;
  1.2593073E+00;  9.9999998E-03;  2.4142100E-01;8905;  1.2300217E+00;  0.0000000E+00;  3.2612912E-02;  9.9946051E+02;  1.2738959E-01; -4.4259103E+02;3; -7.5876785E+01;  0.0000000E+00; -4.4280243E+01;0;  4.0082870E+00;  2.4869213E+04;  0.0000000E+00; -1.0724775E+01;  4.0000000E+04;  0.0000000E+00;  3.9586457E+04;  4.1873159E+00;  0.0000000E+00; -1.7902906E-01;  1.5998298E+04;
  1.2591999E+00;  9.9999998E-03;  2.5149733E-01;8906;  1.2170680E+00;  0.0000000E+00;  2.8495226E-02;  9.9880286E+02;  1.2740037E-01; -9.8216547E+02;3; -8.4377495E+01;  0.0000000E+00; -4.5379875E+01;0;  4.1671882E+00;  2.4836006E+04;  0.0000000E+00; -1.7647604E+01;  4.0000000E+04;  0.0000000E+00;  3.9580602E+04;  4.3480477E+00;  0.0000000E+00; -1.8085943E-01;  2.7402697E+04;
  1.2590529E+00;  9.9999998E-03;  2.6156867E-01;8907;  1.1961685E+00;  0.0000000E+00;  2.2397265E-02;  9.9825317E+02;  1.2740164E-01; -1.4331558E+03;3; -9.5934654E+01;  0.0000000E+00; -4.6260250E+01;0;  4.2993770E+00;  2.4814455E+04;  0.0000000E+00; -2.4223433E+01;  4.0000000E+04;  0.0000000E+00;  3.9571855E+04;  4.4900613E+00;  0.0000000E+00; -1.9068439E-01;  3.8128918E+04;
  1.2590338E+00;  9.9999998E-03;  2.7163413E-01;8908;  1.1738750E+00;  0.0000000E+00;  1.4891066E-02;  9.9766113E+02;  1.2738079E-01; -1.9188994E+03;3; -1.0617188E+02;  0.0000000E+00; -4.7151501E+01;0;  4.3874407E+00;  2.4802125E+04;  0.0000000E+00; -2.8898870E+01;  4.0000000E+04;  0.0000000E+00;  3.9562734E+04;  4.6058311E+00;  0.0000000E+00; -2.1839041E-01;  4.5563672E+04;
  1.2594815E+00;  9.9999998E-03;  2.8168696E-01;8909;  1.1616127E+00;  0.0000000E+00;  7.1371123E-03;  9.9637451E+02;  1.2732100E-01; -2.9742971E+03;3; -1.1198888E+02;  0.0000000E+00; -4.8536873E+01;0;  4.4351182E+00;  2.4770822E+04;  0.0000000E+00; -2.9542423E+01;  4.0000000E+04;  0.0000000E+00;  3.9565199E+04;  4.6979156E+00;  0.0000000E+00; -2.6279753E-01;  4.6917781E+04;
  1.2598248E+00;  9.9999998E-03;  3.0178165E-01;8911;  1.1446853E+00;  0.0000000E+00; -7.0322384E-03;  9.9363654E+02;  1.2730107E-01; -5.2201860E+03;3; -1.2601773E+02;  0.0000000E+00; -5.0331261E+01;0;  4.5411296E+00;  2.4655723E+04;  0.0000000E+00;  3.7786663E+01;  4.0000000E+04;  0.0000000E+00;  3.9584996E+04;  4.8799834E+00;  0.0000000E+00; -3.3885401E-01;  5.9581285E+04;
  1.2603801E+00;  9.9999998E-03;  2.9172629E-01;8910;  1.1632090E+00;  0.0000000E+00;  3.1410370E-04;  9.9375269E+02;  1.2724060E-01; -5.1245200E+03;3; -1.1524889E+02;  0.0000000E+00; -4.9697163E+01;0;  4.4800782E+00;  2.4680787E+04;  0.0000000E+00; -1.0021670E+01;  4.0000000E+04;  0.0000000E+00;  3.9586750E+04;  4.7863331E+00;  0.0000000E+00; -3.0625504E-01;  1.6548469E+04;
  1.2712944E+00;  9.9999998E-03;  2.5150886E-01;8966;  1.2735043E+00;  0.0000000E+00;  4.0636104E-02;  9.9943610E+02;  1.2503801E-01; -4.6176337E+02;3; -6.4235687E+01;  0.0000000E+00; -4.2735512E+01;0;  3.7575829E+00;  2.5827877E+04;  0.0000000E+00; -1.4117868E+01;  4.0000000E+04;  0.0000000E+00;  3.9567168E+04;  3.8808293E+00;  0.0000000E+00; -1.2324654E-01;  1.9739801E+04;
  1.2711018E+00;  9.9999998E-03;  2.6158470E-01;8967;  1.2592371E+00;  0.0000000E+00;  3.5085965E-02;  9.9903473E+02;  1.2504719E-01; -7.9045612E+02;3; -7.5285622E+01;  0.0000000E+00; -4.3763557E+01;0;  3.9229681E+00;  2.5809664E+04;  0.0000000E+00; -1.9885214E+01;  4.0000000E+04;  0.0000000E+00;  3.9558020E+04;  4.0512257E+00;  0.0000000E+00; -1.2825748E-01;  2.8625246E+04;
  1.2714959E+00;  9.9999998E-03;  2.4143396E-01;8965;  1.2816246E+00;  0.0000000E+00;  4.4119854E-02;  9.9996246E+02;  1.2501445E-01; -3.0747364E+01;3; -5.5465237E+01;  0.0000000E+00; -4.1141750E+01;0;  3.5662622E+00;  2.5862848E+04;  0.0000000E+00; -8.3366480E+00;  4.0000000E+04;  0.0000000E+00;  3.9570613E+04;  3.6926546E+00;  0.0000000E+00; -1.2639244E-01;  1.0980574E+04;
  1.2710689E+00;  9.9999998E-03;  2.7165407E-01;8968;  1.2426507E+00;  0.0000000E+00;  2.8253442E-02;  9.9856268E+02;  1.2502813E-01; -1.1769785E+03;3; -8.5163666E+01;  0.0000000E+00; -4.5310818E+01;0;  4.0451488E+00;  2.5802764E+04;  0.0000000E+00; -2.4501308E+01;  4.0000000E+04;  0.0000000E+00;  3.9548762E+04;  4.1938539E+00;  0.0000000E+00; -1.4870501E-01;  3.5539641E+04;
  1.2714899E+00;  9.9999998E-03;  2.8170925E-01;8969;  1.2331740E+00;  0.0000000E+00;  2.1260761E-02;  9.9722668E+02;  1.2497249E-01; -2.2708660E+03;3; -9.1355560E+01;  0.0000000E+00; -4.6858940E+01;0;  4.1283412E+00;  2.5767973E+04;  0.0000000E+00; -2.4453213E+01;  4.0000000E+04;  0.0000000E+00;  3.9553176E+04;  4.3108125E+00;  0.0000000E+00; -1.8247123E-01;  3.5901766E+04;
  1.2721133E+00;  9.9999998E-03;  2.9175401E-01;8970;  1.2329106E+00;  0.0000000E+00;  1.4872050E-02;  9.9486847E+02;  1.2492403E-01; -4.2013477E+03;3; -9.5568726E+01;  0.0000000E+00; -4.8770050E+01;0;  4.2140512E+00;  2.5676812E+04;  0.0000000E+00;  6.2848437E-01;  4.0000000E+04;  0.0000000E+00;  3.9571027E+04;  4.4298768E+00;  0.0000000E+00; -2.1582559E-01;  2.7660593E+03;
  1.2831899E+00;  9.9999998E-03;  2.5152081E-01;9025;  1.3159384E+00;  0.0000000E+00;  4.9021661E-02;  9.9982196E+02;  1.2290972E-01; -1.4546089E+02;3; -4.3974770E+01;  0.0000000E+00; -4.0366360E+01;0;  3.3099291E+00;  2.6759527E+04;  0.0000000E+00; -9.0925484E+00;  4.0000000E+04;  0.0000000E+00;  3.9556953E+04;  3.3816521E+00;  0.0000000E+00; -7.1723007E-02;  1.0962685E+04;
  1.2830046E+00;  9.9999998E-03;  2.6160148E-01;9026;  1.3072106E+00;  0.0000000E+00;  4.3797728E-02;  9.9950653E+02;  1.2291749E-01; -4.0318588E+02;3; -5.4130791E+01;  0.0000000E+00; -4.2064468E+01;0;  3.4876137E+00;  2.6746182E+04;  0.0000000E+00; -1.4832321E+01;  4.0000000E+04;  0.0000000E+00;  3.9547297E+04;  3.5669935E+00;  0.0000000E+00; -7.9379678E-02;  1.9273342E+04;
  1.2833892E+00;  9.9999998E-03;  2.4144311E-01;9024;  1.3197346E+00;  0.0000000E+00;  5.1941909E-02;  1.0002800E+03;  1.2288612E-01;  2.2877380E+02;3; -3.5599205E+01;  0.0000000E+00; -3.8666359E+01;0;  3.1054890E+00;  2.6793527E+04;  0.0000000E+00; -3.9058151E+00;  4.0000000E+04;  0.0000000E+00;  3.9558824E+04;  3.1817160E+00;  0.0000000E+00; -7.6226845E-02;  4.6755454E+03;
  1.2829630E+00;  9.9999998E-03;  2.7167448E-01;9027;  1.2963037E+00;  0.0000000E+00;  3.7574761E-02;  9.9912939E+02;  1.2290031E-01; -7.1131567E+02;3; -6.2755527E+01;  0.0000000E+00; -4.2927181E+01;0;  3.6271815E+00;  2.6744074E+04;  0.0000000E+00; -1.9530716E+01;  4.0000000E+04;  0.0000000E+00;  3.9538293E+04;  3.7281013E+00;  0.0000000E+00; -1.0091974E-01;  2.5966506E+04;
  1.2833077E+00;  9.9999998E-03;  2.8173277E-01;9028;  1.2907692E+00;  0.0000000E+00;  3.1926986E-02;  9.9782013E+02;  1.2285691E-01; -1.7809398E+03;3; -6.8960701E+01;  0.0000000E+00; -4.4573948E+01;0;  3.7476246E+00;  2.6705197E+04;  0.0000000E+00; -1.7408226E+01;  4.0000000E+04;  0.0000000E+00;  3.9543562E+04;  3.8692183E+00;  0.0000000E+00; -1.2159380E-01;  2.3753475E+04;
  1.2835296E+00;  9.9999998E-03;  2.9178718E-01;9029;  1.2899779E+00;  0.0000000E+00;  2.6529510E-02;  9.9631000E+02;  1.2284644E-01; -3.0145847E+03;3; -7.4452019E+01;  0.0000000E+00; -4.6657879E+01;0;  3.8834155E+00;  2.6639906E+04;  0.0000000E+00;  1.2510845E+01;  4.0000000E+04;  0.0000000E+00;  3.9551664E+04;  4.0248108E+00;  0.0000000E+00; -1.4139524E-01;  1.7267180E+04;
  1.2950102E+00;  9.9999998E-03;  2.5153598E-01;9084;  1.3449084E+00;  0.0000000E+00;  5.4194629E-02;  9.9981604E+02;  1.2099031E-01; -1.4988646E+02;3; -2.5684181E+01;  0.0000000E+00; -3.6517059E+01;0;  2.8451774E+00;  2.7621242E+04;  0.0000000E+00; -5.1062627E+00;  4.0000000E+04;  0.0000000E+00;  3.9549840E+04;  2.8733001E+00;  0.0000000E+00; -2.8122615E-02;  5.1681313E+03;
  1.2948006E+00;  9.9999998E-03;  2.6162136E-01;9085;  1.3403999E+00;  0.0000000E+00;  4.9635455E-02;  9.9962970E+02;  1.2099646E-01; -3.0177957E+02;3; -3.4930305E+01;  0.0000000E+00; -3.8459282E+01;0;  3.0243304E+00;  2.7615609E+04;  0.0000000E+00; -1.0858083E+01;  4.0000000E+04;  0.0000000E+00;  3.9540039E+04;  3.0631237E+00;  0.0000000E+00; -3.8793243E-02;  1.2547013E+04;
  1.2952044E+00;  9.9999998E-03;  2.4145193E-01;9083;  1.3454050E+00;  0.0000000E+00;  5.6858737E-02;  1.0002473E+03;  1.2096985E-01;  2.0145811E+02;3; -1.8107277E+01;  0.0000000E+00; -3.5330391E+01;0;  2.6446095E+00;  2.7653693E+04;  0.0000000E+00;  3.2781991E-01;  4.0000000E+04;  0.0000000E+00;  3.9551668E+04;  2.6734478E+00;  0.0000000E+00; -2.8838359E-02;  5.4996958E+03;
  1.2947179E+00;  9.9999998E-03;  2.7169836E-01;9086;  1.3348103E+00;  0.0000000E+00;  4.4636440E-02;  9.9939160E+02;  1.2098318E-01; -4.9578714E+02;3; -4.2526291E+01;  0.0000000E+00; -3.9099129E+01;0;  3.1798983E+00;  2.7620277E+04;  0.0000000E+00; -1.4936533E+01;  4.0000000E+04;  0.0000000E+00;  3.9531078E+04;  3.2359173E+00;  0.0000000E+00; -5.6019135E-02;  1.8125336E+04;
  1.2949162E+00;  9.9999998E-03;  2.8176177E-01;9087;  1.3333763E+00;  0.0000000E+00;  4.0182367E-02;  9.9829828E+02;  1.2095905E-01; -1.3866998E+03;3; -4.8142998E+01;  0.0000000E+00; -4.0867863E+01;0;  3.3315263E+00;  2.7584594E+04;  0.0000000E+00; -9.0860233E+00;  4.0000000E+04;  0.0000000E+00;  3.9533305E+04;  3.3999050E+00;  0.0000000E+00; -6.8378739E-02;  1.2077364E+04;
  1.2947565E+00;  9.9999998E-03;  2.9182631E-01;9088;  1.3329921E+00;  0.0000000E+00;  3.5871718E-02;  9.9797327E+02;  1.2097706E-01; -1.6516207E+03;3; -5.4581486E+01;  0.0000000E+00; -4.3023441E+01;0;  3.5090003E+00;  2.7566502E+04;  0.0000000E+00;  2.1927921E+01;  4.0000000E+04;  0.0000000E+00;  3.9529004E+04;  3.5870204E+00;  0.0000000E+00; -7.8020185E-02;  2.7899033E+04;
  1.3066972E+00;  9.9999998E-03;  2.5156128E-01;9143;  1.3630420E+00;  0.0000000E+00;  5.7078972E-02;  9.9949152E+02;  1.1926685E-01; -4.1307468E+02;3; -1.1704667E+01;  0.0000000E+00; -3.1893913E+01;0;  2.3931003E+00;  2.8413576E+04;  0.0000000E+00; -2.3873050E+00;  4.0000000E+04;  0.0000000E+00;  3.9542457E+04;  2.3826444E+00;  0.0000000E+00;  1.0455759E-02;  2.9473962E+03;
  1.3069068E+00;  9.9999998E-03;  2.4147138E-01;9142;  1.3619192E+00;  0.0000000E+00;  5.9691574E-02;  9.9985730E+02;  1.1925145E-01; -1.1591155E+02;3; -5.2400737E+00;  0.0000000E+00; -3.0363905E+01;0;  2.2100506E+00;  2.8440465E+04;  0.0000000E+00;  3.7267182E+00;  4.0000000E+04;  0.0000000E+00;  3.9544707E+04;  2.1933975E+00;  0.0000000E+00;  1.6653102E-02;  9.2577354E+03;
  1.3064433E+00;  9.9999998E-03;  2.6165015E-01;9144;  1.3614789E+00;  0.0000000E+00;  5.3102870E-02;  9.9952100E+02;  1.1927173E-01; -3.8913480E+02;3; -1.9559105E+01;  0.0000000E+00; -3.3706310E+01;0;  2.5607426E+00;  2.8420844E+04;  0.0000000E+00; -7.8614655E+00;  4.0000000E+04;  0.0000000E+00;  3.9532289E+04;  2.5669518E+00;  0.0000000E+00; -6.2090396E-03;  7.7689014E+03;
  1.3063014E+00;  9.9999998E-03;  2.7173018E-01;9145;  1.3606260E+00;  0.0000000E+00;  4.9461748E-02;  9.9950006E+02;  1.1926526E-01; -4.0619641E+02;3; -2.5653318E+01;  0.0000000E+00; -3.4577625E+01;0;  2.7265298E+00;  2.8435773E+04;  0.0000000E+00; -1.0536266E+01;  4.0000000E+04;  0.0000000E+00;  3.9522688E+04;  2.7451642E+00;  0.0000000E+00; -1.8634234E-02;  1.1655756E+04;
  1.3059474E+00;  9.9999998E-03;  2.9186821E-01;9147;  1.3621225E+00;  0.0000000E+00;  4.3035217E-02;  9.9947797E+02;  1.1928774E-01; -4.2415659E+02;3; -3.7859993E+01;  0.0000000E+00; -3.8703663E+01;0;  3.0969877E+00;  2.8440371E+04;  0.0000000E+00;  2.8103205E+01;  4.0000000E+04;  0.0000000E+00;  3.9508508E+04;  3.1241975E+00;  0.0000000E+00; -2.7209761E-02;  3.3213539E+04;
  1.3063278E+00;  9.9999998E-03;  2.8179830E-01;9146;  1.3623607E+00;  0.0000000E+00;  4.6296906E-02;  9.9883441E+02;  1.1925904E-01; -9.4696124E+02;3; -3.0447540E+01;  0.0000000E+00; -3.6258247E+01;0;  2.9018276E+00;  2.8415326E+04;  0.0000000E+00; -3.0644894E-01;  4.0000000E+04;  0.0000000E+00;  3.9521004E+04;  2.9251218E+00;  0.0000000E+00; -2.3294106E-02;  4.7685659E+03;
  1.3184096E+00;  9.9999998E-03;  2.4151015E-01;9200;  1.3727524E+00;  0.0000000E+00;  6.0632672E-02;  9.9930609E+02;  1.1772008E-01; -5.6166187E+02;3;  4.5237856E+00;  0.0000000E+00; -2.5640547E+01;0;  1.8197967E+00;  2.9162557E+04;  0.0000000E+00;  7.0846329E+00;  4.0000000E+04;  0.0000000E+00;  3.9533258E+04;  1.7624781E+00;  0.0000000E+00;  5.7318583E-02;  1.3073354E+04;
  1.3181541E+00;  9.9999998E-03;  2.5160405E-01;9201;  1.3751976E+00;  0.0000000E+00;  5.8213834E-02;  9.9915283E+02;  1.1773049E-01; -6.8575732E+02;3; -9.9237001E-01;  0.0000000E+00; -2.6862434E+01;0;  1.9801998E+00;  2.9151141E+04;  0.0000000E+00;  8.3464402E-01;  4.0000000E+04;  0.0000000E+00;  3.9529582E+04;  1.9364678E+00;  0.0000000E+00;  4.3732002E-02;  5.5214907E+03;
  1.3178703E+00;  9.9999998E-03;  2.6169428E-01;9202;  1.3763270E+00;  0.0000000E+00;  5.5107325E-02;  9.9945691E+02;  1.1773495E-01; -4.3968304E+02;3; -6.9745593E+00;  0.0000000E+00; -2.8358812E+01;0;  2.1342437E+00;  2.9175711E+04;  0.0000000E+00; -4.4507971E+00;  4.0000000E+04;  0.0000000E+00;  3.9518758E+04;  2.1101229E+00;  0.0000000E+00;  2.4120744E-02;  3.8948137E+03;
  1.3177036E+00;  9.9999998E-03;  2.7177379E-01;9203;  1.3780905E+00;  0.0000000E+00;  5.2551050E-02;  9.9962360E+02;  1.1773325E-01; -3.0473584E+02;3; -1.1868943E+01;  0.0000000E+00; -2.9496975E+01;0;  2.2960844E+00;  2.9199135E+04;  0.0000000E+00; -5.9402900E+00;  4.0000000E+04;  0.0000000E+00;  3.9510359E+04;  2.2830052E+00;  0.0000000E+00;  1.3079137E-02;  6.3385713E+03;
  1.3175725E+00;  9.9999998E-03;  2.8184402E-01;9204;  1.3815268E+00;  0.0000000E+00;  5.0455272E-02;  9.9952325E+02;  1.1773872E-01; -3.8596735E+02;3; -1.6062860E+01;  0.0000000E+00; -3.1307692E+01;0;  2.4800408E+00;  2.9202127E+04;  0.0000000E+00;  7.9781489E+00;  4.0000000E+04;  0.0000000E+00;  3.9505266E+04;  2.4682107E+00;  0.0000000E+00;  1.1830142E-02;  9.6847129E+03;
  1.3296964E+00;  9.9999998E-03;  2.4157062E-01;9257;  1.3797859E+00;  0.0000000E+00;  5.9967924E-02;  9.9879456E+02;  1.1635955E-01; -9.7168555E+02;3;  1.1857713E+01;  0.0000000E+00; -2.1423418E+01;0;  1.4794475E+00;  2.9832484E+04;  0.0000000E+00;  1.0965512E+01;  4.0000000E+04;  0.0000000E+00;  3.9515098E+04;  1.3888459E+00;  0.0000000E+00;  9.0601563E-02;  1.7331654E+04;
  1.3293940E+00;  9.9999998E-03;  2.5166637E-01;9258;  1.3837911E+00;  0.0000000E+00;  5.7989877E-02;  9.9900983E+02;  1.1636704E-01; -7.9823773E+02;3;  7.5900636E+00;  0.0000000E+00; -2.2787745E+01;0;  1.6173449E+00;  2.9846096E+04;  0.0000000E+00;  4.7854204E+00;  4.0000000E+04;  0.0000000E+00;  3.9508703E+04;  1.5462559E+00;  0.0000000E+00;  7.1088955E-02;  1.0232596E+04;
  1.3290981E+00;  9.9999998E-03;  2.6175499E-01;9259;  1.3869417E+00;  0.0000000E+00;  5.5750992E-02;  9.9963147E+02;  1.1637049E-01; -2.9713916E+02;3;  3.1559651E+00;  0.0000000E+00; -2.4185558E+01;0;  1.7550724E+00;  2.9891564E+04;  0.0000000E+00; -7.3099875E-01;  4.0000000E+04;  0.0000000E+00;  3.9497910E+04;  1.7059827E+00;  0.0000000E+00;  4.9089670E-02;  4.6899023E+03;
  1.3289107E+00;  9.9999998E-03;  2.7183187E-01;9260;  1.3904167E+00;  0.0000000E+00;  5.4005433E-02;  1.0000032E+03;  1.1637239E-01;  2.5952916E+00;3; -6.5891850E-01;  0.0000000E+00; -2.5225574E+01;0;  1.9055130E+00;  2.9925174E+04;  0.0000000E+00; -8.8166851E-01;  4.0000000E+04;  0.0000000E+00;  3.9490625E+04;  1.8696171E+00;  0.0000000E+00;  3.5895918E-02;  4.2642046E+03;
  1.3286494E+00;  9.9999998E-03;  2.8190279E-01;9261;  1.3957798E+00;  0.0000000E+00;  5.3005941E-02;  1.0005318E+03;  1.1638336E-01;  4.2884351E+02;3; -4.7511182E+00;  0.0000000E+00; -2.6939363E+01;0;  2.0971446E+00;  2.9958695E+04;  0.0000000E+00;  1.4385174E+01;  4.0000000E+04;  0.0000000E+00;  3.9480762E+04;  2.0586820E+00;  0.0000000E+00;  3.8462587E-02;  1.4376497E+04;
  1.3396316E+00;  9.9999998E-03;  2.8197485E-01;9318;  1.4084681E+00;  0.0000000E+00;  5.5136308E-02;  1.0016398E+03;  1.1517938E-01;  1.3163132E+03;3;  2.8919520E+00;  0.0000000E+00; -2.4362701E+01;0;  1.7911295E+00;  3.0674100E+04;  0.0000000E+00;  1.7865726E+01;  4.0000000E+04;  0.0000000E+00;  3.9447562E+04;  1.7181998E+00;  0.0000000E+00;  7.2929569E-02;  1.5650439E+04;
  1.3399688E+00;  9.9999998E-03;  2.7190393E-01;9317;  1.4001499E+00;  0.0000000E+00;  5.4964203E-02;  1.0006794E+03;  1.1516856E-01;  5.4535040E+02;3;  8.0546093E+00;  0.0000000E+00; -2.1297909E+01;0;  1.5811478E+00;  3.0616297E+04;  0.0000000E+00;  3.5088711E+00;  4.0000000E+04;  0.0000000E+00;  3.9463367E+04;  1.5181993E+00;  0.0000000E+00;  6.2948473E-02;  5.8621675E+03;
  1.3401896E+00;  9.9999998E-03;  2.6183015E-01;9316;  1.3945571E+00;  0.0000000E+00;  5.5548076E-02;  1.0000449E+03;  1.1516333E-01;  3.6066055E+01;3;  1.1234302E+01;  0.0000000E+00; -2.0136330E+01;0;  1.4299788E+00;  3.0569299E+04;  0.0000000E+00;  1.9169679E+00;  4.0000000E+04;  0.0000000E+00;  3.9470945E+04;  1.3589131E+00;  0.0000000E+00;  7.1065724E-02;  6.8307207E+03;
  1.3404877E+00;  9.9999998E-03;  2.5174564E-01;9315;  1.3898385E+00;  0.0000000E+00;  5.6872204E-02;  9.9909460E+02;  1.1515953E-01; -7.2648401E+02;3;  1.4185254E+01;  0.0000000E+00; -1.8981667E+01;0;  1.3069048E+00;  3.0502594E+04;  0.0000000E+00;  7.9061022E+00;  4.0000000E+04;  0.0000000E+00;  3.9481121E+04;  1.2134291E+00;  0.0000000E+00;  9.3475655E-02;  1.3635516E+04;
  1.3408247E+00;  9.9999998E-03;  2.4165091E-01;9314;  1.3845663E+00;  0.0000000E+00;  5.8269374E-02;  9.9841467E+02;  1.1515377E-01; -1.2718441E+03;3;  1.7079346E+01;  0.0000000E+00; -1.7763832E+01;0;  1.1905763E+00;  3.0457693E+04;  0.0000000E+00;  1.4374151E+01;  4.0000000E+04;  0.0000000E+00;  3.9490016E+04;  1.0731605E+00;  0.0000000E+00;  1.1741579E-01;  2.0714498E+04;
  1.3509560E+00;  9.9999998E-03;  2.7198559E-01;9373;  1.4082094E+00;  0.0000000E+00;  5.5633102E-02;  1.0013926E+03;  1.1410670E-01;  1.1116949E+03;3;  1.3859365E+01;  0.0000000E+00; -1.7510599E+01;0;  1.3271637E+00;  3.1254436E+04;  0.0000000E+00;  6.7607937E+00;  4.0000000E+04;  0.0000000E+00;  3.9432094E+04;  1.2328677E+00;  0.0000000E+00;  9.4295956E-02;  6.6029238E+03;
  1.3511882E+00;  9.9999998E-03;  2.6191723E-01;9372;  1.4001504E+00;  0.0000000E+00;  5.4779947E-02;  1.0006573E+03;  1.1409985E-01;  5.2466504E+02;3;  1.6926687E+01;  0.0000000E+00; -1.5874433E+01;0;  1.1619000E+00;  3.1206422E+04;  0.0000000E+00;  2.8104694E+00;  4.0000000E+04;  0.0000000E+00;  3.9439766E+04;  1.0712686E+00;  0.0000000E+00;  9.0631515E-02;  6.6751919E+03;
  1.3514723E+00;  9.9999998E-03;  2.5183886E-01;9371;  1.3941782E+00;  0.0000000E+00;  5.5154122E-02;  9.9949469E+02;  1.1409574E-01; -4.0328644E+02;3;  1.9379070E+01;  0.0000000E+00; -1.5018465E+01;0;  1.0491078E+00;  3.1125865E+04;  0.0000000E+00;  9.1556482E+00;  4.0000000E+04;  0.0000000E+00;  3.9448418E+04;  9.3808544E-01;  0.0000000E+00;  1.1102233E-01;  1.4333893E+04;
  1.3518193E+00;  9.9999998E-03;  2.4174918E-01;9370;  1.3880823E+00;  0.0000000E+00;  5.5956233E-02;  9.9834662E+02;  1.1409165E-01; -1.3192620E+03;3;  2.1559483E+01;  0.0000000E+00; -1.4235039E+01;0;  9.5282626E-01;  3.1049297E+04;  0.0000000E+00;  1.6722935E+01;  4.0000000E+04;  0.0000000E+00;  3.9457918E+04;  8.1441426E-01;  0.0000000E+00;  1.3841198E-01;  2.2450129E+04;
  1.3619082E+00;  9.9999998E-03;  2.7207088E-01;9428;  1.4137522E+00;  0.0000000E+00;  5.5719841E-02;  1.0019580E+03;  1.1317162E-01;  1.5534000E+03;3;  1.8438250E+01;  0.0000000E+00; -1.4240298E+01;0;  1.1270685E+00;  3.1826139E+04;  0.0000000E+00;  1.1370142E+01;  4.0000000E+04;  0.0000000E+00;  3.9403066E+04;  1.0040929E+00;  0.0000000E+00;  1.2297554E-01;  7.7917290E+03;
  1.3621515E+00;  9.9999998E-03;  2.6201180E-01;9427;  1.4047366E+00;  0.0000000E+00;  5.3919245E-02;  1.0012200E+03;  1.1316754E-01;  9.6774078E+02;3;  2.1084858E+01;  0.0000000E+00; -1.2577192E+01;0;  9.5817047E-01;  3.1784660E+04;  0.0000000E+00;  2.3977571E+00;  4.0000000E+04;  0.0000000E+00;  3.9407629E+04;  8.4503049E-01;  0.0000000E+00;  1.1314000E-01;  4.9441069E+03;
  1.3623971E+00;  9.9999998E-03;  2.5194192E-01;9426;  1.3971450E+00;  0.0000000E+00;  5.3073529E-02;  1.0001198E+03;  1.1316278E-01;  9.5019913E+01;3;  2.3003773E+01;  0.0000000E+00; -1.1666182E+01;0;  8.4166694E-01;  3.1710818E+04;  0.0000000E+00;  7.4231887E+00;  4.0000000E+04;  0.0000000E+00;  3.9413402E+04;  7.1682155E-01;  0.0000000E+00;  1.2484539E-01;  1.1367272E+04;
  1.3627216E+00;  9.9999998E-03;  2.4186066E-01;9425;  1.3904825E+00;  0.0000000E+00;  5.3222205E-02;  9.9865582E+02;  1.1315914E-01; -1.0659021E+03;3;  2.4872154E+01;  0.0000000E+00; -1.0952909E+01;0;  7.6090860E-01;  3.1613127E+04;  0.0000000E+00;  1.6687084E+01;  4.0000000E+04;  0.0000000E+00;  3.9421141E+04;  6.0761452E-01;  0.0000000E+00;  1.5329412E-01;  2.1149090E+04;
  1.3730906E+00;  9.9999998E-03;  2.6210853E-01;9481;  1.4076024E+00;  0.0000000E+00;  5.2619483E-02;  1.0015892E+03;  1.1235024E-01;  1.2516050E+03;3;  2.4332771E+01;  0.0000000E+00; -9.3994484E+00;0;  8.0194849E-01;  3.2293629E+04;  0.0000000E+00;  4.3195295E+00;  4.0000000E+04;  0.0000000E+00;  3.9378375E+04;  6.7057234E-01;  0.0000000E+00;  1.3137616E-01;  4.0787559E+03;
  1.3732977E+00;  9.9999998E-03;  2.5205061E-01;9480;  1.3992755E+00;  0.0000000E+00;  5.0847705E-02;  1.0007783E+03;  1.1234716E-01;  6.1289777E+02;3;  2.5829275E+01;  0.0000000E+00; -9.0941706E+00;0;  6.8409312E-01;  3.2244621E+04;  0.0000000E+00;  3.4882495E+00;  4.0000000E+04;  0.0000000E+00;  3.9378648E+04;  5.4753000E-01;  0.0000000E+00;  1.3656312E-01;  6.1333755E+03;
  1.3735690E+00;  9.9999998E-03;  2.4197975E-01;9479;  1.3920171E+00;  0.0000000E+00;  5.0246306E-02;  9.9932941E+02;  1.1234304E-01; -5.2798242E+02;3;  2.7127249E+01;  0.0000000E+00; -8.3788071E+00;0;  6.1079645E-01;  3.2148865E+04;  0.0000000E+00;  1.3253098E+01;  4.0000000E+04;  0.0000000E+00;  3.9382770E+04;  4.4814229E-01;  0.0000000E+00;  1.6265415E-01;  1.6266461E+04;
  1.3839147E+00;  9.9999998E-03;  2.6221254E-01;9534;  1.4108921E+00;  0.0000000E+00;  5.1250447E-02;  1.0023781E+03;  1.1163545E-01;  1.8577745E+03;3;  2.8179077E+01;  0.0000000E+00; -6.4943547E+00;0;  7.1048892E-01;  3.2783254E+04;  0.0000000E+00;  1.1204375E+01;  4.0000000E+04;  0.0000000E+00;  3.9343488E+04;  5.6099933E-01;  0.0000000E+00;  1.4948957E-01;  5.7245039E+03;
  1.3841866E+00;  9.9999998E-03;  2.5216120E-01;9533;  1.4009106E+00;  0.0000000E+00;  4.8759177E-02;  1.0012552E+03;  1.1163647E-01;  9.8040442E+02;3;  2.8296114E+01;  0.0000000E+00; -6.4135733E+00;0;  5.7711232E-01;  3.2714158E+04;  0.0000000E+00;  1.3495878E+00;  4.0000000E+04;  0.0000000E+00;  3.9345840E+04;  4.2787650E-01;  0.0000000E+00;  1.4923581E-01;  3.1691973E+03;
  1.3843992E+00;  9.9999998E-03;  2.4210189E-01;9532;  1.3930395E+00;  0.0000000E+00;  4.7357451E-02;  1.0001601E+03;  1.1163343E-01;  1.2501968E+02;3;  2.9221586E+01;  0.0000000E+00; -6.1949615E+00;0;  5.0244415E-01;  3.2644738E+04;  0.0000000E+00;  6.7714105E+00;  4.0000000E+04;  0.0000000E+00;  3.9345434E+04;  3.3258602E-01;  0.0000000E+00;  1.6985813E-01;  8.7929346E+03;
  1.3949888E+00;  9.9999998E-03;  2.5227639E-01;9585;  1.4033735E+00;  0.0000000E+00;  4.7206562E-02;  1.0019924E+03;  1.1101704E-01;  1.5417544E+03;3;  3.1094614E+01;  0.0000000E+00; -3.7390249E+00;0;  5.3456587E-01;  3.3156684E+04;  0.0000000E+00;  6.0781622E+00;  4.0000000E+04;  0.0000000E+00;  3.9308371E+04;  3.6594805E-01;  0.0000000E+00;  1.6861781E-01;  3.1595713E+03;
  1.3952203E+00;  9.9999998E-03;  2.4222486E-01;9584;  1.3941687E+00;  0.0000000E+00;  4.4998810E-02;  1.0009247E+03;  1.1101739E-01;  7.1537885E+02;3;  3.1093395E+01;  0.0000000E+00; -4.0625696E+00;0;  4.4269264E-01;  3.3088875E+04;  0.0000000E+00;  1.1655911E+00;  4.0000000E+04;  0.0000000E+00;  3.9308887E+04;  2.6161188E-01;  0.0000000E+00;  1.8108077E-01;  2.8375046E+03;
  1.4059902E+00;  9.9999998E-03;  2.4234946E-01;9634;  1.3960999E+00;  0.0000000E+00;  4.3211743E-02;  1.0017488E+03;  1.1048342E-01;  1.3386818E+03;3;  3.3492031E+01;  0.0000000E+00; -1.5838856E+00;0;  4.3655479E-01;  3.3496359E+04;  0.0000000E+00;  2.9785855E+00;  4.0000000E+04;  0.0000000E+00;  3.9268473E+04;  2.3880315E-01;  0.0000000E+00;  1.9775163E-01;  2.0097053E+03;
